# vtk DataFile Version 3.0
# Dislocation lines converted from MoDELib file
ASCII
DATASET UNSTRUCTURED_GRID
POINTS 5112 double
-1.429999999999877e+00  3.863858941524650e+02 -2.918975276816622e+03
-1.429999999999897e+00 -3.863858941524674e+02 -2.918975276816622e+03
-1.429999999999897e+00  0.000000000000000e+00 -2.918975276816622e+03
-1.430000000000221e+00  0.000000000000000e+00  2.918975276816619e+03
-1.430000000000221e+00 -3.863858941524674e+02  2.918975276816619e+03
-1.430000000000201e+00  3.863858941524653e+02  2.918975276816619e+03
-1.147600174476676e+03  1.433620916084860e+00 -2.918975276816622e+03
-1.147818282143885e+03 -1.062917837874374e+00 -2.918975276816622e+03
-1.148488838230486e+03 -2.079628202245144e+00 -2.918975276816622e+03
-1.149371338718091e+03 -3.130531275816753e+00 -2.918975276816622e+03
-1.148243518672166e+03 -4.124351414744675e+00 -2.918975276816622e+03
-1.147724920658561e+03 -5.858354259893146e+00 -2.918975276816622e+03
-1.148697529967670e+03 -5.499112456207619e+00 -2.918975276816622e+03
-1.148804507630341e+03 -6.680681480297821e+00 -2.918975276816622e+03
-1.148390911304770e+03 -7.994520077107012e+00 -2.918975276816622e+03
-1.146869467399946e+03 -1.032611294679922e+01 -2.918975276816622e+03
-1.147857894133291e+03 -1.078031235698356e+01 -2.918975276816622e+03
-1.147586958554063e+03 -1.105864119229799e+01 -2.918975276816622e+03
-1.147801293737947e+03 -1.174621883110461e+01 -2.918975276816622e+03
-1.147459731466574e+03 -1.345694229889573e+01 -2.918975276816622e+03
-1.147119213249453e+03 -1.439717559318295e+01 -2.918975276816622e+03
-1.147135231462839e+03 -1.728031612639145e+01 -2.918975276816622e+03
-1.147985606564074e+03 -2.025266334567897e+01 -2.918975276816622e+03
-1.149083558414070e+03 -2.230902260013383e+01 -2.918975276816622e+03
-1.147774491311723e+03 -2.199686347947438e+01 -2.918975276816622e+03
-1.148024064102757e+03 -2.386901560319267e+01 -2.918975276816622e+03
-1.148661594811674e+03 -2.652878563400289e+01 -2.918975276816622e+03
-1.148640616551090e+03 -2.670053569775343e+01 -2.918975276816622e+03
-1.147898500920101e+03 -2.891882263603173e+01 -2.918975276816622e+03
-1.149536962432031e+03 -2.933340286522986e+01 -2.918975276816622e+03
-1.148509119356155e+03 -3.108352794712296e+01 -2.918975276816622e+03
-1.148075486175757e+03 -3.208826382431799e+01 -2.918975276816622e+03
-1.147948558191726e+03 -3.324794031556712e+01 -2.918975276816622e+03
-1.147472990348490e+03 -3.410166718950440e+01 -2.918975276816622e+03
-1.148130861493198e+03 -3.541664622256827e+01 -2.918975276816622e+03
-1.148248231035369e+03 -3.560019238778005e+01 -2.918975276816622e+03
-1.146971286050524e+03 -3.634321684684954e+01 -2.918975276816622e+03
-1.146933933695656e+03 -3.732778631183487e+01 -2.918975276816622e+03
-1.147202235083007e+03 -3.886828137786866e+01 -2.918975276816622e+03
-1.147825437372367e+03 -4.033903394070250e+01 -2.918975276816622e+03
-1.148135410323946e+03 -4.135559900954342e+01 -2.918975276816622e+03
-1.147892312092599e+03 -4.359208259374829e+01 -2.918975276816622e+03
-1.147455131040061e+03 -4.465114076682210e+01 -2.918975276816622e+03
-1.147485097571480e+03 -4.625815063708212e+01 -2.918975276816622e+03
-1.148010969458733e+03 -4.726119801203946e+01 -2.918975276816622e+03
-1.148322985707403e+03 -4.972858750591946e+01 -2.918975276816622e+03
-1.148126306427625e+03 -5.062729636782031e+01 -2.918975276816622e+03
-1.147615096092440e+03 -5.204271586595227e+01 -2.918975276816622e+03
-1.147325499306433e+03 -5.413805227526166e+01 -2.918975276816622e+03
-1.147043766145160e+03 -5.445790237441869e+01 -2.918975276816622e+03
-1.148105467441849e+03 -5.532180062559075e+01 -2.918975276816622e+03
-1.148228762074588e+03 -5.553310092072196e+01 -2.918975276816622e+03
-1.146998839947547e+03 -5.635475100431516e+01 -2.918975276816622e+03
-1.147035004968333e+03 -5.734048414029347e+01 -2.918975276816622e+03
-1.147285448269442e+03 -5.887058696500805e+01 -2.918975276816622e+03
-1.147836824205313e+03 -6.030139114132550e+01 -2.918975276816622e+03
-1.148152516898134e+03 -6.131699709844869e+01 -2.918975276816622e+03
-1.147904392680630e+03 -6.356535790493878e+01 -2.918975276816622e+03
-1.147499873550607e+03 -6.461217682619949e+01 -2.918975276816622e+03
-1.147521905324517e+03 -6.609879829484380e+01 -2.918975276816622e+03
-1.148017543490907e+03 -6.723026733750352e+01 -2.918975276816622e+03
-1.148327182187505e+03 -6.969749004777431e+01 -2.918975276816622e+03
-1.148126926877165e+03 -7.059415370170031e+01 -2.918975276816622e+03
-1.147616759720339e+03 -7.201505450764637e+01 -2.918975276816622e+03
-1.147327402459205e+03 -7.411566735392536e+01 -2.918975276816622e+03
-1.147077203938748e+03 -7.442728806525324e+01 -2.918975276816622e+03
-1.148112467645959e+03 -7.528163128647898e+01 -2.918975276816622e+03
-1.148225847670964e+03 -7.549922930952913e+01 -2.918975276816622e+03
-1.147001088962289e+03 -7.631262179426994e+01 -2.918975276816622e+03
-1.147040635270751e+03 -7.729601508651874e+01 -2.918975276816622e+03
-1.147289855080493e+03 -7.884463494288896e+01 -2.918975276816622e+03
-1.147837598581350e+03 -8.026847950491486e+01 -2.918975276816622e+03
-1.148155825917026e+03 -8.128331107800373e+01 -2.918975276816622e+03
-1.147903391828735e+03 -8.353691066644323e+01 -2.918975276816622e+03
-1.147464862711280e+03 -8.458828472528924e+01 -2.918975276816622e+03
-1.147493406077843e+03 -8.619027433211113e+01 -2.918975276816622e+03
-1.148016081432888e+03 -8.719809796716453e+01 -2.918975276816622e+03
-1.148327020135182e+03 -8.966696910536777e+01 -2.918975276816622e+03
-1.148126270666398e+03 -9.056380655309890e+01 -2.918975276816622e+03
-1.147623713179170e+03 -9.198549256802546e+01 -2.918975276816622e+03
-1.147351968293856e+03 -9.408237997326137e+01 -2.918975276816622e+03
-1.147017652870479e+03 -9.437820451812286e+01 -2.918975276816622e+03
-1.148096473540514e+03 -9.526706130239602e+01 -2.918975276816622e+03
-1.148232386724384e+03 -9.547037046147973e+01 -2.918975276816622e+03
-1.146991986976178e+03 -9.630907452478127e+01 -2.918975276816622e+03
-1.147028444581990e+03 -9.729423610435967e+01 -2.918975276816622e+03
-1.147275720971632e+03 -9.879604922474455e+01 -2.918975276816622e+03
-1.147837157974899e+03 -1.002430873797242e+02 -2.918975276816622e+03
-1.148150723115733e+03 -1.012551280280870e+02 -2.918975276816622e+03
-1.147907784997058e+03 -1.034973771635821e+02 -2.918975276816622e+03
-1.147502203324139e+03 -1.045525505618434e+02 -2.918975276816622e+03
-1.147522942830901e+03 -1.060372724776567e+02 -2.918975276816622e+03
-1.148018178571751e+03 -1.071638323715612e+02 -2.918975276816622e+03
-1.148329345660051e+03 -1.096345815669666e+02 -2.918975276816622e+03
-1.148127935748064e+03 -1.105325913801135e+02 -2.918975276816622e+03
-1.147619967119853e+03 -1.119528652500533e+02 -2.918975276816622e+03
-1.147334024229258e+03 -1.140545425428167e+02 -2.918975276816622e+03
-1.147067636253763e+03 -1.143609954699995e+02 -2.918975276816622e+03
-1.148109870229948e+03 -1.152208722148496e+02 -2.918975276816622e+03
-1.148227797159674e+03 -1.154379410086878e+02 -2.918975276816622e+03
-1.147001514110728e+03 -1.162494441773679e+02 -2.918975276816622e+03
-1.147043412264988e+03 -1.172327850904392e+02 -2.918975276816622e+03
-1.147289770878668e+03 -1.187802263741564e+02 -2.918975276816622e+03
-1.147838034157607e+03 -1.202049890767066e+02 -2.918975276816622e+03
-1.148156081503040e+03 -1.212186927315507e+02 -2.918975276816622e+03
-1.147904027461722e+03 -1.234692681850849e+02 -2.918975276816622e+03
-1.147464079258924e+03 -1.245273919315172e+02 -2.918975276816622e+03
-1.147494665538597e+03 -1.261274213903862e+02 -2.918975276816622e+03
-1.148018962227292e+03 -1.271345336667474e+02 -2.918975276816622e+03
-1.148328732398482e+03 -1.296037771246770e+02 -2.918975276816622e+03
-1.148128108239423e+03 -1.305002236102173e+02 -2.918975276816622e+03
-1.147621050423799e+03 -1.319220484084741e+02 -2.918975276816622e+03
-1.147338643466325e+03 -1.340262859664607e+02 -2.918975276816622e+03
-1.147076569722132e+03 -1.343268321978435e+02 -2.918975276816622e+03
-1.148111125504441e+03 -1.351868152868970e+02 -2.918975276816622e+03
-1.148228404328655e+03 -1.354055113130279e+02 -2.918975276816622e+03
-1.147002168667149e+03 -1.362218350532121e+02 -2.918975276816622e+03
-1.147042878788854e+03 -1.372074220697910e+02 -2.918975276816622e+03
-1.147290534481697e+03 -1.387490369576831e+02 -2.918975276816622e+03
-1.147838333478502e+03 -1.401732714634661e+02 -2.918975276816622e+03
-1.148156315474128e+03 -1.411881375514031e+02 -2.918975276816622e+03
-1.147906823053834e+03 -1.434382198574709e+02 -2.918975276816622e+03
-1.147501876410017e+03 -1.444859518886988e+02 -2.918975276816622e+03
-1.147522917981253e+03 -1.459735072643240e+02 -2.918975276816622e+03
-1.148018461671794e+03 -1.471009581741330e+02 -2.918975276816622e+03
-1.148330181953055e+03 -1.495718120451328e+02 -2.918975276816622e+03
-1.148127479148254e+03 -1.504701442133118e+02 -2.918975276816622e+03
-1.147620968435436e+03 -1.518899686920550e+02 -2.918975276816622e+03
-1.147339669183179e+03 -1.539951890182749e+02 -2.918975276816622e+03
-1.147081231919675e+03 -1.542945321336029e+02 -2.918975276816622e+03
-1.148111640923084e+03 -1.551534596834359e+02 -2.918975276816622e+03
-1.148229278373044e+03 -1.553741999596762e+02 -2.918975276816622e+03
-1.147003641080249e+03 -1.561925848498796e+02 -2.918975276816622e+03
-1.147042412795146e+03 -1.571755036276190e+02 -2.918975276816622e+03
-1.147289270691799e+03 -1.587145835721113e+02 -2.918975276816622e+03
-1.147839104770355e+03 -1.601418572157808e+02 -2.918975276816622e+03
-1.148158136147215e+03 -1.611555333741909e+02 -2.918975276816622e+03
-1.147906539661261e+03 -1.634091447476062e+02 -2.918975276816622e+03
-1.147467220824884e+03 -1.644629170600451e+02 -2.918975276816622e+03
-1.147494876654254e+03 -1.660617532381886e+02 -2.918975276816622e+03
-1.148017921725431e+03 -1.670713980361226e+02 -2.918975276816622e+03
-1.148329426997895e+03 -1.695398762114581e+02 -2.918975276816622e+03
-1.148128607206570e+03 -1.704366331105885e+02 -2.918975276816622e+03
-1.147624229615962e+03 -1.718618065750938e+02 -2.918975276816622e+03
-1.147346984831496e+03 -1.739692896373388e+02 -2.918975276816622e+03
-1.147087927206421e+03 -1.742592885058479e+02 -2.918975276816622e+03
-1.148112668520132e+03 -1.751211141156622e+02 -2.918975276816622e+03
-1.148228458333487e+03 -1.753405362921670e+02 -2.918975276816622e+03
-1.147002063549450e+03 -1.761628506545043e+02 -2.918975276816622e+03
-1.147043305866108e+03 -1.771427584567718e+02 -2.918975276816622e+03
-1.147288422655580e+03 -1.786806604467820e+02 -2.918975276816622e+03
-1.147839440991110e+03 -1.801098219862634e+02 -2.918975276816622e+03
-1.148158468847488e+03 -1.811234626484252e+02 -2.918975276816622e+03
-1.147906521956761e+03 -1.833765163088719e+02 -2.918975276816622e+03
-1.147466809410659e+03 -1.844314534503375e+02 -2.918975276816622e+03
-1.147495590546245e+03 -1.860294961411715e+02 -2.918975276816622e+03
-1.148019278636051e+03 -1.870403499366813e+02 -2.918975276816622e+03
-1.148329745090876e+03 -1.895081305308526e+02 -2.918975276816622e+03
-1.148128996341131e+03 -1.904042425138369e+02 -2.918975276816622e+03
-1.147623645812330e+03 -1.918298564250502e+02 -2.918975276816622e+03
-1.147344144911504e+03 -1.939373622915660e+02 -2.918975276816622e+03
-1.147095739777492e+03 -1.942298356593219e+02 -2.918975276816622e+03
-1.148115371005869e+03 -1.950872171090919e+02 -2.918975276816622e+03
-1.148228157901890e+03 -1.953083279838411e+02 -2.918975276816622e+03
-1.147003279483785e+03 -1.961267266934622e+02 -2.918975276816622e+03
-1.147042268080265e+03 -1.971051350905466e+02 -2.918975276816622e+03
-1.147289143105384e+03 -1.986496279910309e+02 -2.918975276816622e+03
-1.147839853641578e+03 -2.000766364861202e+02 -2.918975276816622e+03
-1.148158474170441e+03 -2.010920265394581e+02 -2.918975276816622e+03
-1.147907629607271e+03 -2.033432525130698e+02 -2.918975276816622e+03
-1.147502185724992e+03 -2.043905364191510e+02 -2.918975276816622e+03
-1.147524354703865e+03 -2.058765836077681e+02 -2.918975276816622e+03
-1.148020703567011e+03 -2.070078427626265e+02 -2.918975276816622e+03
-1.148331248365120e+03 -2.094772818612663e+02 -2.918975276816622e+03
-1.148127913865758e+03 -2.103743801189628e+02 -2.918975276816622e+03
-1.147624157444395e+03 -2.117975925353896e+02 -2.918975276816622e+03
-1.147348056289792e+03 -2.139051181550702e+02 -2.918975276816622e+03
-1.147089741346208e+03 -2.141955940785972e+02 -2.918975276816622e+03
-1.148113310443124e+03 -2.150567884442519e+02 -2.918975276816622e+03
-1.148230098081099e+03 -2.152784590542851e+02 -2.918975276816622e+03
-1.147004033429627e+03 -2.160980324684346e+02 -2.918975276816622e+03
-1.147044226150663e+03 -2.170774873314867e+02 -2.918975276816622e+03
-1.147288998316337e+03 -2.186169251061374e+02 -2.918975276816622e+03
-1.147839975413147e+03 -2.200459125846887e+02 -2.918975276816622e+03
-1.148158956395212e+03 -2.210596843532423e+02 -2.918975276816622e+03
-1.147906411613412e+03 -2.233115228464968e+02 -2.918975276816622e+03
-1.147466251930668e+03 -2.243684959471212e+02 -2.918975276816622e+03
-1.147495699539657e+03 -2.259680994830836e+02 -2.918975276816622e+03
-1.148019885684332e+03 -2.269760837599908e+02 -2.918975276816622e+03
-1.148330198132441e+03 -2.294457220437220e+02 -2.918975276816622e+03
-1.148128812369645e+03 -2.303422938773085e+02 -2.918975276816622e+03
-1.147623502576754e+03 -2.317649512950640e+02 -2.918975276816622e+03
-1.147346342190945e+03 -2.338721767174229e+02 -2.918975276816622e+03
-1.147090875818836e+03 -2.341645866978594e+02 -2.918975276816622e+03
-1.148114060437368e+03 -2.350252446403871e+02 -2.918975276816622e+03
-1.148229384864411e+03 -2.352456366106763e+02 -2.918975276816622e+03
-1.146999185407869e+03 -2.360556481650727e+02 -2.918975276816622e+03
-1.147035905035064e+03 -2.370286892064827e+02 -2.918975276816622e+03
-1.147281865413360e+03 -2.385763902724434e+02 -2.918975276816622e+03
-1.147833531486111e+03 -2.400115476114250e+02 -2.918975276816622e+03
-1.148147639481495e+03 -2.410260419225227e+02 -2.918975276816622e+03
-1.147885753366138e+03 -2.432821017300292e+02 -2.918975276816622e+03
-1.147435131785976e+03 -2.443327594330202e+02 -2.918975276816622e+03
-1.147452752996370e+03 -2.459528488799679e+02 -2.918975276816622e+03
-1.147867029601878e+03 -2.469450391813696e+02 -2.918975276816622e+03
-1.147835605769006e+03 -2.497121716449733e+02 -2.918975276816622e+03
-1.147454829786465e+03 -2.507556596261206e+02 -2.918975276816622e+03
-1.147857787361591e+03 -2.516689673378521e+02 -2.918975276816622e+03
-1.147824795954863e+03 -2.542732690381586e+02 -2.918975276816622e+03
-1.147422397214461e+03 -2.553054022774607e+02 -2.918975276816622e+03
-1.147474340757285e+03 -2.569339010819233e+02 -2.918975276816622e+03
-1.148013604430385e+03 -2.579270562661183e+02 -2.918975276816622e+03
-1.148334935811281e+03 -2.603959441760654e+02 -2.918975276816622e+03
-1.148135023825555e+03 -2.612923157261000e+02 -2.918975276816622e+03
-1.147697223470073e+03 -2.628087369328624e+02 -2.918975276816622e+03
-1.147403943948038e+03 -2.646836025148133e+02 -2.918975276816622e+03
-1.147851379393564e+03 -2.651137827833526e+02 -2.918975276816622e+03
-1.148395103682146e+03 -2.655328020746877e+02 -2.918975276816622e+03
-1.148238805043527e+03 -2.668447193110479e+02 -2.918975276816622e+03
-1.147360289926546e+03 -2.681567464011102e+02 -2.918975276816622e+03
-1.147603133043601e+03 -2.688107748177932e+02 -2.918975276816622e+03
-1.148696598053842e+03 -2.699195389160798e+02 -2.918975276816622e+03
-1.148987734561241e+03 -2.707916735728498e+02 -2.918975276816622e+03
-1.150119686404013e+03 -2.720098541569234e+02 -2.918975276816622e+03
-1.148693937148588e+03 -2.730817867491678e+02 -2.918975276816622e+03
-1.149329752123116e+03 -2.742781337932474e+02 -2.918975276816622e+03
-1.148166949737545e+03 -2.757604737964395e+02 -2.918975276816622e+03
-1.149102267655334e+03 -2.773243204297914e+02 -2.918975276816622e+03
-1.148877635751609e+03 -2.803926855976014e+02 -2.918975276816622e+03
-1.148972668630692e+03 -2.816164068356224e+02 -2.918975276816622e+03
-1.149218062466280e+03 -2.828423042955539e+02 -2.918975276816622e+03
-1.147604372594514e+03 -2.834627549735566e+02 -2.918975276816622e+03
-1.148706315229897e+03 -2.840703477741677e+02 -2.918975276816622e+03
-1.148996907326733e+03 -2.857903885325701e+02 -2.918975276816622e+03
-1.148387382434877e+03 -2.866144278686420e+02 -2.918975276816622e+03
-1.148135419743636e+03 -2.881115104791006e+02 -2.918975276816622e+03
-1.148643564311610e+03 -2.889922698250691e+02 -2.918975276816622e+03
-1.148410353634586e+03 -2.895573176497450e+02 -2.918975276816622e+03
-1.149275407880848e+03 -2.906667441648525e+02 -2.918975276816622e+03
-1.148885263387474e+03 -2.921605535927716e+02 -2.918975276816622e+03
-1.147096860034835e+03 -2.924105333371222e+02 -2.918975276816622e+03
-1.148469814464355e+03 -2.936957213766158e+02 -2.918975276816622e+03
-1.148686819613388e+03 -2.946176354929988e+02 -2.918975276816622e+03
-1.149063248184797e+03 -2.970950740634239e+02 -2.918975276816622e+03
-1.148980173974608e+03 -2.979975260950934e+02 -2.918975276816622e+03
-1.148911188285542e+03 -2.988967994701240e+02 -2.918975276816622e+03
-1.148667981036417e+03 -3.002342783158387e+02 -2.918975276816622e+03
-1.148084314741341e+03 -3.035135158811490e+02 -2.918975276816622e+03
-1.147541065538252e+03 -3.049937279813293e+02 -2.918975276816622e+03
-1.147984481241011e+03 -3.061267683757068e+02 -2.918975276816622e+03
-1.148868904878294e+03 -3.067147650439344e+02 -2.918975276816622e+03
-1.148301225832613e+03 -3.073827924377757e+02 -2.918975276816622e+03
-1.147023467491563e+03 -3.089994866619052e+02 -2.918975276816622e+03
-1.147372813676237e+03 -3.096218088538790e+02 -2.918975276816622e+03
-1.147809941650254e+03 -3.110211011058814e+02 -2.918975276816622e+03
-1.148566908162297e+03 -3.116871343943266e+02 -2.918975276816622e+03
-1.148256953268266e+03 -3.120671985872781e+02 -2.918975276816622e+03
-1.147248763344903e+03 -3.136815274701062e+02 -2.918975276816622e+03
-1.147178983619827e+03 -3.137694740279982e+02 -2.918975276816622e+03
-1.148354222405410e+03 -3.151076382095808e+02 -2.918975276816622e+03
-1.148390883784438e+03 -3.172666044231046e+02 -2.918975276816622e+03
-1.148640553741340e+03 -3.177886777036126e+02 -2.918975276816622e+03
-1.148500882505154e+03 -3.195537434765015e+02 -2.918975276816622e+03
-1.148898983540327e+03 -3.206440582973577e+02 -2.918975276816622e+03
-1.147894888294099e+03 -3.219118602852449e+02 -2.918975276816622e+03
-1.148181377933544e+03 -3.242837908273870e+02 -2.918975276816622e+03
-1.147845174308527e+03 -3.250305623787419e+02 -2.918975276816622e+03
-1.147680182955407e+03 -3.265022186320907e+02 -2.918975276816622e+03
-1.147034986603326e+03 -3.270060058491026e+02 -2.918975276816622e+03
-1.147935842323573e+03 -3.289379794927638e+02 -2.918975276816622e+03
-1.148035452259568e+03 -3.294777600014806e+02 -2.918975276816622e+03
-1.148671092041800e+03 -3.304191620873549e+02 -2.918975276816622e+03
-1.148695781540441e+03 -3.316959672389142e+02 -2.918975276816622e+03
-1.148806135780030e+03 -3.323410429322832e+02 -2.918975276816622e+03
-1.149344680154495e+03 -3.353908628241697e+02 -2.918975276816622e+03
-1.148365074712214e+03 -3.373727504035640e+02 -2.918975276816622e+03
-1.147389374733935e+03 -3.373434156598801e+02 -2.918975276816622e+03
-1.148302933954155e+03 -3.387157822504199e+02 -2.918975276816622e+03
-1.149050298642225e+03 -3.402523856783960e+02 -2.918975276816622e+03
-1.149256868675393e+03 -3.421179321000312e+02 -2.918975276816622e+03
-1.148263611724798e+03 -3.427531564120243e+02 -2.918975276816622e+03
-1.149088073506799e+03 -3.439641603401386e+02 -2.918975276816622e+03
-1.148394834538921e+03 -3.456579636868512e+02 -2.918975276816622e+03
-1.148566798481719e+03 -3.467163899309235e+02 -2.918975276816622e+03
-1.147872870466512e+03 -3.465320483164786e+02 -2.918975276816622e+03
-1.147700019228879e+03 -3.475258375618358e+02 -2.918975276816622e+03
-1.148339281421858e+03 -3.491060702952291e+02 -2.918975276816622e+03
-1.148894279983498e+03 -3.510959955713147e+02 -2.918975276816622e+03
-1.148129150864952e+03 -3.515808646655102e+02 -2.918975276816622e+03
-1.147946228213841e+03 -3.523197404999423e+02 -2.918975276816622e+03
-1.146917062386214e+03 -3.538188942030754e+02 -2.918975276816622e+03
-1.147154003785833e+03 -3.551315618017996e+02 -2.918975276816622e+03
-1.147634690850837e+03 -3.556827695245865e+02 -2.918975276816622e+03
-1.148104701110150e+03 -3.563030060941886e+02 -2.918975276816622e+03
-1.147233474385760e+03 -3.572437267534644e+02 -2.918975276816622e+03
-1.147480309015819e+03 -3.588574951827136e+02 -2.918975276816622e+03
-1.147839938397969e+03 -3.599293853425900e+02 -2.918975276816622e+03
-1.147978886185499e+03 -3.603283540293780e+02 -2.918975276816622e+03
-1.146831128801541e+03 -3.612383505393992e+02 -2.918975276816622e+03
-1.148166032860212e+03 -3.623517890125665e+02 -2.918975276816622e+03
-1.149696321550243e+03 -3.631236393679229e+02 -2.918975276816622e+03
-1.148052457583259e+03 -3.646119695121869e+02 -2.918975276816622e+03
-1.147720552743674e+03 -3.659180244941103e+02 -2.918975276816622e+03
-1.148062830692943e+03 -3.662608424603977e+02 -2.918975276816622e+03
-1.147677620349786e+03 -3.682245391382935e+02 -2.918975276816622e+03
-1.147942663016707e+03 -3.681718700219334e+02 -2.918975276816622e+03
-1.147921512369740e+03 -3.696044996054111e+02 -2.918975276816622e+03
-1.147164782620778e+03 -3.695396196660777e+02 -2.918975276816622e+03
-1.147557603574704e+03 -3.711602636340187e+02 -2.918975276816622e+03
-1.147418619712995e+03 -3.725982577076591e+02 -2.918975276816622e+03
-1.147449526478693e+03 -3.739211916626404e+02 -2.918975276816622e+03
-1.147033052274436e+03 -3.765207258498952e+02 -2.918975276816622e+03
-1.147909967424283e+03 -3.778311703753733e+02 -2.918975276816622e+03
-1.147468068350873e+03 -3.797725579145009e+02 -2.918975276816622e+03
-1.148429632224222e+03 -3.805709222235993e+02 -2.918975276816622e+03
-1.148188277732398e+03 -3.829001602703563e+02 -2.918975276816622e+03
-1.150312973171950e+03 -3.831097370281290e+02 -2.918975276816622e+03
-1.148262506873202e+03 -3.859747309625230e+02 -2.918975276816622e+03
-1.146696329423678e+03  3.843975681335581e+02 -2.918975276816622e+03
-1.148079201870065e+03  3.833482039916761e+02 -2.918975276816622e+03
-1.147792404158312e+03  3.817526103736502e+02 -2.918975276816622e+03
-1.147831022468286e+03  3.786302756417015e+02 -2.918975276816622e+03
-1.148587488173137e+03  3.775500638517820e+02 -2.918975276816622e+03
-1.148072704919186e+03  3.762943319299519e+02 -2.918975276816622e+03
-1.148271873507645e+03  3.751364491796484e+02 -2.918975276816622e+03
-1.147937559982336e+03  3.749986523098865e+02 -2.918975276816622e+03
-1.148847462911778e+03  3.738420597744951e+02 -2.918975276816622e+03
-1.150597728448170e+03  3.714671734336786e+02 -2.918975276816622e+03
-1.148125436492025e+03  3.709620688064402e+02 -2.918975276816622e+03
-1.148186551530802e+03  3.689515993608459e+02 -2.918975276816622e+03
-1.146420436858352e+03  3.670119595860327e+02 -2.918975276816622e+03
-1.147724196556420e+03  3.651307387496792e+02 -2.918975276816622e+03
-1.148139623680551e+03  3.650417582972220e+02 -2.918975276816622e+03
-1.148489294472358e+03  3.642966274973614e+02 -2.918975276816622e+03
-1.147591789250210e+03  3.618474257922941e+02 -2.918975276816622e+03
-1.148276205358709e+03  3.603142863440509e+02 -2.918975276816622e+03
-1.147281556059680e+03  3.595829315252068e+02 -2.918975276816622e+03
-1.147273322257291e+03  3.581033796057286e+02 -2.918975276816622e+03
-1.148281504804704e+03  3.550826525781623e+02 -2.918975276816622e+03
-1.147914447791494e+03  3.534815861256477e+02 -2.918975276816622e+03
-1.148084679625082e+03  3.517461541088697e+02 -2.918975276816622e+03
-1.147119475334440e+03  3.488101326699069e+02 -2.918975276816622e+03
-1.147677273370663e+03  3.454574661933403e+02 -2.918975276816622e+03
-1.147204423007646e+03  3.433055322518619e+02 -2.918975276816622e+03
-1.148081379735422e+03  3.424288236987089e+02 -2.918975276816622e+03
-1.147871742358564e+03  3.417378738204620e+02 -2.918975276816622e+03
-1.148650530059537e+03  3.408360929667131e+02 -2.918975276816622e+03
-1.150510261855298e+03  3.396043742942302e+02 -2.918975276816622e+03
-1.148475446606675e+03  3.379679416398740e+02 -2.918975276816622e+03
-1.147805209505971e+03  3.372705966418291e+02 -2.918975276816622e+03
-1.148700949029545e+03  3.368758114120133e+02 -2.918975276816622e+03
-1.150605243304578e+03  3.353396873057034e+02 -2.918975276816622e+03
-1.148490051973916e+03  3.339657875339880e+02 -2.918975276816622e+03
-1.147650817097391e+03  3.332725045104789e+02 -2.918975276816622e+03
-1.148093959441459e+03  3.325415322414792e+02 -2.918975276816622e+03
-1.149175412502688e+03  3.305003190031680e+02 -2.918975276816622e+03
-1.150010209529097e+03  3.295307627406369e+02 -2.918975276816622e+03
-1.149311444321421e+03  3.292211411019952e+02 -2.918975276816622e+03
-1.150304105673575e+03  3.273567174968388e+02 -2.918975276816622e+03
-1.148693922949864e+03  3.257022905887679e+02 -2.918975276816622e+03
-1.149433512593891e+03  3.241704781239384e+02 -2.918975276816622e+03
-1.149028848531640e+03  3.231988626867189e+02 -2.918975276816622e+03
-1.150385333729970e+03  3.226179310668854e+02 -2.918975276816622e+03
-1.148538824601050e+03  3.211382736032302e+02 -2.918975276816622e+03
-1.147802616714338e+03  3.205204117451227e+02 -2.918975276816622e+03
-1.147558083982007e+03  3.176862095133555e+02 -2.918975276816622e+03
-1.146004375187648e+03  3.166941748773915e+02 -2.918975276816622e+03
-1.147839179381393e+03  3.155078603234850e+02 -2.918975276816622e+03
-1.148044120766864e+03  3.127583372332816e+02 -2.918975276816622e+03
-1.147075619352350e+03  3.120165548273196e+02 -2.918975276816622e+03
-1.147349571343597e+03  3.105582429972222e+02 -2.918975276816622e+03
-1.147137636286844e+03  3.090373167157136e+02 -2.918975276816622e+03
-1.148013133644003e+03  3.084265238112973e+02 -2.918975276816622e+03
-1.147852963604253e+03  3.056467793742372e+02 -2.918975276816622e+03
-1.147430412242536e+03  3.054663421429059e+02 -2.918975276816622e+03
-1.148471553174608e+03  3.039730863942422e+02 -2.918975276816622e+03
-1.150477333601165e+03  3.029421414015247e+02 -2.918975276816622e+03
-1.149905426716496e+03  3.002253837334143e+02 -2.918975276816622e+03
-1.148166785788091e+03  2.996782401769897e+02 -2.918975276816622e+03
-1.146547175314553e+03  2.992288821755926e+02 -2.918975276816622e+03
-1.147408007910155e+03  2.982573551304175e+02 -2.918975276816622e+03
-1.148064086092863e+03  2.958092968587000e+02 -2.918975276816622e+03
-1.149245893903838e+03  2.947450149886356e+02 -2.918975276816622e+03
-1.148523462627752e+03  2.932842131259217e+02 -2.918975276816622e+03
-1.148202802400033e+03  2.884148290787135e+02 -2.918975276816622e+03
-1.148639483878817e+03  2.875343913360659e+02 -2.918975276816622e+03
-1.148893308653979e+03  2.858804507663465e+02 -2.918975276816622e+03
-1.147862030335828e+03  2.849127852332548e+02 -2.918975276816622e+03
-1.146871482998572e+03  2.849005587968936e+02 -2.918975276816622e+03
-1.147977249303686e+03  2.832788527866077e+02 -2.918975276816622e+03
-1.148203945543641e+03  2.827318940847879e+02 -2.918975276816622e+03
-1.146864182698305e+03  2.813966894759433e+02 -2.918975276816622e+03
-1.147288358539181e+03  2.799028423766160e+02 -2.918975276816622e+03
-1.147849353602171e+03  2.775632325404661e+02 -2.918975276816622e+03
-1.147816733365939e+03  2.760717139248012e+02 -2.918975276816622e+03
-1.148084428098012e+03  2.754376195204509e+02 -2.918975276816622e+03
-1.148115139043030e+03  2.742799053539555e+02 -2.918975276816622e+03
-1.148417727185721e+03  2.717730395012954e+02 -2.918975276816622e+03
-1.148161285795630e+03  2.708738704970191e+02 -2.918975276816622e+03
-1.147684897987522e+03  2.693942009526161e+02 -2.918975276816622e+03
-1.147402281065415e+03  2.674832559324562e+02 -2.918975276816622e+03
-1.147040478714288e+03  2.670378306889583e+02 -2.918975276816622e+03
-1.148102243316343e+03  2.661665251890129e+02 -2.918975276816622e+03
-1.148224514217421e+03  2.659542845712425e+02 -2.918975276816622e+03
-1.147004950067662e+03  2.651190519605088e+02 -2.918975276816622e+03
-1.147032281878254e+03  2.641339385169003e+02 -2.918975276816622e+03
-1.147282129957191e+03  2.626158488214116e+02 -2.918975276816622e+03
-1.147832411326617e+03  2.611875861868328e+02 -2.918975276816622e+03
-1.148144854663805e+03  2.601714136588492e+02 -2.918975276816622e+03
-1.147884936216287e+03  2.579166265146779e+02 -2.918975276816622e+03
-1.147438068090503e+03  2.568731140664016e+02 -2.918975276816622e+03
-1.147451557587238e+03  2.552491949838750e+02 -2.918975276816622e+03
-1.147873871694675e+03  2.542657644282202e+02 -2.918975276816622e+03
-1.147850590543386e+03  2.514956887352028e+02 -2.918975276816622e+03
-1.147471491429040e+03  2.504386081561803e+02 -2.918975276816622e+03
-1.147876776727651e+03  2.495239236241388e+02 -2.918975276816622e+03
-1.147831139340871e+03  2.469268382946024e+02 -2.918975276816622e+03
-1.147429287650148e+03  2.459020808907368e+02 -2.918975276816622e+03
-1.147468681758796e+03  2.442658270318852e+02 -2.918975276816622e+03
-1.148001816180564e+03  2.432786601033644e+02 -2.918975276816622e+03
-1.148314307311206e+03  2.408070711499840e+02 -2.918975276816622e+03
-1.148121166453916e+03  2.399084320108319e+02 -2.918975276816622e+03
-1.147604809745959e+03  2.385042017141770e+02 -2.918975276816622e+03
-1.147304390296470e+03  2.364170352992389e+02 -2.918975276816622e+03
-1.147009775854460e+03  2.360742447546552e+02 -2.918975276816622e+03
-1.148096544450688e+03  2.352089641442620e+02 -2.918975276816622e+03
-1.148225124751478e+03  2.350032224304222e+02 -2.918975276816622e+03
-1.146992996391863e+03  2.341877248107753e+02 -2.918975276816622e+03
-1.147019939494583e+03  2.332050070930167e+02 -2.918975276816622e+03
-1.147274623658894e+03  2.316737179906116e+02 -2.918975276816622e+03
-1.147833157092806e+03  2.302359722065247e+02 -2.918975276816622e+03
-1.148147950901591e+03  2.292211398560264e+02 -2.918975276816622e+03
-1.147902132023167e+03  2.269717592062249e+02 -2.918975276816622e+03
-1.147498254917741e+03  2.259251866181691e+02 -2.918975276816622e+03
-1.147518745355430e+03  2.244387737905306e+02 -2.918975276816622e+03
-1.148013021095805e+03  2.233108455418084e+02 -2.918975276816622e+03
-1.148323523817030e+03  2.208414849809479e+02 -2.918975276816622e+03
-1.148125405119213e+03  2.199433122062149e+02 -2.918975276816622e+03
-1.147610923404235e+03  2.185293702379595e+02 -2.918975276816622e+03
-1.147311645341785e+03  2.164386284944256e+02 -2.918975276816622e+03
-1.147017074917656e+03  2.161063784456197e+02 -2.918975276816622e+03
-1.148098717774057e+03  2.152421662864366e+02 -2.918975276816622e+03
-1.148224990774691e+03  2.150356096129844e+02 -2.918975276816622e+03
-1.146995107517057e+03  2.142183391338126e+02 -2.918975276816622e+03
-1.147024361151336e+03  2.132336585043954e+02 -2.918975276816622e+03
-1.147278899041334e+03  2.117012390716822e+02 -2.918975276816622e+03
-1.147834660436770e+03  2.102674774192628e+02 -2.918975276816622e+03
-1.148149695243107e+03  2.092531950515395e+02 -2.918975276816622e+03
-1.147904253976935e+03  2.070032886054265e+02 -2.918975276816622e+03
-1.147500231938868e+03  2.059559709071115e+02 -2.918975276816622e+03
-1.147520104422495e+03  2.044720058719649e+02 -2.918975276816622e+03
-1.148014376902481e+03  2.033415356527948e+02 -2.918975276816622e+03
-1.148324139074991e+03  2.008740756932766e+02 -2.918975276816622e+03
-1.148127720455875e+03  1.999767288192286e+02 -2.918975276816622e+03
-1.147609794160798e+03  1.985628378442939e+02 -2.918975276816622e+03
-1.147303672454236e+03  1.964731278235712e+02 -2.918975276816622e+03
-1.147020995862583e+03  1.961326908555534e+02 -2.918975276816622e+03
-1.148101682301204e+03  1.952751150090950e+02 -2.918975276816622e+03
-1.148224197578841e+03  1.950675787432990e+02 -2.918975276816622e+03
-1.146996900524389e+03  1.942576726026010e+02 -2.918975276816622e+03
-1.147022728266905e+03  1.932765045196015e+02 -2.918975276816622e+03
-1.147278840686612e+03  1.917336252359346e+02 -2.918975276816622e+03
-1.147834496578939e+03  1.902992576496497e+02 -2.918975276816622e+03
-1.148150176759689e+03  1.892843496862481e+02 -2.918975276816622e+03
-1.147903762769019e+03  1.870337241559931e+02 -2.918975276816622e+03
-1.147500438539375e+03  1.859893626155256e+02 -2.918975276816622e+03
-1.147518941441496e+03  1.845006983923349e+02 -2.918975276816622e+03
-1.148012231029576e+03  1.833764665498276e+02 -2.918975276816622e+03
-1.148324789655916e+03  1.809053471511069e+02 -2.918975276816622e+03
-1.148125915602186e+03  1.800054555826443e+02 -2.918975276816622e+03
-1.147612242140080e+03  1.785926221127316e+02 -2.918975276816622e+03
-1.147313111633592e+03  1.765027149856280e+02 -2.918975276816622e+03
-1.147011193676342e+03  1.761700124179106e+02 -2.918975276816622e+03
-1.148097981361551e+03  1.753040250190038e+02 -2.918975276816622e+03
-1.148226179791100e+03  1.750982566666159e+02 -2.918975276816622e+03
-1.146995894927475e+03  1.742811401900976e+02 -2.918975276816622e+03
-1.147025368353486e+03  1.732962217688849e+02 -2.918975276816622e+03
-1.147279284682603e+03  1.717652084843069e+02 -2.918975276816622e+03
-1.147835067460722e+03  1.703316392526798e+02 -2.918975276816622e+03
-1.148149648733509e+03  1.693164202275688e+02 -2.918975276816622e+03
-1.147902941746968e+03  1.670675886736943e+02 -2.918975276816622e+03
-1.147498787049216e+03  1.660203643840750e+02 -2.918975276816622e+03
-1.147520418887006e+03  1.645344051127659e+02 -2.918975276816622e+03
-1.148015402333037e+03  1.634055669258106e+02 -2.918975276816622e+03
-1.148324633275682e+03  1.609367190119228e+02 -2.918975276816622e+03
-1.148126560634346e+03  1.600394175721692e+02 -2.918975276816622e+03
-1.147612952551567e+03  1.586233852971124e+02 -2.918975276816622e+03
-1.147314244603168e+03  1.565341359854616e+02 -2.918975276816622e+03
-1.147011787535227e+03  1.562027598741415e+02 -2.918975276816622e+03
-1.148098655694124e+03  1.553350628237870e+02 -2.918975276816622e+03
-1.148225829948557e+03  1.551315458553069e+02 -2.918975276816622e+03
-1.146994415218425e+03  1.543115874739740e+02 -2.918975276816622e+03
-1.147022247375623e+03  1.533279311054581e+02 -2.918975276816622e+03
-1.147277500022016e+03  1.517990548680876e+02 -2.918975276816622e+03
-1.147835879251881e+03  1.503617095286004e+02 -2.918975276816622e+03
-1.148149864651676e+03  1.493472703983297e+02 -2.918975276816622e+03
-1.147904974942796e+03  1.470978324153392e+02 -2.918975276816622e+03
-1.147501142149945e+03  1.460522141079904e+02 -2.918975276816622e+03
-1.147521251057079e+03  1.445677907120231e+02 -2.918975276816622e+03
-1.148015142957036e+03  1.434361057444578e+02 -2.918975276816622e+03
-1.148325050066539e+03  1.409684083725720e+02 -2.918975276816622e+03
-1.148126874923829e+03  1.400712141919441e+02 -2.918975276816622e+03
-1.147613311237659e+03  1.386547493481658e+02 -2.918975276816622e+03
-1.147317152801695e+03  1.365618823205450e+02 -2.918975276816622e+03
-1.147027035513852e+03  1.362357865354393e+02 -2.918975276816622e+03
-1.148101204192177e+03  1.353710397791889e+02 -2.918975276816622e+03
-1.148226121714084e+03  1.351640128981614e+02 -2.918975276816622e+03
-1.146996137095528e+03  1.343403870921327e+02 -2.918975276816622e+03
-1.147027293011608e+03  1.333534457450558e+02 -2.918975276816622e+03
-1.147281841635244e+03  1.318263800347723e+02 -2.918975276816622e+03
-1.147836244720739e+03  1.303945923306717e+02 -2.918975276816622e+03
-1.148151187401243e+03  1.293798519283837e+02 -2.918975276816622e+03
-1.147902109671185e+03  1.271278786613136e+02 -2.918975276816622e+03
-1.147463794493960e+03  1.260760742596261e+02 -2.918975276816622e+03
-1.147492514464808e+03  1.244771645045243e+02 -2.918975276816622e+03
-1.148014332365117e+03  1.234672540969307e+02 -2.918975276816622e+03
-1.148324570547111e+03  1.209999430798176e+02 -2.918975276816622e+03
-1.148126623311806e+03  1.201030474919353e+02 -2.918975276816622e+03
-1.147617782092204e+03  1.186814550673675e+02 -2.918975276816622e+03
-1.147327855333980e+03  1.165876424639361e+02 -2.918975276816622e+03
-1.147023695466096e+03  1.162723669125464e+02 -2.918975276816622e+03
-1.148099884462226e+03  1.154007283385183e+02 -2.918975276816622e+03
-1.148225817300729e+03  1.151961828810207e+02 -2.918975276816622e+03
-1.146994686441588e+03  1.143695904419894e+02 -2.918975276816622e+03
-1.147034539719404e+03  1.133813003570825e+02 -2.918975276816622e+03
-1.147284389978190e+03  1.118557376173803e+02 -2.918975276816622e+03
-1.147836087819491e+03  1.104272867904097e+02 -2.918975276816622e+03
-1.148149703009938e+03  1.094117053428186e+02 -2.918975276816622e+03
-1.147902020605149e+03  1.071675609922624e+02 -2.918975276816622e+03
-1.147497533175328e+03  1.061132403338711e+02 -2.918975276816622e+03
-1.147521083699830e+03  1.046285779137180e+02 -2.918975276816622e+03
-1.148020274463429e+03  1.034986738652410e+02 -2.918975276816622e+03
-1.148321604153321e+03  1.010508949725275e+02 -2.918975276816622e+03
-1.148135381052992e+03  1.001476252565169e+02 -2.918975276816622e+03
-1.147986805036436e+03  9.862338569914749e+01 -2.918975276816622e+03
-1.147592050949722e+03  9.733443661444350e+01 -2.918975276816622e+03
-1.146944694521777e+03  9.732057482772932e+01 -2.918975276816622e+03
-1.147505973045550e+03  9.619174387043689e+01 -2.918975276816622e+03
-1.148443863073304e+03  9.514630217744667e+01 -2.918975276816622e+03
-1.149844235698135e+03  9.397064876179110e+01 -2.918975276816622e+03
-1.149394237470726e+03  9.373773686123354e+01 -2.918975276816622e+03
-1.148489096485775e+03  9.131749466336908e+01 -2.918975276816622e+03
-1.147949515166953e+03  9.018443167114803e+01 -2.918975276816622e+03
-1.147933789925572e+03  9.005351275499532e+01 -2.918975276816622e+03
-1.147991245741249e+03  8.850950005798337e+01 -2.918975276816622e+03
-1.147978890804104e+03  8.778870736983957e+01 -2.918975276816622e+03
-1.147878585988430e+03  8.663340123616554e+01 -2.918975276816622e+03
-1.147834250652151e+03  8.625052281394630e+01 -2.918975276816622e+03
-1.146309440194696e+03  8.522079067114255e+01 -2.918975276816622e+03
-1.147408351874252e+03  8.336910930541191e+01 -2.918975276816622e+03
-1.147688218372803e+03  8.216883024469888e+01 -2.918975276816622e+03
-1.148399970912919e+03  8.055610797347943e+01 -2.918975276816622e+03
-1.149617496312797e+03  7.906444540838264e+01 -2.918975276816622e+03
-1.149248488616618e+03  7.904092192664912e+01 -2.918975276816622e+03
-1.147263430841977e+03  7.790887345090277e+01 -2.918975276816622e+03
-1.147333840255436e+03  7.603614805629645e+01 -2.918975276816622e+03
-1.147684595024078e+03  7.526929797433181e+01 -2.918975276816622e+03
-1.148148552066936e+03  7.342009700135962e+01 -2.918975276816622e+03
-1.148468922978898e+03  7.186400889749304e+01 -2.918975276816622e+03
-1.148545422387123e+03  7.091312146893623e+01 -2.918975276816622e+03
-1.149046447261241e+03  6.851845277669014e+01 -2.918975276816622e+03
-1.148040648199835e+03  6.912541119243841e+01 -2.918975276816622e+03
-1.147986033301948e+03  6.808059386174762e+01 -2.918975276816622e+03
-1.148469093994212e+03  6.745025784046290e+01 -2.918975276816622e+03
-1.148268919942366e+03  6.563538148602632e+01 -2.918975276816622e+03
-1.148474310852816e+03  6.244238498656041e+01 -2.918975276816622e+03
-1.147975917331261e+03  6.110849347953802e+01 -2.918975276816622e+03
-1.147806724079551e+03  6.035928922200885e+01 -2.918975276816622e+03
-1.146661580691691e+03  5.890861669823575e+01 -2.918975276816622e+03
-1.148028949463965e+03  5.817473020977483e+01 -2.918975276816622e+03
-1.147712621255049e+03  5.710681165053939e+01 -2.918975276816622e+03
-1.149050626658412e+03  5.636749374986017e+01 -2.918975276816622e+03
-1.148306449374143e+03  5.453372868982413e+01 -2.918975276816622e+03
-1.148422792904253e+03  5.270405112940418e+01 -2.918975276816622e+03
-1.148222332347708e+03  5.135907421626629e+01 -2.918975276816622e+03
-1.147847265823272e+03  4.961305031676680e+01 -2.918975276816622e+03
-1.148139458082548e+03  4.795541978616690e+01 -2.918975276816622e+03
-1.147620645877712e+03  4.671514183985846e+01 -2.918975276816622e+03
-1.148167655527096e+03  4.637488931902556e+01 -2.918975276816622e+03
-1.148306321324882e+03  4.503577552673912e+01 -2.918975276816622e+03
-1.147970150802297e+03  4.429419591945709e+01 -2.918975276816622e+03
-1.148121130928662e+03  4.254568279124709e+01 -2.918975276816622e+03
-1.149217079551895e+03  4.208105804114581e+01 -2.918975276816622e+03
-1.149090177514683e+03  4.130238512039099e+01 -2.918975276816622e+03
-1.148542732595628e+03  4.060613874671934e+01 -2.918975276816622e+03
-1.148374366258096e+03  4.032360025001002e+01 -2.918975276816622e+03
-1.149166740247605e+03  3.875953318393402e+01 -2.918975276816622e+03
-1.149296321671210e+03  3.615256014817647e+01 -2.918975276816622e+03
-1.148948427916459e+03  3.535086633972096e+01 -2.918975276816622e+03
-1.148087810181267e+03  3.495168949656121e+01 -2.918975276816622e+03
-1.148278334694484e+03  3.283445139205903e+01 -2.918975276816622e+03
-1.149324448379355e+03  3.221589489911793e+01 -2.918975276816622e+03
-1.150031333026032e+03  3.135538834162746e+01 -2.918975276816622e+03
-1.149256188243656e+03  3.109824167037914e+01 -2.918975276816622e+03
-1.149330864156622e+03  2.888758389275796e+01 -2.918975276816622e+03
-1.147936755445045e+03  2.681589859538041e+01 -2.918975276816622e+03
-1.148936952326857e+03  2.475551834710885e+01 -2.918975276816622e+03
-1.147588608084466e+03  2.496874271965027e+01 -2.918975276816622e+03
-1.147505871675802e+03  2.398090049233101e+01 -2.918975276816622e+03
-1.147666723253491e+03  2.278000520975687e+01 -2.918975276816622e+03
-1.146248279875427e+03  2.211222180031251e+01 -2.918975276816622e+03
-1.146957073775853e+03  2.053351086021412e+01 -2.918975276816622e+03
-1.147791021882124e+03  1.951648851853590e+01 -2.918975276816622e+03
-1.147888449267062e+03  1.773095012486948e+01 -2.918975276816622e+03
-1.147764322876651e+03  1.714944912984287e+01 -2.918975276816622e+03
-1.147510589295595e+03  1.543062098822331e+01 -2.918975276816622e+03
-1.147100798780109e+03  1.454717441171507e+01 -2.918975276816622e+03
-1.146856442881985e+03  1.343787682030428e+01 -2.918975276816622e+03
-1.147637147579628e+03  1.195096768579497e+01 -2.918975276816622e+03
-1.147920433084214e+03  7.626162692206123e+00 -2.918975276816622e+03
-1.147845498841167e+03  6.482820276784037e+00 -2.918975276816622e+03
-1.147950253740063e+03  5.233335628025662e+00 -2.918975276816622e+03
1.145762025595707e+03 5.235608233268954e-01 2.918975276816622e+03
 1.145303831951715e+03 -7.060640114336683e-01  2.918975276816622e+03
 1.144785957165151e+03 -1.975036126137222e+00  2.918975276816622e+03
 1.145106083318522e+03 -3.289542197624165e+00  2.918975276816622e+03
 1.144999372135017e+03 -4.910420820433832e+00  2.918975276816622e+03
 1.145928816781688e+03 -7.004734483663007e+00  2.918975276816622e+03
 1.146030852005952e+03 -7.624173881661737e+00  2.918975276816622e+03
 1.145479596793390e+03 -9.583403903612368e+00  2.918975276816622e+03
 1.144307013603951e+03 -1.103819104018596e+01  2.918975276816622e+03
 1.145107000910597e+03 -1.245236641961811e+01  2.918975276816622e+03
 1.144826750148711e+03 -1.324279338828160e+01  2.918975276816622e+03
 1.145208824159895e+03 -1.484741935584428e+01  2.918975276816622e+03
 1.147396971108987e+03 -1.561895223220891e+01  2.918975276816622e+03
 1.145849086330415e+03 -1.793708457587750e+01  2.918975276816622e+03
 1.146301051910779e+03 -1.999848614871147e+01  2.918975276816622e+03
 1.145668763003797e+03 -2.024570590666691e+01  2.918975276816622e+03
 1.146098948180080e+03 -2.188882974377461e+01  2.918975276816622e+03
 1.145393607884441e+03 -2.384808146376692e+01  2.918975276816622e+03
 1.144635120953149e+03 -2.561541233030706e+01  2.918975276816622e+03
 1.145274524799476e+03 -2.601356784337335e+01  2.918975276816622e+03
 1.145168795167031e+03 -2.639317674060007e+01  2.918975276816622e+03
 1.145355693384470e+03 -2.759436691581342e+01  2.918975276816622e+03
 1.145838228865523e+03 -2.820692256293655e+01  2.918975276816622e+03
 1.145534846433753e+03 -2.991350934854139e+01  2.918975276816622e+03
 1.145464610483923e+03 -3.009957426803642e+01  2.918975276816622e+03
 1.145891436740860e+03 -3.172728170006658e+01  2.918975276816622e+03
 1.146001959226818e+03 -3.300166761152753e+01  2.918975276816622e+03
 1.147677222217782e+03 -3.340483753064976e+01  2.918975276816622e+03
 1.146451392987432e+03 -3.497508849006675e+01  2.918975276816622e+03
 1.146453343553183e+03 -3.588135608909202e+01  2.918975276816622e+03
 1.148022254106926e+03 -3.716362057868952e+01  2.918975276816622e+03
 1.146627882776861e+03 -3.815657385521325e+01  2.918975276816622e+03
 1.145699358467122e+03 -3.915215299567964e+01  2.918975276816622e+03
 1.145591798554636e+03 -4.187994791767719e+01  2.918975276816622e+03
 1.145605528443724e+03 -4.247559579562617e+01  2.918975276816622e+03
 1.145341827562136e+03 -4.384128149937501e+01  2.918975276816622e+03
 1.145549677862485e+03 -4.468164019149588e+01  2.918975276816622e+03
 1.145341563815744e+03 -4.610028979896757e+01  2.918975276816622e+03
 1.144932304926032e+03 -4.697677697468902e+01  2.918975276816622e+03
 1.145363307745252e+03 -4.826720134364843e+01  2.918975276816622e+03
 1.145612651665186e+03 -4.906892654441143e+01  2.918975276816622e+03
 1.145940776572637e+03 -5.008043834239114e+01  2.918975276816622e+03
 1.146299045298762e+03 -5.274320473015027e+01  2.918975276816622e+03
 1.146555288036384e+03 -5.369298654902689e+01  2.918975276816622e+03
 1.146081322816369e+03 -5.463808537912739e+01  2.918975276816622e+03
 1.146429192082062e+03 -5.587655905378465e+01  2.918975276816622e+03
 1.147998785501877e+03 -5.708046971318374e+01  2.918975276816622e+03
 1.146622030518300e+03 -5.811529112813724e+01  2.918975276816622e+03
 1.146876817047341e+03 -5.913300710967238e+01  2.918975276816622e+03
 1.145669913458040e+03 -6.060820867062610e+01  2.918975276816622e+03
 1.145604203316989e+03 -6.189883777712667e+01  2.918975276816622e+03
 1.145665834512929e+03 -6.254733512848721e+01  2.918975276816622e+03
 1.145347608609743e+03 -6.380968478128973e+01  2.918975276816622e+03
 1.145550615567176e+03 -6.465263589053833e+01  2.918975276816622e+03
 1.145336877836563e+03 -6.606083567708619e+01  2.918975276816622e+03
 1.144925662774148e+03 -6.693630346352620e+01  2.918975276816622e+03
 1.145359622871226e+03 -6.823138140179827e+01  2.918975276816622e+03
 1.145596276323439e+03 -6.903226848307254e+01  2.918975276816622e+03
 1.146088949910006e+03 -7.017186036949740e+01  2.918975276816622e+03
 1.146615062000041e+03 -7.256543307296482e+01  2.918975276816622e+03
 1.147811655926175e+03 -7.262618965629983e+01  2.918975276816622e+03
 1.146446858817913e+03 -7.487307403726410e+01  2.918975276816622e+03
 1.146414704070480e+03 -7.586928525002749e+01  2.918975276816622e+03
 1.147947018649133e+03 -7.705835483513449e+01  2.918975276816622e+03
 1.146607314414571e+03 -7.806328066153868e+01  2.918975276816622e+03
 1.146872186393360e+03 -7.910081501198773e+01  2.918975276816622e+03
 1.145665614691777e+03 -8.057589549375712e+01  2.918975276816622e+03
 1.145602125053926e+03 -8.186672513094069e+01  2.918975276816622e+03
 1.145664780527341e+03 -8.251209326276161e+01  2.918975276816622e+03
 1.145351936232601e+03 -8.377830299640350e+01  2.918975276816622e+03
 1.145552067650020e+03 -8.462211463916012e+01  2.918975276816622e+03
 1.145335735326626e+03 -8.602897132396156e+01  2.918975276816622e+03
 1.144924345505762e+03 -8.690529955048751e+01  2.918975276816622e+03
 1.145360677646629e+03 -8.820154493391244e+01  2.918975276816622e+03
 1.145596037592226e+03 -8.900127835586807e+01  2.918975276816622e+03
 1.146089542169776e+03 -9.013955196903414e+01  2.918975276816622e+03
 1.146615704404182e+03 -9.253533067921002e+01  2.918975276816622e+03
 1.147805348173607e+03 -9.260403328586533e+01  2.918975276816622e+03
 1.146450698400075e+03 -9.485127981712391e+01  2.918975276816622e+03
 1.146420323076190e+03 -9.582874715420412e+01  2.918975276816622e+03
 1.147946428556449e+03 -9.698654494104014e+01  2.918975276816622e+03
 1.146602823783184e+03 -9.803859742605501e+01  2.918975276816622e+03
 1.145686036978446e+03 -9.906300799867586e+01  2.918975276816622e+03
 1.145588588821713e+03 -1.017871305240408e+02  2.918975276816622e+03
 1.145605781302539e+03 -1.023643669388058e+02  2.918975276816622e+03
 1.145371108833971e+03 -1.037459634994367e+02  2.918975276816622e+03
 1.145562036907922e+03 -1.045932364767784e+02  2.918975276816622e+03
 1.145337130486925e+03 -1.059992538964134e+02  2.918975276816622e+03
 1.144926074006197e+03 -1.068801886254056e+02  2.918975276816622e+03
 1.145360074305714e+03 -1.081699721894427e+02  2.918975276816622e+03
 1.145596478917274e+03 -1.089708003329893e+02  2.918975276816622e+03
 1.146089175057219e+03 -1.101072731067066e+02  2.918975276816622e+03
 1.146616679372381e+03 -1.125016369516002e+02  2.918975276816622e+03
 1.147811919277983e+03 -1.125723406831322e+02  2.918975276816622e+03
 1.146448655671405e+03 -1.148132788286967e+02  2.918975276816622e+03
 1.146418258146735e+03 -1.158023264842402e+02  2.918975276816622e+03
 1.147949579782040e+03 -1.169822900474927e+02  2.918975276816622e+03
 1.146609558190605e+03 -1.179985889009275e+02  2.918975276816622e+03
 1.146874749689448e+03 -1.190416603340008e+02  2.918975276816622e+03
 1.145662573236450e+03 -1.205146016840697e+02  2.918975276816622e+03
 1.145601894224806e+03 -1.218047688015482e+02  2.918975276816622e+03
 1.145663233588128e+03 -1.224516708655931e+02  2.918975276816622e+03
 1.145345526095004e+03 -1.237152292690275e+02  2.918975276816622e+03
 1.145547386394261e+03 -1.245574534161003e+02  2.918975276816622e+03
 1.145334261137805e+03 -1.259653601611497e+02  2.918975276816622e+03
 1.144923005957766e+03 -1.268398104756996e+02  2.918975276816622e+03
 1.145357634142552e+03 -1.281358095649034e+02  2.918975276816622e+03
 1.145597210143989e+03 -1.289369650031988e+02  2.918975276816622e+03
 1.146086757172724e+03 -1.300766435594044e+02  2.918975276816622e+03
 1.146616037637918e+03 -1.324670439291926e+02  2.918975276816622e+03
 1.147815714947420e+03 -1.325484474501100e+02  2.918975276816622e+03
 1.146446159053908e+03 -1.347873508463808e+02  2.918975276816622e+03
 1.146417657223877e+03 -1.357674531022750e+02  2.918975276816622e+03
 1.147943719619933e+03 -1.369398127564801e+02  2.918975276816622e+03
 1.146605209317888e+03 -1.379746825090501e+02  2.918975276816622e+03
 1.145687760962535e+03 -1.390016239782289e+02  2.918975276816622e+03
 1.145586256126103e+03 -1.417226689990331e+02  2.918975276816622e+03
 1.145602414865879e+03 -1.423107283122875e+02  2.918975276816622e+03
 1.145351900639520e+03 -1.436822700922930e+02  2.918975276816622e+03
 1.145551243851248e+03 -1.445262761039560e+02  2.918975276816622e+03
 1.145335758829739e+03 -1.459355171764307e+02  2.918975276816622e+03
 1.144925468566585e+03 -1.468122540945275e+02  2.918975276816622e+03
 1.145358944390384e+03 -1.481058712888345e+02  2.918975276816622e+03
 1.145596572180918e+03 -1.489060281973019e+02  2.918975276816622e+03
 1.146087432681870e+03 -1.500443381741143e+02  2.918975276816622e+03
 1.146615519389567e+03 -1.524379785102226e+02  2.918975276816622e+03
 1.147809766152163e+03 -1.525047843369647e+02  2.918975276816622e+03
 1.146447008180885e+03 -1.547490479459741e+02  2.918975276816622e+03
 1.146415279758310e+03 -1.557395444439712e+02  2.918975276816622e+03
 1.147948940170754e+03 -1.569256767916224e+02  2.918975276816622e+03
 1.146606533975275e+03 -1.579368703933185e+02  2.918975276816622e+03
 1.146871265477474e+03 -1.589743657717855e+02  2.918975276816622e+03
 1.145663918787809e+03 -1.604482797388943e+02  2.918975276816622e+03
 1.145602377847588e+03 -1.617417958581352e+02  2.918975276816622e+03
 1.145665059062540e+03 -1.623806069343721e+02  2.918975276816622e+03
 1.145362177786893e+03 -1.636501814871981e+02  2.918975276816622e+03
 1.145556148212746e+03 -1.644970738108104e+02  2.918975276816622e+03
 1.145335257500102e+03 -1.659011809219116e+02  2.918975276816622e+03
 1.144923808529916e+03 -1.667796008023781e+02  2.918975276816622e+03
 1.145356060152464e+03 -1.680700334116107e+02  2.918975276816622e+03
 1.145595225324665e+03 -1.688726637100696e+02  2.918975276816622e+03
 1.146085248517599e+03 -1.700137614977146e+02  2.918975276816622e+03
 1.146613452376693e+03 -1.724053632762505e+02  2.918975276816622e+03
 1.147810124794335e+03 -1.724679713744313e+02  2.918975276816622e+03
 1.146444673562568e+03 -1.747150693339763e+02  2.918975276816622e+03
 1.146412944025789e+03 -1.757101931296551e+02  2.918975276816622e+03
 1.147946214406983e+03 -1.769008329367476e+02  2.918975276816622e+03
 1.146605930040529e+03 -1.779049264340861e+02  2.918975276816622e+03
 1.146871552632047e+03 -1.789436798776847e+02  2.918975276816622e+03
 1.145661962355476e+03 -1.804170832506691e+02  2.918975276816622e+03
 1.145602254896963e+03 -1.817104863511580e+02  2.918975276816622e+03
 1.145663574177887e+03 -1.823498124022741e+02  2.918975276816622e+03
 1.145358671833143e+03 -1.836197093927983e+02  2.918975276816622e+03
 1.145554168401346e+03 -1.844656050610486e+02  2.918975276816622e+03
 1.145333701700062e+03 -1.858709955349813e+02  2.918975276816622e+03
 1.144922323814959e+03 -1.867488409772421e+02  2.918975276816622e+03
 1.145357228535868e+03 -1.880426169975051e+02  2.918975276816622e+03
 1.145595767203469e+03 -1.888430227625227e+02  2.918975276816622e+03
 1.146085306326719e+03 -1.899808504887890e+02  2.918975276816622e+03
 1.146615049658536e+03 -1.923737674284356e+02  2.918975276816622e+03
 1.147809910761382e+03 -1.924426426282832e+02  2.918975276816622e+03
 1.146446302273976e+03 -1.946847330158602e+02  2.918975276816622e+03
 1.146415552707176e+03 -1.956764982462820e+02  2.918975276816622e+03
 1.147946403734708e+03 -1.968585383549730e+02  2.918975276816622e+03
 1.146607421296332e+03 -1.978713417539125e+02  2.918975276816622e+03
 1.146872273232424e+03 -1.989139979646463e+02  2.918975276816622e+03
 1.145660638619244e+03 -2.003868057150258e+02  2.918975276816622e+03
 1.145602103846521e+03 -2.016791052635025e+02  2.918975276816622e+03
 1.145662555535532e+03 -2.023199247253078e+02  2.918975276816622e+03
 1.145350666451362e+03 -2.035892624954795e+02  2.918975276816622e+03
 1.145550215104832e+03 -2.044335821449967e+02  2.918975276816622e+03
 1.145333041848712e+03 -2.058404736530129e+02  2.918975276816622e+03
 1.144921772468695e+03 -2.067170687346873e+02  2.918975276816622e+03
 1.145357052773043e+03 -2.080122642627195e+02  2.918975276816622e+03
 1.145595155778521e+03 -2.088122782189155e+02  2.918975276816622e+03
 1.146084827360097e+03 -2.099490131601952e+02  2.918975276816622e+03
 1.146614645415609e+03 -2.123415635081773e+02  2.918975276816622e+03
 1.147810263400693e+03 -2.124121666653178e+02  2.918975276816622e+03
 1.146445255415811e+03 -2.146529376774360e+02  2.918975276816622e+03
 1.146415102094282e+03 -2.156443303334747e+02  2.918975276816622e+03
 1.147948042294106e+03 -2.168316781372632e+02  2.918975276816622e+03
 1.146607501160796e+03 -2.178411444883036e+02  2.918975276816622e+03
 1.146875377443495e+03 -2.188871467769584e+02  2.918975276816622e+03
 1.145655988956952e+03 -2.203575733157453e+02  2.918975276816622e+03
 1.145599352119189e+03 -2.216486431021935e+02  2.918975276816622e+03
 1.145664353862564e+03 -2.222897992727549e+02  2.918975276816622e+03
 1.145358453276927e+03 -2.235514769957140e+02  2.918975276816622e+03
 1.145550511231505e+03 -2.243951645373513e+02  2.918975276816622e+03
 1.145333064229389e+03 -2.258074550328585e+02  2.918975276816622e+03
 1.144921728008737e+03 -2.266856216207530e+02  2.918975276816622e+03
 1.145356033555653e+03 -2.279753176934993e+02  2.918975276816622e+03
 1.145605172345383e+03 -2.287798300302568e+02  2.918975276816622e+03
 1.145928859316733e+03 -2.297987028972420e+02  2.918975276816622e+03
 1.146276734957005e+03 -2.324587640033907e+02  2.918975276816622e+03
 1.146549906271930e+03 -2.334078460792154e+02  2.918975276816622e+03
 1.146077587995141e+03 -2.343513789679893e+02  2.918975276816622e+03
 1.146425057146250e+03 -2.355930466660565e+02  2.918975276816622e+03
 1.147973113452656e+03 -2.367678445137042e+02  2.918975276816622e+03
 1.146612016543607e+03 -2.378279463802239e+02  2.918975276816622e+03
 1.145683033939034e+03 -2.388434844004108e+02  2.918975276816622e+03
 1.145580114428976e+03 -2.415625191484352e+02  2.918975276816622e+03
 1.145587513982943e+03 -2.421663964321379e+02  2.918975276816622e+03
 1.145296133408006e+03 -2.435465408063139e+02  2.918975276816622e+03
 1.145521924574021e+03 -2.443723062549609e+02  2.918975276816622e+03
 1.145300216436287e+03 -2.457637486548676e+02  2.918975276816622e+03
 1.144886293552591e+03 -2.466567093838193e+02  2.918975276816622e+03
 1.145269617082678e+03 -2.479823743774193e+02  2.918975276816622e+03
 1.145490110515738e+03 -2.487711469476403e+02  2.918975276816622e+03
 1.145132749618095e+03 -2.496082867232548e+02  2.918975276816622e+03
 1.143516575965159e+03 -2.504057214934263e+02  2.918975276816622e+03
 1.145021806354581e+03 -2.515617317196444e+02  2.918975276816622e+03
 1.145500638904011e+03 -2.525665780210354e+02  2.918975276816622e+03
 1.145552191096642e+03 -2.532265276784104e+02  2.918975276816622e+03
 1.145185914105858e+03 -2.545530033889822e+02  2.918975276816622e+03
 1.145464223409681e+03 -2.553685421546752e+02  2.918975276816622e+03
 1.145307167023376e+03 -2.567525514688295e+02  2.918975276816622e+03
 1.144888132523653e+03 -2.575988789289513e+02  2.918975276816622e+03
 1.145348256052965e+03 -2.589312556618671e+02  2.918975276816622e+03
 1.145591343679399e+03 -2.597304839548520e+02  2.918975276816622e+03
 1.146074215554841e+03 -2.608693579727339e+02  2.918975276816622e+03
 1.146610942164171e+03 -2.632617409675732e+02  2.918975276816622e+03
 1.147802664240989e+03 -2.633266600228685e+02  2.918975276816622e+03
 1.146443297899229e+03 -2.655688160278783e+02  2.918975276816622e+03
 1.146412692915120e+03 -2.665638982032045e+02  2.918975276816622e+03
 1.147933759220419e+03 -2.677403025835779e+02  2.918975276816622e+03
 1.146602161445111e+03 -2.687582113526152e+02  2.918975276816622e+03
 1.145676035058399e+03 -2.697825948072646e+02  2.918975276816622e+03
 1.145530209417888e+03 -2.727244725863234e+02  2.918975276816622e+03
 1.145479488318090e+03 -2.731899403375228e+02  2.918975276816622e+03
 1.145291026141098e+03 -2.752399644860502e+02  2.918975276816622e+03
 1.145584994972696e+03 -2.757513007792183e+02  2.918975276816622e+03
 1.147901652800105e+03 -2.768149610557090e+02  2.918975276816622e+03
 1.146230298967081e+03 -2.795476840758397e+02  2.918975276816622e+03
 1.146782738348631e+03 -2.831399151343211e+02  2.918975276816622e+03
 1.145869334799327e+03 -2.825190824451861e+02  2.918975276816622e+03
 1.145508682176499e+03 -2.834088449465041e+02  2.918975276816622e+03
 1.145377106573715e+03 -2.862718672014041e+02  2.918975276816622e+03
 1.146113369291148e+03 -2.880681693706797e+02  2.918975276816622e+03
 1.144863124239781e+03 -2.879986784251145e+02  2.918975276816622e+03
 1.143720870891029e+03 -2.900839426701854e+02  2.918975276816622e+03
 1.145138796105199e+03 -2.902605924757800e+02  2.918975276816622e+03
 1.145017893995987e+03 -2.914182551154354e+02  2.918975276816622e+03
 1.145546167639714e+03 -2.929538095890861e+02  2.918975276816622e+03
 1.146125887410384e+03 -2.938203257271093e+02  2.918975276816622e+03
 1.144949797984641e+03 -2.962156165886249e+02  2.918975276816622e+03
 1.146071294377841e+03 -2.978047065092502e+02  2.918975276816622e+03
 1.145447613142796e+03 -2.986313979654233e+02  2.918975276816622e+03
 1.145218357441377e+03 -2.995508170124153e+02  2.918975276816622e+03
 1.143664135067152e+03 -3.003027601487708e+02  2.918975276816622e+03
 1.144187748547002e+03 -3.017982267217160e+02  2.918975276816622e+03
 1.145304772200643e+03 -3.027439035088611e+02  2.918975276816622e+03
 1.144913343890196e+03 -3.035360654170473e+02  2.918975276816622e+03
 1.145417359111523e+03 -3.057714332737850e+02  2.918975276816622e+03
 1.146674127850279e+03 -3.057513785530447e+02  2.918975276816622e+03
 1.146452829435031e+03 -3.087663245783536e+02  2.918975276816622e+03
 1.145198266320761e+03 -3.101575641820976e+02  2.918975276816622e+03
 1.144610694723884e+03 -3.110744596185580e+02  2.918975276816622e+03
 1.144912018006721e+03 -3.121013355205692e+02  2.918975276816622e+03
 1.145546770824166e+03 -3.123049800624682e+02  2.918975276816622e+03
 1.146205745911486e+03 -3.132074080427286e+02  2.918975276816622e+03
 1.146386426865545e+03 -3.148106089125792e+02  2.918975276816622e+03
 1.146067997788584e+03 -3.178314204969452e+02  2.918975276816622e+03
 1.145726868029054e+03 -3.186472321245519e+02  2.918975276816622e+03
 1.146550884036238e+03 -3.197231936028425e+02  2.918975276816622e+03
 1.146491878649286e+03 -3.209204194582297e+02  2.918975276816622e+03
 1.145151170709262e+03 -3.222842505294480e+02  2.918975276816622e+03
 1.145432015959892e+03 -3.235531163129299e+02  2.918975276816622e+03
 1.145574334182625e+03 -3.264795217453195e+02  2.918975276816622e+03
 1.144091453844325e+03 -3.291777853647237e+02  2.918975276816622e+03
 1.145064211185024e+03 -3.295777692556129e+02  2.918975276816622e+03
 1.146447121716817e+03 -3.303739834417099e+02  2.918975276816622e+03
 1.146786636085144e+03 -3.315394436803189e+02  2.918975276816622e+03
 1.145033531473127e+03 -3.331063296420832e+02  2.918975276816622e+03
 1.146348183652758e+03 -3.347577724117435e+02  2.918975276816622e+03
 1.146005478974628e+03 -3.358957420016547e+02  2.918975276816622e+03
 1.144588302570380e+03 -3.352782736927404e+02  2.918975276816622e+03
 1.144505019083074e+03 -3.381274065923897e+02  2.918975276816622e+03
 1.144963520297516e+03 -3.393622726983331e+02  2.918975276816622e+03
 1.145074451092690e+03 -3.405676501605072e+02  2.918975276816622e+03
 1.144241084399864e+03 -3.416012036335333e+02  2.918975276816622e+03
 1.144831794302937e+03 -3.419360493897540e+02  2.918975276816622e+03
 1.145202008059221e+03 -3.423749985644580e+02  2.918975276816622e+03
 1.146383161530341e+03 -3.441175269981563e+02  2.918975276816622e+03
 1.144895778111414e+03 -3.447991890472078e+02  2.918975276816622e+03
 1.144591422769638e+03 -3.459404811827928e+02  2.918975276816622e+03
 1.145013915669281e+03 -3.483673492757129e+02  2.918975276816622e+03
 1.145486382038931e+03 -3.503027826796715e+02  2.918975276816622e+03
 1.146179718599136e+03 -3.518207681675947e+02  2.918975276816622e+03
 1.145960031657933e+03 -3.523757947147841e+02  2.918975276816622e+03
 1.145291191642384e+03 -3.543077751625603e+02  2.918975276816622e+03
 1.143959210224918e+03 -3.549793765996080e+02  2.918975276816622e+03
 1.144649465302293e+03 -3.552377624672142e+02  2.918975276816622e+03
 1.145148163157394e+03 -3.573272772255469e+02  2.918975276816622e+03
 1.146467223914793e+03 -3.573151306499846e+02  2.918975276816622e+03
 1.145677483069964e+03 -3.600179200451928e+02  2.918975276816622e+03
 1.145720788043127e+03 -3.623540504346403e+02  2.918975276816622e+03
 1.145668437671824e+03 -3.628582533613441e+02  2.918975276816622e+03
 1.144983117806577e+03 -3.644028804039017e+02  2.918975276816622e+03
 1.145871836071310e+03 -3.659995850544579e+02  2.918975276816622e+03
 1.145556097186203e+03 -3.668167004426087e+02  2.918975276816622e+03
 1.146611631637812e+03 -3.687846375301136e+02  2.918975276816622e+03
 1.145941901725587e+03 -3.714261979759685e+02  2.918975276816622e+03
 1.145063709285434e+03 -3.717046253289794e+02  2.918975276816622e+03
 1.145077500968697e+03 -3.753957396284078e+02  2.918975276816622e+03
 1.145288729951302e+03 -3.778424408147198e+02  2.918975276816622e+03
 1.144638255501184e+03 -3.829791220108419e+02  2.918975276816622e+03
 1.144144662289540e+03 -3.835230802402880e+02  2.918975276816622e+03
1.144163058648012e+03 3.842281702963364e+02 2.918975276816622e+03
1.143203740011766e+03 3.841835499886793e+02 2.918975276816622e+03
1.143886862092078e+03 3.826442154521215e+02 2.918975276816622e+03
1.143611510663833e+03 3.814256477091875e+02 2.918975276816622e+03
1.144558726612733e+03 3.811282594552290e+02 2.918975276816622e+03
1.144025698630752e+03 3.801195306591165e+02 2.918975276816622e+03
1.144797673831516e+03 3.798750394178136e+02 2.918975276816622e+03
1.145086656189954e+03 3.782295538674189e+02 2.918975276816622e+03
1.145703790863357e+03 3.763691140801712e+02 2.918975276816622e+03
1.145967485202914e+03 3.749027590313145e+02 2.918975276816622e+03
1.145453045730423e+03 3.747983188464106e+02 2.918975276816622e+03
1.145209415870264e+03 3.736880609974403e+02 2.918975276816622e+03
1.145606497833749e+03 3.725288869237504e+02 2.918975276816622e+03
1.145403321377361e+03 3.712446744925281e+02 2.918975276816622e+03
1.145848841428091e+03 3.686728117355240e+02 2.918975276816622e+03
1.145094851550777e+03 3.689486765013598e+02 2.918975276816622e+03
1.145109465084249e+03 3.684109581495838e+02 2.918975276816622e+03
1.144267296923654e+03 3.675612985084252e+02 2.918975276816622e+03
1.144805996338587e+03 3.670144780546080e+02 2.918975276816622e+03
1.144518919636598e+03 3.652516932388804e+02 2.918975276816622e+03
1.144362733203162e+03 3.627117540656724e+02 2.918975276816622e+03
1.144267929384205e+03 3.597736247416071e+02 2.918975276816622e+03
1.144741203289757e+03 3.579238553153263e+02 2.918975276816622e+03
1.145153055141839e+03 3.568781100054790e+02 2.918975276816622e+03
1.145116543683766e+03 3.567446596117027e+02 2.918975276816622e+03
1.145112386234497e+03 3.552352406362617e+02 2.918975276816622e+03
1.146575295472216e+03 3.550250639515586e+02 2.918975276816622e+03
1.146594521391378e+03 3.533625968903459e+02 2.918975276816622e+03
1.145326916527476e+03 3.523878910197820e+02 2.918975276816622e+03
1.144752321984741e+03 3.516171043569510e+02 2.918975276816622e+03
1.143536174432369e+03 3.501766598162913e+02 2.918975276816622e+03
1.145167775048505e+03 3.496016984315810e+02 2.918975276816622e+03
1.145140020637362e+03 3.485625982648475e+02 2.918975276816622e+03
1.145551436384320e+03 3.476261722901748e+02 2.918975276816622e+03
1.145227109795817e+03 3.447149977080562e+02 2.918975276816622e+03
1.145734005177888e+03 3.436249124817987e+02 2.918975276816622e+03
1.145961176766252e+03 3.419253317773627e+02 2.918975276816622e+03
1.145766737278265e+03 3.418150105560862e+02 2.918975276816622e+03
1.144438856779047e+03 3.413822316166737e+02 2.918975276816622e+03
1.144020353807485e+03 3.406315952078196e+02 2.918975276816622e+03
1.145206566519760e+03 3.383946173089653e+02 2.918975276816622e+03
1.145665628106320e+03 3.374548615866562e+02 2.918975276816622e+03
1.144823894521491e+03 3.367748969873280e+02 2.918975276816622e+03
1.144062814142436e+03 3.356802959086242e+02 2.918975276816622e+03
1.145137301520042e+03 3.343024873577827e+02 2.918975276816622e+03
1.145715135480054e+03 3.333265059778668e+02 2.918975276816622e+03
1.144658955913841e+03 3.335447904608148e+02 2.918975276816622e+03
1.143460571618864e+03 3.326209486549741e+02 2.918975276816622e+03
1.144295407962305e+03 3.301851464962625e+02 2.918975276816622e+03
1.145080249459127e+03 3.282433040835797e+02 2.918975276816622e+03
1.145944378022429e+03 3.284772463762158e+02 2.918975276816622e+03
1.145732011157470e+03 3.277422213699674e+02 2.918975276816622e+03
1.147511636507040e+03 3.268546512235859e+02 2.918975276816622e+03
1.146659689507612e+03 3.258453060908732e+02 2.918975276816622e+03
1.146679537455150e+03 3.246615542386522e+02 2.918975276816622e+03
1.146098415086409e+03 3.230440216156065e+02 2.918975276816622e+03
1.145493183926038e+03 3.224821185899559e+02 2.918975276816622e+03
1.145916166851707e+03 3.212171117483511e+02 2.918975276816622e+03
1.146400702569530e+03 3.194739535640999e+02 2.918975276816622e+03
1.145866234586896e+03 3.185142990466402e+02 2.918975276816622e+03
1.145994053482434e+03 3.154242026100889e+02 2.918975276816622e+03
1.147784340051222e+03 3.139341758113718e+02 2.918975276816622e+03
1.146381726441944e+03 3.131126900250080e+02 2.918975276816622e+03
1.146279107598606e+03 3.119526066919677e+02 2.918975276816622e+03
1.145398544027094e+03 3.107318650130870e+02 2.918975276816622e+03
1.144621241782099e+03 3.108447436356951e+02 2.918975276816622e+03
1.144990549118112e+03 3.094062894964673e+02 2.918975276816622e+03
1.145091624655165e+03 3.081686936674017e+02 2.918975276816622e+03
1.145569213916298e+03 3.070177911482702e+02 2.918975276816622e+03
1.145074231391401e+03 3.066137006144106e+02 2.918975276816622e+03
1.145311193907233e+03 3.051694264549027e+02 2.918975276816622e+03
1.146073036211323e+03 3.036718483280771e+02 2.918975276816622e+03
1.145638688895607e+03 3.037030504701642e+02 2.918975276816622e+03
1.146281404208677e+03 3.025750131302865e+02 2.918975276816622e+03
1.146189957775757e+03 3.008260804698398e+02 2.918975276816622e+03
1.145325924189369e+03 2.988724019223823e+02 2.918975276816622e+03
1.144741167570626e+03 2.980405898831092e+02 2.918975276816622e+03
1.145255487190964e+03 2.959226212780160e+02 2.918975276816622e+03
1.144755363602486e+03 2.944890746994079e+02 2.918975276816622e+03
1.144527410879645e+03 2.942994200731817e+02 2.918975276816622e+03
1.145093999675613e+03 2.936163253690738e+02 2.918975276816622e+03
1.145399785174721e+03 2.922548466877208e+02 2.918975276816622e+03
1.145147115009805e+03 2.913043084826165e+02 2.918975276816622e+03
1.145019379884478e+03 2.905231579605447e+02 2.918975276816622e+03
1.144836870577379e+03 2.901841284161068e+02 2.918975276816622e+03
1.145095322206916e+03 2.881252069867422e+02 2.918975276816622e+03
1.144959898597138e+03 2.873366289765171e+02 2.918975276816622e+03
1.145779722254279e+03 2.870261015592622e+02 2.918975276816622e+03
1.146112064101967e+03 2.850316436946428e+02 2.918975276816622e+03
1.146875783189217e+03 2.847160164102480e+02 2.918975276816622e+03
1.146926491806016e+03 2.845240946318544e+02 2.918975276816622e+03
1.146665118732358e+03 2.837426676712757e+02 2.918975276816622e+03
1.145699098242660e+03 2.810647617291603e+02 2.918975276816622e+03
1.144877928140296e+03 2.805261874924705e+02 2.918975276816622e+03
1.145314570645074e+03 2.793411271175676e+02 2.918975276816622e+03
1.144587653372923e+03 2.785577752364604e+02 2.918975276816622e+03
1.145077974569094e+03 2.777706836727094e+02 2.918975276816622e+03
1.145606814739274e+03 2.763868066270717e+02 2.918975276816622e+03
1.145335882657467e+03 2.754785740013685e+02 2.918975276816622e+03
1.144812361794892e+03 2.744523351073660e+02 2.918975276816622e+03
1.145305608691552e+03 2.733171437735852e+02 2.918975276816622e+03
1.145589172476096e+03 2.724106523796373e+02 2.918975276816622e+03
1.146096734789270e+03 2.712870745470361e+02 2.918975276816622e+03
1.146617070604114e+03 2.688899104250087e+02 2.918975276816622e+03
1.147812430174052e+03 2.688357134145016e+02 2.918975276816622e+03
1.146449830645664e+03 2.665893602143672e+02 2.918975276816622e+03
1.146415222189291e+03 2.655812342870228e+02 2.918975276816622e+03
1.147920757103798e+03 2.644227389984423e+02 2.918975276816622e+03
1.146601772269723e+03 2.633988095817414e+02 2.918975276816622e+03
1.145686943875173e+03 2.623644540388717e+02 2.918975276816622e+03
1.145583598220179e+03 2.596413171793014e+02 2.918975276816622e+03
1.145603496863436e+03 2.590619089347646e+02 2.918975276816622e+03
1.145340172795230e+03 2.576605052044377e+02 2.918975276816622e+03
1.145548805998952e+03 2.568271736821038e+02 2.918975276816622e+03
1.145310593678504e+03 2.554407245608433e+02 2.918975276816622e+03
1.144893598611902e+03 2.545411859475468e+02 2.918975276816622e+03
1.145283141203653e+03 2.532214322022349e+02 2.918975276816622e+03
1.145497929949805e+03 2.524310476341678e+02 2.918975276816622e+03
1.145142029436072e+03 2.515859382452120e+02 2.918975276816622e+03
1.143552061143614e+03 2.507979211995586e+02 2.918975276816622e+03
1.145035649393672e+03 2.496525443772026e+02 2.918975276816622e+03
1.145531181750947e+03 2.485926886558719e+02 2.918975276816622e+03
1.145603931536668e+03 2.479025399124147e+02 2.918975276816622e+03
1.145214201692298e+03 2.466578021611966e+02 2.918975276816622e+03
1.145483710093481e+03 2.458355561925404e+02 2.918975276816622e+03
1.145320951448895e+03 2.444509509863778e+02 2.918975276816622e+03
1.144903027373701e+03 2.435990192685490e+02 2.918975276816622e+03
1.145361074493745e+03 2.422724554379635e+02 2.918975276816622e+03
1.145591789002563e+03 2.414715401874653e+02 2.918975276816622e+03
1.146090474973213e+03 2.403345863024506e+02 2.918975276816622e+03
1.146614388848154e+03 2.379358200786231e+02 2.918975276816622e+03
1.147809388704848e+03 2.378864687243342e+02 2.918975276816622e+03
1.146450728958311e+03 2.356381486000613e+02 2.918975276816622e+03
1.146418359854016e+03 2.346362206101003e+02 2.918975276816622e+03
1.147934207492921e+03 2.334780630420719e+02 2.918975276816622e+03
1.146605531768917e+03 2.324423231494097e+02 2.918975276816622e+03
1.145691466097218e+03 2.314138002279691e+02 2.918975276816622e+03
1.145589419396378e+03 2.286899927689680e+02 2.918975276816622e+03
1.145613038767772e+03 2.281046364884984e+02 2.918975276816622e+03
1.145360448743383e+03 2.267302974225075e+02 2.918975276816622e+03
1.145559261231119e+03 2.258848877875931e+02 2.918975276816622e+03
1.145344072587797e+03 2.244776259303619e+02 2.918975276816622e+03
1.144933482307115e+03 2.235995364596295e+02 2.918975276816622e+03
1.145366472000632e+03 2.223091014297033e+02 2.918975276816622e+03
1.145594611094125e+03 2.215056557541949e+02 2.918975276816622e+03
1.146098981031708e+03 2.203670508895220e+02 2.918975276816622e+03
1.146616537642167e+03 2.179695557951290e+02 2.918975276816622e+03
1.147818427828119e+03 2.179006406226354e+02 2.918975276816622e+03
1.146452122568944e+03 2.156569944548366e+02 2.918975276816622e+03
1.146421119282171e+03 2.146742998642911e+02 2.918975276816622e+03
1.147945874848381e+03 2.135108926553784e+02 2.918975276816622e+03
1.146607231044795e+03 2.124699779713883e+02 2.918975276816622e+03
1.145691682688527e+03 2.114470219720168e+02 2.918975276816622e+03
1.145589927344427e+03 2.087209775184822e+02 2.918975276816622e+03
1.145616808472391e+03 2.081500621842806e+02 2.918975276816622e+03
1.145383125742326e+03 2.067641903016648e+02 2.918975276816622e+03
1.145571097028330e+03 2.059141007817405e+02 2.918975276816622e+03
1.145345380894537e+03 2.045090966067633e+02 2.918975276816622e+03
1.144933763494906e+03 2.036257397459885e+02 2.918975276816622e+03
1.145367285190805e+03 2.023410128020417e+02 2.918975276816622e+03
1.145592938188033e+03 2.015357322210730e+02 2.918975276816622e+03
1.146102174152800e+03 2.003995652343380e+02 2.918975276816622e+03
1.146616310609641e+03 1.980003164936869e+02 2.918975276816622e+03
1.147818870976182e+03 1.979255173703898e+02 2.918975276816622e+03
1.146451612378869e+03 1.956864255369179e+02 2.918975276816622e+03
1.146422403920747e+03 1.947080150242603e+02 2.918975276816622e+03
1.147948482824024e+03 1.935410902088477e+02 2.918975276816622e+03
1.146607774727365e+03 1.925004520106473e+02 2.918975276816622e+03
1.145691840952454e+03 1.914770206553198e+02 2.918975276816622e+03
1.145590510949310e+03 1.887527477607678e+02 2.918975276816622e+03
1.145612708942775e+03 1.881705416002880e+02 2.918975276816622e+03
1.145367623421160e+03 1.867949657699922e+02 2.918975276816622e+03
1.145562662910757e+03 1.859478251049205e+02 2.918975276816622e+03
1.145344189627001e+03 1.845404489189957e+02 2.918975276816622e+03
1.144934093449882e+03 1.836607872104681e+02 2.918975276816622e+03
1.145366970297649e+03 1.823720195523363e+02 2.918975276816622e+03
1.145594122348460e+03 1.815682739361004e+02 2.918975276816622e+03
1.146100381186883e+03 1.804313177725885e+02 2.918975276816622e+03
1.146617186531958e+03 1.780333893223452e+02 2.918975276816622e+03
1.147819987815690e+03 1.779537254111775e+02 2.918975276816622e+03
1.146451219166405e+03 1.757175861589192e+02 2.918975276816622e+03
1.146423216882070e+03 1.747401562313681e+02 2.918975276816622e+03
1.147948170681361e+03 1.735739456818004e+02 2.918975276816622e+03
1.146609030308675e+03 1.725329792013628e+02 2.918975276816622e+03
1.145692218027127e+03 1.715079370455339e+02 2.918975276816622e+03
1.145589786488369e+03 1.687848541993633e+02 2.918975276816622e+03
1.145611299591325e+03 1.681995965406150e+02 2.918975276816622e+03
1.145360222427273e+03 1.668266689811580e+02 2.918975276816622e+03
1.145558953431517e+03 1.659804850837837e+02 2.918975276816622e+03
1.145344148913472e+03 1.645726859745380e+02 2.918975276816622e+03
1.144934360173581e+03 1.636945099430273e+02 2.918975276816622e+03
1.145366752780969e+03 1.624060311150728e+02 2.918975276816622e+03
1.145592269128561e+03 1.616006800158936e+02 2.918975276816622e+03
1.146101271794923e+03 1.604627756786794e+02 2.918975276816622e+03
1.146615425905960e+03 1.580635498464084e+02 2.918975276816622e+03
1.147818401532382e+03 1.579879030480583e+02 2.918975276816622e+03
1.146451566931493e+03 1.557496258610401e+02 2.918975276816622e+03
1.146423066350375e+03 1.547715596733681e+02 2.918975276816622e+03
1.147946820934718e+03 1.536112158535907e+02 2.918975276816622e+03
1.146608806446442e+03 1.525655534705343e+02 2.918975276816622e+03
1.145691777398496e+03 1.515400559779301e+02 2.918975276816622e+03
1.145589027583886e+03 1.488170703354843e+02 2.918975276816622e+03
1.145611430899526e+03 1.482300287340687e+02 2.918975276816622e+03
1.145354883808667e+03 1.468562681976666e+02 2.918975276816622e+03
1.145556101116717e+03 1.460123853525405e+02 2.918975276816622e+03
1.145342094014607e+03 1.446020893243345e+02 2.918975276816622e+03
1.144931444070670e+03 1.437245690799240e+02 2.918975276816622e+03
1.145367086777795e+03 1.424311426153234e+02 2.918975276816622e+03
1.145594105441530e+03 1.416297801242357e+02 2.918975276816622e+03
1.146098860841396e+03 1.404952272578196e+02 2.918975276816622e+03
1.146617335012916e+03 1.380967325192121e+02 2.918975276816622e+03
1.147817005588824e+03 1.380198317397648e+02 2.918975276816622e+03
1.146451299127016e+03 1.357820748931096e+02 2.918975276816622e+03
1.146422281069389e+03 1.348033660536748e+02 2.918975276816622e+03
1.147946410498083e+03 1.336409697744364e+02 2.918975276816622e+03
1.146607461119185e+03 1.325970149789740e+02 2.918975276816622e+03
1.145690737682498e+03 1.315719906440956e+02 2.918975276816622e+03
1.145589191241188e+03 1.288477021536629e+02 2.918975276816622e+03
1.145612087856024e+03 1.282714621024393e+02 2.918975276816622e+03
1.145372201481493e+03 1.268894459449628e+02 2.918975276816622e+03
1.145564647859905e+03 1.260415462646823e+02 2.918975276816622e+03
1.145342280457715e+03 1.246353306750407e+02 2.918975276816622e+03
1.144930637255673e+03 1.237546228662288e+02 2.918975276816622e+03
1.145365170841786e+03 1.224673287726453e+02 2.918975276816622e+03
1.145593183095366e+03 1.216626513862475e+02 2.918975276816622e+03
1.146098292345350e+03 1.205265367020052e+02 2.918975276816622e+03
1.146616498080109e+03 1.181284312571754e+02 2.918975276816622e+03
1.147817283008553e+03 1.180503682256413e+02 2.918975276816622e+03
1.146451214192867e+03 1.158141098741559e+02 2.918975276816622e+03
1.146423003021606e+03 1.148348449301636e+02 2.918975276816622e+03
1.147944480548192e+03 1.136733800081484e+02 2.918975276816622e+03
1.146607930489119e+03 1.126303338137769e+02 2.918975276816622e+03
1.145689446131387e+03 1.116032871249208e+02 2.918975276816622e+03
1.145588286196809e+03 1.088770758729540e+02 2.918975276816622e+03
1.145613587087496e+03 1.083275574734255e+02 2.918975276816622e+03
1.145406264398773e+03 1.069219082949340e+02 2.918975276816622e+03
1.145581932309137e+03 1.060672201793757e+02 2.918975276816622e+03
1.145341899819015e+03 1.046680359076750e+02 2.918975276816622e+03
1.144927485454917e+03 1.037793757344951e+02 2.918975276816622e+03
1.145365404166912e+03 1.025019695562611e+02 2.918975276816622e+03
1.145587901181634e+03 1.016912850321963e+02 2.918975276816622e+03
1.146101108347430e+03 1.005586843845150e+02 2.918975276816622e+03
1.146612021027152e+03 9.815467754921458e+01 2.918975276816622e+03
1.147808660457853e+03 9.810450899104603e+01 2.918975276816622e+03
1.146449134234437e+03 9.586091317429873e+01 2.918975276816622e+03
1.146415618666495e+03 9.485410076202163e+01 2.918975276816622e+03
1.147926613034092e+03 9.368962488654834e+01 2.918975276816622e+03
1.146602503656575e+03 9.267034934160280e+01 2.918975276816622e+03
1.146869498161737e+03 9.165437624788886e+01 2.918975276816622e+03
1.145886379159519e+03 9.019359310219970e+01 2.918975276816622e+03
1.145594881573500e+03 8.882257568492551e+01 2.918975276816622e+03
1.145430868387638e+03 8.752615070124253e+01 2.918975276816622e+03
1.144881949657652e+03 8.700991085432196e+01 2.918975276816622e+03
1.145644754175417e+03 8.610931073768563e+01 2.918975276816622e+03
1.145426346132258e+03 8.525495440794944e+01 2.918975276816622e+03
1.145685834553876e+03 8.414960131243124e+01 2.918975276816622e+03
1.147570220937541e+03 8.291881627547086e+01 2.918975276816622e+03
1.145954603936378e+03 8.209436333344946e+01 2.918975276816622e+03
1.145356113964377e+03 8.062749394559370e+01 2.918975276816622e+03
1.146035197321167e+03 7.925619737570887e+01 2.918975276816622e+03
1.145006421693736e+03 7.727346994674224e+01 2.918975276816622e+03
1.144430129568810e+03 7.643763253526598e+01 2.918975276816622e+03
1.143789727825682e+03 7.493855317504644e+01 2.918975276816622e+03
1.144227196274438e+03 7.279256472912031e+01 2.918975276816622e+03
1.144304951455460e+03 7.186903329505422e+01 2.918975276816622e+03
1.144131721840951e+03 7.042033656535695e+01 2.918975276816622e+03
1.144696622398992e+03 6.978408030499831e+01 2.918975276816622e+03
1.145517020227379e+03 6.825370210514232e+01 2.918975276816622e+03
1.144450078999388e+03 6.733057446027401e+01 2.918975276816622e+03
1.145003586229060e+03 6.561243543563795e+01 2.918975276816622e+03
1.145232431678103e+03 6.479902937762959e+01 2.918975276816622e+03
1.147173783967899e+03 6.340619213137512e+01 2.918975276816622e+03
1.145819498053284e+03 6.265501047670147e+01 2.918975276816622e+03
1.145088196575316e+03 6.140408310412076e+01 2.918975276816622e+03
1.145023560563631e+03 6.094230522457909e+01 2.918975276816622e+03
1.144718604943690e+03 5.985660358670415e+01 2.918975276816622e+03
1.143763995689962e+03 5.913813136406144e+01 2.918975276816622e+03
1.144127172404832e+03 5.775414337700430e+01 2.918975276816622e+03
1.143058249051124e+03 5.655252873432451e+01 2.918975276816622e+03
1.144816771370841e+03 5.582811625828788e+01 2.918975276816622e+03
1.144284471947525e+03 5.455680357836992e+01 2.918975276816622e+03
1.145483982100919e+03 5.404817038924406e+01 2.918975276816622e+03
1.144894171530500e+03 5.199584221288720e+01 2.918975276816622e+03
1.144573674240399e+03 5.036493948835148e+01 2.918975276816622e+03
1.145660149648281e+03 5.013982236481836e+01 2.918975276816622e+03
1.145561349529433e+03 4.895834230634086e+01 2.918975276816622e+03
1.145595564489485e+03 4.789262621101041e+01 2.918975276816622e+03
1.145994439248876e+03 4.702691138026670e+01 2.918975276816622e+03
1.146138857943168e+03 4.412309610354052e+01 2.918975276816622e+03
1.145894780746022e+03 4.240506396591125e+01 2.918975276816622e+03
1.145631602800089e+03 4.192239598844234e+01 2.918975276816622e+03
1.145115944382974e+03 4.086240161615314e+01 2.918975276816622e+03
1.145005824355353e+03 4.046922790994203e+01 2.918975276816622e+03
1.144672921655403e+03 3.911979246608058e+01 2.918975276816622e+03
1.144550514798473e+03 3.621231360145985e+01 2.918975276816622e+03
1.145288106972608e+03 3.522823685150424e+01 2.918975276816622e+03
1.145262260325845e+03 3.436164388286084e+01 2.918975276816622e+03
1.145604056403654e+03 3.246091240776785e+01 2.918975276816622e+03
1.146168790792387e+03 2.928942968600606e+01 2.918975276816622e+03
1.145587161361646e+03 2.732005539884748e+01 2.918975276816622e+03
1.144761486315138e+03 2.583679522256985e+01 2.918975276816622e+03
1.144960268235423e+03 2.531494468591418e+01 2.918975276816622e+03
1.144343513222037e+03 2.297863873223610e+01 2.918975276816622e+03
1.145746234557843e+03 2.266221084283209e+01 2.918975276816622e+03
1.145355596210703e+03 2.101667617287390e+01 2.918975276816622e+03
1.147416851190754e+03 1.871772048455626e+01 2.918975276816622e+03
1.144670317871558e+03 1.779379489128463e+01 2.918975276816622e+03
1.145169593574925e+03 1.607547765242663e+01 2.918975276816622e+03
1.144652343491789e+03 1.430280111091742e+01 2.918975276816622e+03
1.145146801427319e+03 1.323884354693385e+01 2.918975276816622e+03
1.145587135112770e+03 1.180271424095049e+01 2.918975276816622e+03
1.145455800556382e+03 1.013425113489624e+01 2.918975276816622e+03
1.143621390291508e+03 8.844764979897169e+00 2.918975276816622e+03
1.145491102808895e+03 7.659276010867567e+00 2.918975276816622e+03
1.145784270803593e+03 5.633949501074581e+00 2.918975276816622e+03
1.146291347827959e+03 4.769885006329103e+00 2.918975276816622e+03
1.145350485422529e+03 2.755548607141614e+00 2.918975276816622e+03
-1.158003162116582e+03  1.046939534177300e+00 -2.918975276816622e+03
-1.157528707744864e+03 -1.064358825931786e+00 -2.918975276816622e+03
-1.156539810718378e+03 -2.346637767184068e+00 -2.918975276816622e+03
-1.155779769330762e+03 -3.120428890040711e+00 -2.918975276816622e+03
-1.156909804946945e+03 -4.126631237330058e+00 -2.918975276816622e+03
-1.157432503421740e+03 -5.850961668399868e+00 -2.918975276816622e+03
-1.156461178949068e+03 -5.493682550751206e+00 -2.918975276816622e+03
-1.156347629102961e+03 -6.682620480840001e+00 -2.918975276816622e+03
-1.156760748411381e+03 -7.996471011432237e+00 -2.918975276816622e+03
-1.158274470690902e+03 -1.033189226902395e+01 -2.918975276816622e+03
-1.157302013044402e+03 -1.078129662198800e+01 -2.918975276816622e+03
-1.157567460645113e+03 -1.105623462972927e+01 -2.918975276816622e+03
-1.157355319793732e+03 -1.174526159221283e+01 -2.918975276816622e+03
-1.157699009910187e+03 -1.345676083564116e+01 -2.918975276816622e+03
-1.158048302311732e+03 -1.440088961542417e+01 -2.918975276816622e+03
-1.158106746974981e+03 -1.729271911262920e+01 -2.918975276816622e+03
-1.157223773719123e+03 -2.033772859676400e+01 -2.918975276816622e+03
-1.156598573390973e+03 -2.276014813014700e+01 -2.918975276816622e+03
-1.156285288385974e+03 -2.332397895096115e+01 -2.918975276816622e+03
-1.158153782231062e+03 -2.575649668657653e+01 -2.918975276816622e+03
-1.156809056900283e+03 -2.660864280130896e+01 -2.918975276816622e+03
-1.157408544276641e+03 -2.888753316621575e+01 -2.918975276816622e+03
-1.155681383139544e+03 -2.909242862096943e+01 -2.918975276816622e+03
-1.156518198047217e+03 -3.090447830727895e+01 -2.918975276816622e+03
-1.156992593682122e+03 -3.198423948021130e+01 -2.918975276816622e+03
-1.157176718720932e+03 -3.308216013009405e+01 -2.918975276816622e+03
-1.156926214604483e+03 -3.353250834515439e+01 -2.918975276816622e+03
-1.156527872424854e+03 -3.522370756226997e+01 -2.918975276816622e+03
-1.156952378765015e+03 -3.570405227299136e+01 -2.918975276816622e+03
-1.158014800457328e+03 -3.636013698488014e+01 -2.918975276816622e+03
-1.158219572557909e+03 -3.723830372096990e+01 -2.918975276816622e+03
-1.157733953561794e+03 -3.888716164411129e+01 -2.918975276816622e+03
-1.157312531373301e+03 -4.039180862057260e+01 -2.918975276816622e+03
-1.157102299202029e+03 -4.131235769155464e+01 -2.918975276816622e+03
-1.157224438538682e+03 -4.346363632564081e+01 -2.918975276816622e+03
-1.157717697830835e+03 -4.467971786625350e+01 -2.918975276816622e+03
-1.157660991593977e+03 -4.612319312628333e+01 -2.918975276816622e+03
-1.157072727159232e+03 -4.735227192556690e+01 -2.918975276816622e+03
-1.156861074183937e+03 -4.976218775456614e+01 -2.918975276816622e+03
-1.156976439607454e+03 -5.060852640189234e+01 -2.918975276816622e+03
-1.157315007475060e+03 -5.214756669238079e+01 -2.918975276816622e+03
-1.157648944256048e+03 -5.341460957211342e+01 -2.918975276816622e+03
-1.158153752223930e+03 -5.358076339881854e+01 -2.918975276816622e+03
-1.157138044525272e+03 -5.543420864846342e+01 -2.918975276816622e+03
-1.156888599657251e+03 -5.571140647993916e+01 -2.918975276816622e+03
-1.157954684149854e+03 -5.629016812999220e+01 -2.918975276816622e+03
-1.158155069301469e+03 -5.728301104175761e+01 -2.918975276816622e+03
-1.157690472818991e+03 -5.887388257899781e+01 -2.918975276816622e+03
-1.157299623464044e+03 -6.035782912891943e+01 -2.918975276816622e+03
-1.157082755547791e+03 -6.127717625012389e+01 -2.918975276816622e+03
-1.157214017834585e+03 -6.343688364747522e+01 -2.918975276816622e+03
-1.157709944398740e+03 -6.465005170702423e+01 -2.918975276816622e+03
-1.157655423558194e+03 -6.608823085437794e+01 -2.918975276816622e+03
-1.157067610071306e+03 -6.731914010342669e+01 -2.918975276816622e+03
-1.156856153123919e+03 -6.973310802541459e+01 -2.918975276816622e+03
-1.156975199449538e+03 -7.057777458098289e+01 -2.918975276816622e+03
-1.157311843443928e+03 -7.211530681989862e+01 -2.918975276816622e+03
-1.157645483161821e+03 -7.338857186581291e+01 -2.918975276816622e+03
-1.158164625110590e+03 -7.355250552957575e+01 -2.918975276816622e+03
-1.157141190226319e+03 -7.540104903419000e+01 -2.918975276816622e+03
-1.156888170103115e+03 -7.568212938784788e+01 -2.918975276816622e+03
-1.157949972071648e+03 -7.626016301888113e+01 -2.918975276816622e+03
-1.158149724310732e+03 -7.725542953333222e+01 -2.918975276816622e+03
-1.157687508929654e+03 -7.884515634193718e+01 -2.918975276816622e+03
-1.157298881073403e+03 -8.032654527597883e+01 -2.918975276816622e+03
-1.157081745865927e+03 -8.124479034600260e+01 -2.918975276816622e+03
-1.157212778773254e+03 -8.340502939937090e+01 -2.918975276816622e+03
-1.157708632345546e+03 -8.461955349866101e+01 -2.918975276816622e+03
-1.157654342020001e+03 -8.605616780630118e+01 -2.918975276816622e+03
-1.157066949056959e+03 -8.728694761117777e+01 -2.918975276816622e+03
-1.156855353343649e+03 -8.970253103529056e+01 -2.918975276816622e+03
-1.156975046224612e+03 -9.054681343904643e+01 -2.918975276816622e+03
-1.157307102098194e+03 -9.207912597414463e+01 -2.918975276816622e+03
-1.157597192430715e+03 -9.333583428261456e+01 -2.918975276816622e+03
-1.157984370858495e+03 -9.342571275645186e+01 -2.918975276816622e+03
-1.157119793208622e+03 -9.536287082212660e+01 -2.918975276816622e+03
-1.156880661450364e+03 -9.566015148865901e+01 -2.918975276816622e+03
-1.157936888357195e+03 -9.624078743914920e+01 -2.918975276816622e+03
-1.158134674787632e+03 -9.724483967610364e+01 -2.918975276816622e+03
-1.157682708078124e+03 -9.882033357308023e+01 -2.918975276816622e+03
-1.157300418812421e+03 -1.002999054413141e+02 -2.918975276816622e+03
-1.157085389522472e+03 -1.012139235351391e+02 -2.918975276816622e+03
-1.157211623720011e+03 -1.033712230791247e+02 -2.918975276816622e+03
-1.157706692895459e+03 -1.045904399711738e+02 -2.918975276816622e+03
-1.157652893802308e+03 -1.060244812394357e+02 -2.918975276816622e+03
-1.157065645240106e+03 -1.072548531203341e+02 -2.918975276816622e+03
-1.156854785888022e+03 -1.096691633020033e+02 -2.918975276816622e+03
-1.156973450386890e+03 -1.105142890403592e+02 -2.918975276816622e+03
-1.157311317640941e+03 -1.120528416968549e+02 -2.918975276816622e+03
-1.157651085008021e+03 -1.133281381380454e+02 -2.918975276816622e+03
-1.158176948464402e+03 -1.135038717470555e+02 -2.918975276816622e+03
-1.157137756566675e+03 -1.153395754693779e+02 -2.918975276816622e+03
-1.156885747850920e+03 -1.156141862776975e+02 -2.918975276816622e+03
-1.157959067582155e+03 -1.161911793377434e+02 -2.918975276816622e+03
-1.158158756583732e+03 -1.171820565445954e+02 -2.918975276816622e+03
-1.157692786755130e+03 -1.187757416782777e+02 -2.918975276816622e+03
-1.157298459909340e+03 -1.202629771504682e+02 -2.918975276816622e+03
-1.157079735883677e+03 -1.211806388244266e+02 -2.918975276816622e+03
-1.157211495154075e+03 -1.233419296776241e+02 -2.918975276816622e+03
-1.157707547603757e+03 -1.245558614402807e+02 -2.918975276816622e+03
-1.157653679011085e+03 -1.259932690082898e+02 -2.918975276816622e+03
-1.157065858266126e+03 -1.272238570641720e+02 -2.918975276816622e+03
-1.156854253434935e+03 -1.296376354088840e+02 -2.918975276816622e+03
-1.156973751178955e+03 -1.304821331365740e+02 -2.918975276816622e+03
-1.157311895371442e+03 -1.320213593573251e+02 -2.918975276816622e+03
-1.157663213409848e+03 -1.333143901543381e+02 -2.918975276816622e+03
-1.158227927489697e+03 -1.335169126347703e+02 -2.918975276816622e+03
-1.157143465606955e+03 -1.353075965727586e+02 -2.918975276816622e+03
-1.156887640555116e+03 -1.355817471029495e+02 -2.918975276816622e+03
-1.157955085799204e+03 -1.361625708495679e+02 -2.918975276816622e+03
-1.158152697336166e+03 -1.371575104915518e+02 -2.918975276816622e+03
-1.157688104891436e+03 -1.387478762761024e+02 -2.918975276816622e+03
-1.157297322089889e+03 -1.402301830291968e+02 -2.918975276816622e+03
-1.157078859483826e+03 -1.411491547753138e+02 -2.918975276816622e+03
-1.157211024569430e+03 -1.433107623448637e+02 -2.918975276816622e+03
-1.157707428587745e+03 -1.445235550183868e+02 -2.918975276816622e+03
-1.157653148176759e+03 -1.459606140015836e+02 -2.918975276816622e+03
-1.157065238149632e+03 -1.471925156990038e+02 -2.918975276816622e+03
-1.156854049574457e+03 -1.496060977200588e+02 -2.918975276816622e+03
-1.156973615988601e+03 -1.504498000010420e+02 -2.918975276816622e+03
-1.157312295184551e+03 -1.519899866832653e+02 -2.918975276816622e+03
-1.157665599322650e+03 -1.532830454525542e+02 -2.918975276816622e+03
-1.158230488732072e+03 -1.534905442619620e+02 -2.918975276816622e+03
-1.157142113365792e+03 -1.552765071973870e+02 -2.918975276816622e+03
-1.156887125924529e+03 -1.555486568706189e+02 -2.918975276816622e+03
-1.157958129900613e+03 -1.561271886743980e+02 -2.918975276816622e+03
-1.158156854752253e+03 -1.571190177934390e+02 -2.918975276816622e+03
-1.157690476546012e+03 -1.587137003640360e+02 -2.918975276816622e+03
-1.157297034286865e+03 -1.601983959786098e+02 -2.918975276816622e+03
-1.157078457426977e+03 -1.611174606259155e+02 -2.918975276816622e+03
-1.157211796806504e+03 -1.632779924805844e+02 -2.918975276816622e+03
-1.157707550033146e+03 -1.644913325985570e+02 -2.918975276816622e+03
-1.157653069747166e+03 -1.659288164877485e+02 -2.918975276816622e+03
-1.157064340794363e+03 -1.671599302878015e+02 -2.918975276816622e+03
-1.156853637583590e+03 -1.695747624257627e+02 -2.918975276816622e+03
-1.156973888144180e+03 -1.704182317768711e+02 -2.918975276816622e+03
-1.157312802740994e+03 -1.719583216263368e+02 -2.918975276816622e+03
-1.157669341225818e+03 -1.732558688755379e+02 -2.918975276816622e+03
-1.158241996541458e+03 -1.734724267300168e+02 -2.918975276816622e+03
-1.157141290714801e+03 -1.752452040146207e+02 -2.918975276816622e+03
-1.156885580523335e+03 -1.755143932195567e+02 -2.918975276816622e+03
-1.157963745358221e+03 -1.760939780058372e+02 -2.918975276816622e+03
-1.158161149958251e+03 -1.770849111528772e+02 -2.918975276816622e+03
-1.157693161971753e+03 -1.786793047629156e+02 -2.918975276816622e+03
-1.157297208485362e+03 -1.801670055131701e+02 -2.918975276816622e+03
-1.157077131287654e+03 -1.810845092218530e+02 -2.918975276816622e+03
-1.157210571611348e+03 -1.832464739953883e+02 -2.918975276816622e+03
-1.157706398486587e+03 -1.844611553450389e+02 -2.918975276816622e+03
-1.157652634158566e+03 -1.858972922734312e+02 -2.918975276816622e+03
-1.157064366643816e+03 -1.871285200653392e+02 -2.918975276816622e+03
-1.156853220220689e+03 -1.895427103348209e+02 -2.918975276816622e+03
-1.156972783877841e+03 -1.903866365575898e+02 -2.918975276816622e+03
-1.157310999304483e+03 -1.919263993932788e+02 -2.918975276816622e+03
-1.157659091160293e+03 -1.932113056859042e+02 -2.918975276816622e+03
-1.158208052216755e+03 -1.934058644421909e+02 -2.918975276816622e+03
-1.157139005420711e+03 -1.952129968669058e+02 -2.918975276816622e+03
-1.156885286523169e+03 -1.954856174230673e+02 -2.918975276816622e+03
-1.157958654277921e+03 -1.960632260372901e+02 -2.918975276816622e+03
-1.158157394517245e+03 -1.970541638964008e+02 -2.918975276816622e+03
-1.157690865482479e+03 -1.986493147370526e+02 -2.918975276816622e+03
-1.157296500680082e+03 -2.001359070943847e+02 -2.918975276816622e+03
-1.157077290436639e+03 -2.010531795444839e+02 -2.918975276816622e+03
-1.157209656702097e+03 -2.032148134558340e+02 -2.918975276816622e+03
-1.157705306804299e+03 -2.044298108555444e+02 -2.918975276816622e+03
-1.157651406287585e+03 -2.058648717150677e+02 -2.918975276816622e+03
-1.157063583255112e+03 -2.070968970153833e+02 -2.918975276816622e+03
-1.156851978111735e+03 -2.095109838524374e+02 -2.918975276816622e+03
-1.156971876097231e+03 -2.103545369170997e+02 -2.918975276816622e+03
-1.157311125008553e+03 -2.118956407962514e+02 -2.918975276816622e+03
-1.157673313371856e+03 -2.131992574061814e+02 -2.918975276816622e+03
-1.158255958807889e+03 -2.134276107121113e+02 -2.918975276816622e+03
-1.157141442889297e+03 -2.151816135536531e+02 -2.918975276816622e+03
-1.156885790878966e+03 -2.154497202798725e+02 -2.918975276816622e+03
-1.157964282403632e+03 -2.160294580825913e+02 -2.918975276816622e+03
-1.158161019803063e+03 -2.170192898228611e+02 -2.918975276816622e+03
-1.157692328585156e+03 -2.186158168972922e+02 -2.918975276816622e+03
-1.157296072508877e+03 -2.201036099904371e+02 -2.918975276816622e+03
-1.157075139741310e+03 -2.210208823900944e+02 -2.918975276816622e+03
-1.157208940116455e+03 -2.231831407540043e+02 -2.918975276816622e+03
-1.157704680742374e+03 -2.243978959554807e+02 -2.918975276816622e+03
-1.157651183736659e+03 -2.258336529273355e+02 -2.918975276816622e+03
-1.157062748801362e+03 -2.270652048162978e+02 -2.918975276816622e+03
-1.156850274624577e+03 -2.294780120141023e+02 -2.918975276816622e+03
-1.156970871802505e+03 -2.303215485751223e+02 -2.918975276816622e+03
-1.157239626380961e+03 -2.318386529727646e+02 -2.918975276816622e+03
-1.157673416597820e+03 -2.331765157202195e+02 -2.918975276816622e+03
-1.158262812731643e+03 -2.334110824686973e+02 -2.918975276816622e+03
-1.157139352773204e+03 -2.351490916050733e+02 -2.918975276816622e+03
-1.156885096468613e+03 -2.354164898961807e+02 -2.918975276816622e+03
-1.157960470683161e+03 -2.360101947962764e+02 -2.918975276816622e+03
-1.158140674566207e+03 -2.370120030184058e+02 -2.918975276816622e+03
-1.157679281938519e+03 -2.385957355561625e+02 -2.918975276816622e+03
-1.157292008547477e+03 -2.400754009956808e+02 -2.918975276816622e+03
-1.157067708816784e+03 -2.409925508610613e+02 -2.918975276816622e+03
-1.157199993459649e+03 -2.431506920666838e+02 -2.918975276816622e+03
-1.157696470124561e+03 -2.443624950332474e+02 -2.918975276816622e+03
-1.157644606308699e+03 -2.458116953282083e+02 -2.918975276816622e+03
-1.157062009155704e+03 -2.470205172273527e+02 -2.918975276816622e+03
-1.156753219145552e+03 -2.493535132807879e+02 -2.918975276816622e+03
-1.156874623951996e+03 -2.503769350929373e+02 -2.918975276816622e+03
-1.156795331958259e+03 -2.516855785587364e+02 -2.918975276816622e+03
-1.156515041880748e+03 -2.535100097675810e+02 -2.918975276816622e+03
-1.155904252782239e+03 -2.538519040949448e+02 -2.918975276816622e+03
-1.156271944328254e+03 -2.544392291629854e+02 -2.918975276816622e+03
-1.156288201185515e+03 -2.564182154613193e+02 -2.918975276816622e+03
-1.156911367203635e+03 -2.570529934288010e+02 -2.918975276816622e+03
-1.156981412212621e+03 -2.579834802971727e+02 -2.918975276816622e+03
-1.156789444586156e+03 -2.604003020986155e+02 -2.918975276816622e+03
-1.156942781492085e+03 -2.612477290298484e+02 -2.918975276816622e+03
-1.157165273030554e+03 -2.627788851157775e+02 -2.918975276816622e+03
-1.157633656353870e+03 -2.641485800392391e+02 -2.918975276816622e+03
-1.158231216928242e+03 -2.643490133632338e+02 -2.918975276816622e+03
-1.157127819128310e+03 -2.660961851072418e+02 -2.918975276816622e+03
-1.156883794283184e+03 -2.663680740932811e+02 -2.918975276816622e+03
-1.157947265325290e+03 -2.669783198076805e+02 -2.918975276816622e+03
-1.158086046621062e+03 -2.678120196995509e+02 -2.918975276816622e+03
-1.157628207605934e+03 -2.694628445921845e+02 -2.918975276816622e+03
-1.157162838527066e+03 -2.710553196950249e+02 -2.918975276816622e+03
-1.156927873106234e+03 -2.718130197827407e+02 -2.918975276816622e+03
-1.156698902919444e+03 -2.743601692523384e+02 -2.918975276816622e+03
-1.157159197707526e+03 -2.752375604795554e+02 -2.918975276816622e+03
-1.157927994103277e+03 -2.767930957192872e+02 -2.918975276816622e+03
-1.157988801575550e+03 -2.778370869469218e+02 -2.918975276816622e+03
-1.157502574157454e+03 -2.790983588393668e+02 -2.918975276816622e+03
-1.156803407604093e+03 -2.802848728355183e+02 -2.918975276816622e+03
-1.156165769538170e+03 -2.815800218783584e+02 -2.918975276816622e+03
-1.155363022038819e+03 -2.829452561269648e+02 -2.918975276816622e+03
-1.156073975089510e+03 -2.835972246987053e+02 -2.918975276816622e+03
-1.156649820381974e+03 -2.846326570426656e+02 -2.918975276816622e+03
-1.156666704672718e+03 -2.855054665344300e+02 -2.918975276816622e+03
-1.156861192680244e+03 -2.867028163431409e+02 -2.918975276816622e+03
-1.156933897771391e+03 -2.887620205585309e+02 -2.918975276816622e+03
-1.156515864935372e+03 -2.891997986667839e+02 -2.918975276816622e+03
-1.156717978199808e+03 -2.897035677234931e+02 -2.918975276816622e+03
-1.155996452149535e+03 -2.908222695010644e+02 -2.918975276816622e+03
-1.156501889252420e+03 -2.919033483953544e+02 -2.918975276816622e+03
-1.157683143909203e+03 -2.921538460712963e+02 -2.918975276816622e+03
-1.156602289123440e+03 -2.937416390006838e+02 -2.918975276816622e+03
-1.156458519063989e+03 -2.946940713958913e+02 -2.918975276816622e+03
-1.155872840578967e+03 -2.964432185084730e+02 -2.918975276816622e+03
-1.155803475646059e+03 -2.971611904824197e+02 -2.918975276816622e+03
-1.156004693383676e+03 -2.990863327411874e+02 -2.918975276816622e+03
-1.155761982327153e+03 -3.000586399041477e+02 -2.918975276816622e+03
-1.156393074330414e+03 -3.019411369964243e+02 -2.918975276816622e+03
-1.156624786582685e+03 -3.021835416409858e+02 -2.918975276816622e+03
-1.157049053151655e+03 -3.035146224064552e+02 -2.918975276816622e+03
-1.157682965136644e+03 -3.050807410081293e+02 -2.918975276816622e+03
-1.157204673558658e+03 -3.062220932283670e+02 -2.918975276816622e+03
-1.156137194493147e+03 -3.071965182576059e+02 -2.918975276816622e+03
-1.156806336145491e+03 -3.075318019218854e+02 -2.918975276816622e+03
-1.157808136872690e+03 -3.090057855401288e+02 -2.918975276816622e+03
-1.157393168821287e+03 -3.093004570367646e+02 -2.918975276816622e+03
-1.157057860079105e+03 -3.105392076840170e+02 -2.918975276816622e+03
-1.156017942121972e+03 -3.123234804969322e+02 -2.918975276816622e+03
-1.156940044740871e+03 -3.121231476274546e+02 -2.918975276816622e+03
-1.157434389660218e+03 -3.134529518653069e+02 -2.918975276816622e+03
-1.157610652395899e+03 -3.137961667492980e+02 -2.918975276816622e+03
-1.156825304085411e+03 -3.150597950445199e+02 -2.918975276816622e+03
-1.156766888133248e+03 -3.172688359521455e+02 -2.918975276816622e+03
-1.156611430984708e+03 -3.177726127860421e+02 -2.918975276816622e+03
-1.156387029677655e+03 -3.180044267000404e+02 -2.918975276816622e+03
-1.156769366581050e+03 -3.195387914831919e+02 -2.918975276816622e+03
-1.156964337304213e+03 -3.202867281472439e+02 -2.918975276816622e+03
-1.157360459985844e+03 -3.212719479157489e+02 -2.918975276816622e+03
-1.158915642149834e+03 -3.228349015216251e+02 -2.918975276816622e+03
-1.157234658502459e+03 -3.234772977504406e+02 -2.918975276816622e+03
-1.156723804964555e+03 -3.244681143254196e+02 -2.918975276816622e+03
-1.157004408325026e+03 -3.253272177544380e+02 -2.918975276816622e+03
-1.157655980239820e+03 -3.267131905592676e+02 -2.918975276816622e+03
-1.158105215086841e+03 -3.271221844962781e+02 -2.918975276816622e+03
-1.157277346770343e+03 -3.288754901585819e+02 -2.918975276816622e+03
-1.157572754847537e+03 -3.296216022990694e+02 -2.918975276816622e+03
-1.157189291165281e+03 -3.305707835616652e+02 -2.918975276816622e+03
-1.156501297497827e+03 -3.314874946617789e+02 -2.918975276816622e+03
-1.156334287257580e+03 -3.322973946076965e+02 -2.918975276816622e+03
-1.156271004979135e+03 -3.354746262278866e+02 -2.918975276816622e+03
-1.156708428074818e+03 -3.373264122461856e+02 -2.918975276816622e+03
-1.157814409183001e+03 -3.373117121253520e+02 -2.918975276816622e+03
-1.157179429164943e+03 -3.389914644005653e+02 -2.918975276816622e+03
-1.156857436729467e+03 -3.413081682923252e+02 -2.918975276816622e+03
-1.156137141172924e+03 -3.429225900594934e+02 -2.918975276816622e+03
-1.156709866153507e+03 -3.439864686468756e+02 -2.918975276816622e+03
-1.155063115557218e+03 -3.442279789884962e+02 -2.918975276816622e+03
-1.156223436846735e+03 -3.455645145284254e+02 -2.918975276816622e+03
-1.157412278266559e+03 -3.477461693259354e+02 -2.918975276816622e+03
-1.156811219396201e+03 -3.491376551490931e+02 -2.918975276816622e+03
-1.155551753133564e+03 -3.510459054602311e+02 -2.918975276816622e+03
-1.156523688514486e+03 -3.514782863506492e+02 -2.918975276816622e+03
-1.157211906818721e+03 -3.523699438215510e+02 -2.918975276816622e+03
-1.158327158084714e+03 -3.541015991523890e+02 -2.918975276816622e+03
-1.158056082981675e+03 -3.551435295789830e+02 -2.918975276816622e+03
-1.157635268811905e+03 -3.557112368570360e+02 -2.918975276816622e+03
-1.157063624382373e+03 -3.563231488996645e+02 -2.918975276816622e+03
-1.158006307974025e+03 -3.572193042770443e+02 -2.918975276816622e+03
-1.157921011880628e+03 -3.588000606009882e+02 -2.918975276816622e+03
-1.157713393879908e+03 -3.598756533304223e+02 -2.918975276816622e+03
-1.157214823138025e+03 -3.603993403981385e+02 -2.918975276816622e+03
-1.158220693803554e+03 -3.610816053934935e+02 -2.918975276816622e+03
-1.156920335746338e+03 -3.623081123481620e+02 -2.918975276816622e+03
-1.155747826857731e+03 -3.635638645815174e+02 -2.918975276816622e+03
-1.157074821024858e+03 -3.647092634568357e+02 -2.918975276816622e+03
-1.157318584159809e+03 -3.659302889832870e+02 -2.918975276816622e+03
-1.157193760265261e+03 -3.663150992103228e+02 -2.918975276816622e+03
-1.157102138134848e+03 -3.696404886170634e+02 -2.918975276816622e+03
-1.158091078889231e+03 -3.695948357672102e+02 -2.918975276816622e+03
-1.157637878656740e+03 -3.711752331210743e+02 -2.918975276816622e+03
-1.157771656996758e+03 -3.726010056612827e+02 -2.918975276816622e+03
-1.157716924810301e+03 -3.739242677810489e+02 -2.918975276816622e+03
-1.157868520251835e+03 -3.769465057306683e+02 -2.918975276816622e+03
-1.157254855076029e+03 -3.778331919450399e+02 -2.918975276816622e+03
-1.157695668225258e+03 -3.797728566170505e+02 -2.918975276816622e+03
-1.156735305674869e+03 -3.805707239821172e+02 -2.918975276816622e+03
-1.156976342009929e+03 -3.829009785892554e+02 -2.918975276816622e+03
-1.154849737189864e+03 -3.831109368687858e+02 -2.918975276816622e+03
-1.156898008920760e+03 -3.859742131731666e+02 -2.918975276816622e+03
-1.158464163825202e+03  3.843974800744390e+02 -2.918975276816622e+03
-1.157080808004544e+03  3.833477851897159e+02 -2.918975276816622e+03
-1.157367064876693e+03  3.817524376414657e+02 -2.918975276816622e+03
-1.157328737072904e+03  3.786303197814086e+02 -2.918975276816622e+03
-1.156572188863952e+03  3.775499489619804e+02 -2.918975276816622e+03
-1.157087241076512e+03  3.762943793051260e+02 -2.918975276816622e+03
-1.156887975340695e+03  3.751359086795869e+02 -2.918975276816622e+03
-1.157222576158382e+03  3.750000826911799e+02 -2.918975276816622e+03
-1.156312269013803e+03  3.738392552671648e+02 -2.918975276816622e+03
-1.154564305469133e+03  3.714589050284967e+02 -2.918975276816622e+03
-1.157055494286149e+03  3.709520366937160e+02 -2.918975276816622e+03
-1.157000738981159e+03  3.689445864162104e+02 -2.918975276816622e+03
-1.158698065021762e+03  3.669835017054386e+02 -2.918975276816622e+03
-1.157387344884201e+03  3.650800431897190e+02 -2.918975276816622e+03
-1.157155315511037e+03  3.650138032686488e+02 -2.918975276816622e+03
-1.156497915975442e+03  3.643215987660913e+02 -2.918975276816622e+03
-1.157613615151955e+03  3.618407404919355e+02 -2.918975276816622e+03
-1.157029726356373e+03  3.602953626492191e+02 -2.918975276816622e+03
-1.157768746055797e+03  3.595033425326052e+02 -2.918975276816622e+03
-1.157640311495853e+03  3.583448526201295e+02 -2.918975276816622e+03
-1.158607623088035e+03  3.566050565430133e+02 -2.918975276816622e+03
-1.156639264889884e+03  3.562015464759660e+02 -2.918975276816622e+03
-1.156162960067224e+03  3.532347360580324e+02 -2.918975276816622e+03
-1.157130899931164e+03  3.519049627007449e+02 -2.918975276816622e+03
-1.157061310639824e+03  3.509864205872893e+02 -2.918975276816622e+03
-1.157358165210881e+03  3.506011501332302e+02 -2.918975276816622e+03
-1.157337406988768e+03  3.496315081867491e+02 -2.918975276816622e+03
-1.158004070774125e+03  3.475142539159268e+02 -2.918975276816622e+03
-1.156705145079523e+03  3.473930266272157e+02 -2.918975276816622e+03
-1.156299664726055e+03  3.458860154141117e+02 -2.918975276816622e+03
-1.156066176992512e+03  3.456752630445334e+02 -2.918975276816622e+03
-1.156674706192423e+03  3.442907846116204e+02 -2.918975276816622e+03
-1.156325110476328e+03  3.429257463683289e+02 -2.918975276816622e+03
-1.156434186777902e+03  3.404010550934702e+02 -2.918975276816622e+03
-1.154892642156356e+03  3.400898597191572e+02 -2.918975276816622e+03
-1.156657606830939e+03  3.380977269986914e+02 -2.918975276816622e+03
-1.157285750305397e+03  3.372585128973903e+02 -2.918975276816622e+03
-1.156418802336056e+03  3.369208365352189e+02 -2.918975276816622e+03
-1.154524585265682e+03  3.355092999328654e+02 -2.918975276816622e+03
-1.156646040052718e+03  3.340006659202253e+02 -2.918975276816622e+03
-1.157501807689024e+03  3.332971539081278e+02 -2.918975276816622e+03
-1.156941317421343e+03  3.326268554711831e+02 -2.918975276816622e+03
-1.155732105910020e+03  3.307624237221988e+02 -2.918975276816622e+03
-1.155382490615977e+03  3.301651646089097e+02 -2.918975276816622e+03
-1.156023188359516e+03  3.293776718052910e+02 -2.918975276816622e+03
-1.155089059956594e+03  3.272872409280297e+02 -2.918975276816622e+03
-1.156969458920872e+03  3.256838751393578e+02 -2.918975276816622e+03
-1.157035481192284e+03  3.242039635260057e+02 -2.918975276816622e+03
-1.157298010147928e+03  3.218158329824490e+02 -2.918975276816622e+03
-1.157366655987762e+03  3.203060734260782e+02 -2.918975276816622e+03
-1.158299709634855e+03  3.186109086366672e+02 -2.918975276816622e+03
-1.157430947014974e+03  3.186634725808285e+02 -2.918975276816622e+03
-1.157678273779538e+03  3.176382502068824e+02 -2.918975276816622e+03
-1.157709173262950e+03  3.157537764204238e+02 -2.918975276816622e+03
-1.158760506082175e+03  3.158747441926454e+02 -2.918975276816622e+03
-1.157045390283228e+03  3.122608101861019e+02 -2.918975276816622e+03
-1.156171042090733e+03  3.107322890425559e+02 -2.918975276816622e+03
-1.156299001596145e+03  3.092207663129863e+02 -2.918975276816622e+03
-1.155858173508765e+03  3.089041500381248e+02 -2.918975276816622e+03
-1.156930322913025e+03  3.074345863225205e+02 -2.918975276816622e+03
-1.157517103615045e+03  3.037846983109032e+02 -2.918975276816622e+03
-1.156812983090397e+03  3.033450224690111e+02 -2.918975276816622e+03
-1.156881954544212e+03  3.023872344382498e+02 -2.918975276816622e+03
-1.157653106666771e+03  3.003028872535738e+02 -2.918975276816622e+03
-1.158293040216794e+03  3.001182297978799e+02 -2.918975276816622e+03
-1.156990169523396e+03  2.988852643554783e+02 -2.918975276816622e+03
-1.156592731113761e+03  2.966662377806049e+02 -2.918975276816622e+03
-1.156290389906297e+03  2.951892923213400e+02 -2.918975276816622e+03
-1.156304948585235e+03  2.941476685179298e+02 -2.918975276816622e+03
-1.156528395344710e+03  2.940374472331777e+02 -2.918975276816622e+03
-1.156419036975241e+03  2.928962579901784e+02 -2.918975276816622e+03
-1.157004434853922e+03  2.919737102997263e+02 -2.918975276816622e+03
-1.157802073405462e+03  2.906929844750165e+02 -2.918975276816622e+03
-1.156864049027048e+03  2.893224276963414e+02 -2.918975276816622e+03
-1.156767262675262e+03  2.891452661170911e+02 -2.918975276816622e+03
-1.157021935950188e+03  2.871643499101754e+02 -2.918975276816622e+03
-1.157341349730061e+03  2.867958491727535e+02 -2.918975276816622e+03
-1.157116560594100e+03  2.853765704176109e+02 -2.918975276816622e+03
-1.157037713107378e+03  2.836763634158993e+02 -2.918975276816622e+03
-1.159069287458234e+03  2.835334825922762e+02 -2.918975276816622e+03
-1.157673076450254e+03  2.822581322260003e+02 -2.918975276816622e+03
-1.157225147929915e+03  2.815529346044571e+02 -2.918975276816622e+03
-1.156918188621363e+03  2.801113594053900e+02 -2.918975276816622e+03
-1.157385659723322e+03  2.779008658145870e+02 -2.918975276816622e+03
-1.158075705289199e+03  2.772064835192539e+02 -2.918975276816622e+03
-1.157866810369040e+03  2.752121559219372e+02 -2.918975276816622e+03
-1.157122395658364e+03  2.741322181317648e+02 -2.918975276816622e+03
-1.156889753395256e+03  2.717266886404145e+02 -2.918975276816622e+03
-1.156987711676242e+03  2.708711843382740e+02 -2.918975276816622e+03
-1.157329097741227e+03  2.693490175240690e+02 -2.918975276816622e+03
-1.157629545429148e+03  2.681071628646979e+02 -2.918975276816622e+03
-1.158005191177196e+03  2.679907807543279e+02 -2.918975276816622e+03
-1.157135376130776e+03  2.660598312180679e+02 -2.918975276816622e+03
-1.156896910520450e+03  2.657635280418519e+02 -2.918975276816622e+03
-1.157942392707169e+03  2.652052632022860e+02 -2.918975276816622e+03
-1.158163444916930e+03  2.642236810293641e+02 -2.918975276816622e+03
-1.157698713688135e+03  2.626163240625291e+02 -2.918975276816622e+03
-1.157306444255913e+03  2.611320769225593e+02 -2.918975276816622e+03
-1.157095839087602e+03  2.602112744677256e+02 -2.918975276816622e+03
-1.157229464409166e+03  2.580502971412645e+02 -2.918975276816622e+03
-1.157733408679896e+03  2.568418761065777e+02 -2.918975276816622e+03
-1.157676964729403e+03  2.553808878905040e+02 -2.918975276816622e+03
-1.157186728923102e+03  2.541873577770697e+02 -2.918975276816622e+03
-1.157253570438210e+03  2.514059577291891e+02 -2.918975276816622e+03
-1.157451903750386e+03  2.502866284929724e+02 -2.918975276816622e+03
-1.157141602871569e+03  2.495060070725515e+02 -2.918975276816622e+03
-1.157261693274216e+03  2.470417872303745e+02 -2.918975276816622e+03
-1.157727402803983e+03  2.458777395027663e+02 -2.918975276816622e+03
-1.157675923771490e+03  2.444086887080872e+02 -2.918975276816622e+03
-1.157079930511672e+03  2.431876635705003e+02 -2.918975276816622e+03
-1.156868412221892e+03  2.407755428973102e+02 -2.918975276816622e+03
-1.156979706474146e+03  2.399275071890221e+02 -2.918975276816622e+03
-1.157318712290997e+03  2.383934348750817e+02 -2.918975276816622e+03
-1.157624443241219e+03  2.371520124987952e+02 -2.918975276816622e+03
-1.158007861896535e+03  2.370387115127333e+02 -2.918975276816622e+03
-1.157131810432891e+03  2.351090841285004e+02 -2.918975276816622e+03
-1.156896280565081e+03  2.348136493012395e+02 -2.918975276816622e+03
-1.157938097380443e+03  2.342500639015302e+02 -2.918975276816622e+03
-1.158151735658397e+03  2.332630983417076e+02 -2.918975276816622e+03
-1.157690304079001e+03  2.316586541032213e+02 -2.918975276816622e+03
-1.157302415176581e+03  2.301806261442858e+02 -2.918975276816622e+03
-1.157088920447510e+03  2.292593721052002e+02 -2.918975276816622e+03
-1.157217604549393e+03  2.271007076534744e+02 -2.918975276816622e+03
-1.157713431104609e+03  2.258891801350088e+02 -2.918975276816622e+03
-1.157658525919021e+03  2.244492295981632e+02 -2.918975276816622e+03
-1.157069889941761e+03  2.232206919817172e+02 -2.918975276816622e+03
-1.156861852680186e+03  2.208079995898372e+02 -2.918975276816622e+03
-1.156977296448859e+03  2.199602696624812e+02 -2.918975276816622e+03
-1.157314293858634e+03  2.184235341710812e+02 -2.918975276816622e+03
-1.157622973846843e+03  2.171788900937999e+02 -2.918975276816622e+03
-1.158023631654029e+03  2.170653964870170e+02 -2.918975276816622e+03
-1.157134346196392e+03  2.151417777196793e+02 -2.918975276816622e+03
-1.156896874883261e+03  2.148446125396573e+02 -2.918975276816622e+03
-1.157933841686566e+03  2.142776478261436e+02 -2.918975276816622e+03
-1.158145278615315e+03  2.132867746505497e+02 -2.918975276816622e+03
-1.157686173597386e+03  2.116861103056075e+02 -2.918975276816622e+03
-1.157301587540088e+03  2.102124068589560e+02 -2.918975276816622e+03
-1.157087722283512e+03  2.092909249899321e+02 -2.918975276816622e+03
-1.157216321836584e+03  2.071317802806092e+02 -2.918975276816622e+03
-1.157712665992217e+03  2.059210574570555e+02 -2.918975276816622e+03
-1.157658213941856e+03  2.044798131855862e+02 -2.918975276816622e+03
-1.157069715623129e+03  2.032526180448346e+02 -2.918975276816622e+03
-1.156861109377419e+03  2.008402914884971e+02 -2.918975276816622e+03
-1.156976218402600e+03  1.999913390676720e+02 -2.918975276816622e+03
-1.157312178516155e+03  1.984563879361700e+02 -2.918975276816622e+03
-1.157609989271850e+03  1.972130046627460e+02 -2.918975276816622e+03
-1.157968685143239e+03  1.971173170035167e+02 -2.918975276816622e+03
-1.157125299046335e+03  1.951755405067814e+02 -2.918975276816622e+03
-1.156893373190928e+03  1.948746990427224e+02 -2.918975276816622e+03
-1.157932315511373e+03  1.943064814495761e+02 -2.918975276816622e+03
-1.158141764676756e+03  1.933124460495856e+02 -2.918975276816622e+03
-1.157684887174744e+03  1.917161983751710e+02 -2.918975276816622e+03
-1.157301144389274e+03  1.902431183409103e+02 -2.918975276816622e+03
-1.157087822965837e+03  1.893228818394279e+02 -2.918975276816622e+03
-1.157215666698824e+03  1.871640168245216e+02 -2.918975276816622e+03
-1.157710980612660e+03  1.859513174802533e+02 -2.918975276816622e+03
-1.157656176524459e+03  1.845141805641472e+02 -2.918975276816622e+03
-1.157068349816466e+03  1.832835372910113e+02 -2.918975276816622e+03
-1.156860503884345e+03  1.808716715592984e+02 -2.918975276816622e+03
-1.156975311755795e+03  1.800252117051037e+02 -2.918975276816622e+03
-1.157245687212420e+03  1.785120828415167e+02 -2.918975276816622e+03
-1.157633356031978e+03  1.772373314138996e+02 -2.918975276816622e+03
-1.158068931849839e+03  1.771064931899116e+02 -2.918975276816622e+03
-1.157137615924263e+03  1.752028270864846e+02 -2.918975276816622e+03
-1.156897133542438e+03  1.749117470191507e+02 -2.918975276816622e+03
-1.157937702107377e+03  1.743431990524097e+02 -2.918975276816622e+03
-1.158147888806066e+03  1.733535809142055e+02 -2.918975276816622e+03
-1.157686745036637e+03  1.717516501551907e+02 -2.918975276816622e+03
-1.157300653488846e+03  1.702764595482961e+02 -2.918975276816622e+03
-1.157086063718921e+03  1.693545974699297e+02 -2.918975276816622e+03
-1.157215365962286e+03  1.671947167050281e+02 -2.918975276816622e+03
-1.157712019641438e+03  1.659850003034939e+02 -2.918975276816622e+03
-1.157657680089224e+03  1.645432723632204e+02 -2.918975276816622e+03
-1.157069073022681e+03  1.633153715706153e+02 -2.918975276816622e+03
-1.156860781900111e+03  1.609043397579233e+02 -2.918975276816622e+03
-1.156975811286035e+03  1.600559332666630e+02 -2.918975276816622e+03
-1.157312646683861e+03  1.585185077039695e+02 -2.918975276816622e+03
-1.157620178384663e+03  1.572742430642442e+02 -2.918975276816622e+03
-1.158016047086089e+03  1.571634131799171e+02 -2.918975276816622e+03
-1.157132231786546e+03  1.552370817799451e+02 -2.918975276816622e+03
-1.156896124926766e+03  1.549389933208114e+02 -2.918975276816622e+03
-1.157928713307414e+03  1.543701877805490e+02 -2.918975276816622e+03
-1.158139733253475e+03  1.533759331417533e+02 -2.918975276816622e+03
-1.157682574771751e+03  1.517776995905218e+02 -2.918975276816622e+03
-1.157300046695790e+03  1.503076384330413e+02 -2.918975276816622e+03
-1.157087147241690e+03  1.493853567624500e+02 -2.918975276816622e+03
-1.157215513204212e+03  1.472269651964228e+02 -2.918975276816622e+03
-1.157711704325672e+03  1.460170289003597e+02 -2.918975276816622e+03
-1.157656694223082e+03  1.445763007939560e+02 -2.918975276816622e+03
-1.157068095725635e+03  1.433471241651154e+02 -2.918975276816622e+03
-1.156860442340665e+03  1.409356978872187e+02 -2.918975276816622e+03
-1.156975546174837e+03  1.400882844307977e+02 -2.918975276816622e+03
-1.157313151461631e+03  1.385497913811575e+02 -2.918975276816622e+03
-1.157625580305454e+03  1.373045922066835e+02 -2.918975276816622e+03
-1.158036623863652e+03  1.371851390389778e+02 -2.918975276816622e+03
-1.157132302982797e+03  1.352671924142088e+02 -2.918975276816622e+03
-1.156894502920801e+03  1.349746373820618e+02 -2.918975276816622e+03
-1.157937820286171e+03  1.344050644393625e+02 -2.918975276816622e+03
-1.158146367564701e+03  1.334140552607299e+02 -2.918975276816622e+03
-1.157686229067212e+03  1.318149851250766e+02 -2.918975276816622e+03
-1.157300443008766e+03  1.303390463219887e+02 -2.918975276816622e+03
-1.157085922486781e+03  1.294183884519592e+02 -2.918975276816622e+03
-1.157215136027040e+03  1.272592085905592e+02 -2.918975276816622e+03
-1.157711077912699e+03  1.260471063594952e+02 -2.918975276816622e+03
-1.157656834785962e+03  1.246075684362853e+02 -2.918975276816622e+03
-1.157068459581941e+03  1.233790565836065e+02 -2.918975276816622e+03
-1.156859606501334e+03  1.209673491575194e+02 -2.918975276816622e+03
-1.156974978364543e+03  1.201194242225237e+02 -2.918975276816622e+03
-1.157311416718319e+03  1.185815066254759e+02 -2.918975276816622e+03
-1.157621333379054e+03  1.173357378330438e+02 -2.918975276816622e+03
-1.158027411414826e+03  1.172215115865086e+02 -2.918975276816622e+03
-1.157130950816364e+03  1.152998597537845e+02 -2.918975276816622e+03
-1.156893509344520e+03  1.150057826350489e+02 -2.918975276816622e+03
-1.157936272475689e+03  1.144332542171533e+02 -2.918975276816622e+03
-1.158141920841318e+03  1.134380441791726e+02 -2.918975276816622e+03
-1.157683242454389e+03  1.118435656655866e+02 -2.918975276816622e+03
-1.157299490824758e+03  1.103716652378076e+02 -2.918975276816622e+03
-1.157086169368569e+03  1.094484095025362e+02 -2.918975276816622e+03
-1.157217409675095e+03  1.072921960849447e+02 -2.918975276816622e+03
-1.157711818265253e+03  1.060809092333634e+02 -2.918975276816622e+03
-1.157660170530586e+03  1.046415760236252e+02 -2.918975276816622e+03
-1.157066172131924e+03  1.034050001875645e+02 -2.918975276816622e+03
-1.156877048877996e+03  1.010194144613926e+02 -2.918975276816622e+03
-1.156984113412738e+03  1.001645185629462e+02 -2.918975276816622e+03
-1.157337417063016e+03  9.868117349526651e+01 -2.918975276816622e+03
-1.157532162623052e+03  9.734690265607253e+01 -2.918975276816622e+03
-1.156697291901925e+03  9.703186230879859e+01 -2.918975276816622e+03
-1.157083815063596e+03  9.611726803016845e+01 -2.918975276816622e+03
-1.156820445656029e+03  9.515802585792959e+01 -2.918975276816622e+03
-1.156812236215554e+03  9.148062252149332e+01 -2.918975276816622e+03
-1.157384552392143e+03  9.014696238841225e+01 -2.918975276816622e+03
-1.157246050563808e+03  9.000820928811177e+01 -2.918975276816622e+03
-1.157529322429009e+03  8.878874736778852e+01 -2.918975276816622e+03
-1.157169872879893e+03  8.820203816663926e+01 -2.918975276816622e+03
-1.157436897746049e+03  8.650350626909530e+01 -2.918975276816622e+03
-1.156989815592698e+03  8.556441388557970e+01 -2.918975276816622e+03
-1.157224056703734e+03  8.531868934338480e+01 -2.918975276816622e+03
-1.158370434595327e+03  8.387412817184004e+01 -2.918975276816622e+03
-1.157380394440248e+03  8.286466624382484e+01 -2.918975276816622e+03
-1.156967628842123e+03  8.135420791349379e+01 -2.918975276816622e+03
-1.155959887828444e+03  7.937091920932288e+01 -2.918975276816622e+03
-1.157770131104525e+03  7.794985805890724e+01 -2.918975276816622e+03
-1.157747268221003e+03  7.606700191244353e+01 -2.918975276816622e+03
-1.157483427003159e+03  7.524548856983121e+01 -2.918975276816622e+03
-1.157014508507710e+03  7.342226367879898e+01 -2.918975276816622e+03
-1.156690249632770e+03  7.186197410273115e+01 -2.918975276816622e+03
-1.156620971340348e+03  7.092505264565504e+01 -2.918975276816622e+03
-1.156125012332579e+03  6.858324968299524e+01 -2.918975276816622e+03
-1.157099974384476e+03  6.915170392548113e+01 -2.918975276816622e+03
-1.157194472175798e+03  6.816482472496003e+01 -2.918975276816622e+03
-1.156705741786945e+03  6.750345748533175e+01 -2.918975276816622e+03
-1.156856409783657e+03  6.560475085321889e+01 -2.918975276816622e+03
-1.157102343591377e+03  6.230201015468487e+01 -2.918975276816622e+03
-1.157403693124640e+03  6.126640631860005e+01 -2.918975276816622e+03
-1.157460724505901e+03  6.020638722702000e+01 -2.918975276816622e+03
-1.157259198887306e+03  5.734966598298143e+01 -2.918975276816622e+03
-1.158024102585082e+03  5.670153090396693e+01 -2.918975276816622e+03
-1.157386001187703e+03  5.586682248810257e+01 -2.918975276816622e+03
-1.157015278469552e+03  5.485859017649279e+01 -2.918975276816622e+03
-1.156655860929093e+03  5.269378861651172e+01 -2.918975276816622e+03
-1.157327825014148e+03  5.126974139968609e+01 -2.918975276816622e+03
-1.158321686693695e+03  5.020844331451917e+01 -2.918975276816622e+03
-1.156394423665106e+03  5.003925395713990e+01 -2.918975276816622e+03
-1.156957754908566e+03  4.943179756465359e+01 -2.918975276816622e+03
-1.157034006944898e+03  4.794770251774558e+01 -2.918975276816622e+03
-1.157532711718531e+03  4.671421539908130e+01 -2.918975276816622e+03
-1.156987261931636e+03  4.637420645066563e+01 -2.918975276816622e+03
-1.156850827110707e+03  4.503666186826887e+01 -2.918975276816622e+03
-1.157199984627803e+03  4.429449531989245e+01 -2.918975276816622e+03
-1.157059924861869e+03  4.254297633062846e+01 -2.918975276816622e+03
-1.155963518931350e+03  4.206046070959087e+01 -2.918975276816622e+03
-1.155828285756713e+03  4.070590920405893e+01 -2.918975276816622e+03
-1.156393781428376e+03  4.009898848694253e+01 -2.918975276816622e+03
-1.155998129574712e+03  3.880195609877588e+01 -2.918975276816622e+03
-1.155377336737100e+03  3.602779636467395e+01 -2.918975276816622e+03
-1.156043233101523e+03  3.532566212382101e+01 -2.918975276816622e+03
-1.157095757692085e+03  3.494395794958059e+01 -2.918975276816622e+03
-1.157070813939408e+03  3.291777261641958e+01 -2.918975276816622e+03
-1.156021396544415e+03  3.229678719653545e+01 -2.918975276816622e+03
-1.155305957507558e+03  3.171130703299499e+01 -2.918975276816622e+03
-1.156065867252628e+03  3.116161397612963e+01 -2.918975276816622e+03
-1.155571512579848e+03  2.860297236453777e+01 -2.918975276816622e+03
-1.157736801311961e+03  2.855566383943859e+01 -2.918975276816622e+03
-1.158130339239367e+03  2.841206110291700e+01 -2.918975276816622e+03
-1.157249188740601e+03  2.695564404226242e+01 -2.918975276816622e+03
-1.156728155975277e+03  2.518774058453879e+01 -2.918975276816622e+03
-1.157569557167394e+03  2.511879839091280e+01 -2.918975276816622e+03
-1.157644968054806e+03  2.394759778595057e+01 -2.918975276816622e+03
-1.157446560565462e+03  2.271225787347902e+01 -2.918975276816622e+03
-1.158879800836359e+03  2.209926578060194e+01 -2.918975276816622e+03
-1.158211702485926e+03  2.052070749404496e+01 -2.918975276816622e+03
-1.157363504109412e+03  1.951440829042360e+01 -2.918975276816622e+03
-1.157259664431673e+03  1.773629416819330e+01 -2.918975276816622e+03
-1.157391412469202e+03  1.715461471607490e+01 -2.918975276816622e+03
-1.157653856058013e+03  1.543278787353493e+01 -2.918975276816622e+03
-1.158058017655127e+03  1.454949294694242e+01 -2.918975276816622e+03
-1.158299180072507e+03  1.343935343765453e+01 -2.918975276816622e+03
-1.157518064291606e+03  1.195054338895356e+01 -2.918975276816622e+03
-1.157227734858898e+03  7.620697483903112e+00 -2.918975276816622e+03
-1.157273257891019e+03  6.471012355762615e+00 -2.918975276816622e+03
-1.157424943939343e+03  5.239364120483239e+00 -2.918975276816622e+03
-1.157325920358442e+03  3.180485209762518e+00 -2.918975276816622e+03
-1.157837777047172e+03  2.401787727967894e+00 -2.918975276816622e+03
1.154291405676900e+03 5.926847561672343e-01 2.918975276816622e+03
 1.154788802815134e+03 -8.664700230082099e-01  2.918975276816622e+03
 1.154520749627984e+03 -1.823717547068398e+00  2.918975276816622e+03
 1.153470040607732e+03 -3.505769561812853e+00  2.918975276816622e+03
 1.154796497182257e+03 -4.730034213915165e+00  2.918975276816622e+03
 1.153846027888480e+03 -7.140641131637368e+00  2.918975276816622e+03
 1.153816623636167e+03 -7.601827636443797e+00  2.918975276816622e+03
 1.154062543793580e+03 -9.574290840971694e+00  2.918975276816622e+03
 1.155202014616917e+03 -1.126674452058823e+01  2.918975276816622e+03
 1.154415019689544e+03 -1.266427152082495e+01  2.918975276816622e+03
 1.154885512167091e+03 -1.328010606261025e+01  2.918975276816622e+03
 1.154594229238202e+03 -1.488358361327085e+01  2.918975276816622e+03
 1.154353630754636e+03 -1.460439134083615e+01  2.918975276816622e+03
 1.153664336871952e+03 -1.679564033239485e+01  2.918975276816622e+03
 1.152635677759025e+03 -1.975195196510744e+01  2.918975276816622e+03
 1.152191302439370e+03 -2.125910808003441e+01  2.918975276816622e+03
 1.153936562551174e+03 -2.183475895502147e+01  2.918975276816622e+03
 1.154032748382886e+03 -2.390974189714254e+01  2.918975276816622e+03
 1.155137862027126e+03 -2.542023571388138e+01  2.918975276816622e+03
 1.154302601340511e+03 -2.545658170909133e+01  2.918975276816622e+03
 1.154316976706051e+03 -2.709998772028450e+01  2.918975276816622e+03
 1.153823000212866e+03 -2.732870005264883e+01  2.918975276816622e+03
 1.152780251142522e+03 -2.886338433515771e+01  2.918975276816622e+03
 1.153056215735705e+03 -2.996155864407028e+01  2.918975276816622e+03
 1.152748102123116e+03 -3.262169320859186e+01  2.918975276816622e+03
 1.151416474059794e+03 -3.286145536236820e+01  2.918975276816622e+03
 1.152850097979574e+03 -3.501922098339396e+01  2.918975276816622e+03
 1.152955264546430e+03 -3.587883333981243e+01  2.918975276816622e+03
 1.151710579678970e+03 -3.668871387241767e+01  2.918975276816622e+03
 1.152979432484352e+03 -3.799255698572998e+01  2.918975276816622e+03
 1.153054881362766e+03 -3.901623491083773e+01  2.918975276816622e+03
 1.152039840595487e+03 -3.899862592582284e+01  2.918975276816622e+03
 1.153487652958803e+03 -4.079434096791854e+01  2.918975276816622e+03
 1.153705145300861e+03 -4.207088114613160e+01  2.918975276816622e+03
 1.153721311390134e+03 -4.251808536458237e+01  2.918975276816622e+03
 1.153628484288963e+03 -4.398311166184200e+01  2.918975276816622e+03
 1.153590440425334e+03 -4.487163623676845e+01  2.918975276816622e+03
 1.154095362856590e+03 -4.622579699203995e+01  2.918975276816622e+03
 1.154584728347683e+03 -4.708023445856011e+01  2.918975276816622e+03
 1.154057023974536e+03 -4.819250443895041e+01  2.918975276816622e+03
 1.153585523207606e+03 -4.919512300802391e+01  2.918975276816622e+03
 1.153315154506101e+03 -4.996362165950158e+01  2.918975276816622e+03
 1.151927050784557e+03 -5.184795032853850e+01  2.918975276816622e+03
 1.152871970725111e+03 -5.208932958049829e+01  2.918975276816622e+03
 1.152997670502431e+03 -5.277880164222749e+01  2.918975276816622e+03
 1.151666419925682e+03 -5.339062002612209e+01  2.918975276816622e+03
 1.152873368239243e+03 -5.495208070937213e+01  2.918975276816622e+03
 1.152952495471210e+03 -5.580615009495227e+01  2.918975276816622e+03
 1.151609689186329e+03 -5.656629229283646e+01  2.918975276816622e+03
 1.152960844063676e+03 -5.800699005684434e+01  2.918975276816622e+03
 1.153065766530823e+03 -5.898228565022468e+01  2.918975276816622e+03
 1.151979207544292e+03 -5.898484983795327e+01  2.918975276816622e+03
 1.153468295766801e+03 -6.077110132128913e+01  2.918975276816622e+03
 1.153699103619324e+03 -6.204476669985429e+01  2.918975276816622e+03
 1.153722476375864e+03 -6.250046986819001e+01  2.918975276816622e+03
 1.153624961387313e+03 -6.394925591895919e+01  2.918975276816622e+03
 1.153590550338749e+03 -6.483782065933241e+01  2.918975276816622e+03
 1.154100427788855e+03 -6.619166047246081e+01  2.918975276816622e+03
 1.154590033583245e+03 -6.703982878900939e+01  2.918975276816622e+03
 1.154059475557852e+03 -6.814326706988797e+01  2.918975276816622e+03
 1.153568189888480e+03 -6.916033740877808e+01  2.918975276816622e+03
 1.153271305385256e+03 -6.991790332355031e+01  2.918975276816622e+03
 1.151868033064255e+03 -7.177938197710766e+01  2.918975276816622e+03
 1.152869740969712e+03 -7.206492358611297e+01  2.918975276816622e+03
 1.152992909408788e+03 -7.273394435423319e+01  2.918975276816622e+03
 1.151630806597892e+03 -7.336041764377467e+01  2.918975276816622e+03
 1.152860705385222e+03 -7.493570252235597e+01  2.918975276816622e+03
 1.152947160669576e+03 -7.576302722627442e+01  2.918975276816622e+03
 1.151584787351211e+03 -7.652912221062408e+01  2.918975276816622e+03
 1.152953742591159e+03 -7.798594756928733e+01  2.918975276816622e+03
 1.153067375454487e+03 -7.894420832390584e+01  2.918975276816622e+03
 1.151964483785946e+03 -7.895108981931581e+01  2.918975276816622e+03
 1.153463179342231e+03 -8.074305105707816e+01  2.918975276816622e+03
 1.153697080656273e+03 -8.201384896916232e+01  2.918975276816622e+03
 1.153719126736487e+03 -8.247486614561885e+01  2.918975276816622e+03
 1.153623786838029e+03 -8.391372549126329e+01  2.918975276816622e+03
 1.153592759194692e+03 -8.480338234457737e+01  2.918975276816622e+03
 1.154106553759599e+03 -8.616669073245201e+01  2.918975276816622e+03
 1.154589306850661e+03 -8.700779871447172e+01  2.918975276816622e+03
 1.154059756163791e+03 -8.811356763205231e+01  2.918975276816622e+03
 1.153570895467355e+03 -8.912732284377731e+01  2.918975276816622e+03
 1.153275762249350e+03 -8.988629215712936e+01  2.918975276816622e+03
 1.151872531386941e+03 -9.175590136290887e+01  2.918975276816622e+03
 1.152869455077312e+03 -9.203603942582193e+01  2.918975276816622e+03
 1.152993157358173e+03 -9.270153419426526e+01  2.918975276816622e+03
 1.151634437816768e+03 -9.331721732602922e+01  2.918975276816622e+03
 1.152861648534083e+03 -9.490207255967324e+01  2.918975276816622e+03
 1.152949343142391e+03 -9.573270477870405e+01  2.918975276816622e+03
 1.151590593696883e+03 -9.649508891784124e+01  2.918975276816622e+03
 1.152960142306659e+03 -9.795168893864772e+01  2.918975276816622e+03
 1.153070560012942e+03 -9.891317594846926e+01  2.918975276816622e+03
 1.151953823969769e+03 -9.893634253162317e+01  2.918975276816622e+03
 1.153459483724121e+03 -1.007131802254673e+02  2.918975276816622e+03
 1.153693352120172e+03 -1.019798507950065e+02  2.918975276816622e+03
 1.153718117550708e+03 -1.024415692922369e+02  2.918975276816622e+03
 1.153627388211284e+03 -1.038865870416496e+02  2.918975276816622e+03
 1.153594915703158e+03 -1.047747358686696e+02  2.918975276816622e+03
 1.154102564138453e+03 -1.061322338319416e+02  2.918975276816622e+03
 1.154587491307365e+03 -1.069778895301020e+02  2.918975276816622e+03
 1.154059549906397e+03 -1.080848112596296e+02  2.918975276816622e+03
 1.153571172961990e+03 -1.090963028524747e+02  2.918975276816622e+03
 1.153276394375736e+03 -1.098539720199020e+02  2.918975276816622e+03
 1.151871540436422e+03 -1.117214948776169e+02  2.918975276816622e+03
 1.152869471829685e+03 -1.120034499802453e+02  2.918975276816622e+03
 1.152992539342139e+03 -1.126683169732536e+02  2.918975276816622e+03
 1.151627866554622e+03 -1.132949325115337e+02  2.918975276816622e+03
 1.152861156447960e+03 -1.148734139140408e+02  2.918975276816622e+03
 1.152948019943372e+03 -1.156989126717795e+02  2.918975276816622e+03
 1.151582982918277e+03 -1.164680592911158e+02  2.918975276816622e+03
 1.152953694296216e+03 -1.179236303851126e+02  2.918975276816622e+03
 1.153067909402577e+03 -1.188786412893477e+02  2.918975276816622e+03
 1.151962796126871e+03 -1.188864515182562e+02  2.918975276816622e+03
 1.153464252565687e+03 -1.206796495558479e+02  2.918975276816622e+03
 1.153700845332782e+03 -1.219520161857106e+02  2.918975276816622e+03
 1.153724052180232e+03 -1.224083466760146e+02  2.918975276816622e+03
 1.153626382831191e+03 -1.238535686235146e+02  2.918975276816622e+03
 1.153593468924306e+03 -1.247435804758736e+02  2.918975276816622e+03
 1.154103383420597e+03 -1.261008834756630e+02  2.918975276816622e+03
 1.154589948146578e+03 -1.269463641104508e+02  2.918975276816622e+03
 1.154059995637234e+03 -1.280493938875105e+02  2.918975276816622e+03
 1.153570619509213e+03 -1.290647124468591e+02  2.918975276816622e+03
 1.153273644267494e+03 -1.298230584545580e+02  2.918975276816622e+03
 1.151872185018653e+03 -1.316893593738916e+02  2.918975276816622e+03
 1.152870526748548e+03 -1.319710910299148e+02  2.918975276816622e+03
 1.152993775905376e+03 -1.326375103908662e+02  2.918975276816622e+03
 1.151630344736734e+03 -1.332659463636245e+02  2.918975276816622e+03
 1.152863392018296e+03 -1.348406669721778e+02  2.918975276816622e+03
 1.152949767256491e+03 -1.356695363529853e+02  2.918975276816622e+03
 1.151588147802539e+03 -1.364406466234272e+02  2.918975276816622e+03
 1.152955426104446e+03 -1.378896544416928e+02  2.918975276816622e+03
 1.153066820006215e+03 -1.388527830878025e+02  2.918975276816622e+03
 1.151982251259401e+03 -1.388482105247746e+02  2.918975276816622e+03
 1.153470347212255e+03 -1.406429304405829e+02  2.918975276816622e+03
 1.153700720667990e+03 -1.419178771580502e+02  2.918975276816622e+03
 1.153721719813754e+03 -1.423742318149025e+02  2.918975276816622e+03
 1.153629467647622e+03 -1.438230674388836e+02  2.918975276816622e+03
 1.153595831553707e+03 -1.447118003410775e+02  2.918975276816622e+03
 1.154106648818035e+03 -1.460675934665924e+02  2.918975276816622e+03
 1.154592885628205e+03 -1.469120473825206e+02  2.918975276816622e+03
 1.154062040837698e+03 -1.480144767292489e+02  2.918975276816622e+03
 1.153572528481148e+03 -1.490316940819602e+02  2.918975276816622e+03
 1.153276377016635e+03 -1.497918473379243e+02  2.918975276816622e+03
 1.151875790627167e+03 -1.516616458025665e+02  2.918975276816622e+03
 1.152870895736873e+03 -1.519401659262192e+02  2.918975276816622e+03
 1.152993562108016e+03 -1.526045102147669e+02  2.918975276816622e+03
 1.151627402581214e+03 -1.532352973784378e+02  2.918975276816622e+03
 1.152862499450897e+03 -1.548102682592767e+02  2.918975276816622e+03
 1.152948403352747e+03 -1.556359686183214e+02  2.918975276816622e+03
 1.151582336512973e+03 -1.564110331524313e+02  2.918975276816622e+03
 1.152952187930554e+03 -1.578609170230277e+02  2.918975276816622e+03
 1.153065958206259e+03 -1.588217211104727e+02  2.918975276816622e+03
 1.151990872503830e+03 -1.588052002042892e+02  2.918975276816622e+03
 1.153472537425293e+03 -1.606090595643093e+02  2.918975276816622e+03
 1.153700906370207e+03 -1.618866522547464e+02  2.918975276816622e+03
 1.153719354297884e+03 -1.623475120864774e+02  2.918975276816622e+03
 1.153627888455305e+03 -1.637869631425530e+02  2.918975276816622e+03
 1.153597224502257e+03 -1.646766832773160e+02  2.918975276816622e+03
 1.154111839894807e+03 -1.660425147345975e+02  2.918975276816622e+03
 1.154591260414600e+03 -1.668804784887504e+02  2.918975276816622e+03
 1.154061815877669e+03 -1.679859916602665e+02  2.918975276816622e+03
 1.153574655659397e+03 -1.689993012336610e+02  2.918975276816622e+03
 1.153280557575633e+03 -1.697602891420290e+02  2.918975276816622e+03
 1.151879452825642e+03 -1.716343505739716e+02  2.918975276816622e+03
 1.152870474040303e+03 -1.719098620012953e+02  2.918975276816622e+03
 1.152993617175543e+03 -1.725720796515332e+02  2.918975276816622e+03
 1.151628327388696e+03 -1.731989386808957e+02  2.918975276816622e+03
 1.152863707183429e+03 -1.747780941242193e+02  2.918975276816622e+03
 1.152950112589330e+03 -1.756044765763673e+02  2.918975276816622e+03
 1.151583203812004e+03 -1.763810598705190e+02  2.918975276816622e+03
 1.152954462143489e+03 -1.778290936298355e+02  2.918975276816622e+03
 1.153067159756449e+03 -1.787872508331704e+02  2.918975276816622e+03
 1.151981386078333e+03 -1.787808650903502e+02  2.918975276816622e+03
 1.153470879985240e+03 -1.805787288562953e+02  2.918975276816622e+03
 1.153702212816085e+03 -1.818562182060404e+02  2.918975276816622e+03
 1.153725419495511e+03 -1.823111141336931e+02  2.918975276816622e+03
 1.153630669271267e+03 -1.837606946686489e+02  2.918975276816622e+03
 1.153596352777767e+03 -1.846499706725322e+02  2.918975276816622e+03
 1.154101642613573e+03 -1.860049736604033e+02  2.918975276816622e+03
 1.154589934869546e+03 -1.868525294703192e+02  2.918975276816622e+03
 1.154060155876855e+03 -1.879551803065501e+02  2.918975276816622e+03
 1.153569514430640e+03 -1.889708112429577e+02  2.918975276816622e+03
 1.153271368154789e+03 -1.897266612907271e+02  2.918975276816622e+03
 1.151868574683337e+03 -1.915906233192120e+02  2.918975276816622e+03
 1.152872542796054e+03 -1.918753802030396e+02  2.918975276816622e+03
 1.152994526241846e+03 -1.925417904583366e+02  2.918975276816622e+03
 1.151628472858219e+03 -1.931748672183317e+02  2.918975276816622e+03
 1.152862448434936e+03 -1.947465627904088e+02  2.918975276816622e+03
 1.152948626579504e+03 -1.955716827806440e+02  2.918975276816622e+03
 1.151582201855328e+03 -1.963479191830627e+02  2.918975276816622e+03
 1.152953369851058e+03 -1.977976492853960e+02  2.918975276816622e+03
 1.153066748000020e+03 -1.987594407224903e+02  2.918975276816622e+03
 1.151994773354170e+03 -1.987408503240683e+02  2.918975276816622e+03
 1.153474134930079e+03 -2.005444039201257e+02  2.918975276816622e+03
 1.153701005126623e+03 -2.018226049392846e+02  2.918975276816622e+03
 1.153719248976547e+03 -2.022844088958230e+02  2.918975276816622e+03
 1.153630229374463e+03 -2.037241355161320e+02  2.918975276816622e+03
 1.153599376044550e+03 -2.046135715853638e+02  2.918975276816622e+03
 1.154113875441286e+03 -2.059798954231610e+02  2.918975276816622e+03
 1.154591241688120e+03 -2.068172998678448e+02  2.918975276816622e+03
 1.154061498242551e+03 -2.079236660421921e+02  2.918975276816622e+03
 1.153573242681915e+03 -2.089367758474374e+02  2.918975276816622e+03
 1.153277663151437e+03 -2.096956867483318e+02  2.918975276816622e+03
 1.151874655056770e+03 -2.115643014748075e+02  2.918975276816622e+03
 1.152872018950584e+03 -2.118447675429237e+02  2.918975276816622e+03
 1.152994918496964e+03 -2.125102379453953e+02  2.918975276816622e+03
 1.151632143448320e+03 -2.131365674665287e+02  2.918975276816622e+03
 1.152864395797770e+03 -2.147134855895479e+02  2.918975276816622e+03
 1.152951127830627e+03 -2.155414508475717e+02  2.918975276816622e+03
 1.151587609856346e+03 -2.163131397827763e+02  2.918975276816622e+03
 1.152957169624658e+03 -2.177638077280324e+02  2.918975276816622e+03
 1.153068985033883e+03 -2.187253103268019e+02  2.918975276816622e+03
 1.151981902448847e+03 -2.187219989680924e+02  2.918975276816622e+03
 1.153471830329272e+03 -2.205160569319305e+02  2.918975276816622e+03
 1.153702514824943e+03 -2.217905404192595e+02  2.918975276816622e+03
 1.153724056986309e+03 -2.222459936289644e+02  2.918975276816622e+03
 1.153635407887012e+03 -2.236988142647450e+02  2.918975276816622e+03
 1.153599933619550e+03 -2.245868425842332e+02  2.918975276816622e+03
 1.154109411648539e+03 -2.259390505375051e+02  2.918975276816622e+03
 1.154594894368388e+03 -2.267853074764605e+02  2.918975276816622e+03
 1.154063620013054e+03 -2.278884985359978e+02  2.918975276816622e+03
 1.153579316092883e+03 -2.289061418467663e+02  2.918975276816622e+03
 1.153296785502599e+03 -2.296751574230207e+02  2.918975276816622e+03
 1.151907535258818e+03 -2.315332836815240e+02  2.918975276816622e+03
 1.152876583235452e+03 -2.318002036758212e+02  2.918975276816622e+03
 1.153004350112700e+03 -2.324972652332402e+02  2.918975276816622e+03
 1.151679998658466e+03 -2.331088305564561e+02  2.918975276816622e+03
 1.152881698043108e+03 -2.346621509616808e+02  2.918975276816622e+03
 1.152961142561971e+03 -2.355300876899512e+02  2.918975276816622e+03
 1.151639012392522e+03 -2.362792219119167e+02  2.918975276816622e+03
 1.152970627253366e+03 -2.377093849349856e+02  2.918975276816622e+03
 1.153063330919185e+03 -2.387299745182036e+02  2.918975276816622e+03
 1.152085600867379e+03 -2.386664564102508e+02  2.918975276816622e+03
 1.153507455512690e+03 -2.404639615709054e+02  2.918975276816622e+03
 1.153729420116304e+03 -2.417523048235040e+02  2.918975276816622e+03
 1.153745155237498e+03 -2.422096659336615e+02  2.918975276816622e+03
 1.153678877149676e+03 -2.436824555870674e+02  2.918975276816622e+03
 1.153627692178091e+03 -2.445611556352391e+02  2.918975276816622e+03
 1.154150610610384e+03 -2.458950032361270e+02  2.918975276816622e+03
 1.154598067917423e+03 -2.467653826005703e+02  2.918975276816622e+03
 1.154116110656815e+03 -2.479360295079472e+02  2.918975276816622e+03
 1.153974892776577e+03 -2.487830912031773e+02  2.918975276816622e+03
 1.154205081518405e+03 -2.499559178617987e+02  2.918975276816622e+03
 1.154220072464007e+03 -2.504791210694795e+02  2.918975276816622e+03
 1.154151484850581e+03 -2.511624755884191e+02  2.918975276816622e+03
 1.153926693639744e+03 -2.527345322685646e+02  2.918975276816622e+03
 1.153848590156698e+03 -2.530961364651218e+02  2.918975276816622e+03
 1.153776003512100e+03 -2.546512584548971e+02  2.918975276816622e+03
 1.153687012030615e+03 -2.555577253416195e+02  2.918975276816622e+03
 1.154148784157132e+03 -2.568913734676280e+02  2.918975276816622e+03
 1.154607867024249e+03 -2.577267957932107e+02  2.918975276816622e+03
 1.154069705410135e+03 -2.588467371403145e+02  2.918975276816622e+03
 1.153624090374366e+03 -2.598505142152235e+02  2.918975276816622e+03
 1.153398351476714e+03 -2.606592482395556e+02  2.918975276816622e+03
 1.152042059045793e+03 -2.625443258994733e+02  2.918975276816622e+03
 1.152880072045098e+03 -2.627252408596481e+02  2.918975276816622e+03
 1.153017901212915e+03 -2.635002560592141e+02  2.918975276816622e+03
 1.151828042882193e+03 -2.640962514635171e+02  2.918975276816622e+03
 1.152918280635539e+03 -2.655490938759463e+02  2.918975276816622e+03
 1.152926066476010e+03 -2.664932817907493e+02  2.918975276816622e+03
 1.151484831203271e+03 -2.672308117815750e+02  2.918975276816622e+03
 1.153342649732661e+03 -2.686566985311163e+02  2.918975276816622e+03
 1.153716798319285e+03 -2.697284346240268e+02  2.918975276816622e+03
 1.154019020849147e+03 -2.700076287534448e+02  2.918975276816622e+03
 1.153747919815629e+03 -2.716343985636633e+02  2.918975276816622e+03
 1.153844456592740e+03 -2.723892542097207e+02  2.918975276816622e+03
 1.155462418676936e+03 -2.726457709153194e+02  2.918975276816622e+03
 1.155279564907813e+03 -2.749927356304272e+02  2.918975276816622e+03
 1.154999772447943e+03 -2.754033556111845e+02  2.918975276816622e+03
 1.155219832582887e+03 -2.760037374999678e+02  2.918975276816622e+03
 1.154363252247839e+03 -2.777525100371855e+02  2.918975276816622e+03
 1.155525716545239e+03 -2.793297522551371e+02  2.918975276816622e+03
 1.154612284792141e+03 -2.805829128642640e+02  2.918975276816622e+03
 1.153675956223733e+03 -2.834557566814767e+02  2.918975276816622e+03
 1.153816947245808e+03 -2.862361079576773e+02  2.918975276816622e+03
 1.153188478664821e+03 -2.880312042481048e+02  2.918975276816622e+03
 1.154534507646606e+03 -2.880138905584249e+02  2.918975276816622e+03
 1.155668301230552e+03 -2.899595812733411e+02  2.918975276816622e+03
 1.154098645233499e+03 -2.902431262567393e+02  2.918975276816622e+03
 1.154349313422478e+03 -2.914335068885878e+02  2.918975276816622e+03
 1.154197957852482e+03 -2.930082513927634e+02  2.918975276816622e+03
 1.153452398188359e+03 -2.933411986890765e+02  2.918975276816622e+03
 1.153765250909290e+03 -2.951843974579648e+02  2.918975276816622e+03
 1.154394117547033e+03 -2.965291558111568e+02  2.918975276816622e+03
 1.153590992514066e+03 -2.977033313098911e+02  2.918975276816622e+03
 1.153756411975970e+03 -2.986905547777054e+02  2.918975276816622e+03
 1.154433456681533e+03 -2.992243858301243e+02  2.918975276816622e+03
 1.156248438500959e+03 -3.000570980330767e+02  2.918975276816622e+03
 1.154929521892242e+03 -3.016249266477719e+02  2.918975276816622e+03
 1.154192945769114e+03 -3.027015967492282e+02  2.918975276816622e+03
 1.154817150786951e+03 -3.027127931238791e+02  2.918975276816622e+03
 1.155711333124066e+03 -3.034790712264746e+02  2.918975276816622e+03
 1.154551834866243e+03 -3.042642657818527e+02  2.918975276816622e+03
 1.154047554861455e+03 -3.058060209506885e+02  2.918975276816622e+03
 1.153185958684080e+03 -3.060517806269149e+02  2.918975276816622e+03
 1.153597384756031e+03 -3.082885575381188e+02  2.918975276816622e+03
 1.154441353514992e+03 -3.101857459847378e+02  2.918975276816622e+03
 1.155398864594043e+03 -3.103398733324747e+02  2.918975276816622e+03
 1.155460771045407e+03 -3.120920963303486e+02  2.918975276816622e+03
 1.154245337599040e+03 -3.126024174075122e+02  2.918975276816622e+03
 1.153500184738453e+03 -3.132565783548675e+02  2.918975276816622e+03
 1.153834643195783e+03 -3.151652680107806e+02  2.918975276816622e+03
 1.154693260840819e+03 -3.159247425619774e+02  2.918975276816622e+03
 1.154259043869663e+03 -3.174992620805992e+02  2.918975276816622e+03
 1.153161540764470e+03 -3.177472332260186e+02  2.918975276816622e+03
 1.151773122877210e+03 -3.183480937217652e+02  2.918975276816622e+03
 1.152061785369574e+03 -3.206168807129797e+02  2.918975276816622e+03
 1.154000806486548e+03 -3.218243556007960e+02  2.918975276816622e+03
 1.154448089647683e+03 -3.223280397702068e+02  2.918975276816622e+03
 1.153989141376703e+03 -3.235021171091033e+02  2.918975276816622e+03
 1.153810022839152e+03 -3.264455819058191e+02  2.918975276816622e+03
 1.153269072237686e+03 -3.262838709603135e+02  2.918975276816622e+03
 1.154098491341459e+03 -3.282784566418397e+02  2.918975276816622e+03
 1.154975886593481e+03 -3.296976206403517e+02  2.918975276816622e+03
 1.154238799151957e+03 -3.302546732081385e+02  2.918975276816622e+03
 1.154809627298001e+03 -3.310594395165405e+02  2.918975276816622e+03
 1.153971376306473e+03 -3.318144406388203e+02  2.918975276816622e+03
 1.152580766852694e+03 -3.347104582800150e+02  2.918975276816622e+03
 1.153029373030194e+03 -3.368082227365032e+02  2.918975276816622e+03
 1.153397479591343e+03 -3.369316286714063e+02  2.918975276816622e+03
 1.154024759252394e+03 -3.385823804279599e+02  2.918975276816622e+03
 1.154050945059856e+03 -3.393963041612020e+02  2.918975276816622e+03
 1.153192205178440e+03 -3.413369809151050e+02  2.918975276816622e+03
 1.154149096581102e+03 -3.416377931430770e+02  2.918975276816622e+03
 1.154671906441882e+03 -3.422205685424192e+02  2.918975276816622e+03
 1.154201363589527e+03 -3.424816143263621e+02  2.918975276816622e+03
 1.152937407840122e+03 -3.434108405660533e+02  2.918975276816622e+03
 1.154320652514418e+03 -3.442818957055856e+02  2.918975276816622e+03
 1.155212357133255e+03 -3.457682793971077e+02  2.918975276816622e+03
 1.154476951307062e+03 -3.484235635761052e+02  2.918975276816622e+03
 1.154541725152875e+03 -3.507335825687614e+02  2.918975276816622e+03
 1.154910370748132e+03 -3.523843335678749e+02  2.918975276816622e+03
 1.155200774020436e+03 -3.541855273712650e+02  2.918975276816622e+03
 1.154212458583450e+03 -3.547503678185990e+02  2.918975276816622e+03
 1.154062186850575e+03 -3.573045602636670e+02  2.918975276816622e+03
 1.153066995271829e+03 -3.571816095032373e+02  2.918975276816622e+03
 1.153943725238787e+03 -3.600605273866103e+02  2.918975276816622e+03
 1.153447598169789e+03 -3.627587581933438e+02  2.918975276816622e+03
 1.155201364057943e+03 -3.640153442433542e+02  2.918975276816622e+03
 1.153705467366966e+03 -3.658582895139269e+02  2.918975276816622e+03
 1.154774189197856e+03 -3.667268340687271e+02  2.918975276816622e+03
 1.154777480495328e+03 -3.683737131727373e+02  2.918975276816622e+03
 1.155815088345682e+03 -3.695303153815585e+02  2.918975276816622e+03
 1.153773089844967e+03 -3.714120573900803e+02  2.918975276816622e+03
 1.153590572048544e+03 -3.715437054271288e+02  2.918975276816622e+03
 1.154050893946205e+03 -3.743707755938185e+02  2.918975276816622e+03
 1.154270924391334e+03 -3.760928907354075e+02  2.918975276816622e+03
 1.154666434706538e+03 -3.813671736902764e+02  2.918975276816622e+03
 1.154766172786497e+03 -3.831813514344475e+02  2.918975276816622e+03
 1.155238896718840e+03 -3.837349196285251e+02  2.918975276816622e+03
 1.155653896243650e+03 -3.860928489255912e+02  2.918975276816622e+03
1.155258607580249e+03 3.842447275290780e+02 2.918975276816622e+03
1.156261502841343e+03 3.841648201220192e+02 2.918975276816622e+03
1.155565738851292e+03 3.826510369805120e+02 2.918975276816622e+03
1.155851918112015e+03 3.814153830445716e+02 2.918975276816622e+03
1.154898790329313e+03 3.811242352081453e+02 2.918975276816622e+03
1.155404588304779e+03 3.801379542454723e+02 2.918975276816622e+03
1.154632194101593e+03 3.798847178339095e+02 2.918975276816622e+03
1.153729363513295e+03 3.763626104892077e+02 2.918975276816622e+03
1.153476660950726e+03 3.748989601248566e+02 2.918975276816622e+03
1.153991923893387e+03 3.747981872661294e+02 2.918975276816622e+03
1.154231550369301e+03 3.736880265178567e+02 2.918975276816622e+03
1.153831274563148e+03 3.725309867494175e+02 2.918975276816622e+03
1.154055708902285e+03 3.712240512571614e+02 2.918975276816622e+03
1.153600966444303e+03 3.686668436375113e+02 2.918975276816622e+03
1.154371428118115e+03 3.689385127863052e+02 2.918975276816622e+03
1.154312700052631e+03 3.683776457498214e+02 2.918975276816622e+03
1.155136266865230e+03 3.675735112892314e+02 2.918975276816622e+03
1.154590094430503e+03 3.669994156929471e+02 2.918975276816622e+03
1.154871645520236e+03 3.651868964130238e+02 2.918975276816622e+03
1.155093702444397e+03 3.628380111554407e+02 2.918975276816622e+03
1.154870709609099e+03 3.597895923654641e+02 2.918975276816622e+03
1.154333787040299e+03 3.580641683835856e+02 2.918975276816622e+03
1.153726686491761e+03 3.573586477878771e+02 2.918975276816622e+03
1.154234100936084e+03 3.569107511350644e+02 2.918975276816622e+03
1.154266300732724e+03 3.552759738114490e+02 2.918975276816622e+03
1.154695973055744e+03 3.532332996208111e+02 2.918975276816622e+03
1.154074739071123e+03 3.520998134786987e+02 2.918975276816622e+03
1.153839577661420e+03 3.512392021957536e+02 2.918975276816622e+03
1.154405967243028e+03 3.506912586118096e+02 2.918975276816622e+03
1.153848056012208e+03 3.499466679642980e+02 2.918975276816622e+03
1.154198023713650e+03 3.488997583614242e+02 2.918975276816622e+03
1.154052003309884e+03 3.476577324370381e+02 2.918975276816622e+03
1.152994165985115e+03 3.459665399268201e+02 2.918975276816622e+03
1.153621817211163e+03 3.459494429277613e+02 2.918975276816622e+03
1.154192567143255e+03 3.446190447633771e+02 2.918975276816622e+03
1.153652258730014e+03 3.435845227696702e+02 2.918975276816622e+03
1.153759139566671e+03 3.420808618407712e+02 2.918975276816622e+03
1.154256556608561e+03 3.416921665531314e+02 2.918975276816622e+03
1.155159415279114e+03 3.413449245187232e+02 2.918975276816622e+03
1.155501064877238e+03 3.408093773214152e+02 2.918975276816622e+03
1.154245812825004e+03 3.383388893268012e+02 2.918975276816622e+03
1.153635601911151e+03 3.373887651489455e+02 2.918975276816622e+03
1.154637025722971e+03 3.368236202037601e+02 2.918975276816622e+03
1.155624902404623e+03 3.358146304931278e+02 2.918975276816622e+03
1.154316015631062e+03 3.341855694110196e+02 2.918975276816622e+03
1.153476584005770e+03 3.332751052817715e+02 2.918975276816622e+03
1.154085844684553e+03 3.325374999402791e+02 2.918975276816622e+03
1.155089540306921e+03 3.309495981602725e+02 2.918975276816622e+03
1.154299163762178e+03 3.305885812818017e+02 2.918975276816622e+03
1.155124521316112e+03 3.296605443227580e+02 2.918975276816622e+03
1.154453568347033e+03 3.286102313143635e+02 2.918975276816622e+03
1.154116704857659e+03 3.275128547060427e+02 2.918975276816622e+03
1.153283773408082e+03 3.261991887794256e+02 2.918975276816622e+03
1.153917014040031e+03 3.254102796113621e+02 2.918975276816622e+03
1.153451493069738e+03 3.245898507984547e+02 2.918975276816622e+03
1.152981724814528e+03 3.236971860829532e+02 2.918975276816622e+03
1.151983945367260e+03 3.221532293106750e+02 2.918975276816622e+03
1.153583600970334e+03 3.218685202184503e+02 2.918975276816622e+03
1.152939427882582e+03 3.208042065674809e+02 2.918975276816622e+03
1.153540188087677e+03 3.189913548470743e+02 2.918975276816622e+03
1.154691733267622e+03 3.182727234392337e+02 2.918975276816622e+03
1.153628457389146e+03 3.162194545723324e+02 2.918975276816622e+03
1.153841179868883e+03 3.150480646176135e+02 2.918975276816622e+03
1.153486002877502e+03 3.126461112631559e+02 2.918975276816622e+03
1.154202571417443e+03 3.111424834497860e+02 2.918975276816622e+03
1.154690950281033e+03 3.109852677083624e+02 2.918975276816622e+03
1.154396768163988e+03 3.095194157993249e+02 2.918975276816622e+03
1.154595601413623e+03 3.079976791363283e+02 2.918975276816622e+03
1.155239797189254e+03 3.069748576809449e+02 2.918975276816622e+03
1.154965791190834e+03 3.067007449009092e+02 2.918975276816622e+03
1.154408789983254e+03 3.051849566939550e+02 2.918975276816622e+03
1.153992021047433e+03 3.038139542178149e+02 2.918975276816622e+03
1.153917810638225e+03 3.029882820255002e+02 2.918975276816622e+03
1.153838198854222e+03 3.019917355325350e+02 2.918975276816622e+03
1.153692272380096e+03 3.012912211152584e+02 2.918975276816622e+03
1.155404253159519e+03 3.011477415055415e+02 2.918975276816622e+03
1.154554630199441e+03 2.995968259328427e+02 2.918975276816622e+03
1.154308716240528e+03 2.985414843039063e+02 2.918975276816622e+03
1.153907052763185e+03 2.974980788988960e+02 2.918975276816622e+03
1.154298442384779e+03 2.949080634738081e+02 2.918975276816622e+03
1.153898057884799e+03 2.940691779485571e+02 2.918975276816622e+03
1.152076650877158e+03 2.914035663045358e+02 2.918975276816622e+03
1.154203908351629e+03 2.911516179032481e+02 2.918975276816622e+03
1.155515871572229e+03 2.895039795009267e+02 2.918975276816622e+03
1.154430961807507e+03 2.894184762204579e+02 2.918975276816622e+03
1.154403312709867e+03 2.882151839262836e+02 2.918975276816622e+03
1.154543072977265e+03 2.869571852357104e+02 2.918975276816622e+03
1.155823097336119e+03 2.827562310200049e+02 2.918975276816622e+03
1.154282369099890e+03 2.834283807043203e+02 2.918975276816622e+03
1.154323306201166e+03 2.821682769231691e+02 2.918975276816622e+03
1.154681344816386e+03 2.810680033026576e+02 2.918975276816622e+03
1.155315157430753e+03 2.808227527381482e+02 2.918975276816622e+03
1.154933287147150e+03 2.790373248710222e+02 2.918975276816622e+03
1.154297782903456e+03 2.784701978848684e+02 2.918975276816622e+03
1.154516991216179e+03 2.780522626021097e+02 2.918975276816622e+03
1.155087604987385e+03 2.767151085810756e+02 2.918975276816622e+03
1.154498286852904e+03 2.752762416642875e+02 2.918975276816622e+03
1.154300529600417e+03 2.742954748109813e+02 2.918975276816622e+03
1.154155371946231e+03 2.731888812742630e+02 2.918975276816622e+03
1.153827262253239e+03 2.724916206915894e+02 2.918975276816622e+03
1.153504177856790e+03 2.714747485779545e+02 2.918975276816622e+03
1.152034045977582e+03 2.697582548438335e+02 2.918975276816622e+03
1.152890502672291e+03 2.694997974315191e+02 2.918975276816622e+03
1.153013917941993e+03 2.686722259234576e+02 2.918975276816622e+03
1.151719227642228e+03 2.680543858348454e+02 2.918975276816622e+03
1.152884421658389e+03 2.665538406280917e+02 2.918975276816622e+03
1.152955446829560e+03 2.656678012295929e+02 2.918975276816622e+03
1.151650991034774e+03 2.649349427139298e+02 2.918975276816622e+03
1.152973193402500e+03 2.635028731901003e+02 2.918975276816622e+03
1.153064666090585e+03 2.624890496340442e+02 2.918975276816622e+03
1.152007166114814e+03 2.624831831037284e+02 2.918975276816622e+03
1.153478458178972e+03 2.607199104491037e+02 2.918975276816622e+03
1.153713822273222e+03 2.594511766145074e+02 2.918975276816622e+03
1.153734421238063e+03 2.590003470777500e+02 2.918975276816622e+03
1.153671977249993e+03 2.575189246917860e+02 2.918975276816622e+03
1.153616271671398e+03 2.566375319443794e+02 2.918975276816622e+03
1.154125388404787e+03 2.553163664482292e+02 2.918975276816622e+03
1.154586421417925e+03 2.544345012366877e+02 2.918975276816622e+03
1.154102944184262e+03 2.532690577374304e+02 2.918975276816622e+03
1.153970067032156e+03 2.524199221341684e+02 2.918975276816622e+03
1.154107635727705e+03 2.511827687111196e+02 2.918975276816622e+03
1.153642241472566e+03 2.507358305582039e+02 2.918975276816622e+03
1.154042649051408e+03 2.501037067542819e+02 2.918975276816622e+03
1.153924193864039e+03 2.484663619642926e+02 2.918975276816622e+03
1.153850306178335e+03 2.481200301751274e+02 2.918975276816622e+03
1.153750455136602e+03 2.465521174333614e+02 2.918975276816622e+03
1.153659112883372e+03 2.456427437073697e+02 2.918975276816622e+03
1.154108681631854e+03 2.443269590671217e+02 2.918975276816622e+03
1.154593488308054e+03 2.434697473680763e+02 2.918975276816622e+03
1.154056023472155e+03 2.423579246848840e+02 2.918975276816622e+03
1.153570214057583e+03 2.413411301655875e+02 2.918975276816622e+03
1.153284539787694e+03 2.405807781055428e+02 2.918975276816622e+03
1.151878004224241e+03 2.387503262379374e+02 2.918975276816622e+03
1.152872506718655e+03 2.384599003063641e+02 2.918975276816622e+03
1.152997145901681e+03 2.377576864476468e+02 2.918975276816622e+03
1.151652077517998e+03 2.371239752018495e+02 2.918975276816622e+03
1.152865115505478e+03 2.355796537964671e+02 2.918975276816622e+03
1.152946029962284e+03 2.347368968977137e+02 2.918975276816622e+03
1.151599214765330e+03 2.339758764438344e+02 2.918975276816622e+03
1.152956554508697e+03 2.325294175452520e+02 2.918975276816622e+03
1.153064825361580e+03 2.315639900384028e+02 2.918975276816622e+03
1.151949335121147e+03 2.315377634273250e+02 2.918975276816622e+03
1.153457365981054e+03 2.297593285363075e+02 2.918975276816622e+03
1.153696030640529e+03 2.284938003356824e+02 2.918975276816622e+03
1.153720028454729e+03 2.280414691813553e+02 2.918975276816622e+03
1.153623453455528e+03 2.265868278997169e+02 2.918975276816622e+03
1.153588089805623e+03 2.256961870712857e+02 2.918975276816622e+03
1.154086468574123e+03 2.243440016514180e+02 2.918975276816622e+03
1.154577084404819e+03 2.234910544753577e+02 2.918975276816622e+03
1.154050569180247e+03 2.223841926771340e+02 2.918975276816622e+03
1.153554691060765e+03 2.213719053796274e+02 2.918975276816622e+03
1.153253293855591e+03 2.206250426928623e+02 2.918975276816622e+03
1.151840302695239e+03 2.187929441950999e+02 2.918975276816622e+03
1.152868488581095e+03 2.184803367414345e+02 2.918975276816622e+03
1.152992330398848e+03 2.177999271315512e+02 2.918975276816622e+03
1.151630328234864e+03 2.171656586767272e+02 2.918975276816622e+03
1.152857818687997e+03 2.156028038292679e+02 2.918975276816622e+03
1.152943696648162e+03 2.147741311089001e+02 2.918975276816622e+03
1.151587229291258e+03 2.140133297838163e+02 2.918975276816622e+03
1.152953818410611e+03 2.125558676083938e+02 2.918975276816622e+03
1.153066789376787e+03 2.116031209659507e+02 2.918975276816622e+03
1.151924711915036e+03 2.115599287625714e+02 2.918975276816622e+03
1.153449528536634e+03 2.097848960529332e+02 2.918975276816622e+03
1.153693734082089e+03 2.085235494625959e+02 2.918975276816622e+03
1.153720906635770e+03 2.080699450780045e+02 2.918975276816622e+03
1.153620342133049e+03 2.066195140154499e+02 2.918975276816622e+03
1.153585814690986e+03 2.057289521339603e+02 2.918975276816622e+03
1.154086332468157e+03 2.043778175629964e+02 2.918975276816622e+03
1.154579929964022e+03 2.035242145250706e+02 2.918975276816622e+03
1.154052825929493e+03 2.024190597854697e+02 2.918975276816622e+03
1.153557819523033e+03 2.014053213803459e+02 2.918975276816622e+03
1.153257460017081e+03 2.006555653502036e+02 2.918975276816622e+03
1.151847207991706e+03 1.988136111882372e+02 2.918975276816622e+03
1.152867581214023e+03 1.985089652414839e+02 2.918975276816622e+03
1.152991732788970e+03 1.978337922777590e+02 2.918975276816622e+03
1.151628010107675e+03 1.972011569591893e+02 2.918975276816622e+03
1.152858418425805e+03 1.956337039928811e+02 2.918975276816622e+03
1.152944536159824e+03 1.948057314165368e+02 2.918975276816622e+03
1.151586409637545e+03 1.940430510997502e+02 2.918975276816622e+03
1.152953520624525e+03 1.925868572187784e+02 2.918975276816622e+03
1.153066697908911e+03 1.916350088518953e+02 2.918975276816622e+03
1.151926889994792e+03 1.915943519675199e+02 2.918975276816622e+03
1.153450799854051e+03 1.898172199709246e+02 2.918975276816622e+03
1.153695677472731e+03 1.885545089042614e+02 2.918975276816622e+03
1.153722411927959e+03 1.881017185122218e+02 2.918975276816622e+03
1.153620881393766e+03 1.866512261283716e+02 2.918975276816622e+03
1.153586253018250e+03 1.857601559729070e+02 2.918975276816622e+03
1.154087086111046e+03 1.844085118445298e+02 2.918975276816622e+03
1.154579355082187e+03 1.835550877041805e+02 2.918975276816622e+03
1.154051816686014e+03 1.824499162567559e+02 2.918975276816622e+03
1.153555052752630e+03 1.814358041826952e+02 2.918975276816622e+03
1.153251840073024e+03 1.806890314852139e+02 2.918975276816622e+03
1.151839663750428e+03 1.788535157063336e+02 2.918975276816622e+03
1.152868662145092e+03 1.785420746653272e+02 2.918975276816622e+03
1.152992181629466e+03 1.778648207721347e+02 2.918975276816622e+03
1.151628063052987e+03 1.772303060632774e+02 2.918975276816622e+03
1.152857653672467e+03 1.756652934373827e+02 2.918975276816622e+03
1.152944184010374e+03 1.748384316120149e+02 2.918975276816622e+03
1.151584724574097e+03 1.740746995295871e+02 2.918975276816622e+03
1.152953517368755e+03 1.726177085155441e+02 2.918975276816622e+03
1.153066768489953e+03 1.716631881591508e+02 2.918975276816622e+03
1.151935551160482e+03 1.716305547130258e+02 2.918975276816622e+03
1.153451433496610e+03 1.698513283837168e+02 2.918975276816622e+03
1.153691229005952e+03 1.685883038396603e+02 2.918975276816622e+03
1.153714076790859e+03 1.681247495283651e+02 2.918975276816622e+03
1.153617955090916e+03 1.666923355638185e+02 2.918975276816622e+03
1.153589811507265e+03 1.657958985883880e+02 2.918975276816622e+03
1.154073903734191e+03 1.644209803568135e+02 2.918975276816622e+03
1.154556806215669e+03 1.635779941541536e+02 2.918975276816622e+03
1.154042823766202e+03 1.624652915107482e+02 2.918975276816622e+03
1.153544546916121e+03 1.614670291524452e+02 2.918975276816622e+03
1.153238165343620e+03 1.607276561926395e+02 2.918975276816622e+03
1.151809586847089e+03 1.589328420094111e+02 2.918975276816622e+03
1.152868061657683e+03 1.585804677378548e+02 2.918975276816622e+03
1.152994072081118e+03 1.578960424384096e+02 2.918975276816622e+03
1.151625986888347e+03 1.572561711856785e+02 2.918975276816622e+03
1.152859057765485e+03 1.556952955183961e+02 2.918975276816622e+03
1.152945447175774e+03 1.548697841218017e+02 2.918975276816622e+03
1.151584344080382e+03 1.541012959566373e+02 2.918975276816622e+03
1.152953957136180e+03 1.526489892093230e+02 2.918975276816622e+03
1.153066998401783e+03 1.516983092256517e+02 2.918975276816622e+03
1.151928633446289e+03 1.516586751061861e+02 2.918975276816622e+03
1.153451024220821e+03 1.498816635102901e+02 2.918975276816622e+03
1.153693955329189e+03 1.486184641998856e+02 2.918975276816622e+03
1.153720777483745e+03 1.481626896494694e+02 2.918975276816622e+03
1.153620742280320e+03 1.467167169394589e+02 2.918975276816622e+03
1.153587529166345e+03 1.458243168338765e+02 2.918975276816622e+03
1.154080407374739e+03 1.444671086349111e+02 2.918975276816622e+03
1.154571282840108e+03 1.436144409414654e+02 2.918975276816622e+03
1.154048538944252e+03 1.425055822510068e+02 2.918975276816622e+03
1.153549866395467e+03 1.414973172117129e+02 2.918975276816622e+03
1.153245110601913e+03 1.407561192558868e+02 2.918975276816622e+03
1.151825426845942e+03 1.389391104292881e+02 2.918975276816622e+03
1.152869954269646e+03 1.386092563788136e+02 2.918975276816622e+03
1.152993843890771e+03 1.379274117111685e+02 2.918975276816622e+03
1.151627659417774e+03 1.372863998526439e+02 2.918975276816622e+03
1.152858844439870e+03 1.357280833635228e+02 2.918975276816622e+03
1.152944958352164e+03 1.349018625271689e+02 2.918975276816622e+03
1.151585278307520e+03 1.341339745832250e+02 2.918975276816622e+03
1.152954368379678e+03 1.326813923368096e+02 2.918975276816622e+03
1.153067114622461e+03 1.317298460597095e+02 2.918975276816622e+03
1.151932221413110e+03 1.316923592287279e+02 2.918975276816622e+03
1.153453386681963e+03 1.299141337721653e+02 2.918975276816622e+03
1.153697354461759e+03 1.286499372585303e+02 2.918975276816622e+03
1.153724359650731e+03 1.281982730992342e+02 2.918975276816622e+03
1.153623945603927e+03 1.267447039455242e+02 2.918975276816622e+03
1.153587984880747e+03 1.258544200723901e+02 2.918975276816622e+03
1.154090455070044e+03 1.245062552061853e+02 2.918975276816622e+03
1.154583516572918e+03 1.236520233729198e+02 2.918975276816622e+03
1.154053547384189e+03 1.225485536566089e+02 2.918975276816622e+03
1.153556772685480e+03 1.215316364974507e+02 2.918975276816622e+03
1.153253521763473e+03 1.207833553276245e+02 2.918975276816622e+03
1.151843680881024e+03 1.189442274546522e+02 2.918975276816622e+03
1.152869997820201e+03 1.186371885589621e+02 2.918975276816622e+03
1.152992747702057e+03 1.179589694224881e+02 2.918975276816622e+03
1.151633168398230e+03 1.173293575191250e+02 2.918975276816622e+03
1.152858033240343e+03 1.157626247296314e+02 2.918975276816622e+03
1.152945124720074e+03 1.149335328610714e+02 2.918975276816622e+03
1.151589287366952e+03 1.141745509740392e+02 2.918975276816622e+03
1.152956950418585e+03 1.127150186431999e+02 2.918975276816622e+03
1.153068597770346e+03 1.117605783777354e+02 2.918975276816622e+03
1.151929435178855e+03 1.117178863441522e+02 2.918975276816622e+03
1.153453186920332e+03 1.099453347830936e+02 2.918975276816622e+03
1.153696262774692e+03 1.086822708086711e+02 2.918975276816622e+03
1.153727475292729e+03 1.082349602814751e+02 2.918975276816622e+03
1.153624912257895e+03 1.067741134917335e+02 2.918975276816622e+03
1.153585557273012e+03 1.058841048550414e+02 2.918975276816622e+03
1.154072793117588e+03 1.045442138709596e+02 2.918975276816622e+03
1.154578499403609e+03 1.036795237469562e+02 2.918975276816622e+03
1.154051873372260e+03 1.025781769953575e+02 2.918975276816622e+03
1.153549033461701e+03 1.015589381604573e+02 2.918975276816622e+03
1.153245015421322e+03 1.008157513201435e+02 2.918975276816622e+03
1.151832242118964e+03 9.900993766873141e+01 2.918975276816622e+03
1.152873222622068e+03 9.867825995318071e+01 2.918975276816622e+03
1.152998756720126e+03 9.798243255062150e+01 2.918975276816622e+03
1.151649628347068e+03 9.734944582306733e+01 2.918975276816622e+03
1.152865940759594e+03 9.580047733170554e+01 2.918975276816622e+03
1.152951253218623e+03 9.495316113930990e+01 2.918975276816622e+03
1.151613168441665e+03 9.419689872056098e+01 2.918975276816622e+03
1.152960718303897e+03 9.275703328712260e+01 2.918975276816622e+03
1.153019911871740e+03 9.167005717990502e+01 2.918975276816622e+03
1.152201290092441e+03 9.184385334151372e+01 2.918975276816622e+03
1.152918713701942e+03 9.011103570146309e+01 2.918975276816622e+03
1.153169829137579e+03 8.898407199895330e+01 2.918975276816622e+03
1.153998719457220e+03 8.746714286179703e+01 2.918975276816622e+03
1.154567089990831e+03 8.703595126103949e+01 2.918975276816622e+03
1.153744910389354e+03 8.619098456961360e+01 2.918975276816622e+03
1.153825615421428e+03 8.524726666912129e+01 2.918975276816622e+03
1.153710841839014e+03 8.420322539109884e+01 2.918975276816622e+03
1.152077291011090e+03 8.344238503439414e+01 2.918975276816622e+03
1.152965847930642e+03 8.210729671707105e+01 2.918975276816622e+03
1.153110718288785e+03 8.025337896150553e+01 2.918975276816622e+03
1.153725852395242e+03 7.975475324974538e+01 2.918975276816622e+03
1.152586297795659e+03 7.852726761017298e+01 2.918975276816622e+03
1.153028526984438e+03 7.583566402892605e+01 2.918975276816622e+03
1.153827981188898e+03 7.455522898460451e+01 2.918975276816622e+03
1.154790698438474e+03 7.154352752141040e+01 2.918975276816622e+03
1.154459210748058e+03 6.982274195389675e+01 2.918975276816622e+03
1.154955443064162e+03 6.978358031870165e+01 2.918975276816622e+03
1.154991046514853e+03 6.745943266004156e+01 2.918975276816622e+03
1.154402759769683e+03 6.563270481396239e+01 2.918975276816622e+03
1.154157558449752e+03 6.486269819261037e+01 2.918975276816622e+03
1.152161831341233e+03 6.340583438389822e+01 2.918975276816622e+03
1.153565287604767e+03 6.263027634523655e+01 2.918975276816622e+03
1.154323795116446e+03 6.133945069875091e+01 2.918975276816622e+03
1.154413510622307e+03 6.093275874340460e+01 2.918975276816622e+03
1.154720571342308e+03 5.985648804121761e+01 2.918975276816622e+03
1.155675840685087e+03 5.913998108655645e+01 2.918975276816622e+03
1.155309178604916e+03 5.775062586165040e+01 2.918975276816622e+03
1.156373086003069e+03 5.655351259325974e+01 2.918975276816622e+03
1.154618285483760e+03 5.583084176546199e+01 2.918975276816622e+03
1.155142822229414e+03 5.454770453389211e+01 2.918975276816622e+03
1.153956279710482e+03 5.404840329014520e+01 2.918975276816622e+03
1.154545937911167e+03 5.199549547101972e+01 2.918975276816622e+03
1.154865970264020e+03 5.036490876836648e+01 2.918975276816622e+03
1.153780460639118e+03 5.013979420569370e+01 2.918975276816622e+03
1.153879162535906e+03 4.895816729968911e+01 2.918975276816622e+03
1.153845922498411e+03 4.789377913488863e+01 2.918975276816622e+03
1.153451175487244e+03 4.702792587238901e+01 2.918975276816622e+03
1.153305413522005e+03 4.412305246182650e+01 2.918975276816622e+03
1.153546134393991e+03 4.240566892998070e+01 2.918975276816622e+03
1.153810709699733e+03 4.192263094073744e+01 2.918975276816622e+03
1.154326619579108e+03 4.086298503063823e+01 2.918975276816622e+03
1.154459026855600e+03 4.047554048257984e+01 2.918975276816622e+03
1.154787766366090e+03 3.913168096422834e+01 2.918975276816622e+03
1.155183264665720e+03 3.647541460449049e+01 2.918975276816622e+03
1.155355580333588e+03 3.518375704288108e+01 2.918975276816622e+03
1.155310905239633e+03 3.398784134324267e+01 2.918975276816622e+03
1.155909571604988e+03 3.205990916221674e+01 2.918975276816622e+03
1.155886513911811e+03 3.037217763966000e+01 2.918975276816622e+03
1.156074333240957e+03 2.854715173075277e+01 2.918975276816622e+03
1.154745483305752e+03 2.521970977380054e+01 2.918975276816622e+03
1.155214690063402e+03 2.293226193164414e+01 2.918975276816622e+03
1.154760434089304e+03 2.313553366910180e+01 2.918975276816622e+03
1.154996448415573e+03 1.908116041177381e+01 2.918975276816622e+03
1.154101662835258e+03 1.831957686361585e+01 2.918975276816622e+03
1.154158829062646e+03 1.599386291149125e+01 2.918975276816622e+03
1.154816676715245e+03 1.421124844204627e+01 2.918975276816622e+03
1.154420799230768e+03 1.318035755901627e+01 2.918975276816622e+03
1.153946999628420e+03 1.180446212686861e+01 2.918975276816622e+03
1.154249623439545e+03 1.016525494608461e+01 2.918975276816622e+03
1.155955370075484e+03 8.911823215764437e+00 2.918975276816622e+03
1.154130183564348e+03 7.699701594673621e+00 2.918975276816622e+03
1.154191600772883e+03 5.605967500058374e+00 2.918975276816622e+03
1.153699166458212e+03 4.636400622414272e+00 2.918975276816622e+03
1.154353882424340e+03 2.655398882507122e+00 2.918975276816622e+03
1.155224001060063e+03 1.662068626449725e+00 2.918975276816622e+03
-1.147994135374056e+03 -3.863858941524650e+02 -2.918975276816622e+03
-1.147994135374056e+03  3.863858941524653e+02 -2.918975276816622e+03
 1.144155152271569e+03 -3.863858941524653e+02  2.918975276816622e+03
1.144155152271569e+03 3.863858941524650e+02 2.918975276816622e+03
-1.157166646691097e+03 -3.863858941524650e+02 -2.918975276816622e+03
-1.157166646691097e+03  3.863858941524653e+02 -2.918975276816622e+03
 1.155606308990291e+03 -3.863858941524653e+02  2.918975276816622e+03
1.155606308990291e+03 3.863858941524650e+02 2.918975276816622e+03
-1.147709228310281e+03  1.853515391052429e-01 -2.918975276816622e+03
-1.147775214108369e+03  3.333478272055260e+00 -2.918975276816622e+03
-1.148153560187186e+03 -1.571273020059759e+00 -2.918975276816622e+03
-1.148930088474288e+03 -2.605079739030948e+00 -2.918975276816622e+03
-1.148807428695128e+03 -3.627441345280713e+00 -2.918975276816622e+03
-1.147984219665363e+03 -4.991352837318910e+00 -2.918975276816622e+03
-1.148211225313115e+03 -5.678733358050382e+00 -2.918975276816622e+03
-1.148751018799005e+03 -6.089896968252721e+00 -2.918975276816622e+03
-1.148597709467555e+03 -7.337600778702417e+00 -2.918975276816622e+03
-1.147630189352358e+03 -9.160316511953113e+00 -2.918975276816622e+03
-1.147363680766618e+03 -1.055321265189139e+01 -2.918975276816622e+03
-1.147722426343677e+03 -1.091947677464077e+01 -2.918975276816622e+03
-1.147694126146005e+03 -1.140243001170130e+01 -2.918975276816622e+03
-1.147630512602260e+03 -1.260158056500017e+01 -2.918975276816622e+03
-1.147289472358013e+03 -1.392705894603934e+01 -2.918975276816622e+03
-1.147127222356146e+03 -1.583874585978720e+01 -2.918975276816622e+03
-1.147560419013457e+03 -1.876648973603521e+01 -2.918975276816622e+03
-1.148534582489072e+03 -2.128084297290640e+01 -2.918975276816622e+03
-1.148429024862897e+03 -2.215294303980411e+01 -2.918975276816622e+03
-1.147899277707240e+03 -2.293293954133353e+01 -2.918975276816622e+03
-1.148342829457216e+03 -2.519890061859778e+01 -2.918975276816622e+03
-1.148651105681382e+03 -2.661466066587816e+01 -2.918975276816622e+03
-1.148269558735596e+03 -2.780967916689258e+01 -2.918975276816622e+03
-1.148717731676066e+03 -2.912611275063081e+01 -2.918975276816622e+03
-1.149023040894093e+03 -3.020846540617643e+01 -2.918975276816622e+03
-1.148292302765956e+03 -3.158589588572046e+01 -2.918975276816622e+03
-1.148012022183741e+03 -3.266810206994257e+01 -2.918975276816622e+03
-1.147710774270108e+03 -3.367480375253574e+01 -2.918975276816622e+03
-1.147801925920844e+03 -3.475915670603634e+01 -2.918975276816622e+03
-1.148189546264283e+03 -3.550841930517416e+01 -2.918975276816622e+03
-1.147609758542946e+03 -3.597170461731478e+01 -2.918975276816622e+03
-1.146952609873090e+03 -3.683550157934221e+01 -2.918975276816622e+03
-1.147068084389332e+03 -3.809803384485176e+01 -2.918975276816622e+03
-1.147513836227687e+03 -3.960365765928557e+01 -2.918975276816622e+03
-1.147980423848157e+03 -4.084731647512296e+01 -2.918975276816622e+03
-1.148013861208273e+03 -4.247384080164585e+01 -2.918975276816622e+03
-1.147673721566330e+03 -4.412161168028520e+01 -2.918975276816622e+03
-1.147470114305771e+03 -4.545464570195211e+01 -2.918975276816622e+03
-1.147748033515106e+03 -4.675967432456079e+01 -2.918975276816622e+03
-1.148166977583068e+03 -4.849489275897947e+01 -2.918975276816622e+03
-1.148224646067514e+03 -5.017794193686989e+01 -2.918975276816622e+03
-1.147870701260032e+03 -5.133500611688629e+01 -2.918975276816622e+03
-1.147470297699437e+03 -5.309038407060697e+01 -2.918975276816622e+03
-1.147184632725797e+03 -5.429797732484017e+01 -2.918975276816622e+03
-1.147574616793505e+03 -5.488985150000472e+01 -2.918975276816622e+03
-1.148167114758219e+03 -5.542745077315635e+01 -2.918975276816622e+03
-1.147613801011067e+03 -5.594392596251856e+01 -2.918975276816622e+03
-1.147016922457940e+03 -5.684761757230432e+01 -2.918975276816622e+03
-1.147160226618888e+03 -5.810553555265076e+01 -2.918975276816622e+03
-1.147561136237378e+03 -5.958598905316677e+01 -2.918975276816622e+03
-1.147994670551724e+03 -6.080919411988710e+01 -2.918975276816622e+03
-1.148028454789381e+03 -6.244117750169372e+01 -2.918975276816622e+03
-1.147702133115618e+03 -6.408876736556911e+01 -2.918975276816622e+03
-1.147510889437562e+03 -6.535548756052164e+01 -2.918975276816622e+03
-1.147769724407712e+03 -6.666453281617366e+01 -2.918975276816622e+03
-1.148172362839206e+03 -6.846387869263891e+01 -2.918975276816622e+03
-1.148227054532335e+03 -7.014582187473732e+01 -2.918975276816622e+03
-1.147871843298753e+03 -7.130460410467334e+01 -2.918975276816622e+03
-1.147472081089772e+03 -7.306536093078587e+01 -2.918975276816622e+03
-1.147202303198977e+03 -7.427147770958931e+01 -2.918975276816622e+03
-1.147594835792353e+03 -7.485445967586612e+01 -2.918975276816622e+03
-1.148169157658461e+03 -7.539043029800405e+01 -2.918975276816622e+03
-1.147613468316626e+03 -7.590592555189953e+01 -2.918975276816622e+03
-1.147020862116520e+03 -7.680431844039435e+01 -2.918975276816622e+03
-1.147165245175622e+03 -7.807032501470385e+01 -2.918975276816622e+03
-1.147563726830922e+03 -7.955655722390192e+01 -2.918975276816622e+03
-1.147996712249188e+03 -8.077589529145931e+01 -2.918975276816622e+03
-1.148029608872881e+03 -8.241011087222350e+01 -2.918975276816622e+03
-1.147684127270008e+03 -8.406259769586624e+01 -2.918975276816622e+03
-1.147479134394562e+03 -8.538927952870021e+01 -2.918975276816622e+03
-1.147754743755366e+03 -8.669418614963784e+01 -2.918975276816622e+03
-1.148171550784035e+03 -8.843253353626615e+01 -2.918975276816622e+03
-1.148226645400789e+03 -9.011538782923334e+01 -2.918975276816622e+03
-1.147874991922784e+03 -9.127464956056218e+01 -2.918975276816622e+03
-1.147487840736513e+03 -9.303393627064339e+01 -2.918975276816622e+03
-1.147184810582168e+03 -9.423029224569210e+01 -2.918975276816622e+03
-1.147557063205496e+03 -9.482263291025944e+01 -2.918975276816622e+03
-1.148164430132449e+03 -9.536871588193787e+01 -2.918975276816622e+03
-1.147612186850281e+03 -9.588972249313052e+01 -2.918975276816622e+03
-1.147010215779084e+03 -9.680165531457047e+01 -2.918975276816622e+03
-1.147152082776812e+03 -9.804514266455212e+01 -2.918975276816622e+03
-1.147556439473266e+03 -9.951956830223439e+01 -2.918975276816622e+03
-1.147993940545316e+03 -1.007491077039056e+02 -2.918975276816622e+03
-1.148029254056396e+03 -1.023762525958346e+02 -2.918975276816622e+03
-1.147704994160599e+03 -1.040249638627128e+02 -2.918975276816622e+03
-1.147512573077520e+03 -1.052949115197500e+02 -2.918975276816622e+03
-1.147770560701326e+03 -1.066005524246089e+02 -2.918975276816622e+03
-1.148173762115901e+03 -1.083992069692639e+02 -2.918975276816622e+03
-1.148228640704058e+03 -1.100835864735400e+02 -2.918975276816622e+03
-1.147873951433958e+03 -1.112427283150834e+02 -2.918975276816622e+03
-1.147476995674556e+03 -1.130037038964350e+02 -2.918975276816622e+03
-1.147200830241511e+03 -1.142077690064081e+02 -2.918975276816622e+03
-1.147588753241856e+03 -1.147909338424245e+02 -2.918975276816622e+03
-1.148168833694811e+03 -1.153294066117687e+02 -2.918975276816622e+03
-1.147614655635201e+03 -1.158436925930278e+02 -2.918975276816622e+03
-1.147022463187858e+03 -1.167411146339036e+02 -2.918975276816622e+03
-1.147166591571828e+03 -1.180065057322978e+02 -2.918975276816622e+03
-1.147563902518138e+03 -1.194926077254315e+02 -2.918975276816622e+03
-1.147997057830324e+03 -1.207118409041286e+02 -2.918975276816622e+03
-1.148030054482381e+03 -1.223439804583178e+02 -2.918975276816622e+03
-1.147684053360323e+03 -1.239983300583011e+02 -2.918975276816622e+03
-1.147479372398760e+03 -1.253274066609517e+02 -2.918975276816622e+03
-1.147756813882944e+03 -1.266309775285668e+02 -2.918975276816622e+03
-1.148173847312887e+03 -1.283691553957122e+02 -2.918975276816622e+03
-1.148228420318952e+03 -1.300520003674472e+02 -2.918975276816622e+03
-1.147874579331611e+03 -1.312111360093458e+02 -2.918975276816622e+03
-1.147479846945062e+03 -1.329741671874674e+02 -2.918975276816622e+03
-1.147207606594229e+03 -1.341765590821521e+02 -2.918975276816622e+03
-1.147593847613287e+03 -1.347568237423702e+02 -2.918975276816622e+03
-1.148169764916548e+03 -1.352961632999624e+02 -2.918975276816622e+03
-1.147615286497902e+03 -1.358136731831200e+02 -2.918975276816622e+03
-1.147022523728002e+03 -1.367146285615015e+02 -2.918975276816622e+03
-1.147166706635275e+03 -1.379782295137370e+02 -2.918975276816622e+03
-1.147564433980099e+03 -1.394611542105746e+02 -2.918975276816622e+03
-1.147997324476315e+03 -1.406807045074346e+02 -2.918975276816622e+03
-1.148031569263981e+03 -1.423131787044370e+02 -2.918975276816622e+03
-1.147704349731926e+03 -1.439620858730848e+02 -2.918975276816622e+03
-1.147512397195635e+03 -1.452297295765114e+02 -2.918975276816622e+03
-1.147770689826524e+03 -1.465372327192285e+02 -2.918975276816622e+03
-1.148174321812425e+03 -1.483363851096329e+02 -2.918975276816622e+03
-1.148228830550654e+03 -1.500209781292223e+02 -2.918975276816622e+03
-1.147874223791845e+03 -1.511800564526834e+02 -2.918975276816622e+03
-1.147480318809308e+03 -1.529425788551649e+02 -2.918975276816622e+03
-1.147210450551428e+03 -1.541448605759389e+02 -2.918975276816622e+03
-1.147596436421380e+03 -1.547239959085194e+02 -2.918975276816622e+03
-1.148170459648064e+03 -1.552638298215560e+02 -2.918975276816622e+03
-1.147616459726646e+03 -1.557833924047779e+02 -2.918975276816622e+03
-1.147023026937698e+03 -1.566840442387493e+02 -2.918975276816622e+03
-1.147165841743473e+03 -1.579450435998652e+02 -2.918975276816622e+03
-1.147564187731077e+03 -1.594282203939460e+02 -2.918975276816622e+03
-1.147998620458785e+03 -1.606486952949858e+02 -2.918975276816622e+03
-1.148032337904238e+03 -1.622823390608986e+02 -2.918975276816622e+03
-1.147686880243073e+03 -1.639360309038256e+02 -2.918975276816622e+03
-1.147481048739569e+03 -1.652623351491168e+02 -2.918975276816622e+03
-1.147756399189843e+03 -1.665665756371557e+02 -2.918975276816622e+03
-1.148173674361663e+03 -1.683056371237904e+02 -2.918975276816622e+03
-1.148229017102233e+03 -1.699882546610233e+02 -2.918975276816622e+03
-1.147876418411266e+03 -1.711492198428411e+02 -2.918975276816622e+03
-1.147485607223730e+03 -1.729155481062163e+02 -2.918975276816622e+03
-1.147217456018959e+03 -1.741142890715933e+02 -2.918975276816622e+03
-1.147600297863277e+03 -1.746902013107550e+02 -2.918975276816622e+03
-1.148170563426810e+03 -1.752308252039146e+02 -2.918975276816622e+03
-1.147615260941469e+03 -1.757516934733357e+02 -2.918975276816622e+03
-1.147022684707779e+03 -1.766528045556381e+02 -2.918975276816622e+03
-1.147165864260844e+03 -1.779117094517769e+02 -2.918975276816622e+03
-1.147563931823345e+03 -1.793952412165227e+02 -2.918975276816622e+03
-1.147998954919299e+03 -1.806166423173443e+02 -2.918975276816622e+03
-1.148032495402125e+03 -1.822499894786486e+02 -2.918975276816622e+03
-1.147686665683710e+03 -1.839039848796047e+02 -2.918975276816622e+03
-1.147481199978452e+03 -1.852304747957545e+02 -2.918975276816622e+03
-1.147757434591148e+03 -1.865349230389264e+02 -2.918975276816622e+03
-1.148174511863464e+03 -1.882742402337669e+02 -2.918975276816622e+03
-1.148229370716003e+03 -1.899561865223448e+02 -2.918975276816622e+03
-1.147876321076730e+03 -1.911170494694435e+02 -2.918975276816622e+03
-1.147483895361917e+03 -1.928836093583081e+02 -2.918975276816622e+03
-1.147219942344498e+03 -1.940835989754440e+02 -2.918975276816622e+03
-1.147605555391681e+03 -1.946585263842069e+02 -2.918975276816622e+03
-1.148171764453880e+03 -1.951977725464665e+02 -2.918975276816622e+03
-1.147615718692837e+03 -1.957175273386517e+02 -2.918975276816622e+03
-1.147022773782025e+03 -1.966159308920045e+02 -2.918975276816622e+03
-1.147165705592825e+03 -1.978773815407887e+02 -2.918975276816622e+03
-1.147564498373481e+03 -1.993631322385755e+02 -2.918975276816622e+03
-1.147999163906009e+03 -2.005843315127892e+02 -2.918975276816622e+03
-1.148033051888855e+03 -2.022176395262640e+02 -2.918975276816622e+03
-1.147704907666131e+03 -2.038668944661104e+02 -2.918975276816622e+03
-1.147513270214428e+03 -2.051335600134596e+02 -2.918975276816622e+03
-1.147772529135438e+03 -2.064422131851973e+02 -2.918975276816622e+03
-1.148175975966066e+03 -2.082425623119464e+02 -2.918975276816622e+03
-1.148229581115439e+03 -2.099258309901146e+02 -2.918975276816622e+03
-1.147876035655077e+03 -2.110859863271762e+02 -2.918975276816622e+03
-1.147486106867093e+03 -2.128513553452299e+02 -2.918975276816622e+03
-1.147218898818000e+03 -2.140503561168337e+02 -2.918975276816622e+03
-1.147601525894666e+03 -2.146261912614246e+02 -2.918975276816622e+03
-1.148171704262111e+03 -2.151676237492685e+02 -2.918975276816622e+03
-1.147617065755364e+03 -2.156882457613598e+02 -2.918975276816622e+03
-1.147024129790145e+03 -2.165877598999606e+02 -2.918975276816622e+03
-1.147166612233500e+03 -2.178472062188120e+02 -2.918975276816622e+03
-1.147564486864742e+03 -2.193314188454130e+02 -2.918975276816622e+03
-1.147999465904179e+03 -2.205527984689655e+02 -2.918975276816622e+03
-1.148032684004312e+03 -2.221856035998696e+02 -2.918975276816622e+03
-1.147686331772040e+03 -2.238400093968090e+02 -2.918975276816622e+03
-1.147480975735163e+03 -2.251682977151024e+02 -2.918975276816622e+03
-1.147757792611995e+03 -2.264720916215372e+02 -2.918975276816622e+03
-1.148175041908387e+03 -2.282109029018564e+02 -2.918975276816622e+03
-1.148229505251043e+03 -2.298940079605152e+02 -2.918975276816622e+03
-1.147876157473200e+03 -2.310536225861862e+02 -2.918975276816622e+03
-1.147484922383850e+03 -2.328185640062434e+02 -2.918975276816622e+03
-1.147218609004890e+03 -2.340183817076412e+02 -2.918975276816622e+03
-1.147602468128102e+03 -2.345949156691232e+02 -2.918975276816622e+03
-1.148171722650890e+03 -2.351354406255317e+02 -2.918975276816622e+03
-1.147614285136140e+03 -2.356506423878745e+02 -2.918975276816622e+03
-1.147017545221466e+03 -2.365421686857777e+02 -2.918975276816622e+03
-1.147158885224212e+03 -2.378025397394630e+02 -2.918975276816622e+03
-1.147557698449736e+03 -2.392939689419342e+02 -2.918975276816622e+03
-1.147990585483803e+03 -2.405187947669739e+02 -2.918975276816622e+03
-1.148016696423817e+03 -2.421540718262760e+02 -2.918975276816622e+03
-1.147660442576057e+03 -2.438074305815247e+02 -2.918975276816622e+03
-1.147443942391173e+03 -2.451428041564940e+02 -2.918975276816622e+03
-1.147659891299124e+03 -2.464489440306687e+02 -2.918975276816622e+03
-1.147851317685442e+03 -2.483286054131714e+02 -2.918975276816622e+03
-1.147645217777735e+03 -2.502339156355469e+02 -2.918975276816622e+03
-1.147656308574027e+03 -2.512123134819864e+02 -2.918975276816622e+03
-1.147841291658227e+03 -2.529711181880054e+02 -2.918975276816622e+03
-1.147623596584662e+03 -2.547893356578096e+02 -2.918975276816622e+03
-1.147448368985873e+03 -2.561196516796920e+02 -2.918975276816622e+03
-1.147743972593835e+03 -2.574304786740208e+02 -2.918975276816622e+03
-1.148174270120833e+03 -2.591615002210918e+02 -2.918975276816622e+03
-1.148234979818418e+03 -2.608441299510827e+02 -2.918975276816622e+03
-1.147916123647814e+03 -2.620505263294812e+02 -2.918975276816622e+03
-1.147550583709056e+03 -2.637461697238379e+02 -2.918975276816622e+03
-1.147627661670801e+03 -2.648986926490830e+02 -2.918975276816622e+03
-1.148123241537855e+03 -2.653232924290202e+02 -2.918975276816622e+03
-1.148316954362837e+03 -2.661887606928678e+02 -2.918975276816622e+03
-1.147799547485037e+03 -2.675007328560790e+02 -2.918975276816622e+03
-1.147481711485074e+03 -2.684837606094517e+02 -2.918975276816622e+03
-1.148149865548722e+03 -2.693651568669364e+02 -2.918975276816622e+03
-1.148842166307542e+03 -2.703556062444648e+02 -2.918975276816622e+03
-1.149553710482627e+03 -2.714007638648866e+02 -2.918975276816622e+03
-1.149406811776300e+03 -2.725458204530456e+02 -2.918975276816622e+03
-1.149011844635852e+03 -2.736799602712076e+02 -2.918975276816622e+03
-1.148748350930331e+03 -2.750193037948435e+02 -2.918975276816622e+03
-1.148634608696439e+03 -2.765423971131154e+02 -2.918975276816622e+03
-1.148989951703472e+03 -2.788585030136963e+02 -2.918975276816622e+03
-1.148925152191150e+03 -2.810045462166119e+02 -2.918975276816622e+03
-1.149095365548486e+03 -2.822293555655882e+02 -2.918975276816622e+03
-1.148411217530397e+03 -2.831525296345553e+02 -2.918975276816622e+03
-1.148155343912205e+03 -2.837665513738621e+02 -2.918975276816622e+03
-1.148851611278315e+03 -2.849303681533689e+02 -2.918975276816622e+03
-1.148692144880805e+03 -2.862024082006060e+02 -2.918975276816622e+03
-1.148261401089256e+03 -2.873629691738711e+02 -2.918975276816622e+03
-1.148389492027623e+03 -2.885518901520846e+02 -2.918975276816622e+03
-1.148526958973098e+03 -2.892747937374069e+02 -2.918975276816622e+03
-1.148842880757717e+03 -2.901120309072986e+02 -2.918975276816622e+03
-1.149080335634161e+03 -2.914136488788122e+02 -2.918975276816622e+03
-1.147991061711155e+03 -2.922855434649470e+02 -2.918975276816622e+03
-1.147783337249596e+03 -2.930531273568690e+02 -2.918975276816622e+03
-1.148578317038872e+03 -2.941566784348075e+02 -2.918975276816622e+03
-1.148875033899092e+03 -2.958563547782114e+02 -2.918975276816622e+03
-1.149021711079703e+03 -2.975463000792588e+02 -2.918975276816622e+03
-1.148945681130075e+03 -2.984471627826088e+02 -2.918975276816622e+03
-1.148789584660979e+03 -2.995655388929812e+02 -2.918975276816622e+03
-1.148376147888879e+03 -3.018738970984937e+02 -2.918975276816622e+03
-1.147812690139796e+03 -3.042536219312393e+02 -2.918975276816622e+03
-1.147762773389631e+03 -3.055602481785182e+02 -2.918975276816622e+03
-1.148426693059652e+03 -3.064207667098206e+02 -2.918975276816622e+03
-1.148585065355453e+03 -3.070487787408550e+02 -2.918975276816622e+03
-1.147662346662088e+03 -3.081911395498404e+02 -2.918975276816622e+03
-1.147198140583900e+03 -3.093106477578921e+02 -2.918975276816622e+03
-1.147591377663245e+03 -3.103214549798801e+02 -2.918975276816622e+03
-1.148188424906276e+03 -3.113541177501040e+02 -2.918975276816622e+03
-1.148411930715281e+03 -3.118771664908024e+02 -2.918975276816622e+03
-1.147752858306584e+03 -3.128743630286920e+02 -2.918975276816622e+03
-1.147213873482365e+03 -3.137255007490521e+02 -2.918975276816622e+03
-1.147766603012619e+03 -3.144385561187897e+02 -2.918975276816622e+03
-1.148372553094924e+03 -3.161871213163428e+02 -2.918975276816622e+03
-1.148515718762889e+03 -3.175276410633584e+02 -2.918975276816622e+03
-1.148570718123246e+03 -3.186712105900569e+02 -2.918975276816622e+03
-1.148699933022740e+03 -3.200989008869297e+02 -2.918975276816622e+03
-1.148396935917213e+03 -3.212779592913013e+02 -2.918975276816622e+03
-1.148038133113821e+03 -3.230978255563161e+02 -2.918975276816622e+03
-1.148013276121035e+03 -3.246571766030644e+02 -2.918975276816622e+03
-1.147762678631967e+03 -3.257663905054164e+02 -2.918975276816622e+03
-1.147357584779367e+03 -3.267541122405966e+02 -2.918975276816622e+03
-1.147485414463450e+03 -3.279719926709332e+02 -2.918975276816622e+03
-1.147985647291571e+03 -3.292078697471221e+02 -2.918975276816622e+03
-1.148353272150684e+03 -3.299484610444179e+02 -2.918975276816622e+03
-1.148683436791121e+03 -3.310575646631348e+02 -2.918975276816622e+03
-1.148750958660236e+03 -3.320185050855988e+02 -2.918975276816622e+03
-1.149075407967263e+03 -3.338659528782266e+02 -2.918975276816622e+03
-1.148854877433354e+03 -3.363818066138667e+02 -2.918975276816622e+03
-1.147877224723075e+03 -3.373580830317221e+02 -2.918975276816622e+03
-1.147846154344045e+03 -3.380295989551500e+02 -2.918975276816622e+03
-1.148676616298190e+03 -3.394840839644080e+02 -2.918975276816622e+03
-1.149153583658809e+03 -3.411851588892135e+02 -2.918975276816622e+03
-1.148760240200095e+03 -3.424355442560278e+02 -2.918975276816622e+03
-1.148675842615799e+03 -3.433586583760813e+02 -2.918975276816622e+03
-1.148741454022860e+03 -3.448110620134950e+02 -2.918975276816622e+03
-1.148480816510320e+03 -3.461871768088874e+02 -2.918975276816622e+03
-1.148219834474115e+03 -3.466242191237011e+02 -2.918975276816622e+03
-1.147786444847695e+03 -3.470289429391570e+02 -2.918975276816622e+03
-1.148019650325368e+03 -3.483159539285326e+02 -2.918975276816622e+03
-1.148616780702678e+03 -3.501010329332719e+02 -2.918975276816622e+03
-1.148511715424225e+03 -3.513384301184126e+02 -2.918975276816622e+03
-1.148037689539397e+03 -3.519503025827263e+02 -2.918975276816622e+03
-1.147431645300027e+03 -3.530693173515087e+02 -2.918975276816622e+03
-1.147035533086024e+03 -3.544752280024375e+02 -2.918975276816622e+03
-1.147394347318335e+03 -3.554071656631931e+02 -2.918975276816622e+03
-1.147869695980493e+03 -3.559928878093877e+02 -2.918975276816622e+03
-1.147669087747955e+03 -3.567733664238264e+02 -2.918975276816622e+03
-1.147356891700789e+03 -3.580506109680889e+02 -2.918975276816622e+03
-1.147660123706894e+03 -3.593934402626516e+02 -2.918975276816622e+03
-1.147909412291734e+03 -3.601288696859840e+02 -2.918975276816622e+03
-1.147405007493521e+03 -3.607833522843885e+02 -2.918975276816622e+03
-1.147498580830877e+03 -3.617950697759830e+02 -2.918975276816622e+03
-1.148931177205228e+03 -3.627377141902446e+02 -2.918975276816622e+03
-1.148874389566751e+03 -3.638678044400548e+02 -2.918975276816622e+03
-1.147886505163466e+03 -3.652649970031488e+02 -2.918975276816622e+03
-1.147891691718308e+03 -3.660894334772540e+02 -2.918975276816622e+03
-1.147870225521365e+03 -3.672426907993455e+02 -2.918975276816622e+03
-1.147810141683246e+03 -3.681982045801133e+02 -2.918975276816622e+03
-1.147932087693223e+03 -3.688881848136722e+02 -2.918975276816622e+03
-1.147543147495259e+03 -3.695720596357444e+02 -2.918975276816622e+03
-1.147361193097741e+03 -3.703499416500484e+02 -2.918975276816622e+03
-1.147488111643849e+03 -3.718792606708387e+02 -2.918975276816622e+03
-1.147434073095844e+03 -3.732597246851499e+02 -2.918975276816622e+03
-1.147241289376565e+03 -3.752209587562679e+02 -2.918975276816622e+03
-1.147471509849360e+03 -3.771759481126342e+02 -2.918975276816622e+03
-1.147689017887578e+03 -3.788018641449371e+02 -2.918975276816622e+03
-1.147948850287547e+03 -3.801717400690501e+02 -2.918975276816622e+03
-1.148308954978310e+03 -3.817355412469780e+02 -2.918975276816622e+03
-1.149250625452174e+03 -3.830049486492426e+02 -2.918975276816622e+03
-1.149287740022577e+03 -3.845422339953260e+02 -2.918975276816622e+03
-1.148128321123629e+03 -3.861803125574941e+02 -2.918975276816622e+03
-1.147387765646871e+03  3.838728860626171e+02 -2.918975276816622e+03
-1.147345232398867e+03  3.853917311430114e+02 -2.918975276816622e+03
-1.147935803014188e+03  3.825504071826631e+02 -2.918975276816622e+03
-1.147811713313299e+03  3.801914430076757e+02 -2.918975276816622e+03
-1.148209255320712e+03  3.780901697467417e+02 -2.918975276816622e+03
-1.148330096546162e+03  3.769221978908669e+02 -2.918975276816622e+03
-1.148172289213416e+03  3.757153905548003e+02 -2.918975276816622e+03
-1.148104716744991e+03  3.750675507447675e+02 -2.918975276816622e+03
-1.148392511447057e+03  3.744203560421907e+02 -2.918975276816622e+03
-1.149722595679974e+03  3.726546166040867e+02 -2.918975276816622e+03
-1.149361582470097e+03  3.712146211200593e+02 -2.918975276816622e+03
-1.148155994011414e+03  3.699568340836430e+02 -2.918975276816622e+03
-1.147303494194578e+03  3.679817794734392e+02 -2.918975276816622e+03
-1.147072316707386e+03  3.660713491678558e+02 -2.918975276816622e+03
-1.147931910118486e+03  3.650862485234508e+02 -2.918975276816622e+03
-1.148314459076455e+03  3.646691928972919e+02 -2.918975276816622e+03
-1.148040541861284e+03  3.630720266448278e+02 -2.918975276816622e+03
-1.147933997304459e+03  3.610808560681725e+02 -2.918975276816622e+03
-1.147778880709194e+03  3.599486089346290e+02 -2.918975276816622e+03
-1.147277439158486e+03  3.588431555654677e+02 -2.918975276816622e+03
-1.147777413530998e+03  3.565930160919455e+02 -2.918975276816622e+03
-1.148097976298099e+03  3.542821193519050e+02 -2.918975276816622e+03
-1.147999563708288e+03  3.526138701172588e+02 -2.918975276816622e+03
-1.147602077479761e+03  3.502781433893882e+02 -2.918975276816622e+03
-1.147398374352551e+03  3.471337994316235e+02 -2.918975276816622e+03
-1.147440848189154e+03  3.443814992226011e+02 -2.918975276816622e+03
-1.147642901371534e+03  3.428671779752854e+02 -2.918975276816622e+03
-1.147976561046993e+03  3.420833487595856e+02 -2.918975276816622e+03
-1.148261136209050e+03  3.412869833935877e+02 -2.918975276816622e+03
-1.149580395957417e+03  3.402202336304718e+02 -2.918975276816622e+03
-1.149492854230986e+03  3.387861579670522e+02 -2.918975276816622e+03
-1.148140328056323e+03  3.376192691408514e+02 -2.918975276816622e+03
-1.148253079267758e+03  3.370732040269210e+02 -2.918975276816622e+03
-1.149653096167061e+03  3.361077493588583e+02 -2.918975276816622e+03
-1.149547647639247e+03  3.346527374198457e+02 -2.918975276816622e+03
-1.148070434535654e+03  3.336191460222335e+02 -2.918975276816622e+03
-1.147872388269425e+03  3.329070183759789e+02 -2.918975276816622e+03
-1.148634685972074e+03  3.315209256223236e+02 -2.918975276816622e+03
-1.149592811015892e+03  3.300155408719026e+02 -2.918975276816622e+03
-1.149660826925259e+03  3.293759519213160e+02 -2.918975276816622e+03
-1.149807774997498e+03  3.282889292994168e+02 -2.918975276816622e+03
-1.149499014311720e+03  3.265295040428032e+02 -2.918975276816622e+03
-1.149063717771877e+03  3.249363843563531e+02 -2.918975276816622e+03
-1.149231180562766e+03  3.236846704053285e+02 -2.918975276816622e+03
-1.149707091130805e+03  3.229083968768023e+02 -2.918975276816622e+03
-1.149462079165510e+03  3.218781023350579e+02 -2.918975276816622e+03
-1.148170720657694e+03  3.208293426741766e+02 -2.918975276816622e+03
-1.147680350348172e+03  3.191033106292392e+02 -2.918975276816622e+03
-1.146781229584827e+03  3.171901921953734e+02 -2.918975276816622e+03
-1.146921777284520e+03  3.161010176004381e+02 -2.918975276816622e+03
-1.147941650074129e+03  3.141330987783832e+02 -2.918975276816622e+03
-1.147559870059607e+03  3.123874460303005e+02 -2.918975276816622e+03
-1.147212595347974e+03  3.112873989122709e+02 -2.918975276816622e+03
-1.147243603815220e+03  3.097977798564677e+02 -2.918975276816622e+03
-1.147575384965424e+03  3.087319202635053e+02 -2.918975276816622e+03
-1.147933048624128e+03  3.070366515927673e+02 -2.918975276816622e+03
-1.147641687923395e+03  3.055565607585717e+02 -2.918975276816622e+03
-1.147950982708572e+03  3.047197142685742e+02 -2.918975276816622e+03
-1.149474443387887e+03  3.034576138978836e+02 -2.918975276816622e+03
-1.150191380158831e+03  3.015837625674696e+02 -2.918975276816622e+03
-1.149036106252294e+03  2.999518119552020e+02 -2.918975276816622e+03
-1.147356980551322e+03  2.994535611762912e+02 -2.918975276816622e+03
-1.146977591612354e+03  2.987431186530050e+02 -2.918975276816622e+03
-1.147736047001510e+03  2.970333259945589e+02 -2.918975276816622e+03
-1.148654989998351e+03  2.952771559236679e+02 -2.918975276816622e+03
-1.148884678265795e+03  2.940146140572787e+02 -2.918975276816622e+03
-1.148443297570822e+03  2.920668671141195e+02 -2.918975276816622e+03
-1.148282967456963e+03  2.896321750905154e+02 -2.918975276816622e+03
-1.148421143139425e+03  2.879746102073895e+02 -2.918975276816622e+03
-1.148766396266398e+03  2.867074210512060e+02 -2.918975276816622e+03
-1.148377669494903e+03  2.853966179998006e+02 -2.918975276816622e+03
-1.147366756667200e+03  2.849066720150742e+02 -2.918975276816622e+03
-1.147424366151129e+03  2.840897057917506e+02 -2.918975276816622e+03
-1.148090597423663e+03  2.830053734356978e+02 -2.918975276816622e+03
-1.147534064120973e+03  2.820642917803656e+02 -2.918975276816622e+03
-1.147076270618743e+03  2.806497659262797e+02 -2.918975276816622e+03
-1.147568856070676e+03  2.787330374585411e+02 -2.918975276816622e+03
-1.147833043484055e+03  2.768174732326337e+02 -2.918975276816622e+03
-1.147950580731976e+03  2.757546667226261e+02 -2.918975276816622e+03
-1.148099783570521e+03  2.748587624372032e+02 -2.918975276816622e+03
-1.148266433114376e+03  2.730264724276254e+02 -2.918975276816622e+03
-1.148289506490675e+03  2.713234549991573e+02 -2.918975276816622e+03
-1.147923091891576e+03  2.701340357248176e+02 -2.918975276816622e+03
-1.147543589526469e+03  2.684387284425362e+02 -2.918975276816622e+03
-1.147221379889852e+03  2.672605433107072e+02 -2.918975276816622e+03
-1.147571361015316e+03  2.666021779389856e+02 -2.918975276816622e+03
-1.148163378766882e+03  2.660604048801277e+02 -2.918975276816622e+03
-1.147614732142541e+03  2.655366682658757e+02 -2.918975276816622e+03
-1.147018615972958e+03  2.646264952387045e+02 -2.918975276816622e+03
-1.147157205917722e+03  2.633748936691559e+02 -2.918975276816622e+03
-1.147557270641904e+03  2.619017175041222e+02 -2.918975276816622e+03
-1.147988632995211e+03  2.606794999228410e+02 -2.918975276816622e+03
-1.148014895440046e+03  2.590440200867636e+02 -2.918975276816622e+03
-1.147661502153395e+03  2.573948702905397e+02 -2.918975276816622e+03
-1.147444812838870e+03  2.560611545251382e+02 -2.918975276816622e+03
-1.147662714640956e+03  2.547574797060476e+02 -2.918975276816622e+03
-1.147862231119030e+03  2.528807265817115e+02 -2.918975276816622e+03
-1.147661040986213e+03  2.509671484456916e+02 -2.918975276816622e+03
-1.147674134078346e+03  2.499812658901596e+02 -2.918975276816622e+03
-1.147853958034261e+03  2.482253809593707e+02 -2.918975276816622e+03
-1.147630213495510e+03  2.464144595926696e+02 -2.918975276816622e+03
-1.147448984704472e+03  2.450839539613110e+02 -2.918975276816622e+03
-1.147735248969680e+03  2.437722435676248e+02 -2.918975276816622e+03
-1.148158061745885e+03  2.420428656266742e+02 -2.918975276816622e+03
-1.148217736882561e+03  2.403577515804079e+02 -2.918975276816622e+03
-1.147862988099938e+03  2.392063168625044e+02 -2.918975276816622e+03
-1.147454600021215e+03  2.374606185067080e+02 -2.918975276816622e+03
-1.147157083075465e+03  2.362456400269471e+02 -2.918975276816622e+03
-1.147553160152574e+03  2.356416044494586e+02 -2.918975276816622e+03
-1.148160834601083e+03  2.351060932873421e+02 -2.918975276816622e+03
-1.147609060571670e+03  2.345954736205987e+02 -2.918975276816622e+03
-1.147006467943223e+03  2.336963659518960e+02 -2.918975276816622e+03
-1.147147281576739e+03  2.324393625418141e+02 -2.918975276816622e+03
-1.147553890375850e+03  2.309548450985681e+02 -2.918975276816622e+03
-1.147990553997198e+03  2.297285560312755e+02 -2.918975276816622e+03
-1.148025041462379e+03  2.280964495311256e+02 -2.918975276816622e+03
-1.147700193470454e+03  2.264484729121970e+02 -2.918975276816622e+03
-1.147508500136585e+03  2.251819802043499e+02 -2.918975276816622e+03
-1.147765883225618e+03  2.238748096661695e+02 -2.918975276816622e+03
-1.148168272456418e+03  2.220761652613782e+02 -2.918975276816622e+03
-1.148224464468121e+03  2.203923985935814e+02 -2.918975276816622e+03
-1.147868164261724e+03  2.192363412220872e+02 -2.918975276816622e+03
-1.147461284373010e+03  2.174839993661926e+02 -2.918975276816622e+03
-1.147164360129721e+03  2.162725034700227e+02 -2.918975276816622e+03
-1.147557896345857e+03  2.156742723660282e+02 -2.918975276816622e+03
-1.148161854274374e+03  2.151388879497105e+02 -2.918975276816622e+03
-1.147610049145874e+03  2.146269743733985e+02 -2.918975276816622e+03
-1.147009734334197e+03  2.137259988191040e+02 -2.918975276816622e+03
-1.147151630096335e+03  2.124674487880388e+02 -2.918975276816622e+03
-1.147556779739052e+03  2.109843582454725e+02 -2.918975276816622e+03
-1.147992177839938e+03  2.097603362354011e+02 -2.918975276816622e+03
-1.148026974610021e+03  2.081282418284830e+02 -2.918975276816622e+03
-1.147702242957901e+03  2.064796297562690e+02 -2.918975276816622e+03
-1.147510168180681e+03  2.052139883895383e+02 -2.918975276816622e+03
-1.147767240662488e+03  2.039067707623799e+02 -2.918975276816622e+03
-1.148169257988736e+03  2.021078056730357e+02 -2.918975276816622e+03
-1.148225929765433e+03  2.004254022562526e+02 -2.918975276816622e+03
-1.147868757308336e+03  1.992697833317613e+02 -2.918975276816622e+03
-1.147456733307517e+03  1.975179828339325e+02 -2.918975276816622e+03
-1.147162334158410e+03  1.963029093395623e+02 -2.918975276816622e+03
-1.147561339081894e+03  1.957039029323242e+02 -2.918975276816622e+03
-1.148162939940022e+03  1.951713468761970e+02 -2.918975276816622e+03
-1.147610549051614e+03  1.946626256729500e+02 -2.918975276816622e+03
-1.147009814395647e+03  1.937670885611012e+02 -2.918975276816622e+03
-1.147150784476758e+03  1.925050648777681e+02 -2.918975276816622e+03
-1.147556668632775e+03  1.910164414427921e+02 -2.918975276816622e+03
-1.147992336669314e+03  1.897918036679489e+02 -2.918975276816622e+03
-1.148026969764354e+03  1.881590369211206e+02 -2.918975276816622e+03
-1.147702100654197e+03  1.865115433857594e+02 -2.918975276816622e+03
-1.147509689990436e+03  1.852450305039302e+02 -2.918975276816622e+03
-1.147765586235536e+03  1.839385824710812e+02 -2.918975276816622e+03
-1.148168510342746e+03  1.821409068504673e+02 -2.918975276816622e+03
-1.148225352629051e+03  1.804554013668756e+02 -2.918975276816622e+03
-1.147869078871133e+03  1.792990388476880e+02 -2.918975276816622e+03
-1.147462676886836e+03  1.775476685491798e+02 -2.918975276816622e+03
-1.147162152654967e+03  1.763363637017693e+02 -2.918975276816622e+03
-1.147554587518946e+03  1.757370187184572e+02 -2.918975276816622e+03
-1.148162080576325e+03  1.752011408428099e+02 -2.918975276816622e+03
-1.147611037359287e+03  1.746896984283568e+02 -2.918975276816622e+03
-1.147010631640480e+03  1.737886809794913e+02 -2.918975276816622e+03
-1.147152326518045e+03  1.725307151265959e+02 -2.918975276816622e+03
-1.147557176071662e+03  1.710484238684934e+02 -2.918975276816622e+03
-1.147992358097115e+03  1.698240297401243e+02 -2.918975276816622e+03
-1.148026295240239e+03  1.681920044506316e+02 -2.918975276816622e+03
-1.147700864398092e+03  1.665439765288846e+02 -2.918975276816622e+03
-1.147509602968111e+03  1.652773847484204e+02 -2.918975276816622e+03
-1.147767910610021e+03  1.639699860192882e+02 -2.918975276816622e+03
-1.148170017804359e+03  1.621711429688667e+02 -2.918975276816622e+03
-1.148225596955014e+03  1.604880682920460e+02 -2.918975276816622e+03
-1.147869756592956e+03  1.593314014346408e+02 -2.918975276816622e+03
-1.147463598577368e+03  1.575787606412870e+02 -2.918975276816622e+03
-1.147163016069198e+03  1.563684479298015e+02 -2.918975276816622e+03
-1.147555221614676e+03  1.557689113489643e+02 -2.918975276816622e+03
-1.148162242821341e+03  1.552333043395470e+02 -2.918975276816622e+03
-1.147610122583491e+03  1.547215666646405e+02 -2.918975276816622e+03
-1.147008331297024e+03  1.538197592897161e+02 -2.918975276816622e+03
-1.147149873698820e+03  1.525634929867729e+02 -2.918975276816622e+03
-1.147556689636948e+03  1.510803821983440e+02 -2.918975276816622e+03
-1.147992871951779e+03  1.498544899634651e+02 -2.918975276816622e+03
-1.148027419797236e+03  1.482225514068344e+02 -2.918975276816622e+03
-1.147703058546371e+03  1.465750232616648e+02 -2.918975276816622e+03
-1.147511196603513e+03  1.453100024100067e+02 -2.918975276816622e+03
-1.147768197007058e+03  1.440019482282404e+02 -2.918975276816622e+03
-1.148170096511788e+03  1.422022570585149e+02 -2.918975276816622e+03
-1.148225962495183e+03  1.405198112822580e+02 -2.918975276816622e+03
-1.147870093080744e+03  1.393629817700550e+02 -2.918975276816622e+03
-1.147465232019677e+03  1.376083158343554e+02 -2.918975276816622e+03
-1.147172094157774e+03  1.363988344279922e+02 -2.918975276816622e+03
-1.147564119853014e+03  1.358034131573141e+02 -2.918975276816622e+03
-1.148163662953131e+03  1.352675263386751e+02 -2.918975276816622e+03
-1.147611129404806e+03  1.347521999951471e+02 -2.918975276816622e+03
-1.147011715053568e+03  1.338469164185942e+02 -2.918975276816622e+03
-1.147154567323426e+03  1.325899128899140e+02 -2.918975276816622e+03
-1.147559043177992e+03  1.311104861827220e+02 -2.918975276816622e+03
-1.147993716060991e+03  1.298872221295277e+02 -2.918975276816622e+03
-1.148026648536214e+03  1.282538652948487e+02 -2.918975276816622e+03
-1.147682952082573e+03  1.266019764604698e+02 -2.918975276816622e+03
-1.147478154479384e+03  1.252766193820752e+02 -2.918975276816622e+03
-1.147753423414962e+03  1.239722093007275e+02 -2.918975276816622e+03
-1.148169451456114e+03  1.222335985883742e+02 -2.918975276816622e+03
-1.148225596929459e+03  1.205514952858764e+02 -2.918975276816622e+03
-1.147872202702005e+03  1.193922512796514e+02 -2.918975276816622e+03
-1.147472818713092e+03  1.176345487656518e+02 -2.918975276816622e+03
-1.147175775400038e+03  1.164300046882413e+02 -2.918975276816622e+03
-1.147561789964161e+03  1.158365476255324e+02 -2.918975276816622e+03
-1.148162850881477e+03  1.152984556097695e+02 -2.918975276816622e+03
-1.147610251871158e+03  1.147828866615050e+02 -2.918975276816622e+03
-1.147014613080496e+03  1.138754453995359e+02 -2.918975276816622e+03
-1.147159464848797e+03  1.126185189872314e+02 -2.918975276816622e+03
-1.147560238898840e+03  1.111415122038950e+02 -2.918975276816622e+03
-1.147992895414714e+03  1.099194960666141e+02 -2.918975276816622e+03
-1.148025861807544e+03  1.082896331675405e+02 -2.918975276816622e+03
-1.147699776890239e+03  1.066404006630668e+02 -2.918975276816622e+03
-1.147509308437579e+03  1.053709091237945e+02 -2.918975276816622e+03
-1.147770679081629e+03  1.040636258894795e+02 -2.918975276816622e+03
-1.148170939308375e+03  1.022747844188843e+02 -2.918975276816622e+03
-1.148228492603156e+03  1.005992601145222e+02 -2.918975276816622e+03
-1.148061093044714e+03  9.938550547783217e+01 -2.918975276816622e+03
-1.147789427993079e+03  9.797891115679553e+01 -2.918975276816622e+03
-1.147268372735749e+03  9.732750572108644e+01 -2.918975276816622e+03
-1.147225333783663e+03  9.675615934908312e+01 -2.918975276816622e+03
-1.147974918059427e+03  9.566902302394179e+01 -2.918975276816622e+03
-1.149144049385720e+03  9.455847546961890e+01 -2.918975276816622e+03
-1.149619236584430e+03  9.385419281151233e+01 -2.918975276816622e+03
-1.148941666978250e+03  9.252761576230129e+01 -2.918975276816622e+03
-1.148219305826364e+03  9.075096316725856e+01 -2.918975276816622e+03
-1.147941652546262e+03  9.011897221307169e+01 -2.918975276816622e+03
-1.147962517833410e+03  8.928150640648937e+01 -2.918975276816622e+03
-1.147985068272676e+03  8.814910371391147e+01 -2.918975276816622e+03
-1.147928738396267e+03  8.721105430300254e+01 -2.918975276816622e+03
-1.147856418320290e+03  8.644196202505591e+01 -2.918975276816622e+03
-1.147071845423424e+03  8.573565674254441e+01 -2.918975276816622e+03
-1.146858896034475e+03  8.429494998827722e+01 -2.918975276816622e+03
-1.147548285123528e+03  8.276896977505538e+01 -2.918975276816622e+03
-1.148044094642861e+03  8.136246910908915e+01 -2.918975276816622e+03
-1.149008733612858e+03  7.981027669093102e+01 -2.918975276816622e+03
-1.149432992464707e+03  7.905268366751588e+01 -2.918975276816622e+03
-1.148255959729297e+03  7.847489768877595e+01 -2.918975276816622e+03
-1.147298635548706e+03  7.697251075359961e+01 -2.918975276816622e+03
-1.147509217639757e+03  7.565272301531414e+01 -2.918975276816622e+03
-1.147916573545507e+03  7.434469748784574e+01 -2.918975276816622e+03
-1.148308737522917e+03  7.264205294942633e+01 -2.918975276816622e+03
-1.148507172683010e+03  7.138856518321461e+01 -2.918975276816622e+03
-1.148795934824182e+03  6.971578712281320e+01 -2.918975276816622e+03
-1.148543547730538e+03  6.882193198456427e+01 -2.918975276816622e+03
-1.148013340750892e+03  6.860300252709301e+01 -2.918975276816622e+03
-1.148227563648080e+03  6.776542585110523e+01 -2.918975276816622e+03
-1.148369006968289e+03  6.654281966324461e+01 -2.918975276816622e+03
-1.148371615397591e+03  6.403888323629336e+01 -2.918975276816622e+03
-1.148225114092038e+03  6.177543923304920e+01 -2.918975276816622e+03
-1.147891320705406e+03  6.073389135077344e+01 -2.918975276816622e+03
-1.147234152385621e+03  5.963395296012231e+01 -2.918975276816622e+03
-1.147345265077827e+03  5.854167345400531e+01 -2.918975276816622e+03
-1.147870785359506e+03  5.764077093015710e+01 -2.918975276816622e+03
-1.148381623956730e+03  5.673715270019976e+01 -2.918975276816622e+03
-1.148678538016278e+03  5.545061121984215e+01 -2.918975276816622e+03
-1.148364621139198e+03  5.361888990961418e+01 -2.918975276816622e+03
-1.148322562625980e+03  5.203156267283525e+01 -2.918975276816622e+03
-1.148034799085490e+03  5.048606226651656e+01 -2.918975276816622e+03
-1.147993361952910e+03  4.878423505146683e+01 -2.918975276816622e+03
-1.147880051980130e+03  4.733528081301267e+01 -2.918975276816622e+03
-1.147894150702404e+03  4.654501557944201e+01 -2.918975276816622e+03
-1.148236988425989e+03  4.570533242288234e+01 -2.918975276816622e+03
-1.148138236063590e+03  4.466498572309808e+01 -2.918975276816622e+03
-1.148045640865480e+03  4.341993935535208e+01 -2.918975276816622e+03
-1.148669105240279e+03  4.231337041619646e+01 -2.918975276816622e+03
-1.149153628533289e+03  4.169172158076840e+01 -2.918975276816622e+03
-1.148816455055155e+03  4.095426193355517e+01 -2.918975276816622e+03
-1.148458549426862e+03  4.046486949836468e+01 -2.918975276816622e+03
-1.148770553252850e+03  3.954156671697200e+01 -2.918975276816622e+03
-1.149231530959407e+03  3.745604666605524e+01 -2.918975276816622e+03
-1.149122374793835e+03  3.575171324394870e+01 -2.918975276816622e+03
-1.148518119048864e+03  3.515127791814107e+01 -2.918975276816622e+03
-1.148183072437876e+03  3.389307044431013e+01 -2.918975276816622e+03
-1.148801391536920e+03  3.252517314558846e+01 -2.918975276816622e+03
-1.149677890702694e+03  3.178564162037270e+01 -2.918975276816622e+03
-1.149643760634844e+03  3.122681500600330e+01 -2.918975276816622e+03
-1.149293526200139e+03  2.999291278156857e+01 -2.918975276816622e+03
-1.148633809800833e+03  2.785174124406918e+01 -2.918975276816622e+03
-1.148436853885950e+03  2.578570847124463e+01 -2.918975276816622e+03
-1.148262780205662e+03  2.486213053337956e+01 -2.918975276816622e+03
-1.147547239880134e+03  2.447482160599064e+01 -2.918975276816622e+03
-1.147586297464647e+03  2.338045285104394e+01 -2.918975276816622e+03
-1.146957501564459e+03  2.244611350503469e+01 -2.918975276816622e+03
-1.146602676825640e+03  2.132286633026332e+01 -2.918975276816622e+03
-1.147374047828989e+03  2.002499968937501e+01 -2.918975276816622e+03
-1.147839735574593e+03  1.862371932170269e+01 -2.918975276816622e+03
-1.147826386071857e+03  1.744019962735618e+01 -2.918975276816622e+03
-1.147637456086123e+03  1.629003505903309e+01 -2.918975276816622e+03
-1.147305694037852e+03  1.498889769996919e+01 -2.918975276816622e+03
-1.146978620831047e+03  1.399252561600968e+01 -2.918975276816622e+03
-1.147246795230807e+03  1.269442225304963e+01 -2.918975276816622e+03
-1.147707968955775e+03  1.086976643739776e+01 -2.918975276816622e+03
-1.147849611708067e+03  8.707363940603333e+00 -2.918975276816622e+03
-1.147882965962690e+03  7.054491484495079e+00 -2.918975276816622e+03
-1.147897876290615e+03  5.858077952404851e+00 -2.918975276816622e+03
 1.145044894558433e+03 -1.340550068785445e+00  2.918975276816622e+03
1.145327158687122e+03 1.024742297853973e+00 2.918975276816622e+03
 1.144946020241837e+03 -2.632289161880693e+00  2.918975276816622e+03
 1.145052727726770e+03 -4.099981509029000e+00  2.918975276816622e+03
 1.145464094458353e+03 -5.957577652048418e+00  2.918975276816622e+03
 1.145979834393820e+03 -7.314454182662372e+00  2.918975276816622e+03
 1.145755224399671e+03 -8.603788892637052e+00  2.918975276816622e+03
 1.144893305198671e+03 -1.031079747189916e+01  2.918975276816622e+03
 1.144707007257274e+03 -1.174527872990204e+01  2.918975276816622e+03
 1.144966875529654e+03 -1.284757990394986e+01  2.918975276816622e+03
 1.145017787154303e+03 -1.404510637206294e+01  2.918975276816622e+03
 1.146302897634441e+03 -1.523318579402660e+01  2.918975276816622e+03
 1.146623028719701e+03 -1.677801840404320e+01  2.918975276816622e+03
 1.146075069120597e+03 -1.896778536229449e+01  2.918975276816622e+03
 1.145984907457288e+03 -2.012209602768919e+01  2.918975276816622e+03
 1.145883855591939e+03 -2.106726782522076e+01  2.918975276816622e+03
 1.145746278032260e+03 -2.286845560377077e+01  2.918975276816622e+03
 1.145014364418795e+03 -2.473174689703699e+01  2.918975276816622e+03
 1.144954822876313e+03 -2.581449008684020e+01  2.918975276816622e+03
 1.145221659983254e+03 -2.620337229198671e+01  2.918975276816622e+03
 1.145262244275751e+03 -2.699377182820674e+01  2.918975276816622e+03
 1.145596961124997e+03 -2.790064473937499e+01  2.918975276816622e+03
 1.145686537649638e+03 -2.906021595573897e+01  2.918975276816622e+03
 1.145499728458838e+03 -3.000654180828890e+01  2.918975276816622e+03
 1.145678023612392e+03 -3.091342798405150e+01  2.918975276816622e+03
 1.145946697983839e+03 -3.236447465579705e+01  2.918975276816622e+03
 1.146839590722300e+03 -3.320325257108863e+01  2.918975276816622e+03
 1.147064307602607e+03 -3.418996301035824e+01  2.918975276816622e+03
 1.146452368270307e+03 -3.542822228957937e+01  2.918975276816622e+03
 1.147237798830054e+03 -3.652248833389078e+01  2.918975276816622e+03
 1.147325068441894e+03 -3.766009721695138e+01  2.918975276816622e+03
 1.146163620621992e+03 -3.865436342544642e+01  2.918975276816622e+03
 1.145645578510879e+03 -4.051605045667839e+01  2.918975276816622e+03
 1.145598663499180e+03 -4.217777185665169e+01  2.918975276816622e+03
 1.145473678002930e+03 -4.315843864750061e+01  2.918975276816622e+03
 1.145445752712311e+03 -4.426146084543547e+01  2.918975276816622e+03
 1.145445620839115e+03 -4.539096499523171e+01  2.918975276816622e+03
 1.145136934370888e+03 -4.653853338682828e+01  2.918975276816622e+03
 1.145147806335642e+03 -4.762198915916873e+01  2.918975276816622e+03
 1.145487979705219e+03 -4.866806394402993e+01  2.918975276816622e+03
 1.145776714118911e+03 -4.957468244340129e+01  2.918975276816622e+03
 1.146119910935700e+03 -5.141182153627071e+01  2.918975276816622e+03
 1.146427166667573e+03 -5.321809563958859e+01  2.918975276816622e+03
 1.146318305426376e+03 -5.416553596407714e+01  2.918975276816622e+03
 1.146255257449215e+03 -5.525732221645602e+01  2.918975276816622e+03
 1.147213988791970e+03 -5.647851438348419e+01  2.918975276816622e+03
 1.147310408010089e+03 -5.759788042066049e+01  2.918975276816622e+03
 1.146749423782820e+03 -5.862414911890480e+01  2.918975276816622e+03
 1.146273365252690e+03 -5.987060789014923e+01  2.918975276816622e+03
 1.145637058387515e+03 -6.125352322387638e+01  2.918975276816622e+03
 1.145635018914959e+03 -6.222308645280693e+01  2.918975276816622e+03
 1.145506721561336e+03 -6.317850995488847e+01  2.918975276816622e+03
 1.145449112088460e+03 -6.423116033591403e+01  2.918975276816622e+03
 1.145443746701869e+03 -6.535673578381224e+01  2.918975276816622e+03
 1.145131270305355e+03 -6.649856957030622e+01  2.918975276816622e+03
 1.145142642822687e+03 -6.758384243266224e+01  2.918975276816622e+03
 1.145477949597332e+03 -6.863182494243541e+01  2.918975276816622e+03
 1.145842613116723e+03 -6.960206442628500e+01  2.918975276816622e+03
 1.146352005955024e+03 -7.136864672123112e+01  2.918975276816622e+03
 1.147213358963108e+03 -7.259581136463233e+01  2.918975276816622e+03
 1.147129257372044e+03 -7.374963184678197e+01  2.918975276816622e+03
 1.146430781444196e+03 -7.537117964364579e+01  2.918975276816622e+03
 1.147180861359806e+03 -7.646382004258099e+01  2.918975276816622e+03
 1.147277166531852e+03 -7.756081774833660e+01  2.918975276816622e+03
 1.146739750403966e+03 -7.858204783676321e+01  2.918975276816622e+03
 1.146268900542568e+03 -7.983835525287242e+01  2.918975276816622e+03
 1.145633869872852e+03 -8.122131031234890e+01  2.918975276816622e+03
 1.145633452790634e+03 -8.218940919685116e+01  2.918975276816622e+03
 1.145508358379971e+03 -8.314519812958255e+01  2.918975276816622e+03
 1.145452001941311e+03 -8.420020881778183e+01  2.918975276816622e+03
 1.145443901488323e+03 -8.532554298156082e+01  2.918975276816622e+03
 1.145130040416194e+03 -8.646713543722451e+01  2.918975276816622e+03
 1.145142511576196e+03 -8.755342224219997e+01  2.918975276816622e+03
 1.145478357619427e+03 -8.860141164489025e+01  2.918975276816622e+03
 1.145842789881001e+03 -8.957041516245110e+01  2.918975276816622e+03
 1.146352623286979e+03 -9.133744132412207e+01  2.918975276816622e+03
 1.147210526288895e+03 -9.256968198253767e+01  2.918975276816622e+03
 1.147128023286841e+03 -9.372765655149462e+01  2.918975276816622e+03
 1.146435510738133e+03 -9.534001348566400e+01  2.918975276816622e+03
 1.147183375816320e+03 -9.640764604762214e+01  2.918975276816622e+03
 1.147274626169817e+03 -9.751257118354758e+01  2.918975276816622e+03
 1.146144430380815e+03 -9.855080271236541e+01  2.918975276816622e+03
 1.145637312900079e+03 -1.004250692613584e+02  2.918975276816622e+03
 1.145597185062126e+03 -1.020757487314233e+02  2.918975276816622e+03
 1.145488445068255e+03 -1.030551652191213e+02  2.918975276816622e+03
 1.145466572870946e+03 -1.041695999881076e+02  2.918975276816622e+03
 1.145449583697423e+03 -1.052962451865959e+02  2.918975276816622e+03
 1.145131602246561e+03 -1.064397212609095e+02  2.918975276816622e+03
 1.145143074155956e+03 -1.075250804074241e+02  2.918975276816622e+03
 1.145478276611494e+03 -1.085703862612160e+02  2.918975276816622e+03
 1.145842826987247e+03 -1.095390367198479e+02  2.918975276816622e+03
 1.146352927214800e+03 -1.113044550291533e+02  2.918975276816622e+03
 1.147214299325182e+03 -1.125369888173662e+02  2.918975276816622e+03
 1.147130287474694e+03 -1.136928097559145e+02  2.918975276816622e+03
 1.146433456909070e+03 -1.153078026564685e+02  2.918975276816622e+03
 1.147183918964387e+03 -1.163923082658664e+02  2.918975276816622e+03
 1.147279568986322e+03 -1.174904394742101e+02  2.918975276816622e+03
 1.146742153940026e+03 -1.185201246174641e+02  2.918975276816622e+03
 1.146268661462949e+03 -1.197781310090352e+02  2.918975276816622e+03
 1.145632233730629e+03 -1.211596852428090e+02  2.918975276816622e+03
 1.145632563906467e+03 -1.221282198335707e+02  2.918975276816622e+03
 1.145504379841566e+03 -1.230834500673103e+02  2.918975276816622e+03
 1.145446456244633e+03 -1.241363413425639e+02  2.918975276816622e+03
 1.145440823766033e+03 -1.252614067886250e+02  2.918975276816622e+03
 1.145128633547785e+03 -1.264025853184247e+02  2.918975276816622e+03
 1.145140320050159e+03 -1.274878100203015e+02  2.918975276816622e+03
 1.145477422143270e+03 -1.285363872840511e+02  2.918975276816622e+03
 1.145841983658357e+03 -1.295068042813016e+02  2.918975276816622e+03
 1.146351397405321e+03 -1.312718437442985e+02  2.918975276816622e+03
 1.147215876292669e+03 -1.325077456896513e+02  2.918975276816622e+03
 1.147130937000664e+03 -1.336678991482454e+02  2.918975276816622e+03
 1.146431908138893e+03 -1.352774019743279e+02  2.918975276816622e+03
 1.147180688421905e+03 -1.363536329293776e+02  2.918975276816622e+03
 1.147274464468911e+03 -1.374572476327651e+02  2.918975276816622e+03
 1.146146485140211e+03 -1.384881532436395e+02  2.918975276816622e+03
 1.145637008544319e+03 -1.403621464886310e+02  2.918975276816622e+03
 1.145594335495991e+03 -1.420166986556603e+02  2.918975276816622e+03
 1.145477157752699e+03 -1.429964992022902e+02  2.918975276816622e+03
 1.145451572245384e+03 -1.441042730981245e+02  2.918975276816622e+03
 1.145443501340493e+03 -1.452308966401934e+02  2.918975276816622e+03
 1.145130613698162e+03 -1.463738856354791e+02  2.918975276816622e+03
 1.145142206478485e+03 -1.474590626916811e+02  2.918975276816622e+03
 1.145477758285651e+03 -1.485059497430683e+02  2.918975276816622e+03
 1.145842002431394e+03 -1.494751831857081e+02  2.918975276816622e+03
 1.146351476035719e+03 -1.512411583421685e+02  2.918975276816622e+03
 1.147212642770865e+03 -1.524713814235936e+02  2.918975276816622e+03
 1.147128387166525e+03 -1.536269161414694e+02  2.918975276816622e+03
 1.146431143969598e+03 -1.552442961949727e+02  2.918975276816622e+03
 1.147182109964532e+03 -1.563326106177968e+02  2.918975276816622e+03
 1.147277737073014e+03 -1.574312735924705e+02  2.918975276816622e+03
 1.146738899726374e+03 -1.584556180825520e+02  2.918975276816622e+03
 1.146267592132641e+03 -1.597113227553399e+02  2.918975276816622e+03
 1.145633148317698e+03 -1.610950377985148e+02  2.918975276816622e+03
 1.145633718455064e+03 -1.620612013962537e+02  2.918975276816622e+03
 1.145513618424716e+03 -1.630153942107851e+02  2.918975276816622e+03
 1.145459162999819e+03 -1.640736276490043e+02  2.918975276816622e+03
 1.145445702856424e+03 -1.651991273663610e+02  2.918975276816622e+03
 1.145129533015009e+03 -1.663403908621449e+02  2.918975276816622e+03
 1.145139934341190e+03 -1.674248171069944e+02  2.918975276816622e+03
 1.145475642738564e+03 -1.684713485608402e+02  2.918975276816622e+03
 1.145840236921132e+03 -1.694432126038921e+02  2.918975276816622e+03
 1.146349350447146e+03 -1.712095623869826e+02  2.918975276816622e+03
 1.147211788585515e+03 -1.724366673253409e+02  2.918975276816622e+03
 1.147127399178452e+03 -1.735915203542038e+02  2.918975276816622e+03
 1.146428808794179e+03 -1.752126312318157e+02  2.918975276816622e+03
 1.147179579216386e+03 -1.763055130332014e+02  2.918975276816622e+03
 1.147276072223756e+03 -1.774028796854168e+02  2.918975276816622e+03
 1.146738741336288e+03 -1.784243031558854e+02  2.918975276816622e+03
 1.146266757493761e+03 -1.796803815641769e+02  2.918975276816622e+03
 1.145632108626220e+03 -1.810637848009135e+02  2.918975276816622e+03
 1.145632914537425e+03 -1.820301493767160e+02  2.918975276816622e+03
 1.145511123005515e+03 -1.829847608975361e+02  2.918975276816622e+03
 1.145456420117245e+03 -1.840426572269234e+02  2.918975276816622e+03
 1.145443935050704e+03 -1.851683002980149e+02  2.918975276816622e+03
 1.145128012757510e+03 -1.863099182561117e+02  2.918975276816622e+03
 1.145139776175414e+03 -1.873957289873736e+02  2.918975276816622e+03
 1.145476497869668e+03 -1.884428198800139e+02  2.918975276816622e+03
 1.145840536765094e+03 -1.894119366256558e+02  2.918975276816622e+03
 1.146350177992627e+03 -1.911773089586123e+02  2.918975276816622e+03
 1.147212480209959e+03 -1.924082050283594e+02  2.918975276816622e+03
 1.147128106517679e+03 -1.935636878220717e+02  2.918975276816622e+03
 1.146430927490576e+03 -1.951806156310711e+02  2.918975276816622e+03
 1.147180978220942e+03 -1.962675183006275e+02  2.918975276816622e+03
 1.147276912515520e+03 -1.973649400544427e+02  2.918975276816622e+03
 1.146739847264378e+03 -1.983926698592794e+02  2.918975276816622e+03
 1.146266455925834e+03 -1.996504018398361e+02  2.918975276816622e+03
 1.145631371232882e+03 -2.010329554892642e+02  2.918975276816622e+03
 1.145632329691027e+03 -2.019995149944051e+02  2.918975276816622e+03
 1.145506610993447e+03 -2.029545936103936e+02  2.918975276816622e+03
 1.145450440778097e+03 -2.040114223202381e+02  2.918975276816622e+03
 1.145441628476772e+03 -2.051370278990048e+02  2.918975276816622e+03
 1.145127407158703e+03 -2.062787711938501e+02  2.918975276816622e+03
 1.145139412620869e+03 -2.073646664987034e+02  2.918975276816622e+03
 1.145476104275782e+03 -2.084122712408175e+02  2.918975276816622e+03
 1.145839991569309e+03 -2.093806456895553e+02  2.918975276816622e+03
 1.146349736387853e+03 -2.111452883341863e+02  2.918975276816622e+03
 1.147212454408151e+03 -2.123768650867476e+02  2.918975276816622e+03
 1.147127759408252e+03 -2.135325521713769e+02  2.918975276816622e+03
 1.146430178755047e+03 -2.151486340054554e+02  2.918975276816622e+03
 1.147181572194194e+03 -2.162380042353690e+02  2.918975276816622e+03
 1.147277771727451e+03 -2.173364113127834e+02  2.918975276816622e+03
 1.146741439302146e+03 -2.183641456326310e+02  2.918975276816622e+03
 1.146265683200224e+03 -2.196223600463519e+02  2.918975276816622e+03
 1.145627670538070e+03 -2.210031082089695e+02  2.918975276816622e+03
 1.145631852990876e+03 -2.219692211874742e+02  2.918975276816622e+03
 1.145511403569745e+03 -2.229206381342344e+02  2.918975276816622e+03
 1.145454482254216e+03 -2.239733207665327e+02  2.918975276816622e+03
 1.145441787730447e+03 -2.251013097851049e+02  2.918975276816622e+03
 1.145127396119063e+03 -2.262465383268058e+02  2.918975276816622e+03
 1.145138880782195e+03 -2.273304696571262e+02  2.918975276816622e+03
 1.145480602950518e+03 -2.283775738618781e+02  2.918975276816622e+03
 1.145767015831058e+03 -2.292892664637494e+02  2.918975276816622e+03
 1.146102797136869e+03 -2.311287334503164e+02  2.918975276816622e+03
 1.146413320614467e+03 -2.329333050413031e+02  2.918975276816622e+03
 1.146313747133535e+03 -2.338796125236024e+02  2.918975276816622e+03
 1.146251322570695e+03 -2.349722128170229e+02  2.918975276816622e+03
 1.147199085299453e+03 -2.361804455898803e+02  2.918975276816622e+03
 1.147292564998132e+03 -2.372978954469640e+02  2.918975276816622e+03
 1.146147525241320e+03 -2.383357153903173e+02  2.918975276816622e+03
 1.145631574184006e+03 -2.402030017744230e+02  2.918975276816622e+03
 1.145583814205960e+03 -2.418644577902866e+02  2.918975276816622e+03
 1.145441823695475e+03 -2.428564686192259e+02  2.918975276816622e+03
 1.145409028991014e+03 -2.439594235306374e+02  2.918975276816622e+03
 1.145411070505153e+03 -2.450680274549142e+02  2.918975276816622e+03
 1.145093254994439e+03 -2.462102290193434e+02  2.918975276816622e+03
 1.145077955317634e+03 -2.473195418806193e+02  2.918975276816622e+03
 1.145379863799208e+03 -2.483767606625298e+02  2.918975276816622e+03
 1.145311430066917e+03 -2.491897168354476e+02  2.918975276816622e+03
 1.144324662791627e+03 -2.500070041083406e+02  2.918975276816622e+03
 1.144269191159870e+03 -2.509837266065354e+02  2.918975276816622e+03
 1.145261222629296e+03 -2.520641548703399e+02  2.918975276816622e+03
 1.145526415000326e+03 -2.528965528497229e+02  2.918975276816622e+03
 1.145369052601250e+03 -2.538897655336963e+02  2.918975276816622e+03
 1.145325068757769e+03 -2.549607727718287e+02  2.918975276816622e+03
 1.145385695216529e+03 -2.560605468117523e+02  2.918975276816622e+03
 1.145097649773515e+03 -2.571757151988904e+02  2.918975276816622e+03
 1.145118194288309e+03 -2.582650672954092e+02  2.918975276816622e+03
 1.145469799866182e+03 -2.593308698083595e+02  2.918975276816622e+03
 1.145832779617120e+03 -2.602999209637929e+02  2.918975276816622e+03
 1.146342578859506e+03 -2.620655494701535e+02  2.918975276816622e+03
 1.147206803202580e+03 -2.632942004952209e+02  2.918975276816622e+03
 1.147122981070109e+03 -2.644477380253734e+02  2.918975276816622e+03
 1.146427995407174e+03 -2.660663571155415e+02  2.918975276816622e+03
 1.147173226067769e+03 -2.671521003933912e+02  2.918975276816622e+03
 1.147267960332765e+03 -2.682492569680965e+02  2.918975276816622e+03
 1.146139098251755e+03 -2.692704030799399e+02  2.918975276816622e+03
 1.145603122238144e+03 -2.712535336967940e+02  2.918975276816622e+03
 1.145504848867989e+03 -2.729572064619231e+02  2.918975276816622e+03
 1.145385257229594e+03 -2.742149524117865e+02  2.918975276816622e+03
 1.145438010556897e+03 -2.754956326326342e+02  2.918975276816622e+03
 1.146743323886401e+03 -2.762831309174636e+02  2.918975276816622e+03
 1.147065975883593e+03 -2.781813225657743e+02  2.918975276816622e+03
 1.146506518657856e+03 -2.813437996050804e+02  2.918975276816622e+03
 1.146326036573979e+03 -2.828294987897536e+02  2.918975276816622e+03
 1.145689008487913e+03 -2.829639636958452e+02  2.918975276816622e+03
 1.145442894375107e+03 -2.848403560739542e+02  2.918975276816622e+03
 1.145745237932432e+03 -2.871700182860420e+02  2.918975276816622e+03
 1.145488246765465e+03 -2.880334238978971e+02  2.918975276816622e+03
 1.144291997565405e+03 -2.890413105476500e+02  2.918975276816622e+03
 1.144429833498114e+03 -2.901722675729827e+02  2.918975276816622e+03
 1.145078345050593e+03 -2.908394237956078e+02  2.918975276816622e+03
 1.145282030817850e+03 -2.921860323522606e+02  2.918975276816622e+03
 1.145836027525050e+03 -2.933870676580976e+02  2.918975276816622e+03
 1.145537842697513e+03 -2.950179711578671e+02  2.918975276816622e+03
 1.145510546181241e+03 -2.970101615489377e+02  2.918975276816622e+03
 1.145759453760319e+03 -2.982180522373367e+02  2.918975276816622e+03
 1.145332985292086e+03 -2.990911074889192e+02  2.918975276816622e+03
 1.144441246254264e+03 -2.999267885805929e+02  2.918975276816622e+03
 1.143925941807077e+03 -3.010504934352433e+02  2.918975276816622e+03
 1.144746260373822e+03 -3.022710651152884e+02  2.918975276816622e+03
 1.145109058045420e+03 -3.031399844629542e+02  2.918975276816622e+03
 1.145165351500860e+03 -3.046537493454164e+02  2.918975276816622e+03
 1.146045743480901e+03 -3.057614059134149e+02  2.918975276816622e+03
 1.146563478642655e+03 -3.072588515656992e+02  2.918975276816622e+03
 1.145825547877896e+03 -3.094619443802258e+02  2.918975276816622e+03
 1.144904480522322e+03 -3.106160119003279e+02  2.918975276816622e+03
 1.144761356365302e+03 -3.115878975695638e+02  2.918975276816622e+03
 1.145229394415443e+03 -3.122031577915187e+02  2.918975276816622e+03
 1.145876258367826e+03 -3.127561940525983e+02  2.918975276816622e+03
 1.146296086388516e+03 -3.140090084776539e+02  2.918975276816622e+03
 1.146227212327065e+03 -3.163210147047622e+02  2.918975276816622e+03
 1.145897432908819e+03 -3.182393263107484e+02  2.918975276816622e+03
 1.146138876032646e+03 -3.191852128636972e+02  2.918975276816622e+03
 1.146521381342762e+03 -3.203218065305361e+02  2.918975276816622e+03
 1.145821524679274e+03 -3.216023349938387e+02  2.918975276816622e+03
 1.145291593334577e+03 -3.229186834211890e+02  2.918975276816622e+03
 1.145503175071259e+03 -3.250163190291249e+02  2.918975276816622e+03
 1.144832894013475e+03 -3.278286535550214e+02  2.918975276816622e+03
 1.144577832514675e+03 -3.293777773101681e+02  2.918975276816622e+03
 1.145755666450920e+03 -3.299758763486614e+02  2.918975276816622e+03
 1.146616878900981e+03 -3.309567135610144e+02  2.918975276816622e+03
 1.145910083779136e+03 -3.323228866612011e+02  2.918975276816622e+03
 1.145690857562942e+03 -3.339320510269135e+02  2.918975276816622e+03
 1.146176831313693e+03 -3.353267572066990e+02  2.918975276816622e+03
 1.145296890772504e+03 -3.355870078471976e+02  2.918975276816622e+03
 1.144546660826727e+03 -3.367028401425652e+02  2.918975276816622e+03
 1.144734269690295e+03 -3.387448396453616e+02  2.918975276816622e+03
 1.145018985695103e+03 -3.399649614294202e+02  2.918975276816622e+03
 1.144657767746277e+03 -3.410844268970201e+02  2.918975276816622e+03
 1.144536439351401e+03 -3.417686265116434e+02  2.918975276816622e+03
 1.145016901181079e+03 -3.421555239771060e+02  2.918975276816622e+03
 1.145792584794782e+03 -3.432462627813073e+02  2.918975276816622e+03
 1.145639469820878e+03 -3.444583580226820e+02  2.918975276816622e+03
 1.144743600440526e+03 -3.453698351150001e+02  2.918975276816622e+03
 1.144802669219459e+03 -3.471539152292528e+02  2.918975276816622e+03
 1.145250148854106e+03 -3.493350659776921e+02  2.918975276816622e+03
 1.145833050319034e+03 -3.510617754236333e+02  2.918975276816622e+03
 1.146069875128534e+03 -3.520982814411894e+02  2.918975276816622e+03
 1.145625611650158e+03 -3.533417849386723e+02  2.918975276816622e+03
 1.144625200933651e+03 -3.546435758810842e+02  2.918975276816622e+03
 1.144304337763606e+03 -3.551085695334111e+02  2.918975276816622e+03
 1.144898814229843e+03 -3.562825198463806e+02  2.918975276816622e+03
 1.145807693536094e+03 -3.573212039377658e+02  2.918975276816622e+03
 1.146072353492379e+03 -3.586665253475887e+02  2.918975276816622e+03
 1.145699135556546e+03 -3.611859852399164e+02  2.918975276816622e+03
 1.145694612857475e+03 -3.626061518979919e+02  2.918975276816622e+03
 1.145325777739200e+03 -3.636305668826230e+02  2.918975276816622e+03
 1.145427476938944e+03 -3.652012327291797e+02  2.918975276816622e+03
 1.145713966628757e+03 -3.664081427485334e+02  2.918975276816622e+03
 1.146083864412008e+03 -3.678006689863612e+02  2.918975276816622e+03
 1.146276766681699e+03 -3.701054177530410e+02  2.918975276816622e+03
 1.145502805505511e+03 -3.715654116524742e+02  2.918975276816622e+03
 1.145070605127065e+03 -3.735501824786938e+02  2.918975276816622e+03
 1.145183115460000e+03 -3.766190902215640e+02  2.918975276816622e+03
 1.145126111338773e+03 -3.791266111137502e+02  2.918975276816622e+03
 1.144800874113714e+03 -3.816949517118114e+02  2.918975276816622e+03
 1.144391458895362e+03 -3.832511011255650e+02  2.918975276816622e+03
 1.144149907280554e+03 -3.849544871963765e+02  2.918975276816622e+03
1.143683399329889e+03 3.842058601425078e+02 2.918975276816622e+03
1.144159105459791e+03 3.853070322244009e+02 2.918975276816622e+03
1.143545301051922e+03 3.834138827204003e+02 2.918975276816622e+03
1.143749186377956e+03 3.820349315806544e+02 2.918975276816622e+03
1.144085118638283e+03 3.812769535822081e+02 2.918975276816622e+03
1.144292212621743e+03 3.806238950571727e+02 2.918975276816622e+03
1.144411686231134e+03 3.799972850384651e+02 2.918975276816622e+03
1.144942165010734e+03 3.790522966426162e+02 2.918975276816622e+03
1.145395223526655e+03 3.772993339737951e+02 2.918975276816622e+03
1.145835638033135e+03 3.756359365557430e+02 2.918975276816622e+03
1.145710265466669e+03 3.748505389388626e+02 2.918975276816622e+03
1.145331230800343e+03 3.742431899219253e+02 2.918975276816622e+03
1.145407956852006e+03 3.731084739605952e+02 2.918975276816622e+03
1.145504909605555e+03 3.718867807081393e+02 2.918975276816622e+03
1.145626081402726e+03 3.699587431140260e+02 2.918975276816622e+03
1.145471846489434e+03 3.688107441184417e+02 2.918975276816622e+03
1.145102158317513e+03 3.686798173254717e+02 2.918975276816622e+03
1.144688381003952e+03 3.679861283290043e+02 2.918975276816622e+03
1.144536646631120e+03 3.672878882815168e+02 2.918975276816622e+03
1.144662457987592e+03 3.661330856467444e+02 2.918975276816622e+03
1.144440826419880e+03 3.639817236522765e+02 2.918975276816622e+03
1.144315331293684e+03 3.612426894036398e+02 2.918975276816622e+03
1.144504566336981e+03 3.588487400284666e+02 2.918975276816622e+03
1.144947129215798e+03 3.574009826604026e+02 2.918975276816622e+03
1.145134799412802e+03 3.568113848085907e+02 2.918975276816622e+03
1.145114464959131e+03 3.559899501239822e+02 2.918975276816622e+03
1.145843840853357e+03 3.551301522939101e+02 2.918975276816622e+03
1.146584908431797e+03 3.541938304209522e+02 2.918975276816622e+03
1.145960718959427e+03 3.528752439550638e+02 2.918975276816622e+03
1.145039619256109e+03 3.520024976883664e+02 2.918975276816622e+03
1.144144248208555e+03 3.508968820866211e+02 2.918975276816622e+03
1.144351974740437e+03 3.498891791239362e+02 2.918975276816622e+03
1.145153897842933e+03 3.490821483482141e+02 2.918975276816622e+03
1.145345728510841e+03 3.480943852775112e+02 2.918975276816622e+03
1.145389273090068e+03 3.461705849991154e+02 2.918975276816622e+03
1.145480557486853e+03 3.441699550949274e+02 2.918975276816622e+03
1.145847590972070e+03 3.427751221295807e+02 2.918975276816622e+03
1.145863957022258e+03 3.418701711667245e+02 2.918975276816622e+03
1.145102797028656e+03 3.415986210863801e+02 2.918975276816622e+03
1.144229605293266e+03 3.410069134122468e+02 2.918975276816622e+03
1.144613460163622e+03 3.395131062583926e+02 2.918975276816622e+03
1.145436097313040e+03 3.379247394478109e+02 2.918975276816622e+03
1.145244761313905e+03 3.371148792869921e+02 2.918975276816622e+03
1.144443354331963e+03 3.362275964479761e+02 2.918975276816622e+03
1.144600057831239e+03 3.349913916332034e+02 2.918975276816622e+03
1.145426218500048e+03 3.338144966678248e+02 2.918975276816622e+03
1.145187045696948e+03 3.334356482193408e+02 2.918975276816622e+03
1.144059763766352e+03 3.330828695578945e+02 2.918975276816622e+03
1.143877989790584e+03 3.314030475756183e+02 2.918975276816622e+03
1.144687828710716e+03 3.292142252899211e+02 2.918975276816622e+03
1.145512313740778e+03 3.283602752298978e+02 2.918975276816622e+03
1.145838194589950e+03 3.281097338730917e+02 2.918975276816622e+03
1.146621823832255e+03 3.272984362967765e+02 2.918975276816622e+03
1.147085663007326e+03 3.263499786572294e+02 2.918975276816622e+03
1.146669613481381e+03 3.252534301647625e+02 2.918975276816622e+03
1.146388976270779e+03 3.238527879271293e+02 2.918975276816622e+03
1.145795799506224e+03 3.227630701027813e+02 2.918975276816622e+03
1.145704675388873e+03 3.218496151691535e+02 2.918975276816622e+03
1.146158434710618e+03 3.203455326562254e+02 2.918975276816622e+03
1.146133468578213e+03 3.189941263053702e+02 2.918975276816622e+03
1.145930144034665e+03 3.169692508283644e+02 2.918975276816622e+03
1.146889196766828e+03 3.146791892107304e+02 2.918975276816622e+03
1.147083033246583e+03 3.135234329181898e+02 2.918975276816622e+03
1.146330417020275e+03 3.125326483584877e+02 2.918975276816622e+03
1.145838825812850e+03 3.113422358525273e+02 2.918975276816622e+03
1.145009892904597e+03 3.107883043243910e+02 2.918975276816622e+03
1.144805895450105e+03 3.101255165660812e+02 2.918975276816622e+03
1.145041086886639e+03 3.087874915819345e+02 2.918975276816622e+03
1.145330419285732e+03 3.075932424078360e+02 2.918975276816622e+03
1.145321722653850e+03 3.068157458813404e+02 2.918975276816622e+03
1.145192712649317e+03 3.058915635346568e+02 2.918975276816622e+03
1.145692115059278e+03 3.044206373914901e+02 2.918975276816622e+03
1.145855862553465e+03 3.036874493991207e+02 2.918975276816622e+03
1.145960046552143e+03 3.031390318002255e+02 2.918975276816622e+03
1.146235680992217e+03 3.017005468000630e+02 2.918975276816622e+03
1.145757940982563e+03 2.998492411961109e+02 2.918975276816622e+03
1.145033545879998e+03 2.984564959027458e+02 2.918975276816622e+03
1.144998327380795e+03 2.969816055805625e+02 2.918975276816622e+03
1.145005425396725e+03 2.952058479887119e+02 2.918975276816622e+03
1.144641387241065e+03 2.943942473862948e+02 2.918975276816622e+03
1.144810705277629e+03 2.939578727211278e+02 2.918975276816622e+03
1.145246892425167e+03 2.929355860283973e+02 2.918975276816622e+03
1.145273450092262e+03 2.917795775851685e+02 2.918975276816622e+03
1.145083247447141e+03 2.909137332215806e+02 2.918975276816622e+03
1.144928125230929e+03 2.903536431883256e+02 2.918975276816622e+03
1.144966096392148e+03 2.891546677014244e+02 2.918975276816622e+03
1.145027610402027e+03 2.877309179816297e+02 2.918975276816622e+03
1.145369810425709e+03 2.871813652678896e+02 2.918975276816622e+03
1.145945893178123e+03 2.860288726269526e+02 2.918975276816622e+03
1.146493923645592e+03 2.848738300524454e+02 2.918975276816622e+03
1.146901137497616e+03 2.846200555210513e+02 2.918975276816622e+03
1.146795805269187e+03 2.841333811515651e+02 2.918975276816622e+03
1.146182108487509e+03 2.824037147002180e+02 2.918975276816622e+03
1.145288513191478e+03 2.807954746108154e+02 2.918975276816622e+03
1.145096249392685e+03 2.799336573050190e+02 2.918975276816622e+03
1.144951112008998e+03 2.789494511770140e+02 2.918975276816622e+03
1.144832813971009e+03 2.781642294545849e+02 2.918975276816622e+03
1.145342394654184e+03 2.770787451498906e+02 2.918975276816622e+03
1.145471348698371e+03 2.759326903142201e+02 2.918975276816622e+03
1.145074122226180e+03 2.749654545543672e+02 2.918975276816622e+03
1.145058985243222e+03 2.738847394404756e+02 2.918975276816622e+03
1.145447390583824e+03 2.728638980766113e+02 2.918975276816622e+03
1.145842953632683e+03 2.718488634633367e+02 2.918975276816622e+03
1.146356902696692e+03 2.700884924860224e+02 2.918975276816622e+03
1.147214750389083e+03 2.688628119197551e+02 2.918975276816622e+03
1.147131130409858e+03 2.677125368144344e+02 2.918975276816622e+03
1.146432526417478e+03 2.660852972506950e+02 2.918975276816622e+03
1.147167989646545e+03 2.650019866427326e+02 2.918975276816622e+03
1.147261264686761e+03 2.639107742900919e+02 2.918975276816622e+03
1.146144358072449e+03 2.628816318103065e+02 2.918975276816622e+03
1.145635271047676e+03 2.610028856090865e+02 2.918975276816622e+03
1.145593547541807e+03 2.593516130570330e+02 2.918975276816622e+03
1.145471834829333e+03 2.583612070696012e+02 2.918975276816622e+03
1.145444489397091e+03 2.572438394432708e+02 2.918975276816622e+03
1.145429699838728e+03 2.561339491214736e+02 2.918975276816622e+03
1.145102096145203e+03 2.549909552541950e+02 2.918975276816622e+03
1.145088369907778e+03 2.538813090748909e+02 2.918975276816622e+03
1.145390535576729e+03 2.528262399182013e+02 2.918975276816622e+03
1.145319979692938e+03 2.520084929396899e+02 2.918975276816622e+03
1.144347045289843e+03 2.511919297223853e+02 2.918975276816622e+03
1.144293855268643e+03 2.502252327883806e+02 2.918975276816622e+03
1.145283415572309e+03 2.491226165165373e+02 2.918975276816622e+03
1.145567556643807e+03 2.482476142841433e+02 2.918975276816622e+03
1.145409066614483e+03 2.472801710368056e+02 2.918975276816622e+03
1.145348955892890e+03 2.462466791768685e+02 2.918975276816622e+03
1.145402330771188e+03 2.451432535894591e+02 2.918975276816622e+03
1.145111989411299e+03 2.440249851274634e+02 2.918975276816622e+03
1.145132050933723e+03 2.429357373532563e+02 2.918975276816622e+03
1.145476431748154e+03 2.418719978127145e+02 2.918975276816622e+03
1.145841131987887e+03 2.409030632449579e+02 2.918975276816622e+03
1.146352431910683e+03 2.391352031905369e+02 2.918975276816622e+03
1.147211888776501e+03 2.379111444014787e+02 2.918975276816622e+03
1.147130058831580e+03 2.367623086621977e+02 2.918975276816622e+03
1.146434544406163e+03 2.351371846050808e+02 2.918975276816622e+03
1.147176283673469e+03 2.340571418260861e+02 2.918975276816622e+03
1.147269869630920e+03 2.329601930957408e+02 2.918975276816622e+03
1.146148498933068e+03 2.319280616886894e+02 2.918975276816622e+03
1.145640442746798e+03 2.300518964984686e+02 2.918975276816622e+03
1.145601229082075e+03 2.283973146287332e+02 2.918975276816622e+03
1.145486743755577e+03 2.274174669555030e+02 2.918975276816622e+03
1.145459854987251e+03 2.263075926050503e+02 2.918975276816622e+03
1.145451666909458e+03 2.251812568589775e+02 2.918975276816622e+03
1.145138777447456e+03 2.240385811949957e+02 2.918975276816622e+03
1.145149977153873e+03 2.229543189446664e+02 2.918975276816622e+03
1.145480541547378e+03 2.219073785919491e+02 2.918975276816622e+03
1.145846796062916e+03 2.209363533218584e+02 2.918975276816622e+03
1.146357759336938e+03 2.191683033423255e+02 2.918975276816622e+03
1.147217482735143e+03 2.179350982088822e+02 2.918975276816622e+03
1.147135275198532e+03 2.167788175387360e+02 2.918975276816622e+03
1.146436620925558e+03 2.151656471595638e+02 2.918975276816622e+03
1.147183497065276e+03 2.140925962598347e+02 2.918975276816622e+03
1.147276552946588e+03 2.129904353133834e+02 2.918975276816622e+03
1.146149456866661e+03 2.119584999717026e+02 2.918975276816622e+03
1.145640805016477e+03 2.100839997452495e+02 2.918975276816622e+03
1.145603367908409e+03 2.084355198513814e+02 2.918975276816622e+03
1.145499967107359e+03 2.074571262429727e+02 2.918975276816622e+03
1.145477111385328e+03 2.063391455417027e+02 2.918975276816622e+03
1.145458238961434e+03 2.052115986942519e+02 2.918975276816622e+03
1.145139572194721e+03 2.040674181763760e+02 2.918975276816622e+03
1.145150524342856e+03 2.029833762740151e+02 2.918975276816622e+03
1.145480111689419e+03 2.019383725115574e+02 2.918975276816622e+03
1.145847556170417e+03 2.009676487277055e+02 2.918975276816622e+03
1.146359242381221e+03 1.991999408640125e+02 2.918975276816622e+03
1.147217590792911e+03 1.979629169320383e+02 2.918975276816622e+03
1.147135241677525e+03 1.968059714536539e+02 2.918975276816622e+03
1.146437008149808e+03 1.951972202805891e+02 2.918975276816622e+03
1.147185443372386e+03 1.941245526165540e+02 2.918975276816622e+03
1.147278128775695e+03 1.930207711097474e+02 2.918975276816622e+03
1.146149807839909e+03 1.919887363329835e+02 2.918975276816622e+03
1.145641175950882e+03 1.901148842080438e+02 2.918975276816622e+03
1.145601609946043e+03 1.884616446805279e+02 2.918975276816622e+03
1.145490166181967e+03 1.874827536851401e+02 2.918975276816622e+03
1.145465143165958e+03 1.863713954374564e+02 2.918975276816622e+03
1.145453426268879e+03 1.852441370119581e+02 2.918975276816622e+03
1.145139141538441e+03 1.841006180647319e+02 2.918975276816622e+03
1.145150531873765e+03 1.830164033814022e+02 2.918975276816622e+03
1.145480546323054e+03 1.819701467442184e+02 2.918975276816622e+03
1.145847251767671e+03 1.809997958543445e+02 2.918975276816622e+03
1.146358783859420e+03 1.792323535474669e+02 2.918975276816622e+03
1.147218587173824e+03 1.779935573667614e+02 2.918975276816622e+03
1.147135603491047e+03 1.768356557850483e+02 2.918975276816622e+03
1.146437218024237e+03 1.752288711951437e+02 2.918975276816622e+03
1.147185693781715e+03 1.741570509565842e+02 2.918975276816622e+03
1.147278600495018e+03 1.730534624415816e+02 2.918975276816622e+03
1.146150624167901e+03 1.720204581234483e+02 2.918975276816622e+03
1.145641002257748e+03 1.701463956224486e+02 2.918975276816622e+03
1.145600543039847e+03 1.684922253699892e+02 2.918975276816622e+03
1.145485761009299e+03 1.675131327608864e+02 2.918975276816622e+03
1.145459587929395e+03 1.664035770324708e+02 2.918975276816622e+03
1.145451551172495e+03 1.652765855291608e+02 2.918975276816622e+03
1.145139254543526e+03 1.641335979587827e+02 2.918975276816622e+03
1.145150556477275e+03 1.630502705290501e+02 2.918975276816622e+03
1.145479510954765e+03 1.620033555654832e+02 2.918975276816622e+03
1.145846770461742e+03 1.610317278472865e+02 2.918975276816622e+03
1.146358348850442e+03 1.592631627625439e+02 2.918975276816622e+03
1.147216913719172e+03 1.580257264472334e+02 2.918975276816622e+03
1.147134984231938e+03 1.568687644545492e+02 2.918975276816622e+03
1.146437316640934e+03 1.552605927672041e+02 2.918975276816622e+03
1.147184943642546e+03 1.541913877634794e+02 2.918975276816622e+03
1.147277813690580e+03 1.530883846620625e+02 2.918975276816622e+03
1.146150291922469e+03 1.520528047242322e+02 2.918975276816622e+03
1.145640402491191e+03 1.501785631567072e+02 2.918975276816622e+03
1.145600229241706e+03 1.485235495347765e+02 2.918975276816622e+03
1.145483157354096e+03 1.475431484658677e+02 2.918975276816622e+03
1.145455492462692e+03 1.464343267751035e+02 2.918975276816622e+03
1.145449097565662e+03 1.453072373384375e+02 2.918975276816622e+03
1.145136769042638e+03 1.441633292021292e+02 2.918975276816622e+03
1.145149265424233e+03 1.430778558476237e+02 2.918975276816622e+03
1.145480596109663e+03 1.420304613697795e+02 2.918975276816622e+03
1.145846483141464e+03 1.410625036910276e+02 2.918975276816622e+03
1.146358097927156e+03 1.392959798885159e+02 2.918975276816622e+03
1.147217170300870e+03 1.380582821294884e+02 2.918975276816622e+03
1.147134152357920e+03 1.369009533164372e+02 2.918975276816622e+03
1.146436790098203e+03 1.352927204733922e+02 2.918975276816622e+03
1.147184345783736e+03 1.342221679140556e+02 2.918975276816622e+03
1.147276935808634e+03 1.331189923767052e+02 2.918975276816622e+03
1.146149099400842e+03 1.320845028115348e+02 2.918975276816622e+03
1.145639964461843e+03 1.302098463988793e+02 2.918975276816622e+03
1.145600639548606e+03 1.285595821280511e+02 2.918975276816622e+03
1.145492144668758e+03 1.275804540237010e+02 2.918975276816622e+03
1.145468424670699e+03 1.264654961048225e+02 2.918975276816622e+03
1.145453464158810e+03 1.253384384698615e+02 2.918975276816622e+03
1.145136458856694e+03 1.241949767706347e+02 2.918975276816622e+03
1.145147904048729e+03 1.231109758194371e+02 2.918975276816622e+03
1.145479176968576e+03 1.220649900794464e+02 2.918975276816622e+03
1.145845737720358e+03 1.210945940441263e+02 2.918975276816622e+03
1.146357395212729e+03 1.193274839795903e+02 2.918975276816622e+03
1.147216890544331e+03 1.180893997414083e+02 2.918975276816622e+03
1.147134248600710e+03 1.169322390498986e+02 2.918975276816622e+03
1.146437108607236e+03 1.153244774021598e+02 2.918975276816622e+03
1.147183741784899e+03 1.142541124691560e+02 2.918975276816622e+03
1.147276205518656e+03 1.131518569109627e+02 2.918975276816622e+03
1.146148688310253e+03 1.121168104693489e+02 2.918975276816622e+03
1.145638866164098e+03 1.102401814989374e+02 2.918975276816622e+03
1.145600936642153e+03 1.086023166731898e+02 2.918975276816622e+03
1.145509925743134e+03 1.076247328841797e+02 2.918975276816622e+03
1.145494098353955e+03 1.064945642371548e+02 2.918975276816622e+03
1.145461916064076e+03 1.053676280435254e+02 2.918975276816622e+03
1.145134692636966e+03 1.042237058210850e+02 2.918975276816622e+03
1.145146444810915e+03 1.031406726453781e+02 2.918975276816622e+03
1.145476652674273e+03 1.020966272942287e+02 2.918975276816622e+03
1.145844504764532e+03 1.011249847083557e+02 2.918975276816622e+03
1.146356564687291e+03 9.935668096686480e+01 2.918975276816622e+03
1.147210340742503e+03 9.812959327013034e+01 2.918975276816622e+03
1.147128897346145e+03 9.698271108267240e+01 2.918975276816622e+03
1.146432376450466e+03 9.535750696816018e+01 2.918975276816622e+03
1.147171115850294e+03 9.427186282428499e+01 2.918975276816622e+03
1.147264558345333e+03 9.317998711407557e+01 2.918975276816622e+03
1.146736000909156e+03 9.216236279474582e+01 2.918975276816622e+03
1.146377938660628e+03 9.092398467504425e+01 2.918975276816622e+03
1.145740630366510e+03 8.950808439356260e+01 2.918975276816622e+03
1.145512874980569e+03 8.817436319308403e+01 2.918975276816622e+03
1.145156409022645e+03 8.726803077778226e+01 2.918975276816622e+03
1.145263351916534e+03 8.655961079600380e+01 2.918975276816622e+03
1.145535550153837e+03 8.568213257281755e+01 2.918975276816622e+03
1.145556090343067e+03 8.470227786019036e+01 2.918975276816622e+03
1.146628027745709e+03 8.353420879395105e+01 2.918975276816622e+03
1.146762412436959e+03 8.250658980446018e+01 2.918975276816622e+03
1.145655358950378e+03 8.136092863952157e+01 2.918975276816622e+03
1.145695655642772e+03 7.994184566065128e+01 2.918975276816622e+03
1.145520809507452e+03 7.826483366122555e+01 2.918975276816622e+03
1.144718275631273e+03 7.685555124100411e+01 2.918975276816622e+03
1.144109928697246e+03 7.568809285515621e+01 2.918975276816622e+03
1.144008462050060e+03 7.386555895208339e+01 2.918975276816622e+03
1.144266073864949e+03 7.233079901208727e+01 2.918975276816622e+03
1.144218336648205e+03 7.114468493020560e+01 2.918975276816622e+03
1.144414172119971e+03 7.010220843517763e+01 2.918975276816622e+03
1.145106821313185e+03 6.901889120507032e+01 2.918975276816622e+03
1.144983549613383e+03 6.779213828270815e+01 2.918975276816622e+03
1.144726832614224e+03 6.647150494795596e+01 2.918975276816622e+03
1.145118008953581e+03 6.520573240663377e+01 2.918975276816622e+03
1.146203107823001e+03 6.410261075450235e+01 2.918975276816622e+03
1.146496641010592e+03 6.303060130403831e+01 2.918975276816622e+03
1.145453847314300e+03 6.202954679041111e+01 2.918975276816622e+03
1.145055878569474e+03 6.117319416434992e+01 2.918975276816622e+03
1.144871082753660e+03 6.039945440564161e+01 2.918975276816622e+03
1.144241300316826e+03 5.949736747538278e+01 2.918975276816622e+03
1.143945584047397e+03 5.844613737053285e+01 2.918975276816622e+03
1.143592710727978e+03 5.715333605566438e+01 2.918975276816622e+03
1.143937510210983e+03 5.619032249630619e+01 2.918975276816622e+03
1.144550621659183e+03 5.519245991832889e+01 2.918975276816622e+03
1.144884227024222e+03 5.430248698380697e+01 2.918975276816622e+03
1.145189076815710e+03 5.302200630106562e+01 2.918975276816622e+03
1.144733922885450e+03 5.118039085061935e+01 2.918975276816622e+03
1.145116911944340e+03 5.025238092658493e+01 2.918975276816622e+03
1.145610749588857e+03 4.954908233557960e+01 2.918975276816622e+03
1.145578457009459e+03 4.842548425867564e+01 2.918975276816622e+03
1.145795001869180e+03 4.745976879563855e+01 2.918975276816622e+03
1.146066648596022e+03 4.557500374190361e+01 2.918975276816622e+03
1.146016819344595e+03 4.326408003472589e+01 2.918975276816622e+03
1.145763191773055e+03 4.216372997717678e+01 2.918975276816622e+03
1.145373773591532e+03 4.139239880229774e+01 2.918975276816622e+03
1.145060884369164e+03 4.066581476304759e+01 2.918975276816622e+03
1.144839373005379e+03 3.979451018801132e+01 2.918975276816622e+03
1.144611718226938e+03 3.766605303377022e+01 2.918975276816622e+03
1.144919310885541e+03 3.572027522648205e+01 2.918975276816622e+03
1.145275183649227e+03 3.479494036718254e+01 2.918975276816622e+03
1.145433158364750e+03 3.341127814531435e+01 2.918975276816622e+03
1.145886423598020e+03 3.087517104688697e+01 2.918975276816622e+03
1.145877976077016e+03 2.830474254242677e+01 2.918975276816622e+03
1.145174323838392e+03 2.657842531070867e+01 2.918975276816622e+03
1.144860877275281e+03 2.557586995424201e+01 2.918975276816622e+03
1.144651890728730e+03 2.414679170907513e+01 2.918975276816622e+03
1.145044873889940e+03 2.282042478753409e+01 2.918975276816622e+03
1.145550915384272e+03 2.183944350785299e+01 2.918975276816622e+03
1.146386223700728e+03 1.986719832871508e+01 2.918975276816622e+03
1.146043584531156e+03 1.825575768792045e+01 2.918975276816622e+03
1.144919955723241e+03 1.693463627185563e+01 2.918975276816622e+03
1.144910968533357e+03 1.518913938167202e+01 2.918975276816622e+03
1.144899572459554e+03 1.377082232892564e+01 2.918975276816622e+03
1.145366968270044e+03 1.252077889394217e+01 2.918975276816622e+03
1.145521467834576e+03 1.096848268792336e+01 2.918975276816622e+03
1.144538595423945e+03 9.489508057396703e+00 2.918975276816622e+03
1.144556246550201e+03 8.252020495382366e+00 2.918975276816622e+03
1.145637686806244e+03 6.646612755971074e+00 2.918975276816622e+03
1.146037809315776e+03 5.201917253701840e+00 2.918975276816622e+03
1.145820916625244e+03 3.762716806735358e+00 2.918975276816622e+03
-1.157765934930723e+03 -8.709645877243020e-03 -2.918975276816622e+03
-1.157920469581877e+03  1.724363631072597e+00 -2.918975276816622e+03
-1.157034259231621e+03 -1.705498296557927e+00 -2.918975276816622e+03
-1.156159790024570e+03 -2.733533328612390e+00 -2.918975276816622e+03
-1.156344787138853e+03 -3.623530063685386e+00 -2.918975276816622e+03
-1.157171154184342e+03 -4.988796452864964e+00 -2.918975276816622e+03
-1.156946841185404e+03 -5.672322109575537e+00 -2.918975276816622e+03
-1.156404404026014e+03 -6.088151515795604e+00 -2.918975276816622e+03
-1.156554188757171e+03 -7.339545746136121e+00 -2.918975276816622e+03
-1.157517609551142e+03 -9.164181640228096e+00 -2.918975276816622e+03
-1.157788241867652e+03 -1.055659444550597e+01 -2.918975276816622e+03
-1.157434736844758e+03 -1.091876562585864e+01 -2.918975276816622e+03
-1.157461390219423e+03 -1.140074811097105e+01 -2.918975276816622e+03
-1.157527164851960e+03 -1.260101121392699e+01 -2.918975276816622e+03
-1.157873656110959e+03 -1.392882522553266e+01 -2.918975276816622e+03
-1.158077524643356e+03 -1.584680436402669e+01 -2.918975276816622e+03
-1.157665260347052e+03 -1.881522385469660e+01 -2.918975276816622e+03
-1.156911173555048e+03 -2.154893836345550e+01 -2.918975276816622e+03
-1.156441930888473e+03 -2.304206354055408e+01 -2.918975276816622e+03
-1.157219535308518e+03 -2.454023781876884e+01 -2.918975276816622e+03
-1.157481419565673e+03 -2.618256974394275e+01 -2.918975276816622e+03
-1.157108800588462e+03 -2.774808798376236e+01 -2.918975276816622e+03
-1.156544963708093e+03 -2.898998089359258e+01 -2.918975276816622e+03
-1.156099790593380e+03 -2.999845346412418e+01 -2.918975276816622e+03
-1.156755395864669e+03 -3.144435889374511e+01 -2.918975276816622e+03
-1.157084656201527e+03 -3.253319980515268e+01 -2.918975276816622e+03
-1.157051466662708e+03 -3.330733423762422e+01 -2.918975276816622e+03
-1.156727043514669e+03 -3.437810795371218e+01 -2.918975276816622e+03
-1.156740125594934e+03 -3.546387991763066e+01 -2.918975276816622e+03
-1.157483589611171e+03 -3.603209462893575e+01 -2.918975276816622e+03
-1.158117186507619e+03 -3.679922035292500e+01 -2.918975276816622e+03
-1.157976763059852e+03 -3.806273268254059e+01 -2.918975276816622e+03
-1.157523242467548e+03 -3.963948513234195e+01 -2.918975276816622e+03
-1.157207415287665e+03 -4.085208315606361e+01 -2.918975276816622e+03
-1.157163368870355e+03 -4.238799700859772e+01 -2.918975276816622e+03
-1.157471068184758e+03 -4.407167709594716e+01 -2.918975276816622e+03
-1.157689344712406e+03 -4.540145549626841e+01 -2.918975276816622e+03
-1.157366859376604e+03 -4.673773252592512e+01 -2.918975276816622e+03
-1.156966900671584e+03 -4.855722984006651e+01 -2.918975276816622e+03
-1.156918756895695e+03 -5.018535707822925e+01 -2.918975276816622e+03
-1.157145723541257e+03 -5.137804654713657e+01 -2.918975276816622e+03
-1.157481975865554e+03 -5.278108813224710e+01 -2.918975276816622e+03
-1.157901348239989e+03 -5.349768648546597e+01 -2.918975276816622e+03
-1.157645898374601e+03 -5.450748602364099e+01 -2.918975276816622e+03
-1.157013322091261e+03 -5.557280756420130e+01 -2.918975276816622e+03
-1.157421641903553e+03 -5.600078730496568e+01 -2.918975276816622e+03
-1.158054876725661e+03 -5.678658958587489e+01 -2.918975276816622e+03
-1.157922771060230e+03 -5.807844681037771e+01 -2.918975276816622e+03
-1.157495048141517e+03 -5.961585585395860e+01 -2.918975276816622e+03
-1.157191189505918e+03 -6.081750268952166e+01 -2.918975276816622e+03
-1.157148386691188e+03 -6.235702994879956e+01 -2.918975276816622e+03
-1.157461981116663e+03 -6.404346767724972e+01 -2.918975276816622e+03
-1.157682683978467e+03 -6.536914128070109e+01 -2.918975276816622e+03
-1.157361516814750e+03 -6.670368547890233e+01 -2.918975276816622e+03
-1.156961881597613e+03 -6.852612406442066e+01 -2.918975276816622e+03
-1.156915676286729e+03 -7.015544130319874e+01 -2.918975276816622e+03
-1.157143521446733e+03 -7.134654070044074e+01 -2.918975276816622e+03
-1.157478663302874e+03 -7.275193934285578e+01 -2.918975276816622e+03
-1.157905054136206e+03 -7.347053869769434e+01 -2.918975276816622e+03
-1.157652907668454e+03 -7.447677728188286e+01 -2.918975276816622e+03
-1.157014680164717e+03 -7.554158921101892e+01 -2.918975276816622e+03
-1.157419071087382e+03 -7.597114620336453e+01 -2.918975276816622e+03
-1.158049848191190e+03 -7.675779627610670e+01 -2.918975276816622e+03
-1.157918616620193e+03 -7.805029293763471e+01 -2.918975276816622e+03
-1.157493195001528e+03 -7.958585080895801e+01 -2.918975276816622e+03
-1.157190313469665e+03 -8.078566781099072e+01 -2.918975276816622e+03
-1.157147262319590e+03 -8.232490987268676e+01 -2.918975276816622e+03
-1.157460705559400e+03 -8.401229144901596e+01 -2.918975276816622e+03
-1.157681487182774e+03 -8.533786065248110e+01 -2.918975276816622e+03
-1.157360645538480e+03 -8.667155770873946e+01 -2.918975276816622e+03
-1.156961151200304e+03 -8.849473932323417e+01 -2.918975276816622e+03
-1.156915199784131e+03 -9.012467223716848e+01 -2.918975276816622e+03
-1.157141074161402e+03 -9.131296970659552e+01 -2.918975276816622e+03
-1.157452147264454e+03 -9.270748012837957e+01 -2.918975276816622e+03
-1.157790781644605e+03 -9.338077351953319e+01 -2.918975276816622e+03
-1.157552082033558e+03 -9.439429178928921e+01 -2.918975276816622e+03
-1.157000227329493e+03 -9.551151115539280e+01 -2.918975276816622e+03
-1.157408774903780e+03 -9.595046946390413e+01 -2.918975276816622e+03
-1.158035781572414e+03 -9.674281355762641e+01 -2.918975276816622e+03
-1.157908691432878e+03 -9.803258662459194e+01 -2.918975276816622e+03
-1.157491563445273e+03 -9.956011950719716e+01 -2.918975276816622e+03
-1.157192904167447e+03 -1.007569144882266e+02 -2.918975276816622e+03
-1.157148506621242e+03 -1.022925733071319e+02 -2.918975276816622e+03
-1.157459158307735e+03 -1.039808315251492e+02 -2.918975276816622e+03
-1.157679793348884e+03 -1.053074606053047e+02 -2.918975276816622e+03
-1.157359269521207e+03 -1.066396671798849e+02 -2.918975276816622e+03
-1.156960215564064e+03 -1.084620082111687e+02 -2.918975276816622e+03
-1.156914118137456e+03 -1.100917261711812e+02 -2.918975276816622e+03
-1.157142384013916e+03 -1.112835653686070e+02 -2.918975276816622e+03
-1.157481201324481e+03 -1.126904899174502e+02 -2.918975276816622e+03
-1.157914016736212e+03 -1.134160049425505e+02 -2.918975276816622e+03
-1.157657352515539e+03 -1.144217236082167e+02 -2.918975276816622e+03
-1.157011752208798e+03 -1.154768808735378e+02 -2.918975276816622e+03
-1.157422407716538e+03 -1.159026828077205e+02 -2.918975276816622e+03
-1.158058912082943e+03 -1.166866179411694e+02 -2.918975276816622e+03
-1.157925771669431e+03 -1.179788991114365e+02 -2.918975276816622e+03
-1.157495623332235e+03 -1.195193594143730e+02 -2.918975276816622e+03
-1.157189097896508e+03 -1.207218079874474e+02 -2.918975276816622e+03
-1.157145615518876e+03 -1.222612842510254e+02 -2.918975276816622e+03
-1.157459521378916e+03 -1.239488955589524e+02 -2.918975276816622e+03
-1.157680613307421e+03 -1.252745652242853e+02 -2.918975276816622e+03
-1.157359768638606e+03 -1.266085630362309e+02 -2.918975276816622e+03
-1.156960055850531e+03 -1.284307462365280e+02 -2.918975276816622e+03
-1.156914002306945e+03 -1.300598842727290e+02 -2.918975276816622e+03
-1.157142823275198e+03 -1.312517462469496e+02 -2.918975276816622e+03
-1.157487554390645e+03 -1.326678747558316e+02 -2.918975276816622e+03
-1.157945570449772e+03 -1.334156513945542e+02 -2.918975276816622e+03
-1.157685696548326e+03 -1.344122546037644e+02 -2.918975276816622e+03
-1.157015553081035e+03 -1.354446718378541e+02 -2.918975276816622e+03
-1.157421363177160e+03 -1.358721589762587e+02 -2.918975276816622e+03
-1.158053891567685e+03 -1.366600406705599e+02 -2.918975276816622e+03
-1.157920401113801e+03 -1.379526933838271e+02 -2.918975276816622e+03
-1.157492713490662e+03 -1.394890296526496e+02 -2.918975276816622e+03
-1.157188090786858e+03 -1.406896689022553e+02 -2.918975276816622e+03
-1.157144942026628e+03 -1.422299585600888e+02 -2.918975276816622e+03
-1.157459226578587e+03 -1.439171586816253e+02 -2.918975276816622e+03
-1.157680288382252e+03 -1.452420845099852e+02 -2.918975276816622e+03
-1.157359193163195e+03 -1.465765648502937e+02 -2.918975276816622e+03
-1.156959643862044e+03 -1.483993067095313e+02 -2.918975276816622e+03
-1.156913832781529e+03 -1.500279488605504e+02 -2.918975276816622e+03
-1.157142955586576e+03 -1.512198933421536e+02 -2.918975276816622e+03
-1.157488947253600e+03 -1.526365160679098e+02 -2.918975276816622e+03
-1.157948044027361e+03 -1.533867948572581e+02 -2.918975276816622e+03
-1.157686301048932e+03 -1.543835257296745e+02 -2.918975276816622e+03
-1.157014619645161e+03 -1.554125820340030e+02 -2.918975276816622e+03
-1.157422627912571e+03 -1.558379227725085e+02 -2.918975276816622e+03
-1.158057492326433e+03 -1.566231032339185e+02 -2.918975276816622e+03
-1.157923665649132e+03 -1.579163590787375e+02 -2.918975276816622e+03
-1.157493755416438e+03 -1.594560481713229e+02 -2.918975276816622e+03
-1.157187745856921e+03 -1.606579283022627e+02 -2.918975276816622e+03
-1.157145127116741e+03 -1.621977265532500e+02 -2.918975276816622e+03
-1.157459673419825e+03 -1.638846625395707e+02 -2.918975276816622e+03
-1.157680309890156e+03 -1.652100745431527e+02 -2.918975276816622e+03
-1.157358705270764e+03 -1.665443733877750e+02 -2.918975276816622e+03
-1.156958989188976e+03 -1.683673463567821e+02 -2.918975276816622e+03
-1.156913762863885e+03 -1.699964971013169e+02 -2.918975276816622e+03
-1.157143345442587e+03 -1.711882767016039e+02 -2.918975276816622e+03
-1.157491071983406e+03 -1.726070952509373e+02 -2.918975276816622e+03
-1.157955668883638e+03 -1.733641478027774e+02 -2.918975276816622e+03
-1.157691643628130e+03 -1.743588153723188e+02 -2.918975276816622e+03
-1.157013435619069e+03 -1.753797986170887e+02 -2.918975276816622e+03
-1.157424662940778e+03 -1.758041856126969e+02 -2.918975276816622e+03
-1.158062447658236e+03 -1.765894445793572e+02 -2.918975276816622e+03
-1.157927155965002e+03 -1.778821079578964e+02 -2.918975276816622e+03
-1.157495185228557e+03 -1.794231551380429e+02 -2.918975276816622e+03
-1.157187169886508e+03 -1.806257573675116e+02 -2.918975276816622e+03
-1.157143851449501e+03 -1.821654916086207e+02 -2.918975276816622e+03
-1.157458485048968e+03 -1.838538146702136e+02 -2.918975276816622e+03
-1.157679516322576e+03 -1.851792238092350e+02 -2.918975276816622e+03
-1.157358500401191e+03 -1.865129061693852e+02 -2.918975276816622e+03
-1.156958793432253e+03 -1.883356152000801e+02 -2.918975276816622e+03
-1.156913002049265e+03 -1.899646734462053e+02 -2.918975276816622e+03
-1.157141891591162e+03 -1.911565179754343e+02 -2.918975276816622e+03
-1.157485045232388e+03 -1.925688525395915e+02 -2.918975276816622e+03
-1.157933571688525e+03 -1.933085850640475e+02 -2.918975276816622e+03
-1.157673528818733e+03 -1.943094306545484e+02 -2.918975276816622e+03
-1.157012145971940e+03 -1.953493071449865e+02 -2.918975276816622e+03
-1.157421970400545e+03 -1.957744217301787e+02 -2.918975276816622e+03
-1.158058024397583e+03 -1.965586949668454e+02 -2.918975276816622e+03
-1.157924129999862e+03 -1.978517393167267e+02 -2.918975276816622e+03
-1.157493683081280e+03 -1.993926109157186e+02 -2.918975276816622e+03
-1.157186895558360e+03 -2.005945433194343e+02 -2.918975276816622e+03
-1.157143473569368e+03 -2.021339965001590e+02 -2.918975276816622e+03
-1.157457481753198e+03 -2.038223121556892e+02 -2.918975276816622e+03
-1.157678356545943e+03 -2.051473412853061e+02 -2.918975276816622e+03
-1.157357494771349e+03 -2.064808843652255e+02 -2.918975276816622e+03
-1.156957780683423e+03 -2.083039404339104e+02 -2.918975276816622e+03
-1.156911927104483e+03 -2.099327603847685e+02 -2.918975276816622e+03
-1.157141500552892e+03 -2.111250888566756e+02 -2.918975276816622e+03
-1.157492219190204e+03 -2.125474491012164e+02 -2.918975276816622e+03
-1.157964636089872e+03 -2.133134340591464e+02 -2.918975276816622e+03
-1.157698700848593e+03 -2.143046121328822e+02 -2.918975276816622e+03
-1.157013616884132e+03 -2.153156669167628e+02 -2.918975276816622e+03
-1.157425036641299e+03 -2.157395891812319e+02 -2.918975276816622e+03
-1.158062651103347e+03 -2.165243739527261e+02 -2.918975276816622e+03
-1.157926674194109e+03 -2.178175533600766e+02 -2.918975276816622e+03
-1.157494200547017e+03 -2.193597134438647e+02 -2.918975276816622e+03
-1.157185606125094e+03 -2.205622461902658e+02 -2.918975276816622e+03
-1.157142039928882e+03 -2.221020115720494e+02 -2.918975276816622e+03
-1.157456810429414e+03 -2.237905183547425e+02 -2.918975276816622e+03
-1.157677932239516e+03 -2.251157744414081e+02 -2.918975276816622e+03
-1.157356966269010e+03 -2.264494288718166e+02 -2.918975276816622e+03
-1.156956511712969e+03 -2.282716084152000e+02 -2.918975276816622e+03
-1.156910573213541e+03 -2.298997802946123e+02 -2.918975276816622e+03
-1.157105249091733e+03 -2.310801007739434e+02 -2.918975276816622e+03
-1.157456521489390e+03 -2.325075843464921e+02 -2.918975276816622e+03
-1.157968114664732e+03 -2.332937990944584e+02 -2.918975276816622e+03
-1.157701082752424e+03 -2.342800870368852e+02 -2.918975276816622e+03
-1.157012224620908e+03 -2.352827907506270e+02 -2.918975276816622e+03
-1.157422783575887e+03 -2.357133423462286e+02 -2.918975276816622e+03
-1.158050572624684e+03 -2.365110989073411e+02 -2.918975276816622e+03
-1.157909978252363e+03 -2.378038692872841e+02 -2.918975276816622e+03
-1.157485645242998e+03 -2.393355682759216e+02 -2.918975276816622e+03
-1.157179858682130e+03 -2.405339759283710e+02 -2.918975276816622e+03
-1.157133851138216e+03 -2.420716214638725e+02 -2.918975276816622e+03
-1.157448231792105e+03 -2.437565935499656e+02 -2.918975276816622e+03
-1.157670538216630e+03 -2.450870951807279e+02 -2.918975276816622e+03
-1.157353307732202e+03 -2.464161062777805e+02 -2.918975276816622e+03
-1.156907614150628e+03 -2.481870152540703e+02 -2.918975276816622e+03
-1.156813921548774e+03 -2.498652241868626e+02 -2.918975276816622e+03
-1.156834977955128e+03 -2.510312568258368e+02 -2.918975276816622e+03
-1.156655186919504e+03 -2.525977941631587e+02 -2.918975276816622e+03
-1.156209647331494e+03 -2.536809569312629e+02 -2.918975276816622e+03
-1.156088098555247e+03 -2.541455666289651e+02 -2.918975276816622e+03
-1.156280072756884e+03 -2.554287223121524e+02 -2.918975276816622e+03
-1.156599784194575e+03 -2.567356044450602e+02 -2.918975276816622e+03
-1.156946389708128e+03 -2.575182368629868e+02 -2.918975276816622e+03
-1.156885428399388e+03 -2.591918911978941e+02 -2.918975276816622e+03
-1.156866113039120e+03 -2.608240155642320e+02 -2.918975276816622e+03
-1.157054027261319e+03 -2.620133070728129e+02 -2.918975276816622e+03
-1.157399464692212e+03 -2.634637325775083e+02 -2.918975276816622e+03
-1.157932436641056e+03 -2.642487967012364e+02 -2.918975276816622e+03
-1.157679518028276e+03 -2.652225992352378e+02 -2.918975276816622e+03
-1.157005806705747e+03 -2.662321296002615e+02 -2.918975276816622e+03
-1.157415529804236e+03 -2.666731969504808e+02 -2.918975276816622e+03
-1.158016655973176e+03 -2.673951697536157e+02 -2.918975276816622e+03
-1.157857127113499e+03 -2.686374321458676e+02 -2.918975276816622e+03
-1.157395523066500e+03 -2.702590821436047e+02 -2.918975276816622e+03
-1.157045355816650e+03 -2.714341697388828e+02 -2.918975276816622e+03
-1.156813388012839e+03 -2.730865945175396e+02 -2.918975276816622e+03
-1.156929050313485e+03 -2.747988648659469e+02 -2.918975276816622e+03
-1.157543595905401e+03 -2.760153280994213e+02 -2.918975276816622e+03
-1.157958397839414e+03 -2.773150913331045e+02 -2.918975276816622e+03
-1.157745687866502e+03 -2.784677228931443e+02 -2.918975276816622e+03
-1.157152990880774e+03 -2.796916158374425e+02 -2.918975276816622e+03
-1.156484588571132e+03 -2.809324473569383e+02 -2.918975276816622e+03
-1.155764395788495e+03 -2.822626390026616e+02 -2.918975276816622e+03
-1.155718498564164e+03 -2.832712404128350e+02 -2.918975276816622e+03
-1.156361897735742e+03 -2.841149408706855e+02 -2.918975276816622e+03
-1.156658262527346e+03 -2.850690617885478e+02 -2.918975276816622e+03
-1.156763948676481e+03 -2.861041414387853e+02 -2.918975276816622e+03
-1.156897545225817e+03 -2.877324184508360e+02 -2.918975276816622e+03
-1.156724881353382e+03 -2.889809096126572e+02 -2.918975276816622e+03
-1.156616921567590e+03 -2.894516831951385e+02 -2.918975276816622e+03
-1.156357215174672e+03 -2.902629186122786e+02 -2.918975276816622e+03
-1.156249170700978e+03 -2.913628089482096e+02 -2.918975276816622e+03
-1.157092516580812e+03 -2.920285972333256e+02 -2.918975276816622e+03
-1.157142716516321e+03 -2.929477425359902e+02 -2.918975276816622e+03
-1.156530404093714e+03 -2.942178551982876e+02 -2.918975276816622e+03
-1.156165679821478e+03 -2.955686449521820e+02 -2.918975276816622e+03
-1.155838158112514e+03 -2.968022044954463e+02 -2.918975276816622e+03
-1.155904084514868e+03 -2.981237616118036e+02 -2.918975276816622e+03
-1.155883337855414e+03 -2.995724863226675e+02 -2.918975276816622e+03
-1.156077528328783e+03 -3.009998884502859e+02 -2.918975276816622e+03
-1.156508930456549e+03 -3.020623393187051e+02 -2.918975276816622e+03
-1.156836919867170e+03 -3.028490820237205e+02 -2.918975276816622e+03
-1.157366009144150e+03 -3.042976817072921e+02 -2.918975276816622e+03
-1.157443819347651e+03 -3.056514171182481e+02 -2.918975276816622e+03
-1.156670934025903e+03 -3.067093057429864e+02 -2.918975276816622e+03
-1.156471765319319e+03 -3.073641600897457e+02 -2.918975276816622e+03
-1.157307236509090e+03 -3.082687937310070e+02 -2.918975276816622e+03
-1.157600652846988e+03 -3.091531212884466e+02 -2.918975276816622e+03
-1.157225514450196e+03 -3.099198323603908e+02 -2.918975276816622e+03
-1.156537901100538e+03 -3.114313440904746e+02 -2.918975276816622e+03
-1.156478993431422e+03 -3.122233140621935e+02 -2.918975276816622e+03
-1.157187217200545e+03 -3.127880497463808e+02 -2.918975276816622e+03
-1.157522521028058e+03 -3.136245593073023e+02 -2.918975276816622e+03
-1.157217978240654e+03 -3.144279808969090e+02 -2.918975276816622e+03
-1.156796096109329e+03 -3.161643154983327e+02 -2.918975276816622e+03
-1.156689159558978e+03 -3.175207243690940e+02 -2.918975276816622e+03
-1.156499230331181e+03 -3.178885197430411e+02 -2.918975276816622e+03
-1.156578198129352e+03 -3.187716090916160e+02 -2.918975276816622e+03
-1.156866851942631e+03 -3.199127598152177e+02 -2.918975276816622e+03
-1.157162398645028e+03 -3.207793380314963e+02 -2.918975276816622e+03
-1.158138051067839e+03 -3.220534247186871e+02 -2.918975276816622e+03
-1.158075150326146e+03 -3.231560996360328e+02 -2.918975276816622e+03
-1.156979231733506e+03 -3.239727060379300e+02 -2.918975276816622e+03
-1.156864106644791e+03 -3.248976660399287e+02 -2.918975276816622e+03
-1.157330194282423e+03 -3.260202041568529e+02 -2.918975276816622e+03
-1.157880597663330e+03 -3.269176875277728e+02 -2.918975276816622e+03
-1.157691280928592e+03 -3.279988373274301e+02 -2.918975276816622e+03
-1.157425050808940e+03 -3.292485462288257e+02 -2.918975276816622e+03
-1.157381023006409e+03 -3.300961929303673e+02 -2.918975276816622e+03
-1.156845294331554e+03 -3.310291391117219e+02 -2.918975276816622e+03
-1.156417792377704e+03 -3.318924446347376e+02 -2.918975276816622e+03
-1.156302646118358e+03 -3.338860104177915e+02 -2.918975276816622e+03
-1.156489716526977e+03 -3.364005192370360e+02 -2.918975276816622e+03
-1.157261418628910e+03 -3.373190621857688e+02 -2.918975276816622e+03
-1.157496919173972e+03 -3.381515882629585e+02 -2.918975276816622e+03
-1.157018432947205e+03 -3.401498163464453e+02 -2.918975276816622e+03
-1.156497288951195e+03 -3.421153791759092e+02 -2.918975276816622e+03
-1.156423503663216e+03 -3.434545293531843e+02 -2.918975276816622e+03
-1.155886490855362e+03 -3.441072238176859e+02 -2.918975276816622e+03
-1.155643276201977e+03 -3.448962467584608e+02 -2.918975276816622e+03
-1.156817857556647e+03 -3.466553419271806e+02 -2.918975276816622e+03
-1.157111748831380e+03 -3.484419122375143e+02 -2.918975276816622e+03
-1.156181486264882e+03 -3.500917803046621e+02 -2.918975276816622e+03
-1.156037720824025e+03 -3.512620959054402e+02 -2.918975276816622e+03
-1.156867797666604e+03 -3.519241150861001e+02 -2.918975276816622e+03
-1.157769532451717e+03 -3.532357714869701e+02 -2.918975276816622e+03
-1.158191620533194e+03 -3.546225643656862e+02 -2.918975276816622e+03
-1.157845675896790e+03 -3.554273832180094e+02 -2.918975276816622e+03
-1.157349446597139e+03 -3.560171928783502e+02 -2.918975276816622e+03
-1.157534966178199e+03 -3.567712265883546e+02 -2.918975276816622e+03
-1.157963659927326e+03 -3.580096824390163e+02 -2.918975276816622e+03
-1.157817202880268e+03 -3.593378569657053e+02 -2.918975276816622e+03
-1.157464108508967e+03 -3.601374968642806e+02 -2.918975276816622e+03
-1.157717758470790e+03 -3.607404728958161e+02 -2.918975276816622e+03
-1.157570514774946e+03 -3.616948588708278e+02 -2.918975276816622e+03
-1.156334081302035e+03 -3.629359884648395e+02 -2.918975276816622e+03
-1.156411323941294e+03 -3.641365640191765e+02 -2.918975276816622e+03
-1.157196702592334e+03 -3.653197762200616e+02 -2.918975276816622e+03
-1.157256172212536e+03 -3.661226940968048e+02 -2.918975276816622e+03
-1.157147949200055e+03 -3.679777939136931e+02 -2.918975276816622e+03
-1.157596608512040e+03 -3.696176621921365e+02 -2.918975276816622e+03
-1.157864478772985e+03 -3.703850344441421e+02 -2.918975276816622e+03
-1.157704767826749e+03 -3.718881193911786e+02 -2.918975276816622e+03
-1.157744290903529e+03 -3.732626367211656e+02 -2.918975276816622e+03
-1.157792722531068e+03 -3.754353867558585e+02 -2.918975276816622e+03
-1.157561687663932e+03 -3.773898488378542e+02 -2.918975276816622e+03
-1.157475261650644e+03 -3.788030242810451e+02 -2.918975276816622e+03
-1.157215486950064e+03 -3.801717902995838e+02 -2.918975276816622e+03
-1.156855823842399e+03 -3.817358512856863e+02 -2.918975276816622e+03
-1.155913039599897e+03 -3.830059577290206e+02 -2.918975276816622e+03
-1.155873873055312e+03 -3.845425750209764e+02 -2.918975276816622e+03
-1.157032327805928e+03 -3.861800536628160e+02 -2.918975276816622e+03
-1.157772485914873e+03  3.838726326320774e+02 -2.918975276816622e+03
-1.157815405258149e+03  3.853916871134522e+02 -2.918975276816622e+03
-1.157223936440619e+03  3.825501114155907e+02 -2.918975276816622e+03
-1.157347900974799e+03  3.801913787114372e+02 -2.918975276816622e+03
-1.156950462968428e+03  3.780901343716946e+02 -2.918975276816622e+03
-1.156829714970232e+03  3.769221641335533e+02 -2.918975276816622e+03
-1.156987608208603e+03  3.757151439923565e+02 -2.918975276816622e+03
-1.157055275749538e+03  3.750679956853836e+02 -2.918975276816622e+03
-1.156767422586092e+03  3.744196689791724e+02 -2.918975276816622e+03
-1.155438287241468e+03  3.726490801478307e+02 -2.918975276816622e+03
-1.155809899877641e+03  3.712054708611063e+02 -2.918975276816622e+03
-1.157028116633654e+03  3.699483115549630e+02 -2.918975276816622e+03
-1.157849402001460e+03  3.679640440608243e+02 -2.918975276816622e+03
-1.158042704952981e+03  3.660317724475789e+02 -2.918975276816622e+03
-1.157271330197619e+03  3.650469232291839e+02 -2.918975276816622e+03
-1.156826615743239e+03  3.646677010173701e+02 -2.918975276816622e+03
-1.157055765563699e+03  3.630811696290136e+02 -2.918975276816622e+03
-1.157321670754164e+03  3.610680515705775e+02 -2.918975276816622e+03
-1.157399236206085e+03  3.598993525909121e+02 -2.918975276816622e+03
-1.157704528775825e+03  3.589240975763675e+02 -2.918975276816622e+03
-1.158123967291944e+03  3.574749545815714e+02 -2.918975276816622e+03
-1.157623443988959e+03  3.564033015094896e+02 -2.918975276816622e+03
-1.156401112478554e+03  3.547181412669992e+02 -2.918975276816622e+03
-1.156646929999194e+03  3.525698493793885e+02 -2.918975276816622e+03
-1.157096105285494e+03  3.514456916440170e+02 -2.918975276816622e+03
-1.157209737925352e+03  3.507937853602597e+02 -2.918975276816622e+03
-1.157347786099824e+03  3.501163291599897e+02 -2.918975276816622e+03
-1.157670738881446e+03  3.485728810513381e+02 -2.918975276816622e+03
-1.157354607926824e+03  3.474536402715713e+02 -2.918975276816622e+03
-1.156502404902789e+03  3.466395210206637e+02 -2.918975276816622e+03
-1.156182920859284e+03  3.457806392293224e+02 -2.918975276816622e+03
-1.156370441592468e+03  3.449830238280769e+02 -2.918975276816622e+03
-1.156499908334376e+03  3.436082654899747e+02 -2.918975276816622e+03
-1.156379648627115e+03  3.416634007308997e+02 -2.918975276816622e+03
-1.155663414467129e+03  3.402454574063136e+02 -2.918975276816622e+03
-1.155775124493648e+03  3.390937933589243e+02 -2.918975276816622e+03
-1.156971678568168e+03  3.376781199480409e+02 -2.918975276816622e+03
-1.156852276320726e+03  3.370896747163048e+02 -2.918975276816622e+03
-1.155471693800869e+03  3.362150682340421e+02 -2.918975276816622e+03
-1.155585312659200e+03  3.347549829265453e+02 -2.918975276816622e+03
-1.157073923870871e+03  3.336489099141767e+02 -2.918975276816622e+03
-1.157221562555183e+03  3.329620046896555e+02 -2.918975276816622e+03
-1.156336711665682e+03  3.316946395966909e+02 -2.918975276816622e+03
-1.155557298262999e+03  3.304637941655542e+02 -2.918975276816622e+03
-1.155702839487746e+03  3.297714182071003e+02 -2.918975276816622e+03
-1.155556124158055e+03  3.283324563666602e+02 -2.918975276816622e+03
-1.156029259438733e+03  3.264855580336936e+02 -2.918975276816622e+03
-1.157002470056578e+03  3.249439193326818e+02 -2.918975276816622e+03
-1.157166745670106e+03  3.230098982542275e+02 -2.918975276816622e+03
-1.157332333067845e+03  3.210609532042635e+02 -2.918975276816622e+03
-1.157833182811308e+03  3.194584910313728e+02 -2.918975276816622e+03
-1.157865328324914e+03  3.186371906087479e+02 -2.918975276816622e+03
-1.157554610397256e+03  3.181508613938555e+02 -2.918975276816622e+03
-1.157693723521244e+03  3.166960133136531e+02 -2.918975276816622e+03
-1.158234839672562e+03  3.158142603065347e+02 -2.918975276816622e+03
-1.157902948182701e+03  3.140677771893736e+02 -2.918975276816622e+03
-1.156608216186980e+03  3.114965496143290e+02 -2.918975276816622e+03
-1.156235021843439e+03  3.099765276777709e+02 -2.918975276816622e+03
-1.156078587552455e+03  3.090624581755557e+02 -2.918975276816622e+03
-1.156394248210895e+03  3.081693681803227e+02 -2.918975276816622e+03
-1.157223713264035e+03  3.056096423167119e+02 -2.918975276816622e+03
-1.157165043352721e+03  3.035648603899572e+02 -2.918975276816622e+03
-1.156847468817305e+03  3.028661284536305e+02 -2.918975276816622e+03
-1.157267530605491e+03  3.013450608459120e+02 -2.918975276816622e+03
-1.157973073441782e+03  3.002105585257270e+02 -2.918975276816622e+03
-1.157641604870095e+03  2.995017470766792e+02 -2.918975276816622e+03
-1.156791450318578e+03  2.977757510680418e+02 -2.918975276816622e+03
-1.156441560510029e+03  2.959277650509726e+02 -2.918975276816622e+03
-1.156297669245766e+03  2.946684804196350e+02 -2.918975276816622e+03
-1.156416671964972e+03  2.940925578755536e+02 -2.918975276816622e+03
-1.156473716159976e+03  2.934668526116779e+02 -2.918975276816622e+03
-1.156711735914582e+03  2.924349841449522e+02 -2.918975276816622e+03
-1.157403254129692e+03  2.913333473873714e+02 -2.918975276816622e+03
-1.157333061216255e+03  2.900077060856790e+02 -2.918975276816622e+03
-1.156815655851155e+03  2.892338469067164e+02 -2.918975276816622e+03
-1.156894599312725e+03  2.881548080136334e+02 -2.918975276816622e+03
-1.157181642840124e+03  2.869800995414645e+02 -2.918975276816622e+03
-1.157228955162080e+03  2.860862097951824e+02 -2.918975276816622e+03
-1.157077136850739e+03  2.845264669167551e+02 -2.918975276816622e+03
-1.158053500282806e+03  2.836049230040877e+02 -2.918975276816622e+03
-1.158371181954244e+03  2.828958074091383e+02 -2.918975276816622e+03
-1.157449112190084e+03  2.819055334152287e+02 -2.918975276816622e+03
-1.157071668275639e+03  2.808321470049236e+02 -2.918975276816622e+03
-1.157151924172343e+03  2.790061126099885e+02 -2.918975276816622e+03
-1.157730682506261e+03  2.775536746669204e+02 -2.918975276816622e+03
-1.157971257829120e+03  2.762093197205955e+02 -2.918975276816622e+03
-1.157494603013702e+03  2.746721870268510e+02 -2.918975276816622e+03
-1.157006074526810e+03  2.729294533860897e+02 -2.918975276816622e+03
-1.156938732535749e+03  2.712989364893443e+02 -2.918975276816622e+03
-1.157158404708734e+03  2.701101009311715e+02 -2.918975276816622e+03
-1.157479321585188e+03  2.687280901943835e+02 -2.918975276816622e+03
-1.157817368303172e+03  2.680489718095129e+02 -2.918975276816622e+03
-1.157570283653986e+03  2.670253059861979e+02 -2.918975276816622e+03
-1.157016143325613e+03  2.659116796299600e+02 -2.918975276816622e+03
-1.157419651613809e+03  2.654843956220690e+02 -2.918975276816622e+03
-1.158052918812049e+03  2.647144721158251e+02 -2.918975276816622e+03
-1.157931079302532e+03  2.634200025459466e+02 -2.918975276816622e+03
-1.157502578972024e+03  2.618742004925442e+02 -2.918975276816622e+03
-1.157201141671758e+03  2.606716756951424e+02 -2.918975276816622e+03
-1.157162651748384e+03  2.591307858044950e+02 -2.918975276816622e+03
-1.157481436544531e+03  2.574460866239211e+02 -2.918975276816622e+03
-1.157705186704649e+03  2.561113819985409e+02 -2.918975276816622e+03
-1.157431846826253e+03  2.547841228337869e+02 -2.918975276816622e+03
-1.157220149680656e+03  2.527966577531294e+02 -2.918975276816622e+03
-1.157352737094298e+03  2.508462931110807e+02 -2.918975276816622e+03
-1.157296753310978e+03  2.498963177827619e+02 -2.918975276816622e+03
-1.157201648072892e+03  2.482738971514630e+02 -2.918975276816622e+03
-1.157494548039099e+03  2.464597633665704e+02 -2.918975276816622e+03
-1.157701663287736e+03  2.451432141054268e+02 -2.918975276816622e+03
-1.157377927141580e+03  2.437981761392938e+02 -2.918975276816622e+03
-1.156974171366782e+03  2.419816032339053e+02 -2.918975276816622e+03
-1.156924059348019e+03  2.403515250431661e+02 -2.918975276816622e+03
-1.157149209382571e+03  2.391604710320519e+02 -2.918975276816622e+03
-1.157471577766108e+03  2.377727236869384e+02 -2.918975276816622e+03
-1.157816152568877e+03  2.370953620057642e+02 -2.918975276816622e+03
-1.157569836164713e+03  2.360738978206168e+02 -2.918975276816622e+03
-1.157014045498986e+03  2.349613667148699e+02 -2.918975276816622e+03
-1.157417188972762e+03  2.345318566013848e+02 -2.918975276816622e+03
-1.158044916519420e+03  2.337565811216189e+02 -2.918975276816622e+03
-1.157921019868699e+03  2.324608762224645e+02 -2.918975276816622e+03
-1.157496359627791e+03  2.309196401237535e+02 -2.918975276816622e+03
-1.157195667812045e+03  2.297199991247430e+02 -2.918975276816622e+03
-1.157153262498451e+03  2.281800398793374e+02 -2.918975276816622e+03
-1.157465517827001e+03  2.264949438942416e+02 -2.918975276816622e+03
-1.157685978511815e+03  2.251692048665860e+02 -2.918975276816622e+03
-1.157364207930391e+03  2.238349607899402e+02 -2.918975276816622e+03
-1.156965871310974e+03  2.220143457857772e+02 -2.918975276816622e+03
-1.156919574564523e+03  2.203841346261592e+02 -2.918975276816622e+03
-1.157145795153747e+03  2.191919019167812e+02 -2.918975276816622e+03
-1.157468633852739e+03  2.178012121324405e+02 -2.918975276816622e+03
-1.157823302750436e+03  2.171221432904084e+02 -2.918975276816622e+03
-1.157578988925211e+03  2.161035871033481e+02 -2.918975276816622e+03
-1.157015610539827e+03  2.149931951296683e+02 -2.918975276816622e+03
-1.157415358284913e+03  2.145611301829005e+02 -2.918975276816622e+03
-1.158039560150940e+03  2.137822112383466e+02 -2.918975276816622e+03
-1.157915726106351e+03  2.124864424780786e+02 -2.918975276816622e+03
-1.157493880568737e+03  2.109492585822817e+02 -2.918975276816622e+03
-1.157194654911800e+03  2.097516659244440e+02 -2.918975276816622e+03
-1.157152022060048e+03  2.082113526352706e+02 -2.918975276816622e+03
-1.157464493914400e+03  2.065264188688323e+02 -2.918975276816622e+03
-1.157685439967036e+03  2.052004353213208e+02 -2.918975276816622e+03
-1.157363964782492e+03  2.038662156152104e+02 -2.918975276816622e+03
-1.156965412500274e+03  2.020464547666658e+02 -2.918975276816622e+03
-1.156918663890010e+03  2.004158152780846e+02 -2.918975276816622e+03
-1.157144198459377e+03  1.992238635019210e+02 -2.918975276816622e+03
-1.157461083894003e+03  1.978346962994580e+02 -2.918975276816622e+03
-1.157789337207545e+03  1.971651608331314e+02 -2.918975276816622e+03
-1.157546992094787e+03  1.961464287551491e+02 -2.918975276816622e+03
-1.157009336118632e+03  1.950251197747519e+02 -2.918975276816622e+03
-1.157412844351150e+03  1.945905902461493e+02 -2.918975276816622e+03
-1.158037040094064e+03  1.938094637495809e+02 -2.918975276816622e+03
-1.157913325925750e+03  1.925143222123783e+02 -2.918975276816622e+03
-1.157493015782009e+03  1.909796583580406e+02 -2.918975276816622e+03
-1.157194483677555e+03  1.897830000901691e+02 -2.918975276816622e+03
-1.157151744832331e+03  1.882434493319747e+02 -2.918975276816622e+03
-1.157463323655742e+03  1.865576671523874e+02 -2.918975276816622e+03
-1.157683578568559e+03  1.852327490222002e+02 -2.918975276816622e+03
-1.157362263170462e+03  1.838988589275793e+02 -2.918975276816622e+03
-1.156964426850405e+03  1.820776044251548e+02 -2.918975276816622e+03
-1.156917907820070e+03  1.804484416322010e+02 -2.918975276816622e+03
-1.157110499484107e+03  1.792686472733102e+02 -2.918975276816622e+03
-1.157439521622199e+03  1.778747071277082e+02 -2.918975276816622e+03
-1.157851143940909e+03  1.771719123019056e+02 -2.918975276816622e+03
-1.157603273887051e+03  1.761546601381981e+02 -2.918975276816622e+03
-1.157017374733351e+03  1.750572870528177e+02 -2.918975276816622e+03
-1.157417417824908e+03  1.746274730357802e+02 -2.918975276816622e+03
-1.158042795456721e+03  1.738483899833076e+02 -2.918975276816622e+03
-1.157917316921351e+03  1.725526155346981e+02 -2.918975276816622e+03
-1.157493699262741e+03  1.710140548517434e+02 -2.918975276816622e+03
-1.157193358603883e+03  1.698155285091129e+02 -2.918975276816622e+03
-1.157150714840604e+03  1.682746570874789e+02 -2.918975276816622e+03
-1.157463692801862e+03  1.665898585042610e+02 -2.918975276816622e+03
-1.157684849865331e+03  1.652641363333572e+02 -2.918975276816622e+03
-1.157363376555952e+03  1.639293219669179e+02 -2.918975276816622e+03
-1.156964927461396e+03  1.621098556642693e+02 -2.918975276816622e+03
-1.156918296593073e+03  1.604801365122932e+02 -2.918975276816622e+03
-1.157144228984948e+03  1.592872204853163e+02 -2.918975276816622e+03
-1.157466412534262e+03  1.578963753841069e+02 -2.918975276816622e+03
-1.157818112735376e+03  1.572188281220807e+02 -2.918975276816622e+03
-1.157574139436317e+03  1.562002474799311e+02 -2.918975276816622e+03
-1.157014178356656e+03  1.550880375503782e+02 -2.918975276816622e+03
-1.157412419117090e+03  1.546545905506802e+02 -2.918975276816622e+03
-1.158034223280445e+03  1.538730604611512e+02 -2.918975276816622e+03
-1.157911154012613e+03  1.525768163661375e+02 -2.918975276816622e+03
-1.157491310733770e+03  1.510426690117816e+02 -2.918975276816622e+03
-1.157193596968740e+03  1.498464975977456e+02 -2.918975276816622e+03
-1.157151330222951e+03  1.483061609794364e+02 -2.918975276816622e+03
-1.157463608764942e+03  1.466219970483913e+02 -2.918975276816622e+03
-1.157684199274377e+03  1.452966648471579e+02 -2.918975276816622e+03
-1.157362394974358e+03  1.439617124795357e+02 -2.918975276816622e+03
-1.156964269033150e+03  1.421414110261671e+02 -2.918975276816622e+03
-1.156917994257751e+03  1.405119911590082e+02 -2.918975276816622e+03
-1.157144348818234e+03  1.393190379059776e+02 -2.918975276816622e+03
-1.157469365883542e+03  1.379271917939205e+02 -2.918975276816622e+03
-1.157831102084553e+03  1.372448656228306e+02 -2.918975276816622e+03
-1.157584463423224e+03  1.362261657265933e+02 -2.918975276816622e+03
-1.157013402951799e+03  1.351209148981353e+02 -2.918975276816622e+03
-1.157416161603486e+03  1.346898509107122e+02 -2.918975276816622e+03
-1.158042093925436e+03  1.339095598500462e+02 -2.918975276816622e+03
-1.157916298315957e+03  1.326145201929032e+02 -2.918975276816622e+03
-1.157493336037989e+03  1.310770157235326e+02 -2.918975276816622e+03
-1.157193182747774e+03  1.298787173869739e+02 -2.918975276816622e+03
-1.157150529256911e+03  1.283387985212592e+02 -2.918975276816622e+03
-1.157463106969869e+03  1.266531574750272e+02 -2.918975276816622e+03
-1.157683956349330e+03  1.253273373978903e+02 -2.918975276816622e+03
-1.157362647183952e+03  1.239933125099459e+02 -2.918975276816622e+03
-1.156964033041638e+03  1.221732028705629e+02 -2.918975276816622e+03
-1.156917292432938e+03  1.205433866900216e+02 -2.918975276816622e+03
-1.157143197541431e+03  1.193504654239998e+02 -2.918975276816622e+03
-1.157466375048686e+03  1.179586222292598e+02 -2.918975276816622e+03
-1.157824372396940e+03  1.172786247097762e+02 -2.918975276816622e+03
-1.157579181115595e+03  1.162606856701466e+02 -2.918975276816622e+03
-1.157012230080442e+03  1.151528211944168e+02 -2.918975276816622e+03
-1.157414890910104e+03  1.147195184261011e+02 -2.918975276816622e+03
-1.158039096658503e+03  1.139356491981630e+02 -2.918975276816622e+03
-1.157912581647854e+03  1.126408049223797e+02 -2.918975276816622e+03
-1.157491366639573e+03  1.111076154516971e+02 -2.918975276816622e+03
-1.157192830096664e+03  1.099100373701719e+02 -2.918975276816622e+03
-1.157151789521832e+03  1.083703027937405e+02 -2.918975276816622e+03
-1.157464613970174e+03  1.066865526591541e+02 -2.918975276816622e+03
-1.157685994397920e+03  1.053612426284943e+02 -2.918975276816622e+03
-1.157363171331255e+03  1.040232881055949e+02 -2.918975276816622e+03
-1.156971610504960e+03  1.022122073244786e+02 -2.918975276816622e+03
-1.156930581145367e+03  1.005919665121694e+02 -2.918975276816622e+03
-1.157160765237877e+03  9.942284602910635e+01 -2.918975276816622e+03
-1.157434789843034e+03  9.801403807566952e+01 -2.918975276816622e+03
-1.157114727262489e+03  9.718938248243556e+01 -2.918975276816622e+03
-1.156890553482761e+03  9.657456516948352e+01 -2.918975276816622e+03
-1.156952130359813e+03  9.563764694404902e+01 -2.918975276816622e+03
-1.156816340935791e+03  9.331932418971145e+01 -2.918975276816622e+03
-1.157098394303849e+03  9.081379245495279e+01 -2.918975276816622e+03
-1.157315301477976e+03  9.007758583826200e+01 -2.918975276816622e+03
-1.157387686496409e+03  8.939847832795013e+01 -2.918975276816622e+03
-1.157349597654451e+03  8.849539276721389e+01 -2.918975276816622e+03
-1.157303385312971e+03  8.735277221786727e+01 -2.918975276816622e+03
-1.157213356669373e+03  8.603396007733750e+01 -2.918975276816622e+03
-1.157106936148216e+03  8.544155161448226e+01 -2.918975276816622e+03
-1.157797245649530e+03  8.459640875761242e+01 -2.918975276816622e+03
-1.157875414517787e+03  8.336939720783242e+01 -2.918975276816622e+03
-1.157174011641185e+03  8.210943707865930e+01 -2.918975276816622e+03
-1.156463758335283e+03  8.036256356140834e+01 -2.918975276816622e+03
-1.156865009466485e+03  7.866038863411505e+01 -2.918975276816622e+03
-1.157758699662764e+03  7.700842998567538e+01 -2.918975276816622e+03
-1.157615347612081e+03  7.565624524113738e+01 -2.918975276816622e+03
-1.157248967755434e+03  7.433387612431510e+01 -2.918975276816622e+03
-1.156852379070240e+03  7.264211889076508e+01 -2.918975276816622e+03
-1.156655610486559e+03  7.139351337419309e+01 -2.918975276816622e+03
-1.156372991836463e+03  6.975415116432514e+01 -2.918975276816622e+03
-1.156612493358527e+03  6.886747680423819e+01 -2.918975276816622e+03
-1.157147223280137e+03  6.865826432522057e+01 -2.918975276816622e+03
-1.156950106981372e+03  6.783414110514587e+01 -2.918975276816622e+03
-1.156781075785301e+03  6.655410416927532e+01 -2.918975276816622e+03
-1.156979376687517e+03  6.395338050395188e+01 -2.918975276816622e+03
-1.157253018358008e+03  6.178420823664247e+01 -2.918975276816622e+03
-1.157432208815270e+03  6.073639677281005e+01 -2.918975276816622e+03
-1.157359961696603e+03  5.877802660500073e+01 -2.918975276816622e+03
-1.157641650736194e+03  5.702559844347417e+01 -2.918975276816622e+03
-1.157705051886393e+03  5.628417669603475e+01 -2.918975276816622e+03
-1.157200639828628e+03  5.536270633229768e+01 -2.918975276816622e+03
-1.156835569699323e+03  5.377618939650226e+01 -2.918975276816622e+03
-1.156991842971621e+03  5.198176500809890e+01 -2.918975276816622e+03
-1.157824755853921e+03  5.073909235710263e+01 -2.918975276816622e+03
-1.157358055179400e+03  5.012384863582954e+01 -2.918975276816622e+03
-1.156676089286837e+03  4.973552576089674e+01 -2.918975276816622e+03
-1.156995880926732e+03  4.868975004119957e+01 -2.918975276816622e+03
-1.157283359331715e+03  4.733095895841345e+01 -2.918975276816622e+03
-1.157259986825083e+03  4.654421092487345e+01 -2.918975276816622e+03
-1.156919044521172e+03  4.570543415946725e+01 -2.918975276816622e+03
-1.157025405869255e+03  4.466557859408064e+01 -2.918975276816622e+03
-1.157129954744836e+03  4.341873582526046e+01 -2.918975276816622e+03
-1.156511721896609e+03  4.230171852010965e+01 -2.918975276816622e+03
-1.155895902344032e+03  4.138318495682491e+01 -2.918975276816622e+03
-1.156111033592544e+03  4.040244884550071e+01 -2.918975276816622e+03
-1.156195955501544e+03  3.945047229285920e+01 -2.918975276816622e+03
-1.155687733155906e+03  3.741487623172490e+01 -2.918975276816622e+03
-1.155710284919311e+03  3.567672924424749e+01 -2.918975276816622e+03
-1.156569495396804e+03  3.513481003670080e+01 -2.918975276816622e+03
-1.157083285815747e+03  3.393086528300009e+01 -2.918975276816622e+03
-1.156546105241911e+03  3.260727990647750e+01 -2.918975276816622e+03
-1.155663677025987e+03  3.200404711476521e+01 -2.918975276816622e+03
-1.155685912380093e+03  3.143646050456232e+01 -2.918975276816622e+03
-1.155818689916238e+03  2.988229317033372e+01 -2.918975276816622e+03
-1.156654156945905e+03  2.857931810198818e+01 -2.918975276816622e+03
-1.157933570275664e+03  2.848386247117779e+01 -2.918975276816622e+03
-1.157689763989984e+03  2.768385257258971e+01 -2.918975276816622e+03
-1.156988672357939e+03  2.607169231340061e+01 -2.918975276816622e+03
-1.157148856571335e+03  2.515326948772579e+01 -2.918975276816622e+03
-1.157607262611100e+03  2.453319808843168e+01 -2.918975276816622e+03
-1.157545764310134e+03  2.332992782971479e+01 -2.918975276816622e+03
-1.158163180700910e+03  2.240576182704048e+01 -2.918975276816622e+03
-1.158545751661143e+03  2.130998663732345e+01 -2.918975276816622e+03
-1.157787603297669e+03  2.001755789223428e+01 -2.918975276816622e+03
-1.157311584270542e+03  1.862535122930845e+01 -2.918975276816622e+03
-1.157325538450438e+03  1.744545444213410e+01 -2.918975276816622e+03
-1.157522634263608e+03  1.629370129480491e+01 -2.918975276816622e+03
-1.157855936856570e+03  1.499114041023867e+01 -2.918975276816622e+03
-1.158178598863817e+03  1.399442319229847e+01 -2.918975276816622e+03
-1.157908622182056e+03  1.269494841330404e+01 -2.918975276816622e+03
-1.157445481933429e+03  1.086808191269095e+01 -2.918975276816622e+03
-1.157300317217075e+03  8.703158960165723e+00 -2.918975276816622e+03
-1.157250496374958e+03  7.045854919832864e+00 -2.918975276816622e+03
-1.157349100915181e+03  5.855188238122927e+00 -2.918975276816622e+03
-1.157375432148892e+03  4.209924665122876e+00 -2.918975276816622e+03
-1.157581848702806e+03  2.791136468865205e+00 -2.918975276816622e+03
 1.154654776221559e+03 -1.345093785038304e+00  2.918975276816622e+03
1.155006401937598e+03 3.977993017207575e-01 2.918975276816622e+03
 1.153995395117858e+03 -2.664743554440624e+00  2.918975276816622e+03
 1.154133268894994e+03 -4.117901887864007e+00  2.918975276816622e+03
 1.154321262535369e+03 -5.935337672776265e+00  2.918975276816622e+03
 1.153831325762324e+03 -7.371234384040580e+00  2.918975276816622e+03
 1.153939583714873e+03 -8.588059238707746e+00  2.918975276816622e+03
 1.154632279205248e+03 -1.042051768077996e+01  2.918975276816622e+03
 1.154808517153230e+03 -1.196550802070659e+01  2.918975276816622e+03
 1.154650265928318e+03 -1.297218879171760e+01  2.918975276816622e+03
 1.154739870702647e+03 -1.408184483794055e+01  2.918975276816622e+03
 1.154473929996419e+03 -1.474398747705350e+01  2.918975276816622e+03
 1.154008983813294e+03 -1.570001583661550e+01  2.918975276816622e+03
 1.153150007315489e+03 -1.827379614875114e+01  2.918975276816622e+03
 1.152413490099197e+03 -2.050553002257092e+01  2.918975276816622e+03
 1.153063932495272e+03 -2.154693351752794e+01  2.918975276816622e+03
 1.153984655467030e+03 -2.287225042608200e+01  2.918975276816622e+03
 1.154585305205007e+03 -2.466498880551196e+01  2.918975276816622e+03
 1.154720231683819e+03 -2.543840871148636e+01  2.918975276816622e+03
 1.154309789023281e+03 -2.627828471468792e+01  2.918975276816622e+03
 1.154069988459458e+03 -2.721434388646667e+01  2.918975276816622e+03
 1.153301625677694e+03 -2.809604219390327e+01  2.918975276816622e+03
 1.152918233439113e+03 -2.941247148961398e+01  2.918975276816622e+03
 1.152902158929410e+03 -3.129162592633105e+01  2.918975276816622e+03
 1.152082288091455e+03 -3.274157428548003e+01  2.918975276816622e+03
 1.152133286019684e+03 -3.394033817288108e+01  2.918975276816622e+03
 1.152902681263002e+03 -3.544902716160320e+01  2.918975276816622e+03
 1.152332922112700e+03 -3.628377360611506e+01  2.918975276816622e+03
 1.152345006081661e+03 -3.734063542907381e+01  2.918975276816622e+03
 1.153017156923559e+03 -3.850439594828384e+01  2.918975276816622e+03
 1.152547360979127e+03 -3.900743041833029e+01  2.918975276816622e+03
 1.152763746777145e+03 -3.989648344687070e+01  2.918975276816622e+03
 1.153596399129832e+03 -4.143261105702507e+01  2.918975276816622e+03
 1.153713228345498e+03 -4.229448325535699e+01  2.918975276816622e+03
 1.153674897839548e+03 -4.325059851321218e+01  2.918975276816622e+03
 1.153609462357148e+03 -4.442737394930523e+01  2.918975276816622e+03
 1.153842901640962e+03 -4.554871661440421e+01  2.918975276816622e+03
 1.154340045602137e+03 -4.665301572530001e+01  2.918975276816622e+03
 1.154320876161109e+03 -4.763636944875527e+01  2.918975276816622e+03
 1.153821273591071e+03 -4.869381372348717e+01  2.918975276816622e+03
 1.153450338856853e+03 -4.957937233376273e+01  2.918975276816622e+03
 1.152621102645329e+03 -5.090578599402004e+01  2.918975276816622e+03
 1.152399510754834e+03 -5.196863995451840e+01  2.918975276816622e+03
 1.152934820613771e+03 -5.243406561136290e+01  2.918975276816622e+03
 1.152332045214057e+03 -5.308471083417479e+01  2.918975276816622e+03
 1.152269894082463e+03 -5.417135036774710e+01  2.918975276816622e+03
 1.152912931855226e+03 -5.537911540216221e+01  2.918975276816622e+03
 1.152281092328769e+03 -5.618622119389436e+01  2.918975276816622e+03
 1.152285266625003e+03 -5.728664117484039e+01  2.918975276816622e+03
 1.153013305297249e+03 -5.849463785353451e+01  2.918975276816622e+03
 1.152522487037557e+03 -5.898356774408896e+01  2.918975276816622e+03
 1.152723751655546e+03 -5.987797557962119e+01  2.918975276816622e+03
 1.153583699693063e+03 -6.140793401057169e+01  2.918975276816622e+03
 1.153710789997594e+03 -6.227261828402214e+01  2.918975276816622e+03
 1.153673718881588e+03 -6.322486289357461e+01  2.918975276816622e+03
 1.153607755863031e+03 -6.439353828914581e+01  2.918975276816622e+03
 1.153845489063802e+03 -6.551474056589662e+01  2.918975276816622e+03
 1.154345230686050e+03 -6.661574463073509e+01  2.918975276816622e+03
 1.154324754570549e+03 -6.759154792944868e+01  2.918975276816622e+03
 1.153813832723166e+03 -6.865180223933302e+01  2.918975276816622e+03
 1.153419747636868e+03 -6.953912036616420e+01  2.918975276816622e+03
 1.152569669224756e+03 -7.084864265032897e+01  2.918975276816622e+03
 1.152368887016984e+03 -7.192215278161034e+01  2.918975276816622e+03
 1.152931325189250e+03 -7.239943397017308e+01  2.918975276816622e+03
 1.152311858003340e+03 -7.304718099900393e+01  2.918975276816622e+03
 1.152245755991557e+03 -7.414806008306532e+01  2.918975276816622e+03
 1.152903933027399e+03 -7.534936487431519e+01  2.918975276816622e+03
 1.152265974010394e+03 -7.614607471844926e+01  2.918975276816622e+03
 1.152269264971185e+03 -7.725753488995569e+01  2.918975276816622e+03
 1.153010559022823e+03 -7.846507794659659e+01  2.918975276816622e+03
 1.152515929620217e+03 -7.894764907161083e+01  2.918975276816622e+03
 1.152713831564088e+03 -7.984707043819701e+01  2.918975276816622e+03
 1.153580129999252e+03 -8.137845001312023e+01  2.918975276816622e+03
 1.153708103696380e+03 -8.224435755739059e+01  2.918975276816622e+03
 1.153671456787257e+03 -8.319429581844106e+01  2.918975276816622e+03
 1.153608273016360e+03 -8.435855391792035e+01  2.918975276816622e+03
 1.153849656477145e+03 -8.548503653851469e+01  2.918975276816622e+03
 1.154347930305130e+03 -8.658724472346188e+01  2.918975276816622e+03
 1.154324531507226e+03 -8.756068317326201e+01  2.918975276816622e+03
 1.153815325815573e+03 -8.862044523791479e+01  2.918975276816622e+03
 1.153423328858353e+03 -8.950680750045333e+01  2.918975276816622e+03
 1.152574146818146e+03 -9.082109676001910e+01  2.918975276816622e+03
 1.152370993232127e+03 -9.189597039436539e+01  2.918975276816622e+03
 1.152931306217743e+03 -9.236878681004356e+01  2.918975276816622e+03
 1.152313797587471e+03 -9.300937576014724e+01  2.918975276816622e+03
 1.152248043175426e+03 -9.410964494285120e+01  2.918975276816622e+03
 1.152905495838237e+03 -9.531738866918862e+01  2.918975276816622e+03
 1.152269968419637e+03 -9.611389684827265e+01  2.918975276816622e+03
 1.152275368001771e+03 -9.722338892824447e+01  2.918975276816622e+03
 1.153015351159801e+03 -9.843243244355850e+01  2.918975276816622e+03
 1.152512191991355e+03 -9.892475924004620e+01  2.918975276816622e+03
 1.152706653846945e+03 -9.982476137854528e+01  2.918975276816622e+03
 1.153576417922147e+03 -1.013465155102369e+02  2.918975276816622e+03
 1.153705734835440e+03 -1.022107100436217e+02  2.918975276816622e+03
 1.153672752880996e+03 -1.031640781669433e+02  2.918975276816622e+03
 1.153611151957221e+03 -1.043306614551596e+02  2.918975276816622e+03
 1.153848739920805e+03 -1.054534848503057e+02  2.918975276816622e+03
 1.154345027722909e+03 -1.065550616810218e+02  2.918975276816622e+03
 1.154323520606881e+03 -1.075313503948658e+02  2.918975276816622e+03
 1.153815361434193e+03 -1.085905570560521e+02  2.918975276816622e+03
 1.153423783668863e+03 -1.094751374361883e+02  2.918975276816622e+03
 1.152573967406079e+03 -1.107877334487594e+02  2.918975276816622e+03
 1.152370506133054e+03 -1.118624724289311e+02  2.918975276816622e+03
 1.152931005585912e+03 -1.123358834767494e+02  2.918975276816622e+03
 1.152310202948380e+03 -1.129816247423937e+02  2.918975276816622e+03
 1.152244511501291e+03 -1.140841732127873e+02  2.918975276816622e+03
 1.152904588195665e+03 -1.152861632929101e+02  2.918975276816622e+03
 1.152265501430824e+03 -1.160834859814477e+02  2.918975276816622e+03
 1.152268338607247e+03 -1.171958448381142e+02  2.918975276816622e+03
 1.153010801849397e+03 -1.184011358372301e+02  2.918975276816622e+03
 1.152515352764724e+03 -1.188825464038019e+02  2.918975276816622e+03
 1.152713524346279e+03 -1.197830505370520e+02  2.918975276816622e+03
 1.153582548949235e+03 -1.213158328707792e+02  2.918975276816622e+03
 1.153712448756507e+03 -1.221801814308626e+02  2.918975276816622e+03
 1.153675217505711e+03 -1.231309576497646e+02  2.918975276816622e+03
 1.153609925877748e+03 -1.242985745496941e+02  2.918975276816622e+03
 1.153848426172451e+03 -1.254222319757683e+02  2.918975276816622e+03
 1.154346665783587e+03 -1.265236237930569e+02  2.918975276816622e+03
 1.154324971891906e+03 -1.274978789989807e+02  2.918975276816622e+03
 1.153815307573224e+03 -1.285570531671848e+02  2.918975276816622e+03
 1.153422131888354e+03 -1.294438854507085e+02  2.918975276816622e+03
 1.152572914643074e+03 -1.307562089142248e+02  2.918975276816622e+03
 1.152371355883601e+03 -1.318302252019032e+02  2.918975276816622e+03
 1.152932151326962e+03 -1.323043007103905e+02  2.918975276816622e+03
 1.152312060321055e+03 -1.329517283772453e+02  2.918975276816622e+03
 1.152246868377515e+03 -1.340533066679012e+02  2.918975276816622e+03
 1.152906579637393e+03 -1.352551016625816e+02  2.918975276816622e+03
 1.152268957529515e+03 -1.360550914882062e+02  2.918975276816622e+03
 1.152271786953493e+03 -1.371651505325600e+02  2.918975276816622e+03
 1.153011123055330e+03 -1.383712187647477e+02  2.918975276816622e+03
 1.152524535632808e+03 -1.388504968062886e+02  2.918975276816622e+03
 1.152726299235828e+03 -1.397455704826787e+02  2.918975276816622e+03
 1.153585533940123e+03 -1.412804037993165e+02  2.918975276816622e+03
 1.153711220240872e+03 -1.421460544864763e+02  2.918975276816622e+03
 1.153675593730688e+03 -1.430986496268931e+02  2.918975276816622e+03
 1.153612649600664e+03 -1.442674338899806e+02  2.918975276816622e+03
 1.153851240185871e+03 -1.453896969038350e+02  2.918975276816622e+03
 1.154349767223120e+03 -1.464898204245565e+02  2.918975276816622e+03
 1.154327463232952e+03 -1.474632620558847e+02  2.918975276816622e+03
 1.153817284659423e+03 -1.485230854056046e+02  2.918975276816622e+03
 1.153424452748892e+03 -1.494117707099423e+02  2.918975276816622e+03
 1.152576083821901e+03 -1.507267465702454e+02  2.918975276816622e+03
 1.152373343182020e+03 -1.518009058643928e+02  2.918975276816622e+03
 1.152932228922444e+03 -1.522723380704930e+02  2.918975276816622e+03
 1.152310482344615e+03 -1.529199037966024e+02  2.918975276816622e+03
 1.152244951016055e+03 -1.540227828188572e+02  2.918975276816622e+03
 1.152905451401822e+03 -1.552231184387990e+02  2.918975276816622e+03
 1.152265369932860e+03 -1.560235008853764e+02  2.918975276816622e+03
 1.152267262221764e+03 -1.571359750877295e+02  2.918975276816622e+03
 1.153009073068407e+03 -1.583413190667502e+02  2.918975276816622e+03
 1.152528415355045e+03 -1.588134606573810e+02  2.918975276816622e+03
 1.152731704964562e+03 -1.597071298842992e+02  2.918975276816622e+03
 1.153586721897750e+03 -1.612478559095278e+02  2.918975276816622e+03
 1.153710130334046e+03 -1.621170821706119e+02  2.918975276816622e+03
 1.153673621376595e+03 -1.630672376145152e+02  2.918975276816622e+03
 1.153612556478781e+03 -1.642318232099345e+02  2.918975276816622e+03
 1.153854532198533e+03 -1.653595990059567e+02  2.918975276816622e+03
 1.154351550154704e+03 -1.664614966116739e+02  2.918975276816622e+03
 1.154326538146135e+03 -1.674332350745084e+02  2.918975276816622e+03
 1.153818235768533e+03 -1.684926464469638e+02  2.918975276816622e+03
 1.153427606617515e+03 -1.693797951878450e+02  2.918975276816622e+03
 1.152580005200638e+03 -1.706973198580003e+02  2.918975276816622e+03
 1.152374963432973e+03 -1.717721062876335e+02  2.918975276816622e+03
 1.152932045607924e+03 -1.722409708264142e+02  2.918975276816622e+03
 1.152310972282120e+03 -1.728855091662145e+02  2.918975276816622e+03
 1.152246017286062e+03 -1.739885164025575e+02  2.918975276816622e+03
 1.152906909886379e+03 -1.751912853502933e+02  2.918975276816622e+03
 1.152266658200667e+03 -1.759927682234431e+02  2.918975276816622e+03
 1.152268832977747e+03 -1.771050767501773e+02  2.918975276816622e+03
 1.153010810949969e+03 -1.783081722315030e+02  2.918975276816622e+03
 1.152524272917391e+03 -1.787840579617603e+02  2.918975276816622e+03
 1.152726133031787e+03 -1.796797969733227e+02  2.918975276816622e+03
 1.153586546400663e+03 -1.812174735311679e+02  2.918975276816622e+03
 1.153713816155798e+03 -1.820836661698667e+02  2.918975276816622e+03
 1.153678044383389e+03 -1.830359044011710e+02  2.918975276816622e+03
 1.153613511024517e+03 -1.842053326705905e+02  2.918975276816622e+03
 1.153848997695670e+03 -1.853274721664677e+02  2.918975276816622e+03
 1.154345788741559e+03 -1.864287515653613e+02  2.918975276816622e+03
 1.154325045373200e+03 -1.874038548884347e+02  2.918975276816622e+03
 1.153814835153747e+03 -1.884629957747539e+02  2.918975276816622e+03
 1.153420441292714e+03 -1.893487362668424e+02  2.918975276816622e+03
 1.152569971419063e+03 -1.906586423049695e+02  2.918975276816622e+03
 1.152370558739696e+03 -1.917330017611258e+02  2.918975276816622e+03
 1.152933534518950e+03 -1.922085853306881e+02  2.918975276816622e+03
 1.152311499550033e+03 -1.928583288383342e+02  2.918975276816622e+03
 1.152245460646577e+03 -1.939607150043703e+02  2.918975276816622e+03
 1.152905537507220e+03 -1.951591227855264e+02  2.918975276816622e+03
 1.152265414217416e+03 -1.959598009818534e+02  2.918975276816622e+03
 1.152267785853194e+03 -1.970727842342294e+02  2.918975276816622e+03
 1.153010058925539e+03 -1.982785450039432e+02  2.918975276816622e+03
 1.152530760677095e+03 -1.987501455232793e+02  2.918975276816622e+03
 1.152734454142124e+03 -1.996426271220970e+02  2.918975276816622e+03
 1.153587570028352e+03 -2.011835044297052e+02  2.918975276816622e+03
 1.153710127051585e+03 -2.020535069175538e+02  2.918975276816622e+03
 1.153674739175505e+03 -2.030042722059775e+02  2.918975276816622e+03
 1.153614802709506e+03 -2.041688535507479e+02  2.918975276816622e+03
 1.153856625742917e+03 -2.052967335042624e+02  2.918975276816622e+03
 1.154352558564703e+03 -2.063985976455029e+02  2.918975276816622e+03
 1.154326369965336e+03 -2.073704829550184e+02  2.918975276816622e+03
 1.153817370462233e+03 -2.084302209448147e+02  2.918975276816622e+03
 1.153425452916676e+03 -2.093162312978846e+02  2.918975276816622e+03
 1.152576159104103e+03 -2.106299941115696e+02  2.918975276816622e+03
 1.152373337003677e+03 -2.117045345088656e+02  2.918975276816622e+03
 1.152933468723774e+03 -2.121775027441595e+02  2.918975276816622e+03
 1.152313530972643e+03 -2.128234027059620e+02  2.918975276816622e+03
 1.152248269623045e+03 -2.139250265280383e+02  2.918975276816622e+03
 1.152907761814199e+03 -2.151274682185598e+02  2.918975276816622e+03
 1.152269368843487e+03 -2.159272953151740e+02  2.918975276816622e+03
 1.152272389740502e+03 -2.170384737554044e+02  2.918975276816622e+03
 1.153013077329270e+03 -2.182445590274172e+02  2.918975276816622e+03
 1.152525443741365e+03 -2.187236546474472e+02  2.918975276816622e+03
 1.152726866389059e+03 -2.196190279500115e+02  2.918975276816622e+03
 1.153587172577107e+03 -2.211532986755950e+02  2.918975276816622e+03
 1.153713285905626e+03 -2.220182670241119e+02  2.918975276816622e+03
 1.153679732436661e+03 -2.229724039468547e+02  2.918975276816622e+03
 1.153617670753281e+03 -2.241428284244891e+02  2.918975276816622e+03
 1.153854672634044e+03 -2.252629465608692e+02  2.918975276816622e+03
 1.154352153008463e+03 -2.263621790069828e+02  2.918975276816622e+03
 1.154329257190721e+03 -2.273369030062291e+02  2.918975276816622e+03
 1.153821468052969e+03 -2.283973201913821e+02  2.918975276816622e+03
 1.153438050797741e+03 -2.292906496348935e+02  2.918975276816622e+03
 1.152602160380709e+03 -2.306042205522724e+02  2.918975276816622e+03
 1.152392059247135e+03 -2.316667436786726e+02  2.918975276816622e+03
 1.152940466674076e+03 -2.321487344545307e+02  2.918975276816622e+03
 1.152342174385583e+03 -2.328030478948482e+02  2.918975276816622e+03
 1.152280848350787e+03 -2.338854907590685e+02  2.918975276816622e+03
 1.152921420302540e+03 -2.350961193258160e+02  2.918975276816622e+03
 1.152300077477247e+03 -2.359046548009339e+02  2.918975276816622e+03
 1.152304819822944e+03 -2.369943034234512e+02  2.918975276816622e+03
 1.153016979086276e+03 -2.382196797265946e+02  2.918975276816622e+03
 1.152574465893282e+03 -2.386982154642272e+02  2.918975276816622e+03
 1.152796528190034e+03 -2.395652089905781e+02  2.918975276816622e+03
 1.153618437814497e+03 -2.411081331972047e+02  2.918975276816622e+03
 1.153737287676901e+03 -2.419809853785828e+02  2.918975276816622e+03
 1.153712016193587e+03 -2.429460607603645e+02  2.918975276816622e+03
 1.153653284663884e+03 -2.441218056111532e+02  2.918975276816622e+03
 1.153889151394238e+03 -2.452280794356830e+02  2.918975276816622e+03
 1.154374339263904e+03 -2.463301929183487e+02  2.918975276816622e+03
 1.154357089287119e+03 -2.473507060542587e+02  2.918975276816622e+03
 1.154045501716696e+03 -2.483595603555622e+02  2.918975276816622e+03
 1.154089987147491e+03 -2.493695045324880e+02  2.918975276816622e+03
 1.154212576991206e+03 -2.502175194656391e+02  2.918975276816622e+03
 1.154185778657294e+03 -2.508207983289493e+02  2.918975276816622e+03
 1.154039089245163e+03 -2.519485039284919e+02  2.918975276816622e+03
 1.153887641898221e+03 -2.529153343668432e+02  2.918975276816622e+03
 1.153812296834399e+03 -2.538736974600095e+02  2.918975276816622e+03
 1.153731507771357e+03 -2.551044918982583e+02  2.918975276816622e+03
 1.153917898093873e+03 -2.562245494046238e+02  2.918975276816622e+03
 1.154378325590690e+03 -2.573090846304194e+02  2.918975276816622e+03
 1.154338786217192e+03 -2.582867664667626e+02  2.918975276816622e+03
 1.153846897892250e+03 -2.593486256777690e+02  2.918975276816622e+03
 1.153511220925540e+03 -2.602548812273895e+02  2.918975276816622e+03
 1.152720205261253e+03 -2.616017870695144e+02  2.918975276816622e+03
 1.152461065545446e+03 -2.626347833795607e+02  2.918975276816622e+03
 1.152948986629006e+03 -2.631127484594311e+02  2.918975276816622e+03
 1.152422972047554e+03 -2.637982537613656e+02  2.918975276816622e+03
 1.152373161758866e+03 -2.648226726697317e+02  2.918975276816622e+03
 1.152922173555774e+03 -2.660211878333478e+02  2.918975276816622e+03
 1.152205448839641e+03 -2.668620467861622e+02  2.918975276816622e+03
 1.152413740467966e+03 -2.679437551563456e+02  2.918975276816622e+03
 1.153529724025973e+03 -2.691925665775716e+02  2.918975276816622e+03
 1.153867909584216e+03 -2.698680316887358e+02  2.918975276816622e+03
 1.153883470332388e+03 -2.708210136585541e+02  2.918975276816622e+03
 1.153796188204184e+03 -2.720118263866920e+02  2.918975276816622e+03
 1.154653437634838e+03 -2.725175125625200e+02  2.918975276816622e+03
 1.155370991792375e+03 -2.738192532728733e+02  2.918975276816622e+03
 1.155139668677878e+03 -2.751980456208059e+02  2.918975276816622e+03
 1.155109802515415e+03 -2.757035465555762e+02  2.918975276816622e+03
 1.154791542415363e+03 -2.768781237685766e+02  2.918975276816622e+03
 1.154944484396539e+03 -2.785411311461613e+02  2.918975276816622e+03
 1.155069000668690e+03 -2.799563325597005e+02  2.918975276816622e+03
 1.154144120507937e+03 -2.820193347728703e+02  2.918975276816622e+03
 1.153746451734771e+03 -2.848459323195769e+02  2.918975276816622e+03
 1.153502712955315e+03 -2.871336561028910e+02  2.918975276816622e+03
 1.153861493155714e+03 -2.880225474032647e+02  2.918975276816622e+03
 1.155101404438579e+03 -2.889867359158828e+02  2.918975276816622e+03
 1.154883473232026e+03 -2.901013537650402e+02  2.918975276816622e+03
 1.154223979327988e+03 -2.908383165726636e+02  2.918975276816622e+03
 1.154273635637480e+03 -2.922208791406756e+02  2.918975276816622e+03
 1.153825178020421e+03 -2.931747250409200e+02  2.918975276816622e+03
 1.153608824548825e+03 -2.942627980735208e+02  2.918975276816622e+03
 1.154079684228162e+03 -2.958567766345608e+02  2.918975276816622e+03
 1.153992555030550e+03 -2.971162435605241e+02  2.918975276816622e+03
 1.153673702245018e+03 -2.981969430437983e+02  2.918975276816622e+03
 1.154094934328751e+03 -2.989574703039150e+02  2.918975276816622e+03
 1.155340947591246e+03 -2.996407419316005e+02  2.918975276816622e+03
 1.155588980196601e+03 -3.008410123404242e+02  2.918975276816622e+03
 1.154561233830678e+03 -3.021632616984999e+02  2.918975276816622e+03
 1.154505048278032e+03 -3.027071949365535e+02  2.918975276816622e+03
 1.155264241955508e+03 -3.030959321751770e+02  2.918975276816622e+03
 1.155131583995154e+03 -3.038716685041637e+02  2.918975276816622e+03
 1.154299694863849e+03 -3.050351433662707e+02  2.918975276816622e+03
 1.153616756772767e+03 -3.059289007888019e+02  2.918975276816622e+03
 1.153391671720055e+03 -3.071701690825170e+02  2.918975276816622e+03
 1.154019369135511e+03 -3.092371517614285e+02  2.918975276816622e+03
 1.154920109054517e+03 -3.102628096586061e+02  2.918975276816622e+03
 1.155429817819725e+03 -3.112159848314116e+02  2.918975276816622e+03
 1.154853054322223e+03 -3.123472568689304e+02  2.918975276816622e+03
 1.153872761168746e+03 -3.129294978811899e+02  2.918975276816622e+03
 1.153667413967118e+03 -3.142109231828240e+02  2.918975276816622e+03
 1.154263952018301e+03 -3.155450052863789e+02  2.918975276816622e+03
 1.154476152355241e+03 -3.167120023212883e+02  2.918975276816622e+03
 1.153710292317066e+03 -3.176232476533090e+02  2.918975276816622e+03
 1.152467331820840e+03 -3.180476634738920e+02  2.918975276816622e+03
 1.151917454123392e+03 -3.194824872173726e+02  2.918975276816622e+03
 1.153031295928061e+03 -3.212206181568879e+02  2.918975276816622e+03
 1.154224448067115e+03 -3.220761976855014e+02  2.918975276816622e+03
 1.154218615512193e+03 -3.229150784396551e+02  2.918975276816622e+03
 1.153899582107927e+03 -3.249738495074612e+02  2.918975276816622e+03
 1.153539547538419e+03 -3.263647264330662e+02  2.918975276816622e+03
 1.153683781789573e+03 -3.272811638010766e+02  2.918975276816622e+03
 1.154537188967470e+03 -3.289880386410958e+02  2.918975276816622e+03
 1.154607342872719e+03 -3.299761469242453e+02  2.918975276816622e+03
 1.154524213224979e+03 -3.306570563623396e+02  2.918975276816622e+03
 1.154390501802237e+03 -3.314369400776803e+02  2.918975276816622e+03
 1.153276071579584e+03 -3.332624494594175e+02  2.918975276816622e+03
 1.152805069941444e+03 -3.357593405082591e+02  2.918975276816622e+03
 1.153213426310768e+03 -3.368699257039548e+02  2.918975276816622e+03
 1.153711119421868e+03 -3.377570045496830e+02  2.918975276816622e+03
 1.154037852156125e+03 -3.389893422945810e+02  2.918975276816622e+03
 1.153621575119148e+03 -3.403666425381534e+02  2.918975276816622e+03
 1.153670650879771e+03 -3.414873870290909e+02  2.918975276816622e+03
 1.154410501511492e+03 -3.419291808427481e+02  2.918975276816622e+03
 1.154436635015704e+03 -3.423510914343906e+02  2.918975276816622e+03
 1.153569385714825e+03 -3.429462274462078e+02  2.918975276816622e+03
 1.153629030177270e+03 -3.438463681358194e+02  2.918975276816622e+03
 1.154766504823836e+03 -3.450250875513465e+02  2.918975276816622e+03
 1.154844654220158e+03 -3.470959214866063e+02  2.918975276816622e+03
 1.154509338229968e+03 -3.495785730724332e+02  2.918975276816622e+03
 1.154726047950504e+03 -3.515589580683180e+02  2.918975276816622e+03
 1.155055572384284e+03 -3.532849304695700e+02  2.918975276816622e+03
 1.154706616301943e+03 -3.544679475949320e+02  2.918975276816622e+03
 1.154137322717013e+03 -3.560274640411329e+02  2.918975276816622e+03
 1.153564591061202e+03 -3.572430848834522e+02  2.918975276816622e+03
 1.153505360255308e+03 -3.586210684449239e+02  2.918975276816622e+03
 1.153695661704288e+03 -3.614096427899772e+02  2.918975276816622e+03
 1.154324481113866e+03 -3.633870512183491e+02  2.918975276816622e+03
 1.154453415712454e+03 -3.649368168786406e+02  2.918975276816622e+03
 1.154239828282411e+03 -3.662925617913270e+02  2.918975276816622e+03
 1.154775834846592e+03 -3.675502736207322e+02  2.918975276816622e+03
 1.155296284420505e+03 -3.689520142771480e+02  2.918975276816622e+03
 1.154794089095325e+03 -3.704711863858194e+02  2.918975276816622e+03
 1.153681830946755e+03 -3.714778814086045e+02  2.918975276816622e+03
 1.153820732997375e+03 -3.729572405104735e+02  2.918975276816622e+03
 1.154160909168769e+03 -3.752318331646130e+02  2.918975276816622e+03
 1.154369801970135e+03 -3.774114614741248e+02  2.918975276816622e+03
 1.154567557127737e+03 -3.800486029515592e+02  2.918975276816622e+03
 1.154716303746518e+03 -3.822742625623621e+02  2.918975276816622e+03
 1.155002534752668e+03 -3.834581355314864e+02  2.918975276816622e+03
 1.155446396481245e+03 -3.849138842770581e+02  2.918975276816622e+03
 1.155630102616971e+03 -3.862393715390281e+02  2.918975276816622e+03
1.155760055210796e+03 3.842047738255487e+02 2.918975276816622e+03
1.155432458285270e+03 3.853153108407717e+02 2.918975276816622e+03
1.155913620846318e+03 3.834079285512656e+02 2.918975276816622e+03
1.155708828481653e+03 3.820332100125418e+02 2.918975276816622e+03
1.155375354220664e+03 3.812698091263584e+02 2.918975276816622e+03
1.155151689317046e+03 3.806310947268087e+02 2.918975276816622e+03
1.155018391203186e+03 3.800113360396908e+02 2.918975276816622e+03
1.154180778807444e+03 3.781236641615584e+02 2.918975276816622e+03
1.153603012232010e+03 3.756307853070321e+02 2.918975276816622e+03
1.153734292422057e+03 3.748485736954930e+02 2.918975276816622e+03
1.154111737131344e+03 3.742431068919930e+02 2.918975276816622e+03
1.154031412466225e+03 3.731095066336372e+02 2.918975276816622e+03
1.153943491732716e+03 3.718775190032895e+02 2.918975276816622e+03
1.153828337673294e+03 3.699454474473363e+02 2.918975276816622e+03
1.153986197281209e+03 3.688026782119082e+02 2.918975276816622e+03
1.154342064085372e+03 3.686580792680631e+02 2.918975276816622e+03
1.154724483458931e+03 3.679755785195264e+02 2.918975276816622e+03
1.154863180647867e+03 3.672864634910891e+02 2.918975276816622e+03
1.154730869975369e+03 3.660931560529854e+02 2.918975276816622e+03
1.154982673982317e+03 3.640124537842324e+02 2.918975276816622e+03
1.154982206026748e+03 3.613138017604524e+02 2.918975276816622e+03
1.154602248324699e+03 3.589268803745247e+02 2.918975276816622e+03
1.154030236766030e+03 3.577114080857314e+02 2.918975276816622e+03
1.153980393713922e+03 3.571346994614708e+02 2.918975276816622e+03
1.154250200834404e+03 3.560933624732567e+02 2.918975276816622e+03
1.154481136894234e+03 3.542546367161301e+02 2.918975276816622e+03
1.154385356063433e+03 3.526665565497548e+02 2.918975276816622e+03
1.153957158366271e+03 3.516695078372262e+02 2.918975276816622e+03
1.154122772452224e+03 3.509652304037817e+02 2.918975276816622e+03
1.154127011627618e+03 3.503189632880537e+02 2.918975276816622e+03
1.154023039862929e+03 3.494232131628610e+02 2.918975276816622e+03
1.154125013511767e+03 3.482787453992312e+02 2.918975276816622e+03
1.153523084647499e+03 3.468121361819291e+02 2.918975276816622e+03
1.153307991598139e+03 3.459579914272906e+02 2.918975276816622e+03
1.153907192177209e+03 3.452842438455690e+02 2.918975276816622e+03
1.153922412936634e+03 3.441017837665236e+02 2.918975276816622e+03
1.153705699148343e+03 3.428326923052205e+02 2.918975276816622e+03
1.154007848087616e+03 3.418865141969515e+02 2.918975276816622e+03
1.154707985943838e+03 3.415185455359275e+02 2.918975276816622e+03
1.155330240078176e+03 3.410771509200693e+02 2.918975276816622e+03
1.154873438851121e+03 3.395741333241082e+02 2.918975276816622e+03
1.153940707368077e+03 3.378638272378735e+02 2.918975276816622e+03
1.154136313817060e+03 3.371061926763527e+02 2.918975276816622e+03
1.155130964063797e+03 3.363191253484439e+02 2.918975276816622e+03
1.154970459017842e+03 3.350000999520739e+02 2.918975276816622e+03
1.153896299818416e+03 3.337303373463957e+02 2.918975276816622e+03
1.153781214345162e+03 3.329063026110253e+02 2.918975276816622e+03
1.154587692495737e+03 3.317435490502759e+02 2.918975276816622e+03
1.154694352034549e+03 3.307690897210371e+02 2.918975276816622e+03
1.154711842539145e+03 3.301245628022800e+02 2.918975276816622e+03
1.154789044831572e+03 3.291353878185607e+02 2.918975276816622e+03
1.154285136602346e+03 3.280615430102030e+02 2.918975276816622e+03
1.153700239132871e+03 3.268560217427342e+02 2.918975276816622e+03
1.153600393724056e+03 3.258047341953939e+02 2.918975276816622e+03
1.153684253554885e+03 3.250000652049082e+02 2.918975276816622e+03
1.153216608942133e+03 3.241435184407039e+02 2.918975276816622e+03
1.152482835090894e+03 3.229252076968143e+02 2.918975276816622e+03
1.152783773168797e+03 3.220108747645627e+02 2.918975276816622e+03
1.153261514426458e+03 3.213363633929657e+02 2.918975276816622e+03
1.153239807985129e+03 3.198977807072777e+02 2.918975276816622e+03
1.154115960677649e+03 3.186320391431540e+02 2.918975276816622e+03
1.154160095328384e+03 3.172460890057831e+02 2.918975276816622e+03
1.153734818629014e+03 3.156337595949730e+02 2.918975276816622e+03
1.153663591373193e+03 3.138470879403845e+02 2.918975276816622e+03
1.153844287147473e+03 3.118942973564709e+02 2.918975276816622e+03
1.154446760849238e+03 3.110638755790740e+02 2.918975276816622e+03
1.154543859222510e+03 3.102523417538436e+02 2.918975276816622e+03
1.154496184788806e+03 3.087585474678265e+02 2.918975276816622e+03
1.154917699301438e+03 3.074862684086365e+02 2.918975276816622e+03
1.155102794190044e+03 3.068378012909268e+02 2.918975276816622e+03
1.154687290587044e+03 3.059428507974321e+02 2.918975276816622e+03
1.154200405515344e+03 3.044994554558851e+02 2.918975276816622e+03
1.153954915842829e+03 3.034011181216575e+02 2.918975276816622e+03
1.153878004746224e+03 3.024900087790178e+02 2.918975276816622e+03
1.153765235617159e+03 3.016414783238968e+02 2.918975276816622e+03
1.154548262769807e+03 3.012194813103999e+02 2.918975276816622e+03
1.154979441679480e+03 3.003722837191920e+02 2.918975276816622e+03
1.154431673219985e+03 2.990691551183745e+02 2.918975276816622e+03
1.154107884501856e+03 2.980197816014010e+02 2.918975276816622e+03
1.154102747573982e+03 2.962030711863520e+02 2.918975276816622e+03
1.154098250134789e+03 2.944886207111826e+02 2.918975276816622e+03
1.152987354380978e+03 2.927363721265463e+02 2.918975276816622e+03
1.153140279614393e+03 2.912775921038918e+02 2.918975276816622e+03
1.154859889961929e+03 2.903277987020874e+02 2.918975276816622e+03
1.154973416689868e+03 2.894612278606923e+02 2.918975276816622e+03
1.154417137258687e+03 2.888168300733707e+02 2.918975276816622e+03
1.154473192843565e+03 2.875861845809970e+02 2.918975276816622e+03
1.154863079066978e+03 2.859069466817841e+02 2.918975276816622e+03
1.155503091246405e+03 2.838064695739313e+02 2.918975276816622e+03
1.155052733218005e+03 2.830923058621626e+02 2.918975276816622e+03
1.154302837650528e+03 2.827983288137447e+02 2.918975276816622e+03
1.154502325508776e+03 2.816181401129134e+02 2.918975276816622e+03
1.154998251123569e+03 2.809453780204029e+02 2.918975276816622e+03
1.155124222288951e+03 2.799300388045852e+02 2.918975276816622e+03
1.154615535025303e+03 2.787537613779453e+02 2.918975276816622e+03
1.154407387059817e+03 2.782612302434891e+02 2.918975276816622e+03
1.154802298101782e+03 2.773836855915927e+02 2.918975276816622e+03
1.154792945920145e+03 2.759956751226816e+02 2.918975276816622e+03
1.154399408226660e+03 2.747858582376344e+02 2.918975276816622e+03
1.154227950773324e+03 2.737421780426221e+02 2.918975276816622e+03
1.153991317099735e+03 2.728402509829262e+02 2.918975276816622e+03
1.153665720055015e+03 2.719831846347720e+02 2.918975276816622e+03
1.152769111917186e+03 2.706165017108940e+02 2.918975276816622e+03
1.152462274324936e+03 2.696290261376763e+02 2.918975276816622e+03
1.152952210307142e+03 2.690860116774883e+02 2.918975276816622e+03
1.152366572792110e+03 2.683633058791515e+02 2.918975276816622e+03
1.152301824650308e+03 2.673041132314685e+02 2.918975276816622e+03
1.152919934243974e+03 2.661108209288423e+02 2.918975276816622e+03
1.152303218932167e+03 2.653013719717613e+02 2.918975276816622e+03
1.152312092218637e+03 2.642189079520151e+02 2.918975276816622e+03
1.153018929746542e+03 2.629959614120722e+02 2.918975276816622e+03
1.152535916102700e+03 2.624861163688863e+02 2.918975276816622e+03
1.152742812146893e+03 2.616015467764161e+02 2.918975276816622e+03
1.153596140226097e+03 2.600855435318055e+02 2.918975276816622e+03
1.153724121755642e+03 2.592257618461286e+02 2.918975276816622e+03
1.153703199244028e+03 2.582596358847679e+02 2.918975276816622e+03
1.153644124460696e+03 2.570782283180827e+02 2.918975276816622e+03
1.153870830038092e+03 2.559769491963043e+02 2.918975276816622e+03
1.154355904911356e+03 2.548754338424584e+02 2.918975276816622e+03
1.154344682801094e+03 2.538517794870590e+02 2.918975276816622e+03
1.154036505608209e+03 2.528444899357994e+02 2.918975276816622e+03
1.154038851379931e+03 2.518013454226440e+02 2.918975276816622e+03
1.153874938600135e+03 2.509592996346617e+02 2.918975276816622e+03
1.153842445261987e+03 2.504197686562429e+02 2.918975276816622e+03
1.153983421457723e+03 2.492850343592873e+02 2.918975276816622e+03
1.153887250021187e+03 2.482931960697100e+02 2.918975276816622e+03
1.153800380657468e+03 2.473360738042444e+02 2.918975276816622e+03
1.153704784009987e+03 2.460974305703656e+02 2.918975276816622e+03
1.153883897257613e+03 2.449848513872457e+02 2.918975276816622e+03
1.154351084969954e+03 2.438983532175990e+02 2.918975276816622e+03
1.154324755890105e+03 2.429138360264802e+02 2.918975276816622e+03
1.153813118764869e+03 2.418495274252358e+02 2.918975276816622e+03
1.153427376922638e+03 2.409609541355652e+02 2.918975276816622e+03
1.152581272005968e+03 2.396655521717401e+02 2.918975276816622e+03
1.152375255471448e+03 2.386051132721508e+02 2.918975276816622e+03
1.152934826310167e+03 2.381087933770055e+02 2.918975276816622e+03
1.152324611709839e+03 2.374408308247482e+02 2.918975276816622e+03
1.152258596511738e+03 2.363518144991583e+02 2.918975276816622e+03
1.152905572733881e+03 2.351582753470904e+02 2.918975276816622e+03
1.152272622363807e+03 2.343563866707740e+02 2.918975276816622e+03
1.152277884637014e+03 2.332526469945433e+02 2.918975276816622e+03
1.153010689935139e+03 2.320467037918274e+02 2.918975276816622e+03
1.152507080241364e+03 2.315508767328639e+02 2.918975276816622e+03
1.152703350551101e+03 2.306485459818163e+02 2.918975276816622e+03
1.153576698310792e+03 2.291265644359950e+02 2.918975276816622e+03
1.153708029547629e+03 2.282676347585189e+02 2.918975276816622e+03
1.153671740955128e+03 2.273141485405361e+02 2.918975276816622e+03
1.153605771630575e+03 2.261415074855013e+02 2.918975276816622e+03
1.153837279189873e+03 2.250200943613519e+02 2.918975276816622e+03
1.154331776489471e+03 2.239175280633878e+02 2.918975276816622e+03
1.154313826792533e+03 2.229376235762458e+02 2.918975276816622e+03
1.153802630120506e+03 2.218780490283807e+02 2.918975276816622e+03
1.153403992458178e+03 2.209984740362448e+02 2.918975276816622e+03
1.152546798275415e+03 2.197089934439810e+02 2.918975276816622e+03
1.152354395638167e+03 2.186366404682672e+02 2.918975276816622e+03
1.152930409489972e+03 2.181401319364929e+02 2.918975276816622e+03
1.152311329316856e+03 2.174827929041392e+02 2.918975276816622e+03
1.152244073461430e+03 2.163842312529975e+02 2.918975276816622e+03
1.152900757668079e+03 2.151884674690839e+02 2.918975276816622e+03
1.152265462969710e+03 2.143937304463582e+02 2.918975276816622e+03
1.152270523850934e+03 2.132845986961051e+02 2.918975276816622e+03
1.153010303893699e+03 2.120794942871723e+02 2.918975276816622e+03
1.152495750645912e+03 2.115815248642611e+02 2.918975276816622e+03
1.152687120225835e+03 2.106724124077523e+02 2.918975276816622e+03
1.153571631309361e+03 2.091542227577646e+02 2.918975276816622e+03
1.153707320358929e+03 2.082967472703002e+02 2.918975276816622e+03
1.153670624384409e+03 2.073447295467272e+02 2.918975276816622e+03
1.153603078412017e+03 2.061742330747051e+02 2.918975276816622e+03
1.153836073579572e+03 2.050533848484783e+02 2.918975276816622e+03
1.154333131216089e+03 2.039510160440335e+02 2.918975276816622e+03
1.154316377946757e+03 2.029716371552701e+02 2.918975276816622e+03
1.153805322726264e+03 2.019121905829078e+02 2.918975276816622e+03
1.153407639770057e+03 2.010304433652747e+02 2.918975276816622e+03
1.152552334004393e+03 1.997345882692204e+02 2.918975276816622e+03
1.152357394602864e+03 1.986612882148606e+02 2.918975276816622e+03
1.152929657001496e+03 1.981713787596215e+02 2.918975276816622e+03
1.152309871448322e+03 1.975174746184741e+02 2.918975276816622e+03
1.152243214266740e+03 1.964174304760352e+02 2.918975276816622e+03
1.152901477292815e+03 1.952197177047089e+02 2.918975276816622e+03
1.152265472898685e+03 1.944243912581435e+02 2.918975276816622e+03
1.152269965131035e+03 1.933149541592643e+02 2.918975276816622e+03
1.153010109266718e+03 1.921109330353368e+02 2.918975276816622e+03
1.152496793951851e+03 1.916146804097076e+02 2.918975276816622e+03
1.152688844924421e+03 1.907057859692223e+02 2.918975276816622e+03
1.153573238663391e+03 1.891858644375930e+02 2.918975276816622e+03
1.153709044700345e+03 1.883281137082416e+02 2.918975276816622e+03
1.153671646660863e+03 1.873764723202967e+02 2.918975276816622e+03
1.153603567206008e+03 1.862056910506393e+02 2.918975276816622e+03
1.153836669564648e+03 1.850843339087184e+02 2.918975276816622e+03
1.154333220596616e+03 1.839817997743551e+02 2.918975276816622e+03
1.154315585884101e+03 1.830025019804682e+02 2.918975276816622e+03
1.153803434719322e+03 1.819428602197256e+02 2.918975276816622e+03
1.153403446412827e+03 1.810624178339546e+02 2.918975276816622e+03
1.152545751911726e+03 1.797712735957737e+02 2.918975276816622e+03
1.152354162947760e+03 1.786977951858303e+02 2.918975276816622e+03
1.152930421887279e+03 1.782034477187309e+02 2.918975276816622e+03
1.152310122341227e+03 1.775475634177060e+02 2.918975276816622e+03
1.152242858362727e+03 1.764477997503301e+02 2.918975276816622e+03
1.152900918841420e+03 1.752518625246988e+02 2.918975276816622e+03
1.152264454292236e+03 1.744565655708010e+02 2.918975276816622e+03
1.152269120971426e+03 1.733462040225656e+02 2.918975276816622e+03
1.153010142929354e+03 1.721404483373474e+02 2.918975276816622e+03
1.152501159825217e+03 1.716468714360883e+02 2.918975276816622e+03
1.152693492328546e+03 1.707409415483713e+02 2.918975276816622e+03
1.153571331251281e+03 1.692198161116885e+02 2.918975276816622e+03
1.153702652898406e+03 1.683565266840127e+02 2.918975276816622e+03
1.153666015940888e+03 1.674085425460918e+02 2.918975276816622e+03
1.153603883299091e+03 1.662441170761033e+02 2.918975276816622e+03
1.153831857620728e+03 1.651084394726008e+02 2.918975276816622e+03
1.154315354974930e+03 1.639994872554836e+02 2.918975276816622e+03
1.154299814990936e+03 1.630216428324509e+02 2.918975276816622e+03
1.153793685341162e+03 1.619661603315967e+02 2.918975276816622e+03
1.153391356129871e+03 1.610973426725423e+02 2.918975276816622e+03
1.152523876095355e+03 1.598302491010253e+02 2.918975276816622e+03
1.152338824252386e+03 1.587566548736330e+02 2.918975276816622e+03
1.152931066869401e+03 1.582382550881322e+02 2.918975276816622e+03
1.152310029484732e+03 1.575761068120441e+02 2.918975276816622e+03
1.152242522326916e+03 1.564757333520373e+02 2.918975276816622e+03
1.152902252470629e+03 1.552825398200989e+02 2.918975276816622e+03
1.152264895628078e+03 1.544855400392195e+02 2.918975276816622e+03
1.152269150608281e+03 1.533751425829801e+02 2.918975276816622e+03
1.153010477768981e+03 1.521736492174873e+02 2.918975276816622e+03
1.152497815924036e+03 1.516784921659189e+02 2.918975276816622e+03
1.152689828833555e+03 1.507701693082381e+02 2.918975276816622e+03
1.153572489775005e+03 1.492500638550878e+02 2.918975276816622e+03
1.153707366406467e+03 1.483905769246775e+02 2.918975276816622e+03
1.153670759882032e+03 1.474397032944642e+02 2.918975276816622e+03
1.153604135723332e+03 1.462705168866677e+02 2.918975276816622e+03
1.153833968270542e+03 1.451457127343938e+02 2.918975276816622e+03
1.154325845107424e+03 1.440407747881883e+02 2.918975276816622e+03
1.154309910892180e+03 1.430600115962361e+02 2.918975276816622e+03
1.153799202669860e+03 1.420014497313599e+02 2.918975276816622e+03
1.153397488498690e+03 1.411267182337998e+02 2.918975276816622e+03
1.152535268723928e+03 1.398476148425874e+02 2.918975276816622e+03
1.152347690557794e+03 1.387741834040509e+02 2.918975276816622e+03
1.152931899080208e+03 1.382683340449910e+02 2.918975276816622e+03
1.152310751654273e+03 1.376069057819062e+02 2.918975276816622e+03
1.152243251928822e+03 1.365072416080834e+02 2.918975276816622e+03
1.152901901396017e+03 1.353149729453459e+02 2.918975276816622e+03
1.152265118329842e+03 1.345179185551970e+02 2.918975276816622e+03
1.152269823343599e+03 1.334076834600173e+02 2.918975276816622e+03
1.153010741501070e+03 1.322056191982595e+02 2.918975276816622e+03
1.152499668017786e+03 1.317111026442187e+02 2.918975276816622e+03
1.152692804047536e+03 1.308032465004467e+02 2.918975276816622e+03
1.153575370571861e+03 1.292820355153478e+02 2.918975276816622e+03
1.153710857056245e+03 1.284241051788822e+02 2.918975276816622e+03
1.153674152627329e+03 1.274714885223792e+02 2.918975276816622e+03
1.153605965242337e+03 1.262995620089572e+02 2.918975276816622e+03
1.153839219975396e+03 1.251803376392877e+02 2.918975276816622e+03
1.154336985821481e+03 1.240791392895526e+02 2.918975276816622e+03
1.154318531978553e+03 1.231002885147644e+02 2.918975276816622e+03
1.153805160034834e+03 1.220400950770298e+02 2.918975276816622e+03
1.153405147224476e+03 1.211574959125376e+02 2.918975276816622e+03
1.152548601322249e+03 1.198637913911384e+02 2.918975276816622e+03
1.152356839350613e+03 1.187907080068072e+02 2.918975276816622e+03
1.152931372761129e+03 1.182980789907251e+02 2.918975276816622e+03
1.152312958050143e+03 1.176441634708066e+02 2.918975276816622e+03
1.152245600819286e+03 1.165459911243782e+02 2.918975276816622e+03
1.152901578980209e+03 1.153480787953514e+02 2.918975276816622e+03
1.152267206043513e+03 1.145540419175553e+02 2.918975276816622e+03
1.152273118892768e+03 1.134447848086195e+02 2.918975276816622e+03
1.153012774094466e+03 1.122377985104676e+02 2.918975276816622e+03
1.152499016474601e+03 1.117392323609438e+02 2.918975276816622e+03
1.152691311049594e+03 1.108316105636229e+02 2.918975276816622e+03
1.153574724847512e+03 1.093138027958824e+02 2.918975276816622e+03
1.153711869033711e+03 1.084586155450731e+02 2.918975276816622e+03
1.153676193775312e+03 1.075045368866043e+02 2.918975276816622e+03
1.153605234765454e+03 1.063291091733874e+02 2.918975276816622e+03
1.153829175195300e+03 1.052141593630005e+02 2.918975276816622e+03
1.154325646260599e+03 1.041118688089579e+02 2.918975276816622e+03
1.154315186387934e+03 1.031288503711569e+02 2.918975276816622e+03
1.153800453416980e+03 1.020685575779074e+02 2.918975276816622e+03
1.153397024441511e+03 1.011873447403004e+02 2.918975276816622e+03
1.152538628770143e+03 9.991284449443744e+01 2.918975276816622e+03
1.152352732370516e+03 9.884409881095605e+01 2.918975276816622e+03
1.152935989671097e+03 9.833034625190110e+01 2.918975276816622e+03
1.152324192533597e+03 9.766593918684443e+01 2.918975276816622e+03
1.152257784553331e+03 9.657496157738642e+01 2.918975276816622e+03
1.152908596989109e+03 9.537681923550772e+01 2.918975276816622e+03
1.152282210830144e+03 9.457502992993544e+01 2.918975276816622e+03
1.152286943372781e+03 9.347696600384181e+01 2.918975276816622e+03
1.152990315087818e+03 9.221354523351383e+01 2.918975276816622e+03
1.152610600982091e+03 9.175695526070940e+01 2.918975276816622e+03
1.152560001897192e+03 9.097744452148842e+01 2.918975276816622e+03
1.153044271419760e+03 8.954755385020819e+01 2.918975276816622e+03
1.153584274297400e+03 8.822560743037515e+01 2.918975276816622e+03
1.154282904724025e+03 8.725154706141825e+01 2.918975276816622e+03
1.154156000190093e+03 8.661346791532655e+01 2.918975276816622e+03
1.153785262905391e+03 8.571912561936747e+01 2.918975276816622e+03
1.153768228630221e+03 8.472524603011009e+01 2.918975276816622e+03
1.152894066425052e+03 8.382280521274649e+01 2.918975276816622e+03
1.152521569470866e+03 8.277484087573259e+01 2.918975276816622e+03
1.153038283109714e+03 8.118033783928828e+01 2.918975276816622e+03
1.153418285342014e+03 8.000406610562547e+01 2.918975276816622e+03
1.153156075095450e+03 7.914101042995917e+01 2.918975276816622e+03
1.152807412390048e+03 7.718146581954952e+01 2.918975276816622e+03
1.153428254086668e+03 7.519544650676526e+01 2.918975276816622e+03
1.154309339813686e+03 7.304937825300745e+01 2.918975276816622e+03
1.154624954593266e+03 7.068313473765357e+01 2.918975276816622e+03
1.154707326906110e+03 6.980316113629921e+01 2.918975276816622e+03
1.154973244789507e+03 6.862150648937161e+01 2.918975276816622e+03
1.154696903142268e+03 6.654606873700197e+01 2.918975276816622e+03
1.154280159109718e+03 6.524770150328639e+01 2.918975276816622e+03
1.153159694895492e+03 6.413426628825431e+01 2.918975276816622e+03
1.152863559473000e+03 6.301805536456739e+01 2.918975276816622e+03
1.153944541360606e+03 6.198486352199372e+01 2.918975276816622e+03
1.154368652869376e+03 6.113610472107776e+01 2.918975276816622e+03
1.154567040982307e+03 6.039462339231109e+01 2.918975276816622e+03
1.155198206013697e+03 5.949823456388702e+01 2.918975276816622e+03
1.155492509645001e+03 5.844530347410343e+01 2.918975276816622e+03
1.155841132303992e+03 5.715206922745506e+01 2.918975276816622e+03
1.155495685743415e+03 5.619217717936088e+01 2.918975276816622e+03
1.154880553856587e+03 5.518927314967706e+01 2.918975276816622e+03
1.154549550969948e+03 5.429805391201866e+01 2.918975276816622e+03
1.154251108810825e+03 5.302194938058247e+01 2.918975276816622e+03
1.154705954087594e+03 5.118020211969310e+01 2.918975276816622e+03
1.154323215451570e+03 5.025235148703009e+01 2.918975276816622e+03
1.153829811587512e+03 4.954898075269139e+01 2.918975276816622e+03
1.153862542517159e+03 4.842597321728886e+01 2.918975276816622e+03
1.153648548992827e+03 4.746085250363883e+01 2.918975276816622e+03
1.153378294504624e+03 4.557548916710776e+01 2.918975276816622e+03
1.153425773957998e+03 4.326436069590360e+01 2.918975276816622e+03
1.153678422046862e+03 4.216414993535906e+01 2.918975276816622e+03
1.154068664639421e+03 4.139280798568782e+01 2.918975276816622e+03
1.154392823217354e+03 4.066926275660903e+01 2.918975276816622e+03
1.154623396610845e+03 3.980361072340410e+01 2.918975276816622e+03
1.154985515515905e+03 3.780354778435941e+01 2.918975276816622e+03
1.155269422499654e+03 3.582958582368577e+01 2.918975276816622e+03
1.155333242786611e+03 3.458579919306186e+01 2.918975276816622e+03
1.155610238422311e+03 3.302387525272970e+01 2.918975276816622e+03
1.155898042758399e+03 3.121604340093837e+01 2.918975276816622e+03
1.155980423576384e+03 2.945966468520638e+01 2.918975276816622e+03
1.155409908273354e+03 2.688343075227666e+01 2.918975276816622e+03
1.154980086684577e+03 2.407598585272234e+01 2.918975276816622e+03
1.154987562076353e+03 2.303389780037297e+01 2.918975276816622e+03
1.154878441252438e+03 2.110834704043780e+01 2.918975276816622e+03
1.154549055625415e+03 1.870036863769483e+01 2.918975276816622e+03
1.154130245948952e+03 1.715671988755355e+01 2.918975276816622e+03
1.154487752888945e+03 1.510255567676876e+01 2.918975276816622e+03
1.154618737973006e+03 1.369580300053127e+01 2.918975276816622e+03
1.154183899429594e+03 1.249240984294244e+01 2.918975276816622e+03
1.154098311533983e+03 1.098485853647661e+01 2.918975276816622e+03
1.155102496757515e+03 9.538539080924522e+00 2.918975276816622e+03
1.155042776819916e+03 8.305762405219028e+00 2.918975276816622e+03
1.154160892168616e+03 6.652834547365998e+00 2.918975276816622e+03
1.153945383615548e+03 5.121184061236323e+00 2.918975276816622e+03
1.154026524441276e+03 3.645899752460696e+00 2.918975276816622e+03
1.154788941742202e+03 2.158733754478424e+00 2.918975276816622e+03

CELLS 2547 10194
3 6 2559 7
3 6 2560 611
3 7 2561 8
3 8 2562 9
3 9 2563 10
3 10 2564 11
3 11 2565 12
3 12 2566 13
3 13 2567 14
3 14 2568 15
3 15 2569 16
3 16 2570 17
3 17 2571 18
3 18 2572 19
3 19 2573 20
3 20 2574 21
3 21 2575 22
3 22 2576 23
3 23 2577 24
3 24 2578 25
3 25 2579 26
3 26 2580 27
3 27 2581 28
3 28 2582 29
3 29 2583 30
3 30 2584 31
3 31 2585 32
3 32 2586 33
3 33 2587 34
3 34 2588 35
3 35 2589 36
3 36 2590 37
3 37 2591 38
3 38 2592 39
3 39 2593 40
3 40 2594 41
3 41 2595 42
3 42 2596 43
3 43 2597 44
3 44 2598 45
3 45 2599 46
3 46 2600 47
3 47 2601 48
3 48 2602 49
3 49 2603 50
3 50 2604 51
3 51 2605 52
3 52 2606 53
3 53 2607 54
3 54 2608 55
3 55 2609 56
3 56 2610 57
3 57 2611 58
3 58 2612 59
3 59 2613 60
3 60 2614 61
3 61 2615 62
3 62 2616 63
3 63 2617 64
3 64 2618 65
3 65 2619 66
3 66 2620 67
3 67 2621 68
3 68 2622 69
3 69 2623 70
3 70 2624 71
3 71 2625 72
3 72 2626 73
3 73 2627 74
3 74 2628 75
3 75 2629 76
3 76 2630 77
3 77 2631 78
3 78 2632 79
3 79 2633 80
3 80 2634 81
3 81 2635 82
3 82 2636 83
3 83 2637 84
3 84 2638 85
3 85 2639 86
3 86 2640 87
3 87 2641 88
3 88 2642 89
3 89 2643 90
3 90 2644 91
3 91 2645 92
3 92 2646 93
3 93 2647 94
3 94 2648 95
3 95 2649 96
3 96 2650 97
3 97 2651 98
3 98 2652 99
3 99 2653 100
3 100 2654 101
3 101 2655 102
3 102 2656 103
3 103 2657 104
3 104 2658 105
3 105 2659 106
3 106 2660 107
3 107 2661 108
3 108 2662 109
3 109 2663 110
3 110 2664 111
3 111 2665 112
3 112 2666 113
3 113 2667 114
3 114 2668 115
3 115 2669 116
3 116 2670 117
3 117 2671 118
3 118 2672 119
3 119 2673 120
3 120 2674 121
3 121 2675 122
3 122 2676 123
3 123 2677 124
3 124 2678 125
3 125 2679 126
3 126 2680 127
3 127 2681 128
3 128 2682 129
3 129 2683 130
3 130 2684 131
3 131 2685 132
3 132 2686 133
3 133 2687 134
3 134 2688 135
3 135 2689 136
3 136 2690 137
3 137 2691 138
3 138 2692 139
3 139 2693 140
3 140 2694 141
3 141 2695 142
3 142 2696 143
3 143 2697 144
3 144 2698 145
3 145 2699 146
3 146 2700 147
3 147 2701 148
3 148 2702 149
3 149 2703 150
3 150 2704 151
3 151 2705 152
3 152 2706 153
3 153 2707 154
3 154 2708 155
3 155 2709 156
3 156 2710 157
3 157 2711 158
3 158 2712 159
3 159 2713 160
3 160 2714 161
3 161 2715 162
3 162 2716 163
3 163 2717 164
3 164 2718 165
3 165 2719 166
3 166 2720 167
3 167 2721 168
3 168 2722 169
3 169 2723 170
3 170 2724 171
3 171 2725 172
3 172 2726 173
3 173 2727 174
3 174 2728 175
3 175 2729 176
3 176 2730 177
3 177 2731 178
3 178 2732 179
3 179 2733 180
3 180 2734 181
3 181 2735 182
3 182 2736 183
3 183 2737 184
3 184 2738 185
3 185 2739 186
3 186 2740 187
3 187 2741 188
3 188 2742 189
3 189 2743 190
3 190 2744 191
3 191 2745 192
3 192 2746 193
3 193 2747 194
3 194 2748 195
3 195 2749 196
3 196 2750 197
3 197 2751 198
3 198 2752 199
3 199 2753 200
3 200 2754 201
3 201 2755 202
3 202 2756 203
3 203 2757 204
3 204 2758 205
3 205 2759 206
3 206 2760 207
3 207 2761 208
3 208 2762 209
3 209 2763 210
3 210 2764 211
3 211 2765 212
3 212 2766 213
3 213 2767 214
3 214 2768 215
3 215 2769 216
3 216 2770 217
3 217 2771 218
3 218 2772 219
3 219 2773 220
3 220 2774 221
3 221 2775 222
3 222 2776 223
3 223 2777 224
3 224 2778 225
3 225 2779 226
3 226 2780 227
3 227 2781 228
3 228 2782 229
3 229 2783 230
3 230 2784 231
3 231 2785 232
3 232 2786 233
3 233 2787 234
3 234 2788 235
3 235 2789 236
3 236 2790 237
3 237 2791 238
3 238 2792 239
3 239 2793 240
3 240 2794 241
3 241 2795 242
3 242 2796 243
3 243 2797 244
3 244 2798 245
3 245 2799 246
3 246 2800 247
3 247 2801 248
3 248 2802 249
3 249 2803 250
3 250 2804 251
3 251 2805 252
3 252 2806 253
3 253 2807 254
3 254 2808 255
3 255 2809 256
3 256 2810 257
3 257 2811 258
3 258 2812 259
3 259 2813 260
3 260 2814 261
3 261 2815 262
3 262 2816 263
3 263 2817 264
3 264 2818 265
3 265 2819 266
3 266 2820 267
3 267 2821 268
3 268 2822 269
3 269 2823 270
3 270 2824 271
3 271 2825 272
3 272 2826 273
3 273 2827 274
3 274 2828 275
3 275 2829 276
3 276 2830 277
3 277 2831 278
3 278 2832 279
3 279 2833 280
3 280 2834 281
3 281 2835 282
3 282 2836 283
3 283 2837 284
3 284 2838 285
3 285 2839 286
3 286 2840 287
3 287 2841 288
3 288 2842 289
3 289 2843 290
3 290 2844 291
3 291 2845 292
3 292 2846 293
3 293 2847 294
3 294 2848 295
3 295 2849 296
3 296 2850 297
3 297 2851 298
3 298 2852 299
3 299 2853 300
3 300 2854 301
3 301 2855 302
3 302 2856 303
3 303 2857 304
3 304 2858 305
3 305 2859 306
3 306 2860 307
3 307 2861 308
3 308 2862 309
3 309 2863 310
3 310 2864 311
3 311 2865 312
3 312 2866 313
3 313 2867 314
3 314 2868 315
3 315 2869 316
3 316 2870 317
3 317 2871 2551
3 318 2872 319
3 318 2873 2552
3 319 2874 320
3 320 2875 321
3 321 2876 322
3 322 2877 323
3 323 2878 324
3 324 2879 325
3 325 2880 326
3 326 2881 327
3 327 2882 328
3 328 2883 329
3 329 2884 330
3 330 2885 331
3 331 2886 332
3 332 2887 333
3 333 2888 334
3 334 2889 335
3 335 2890 336
3 336 2891 337
3 337 2892 338
3 338 2893 339
3 339 2894 340
3 340 2895 341
3 341 2896 342
3 342 2897 343
3 343 2898 344
3 344 2899 345
3 345 2900 346
3 346 2901 347
3 347 2902 348
3 348 2903 349
3 349 2904 350
3 350 2905 351
3 351 2906 352
3 352 2907 353
3 353 2908 354
3 354 2909 355
3 355 2910 356
3 356 2911 357
3 357 2912 358
3 358 2913 359
3 359 2914 360
3 360 2915 361
3 361 2916 362
3 362 2917 363
3 363 2918 364
3 364 2919 365
3 365 2920 366
3 366 2921 367
3 367 2922 368
3 368 2923 369
3 369 2924 370
3 370 2925 371
3 371 2926 372
3 372 2927 373
3 373 2928 374
3 374 2929 375
3 375 2930 376
3 376 2931 377
3 377 2932 378
3 378 2933 379
3 379 2934 380
3 380 2935 381
3 381 2936 382
3 382 2937 383
4 383 2938 2939 384
3 384 2940 385
3 385 2941 386
3 386 2942 387
3 387 2943 388
3 388 2944 389
3 389 2945 390
3 390 2946 391
3 391 2947 392
3 392 2948 393
3 393 2949 394
3 394 2950 395
3 395 2951 396
3 396 2952 397
3 397 2953 398
3 398 2954 399
3 399 2955 400
3 400 2956 401
3 401 2957 402
3 402 2958 403
3 403 2959 404
3 404 2960 405
3 405 2961 406
3 406 2962 407
3 407 2963 408
3 408 2964 409
3 409 2965 410
3 410 2966 411
3 411 2967 412
3 412 2968 413
3 413 2969 414
3 414 2970 415
3 415 2971 416
3 416 2972 417
3 417 2973 418
3 418 2974 419
3 419 2975 420
3 420 2976 421
3 421 2977 422
3 422 2978 423
3 423 2979 424
3 424 2980 425
3 425 2981 426
3 426 2982 427
3 427 2983 428
3 428 2984 429
3 429 2985 430
3 430 2986 431
3 431 2987 432
3 432 2988 433
3 433 2989 434
3 434 2990 435
3 435 2991 436
3 436 2992 437
3 437 2993 438
3 438 2994 439
3 439 2995 440
3 440 2996 441
3 441 2997 442
3 442 2998 443
3 443 2999 444
3 444 3000 445
3 445 3001 446
3 446 3002 447
3 447 3003 448
3 448 3004 449
3 449 3005 450
3 450 3006 451
3 451 3007 452
3 452 3008 453
3 453 3009 454
3 454 3010 455
3 455 3011 456
3 456 3012 457
3 457 3013 458
3 458 3014 459
3 459 3015 460
3 460 3016 461
3 461 3017 462
3 462 3018 463
3 463 3019 464
3 464 3020 465
3 465 3021 466
3 466 3022 467
3 467 3023 468
3 468 3024 469
3 469 3025 470
3 470 3026 471
3 471 3027 472
3 472 3028 473
3 473 3029 474
3 474 3030 475
3 475 3031 476
3 476 3032 477
3 477 3033 478
3 478 3034 479
3 479 3035 480
3 480 3036 481
3 481 3037 482
3 482 3038 483
3 483 3039 484
3 484 3040 485
3 485 3041 486
3 486 3042 487
3 487 3043 488
3 488 3044 489
3 489 3045 490
3 490 3046 491
3 491 3047 492
3 492 3048 493
3 493 3049 494
3 494 3050 495
3 495 3051 496
3 496 3052 497
3 497 3053 498
3 498 3054 499
3 499 3055 500
3 500 3056 501
3 501 3057 502
3 502 3058 503
3 503 3059 504
3 504 3060 505
3 505 3061 506
3 506 3062 507
3 507 3063 508
3 508 3064 509
3 509 3065 510
3 510 3066 511
3 511 3067 512
3 512 3068 513
3 513 3069 514
3 514 3070 515
3 515 3071 516
3 516 3072 517
3 517 3073 518
3 518 3074 519
3 519 3075 520
3 520 3076 521
3 521 3077 522
3 522 3078 523
3 523 3079 524
3 524 3080 525
3 525 3081 526
3 526 3082 527
3 527 3083 528
3 528 3084 529
3 529 3085 530
3 530 3086 531
3 531 3087 532
3 532 3088 533
3 533 3089 534
3 534 3090 535
3 535 3091 536
3 536 3092 537
3 537 3093 538
3 538 3094 539
3 539 3095 540
3 540 3096 541
3 541 3097 542
3 542 3098 543
3 543 3099 544
3 544 3100 545
3 545 3101 546
3 546 3102 547
3 547 3103 548
3 548 3104 549
3 549 3105 550
3 550 3106 551
3 551 3107 552
3 552 3108 553
3 553 3109 554
3 554 3110 555
3 555 3111 556
3 556 3112 557
3 557 3113 558
3 558 3114 559
3 559 3115 560
3 560 3116 561
3 561 3117 562
3 562 3118 563
3 563 3119 564
3 564 3120 565
3 565 3121 566
3 566 3122 567
3 567 3123 568
3 568 3124 569
3 569 3125 570
3 570 3126 571
3 571 3127 572
3 572 3128 573
3 573 3129 574
3 574 3130 575
3 575 3131 576
3 576 3132 577
3 577 3133 578
3 578 3134 579
3 579 3135 580
3 580 3136 581
3 581 3137 582
3 582 3138 583
3 583 3139 584
3 584 3140 585
3 585 3141 586
3 586 3142 587
3 587 3143 588
3 588 3144 589
3 589 3145 590
3 590 3146 591
3 591 3147 592
3 592 3148 593
3 593 3149 594
3 594 3150 595
3 595 3151 596
3 596 3152 597
3 597 3153 598
3 598 3154 599
3 599 3155 600
3 600 3156 601
3 601 3157 602
3 602 3158 603
3 603 3159 604
3 604 3160 605
3 605 3161 606
3 606 3162 607
3 607 3163 608
4 608 3164 3165 609
3 609 3166 610
3 610 3167 611
3 613 3168 614
3 613 3169 1235
3 614 3170 615
3 615 3171 616
3 616 3172 617
3 617 3173 618
3 618 3174 619
3 619 3175 620
3 620 3176 621
3 621 3177 622
3 622 3178 623
3 623 3179 624
3 624 3180 625
3 625 3181 626
3 626 3182 627
3 627 3183 628
3 628 3184 629
3 629 3185 630
3 630 3186 631
3 631 3187 632
3 632 3188 633
3 633 3189 634
3 634 3190 635
3 635 3191 636
3 636 3192 637
3 637 3193 638
3 638 3194 639
3 639 3195 640
3 640 3196 641
3 641 3197 642
3 642 3198 643
3 643 3199 644
3 644 3200 645
3 645 3201 646
3 646 3202 647
3 647 3203 648
3 648 3204 649
3 649 3205 650
3 650 3206 651
3 651 3207 652
3 652 3208 653
3 653 3209 654
3 654 3210 655
3 655 3211 656
3 656 3212 657
3 657 3213 658
3 658 3214 659
3 659 3215 660
3 660 3216 661
3 661 3217 662
3 662 3218 663
3 663 3219 664
3 664 3220 665
3 665 3221 666
3 666 3222 667
3 667 3223 668
3 668 3224 669
3 669 3225 670
3 670 3226 671
3 671 3227 672
3 672 3228 673
3 673 3229 674
3 674 3230 675
3 675 3231 676
3 676 3232 677
3 677 3233 678
3 678 3234 679
3 679 3235 680
3 680 3236 681
3 681 3237 682
3 682 3238 683
3 683 3239 684
3 684 3240 685
3 685 3241 686
3 686 3242 687
3 687 3243 688
3 688 3244 689
3 689 3245 690
3 690 3246 691
3 691 3247 692
3 692 3248 693
3 693 3249 694
3 694 3250 695
3 695 3251 696
3 696 3252 697
3 697 3253 698
3 698 3254 699
3 699 3255 700
3 700 3256 701
3 701 3257 702
3 702 3258 703
3 703 3259 704
3 704 3260 705
3 705 3261 706
3 706 3262 707
3 707 3263 708
3 708 3264 709
3 709 3265 710
3 710 3266 711
3 711 3267 712
3 712 3268 713
3 713 3269 714
3 714 3270 715
3 715 3271 716
3 716 3272 717
3 717 3273 718
3 718 3274 719
3 719 3275 720
3 720 3276 721
3 721 3277 722
3 722 3278 723
3 723 3279 724
3 724 3280 725
3 725 3281 726
3 726 3282 727
3 727 3283 728
3 728 3284 729
3 729 3285 730
3 730 3286 731
3 731 3287 732
3 732 3288 733
3 733 3289 734
3 734 3290 735
3 735 3291 736
3 736 3292 737
3 737 3293 738
3 738 3294 739
3 739 3295 740
3 740 3296 741
3 741 3297 742
3 742 3298 743
3 743 3299 744
3 744 3300 745
3 745 3301 746
3 746 3302 747
3 747 3303 748
3 748 3304 749
3 749 3305 750
3 750 3306 751
3 751 3307 752
3 752 3308 753
3 753 3309 754
3 754 3310 755
3 755 3311 756
3 756 3312 757
3 757 3313 758
3 758 3314 759
3 759 3315 760
3 760 3316 761
3 761 3317 762
3 762 3318 763
3 763 3319 764
3 764 3320 765
3 765 3321 766
3 766 3322 767
3 767 3323 768
3 768 3324 769
3 769 3325 770
3 770 3326 771
3 771 3327 772
3 772 3328 773
3 773 3329 774
3 774 3330 775
3 775 3331 776
3 776 3332 777
3 777 3333 778
3 778 3334 779
3 779 3335 780
3 780 3336 781
3 781 3337 782
3 782 3338 783
3 783 3339 784
3 784 3340 785
3 785 3341 786
3 786 3342 787
3 787 3343 788
3 788 3344 789
3 789 3345 790
3 790 3346 791
3 791 3347 792
3 792 3348 793
3 793 3349 794
3 794 3350 795
3 795 3351 796
3 796 3352 797
3 797 3353 798
3 798 3354 799
3 799 3355 800
3 800 3356 801
3 801 3357 802
3 802 3358 803
3 803 3359 804
3 804 3360 805
3 805 3361 806
3 806 3362 807
3 807 3363 808
3 808 3364 809
3 809 3365 810
3 810 3366 811
3 811 3367 812
3 812 3368 813
3 813 3369 814
3 814 3370 815
3 815 3371 816
3 816 3372 817
3 817 3373 818
3 818 3374 819
3 819 3375 820
3 820 3376 821
3 821 3377 822
3 822 3378 823
3 823 3379 824
3 824 3380 825
3 825 3381 826
3 826 3382 827
3 827 3383 828
3 828 3384 829
3 829 3385 830
3 830 3386 831
3 831 3387 832
3 832 3388 833
3 833 3389 834
3 834 3390 835
3 835 3391 836
3 836 3392 837
3 837 3393 838
3 838 3394 839
3 839 3395 840
3 840 3396 841
3 841 3397 842
3 842 3398 843
3 843 3399 844
3 844 3400 845
3 845 3401 846
3 846 3402 847
3 847 3403 848
3 848 3404 849
3 849 3405 850
3 850 3406 851
3 851 3407 852
3 852 3408 853
3 853 3409 854
3 854 3410 855
3 855 3411 856
3 856 3412 857
3 857 3413 858
3 858 3414 859
3 859 3415 860
3 860 3416 861
3 861 3417 862
3 862 3418 863
3 863 3419 864
3 864 3420 865
3 865 3421 866
3 866 3422 867
3 867 3423 868
3 868 3424 869
3 869 3425 870
3 870 3426 871
3 871 3427 872
3 872 3428 873
3 873 3429 874
3 874 3430 875
3 875 3431 876
3 876 3432 877
3 877 3433 878
3 878 3434 879
3 879 3435 880
3 880 3436 881
3 881 3437 882
3 882 3438 883
3 883 3439 884
3 884 3440 885
3 885 3441 886
3 886 3442 887
3 887 3443 888
3 888 3444 889
3 889 3445 890
3 890 3446 891
3 891 3447 892
3 892 3448 893
3 893 3449 894
3 894 3450 895
3 895 3451 896
3 896 3452 897
3 897 3453 898
3 898 3454 899
3 899 3455 900
3 900 3456 901
3 901 3457 902
3 902 3458 903
3 903 3459 904
3 904 3460 905
3 905 3461 906
3 906 3462 907
3 907 3463 908
3 908 3464 909
3 909 3465 910
3 910 3466 911
3 911 3467 912
3 912 3468 913
3 913 3469 914
3 914 3470 915
3 915 3471 916
4 916 3472 3473 917
3 917 3474 918
3 918 3475 2553
3 919 3476 920
3 919 3477 2554
3 920 3478 921
3 921 3479 922
3 922 3480 923
3 923 3481 924
3 924 3482 925
3 925 3483 926
3 926 3484 927
3 927 3485 928
3 928 3486 929
3 929 3487 930
3 930 3488 931
3 931 3489 932
3 932 3490 933
3 933 3491 934
3 934 3492 935
3 935 3493 936
3 936 3494 937
3 937 3495 938
3 938 3496 939
3 939 3497 940
3 940 3498 941
3 941 3499 942
3 942 3500 943
3 943 3501 944
3 944 3502 945
3 945 3503 946
3 946 3504 947
3 947 3505 948
3 948 3506 949
3 949 3507 950
3 950 3508 951
3 951 3509 952
3 952 3510 953
3 953 3511 954
3 954 3512 955
3 955 3513 956
3 956 3514 957
3 957 3515 958
3 958 3516 959
3 959 3517 960
3 960 3518 961
3 961 3519 962
3 962 3520 963
3 963 3521 964
3 964 3522 965
3 965 3523 966
3 966 3524 967
3 967 3525 968
3 968 3526 969
3 969 3527 970
3 970 3528 971
3 971 3529 972
3 972 3530 973
3 973 3531 974
3 974 3532 975
3 975 3533 976
3 976 3534 977
3 977 3535 978
3 978 3536 979
3 979 3537 980
3 980 3538 981
3 981 3539 982
3 982 3540 983
3 983 3541 984
3 984 3542 985
3 985 3543 986
3 986 3544 987
3 987 3545 988
3 988 3546 989
3 989 3547 990
3 990 3548 991
3 991 3549 992
3 992 3550 993
3 993 3551 994
3 994 3552 995
3 995 3553 996
3 996 3554 997
3 997 3555 998
3 998 3556 999
3 999 3557 1000
3 1000 3558 1001
3 1001 3559 1002
3 1002 3560 1003
3 1003 3561 1004
3 1004 3562 1005
3 1005 3563 1006
3 1006 3564 1007
3 1007 3565 1008
3 1008 3566 1009
3 1009 3567 1010
3 1010 3568 1011
3 1011 3569 1012
3 1012 3570 1013
3 1013 3571 1014
3 1014 3572 1015
3 1015 3573 1016
3 1016 3574 1017
3 1017 3575 1018
3 1018 3576 1019
3 1019 3577 1020
3 1020 3578 1021
3 1021 3579 1022
3 1022 3580 1023
3 1023 3581 1024
3 1024 3582 1025
3 1025 3583 1026
3 1026 3584 1027
3 1027 3585 1028
3 1028 3586 1029
3 1029 3587 1030
3 1030 3588 1031
3 1031 3589 1032
3 1032 3590 1033
3 1033 3591 1034
3 1034 3592 1035
3 1035 3593 1036
3 1036 3594 1037
3 1037 3595 1038
3 1038 3596 1039
3 1039 3597 1040
3 1040 3598 1041
3 1041 3599 1042
3 1042 3600 1043
3 1043 3601 1044
3 1044 3602 1045
3 1045 3603 1046
3 1046 3604 1047
3 1047 3605 1048
3 1048 3606 1049
3 1049 3607 1050
3 1050 3608 1051
3 1051 3609 1052
3 1052 3610 1053
3 1053 3611 1054
3 1054 3612 1055
3 1055 3613 1056
3 1056 3614 1057
3 1057 3615 1058
3 1058 3616 1059
3 1059 3617 1060
3 1060 3618 1061
3 1061 3619 1062
3 1062 3620 1063
3 1063 3621 1064
3 1064 3622 1065
3 1065 3623 1066
3 1066 3624 1067
3 1067 3625 1068
3 1068 3626 1069
3 1069 3627 1070
3 1070 3628 1071
3 1071 3629 1072
3 1072 3630 1073
3 1073 3631 1074
3 1074 3632 1075
3 1075 3633 1076
3 1076 3634 1077
3 1077 3635 1078
3 1078 3636 1079
3 1079 3637 1080
3 1080 3638 1081
3 1081 3639 1082
3 1082 3640 1083
3 1083 3641 1084
3 1084 3642 1085
3 1085 3643 1086
3 1086 3644 1087
3 1087 3645 1088
3 1088 3646 1089
3 1089 3647 1090
3 1090 3648 1091
3 1091 3649 1092
3 1092 3650 1093
3 1093 3651 1094
3 1094 3652 1095
3 1095 3653 1096
3 1096 3654 1097
3 1097 3655 1098
3 1098 3656 1099
3 1099 3657 1100
3 1100 3658 1101
3 1101 3659 1102
3 1102 3660 1103
3 1103 3661 1104
3 1104 3662 1105
3 1105 3663 1106
3 1106 3664 1107
3 1107 3665 1108
3 1108 3666 1109
3 1109 3667 1110
3 1110 3668 1111
3 1111 3669 1112
3 1112 3670 1113
3 1113 3671 1114
3 1114 3672 1115
3 1115 3673 1116
3 1116 3674 1117
3 1117 3675 1118
3 1118 3676 1119
3 1119 3677 1120
3 1120 3678 1121
3 1121 3679 1122
3 1122 3680 1123
3 1123 3681 1124
3 1124 3682 1125
3 1125 3683 1126
3 1126 3684 1127
3 1127 3685 1128
3 1128 3686 1129
3 1129 3687 1130
3 1130 3688 1131
3 1131 3689 1132
3 1132 3690 1133
3 1133 3691 1134
3 1134 3692 1135
3 1135 3693 1136
3 1136 3694 1137
3 1137 3695 1138
3 1138 3696 1139
3 1139 3697 1140
3 1140 3698 1141
3 1141 3699 1142
3 1142 3700 1143
3 1143 3701 1144
3 1144 3702 1145
3 1145 3703 1146
3 1146 3704 1147
3 1147 3705 1148
3 1148 3706 1149
3 1149 3707 1150
3 1150 3708 1151
3 1151 3709 1152
3 1152 3710 1153
3 1153 3711 1154
3 1154 3712 1155
3 1155 3713 1156
3 1156 3714 1157
3 1157 3715 1158
3 1158 3716 1159
3 1159 3717 1160
3 1160 3718 1161
3 1161 3719 1162
3 1162 3720 1163
3 1163 3721 1164
3 1164 3722 1165
3 1165 3723 1166
3 1166 3724 1167
3 1167 3725 1168
3 1168 3726 1169
3 1169 3727 1170
3 1170 3728 1171
3 1171 3729 1172
3 1172 3730 1173
3 1173 3731 1174
3 1174 3732 1175
3 1175 3733 1176
3 1176 3734 1177
3 1177 3735 1178
3 1178 3736 1179
3 1179 3737 1180
3 1180 3738 1181
3 1181 3739 1182
3 1182 3740 1183
3 1183 3741 1184
3 1184 3742 1185
3 1185 3743 1186
3 1186 3744 1187
3 1187 3745 1188
3 1188 3746 1189
3 1189 3747 1190
3 1190 3748 1191
3 1191 3749 1192
3 1192 3750 1193
3 1193 3751 1194
3 1194 3752 1195
3 1195 3753 1196
3 1196 3754 1197
3 1197 3755 1198
3 1198 3756 1199
3 1199 3757 1200
3 1200 3758 1201
3 1201 3759 1202
3 1202 3760 1203
3 1203 3761 1204
3 1204 3762 1205
3 1205 3763 1206
3 1206 3764 1207
3 1207 3765 1208
3 1208 3766 1209
3 1209 3767 1210
3 1210 3768 1211
3 1211 3769 1212
3 1212 3770 1213
3 1213 3771 1214
3 1214 3772 1215
3 1215 3773 1216
3 1216 3774 1217
3 1217 3775 1218
3 1218 3776 1219
3 1219 3777 1220
3 1220 3778 1221
3 1221 3779 1222
3 1222 3780 1223
3 1223 3781 1224
3 1224 3782 1225
3 1225 3783 1226
3 1226 3784 1227
3 1227 3785 1228
3 1228 3786 1229
3 1229 3787 1230
3 1230 3788 1231
3 1231 3789 1232
3 1232 3790 1233
3 1233 3791 1234
3 1234 3792 1235
3 1236 3793 1237
3 1236 3794 1853
3 1237 3795 1238
3 1238 3796 1239
3 1239 3797 1240
3 1240 3798 1241
3 1241 3799 1242
3 1242 3800 1243
3 1243 3801 1244
3 1244 3802 1245
3 1245 3803 1246
3 1246 3804 1247
3 1247 3805 1248
3 1248 3806 1249
3 1249 3807 1250
3 1250 3808 1251
3 1251 3809 1252
3 1252 3810 1253
3 1253 3811 1254
3 1254 3812 1255
3 1255 3813 1256
3 1256 3814 1257
3 1257 3815 1258
3 1258 3816 1259
3 1259 3817 1260
3 1260 3818 1261
3 1261 3819 1262
3 1262 3820 1263
3 1263 3821 1264
3 1264 3822 1265
3 1265 3823 1266
3 1266 3824 1267
3 1267 3825 1268
3 1268 3826 1269
3 1269 3827 1270
3 1270 3828 1271
3 1271 3829 1272
3 1272 3830 1273
3 1273 3831 1274
3 1274 3832 1275
3 1275 3833 1276
3 1276 3834 1277
3 1277 3835 1278
3 1278 3836 1279
3 1279 3837 1280
3 1280 3838 1281
3 1281 3839 1282
3 1282 3840 1283
3 1283 3841 1284
3 1284 3842 1285
3 1285 3843 1286
3 1286 3844 1287
3 1287 3845 1288
3 1288 3846 1289
3 1289 3847 1290
3 1290 3848 1291
3 1291 3849 1292
3 1292 3850 1293
3 1293 3851 1294
3 1294 3852 1295
3 1295 3853 1296
3 1296 3854 1297
3 1297 3855 1298
3 1298 3856 1299
3 1299 3857 1300
3 1300 3858 1301
3 1301 3859 1302
3 1302 3860 1303
3 1303 3861 1304
3 1304 3862 1305
3 1305 3863 1306
3 1306 3864 1307
3 1307 3865 1308
3 1308 3866 1309
3 1309 3867 1310
3 1310 3868 1311
3 1311 3869 1312
3 1312 3870 1313
3 1313 3871 1314
3 1314 3872 1315
3 1315 3873 1316
3 1316 3874 1317
3 1317 3875 1318
3 1318 3876 1319
3 1319 3877 1320
3 1320 3878 1321
3 1321 3879 1322
3 1322 3880 1323
3 1323 3881 1324
3 1324 3882 1325
3 1325 3883 1326
3 1326 3884 1327
3 1327 3885 1328
3 1328 3886 1329
3 1329 3887 1330
3 1330 3888 1331
3 1331 3889 1332
3 1332 3890 1333
3 1333 3891 1334
3 1334 3892 1335
3 1335 3893 1336
3 1336 3894 1337
3 1337 3895 1338
3 1338 3896 1339
3 1339 3897 1340
3 1340 3898 1341
3 1341 3899 1342
3 1342 3900 1343
3 1343 3901 1344
3 1344 3902 1345
3 1345 3903 1346
3 1346 3904 1347
3 1347 3905 1348
3 1348 3906 1349
3 1349 3907 1350
3 1350 3908 1351
3 1351 3909 1352
3 1352 3910 1353
3 1353 3911 1354
3 1354 3912 1355
3 1355 3913 1356
3 1356 3914 1357
3 1357 3915 1358
3 1358 3916 1359
3 1359 3917 1360
3 1360 3918 1361
3 1361 3919 1362
3 1362 3920 1363
3 1363 3921 1364
3 1364 3922 1365
3 1365 3923 1366
3 1366 3924 1367
3 1367 3925 1368
3 1368 3926 1369
3 1369 3927 1370
3 1370 3928 1371
3 1371 3929 1372
3 1372 3930 1373
3 1373 3931 1374
3 1374 3932 1375
3 1375 3933 1376
3 1376 3934 1377
3 1377 3935 1378
3 1378 3936 1379
3 1379 3937 1380
3 1380 3938 1381
3 1381 3939 1382
3 1382 3940 1383
3 1383 3941 1384
3 1384 3942 1385
3 1385 3943 1386
3 1386 3944 1387
3 1387 3945 1388
3 1388 3946 1389
3 1389 3947 1390
3 1390 3948 1391
3 1391 3949 1392
3 1392 3950 1393
3 1393 3951 1394
3 1394 3952 1395
3 1395 3953 1396
3 1396 3954 1397
3 1397 3955 1398
3 1398 3956 1399
3 1399 3957 1400
3 1400 3958 1401
3 1401 3959 1402
3 1402 3960 1403
3 1403 3961 1404
3 1404 3962 1405
3 1405 3963 1406
3 1406 3964 1407
3 1407 3965 1408
3 1408 3966 1409
3 1409 3967 1410
3 1410 3968 1411
3 1411 3969 1412
3 1412 3970 1413
3 1413 3971 1414
3 1414 3972 1415
3 1415 3973 1416
3 1416 3974 1417
3 1417 3975 1418
3 1418 3976 1419
3 1419 3977 1420
3 1420 3978 1421
3 1421 3979 1422
3 1422 3980 1423
3 1423 3981 1424
3 1424 3982 1425
3 1425 3983 1426
3 1426 3984 1427
3 1427 3985 1428
3 1428 3986 1429
3 1429 3987 1430
3 1430 3988 1431
3 1431 3989 1432
3 1432 3990 1433
3 1433 3991 1434
3 1434 3992 1435
3 1435 3993 1436
3 1436 3994 1437
3 1437 3995 1438
3 1438 3996 1439
3 1439 3997 1440
3 1440 3998 1441
3 1441 3999 1442
3 1442 4000 1443
3 1443 4001 1444
3 1444 4002 1445
3 1445 4003 1446
3 1446 4004 1447
3 1447 4005 1448
3 1448 4006 1449
3 1449 4007 1450
3 1450 4008 1451
3 1451 4009 1452
3 1452 4010 1453
3 1453 4011 1454
3 1454 4012 1455
3 1455 4013 1456
3 1456 4014 1457
3 1457 4015 1458
3 1458 4016 1459
3 1459 4017 1460
3 1460 4018 1461
3 1461 4019 1462
3 1462 4020 1463
3 1463 4021 1464
3 1464 4022 1465
3 1465 4023 1466
3 1466 4024 1467
3 1467 4025 1468
3 1468 4026 1469
3 1469 4027 1470
3 1470 4028 1471
3 1471 4029 1472
3 1472 4030 1473
3 1473 4031 1474
3 1474 4032 1475
3 1475 4033 1476
3 1476 4034 1477
3 1477 4035 1478
3 1478 4036 1479
3 1479 4037 1480
3 1480 4038 1481
3 1481 4039 1482
3 1482 4040 1483
3 1483 4041 1484
3 1484 4042 1485
3 1485 4043 1486
3 1486 4044 1487
3 1487 4045 1488
3 1488 4046 1489
3 1489 4047 1490
3 1490 4048 1491
3 1491 4049 1492
3 1492 4050 1493
3 1493 4051 1494
3 1494 4052 1495
3 1495 4053 1496
3 1496 4054 1497
3 1497 4055 1498
3 1498 4056 1499
3 1499 4057 1500
3 1500 4058 1501
3 1501 4059 1502
3 1502 4060 1503
3 1503 4061 1504
3 1504 4062 1505
3 1505 4063 1506
3 1506 4064 1507
3 1507 4065 1508
3 1508 4066 1509
3 1509 4067 1510
3 1510 4068 1511
3 1511 4069 1512
3 1512 4070 1513
3 1513 4071 1514
3 1514 4072 1515
3 1515 4073 1516
3 1516 4074 1517
3 1517 4075 1518
3 1518 4076 1519
3 1519 4077 1520
3 1520 4078 1521
3 1521 4079 1522
3 1522 4080 1523
3 1523 4081 1524
3 1524 4082 1525
3 1525 4083 1526
3 1526 4084 1527
3 1527 4085 1528
3 1528 4086 1529
3 1529 4087 1530
3 1530 4088 1531
3 1531 4089 1532
3 1532 4090 1533
3 1533 4091 1534
3 1534 4092 1535
3 1535 4093 1536
3 1536 4094 1537
3 1537 4095 1538
3 1538 4096 1539
3 1539 4097 1540
3 1540 4098 1541
3 1541 4099 1542
3 1542 4100 1543
3 1543 4101 1544
3 1544 4102 1545
3 1545 4103 1546
3 1546 4104 1547
3 1547 4105 1548
3 1548 4106 1549
3 1549 4107 1550
3 1550 4108 2555
3 1551 4109 1552
3 1551 4110 2556
3 1552 4111 1553
3 1553 4112 1554
3 1554 4113 1555
3 1555 4114 1556
3 1556 4115 1557
3 1557 4116 1558
3 1558 4117 1559
3 1559 4118 1560
3 1560 4119 1561
3 1561 4120 1562
3 1562 4121 1563
3 1563 4122 1564
3 1564 4123 1565
3 1565 4124 1566
3 1566 4125 1567
3 1567 4126 1568
3 1568 4127 1569
3 1569 4128 1570
3 1570 4129 1571
3 1571 4130 1572
3 1572 4131 1573
3 1573 4132 1574
3 1574 4133 1575
3 1575 4134 1576
3 1576 4135 1577
3 1577 4136 1578
3 1578 4137 1579
3 1579 4138 1580
3 1580 4139 1581
3 1581 4140 1582
3 1582 4141 1583
3 1583 4142 1584
3 1584 4143 1585
3 1585 4144 1586
3 1586 4145 1587
3 1587 4146 1588
3 1588 4147 1589
3 1589 4148 1590
3 1590 4149 1591
3 1591 4150 1592
3 1592 4151 1593
3 1593 4152 1594
3 1594 4153 1595
3 1595 4154 1596
3 1596 4155 1597
3 1597 4156 1598
3 1598 4157 1599
3 1599 4158 1600
3 1600 4159 1601
3 1601 4160 1602
3 1602 4161 1603
3 1603 4162 1604
3 1604 4163 1605
3 1605 4164 1606
3 1606 4165 1607
3 1607 4166 1608
3 1608 4167 1609
3 1609 4168 1610
3 1610 4169 1611
3 1611 4170 1612
3 1612 4171 1613
3 1613 4172 1614
3 1614 4173 1615
3 1615 4174 1616
3 1616 4175 1617
3 1617 4176 1618
3 1618 4177 1619
3 1619 4178 1620
3 1620 4179 1621
3 1621 4180 1622
3 1622 4181 1623
3 1623 4182 1624
3 1624 4183 1625
3 1625 4184 1626
3 1626 4185 1627
3 1627 4186 1628
3 1628 4187 1629
3 1629 4188 1630
3 1630 4189 1631
3 1631 4190 1632
3 1632 4191 1633
3 1633 4192 1634
3 1634 4193 1635
3 1635 4194 1636
3 1636 4195 1637
3 1637 4196 1638
3 1638 4197 1639
3 1639 4198 1640
3 1640 4199 1641
3 1641 4200 1642
3 1642 4201 1643
3 1643 4202 1644
3 1644 4203 1645
3 1645 4204 1646
3 1646 4205 1647
3 1647 4206 1648
3 1648 4207 1649
3 1649 4208 1650
3 1650 4209 1651
3 1651 4210 1652
3 1652 4211 1653
3 1653 4212 1654
3 1654 4213 1655
3 1655 4214 1656
3 1656 4215 1657
3 1657 4216 1658
3 1658 4217 1659
3 1659 4218 1660
3 1660 4219 1661
3 1661 4220 1662
3 1662 4221 1663
3 1663 4222 1664
3 1664 4223 1665
3 1665 4224 1666
3 1666 4225 1667
3 1667 4226 1668
3 1668 4227 1669
3 1669 4228 1670
3 1670 4229 1671
3 1671 4230 1672
3 1672 4231 1673
3 1673 4232 1674
3 1674 4233 1675
3 1675 4234 1676
3 1676 4235 1677
3 1677 4236 1678
3 1678 4237 1679
3 1679 4238 1680
3 1680 4239 1681
3 1681 4240 1682
3 1682 4241 1683
3 1683 4242 1684
3 1684 4243 1685
3 1685 4244 1686
3 1686 4245 1687
3 1687 4246 1688
3 1688 4247 1689
3 1689 4248 1690
3 1690 4249 1691
3 1691 4250 1692
3 1692 4251 1693
3 1693 4252 1694
3 1694 4253 1695
3 1695 4254 1696
3 1696 4255 1697
3 1697 4256 1698
3 1698 4257 1699
3 1699 4258 1700
3 1700 4259 1701
3 1701 4260 1702
3 1702 4261 1703
3 1703 4262 1704
3 1704 4263 1705
3 1705 4264 1706
3 1706 4265 1707
3 1707 4266 1708
3 1708 4267 1709
3 1709 4268 1710
3 1710 4269 1711
3 1711 4270 1712
3 1712 4271 1713
3 1713 4272 1714
3 1714 4273 1715
3 1715 4274 1716
3 1716 4275 1717
3 1717 4276 1718
3 1718 4277 1719
3 1719 4278 1720
3 1720 4279 1721
3 1721 4280 1722
3 1722 4281 1723
3 1723 4282 1724
3 1724 4283 1725
3 1725 4284 1726
3 1726 4285 1727
3 1727 4286 1728
3 1728 4287 1729
3 1729 4288 1730
3 1730 4289 1731
3 1731 4290 1732
3 1732 4291 1733
3 1733 4292 1734
3 1734 4293 1735
3 1735 4294 1736
3 1736 4295 1737
3 1737 4296 1738
3 1738 4297 1739
3 1739 4298 1740
3 1740 4299 1741
3 1741 4300 1742
3 1742 4301 1743
3 1743 4302 1744
3 1744 4303 1745
3 1745 4304 1746
3 1746 4305 1747
3 1747 4306 1748
3 1748 4307 1749
3 1749 4308 1750
3 1750 4309 1751
3 1751 4310 1752
3 1752 4311 1753
3 1753 4312 1754
3 1754 4313 1755
3 1755 4314 1756
3 1756 4315 1757
3 1757 4316 1758
3 1758 4317 1759
3 1759 4318 1760
3 1760 4319 1761
3 1761 4320 1762
3 1762 4321 1763
3 1763 4322 1764
3 1764 4323 1765
3 1765 4324 1766
3 1766 4325 1767
3 1767 4326 1768
3 1768 4327 1769
3 1769 4328 1770
3 1770 4329 1771
3 1771 4330 1772
3 1772 4331 1773
3 1773 4332 1774
3 1774 4333 1775
3 1775 4334 1776
3 1776 4335 1777
3 1777 4336 1778
3 1778 4337 1779
3 1779 4338 1780
3 1780 4339 1781
3 1781 4340 1782
3 1782 4341 1783
3 1783 4342 1784
3 1784 4343 1785
3 1785 4344 1786
3 1786 4345 1787
3 1787 4346 1788
3 1788 4347 1789
3 1789 4348 1790
3 1790 4349 1791
3 1791 4350 1792
3 1792 4351 1793
3 1793 4352 1794
3 1794 4353 1795
3 1795 4354 1796
3 1796 4355 1797
3 1797 4356 1798
3 1798 4357 1799
3 1799 4358 1800
3 1800 4359 1801
3 1801 4360 1802
3 1802 4361 1803
3 1803 4362 1804
3 1804 4363 1805
3 1805 4364 1806
3 1806 4365 1807
3 1807 4366 1808
3 1808 4367 1809
3 1809 4368 1810
3 1810 4369 1811
3 1811 4370 1812
3 1812 4371 1813
3 1813 4372 1814
3 1814 4373 1815
3 1815 4374 1816
3 1816 4375 1817
3 1817 4376 1818
3 1818 4377 1819
3 1819 4378 1820
3 1820 4379 1821
3 1821 4380 1822
3 1822 4381 1823
3 1823 4382 1824
3 1824 4383 1825
3 1825 4384 1826
3 1826 4385 1827
3 1827 4386 1828
3 1828 4387 1829
3 1829 4388 1830
3 1830 4389 1831
3 1831 4390 1832
3 1832 4391 1833
3 1833 4392 1834
3 1834 4393 1835
3 1835 4394 1836
3 1836 4395 1837
3 1837 4396 1838
3 1838 4397 1839
3 1839 4398 1840
3 1840 4399 1841
3 1841 4400 1842
3 1842 4401 1843
3 1843 4402 1844
3 1844 4403 1845
3 1845 4404 1846
3 1846 4405 1847
3 1847 4406 1848
4 1848 4407 4408 1849
3 1849 4409 1850
3 1850 4410 1851
3 1851 4411 1852
3 1852 4412 1853
3 1855 4413 1856
3 1855 4414 2550
3 1856 4415 1857
3 1857 4416 1858
3 1858 4417 1859
3 1859 4418 1860
3 1860 4419 1861
3 1861 4420 1862
3 1862 4421 1863
3 1863 4422 1864
3 1864 4423 1865
3 1865 4424 1866
3 1866 4425 1867
3 1867 4426 1868
3 1868 4427 1869
3 1869 4428 1870
3 1870 4429 1871
3 1871 4430 1872
3 1872 4431 1873
3 1873 4432 1874
3 1874 4433 1875
3 1875 4434 1876
3 1876 4435 1877
3 1877 4436 1878
3 1878 4437 1879
3 1879 4438 1880
3 1880 4439 1881
3 1881 4440 1882
3 1882 4441 1883
3 1883 4442 1884
3 1884 4443 1885
3 1885 4444 1886
3 1886 4445 1887
3 1887 4446 1888
3 1888 4447 1889
3 1889 4448 1890
3 1890 4449 1891
3 1891 4450 1892
3 1892 4451 1893
3 1893 4452 1894
3 1894 4453 1895
3 1895 4454 1896
3 1896 4455 1897
3 1897 4456 1898
3 1898 4457 1899
3 1899 4458 1900
3 1900 4459 1901
3 1901 4460 1902
3 1902 4461 1903
3 1903 4462 1904
3 1904 4463 1905
3 1905 4464 1906
3 1906 4465 1907
3 1907 4466 1908
3 1908 4467 1909
3 1909 4468 1910
3 1910 4469 1911
3 1911 4470 1912
3 1912 4471 1913
3 1913 4472 1914
3 1914 4473 1915
3 1915 4474 1916
3 1916 4475 1917
3 1917 4476 1918
3 1918 4477 1919
3 1919 4478 1920
3 1920 4479 1921
3 1921 4480 1922
3 1922 4481 1923
3 1923 4482 1924
3 1924 4483 1925
3 1925 4484 1926
3 1926 4485 1927
3 1927 4486 1928
3 1928 4487 1929
3 1929 4488 1930
3 1930 4489 1931
3 1931 4490 1932
3 1932 4491 1933
3 1933 4492 1934
3 1934 4493 1935
3 1935 4494 1936
3 1936 4495 1937
3 1937 4496 1938
3 1938 4497 1939
3 1939 4498 1940
3 1940 4499 1941
3 1941 4500 1942
3 1942 4501 1943
3 1943 4502 1944
3 1944 4503 1945
3 1945 4504 1946
3 1946 4505 1947
3 1947 4506 1948
3 1948 4507 1949
3 1949 4508 1950
3 1950 4509 1951
3 1951 4510 1952
3 1952 4511 1953
3 1953 4512 1954
3 1954 4513 1955
3 1955 4514 1956
3 1956 4515 1957
3 1957 4516 1958
3 1958 4517 1959
3 1959 4518 1960
3 1960 4519 1961
3 1961 4520 1962
3 1962 4521 1963
3 1963 4522 1964
3 1964 4523 1965
3 1965 4524 1966
3 1966 4525 1967
3 1967 4526 1968
3 1968 4527 1969
3 1969 4528 1970
3 1970 4529 1971
3 1971 4530 1972
3 1972 4531 1973
3 1973 4532 1974
3 1974 4533 1975
3 1975 4534 1976
3 1976 4535 1977
3 1977 4536 1978
3 1978 4537 1979
3 1979 4538 1980
3 1980 4539 1981
3 1981 4540 1982
3 1982 4541 1983
3 1983 4542 1984
3 1984 4543 1985
3 1985 4544 1986
3 1986 4545 1987
3 1987 4546 1988
3 1988 4547 1989
3 1989 4548 1990
3 1990 4549 1991
3 1991 4550 1992
3 1992 4551 1993
3 1993 4552 1994
3 1994 4553 1995
3 1995 4554 1996
3 1996 4555 1997
3 1997 4556 1998
3 1998 4557 1999
3 1999 4558 2000
3 2000 4559 2001
3 2001 4560 2002
3 2002 4561 2003
3 2003 4562 2004
3 2004 4563 2005
3 2005 4564 2006
3 2006 4565 2007
3 2007 4566 2008
3 2008 4567 2009
3 2009 4568 2010
3 2010 4569 2011
3 2011 4570 2012
3 2012 4571 2013
3 2013 4572 2014
3 2014 4573 2015
3 2015 4574 2016
3 2016 4575 2017
3 2017 4576 2018
3 2018 4577 2019
3 2019 4578 2020
3 2020 4579 2021
3 2021 4580 2022
3 2022 4581 2023
3 2023 4582 2024
3 2024 4583 2025
3 2025 4584 2026
3 2026 4585 2027
3 2027 4586 2028
3 2028 4587 2029
3 2029 4588 2030
3 2030 4589 2031
3 2031 4590 2032
3 2032 4591 2033
3 2033 4592 2034
3 2034 4593 2035
3 2035 4594 2036
3 2036 4595 2037
3 2037 4596 2038
3 2038 4597 2039
3 2039 4598 2040
3 2040 4599 2041
3 2041 4600 2042
3 2042 4601 2043
3 2043 4602 2044
3 2044 4603 2045
3 2045 4604 2046
3 2046 4605 2047
3 2047 4606 2048
3 2048 4607 2049
3 2049 4608 2050
3 2050 4609 2051
3 2051 4610 2052
3 2052 4611 2053
3 2053 4612 2054
3 2054 4613 2055
3 2055 4614 2056
3 2056 4615 2057
3 2057 4616 2058
3 2058 4617 2059
3 2059 4618 2060
3 2060 4619 2061
3 2061 4620 2062
3 2062 4621 2063
3 2063 4622 2064
3 2064 4623 2065
3 2065 4624 2066
3 2066 4625 2067
3 2067 4626 2068
3 2068 4627 2069
3 2069 4628 2070
3 2070 4629 2071
3 2071 4630 2072
3 2072 4631 2073
3 2073 4632 2074
3 2074 4633 2075
3 2075 4634 2076
3 2076 4635 2077
3 2077 4636 2078
3 2078 4637 2079
3 2079 4638 2080
3 2080 4639 2081
3 2081 4640 2082
3 2082 4641 2083
3 2083 4642 2084
3 2084 4643 2085
3 2085 4644 2086
3 2086 4645 2087
3 2087 4646 2088
3 2088 4647 2089
3 2089 4648 2090
3 2090 4649 2091
3 2091 4650 2092
3 2092 4651 2093
3 2093 4652 2094
3 2094 4653 2095
3 2095 4654 2096
3 2096 4655 2097
3 2097 4656 2098
3 2098 4657 2099
3 2099 4658 2100
3 2100 4659 2101
3 2101 4660 2102
3 2102 4661 2103
3 2103 4662 2104
3 2104 4663 2105
3 2105 4664 2106
3 2106 4665 2107
3 2107 4666 2108
3 2108 4667 2109
3 2109 4668 2110
3 2110 4669 2111
3 2111 4670 2112
3 2112 4671 2113
3 2113 4672 2114
3 2114 4673 2115
3 2115 4674 2116
3 2116 4675 2117
3 2117 4676 2118
3 2118 4677 2119
3 2119 4678 2120
3 2120 4679 2121
3 2121 4680 2122
3 2122 4681 2123
3 2123 4682 2124
3 2124 4683 2125
3 2125 4684 2126
3 2126 4685 2127
3 2127 4686 2128
3 2128 4687 2129
3 2129 4688 2130
3 2130 4689 2131
3 2131 4690 2132
3 2132 4691 2133
3 2133 4692 2134
3 2134 4693 2135
3 2135 4694 2136
3 2136 4695 2137
3 2137 4696 2138
3 2138 4697 2139
3 2139 4698 2140
3 2140 4699 2141
3 2141 4700 2142
3 2142 4701 2143
3 2143 4702 2144
3 2144 4703 2145
3 2145 4704 2146
3 2146 4705 2147
3 2147 4706 2148
3 2148 4707 2149
3 2149 4708 2150
3 2150 4709 2151
3 2151 4710 2152
3 2152 4711 2153
3 2153 4712 2154
3 2154 4713 2155
3 2155 4714 2156
3 2156 4715 2157
3 2157 4716 2158
3 2158 4717 2159
3 2159 4718 2160
3 2160 4719 2161
3 2161 4720 2162
3 2162 4721 2163
3 2163 4722 2164
3 2164 4723 2165
3 2165 4724 2166
3 2166 4725 2167
3 2167 4726 2168
3 2168 4727 2169
3 2169 4728 2170
3 2170 4729 2171
3 2171 4730 2172
3 2172 4731 2173
3 2173 4732 2174
3 2174 4733 2175
3 2175 4734 2176
3 2176 4735 2177
3 2177 4736 2178
3 2178 4737 2179
3 2179 4738 2180
3 2180 4739 2181
3 2181 4740 2182
3 2182 4741 2183
3 2183 4742 2184
3 2184 4743 2185
3 2185 4744 2186
3 2186 4745 2187
3 2187 4746 2188
3 2188 4747 2189
3 2189 4748 2190
3 2190 4749 2191
3 2191 4750 2192
3 2192 4751 2193
3 2193 4752 2194
3 2194 4753 2195
3 2195 4754 2196
3 2196 4755 2197
3 2197 4756 2198
3 2198 4757 2199
4 2199 4758 4759 2200
3 2200 4760 2201
3 2201 4761 2202
3 2202 4762 2203
3 2203 4763 2557
3 2204 4764 2205
3 2204 4765 2558
3 2205 4766 2206
3 2206 4767 2207
3 2207 4768 2208
3 2208 4769 2209
3 2209 4770 2210
3 2210 4771 2211
3 2211 4772 2212
3 2212 4773 2213
3 2213 4774 2214
3 2214 4775 2215
3 2215 4776 2216
3 2216 4777 2217
3 2217 4778 2218
3 2218 4779 2219
3 2219 4780 2220
3 2220 4781 2221
3 2221 4782 2222
3 2222 4783 2223
3 2223 4784 2224
3 2224 4785 2225
3 2225 4786 2226
3 2226 4787 2227
3 2227 4788 2228
3 2228 4789 2229
3 2229 4790 2230
3 2230 4791 2231
3 2231 4792 2232
3 2232 4793 2233
3 2233 4794 2234
3 2234 4795 2235
3 2235 4796 2236
3 2236 4797 2237
3 2237 4798 2238
3 2238 4799 2239
3 2239 4800 2240
3 2240 4801 2241
3 2241 4802 2242
3 2242 4803 2243
3 2243 4804 2244
3 2244 4805 2245
3 2245 4806 2246
3 2246 4807 2247
3 2247 4808 2248
3 2248 4809 2249
3 2249 4810 2250
3 2250 4811 2251
3 2251 4812 2252
3 2252 4813 2253
3 2253 4814 2254
3 2254 4815 2255
3 2255 4816 2256
3 2256 4817 2257
3 2257 4818 2258
3 2258 4819 2259
3 2259 4820 2260
3 2260 4821 2261
3 2261 4822 2262
3 2262 4823 2263
3 2263 4824 2264
3 2264 4825 2265
3 2265 4826 2266
3 2266 4827 2267
3 2267 4828 2268
3 2268 4829 2269
3 2269 4830 2270
3 2270 4831 2271
3 2271 4832 2272
3 2272 4833 2273
3 2273 4834 2274
3 2274 4835 2275
3 2275 4836 2276
3 2276 4837 2277
3 2277 4838 2278
3 2278 4839 2279
3 2279 4840 2280
3 2280 4841 2281
3 2281 4842 2282
3 2282 4843 2283
3 2283 4844 2284
3 2284 4845 2285
3 2285 4846 2286
3 2286 4847 2287
3 2287 4848 2288
3 2288 4849 2289
3 2289 4850 2290
4 2290 4851 4852 2291
3 2291 4853 2292
3 2292 4854 2293
3 2293 4855 2294
3 2294 4856 2295
3 2295 4857 2296
3 2296 4858 2297
3 2297 4859 2298
3 2298 4860 2299
3 2299 4861 2300
3 2300 4862 2301
3 2301 4863 2302
3 2302 4864 2303
3 2303 4865 2304
3 2304 4866 2305
3 2305 4867 2306
3 2306 4868 2307
3 2307 4869 2308
3 2308 4870 2309
3 2309 4871 2310
3 2310 4872 2311
3 2311 4873 2312
3 2312 4874 2313
3 2313 4875 2314
3 2314 4876 2315
3 2315 4877 2316
3 2316 4878 2317
3 2317 4879 2318
3 2318 4880 2319
3 2319 4881 2320
3 2320 4882 2321
3 2321 4883 2322
3 2322 4884 2323
3 2323 4885 2324
3 2324 4886 2325
3 2325 4887 2326
3 2326 4888 2327
3 2327 4889 2328
3 2328 4890 2329
3 2329 4891 2330
3 2330 4892 2331
3 2331 4893 2332
3 2332 4894 2333
3 2333 4895 2334
3 2334 4896 2335
3 2335 4897 2336
3 2336 4898 2337
3 2337 4899 2338
3 2338 4900 2339
3 2339 4901 2340
3 2340 4902 2341
3 2341 4903 2342
3 2342 4904 2343
3 2343 4905 2344
3 2344 4906 2345
3 2345 4907 2346
3 2346 4908 2347
3 2347 4909 2348
3 2348 4910 2349
3 2349 4911 2350
3 2350 4912 2351
3 2351 4913 2352
3 2352 4914 2353
3 2353 4915 2354
3 2354 4916 2355
3 2355 4917 2356
3 2356 4918 2357
3 2357 4919 2358
3 2358 4920 2359
3 2359 4921 2360
3 2360 4922 2361
3 2361 4923 2362
3 2362 4924 2363
3 2363 4925 2364
3 2364 4926 2365
3 2365 4927 2366
3 2366 4928 2367
3 2367 4929 2368
3 2368 4930 2369
3 2369 4931 2370
3 2370 4932 2371
3 2371 4933 2372
3 2372 4934 2373
3 2373 4935 2374
3 2374 4936 2375
3 2375 4937 2376
3 2376 4938 2377
3 2377 4939 2378
3 2378 4940 2379
3 2379 4941 2380
3 2380 4942 2381
3 2381 4943 2382
3 2382 4944 2383
3 2383 4945 2384
3 2384 4946 2385
3 2385 4947 2386
3 2386 4948 2387
3 2387 4949 2388
3 2388 4950 2389
3 2389 4951 2390
3 2390 4952 2391
3 2391 4953 2392
3 2392 4954 2393
3 2393 4955 2394
3 2394 4956 2395
3 2395 4957 2396
3 2396 4958 2397
3 2397 4959 2398
3 2398 4960 2399
3 2399 4961 2400
3 2400 4962 2401
3 2401 4963 2402
3 2402 4964 2403
3 2403 4965 2404
3 2404 4966 2405
3 2405 4967 2406
3 2406 4968 2407
3 2407 4969 2408
3 2408 4970 2409
3 2409 4971 2410
3 2410 4972 2411
3 2411 4973 2412
3 2412 4974 2413
3 2413 4975 2414
3 2414 4976 2415
3 2415 4977 2416
3 2416 4978 2417
3 2417 4979 2418
3 2418 4980 2419
3 2419 4981 2420
3 2420 4982 2421
3 2421 4983 2422
3 2422 4984 2423
3 2423 4985 2424
3 2424 4986 2425
3 2425 4987 2426
3 2426 4988 2427
3 2427 4989 2428
3 2428 4990 2429
3 2429 4991 2430
3 2430 4992 2431
3 2431 4993 2432
3 2432 4994 2433
3 2433 4995 2434
3 2434 4996 2435
3 2435 4997 2436
3 2436 4998 2437
3 2437 4999 2438
3 2438 5000 2439
3 2439 5001 2440
3 2440 5002 2441
3 2441 5003 2442
3 2442 5004 2443
3 2443 5005 2444
3 2444 5006 2445
3 2445 5007 2446
3 2446 5008 2447
3 2447 5009 2448
3 2448 5010 2449
3 2449 5011 2450
3 2450 5012 2451
3 2451 5013 2452
3 2452 5014 2453
3 2453 5015 2454
3 2454 5016 2455
3 2455 5017 2456
3 2456 5018 2457
3 2457 5019 2458
3 2458 5020 2459
3 2459 5021 2460
3 2460 5022 2461
3 2461 5023 2462
3 2462 5024 2463
3 2463 5025 2464
3 2464 5026 2465
3 2465 5027 2466
3 2466 5028 2467
3 2467 5029 2468
3 2468 5030 2469
3 2469 5031 2470
3 2470 5032 2471
3 2471 5033 2472
3 2472 5034 2473
3 2473 5035 2474
3 2474 5036 2475
3 2475 5037 2476
3 2476 5038 2477
3 2477 5039 2478
3 2478 5040 2479
3 2479 5041 2480
3 2480 5042 2481
3 2481 5043 2482
3 2482 5044 2483
3 2483 5045 2484
3 2484 5046 2485
3 2485 5047 2486
3 2486 5048 2487
3 2487 5049 2488
3 2488 5050 2489
3 2489 5051 2490
3 2490 5052 2491
3 2491 5053 2492
3 2492 5054 2493
3 2493 5055 2494
3 2494 5056 2495
3 2495 5057 2496
3 2496 5058 2497
3 2497 5059 2498
3 2498 5060 2499
3 2499 5061 2500
3 2500 5062 2501
3 2501 5063 2502
3 2502 5064 2503
3 2503 5065 2504
3 2504 5066 2505
3 2505 5067 2506
3 2506 5068 2507
3 2507 5069 2508
3 2508 5070 2509
3 2509 5071 2510
3 2510 5072 2511
3 2511 5073 2512
3 2512 5074 2513
3 2513 5075 2514
3 2514 5076 2515
3 2515 5077 2516
3 2516 5078 2517
3 2517 5079 2518
3 2518 5080 2519
3 2519 5081 2520
3 2520 5082 2521
3 2521 5083 2522
3 2522 5084 2523
3 2523 5085 2524
3 2524 5086 2525
3 2525 5087 2526
3 2526 5088 2527
3 2527 5089 2528
3 2528 5090 2529
3 2529 5091 2530
3 2530 5092 2531
3 2531 5093 2532
3 2532 5094 2533
3 2533 5095 2534
3 2534 5096 2535
3 2535 5097 2536
3 2536 5098 2537
3 2537 5099 2538
3 2538 5100 2539
3 2539 5101 2540
3 2540 5102 2541
3 2541 5103 2542
3 2542 5104 2543
3 2543 5105 2544
3 2544 5106 2545
3 2545 5107 2546
3 2546 5108 2547
3 2547 5109 2548
3 2548 5110 2549
3 2549 5111 2550

CELL_TYPES 2547
4
4
4
4
4
4
4
4
4
4
4
4
4
4
4
4
4
4
4
4
4
4
4
4
4
4
4
4
4
4
4
4
4
4
4
4
4
4
4
4
4
4
4
4
4
4
4
4
4
4
4
4
4
4
4
4
4
4
4
4
4
4
4
4
4
4
4
4
4
4
4
4
4
4
4
4
4
4
4
4
4
4
4
4
4
4
4
4
4
4
4
4
4
4
4
4
4
4
4
4
4
4
4
4
4
4
4
4
4
4
4
4
4
4
4
4
4
4
4
4
4
4
4
4
4
4
4
4
4
4
4
4
4
4
4
4
4
4
4
4
4
4
4
4
4
4
4
4
4
4
4
4
4
4
4
4
4
4
4
4
4
4
4
4
4
4
4
4
4
4
4
4
4
4
4
4
4
4
4
4
4
4
4
4
4
4
4
4
4
4
4
4
4
4
4
4
4
4
4
4
4
4
4
4
4
4
4
4
4
4
4
4
4
4
4
4
4
4
4
4
4
4
4
4
4
4
4
4
4
4
4
4
4
4
4
4
4
4
4
4
4
4
4
4
4
4
4
4
4
4
4
4
4
4
4
4
4
4
4
4
4
4
4
4
4
4
4
4
4
4
4
4
4
4
4
4
4
4
4
4
4
4
4
4
4
4
4
4
4
4
4
4
4
4
4
4
4
4
4
4
4
4
4
4
4
4
4
4
4
4
4
4
4
4
4
4
4
4
4
4
4
4
4
4
4
4
4
4
4
4
4
4
4
4
4
4
4
4
4
4
4
4
4
4
4
4
4
4
4
4
4
4
4
4
4
4
4
4
4
4
4
4
4
4
4
4
4
4
4
4
4
4
4
4
4
4
4
4
4
4
4
4
4
4
4
4
4
4
4
4
4
4
4
4
4
4
4
4
4
4
4
4
4
4
4
4
4
4
4
4
4
4
4
4
4
4
4
4
4
4
4
4
4
4
4
4
4
4
4
4
4
4
4
4
4
4
4
4
4
4
4
4
4
4
4
4
4
4
4
4
4
4
4
4
4
4
4
4
4
4
4
4
4
4
4
4
4
4
4
4
4
4
4
4
4
4
4
4
4
4
4
4
4
4
4
4
4
4
4
4
4
4
4
4
4
4
4
4
4
4
4
4
4
4
4
4
4
4
4
4
4
4
4
4
4
4
4
4
4
4
4
4
4
4
4
4
4
4
4
4
4
4
4
4
4
4
4
4
4
4
4
4
4
4
4
4
4
4
4
4
4
4
4
4
4
4
4
4
4
4
4
4
4
4
4
4
4
4
4
4
4
4
4
4
4
4
4
4
4
4
4
4
4
4
4
4
4
4
4
4
4
4
4
4
4
4
4
4
4
4
4
4
4
4
4
4
4
4
4
4
4
4
4
4
4
4
4
4
4
4
4
4
4
4
4
4
4
4
4
4
4
4
4
4
4
4
4
4
4
4
4
4
4
4
4
4
4
4
4
4
4
4
4
4
4
4
4
4
4
4
4
4
4
4
4
4
4
4
4
4
4
4
4
4
4
4
4
4
4
4
4
4
4
4
4
4
4
4
4
4
4
4
4
4
4
4
4
4
4
4
4
4
4
4
4
4
4
4
4
4
4
4
4
4
4
4
4
4
4
4
4
4
4
4
4
4
4
4
4
4
4
4
4
4
4
4
4
4
4
4
4
4
4
4
4
4
4
4
4
4
4
4
4
4
4
4
4
4
4
4
4
4
4
4
4
4
4
4
4
4
4
4
4
4
4
4
4
4
4
4
4
4
4
4
4
4
4
4
4
4
4
4
4
4
4
4
4
4
4
4
4
4
4
4
4
4
4
4
4
4
4
4
4
4
4
4
4
4
4
4
4
4
4
4
4
4
4
4
4
4
4
4
4
4
4
4
4
4
4
4
4
4
4
4
4
4
4
4
4
4
4
4
4
4
4
4
4
4
4
4
4
4
4
4
4
4
4
4
4
4
4
4
4
4
4
4
4
4
4
4
4
4
4
4
4
4
4
4
4
4
4
4
4
4
4
4
4
4
4
4
4
4
4
4
4
4
4
4
4
4
4
4
4
4
4
4
4
4
4
4
4
4
4
4
4
4
4
4
4
4
4
4
4
4
4
4
4
4
4
4
4
4
4
4
4
4
4
4
4
4
4
4
4
4
4
4
4
4
4
4
4
4
4
4
4
4
4
4
4
4
4
4
4
4
4
4
4
4
4
4
4
4
4
4
4
4
4
4
4
4
4
4
4
4
4
4
4
4
4
4
4
4
4
4
4
4
4
4
4
4
4
4
4
4
4
4
4
4
4
4
4
4
4
4
4
4
4
4
4
4
4
4
4
4
4
4
4
4
4
4
4
4
4
4
4
4
4
4
4
4
4
4
4
4
4
4
4
4
4
4
4
4
4
4
4
4
4
4
4
4
4
4
4
4
4
4
4
4
4
4
4
4
4
4
4
4
4
4
4
4
4
4
4
4
4
4
4
4
4
4
4
4
4
4
4
4
4
4
4
4
4
4
4
4
4
4
4
4
4
4
4
4
4
4
4
4
4
4
4
4
4
4
4
4
4
4
4
4
4
4
4
4
4
4
4
4
4
4
4
4
4
4
4
4
4
4
4
4
4
4
4
4
4
4
4
4
4
4
4
4
4
4
4
4
4
4
4
4
4
4
4
4
4
4
4
4
4
4
4
4
4
4
4
4
4
4
4
4
4
4
4
4
4
4
4
4
4
4
4
4
4
4
4
4
4
4
4
4
4
4
4
4
4
4
4
4
4
4
4
4
4
4
4
4
4
4
4
4
4
4
4
4
4
4
4
4
4
4
4
4
4
4
4
4
4
4
4
4
4
4
4
4
4
4
4
4
4
4
4
4
4
4
4
4
4
4
4
4
4
4
4
4
4
4
4
4
4
4
4
4
4
4
4
4
4
4
4
4
4
4
4
4
4
4
4
4
4
4
4
4
4
4
4
4
4
4
4
4
4
4
4
4
4
4
4
4
4
4
4
4
4
4
4
4
4
4
4
4
4
4
4
4
4
4
4
4
4
4
4
4
4
4
4
4
4
4
4
4
4
4
4
4
4
4
4
4
4
4
4
4
4
4
4
4
4
4
4
4
4
4
4
4
4
4
4
4
4
4
4
4
4
4
4
4
4
4
4
4
4
4
4
4
4
4
4
4
4
4
4
4
4
4
4
4
4
4
4
4
4
4
4
4
4
4
4
4
4
4
4
4
4
4
4
4
4
4
4
4
4
4
4
4
4
4
4
4
4
4
4
4
4
4
4
4
4
4
4
4
4
4
4
4
4
4
4
4
4
4
4
4
4
4
4
4
4
4
4
4
4
4
4
4
4
4
4
4
4
4
4
4
4
4
4
4
4
4
4
4
4
4
4
4
4
4
4
4
4
4
4
4
4
4
4
4
4
4
4
4
4
4
4
4
4
4
4
4
4
4
4
4
4
4
4
4
4
4
4
4
4
4
4
4
4
4
4
4
4
4
4
4
4
4
4
4
4
4
4
4
4
4
4
4
4
4
4
4
4
4
4
4
4
4
4
4
4
4
4
4
4
4
4
4
4
4
4
4
4
4
4
4
4
4
4
4
4
4
4
4
4
4
4
4
4
4
4
4
4
4
4
4
4
4
4
4
4
4
4
4
4
4
4
4
4
4
4
4
4
4
4
4
4
4
4
4
4
4
4
4
4
4
4
4
4
4
4
4
4
4
4
4
4
4
4
4
4
4
4
4
4
4
4
4
4
4
4
4
4
4
4
4
4
4
4
4
4
4
4
4
4
4
4
4
4
4
4
4
4
4
4
4
4
4
4
4
4
4
4
4
4
4
4
4
4
4
4
4
4
4
4
4
4
4
4
4
4
4
4
4
4
4
4
4
4
4
4
4
4
4
4
4
4
4
4
4
4
4
4
4
4
4
4
4
4
4
4
4
4
4
4
4
4
4
4
4
4
4
4
4
4
4
4
4
4
4
4
4
4
4
4
4
4
4
4
4
4
4
4
4
4
4
4
4
4
4
4
4
4
4
4
4
4
4
4
4
4
4
4
4
4
4
4
4
4
4
4
4
4
4
4
4
4
4
4
4
4
4
4
4
4
4
4
4
4
4
4
4
4
4
4
4
4
4
4
4
4
4
4
4
4
4
4
4
4
4
4
4
4
4
4
4
4
4
4
4
4
4
4
4
4
4
4
4
4
4
4
4
4
4
4
4
4
4
4
4
4
4
4
4
4
4
4
4
4
4
4
4
4
4
4
4
4
4
4
4
4
4
4
4
4
4
4
4
4
4
4
4
4
4
4
4
4
4
4
4
4
4
4
4
4
4
4
4
4
4
4
4
4
4
4
4
4
4
4
4
4
4
4
4
4
4
4
4
4
4
4
4
4
4
4
4
4
4
4
4
4
4
4
4
4
4
4
4
4
4
4
4
4
4
4
4
4
4
4
4
4
4
4
4
4
4
4
4
4
4
4
4
4
4
4
4
4
4
4
4
4
4
4
4
4
4
4
4
4
4
4
4
4
4
4
4
4
4
4
4
4
4
4
4
4
4
4
4
4
4
4
4
4
4
4
4
4
4
4
4
4
4
4
4
4
4
4
4
4
4
4
4
4
4
4
4
4
4
4
4
4
4
4
4
4
4
4
4
4
4
4
4
4
4
4
4
4
4
4
4
4
4
4
4
4
4
4
4
4
4
4
4
4
4
4
4
4
4
4
4
4
4
4
4
4
4
4
4
4
4
4
4
4
4
4
4
4
4
4
4
4
4
4
4
4
4
4
4
4
4
4
4
4
4
4
4
4
4
4
4
4
4
4
4
4
4
4
4
4
4
4
4
4
4
4
4
4
4
4
4
4
4
4
4
4
4
4
4
4
4
4
4
4
4
4
4
4
4
4
4
4
4
4
4
4
4
4
4
4
4
4
4
4
4
4
4
4
4
4
4
4
4
4
4
4
4
4
4
4
4
4
4
4
4
4
4
4
4
4
4
4
4
4
4
4
4
4
4
4
4
4
4
4
4
4
4
4
4
4
4
4
4
4
4
4
4
4
4
4
4
4
4
4
4
4
4
4
4
4
4
4
4
4
4
4
4
4
4
4
4
4
4
4
4
4
4
4
4
4
4
4
4
4
4
4
4
4
4
4
4
4
4
4
4
4
4
4
4
4
4
4
4
4
4
4
4
4
4
4
4
4
4
4
4
4
4
4
4
4
4
4
4
4
4
4
4
4
4
4
4
4
4
4
4
4
4
4
4
4
4
4
4
4
4
4
4
4
4
4
4
4
4
4
4
4
4
4
4
4
4
4
4
4
4
4
4
4
4
4
4
4
4
4
4
4
4
4
4
4
4
4
4
4
4
4
4
4
4
4
4
4
4
4
4
4
4
4
4
4
4
4
4
4
4
4
4
4
4
4
4
4
4
4
4
4
4
4
4
4
4
4
4
4
4
4
4
4
4
4
4
4
4
4
4
4
4
4
4
4
4
4
4
4
4
4
4
4
4
4
4
4
4
4
4
4
4
4
4
4
4
4
4
4
4
4
4
4
4
4
4
4
4
4
4
4
4
4
4
4
4
4
4
4
4
4
4
4
4
4
4
4
4
4
4
4
4
4
4
4
4
4
4
4
4
4
4
4
4
4
4
4
4
4
4
4
4
4
4
4
4
4
4
4
4
4
4
4
4
4
4
4
4
4
4
4
4
4
4
4
4
4
4
4
4
4
4
4
4
4
4
4
4
4

POINT_DATA 5112
VECTORS PK_force double
0.000000000000000e+00 0.000000000000000e+00 0.000000000000000e+00
0.000000000000000e+00 0.000000000000000e+00 0.000000000000000e+00
0.000000000000000e+00 0.000000000000000e+00 0.000000000000000e+00
0.000000000000000e+00 0.000000000000000e+00 0.000000000000000e+00
0.000000000000000e+00 0.000000000000000e+00 0.000000000000000e+00
0.000000000000000e+00 0.000000000000000e+00 0.000000000000000e+00
0.000000000000000e+00 0.000000000000000e+00 0.000000000000000e+00
0.000000000000000e+00 0.000000000000000e+00 0.000000000000000e+00
0.000000000000000e+00 0.000000000000000e+00 0.000000000000000e+00
0.000000000000000e+00 0.000000000000000e+00 0.000000000000000e+00
0.000000000000000e+00 0.000000000000000e+00 0.000000000000000e+00
0.000000000000000e+00 0.000000000000000e+00 0.000000000000000e+00
0.000000000000000e+00 0.000000000000000e+00 0.000000000000000e+00
0.000000000000000e+00 0.000000000000000e+00 0.000000000000000e+00
0.000000000000000e+00 0.000000000000000e+00 0.000000000000000e+00
0.000000000000000e+00 0.000000000000000e+00 0.000000000000000e+00
0.000000000000000e+00 0.000000000000000e+00 0.000000000000000e+00
0.000000000000000e+00 0.000000000000000e+00 0.000000000000000e+00
0.000000000000000e+00 0.000000000000000e+00 0.000000000000000e+00
0.000000000000000e+00 0.000000000000000e+00 0.000000000000000e+00
0.000000000000000e+00 0.000000000000000e+00 0.000000000000000e+00
0.000000000000000e+00 0.000000000000000e+00 0.000000000000000e+00
0.000000000000000e+00 0.000000000000000e+00 0.000000000000000e+00
0.000000000000000e+00 0.000000000000000e+00 0.000000000000000e+00
0.000000000000000e+00 0.000000000000000e+00 0.000000000000000e+00
0.000000000000000e+00 0.000000000000000e+00 0.000000000000000e+00
0.000000000000000e+00 0.000000000000000e+00 0.000000000000000e+00
0.000000000000000e+00 0.000000000000000e+00 0.000000000000000e+00
0.000000000000000e+00 0.000000000000000e+00 0.000000000000000e+00
0.000000000000000e+00 0.000000000000000e+00 0.000000000000000e+00
0.000000000000000e+00 0.000000000000000e+00 0.000000000000000e+00
0.000000000000000e+00 0.000000000000000e+00 0.000000000000000e+00
0.000000000000000e+00 0.000000000000000e+00 0.000000000000000e+00
0.000000000000000e+00 0.000000000000000e+00 0.000000000000000e+00
0.000000000000000e+00 0.000000000000000e+00 0.000000000000000e+00
0.000000000000000e+00 0.000000000000000e+00 0.000000000000000e+00
0.000000000000000e+00 0.000000000000000e+00 0.000000000000000e+00
0.000000000000000e+00 0.000000000000000e+00 0.000000000000000e+00
0.000000000000000e+00 0.000000000000000e+00 0.000000000000000e+00
0.000000000000000e+00 0.000000000000000e+00 0.000000000000000e+00
0.000000000000000e+00 0.000000000000000e+00 0.000000000000000e+00
0.000000000000000e+00 0.000000000000000e+00 0.000000000000000e+00
0.000000000000000e+00 0.000000000000000e+00 0.000000000000000e+00
0.000000000000000e+00 0.000000000000000e+00 0.000000000000000e+00
0.000000000000000e+00 0.000000000000000e+00 0.000000000000000e+00
0.000000000000000e+00 0.000000000000000e+00 0.000000000000000e+00
0.000000000000000e+00 0.000000000000000e+00 0.000000000000000e+00
0.000000000000000e+00 0.000000000000000e+00 0.000000000000000e+00
0.000000000000000e+00 0.000000000000000e+00 0.000000000000000e+00
0.000000000000000e+00 0.000000000000000e+00 0.000000000000000e+00
0.000000000000000e+00 0.000000000000000e+00 0.000000000000000e+00
0.000000000000000e+00 0.000000000000000e+00 0.000000000000000e+00
0.000000000000000e+00 0.000000000000000e+00 0.000000000000000e+00
0.000000000000000e+00 0.000000000000000e+00 0.000000000000000e+00
0.000000000000000e+00 0.000000000000000e+00 0.000000000000000e+00
0.000000000000000e+00 0.000000000000000e+00 0.000000000000000e+00
0.000000000000000e+00 0.000000000000000e+00 0.000000000000000e+00
0.000000000000000e+00 0.000000000000000e+00 0.000000000000000e+00
0.000000000000000e+00 0.000000000000000e+00 0.000000000000000e+00
0.000000000000000e+00 0.000000000000000e+00 0.000000000000000e+00
0.000000000000000e+00 0.000000000000000e+00 0.000000000000000e+00
0.000000000000000e+00 0.000000000000000e+00 0.000000000000000e+00
0.000000000000000e+00 0.000000000000000e+00 0.000000000000000e+00
0.000000000000000e+00 0.000000000000000e+00 0.000000000000000e+00
0.000000000000000e+00 0.000000000000000e+00 0.000000000000000e+00
0.000000000000000e+00 0.000000000000000e+00 0.000000000000000e+00
0.000000000000000e+00 0.000000000000000e+00 0.000000000000000e+00
0.000000000000000e+00 0.000000000000000e+00 0.000000000000000e+00
0.000000000000000e+00 0.000000000000000e+00 0.000000000000000e+00
0.000000000000000e+00 0.000000000000000e+00 0.000000000000000e+00
0.000000000000000e+00 0.000000000000000e+00 0.000000000000000e+00
0.000000000000000e+00 0.000000000000000e+00 0.000000000000000e+00
0.000000000000000e+00 0.000000000000000e+00 0.000000000000000e+00
0.000000000000000e+00 0.000000000000000e+00 0.000000000000000e+00
0.000000000000000e+00 0.000000000000000e+00 0.000000000000000e+00
0.000000000000000e+00 0.000000000000000e+00 0.000000000000000e+00
0.000000000000000e+00 0.000000000000000e+00 0.000000000000000e+00
0.000000000000000e+00 0.000000000000000e+00 0.000000000000000e+00
0.000000000000000e+00 0.000000000000000e+00 0.000000000000000e+00
0.000000000000000e+00 0.000000000000000e+00 0.000000000000000e+00
0.000000000000000e+00 0.000000000000000e+00 0.000000000000000e+00
0.000000000000000e+00 0.000000000000000e+00 0.000000000000000e+00
0.000000000000000e+00 0.000000000000000e+00 0.000000000000000e+00
0.000000000000000e+00 0.000000000000000e+00 0.000000000000000e+00
0.000000000000000e+00 0.000000000000000e+00 0.000000000000000e+00
0.000000000000000e+00 0.000000000000000e+00 0.000000000000000e+00
0.000000000000000e+00 0.000000000000000e+00 0.000000000000000e+00
0.000000000000000e+00 0.000000000000000e+00 0.000000000000000e+00
0.000000000000000e+00 0.000000000000000e+00 0.000000000000000e+00
0.000000000000000e+00 0.000000000000000e+00 0.000000000000000e+00
0.000000000000000e+00 0.000000000000000e+00 0.000000000000000e+00
0.000000000000000e+00 0.000000000000000e+00 0.000000000000000e+00
0.000000000000000e+00 0.000000000000000e+00 0.000000000000000e+00
0.000000000000000e+00 0.000000000000000e+00 0.000000000000000e+00
0.000000000000000e+00 0.000000000000000e+00 0.000000000000000e+00
0.000000000000000e+00 0.000000000000000e+00 0.000000000000000e+00
0.000000000000000e+00 0.000000000000000e+00 0.000000000000000e+00
0.000000000000000e+00 0.000000000000000e+00 0.000000000000000e+00
0.000000000000000e+00 0.000000000000000e+00 0.000000000000000e+00
0.000000000000000e+00 0.000000000000000e+00 0.000000000000000e+00
0.000000000000000e+00 0.000000000000000e+00 0.000000000000000e+00
0.000000000000000e+00 0.000000000000000e+00 0.000000000000000e+00
0.000000000000000e+00 0.000000000000000e+00 0.000000000000000e+00
0.000000000000000e+00 0.000000000000000e+00 0.000000000000000e+00
0.000000000000000e+00 0.000000000000000e+00 0.000000000000000e+00
0.000000000000000e+00 0.000000000000000e+00 0.000000000000000e+00
0.000000000000000e+00 0.000000000000000e+00 0.000000000000000e+00
0.000000000000000e+00 0.000000000000000e+00 0.000000000000000e+00
0.000000000000000e+00 0.000000000000000e+00 0.000000000000000e+00
0.000000000000000e+00 0.000000000000000e+00 0.000000000000000e+00
0.000000000000000e+00 0.000000000000000e+00 0.000000000000000e+00
0.000000000000000e+00 0.000000000000000e+00 0.000000000000000e+00
0.000000000000000e+00 0.000000000000000e+00 0.000000000000000e+00
0.000000000000000e+00 0.000000000000000e+00 0.000000000000000e+00
0.000000000000000e+00 0.000000000000000e+00 0.000000000000000e+00
0.000000000000000e+00 0.000000000000000e+00 0.000000000000000e+00
0.000000000000000e+00 0.000000000000000e+00 0.000000000000000e+00
0.000000000000000e+00 0.000000000000000e+00 0.000000000000000e+00
0.000000000000000e+00 0.000000000000000e+00 0.000000000000000e+00
0.000000000000000e+00 0.000000000000000e+00 0.000000000000000e+00
0.000000000000000e+00 0.000000000000000e+00 0.000000000000000e+00
0.000000000000000e+00 0.000000000000000e+00 0.000000000000000e+00
0.000000000000000e+00 0.000000000000000e+00 0.000000000000000e+00
0.000000000000000e+00 0.000000000000000e+00 0.000000000000000e+00
0.000000000000000e+00 0.000000000000000e+00 0.000000000000000e+00
0.000000000000000e+00 0.000000000000000e+00 0.000000000000000e+00
0.000000000000000e+00 0.000000000000000e+00 0.000000000000000e+00
0.000000000000000e+00 0.000000000000000e+00 0.000000000000000e+00
0.000000000000000e+00 0.000000000000000e+00 0.000000000000000e+00
0.000000000000000e+00 0.000000000000000e+00 0.000000000000000e+00
0.000000000000000e+00 0.000000000000000e+00 0.000000000000000e+00
0.000000000000000e+00 0.000000000000000e+00 0.000000000000000e+00
0.000000000000000e+00 0.000000000000000e+00 0.000000000000000e+00
0.000000000000000e+00 0.000000000000000e+00 0.000000000000000e+00
0.000000000000000e+00 0.000000000000000e+00 0.000000000000000e+00
0.000000000000000e+00 0.000000000000000e+00 0.000000000000000e+00
0.000000000000000e+00 0.000000000000000e+00 0.000000000000000e+00
0.000000000000000e+00 0.000000000000000e+00 0.000000000000000e+00
0.000000000000000e+00 0.000000000000000e+00 0.000000000000000e+00
0.000000000000000e+00 0.000000000000000e+00 0.000000000000000e+00
0.000000000000000e+00 0.000000000000000e+00 0.000000000000000e+00
0.000000000000000e+00 0.000000000000000e+00 0.000000000000000e+00
0.000000000000000e+00 0.000000000000000e+00 0.000000000000000e+00
0.000000000000000e+00 0.000000000000000e+00 0.000000000000000e+00
0.000000000000000e+00 0.000000000000000e+00 0.000000000000000e+00
0.000000000000000e+00 0.000000000000000e+00 0.000000000000000e+00
0.000000000000000e+00 0.000000000000000e+00 0.000000000000000e+00
0.000000000000000e+00 0.000000000000000e+00 0.000000000000000e+00
0.000000000000000e+00 0.000000000000000e+00 0.000000000000000e+00
0.000000000000000e+00 0.000000000000000e+00 0.000000000000000e+00
0.000000000000000e+00 0.000000000000000e+00 0.000000000000000e+00
0.000000000000000e+00 0.000000000000000e+00 0.000000000000000e+00
0.000000000000000e+00 0.000000000000000e+00 0.000000000000000e+00
0.000000000000000e+00 0.000000000000000e+00 0.000000000000000e+00
0.000000000000000e+00 0.000000000000000e+00 0.000000000000000e+00
0.000000000000000e+00 0.000000000000000e+00 0.000000000000000e+00
0.000000000000000e+00 0.000000000000000e+00 0.000000000000000e+00
0.000000000000000e+00 0.000000000000000e+00 0.000000000000000e+00
0.000000000000000e+00 0.000000000000000e+00 0.000000000000000e+00
0.000000000000000e+00 0.000000000000000e+00 0.000000000000000e+00
0.000000000000000e+00 0.000000000000000e+00 0.000000000000000e+00
0.000000000000000e+00 0.000000000000000e+00 0.000000000000000e+00
0.000000000000000e+00 0.000000000000000e+00 0.000000000000000e+00
0.000000000000000e+00 0.000000000000000e+00 0.000000000000000e+00
0.000000000000000e+00 0.000000000000000e+00 0.000000000000000e+00
0.000000000000000e+00 0.000000000000000e+00 0.000000000000000e+00
0.000000000000000e+00 0.000000000000000e+00 0.000000000000000e+00
0.000000000000000e+00 0.000000000000000e+00 0.000000000000000e+00
0.000000000000000e+00 0.000000000000000e+00 0.000000000000000e+00
0.000000000000000e+00 0.000000000000000e+00 0.000000000000000e+00
0.000000000000000e+00 0.000000000000000e+00 0.000000000000000e+00
0.000000000000000e+00 0.000000000000000e+00 0.000000000000000e+00
0.000000000000000e+00 0.000000000000000e+00 0.000000000000000e+00
0.000000000000000e+00 0.000000000000000e+00 0.000000000000000e+00
0.000000000000000e+00 0.000000000000000e+00 0.000000000000000e+00
0.000000000000000e+00 0.000000000000000e+00 0.000000000000000e+00
0.000000000000000e+00 0.000000000000000e+00 0.000000000000000e+00
0.000000000000000e+00 0.000000000000000e+00 0.000000000000000e+00
0.000000000000000e+00 0.000000000000000e+00 0.000000000000000e+00
0.000000000000000e+00 0.000000000000000e+00 0.000000000000000e+00
0.000000000000000e+00 0.000000000000000e+00 0.000000000000000e+00
0.000000000000000e+00 0.000000000000000e+00 0.000000000000000e+00
0.000000000000000e+00 0.000000000000000e+00 0.000000000000000e+00
0.000000000000000e+00 0.000000000000000e+00 0.000000000000000e+00
0.000000000000000e+00 0.000000000000000e+00 0.000000000000000e+00
0.000000000000000e+00 0.000000000000000e+00 0.000000000000000e+00
0.000000000000000e+00 0.000000000000000e+00 0.000000000000000e+00
0.000000000000000e+00 0.000000000000000e+00 0.000000000000000e+00
0.000000000000000e+00 0.000000000000000e+00 0.000000000000000e+00
0.000000000000000e+00 0.000000000000000e+00 0.000000000000000e+00
0.000000000000000e+00 0.000000000000000e+00 0.000000000000000e+00
0.000000000000000e+00 0.000000000000000e+00 0.000000000000000e+00
0.000000000000000e+00 0.000000000000000e+00 0.000000000000000e+00
0.000000000000000e+00 0.000000000000000e+00 0.000000000000000e+00
0.000000000000000e+00 0.000000000000000e+00 0.000000000000000e+00
0.000000000000000e+00 0.000000000000000e+00 0.000000000000000e+00
0.000000000000000e+00 0.000000000000000e+00 0.000000000000000e+00
0.000000000000000e+00 0.000000000000000e+00 0.000000000000000e+00
0.000000000000000e+00 0.000000000000000e+00 0.000000000000000e+00
0.000000000000000e+00 0.000000000000000e+00 0.000000000000000e+00
0.000000000000000e+00 0.000000000000000e+00 0.000000000000000e+00
0.000000000000000e+00 0.000000000000000e+00 0.000000000000000e+00
0.000000000000000e+00 0.000000000000000e+00 0.000000000000000e+00
0.000000000000000e+00 0.000000000000000e+00 0.000000000000000e+00
0.000000000000000e+00 0.000000000000000e+00 0.000000000000000e+00
0.000000000000000e+00 0.000000000000000e+00 0.000000000000000e+00
0.000000000000000e+00 0.000000000000000e+00 0.000000000000000e+00
0.000000000000000e+00 0.000000000000000e+00 0.000000000000000e+00
0.000000000000000e+00 0.000000000000000e+00 0.000000000000000e+00
0.000000000000000e+00 0.000000000000000e+00 0.000000000000000e+00
0.000000000000000e+00 0.000000000000000e+00 0.000000000000000e+00
0.000000000000000e+00 0.000000000000000e+00 0.000000000000000e+00
0.000000000000000e+00 0.000000000000000e+00 0.000000000000000e+00
0.000000000000000e+00 0.000000000000000e+00 0.000000000000000e+00
0.000000000000000e+00 0.000000000000000e+00 0.000000000000000e+00
0.000000000000000e+00 0.000000000000000e+00 0.000000000000000e+00
0.000000000000000e+00 0.000000000000000e+00 0.000000000000000e+00
0.000000000000000e+00 0.000000000000000e+00 0.000000000000000e+00
0.000000000000000e+00 0.000000000000000e+00 0.000000000000000e+00
0.000000000000000e+00 0.000000000000000e+00 0.000000000000000e+00
0.000000000000000e+00 0.000000000000000e+00 0.000000000000000e+00
0.000000000000000e+00 0.000000000000000e+00 0.000000000000000e+00
0.000000000000000e+00 0.000000000000000e+00 0.000000000000000e+00
0.000000000000000e+00 0.000000000000000e+00 0.000000000000000e+00
0.000000000000000e+00 0.000000000000000e+00 0.000000000000000e+00
0.000000000000000e+00 0.000000000000000e+00 0.000000000000000e+00
0.000000000000000e+00 0.000000000000000e+00 0.000000000000000e+00
0.000000000000000e+00 0.000000000000000e+00 0.000000000000000e+00
0.000000000000000e+00 0.000000000000000e+00 0.000000000000000e+00
0.000000000000000e+00 0.000000000000000e+00 0.000000000000000e+00
0.000000000000000e+00 0.000000000000000e+00 0.000000000000000e+00
0.000000000000000e+00 0.000000000000000e+00 0.000000000000000e+00
0.000000000000000e+00 0.000000000000000e+00 0.000000000000000e+00
0.000000000000000e+00 0.000000000000000e+00 0.000000000000000e+00
0.000000000000000e+00 0.000000000000000e+00 0.000000000000000e+00
0.000000000000000e+00 0.000000000000000e+00 0.000000000000000e+00
0.000000000000000e+00 0.000000000000000e+00 0.000000000000000e+00
0.000000000000000e+00 0.000000000000000e+00 0.000000000000000e+00
0.000000000000000e+00 0.000000000000000e+00 0.000000000000000e+00
0.000000000000000e+00 0.000000000000000e+00 0.000000000000000e+00
0.000000000000000e+00 0.000000000000000e+00 0.000000000000000e+00
0.000000000000000e+00 0.000000000000000e+00 0.000000000000000e+00
0.000000000000000e+00 0.000000000000000e+00 0.000000000000000e+00
0.000000000000000e+00 0.000000000000000e+00 0.000000000000000e+00
0.000000000000000e+00 0.000000000000000e+00 0.000000000000000e+00
0.000000000000000e+00 0.000000000000000e+00 0.000000000000000e+00
0.000000000000000e+00 0.000000000000000e+00 0.000000000000000e+00
0.000000000000000e+00 0.000000000000000e+00 0.000000000000000e+00
0.000000000000000e+00 0.000000000000000e+00 0.000000000000000e+00
0.000000000000000e+00 0.000000000000000e+00 0.000000000000000e+00
0.000000000000000e+00 0.000000000000000e+00 0.000000000000000e+00
0.000000000000000e+00 0.000000000000000e+00 0.000000000000000e+00
0.000000000000000e+00 0.000000000000000e+00 0.000000000000000e+00
0.000000000000000e+00 0.000000000000000e+00 0.000000000000000e+00
0.000000000000000e+00 0.000000000000000e+00 0.000000000000000e+00
0.000000000000000e+00 0.000000000000000e+00 0.000000000000000e+00
0.000000000000000e+00 0.000000000000000e+00 0.000000000000000e+00
0.000000000000000e+00 0.000000000000000e+00 0.000000000000000e+00
0.000000000000000e+00 0.000000000000000e+00 0.000000000000000e+00
0.000000000000000e+00 0.000000000000000e+00 0.000000000000000e+00
0.000000000000000e+00 0.000000000000000e+00 0.000000000000000e+00
0.000000000000000e+00 0.000000000000000e+00 0.000000000000000e+00
0.000000000000000e+00 0.000000000000000e+00 0.000000000000000e+00
0.000000000000000e+00 0.000000000000000e+00 0.000000000000000e+00
0.000000000000000e+00 0.000000000000000e+00 0.000000000000000e+00
0.000000000000000e+00 0.000000000000000e+00 0.000000000000000e+00
0.000000000000000e+00 0.000000000000000e+00 0.000000000000000e+00
0.000000000000000e+00 0.000000000000000e+00 0.000000000000000e+00
0.000000000000000e+00 0.000000000000000e+00 0.000000000000000e+00
0.000000000000000e+00 0.000000000000000e+00 0.000000000000000e+00
0.000000000000000e+00 0.000000000000000e+00 0.000000000000000e+00
0.000000000000000e+00 0.000000000000000e+00 0.000000000000000e+00
0.000000000000000e+00 0.000000000000000e+00 0.000000000000000e+00
0.000000000000000e+00 0.000000000000000e+00 0.000000000000000e+00
0.000000000000000e+00 0.000000000000000e+00 0.000000000000000e+00
0.000000000000000e+00 0.000000000000000e+00 0.000000000000000e+00
0.000000000000000e+00 0.000000000000000e+00 0.000000000000000e+00
0.000000000000000e+00 0.000000000000000e+00 0.000000000000000e+00
0.000000000000000e+00 0.000000000000000e+00 0.000000000000000e+00
0.000000000000000e+00 0.000000000000000e+00 0.000000000000000e+00
0.000000000000000e+00 0.000000000000000e+00 0.000000000000000e+00
0.000000000000000e+00 0.000000000000000e+00 0.000000000000000e+00
0.000000000000000e+00 0.000000000000000e+00 0.000000000000000e+00
0.000000000000000e+00 0.000000000000000e+00 0.000000000000000e+00
0.000000000000000e+00 0.000000000000000e+00 0.000000000000000e+00
0.000000000000000e+00 0.000000000000000e+00 0.000000000000000e+00
0.000000000000000e+00 0.000000000000000e+00 0.000000000000000e+00
0.000000000000000e+00 0.000000000000000e+00 0.000000000000000e+00
0.000000000000000e+00 0.000000000000000e+00 0.000000000000000e+00
0.000000000000000e+00 0.000000000000000e+00 0.000000000000000e+00
0.000000000000000e+00 0.000000000000000e+00 0.000000000000000e+00
0.000000000000000e+00 0.000000000000000e+00 0.000000000000000e+00
0.000000000000000e+00 0.000000000000000e+00 0.000000000000000e+00
0.000000000000000e+00 0.000000000000000e+00 0.000000000000000e+00
0.000000000000000e+00 0.000000000000000e+00 0.000000000000000e+00
0.000000000000000e+00 0.000000000000000e+00 0.000000000000000e+00
0.000000000000000e+00 0.000000000000000e+00 0.000000000000000e+00
0.000000000000000e+00 0.000000000000000e+00 0.000000000000000e+00
0.000000000000000e+00 0.000000000000000e+00 0.000000000000000e+00
0.000000000000000e+00 0.000000000000000e+00 0.000000000000000e+00
0.000000000000000e+00 0.000000000000000e+00 0.000000000000000e+00
0.000000000000000e+00 0.000000000000000e+00 0.000000000000000e+00
0.000000000000000e+00 0.000000000000000e+00 0.000000000000000e+00
0.000000000000000e+00 0.000000000000000e+00 0.000000000000000e+00
0.000000000000000e+00 0.000000000000000e+00 0.000000000000000e+00
0.000000000000000e+00 0.000000000000000e+00 0.000000000000000e+00
0.000000000000000e+00 0.000000000000000e+00 0.000000000000000e+00
0.000000000000000e+00 0.000000000000000e+00 0.000000000000000e+00
0.000000000000000e+00 0.000000000000000e+00 0.000000000000000e+00
0.000000000000000e+00 0.000000000000000e+00 0.000000000000000e+00
0.000000000000000e+00 0.000000000000000e+00 0.000000000000000e+00
0.000000000000000e+00 0.000000000000000e+00 0.000000000000000e+00
0.000000000000000e+00 0.000000000000000e+00 0.000000000000000e+00
0.000000000000000e+00 0.000000000000000e+00 0.000000000000000e+00
0.000000000000000e+00 0.000000000000000e+00 0.000000000000000e+00
0.000000000000000e+00 0.000000000000000e+00 0.000000000000000e+00
0.000000000000000e+00 0.000000000000000e+00 0.000000000000000e+00
0.000000000000000e+00 0.000000000000000e+00 0.000000000000000e+00
0.000000000000000e+00 0.000000000000000e+00 0.000000000000000e+00
0.000000000000000e+00 0.000000000000000e+00 0.000000000000000e+00
0.000000000000000e+00 0.000000000000000e+00 0.000000000000000e+00
0.000000000000000e+00 0.000000000000000e+00 0.000000000000000e+00
0.000000000000000e+00 0.000000000000000e+00 0.000000000000000e+00
0.000000000000000e+00 0.000000000000000e+00 0.000000000000000e+00
0.000000000000000e+00 0.000000000000000e+00 0.000000000000000e+00
0.000000000000000e+00 0.000000000000000e+00 0.000000000000000e+00
0.000000000000000e+00 0.000000000000000e+00 0.000000000000000e+00
0.000000000000000e+00 0.000000000000000e+00 0.000000000000000e+00
0.000000000000000e+00 0.000000000000000e+00 0.000000000000000e+00
0.000000000000000e+00 0.000000000000000e+00 0.000000000000000e+00
0.000000000000000e+00 0.000000000000000e+00 0.000000000000000e+00
0.000000000000000e+00 0.000000000000000e+00 0.000000000000000e+00
0.000000000000000e+00 0.000000000000000e+00 0.000000000000000e+00
0.000000000000000e+00 0.000000000000000e+00 0.000000000000000e+00
0.000000000000000e+00 0.000000000000000e+00 0.000000000000000e+00
0.000000000000000e+00 0.000000000000000e+00 0.000000000000000e+00
0.000000000000000e+00 0.000000000000000e+00 0.000000000000000e+00
0.000000000000000e+00 0.000000000000000e+00 0.000000000000000e+00
0.000000000000000e+00 0.000000000000000e+00 0.000000000000000e+00
0.000000000000000e+00 0.000000000000000e+00 0.000000000000000e+00
0.000000000000000e+00 0.000000000000000e+00 0.000000000000000e+00
0.000000000000000e+00 0.000000000000000e+00 0.000000000000000e+00
0.000000000000000e+00 0.000000000000000e+00 0.000000000000000e+00
0.000000000000000e+00 0.000000000000000e+00 0.000000000000000e+00
0.000000000000000e+00 0.000000000000000e+00 0.000000000000000e+00
0.000000000000000e+00 0.000000000000000e+00 0.000000000000000e+00
0.000000000000000e+00 0.000000000000000e+00 0.000000000000000e+00
0.000000000000000e+00 0.000000000000000e+00 0.000000000000000e+00
0.000000000000000e+00 0.000000000000000e+00 0.000000000000000e+00
0.000000000000000e+00 0.000000000000000e+00 0.000000000000000e+00
0.000000000000000e+00 0.000000000000000e+00 0.000000000000000e+00
0.000000000000000e+00 0.000000000000000e+00 0.000000000000000e+00
0.000000000000000e+00 0.000000000000000e+00 0.000000000000000e+00
0.000000000000000e+00 0.000000000000000e+00 0.000000000000000e+00
0.000000000000000e+00 0.000000000000000e+00 0.000000000000000e+00
0.000000000000000e+00 0.000000000000000e+00 0.000000000000000e+00
0.000000000000000e+00 0.000000000000000e+00 0.000000000000000e+00
0.000000000000000e+00 0.000000000000000e+00 0.000000000000000e+00
0.000000000000000e+00 0.000000000000000e+00 0.000000000000000e+00
0.000000000000000e+00 0.000000000000000e+00 0.000000000000000e+00
0.000000000000000e+00 0.000000000000000e+00 0.000000000000000e+00
0.000000000000000e+00 0.000000000000000e+00 0.000000000000000e+00
0.000000000000000e+00 0.000000000000000e+00 0.000000000000000e+00
0.000000000000000e+00 0.000000000000000e+00 0.000000000000000e+00
0.000000000000000e+00 0.000000000000000e+00 0.000000000000000e+00
0.000000000000000e+00 0.000000000000000e+00 0.000000000000000e+00
0.000000000000000e+00 0.000000000000000e+00 0.000000000000000e+00
0.000000000000000e+00 0.000000000000000e+00 0.000000000000000e+00
0.000000000000000e+00 0.000000000000000e+00 0.000000000000000e+00
0.000000000000000e+00 0.000000000000000e+00 0.000000000000000e+00
0.000000000000000e+00 0.000000000000000e+00 0.000000000000000e+00
0.000000000000000e+00 0.000000000000000e+00 0.000000000000000e+00
0.000000000000000e+00 0.000000000000000e+00 0.000000000000000e+00
0.000000000000000e+00 0.000000000000000e+00 0.000000000000000e+00
0.000000000000000e+00 0.000000000000000e+00 0.000000000000000e+00
0.000000000000000e+00 0.000000000000000e+00 0.000000000000000e+00
0.000000000000000e+00 0.000000000000000e+00 0.000000000000000e+00
0.000000000000000e+00 0.000000000000000e+00 0.000000000000000e+00
0.000000000000000e+00 0.000000000000000e+00 0.000000000000000e+00
0.000000000000000e+00 0.000000000000000e+00 0.000000000000000e+00
0.000000000000000e+00 0.000000000000000e+00 0.000000000000000e+00
0.000000000000000e+00 0.000000000000000e+00 0.000000000000000e+00
0.000000000000000e+00 0.000000000000000e+00 0.000000000000000e+00
0.000000000000000e+00 0.000000000000000e+00 0.000000000000000e+00
0.000000000000000e+00 0.000000000000000e+00 0.000000000000000e+00
0.000000000000000e+00 0.000000000000000e+00 0.000000000000000e+00
0.000000000000000e+00 0.000000000000000e+00 0.000000000000000e+00
0.000000000000000e+00 0.000000000000000e+00 0.000000000000000e+00
0.000000000000000e+00 0.000000000000000e+00 0.000000000000000e+00
0.000000000000000e+00 0.000000000000000e+00 0.000000000000000e+00
0.000000000000000e+00 0.000000000000000e+00 0.000000000000000e+00
0.000000000000000e+00 0.000000000000000e+00 0.000000000000000e+00
0.000000000000000e+00 0.000000000000000e+00 0.000000000000000e+00
0.000000000000000e+00 0.000000000000000e+00 0.000000000000000e+00
0.000000000000000e+00 0.000000000000000e+00 0.000000000000000e+00
0.000000000000000e+00 0.000000000000000e+00 0.000000000000000e+00
0.000000000000000e+00 0.000000000000000e+00 0.000000000000000e+00
0.000000000000000e+00 0.000000000000000e+00 0.000000000000000e+00
0.000000000000000e+00 0.000000000000000e+00 0.000000000000000e+00
0.000000000000000e+00 0.000000000000000e+00 0.000000000000000e+00
0.000000000000000e+00 0.000000000000000e+00 0.000000000000000e+00
0.000000000000000e+00 0.000000000000000e+00 0.000000000000000e+00
0.000000000000000e+00 0.000000000000000e+00 0.000000000000000e+00
0.000000000000000e+00 0.000000000000000e+00 0.000000000000000e+00
0.000000000000000e+00 0.000000000000000e+00 0.000000000000000e+00
0.000000000000000e+00 0.000000000000000e+00 0.000000000000000e+00
0.000000000000000e+00 0.000000000000000e+00 0.000000000000000e+00
0.000000000000000e+00 0.000000000000000e+00 0.000000000000000e+00
0.000000000000000e+00 0.000000000000000e+00 0.000000000000000e+00
0.000000000000000e+00 0.000000000000000e+00 0.000000000000000e+00
0.000000000000000e+00 0.000000000000000e+00 0.000000000000000e+00
0.000000000000000e+00 0.000000000000000e+00 0.000000000000000e+00
0.000000000000000e+00 0.000000000000000e+00 0.000000000000000e+00
0.000000000000000e+00 0.000000000000000e+00 0.000000000000000e+00
0.000000000000000e+00 0.000000000000000e+00 0.000000000000000e+00
0.000000000000000e+00 0.000000000000000e+00 0.000000000000000e+00
0.000000000000000e+00 0.000000000000000e+00 0.000000000000000e+00
0.000000000000000e+00 0.000000000000000e+00 0.000000000000000e+00
0.000000000000000e+00 0.000000000000000e+00 0.000000000000000e+00
0.000000000000000e+00 0.000000000000000e+00 0.000000000000000e+00
0.000000000000000e+00 0.000000000000000e+00 0.000000000000000e+00
0.000000000000000e+00 0.000000000000000e+00 0.000000000000000e+00
0.000000000000000e+00 0.000000000000000e+00 0.000000000000000e+00
0.000000000000000e+00 0.000000000000000e+00 0.000000000000000e+00
0.000000000000000e+00 0.000000000000000e+00 0.000000000000000e+00
0.000000000000000e+00 0.000000000000000e+00 0.000000000000000e+00
0.000000000000000e+00 0.000000000000000e+00 0.000000000000000e+00
0.000000000000000e+00 0.000000000000000e+00 0.000000000000000e+00
0.000000000000000e+00 0.000000000000000e+00 0.000000000000000e+00
0.000000000000000e+00 0.000000000000000e+00 0.000000000000000e+00
0.000000000000000e+00 0.000000000000000e+00 0.000000000000000e+00
0.000000000000000e+00 0.000000000000000e+00 0.000000000000000e+00
0.000000000000000e+00 0.000000000000000e+00 0.000000000000000e+00
0.000000000000000e+00 0.000000000000000e+00 0.000000000000000e+00
0.000000000000000e+00 0.000000000000000e+00 0.000000000000000e+00
0.000000000000000e+00 0.000000000000000e+00 0.000000000000000e+00
0.000000000000000e+00 0.000000000000000e+00 0.000000000000000e+00
0.000000000000000e+00 0.000000000000000e+00 0.000000000000000e+00
0.000000000000000e+00 0.000000000000000e+00 0.000000000000000e+00
0.000000000000000e+00 0.000000000000000e+00 0.000000000000000e+00
0.000000000000000e+00 0.000000000000000e+00 0.000000000000000e+00
0.000000000000000e+00 0.000000000000000e+00 0.000000000000000e+00
0.000000000000000e+00 0.000000000000000e+00 0.000000000000000e+00
0.000000000000000e+00 0.000000000000000e+00 0.000000000000000e+00
0.000000000000000e+00 0.000000000000000e+00 0.000000000000000e+00
0.000000000000000e+00 0.000000000000000e+00 0.000000000000000e+00
0.000000000000000e+00 0.000000000000000e+00 0.000000000000000e+00
0.000000000000000e+00 0.000000000000000e+00 0.000000000000000e+00
0.000000000000000e+00 0.000000000000000e+00 0.000000000000000e+00
0.000000000000000e+00 0.000000000000000e+00 0.000000000000000e+00
0.000000000000000e+00 0.000000000000000e+00 0.000000000000000e+00
0.000000000000000e+00 0.000000000000000e+00 0.000000000000000e+00
0.000000000000000e+00 0.000000000000000e+00 0.000000000000000e+00
0.000000000000000e+00 0.000000000000000e+00 0.000000000000000e+00
0.000000000000000e+00 0.000000000000000e+00 0.000000000000000e+00
0.000000000000000e+00 0.000000000000000e+00 0.000000000000000e+00
0.000000000000000e+00 0.000000000000000e+00 0.000000000000000e+00
0.000000000000000e+00 0.000000000000000e+00 0.000000000000000e+00
0.000000000000000e+00 0.000000000000000e+00 0.000000000000000e+00
0.000000000000000e+00 0.000000000000000e+00 0.000000000000000e+00
0.000000000000000e+00 0.000000000000000e+00 0.000000000000000e+00
0.000000000000000e+00 0.000000000000000e+00 0.000000000000000e+00
0.000000000000000e+00 0.000000000000000e+00 0.000000000000000e+00
0.000000000000000e+00 0.000000000000000e+00 0.000000000000000e+00
0.000000000000000e+00 0.000000000000000e+00 0.000000000000000e+00
0.000000000000000e+00 0.000000000000000e+00 0.000000000000000e+00
0.000000000000000e+00 0.000000000000000e+00 0.000000000000000e+00
0.000000000000000e+00 0.000000000000000e+00 0.000000000000000e+00
0.000000000000000e+00 0.000000000000000e+00 0.000000000000000e+00
0.000000000000000e+00 0.000000000000000e+00 0.000000000000000e+00
0.000000000000000e+00 0.000000000000000e+00 0.000000000000000e+00
0.000000000000000e+00 0.000000000000000e+00 0.000000000000000e+00
0.000000000000000e+00 0.000000000000000e+00 0.000000000000000e+00
0.000000000000000e+00 0.000000000000000e+00 0.000000000000000e+00
0.000000000000000e+00 0.000000000000000e+00 0.000000000000000e+00
0.000000000000000e+00 0.000000000000000e+00 0.000000000000000e+00
0.000000000000000e+00 0.000000000000000e+00 0.000000000000000e+00
0.000000000000000e+00 0.000000000000000e+00 0.000000000000000e+00
0.000000000000000e+00 0.000000000000000e+00 0.000000000000000e+00
0.000000000000000e+00 0.000000000000000e+00 0.000000000000000e+00
0.000000000000000e+00 0.000000000000000e+00 0.000000000000000e+00
0.000000000000000e+00 0.000000000000000e+00 0.000000000000000e+00
0.000000000000000e+00 0.000000000000000e+00 0.000000000000000e+00
0.000000000000000e+00 0.000000000000000e+00 0.000000000000000e+00
0.000000000000000e+00 0.000000000000000e+00 0.000000000000000e+00
0.000000000000000e+00 0.000000000000000e+00 0.000000000000000e+00
0.000000000000000e+00 0.000000000000000e+00 0.000000000000000e+00
0.000000000000000e+00 0.000000000000000e+00 0.000000000000000e+00
0.000000000000000e+00 0.000000000000000e+00 0.000000000000000e+00
0.000000000000000e+00 0.000000000000000e+00 0.000000000000000e+00
0.000000000000000e+00 0.000000000000000e+00 0.000000000000000e+00
0.000000000000000e+00 0.000000000000000e+00 0.000000000000000e+00
0.000000000000000e+00 0.000000000000000e+00 0.000000000000000e+00
0.000000000000000e+00 0.000000000000000e+00 0.000000000000000e+00
0.000000000000000e+00 0.000000000000000e+00 0.000000000000000e+00
0.000000000000000e+00 0.000000000000000e+00 0.000000000000000e+00
0.000000000000000e+00 0.000000000000000e+00 0.000000000000000e+00
0.000000000000000e+00 0.000000000000000e+00 0.000000000000000e+00
0.000000000000000e+00 0.000000000000000e+00 0.000000000000000e+00
0.000000000000000e+00 0.000000000000000e+00 0.000000000000000e+00
0.000000000000000e+00 0.000000000000000e+00 0.000000000000000e+00
0.000000000000000e+00 0.000000000000000e+00 0.000000000000000e+00
0.000000000000000e+00 0.000000000000000e+00 0.000000000000000e+00
0.000000000000000e+00 0.000000000000000e+00 0.000000000000000e+00
0.000000000000000e+00 0.000000000000000e+00 0.000000000000000e+00
0.000000000000000e+00 0.000000000000000e+00 0.000000000000000e+00
0.000000000000000e+00 0.000000000000000e+00 0.000000000000000e+00
0.000000000000000e+00 0.000000000000000e+00 0.000000000000000e+00
0.000000000000000e+00 0.000000000000000e+00 0.000000000000000e+00
0.000000000000000e+00 0.000000000000000e+00 0.000000000000000e+00
0.000000000000000e+00 0.000000000000000e+00 0.000000000000000e+00
0.000000000000000e+00 0.000000000000000e+00 0.000000000000000e+00
0.000000000000000e+00 0.000000000000000e+00 0.000000000000000e+00
0.000000000000000e+00 0.000000000000000e+00 0.000000000000000e+00
0.000000000000000e+00 0.000000000000000e+00 0.000000000000000e+00
0.000000000000000e+00 0.000000000000000e+00 0.000000000000000e+00
0.000000000000000e+00 0.000000000000000e+00 0.000000000000000e+00
0.000000000000000e+00 0.000000000000000e+00 0.000000000000000e+00
0.000000000000000e+00 0.000000000000000e+00 0.000000000000000e+00
0.000000000000000e+00 0.000000000000000e+00 0.000000000000000e+00
0.000000000000000e+00 0.000000000000000e+00 0.000000000000000e+00
0.000000000000000e+00 0.000000000000000e+00 0.000000000000000e+00
0.000000000000000e+00 0.000000000000000e+00 0.000000000000000e+00
0.000000000000000e+00 0.000000000000000e+00 0.000000000000000e+00
0.000000000000000e+00 0.000000000000000e+00 0.000000000000000e+00
0.000000000000000e+00 0.000000000000000e+00 0.000000000000000e+00
0.000000000000000e+00 0.000000000000000e+00 0.000000000000000e+00
0.000000000000000e+00 0.000000000000000e+00 0.000000000000000e+00
0.000000000000000e+00 0.000000000000000e+00 0.000000000000000e+00
0.000000000000000e+00 0.000000000000000e+00 0.000000000000000e+00
0.000000000000000e+00 0.000000000000000e+00 0.000000000000000e+00
0.000000000000000e+00 0.000000000000000e+00 0.000000000000000e+00
0.000000000000000e+00 0.000000000000000e+00 0.000000000000000e+00
0.000000000000000e+00 0.000000000000000e+00 0.000000000000000e+00
0.000000000000000e+00 0.000000000000000e+00 0.000000000000000e+00
0.000000000000000e+00 0.000000000000000e+00 0.000000000000000e+00
0.000000000000000e+00 0.000000000000000e+00 0.000000000000000e+00
0.000000000000000e+00 0.000000000000000e+00 0.000000000000000e+00
0.000000000000000e+00 0.000000000000000e+00 0.000000000000000e+00
0.000000000000000e+00 0.000000000000000e+00 0.000000000000000e+00
0.000000000000000e+00 0.000000000000000e+00 0.000000000000000e+00
0.000000000000000e+00 0.000000000000000e+00 0.000000000000000e+00
0.000000000000000e+00 0.000000000000000e+00 0.000000000000000e+00
0.000000000000000e+00 0.000000000000000e+00 0.000000000000000e+00
0.000000000000000e+00 0.000000000000000e+00 0.000000000000000e+00
0.000000000000000e+00 0.000000000000000e+00 0.000000000000000e+00
0.000000000000000e+00 0.000000000000000e+00 0.000000000000000e+00
0.000000000000000e+00 0.000000000000000e+00 0.000000000000000e+00
0.000000000000000e+00 0.000000000000000e+00 0.000000000000000e+00
0.000000000000000e+00 0.000000000000000e+00 0.000000000000000e+00
0.000000000000000e+00 0.000000000000000e+00 0.000000000000000e+00
0.000000000000000e+00 0.000000000000000e+00 0.000000000000000e+00
0.000000000000000e+00 0.000000000000000e+00 0.000000000000000e+00
0.000000000000000e+00 0.000000000000000e+00 0.000000000000000e+00
0.000000000000000e+00 0.000000000000000e+00 0.000000000000000e+00
0.000000000000000e+00 0.000000000000000e+00 0.000000000000000e+00
0.000000000000000e+00 0.000000000000000e+00 0.000000000000000e+00
0.000000000000000e+00 0.000000000000000e+00 0.000000000000000e+00
0.000000000000000e+00 0.000000000000000e+00 0.000000000000000e+00
0.000000000000000e+00 0.000000000000000e+00 0.000000000000000e+00
0.000000000000000e+00 0.000000000000000e+00 0.000000000000000e+00
0.000000000000000e+00 0.000000000000000e+00 0.000000000000000e+00
0.000000000000000e+00 0.000000000000000e+00 0.000000000000000e+00
0.000000000000000e+00 0.000000000000000e+00 0.000000000000000e+00
0.000000000000000e+00 0.000000000000000e+00 0.000000000000000e+00
0.000000000000000e+00 0.000000000000000e+00 0.000000000000000e+00
0.000000000000000e+00 0.000000000000000e+00 0.000000000000000e+00
0.000000000000000e+00 0.000000000000000e+00 0.000000000000000e+00
0.000000000000000e+00 0.000000000000000e+00 0.000000000000000e+00
0.000000000000000e+00 0.000000000000000e+00 0.000000000000000e+00
0.000000000000000e+00 0.000000000000000e+00 0.000000000000000e+00
0.000000000000000e+00 0.000000000000000e+00 0.000000000000000e+00
0.000000000000000e+00 0.000000000000000e+00 0.000000000000000e+00
0.000000000000000e+00 0.000000000000000e+00 0.000000000000000e+00
0.000000000000000e+00 0.000000000000000e+00 0.000000000000000e+00
0.000000000000000e+00 0.000000000000000e+00 0.000000000000000e+00
0.000000000000000e+00 0.000000000000000e+00 0.000000000000000e+00
0.000000000000000e+00 0.000000000000000e+00 0.000000000000000e+00
0.000000000000000e+00 0.000000000000000e+00 0.000000000000000e+00
0.000000000000000e+00 0.000000000000000e+00 0.000000000000000e+00
0.000000000000000e+00 0.000000000000000e+00 0.000000000000000e+00
0.000000000000000e+00 0.000000000000000e+00 0.000000000000000e+00
0.000000000000000e+00 0.000000000000000e+00 0.000000000000000e+00
0.000000000000000e+00 0.000000000000000e+00 0.000000000000000e+00
0.000000000000000e+00 0.000000000000000e+00 0.000000000000000e+00
0.000000000000000e+00 0.000000000000000e+00 0.000000000000000e+00
0.000000000000000e+00 0.000000000000000e+00 0.000000000000000e+00
0.000000000000000e+00 0.000000000000000e+00 0.000000000000000e+00
0.000000000000000e+00 0.000000000000000e+00 0.000000000000000e+00
0.000000000000000e+00 0.000000000000000e+00 0.000000000000000e+00
0.000000000000000e+00 0.000000000000000e+00 0.000000000000000e+00
0.000000000000000e+00 0.000000000000000e+00 0.000000000000000e+00
0.000000000000000e+00 0.000000000000000e+00 0.000000000000000e+00
0.000000000000000e+00 0.000000000000000e+00 0.000000000000000e+00
0.000000000000000e+00 0.000000000000000e+00 0.000000000000000e+00
0.000000000000000e+00 0.000000000000000e+00 0.000000000000000e+00
0.000000000000000e+00 0.000000000000000e+00 0.000000000000000e+00
0.000000000000000e+00 0.000000000000000e+00 0.000000000000000e+00
0.000000000000000e+00 0.000000000000000e+00 0.000000000000000e+00
0.000000000000000e+00 0.000000000000000e+00 0.000000000000000e+00
0.000000000000000e+00 0.000000000000000e+00 0.000000000000000e+00
0.000000000000000e+00 0.000000000000000e+00 0.000000000000000e+00
0.000000000000000e+00 0.000000000000000e+00 0.000000000000000e+00
0.000000000000000e+00 0.000000000000000e+00 0.000000000000000e+00
0.000000000000000e+00 0.000000000000000e+00 0.000000000000000e+00
0.000000000000000e+00 0.000000000000000e+00 0.000000000000000e+00
0.000000000000000e+00 0.000000000000000e+00 0.000000000000000e+00
0.000000000000000e+00 0.000000000000000e+00 0.000000000000000e+00
0.000000000000000e+00 0.000000000000000e+00 0.000000000000000e+00
0.000000000000000e+00 0.000000000000000e+00 0.000000000000000e+00
0.000000000000000e+00 0.000000000000000e+00 0.000000000000000e+00
0.000000000000000e+00 0.000000000000000e+00 0.000000000000000e+00
0.000000000000000e+00 0.000000000000000e+00 0.000000000000000e+00
0.000000000000000e+00 0.000000000000000e+00 0.000000000000000e+00
0.000000000000000e+00 0.000000000000000e+00 0.000000000000000e+00
0.000000000000000e+00 0.000000000000000e+00 0.000000000000000e+00
0.000000000000000e+00 0.000000000000000e+00 0.000000000000000e+00
0.000000000000000e+00 0.000000000000000e+00 0.000000000000000e+00
0.000000000000000e+00 0.000000000000000e+00 0.000000000000000e+00
0.000000000000000e+00 0.000000000000000e+00 0.000000000000000e+00
0.000000000000000e+00 0.000000000000000e+00 0.000000000000000e+00
0.000000000000000e+00 0.000000000000000e+00 0.000000000000000e+00
0.000000000000000e+00 0.000000000000000e+00 0.000000000000000e+00
0.000000000000000e+00 0.000000000000000e+00 0.000000000000000e+00
0.000000000000000e+00 0.000000000000000e+00 0.000000000000000e+00
0.000000000000000e+00 0.000000000000000e+00 0.000000000000000e+00
0.000000000000000e+00 0.000000000000000e+00 0.000000000000000e+00
0.000000000000000e+00 0.000000000000000e+00 0.000000000000000e+00
0.000000000000000e+00 0.000000000000000e+00 0.000000000000000e+00
0.000000000000000e+00 0.000000000000000e+00 0.000000000000000e+00
0.000000000000000e+00 0.000000000000000e+00 0.000000000000000e+00
0.000000000000000e+00 0.000000000000000e+00 0.000000000000000e+00
0.000000000000000e+00 0.000000000000000e+00 0.000000000000000e+00
0.000000000000000e+00 0.000000000000000e+00 0.000000000000000e+00
0.000000000000000e+00 0.000000000000000e+00 0.000000000000000e+00
0.000000000000000e+00 0.000000000000000e+00 0.000000000000000e+00
0.000000000000000e+00 0.000000000000000e+00 0.000000000000000e+00
0.000000000000000e+00 0.000000000000000e+00 0.000000000000000e+00
0.000000000000000e+00 0.000000000000000e+00 0.000000000000000e+00
0.000000000000000e+00 0.000000000000000e+00 0.000000000000000e+00
0.000000000000000e+00 0.000000000000000e+00 0.000000000000000e+00
0.000000000000000e+00 0.000000000000000e+00 0.000000000000000e+00
0.000000000000000e+00 0.000000000000000e+00 0.000000000000000e+00
0.000000000000000e+00 0.000000000000000e+00 0.000000000000000e+00
0.000000000000000e+00 0.000000000000000e+00 0.000000000000000e+00
0.000000000000000e+00 0.000000000000000e+00 0.000000000000000e+00
0.000000000000000e+00 0.000000000000000e+00 0.000000000000000e+00
0.000000000000000e+00 0.000000000000000e+00 0.000000000000000e+00
0.000000000000000e+00 0.000000000000000e+00 0.000000000000000e+00
0.000000000000000e+00 0.000000000000000e+00 0.000000000000000e+00
0.000000000000000e+00 0.000000000000000e+00 0.000000000000000e+00
0.000000000000000e+00 0.000000000000000e+00 0.000000000000000e+00
0.000000000000000e+00 0.000000000000000e+00 0.000000000000000e+00
0.000000000000000e+00 0.000000000000000e+00 0.000000000000000e+00
0.000000000000000e+00 0.000000000000000e+00 0.000000000000000e+00
0.000000000000000e+00 0.000000000000000e+00 0.000000000000000e+00
0.000000000000000e+00 0.000000000000000e+00 0.000000000000000e+00
0.000000000000000e+00 0.000000000000000e+00 0.000000000000000e+00
0.000000000000000e+00 0.000000000000000e+00 0.000000000000000e+00
0.000000000000000e+00 0.000000000000000e+00 0.000000000000000e+00
0.000000000000000e+00 0.000000000000000e+00 0.000000000000000e+00
0.000000000000000e+00 0.000000000000000e+00 0.000000000000000e+00
0.000000000000000e+00 0.000000000000000e+00 0.000000000000000e+00
0.000000000000000e+00 0.000000000000000e+00 0.000000000000000e+00
0.000000000000000e+00 0.000000000000000e+00 0.000000000000000e+00
0.000000000000000e+00 0.000000000000000e+00 0.000000000000000e+00
0.000000000000000e+00 0.000000000000000e+00 0.000000000000000e+00
0.000000000000000e+00 0.000000000000000e+00 0.000000000000000e+00
0.000000000000000e+00 0.000000000000000e+00 0.000000000000000e+00
0.000000000000000e+00 0.000000000000000e+00 0.000000000000000e+00
0.000000000000000e+00 0.000000000000000e+00 0.000000000000000e+00
0.000000000000000e+00 0.000000000000000e+00 0.000000000000000e+00
0.000000000000000e+00 0.000000000000000e+00 0.000000000000000e+00
0.000000000000000e+00 0.000000000000000e+00 0.000000000000000e+00
0.000000000000000e+00 0.000000000000000e+00 0.000000000000000e+00
0.000000000000000e+00 0.000000000000000e+00 0.000000000000000e+00
0.000000000000000e+00 0.000000000000000e+00 0.000000000000000e+00
0.000000000000000e+00 0.000000000000000e+00 0.000000000000000e+00
0.000000000000000e+00 0.000000000000000e+00 0.000000000000000e+00
0.000000000000000e+00 0.000000000000000e+00 0.000000000000000e+00
0.000000000000000e+00 0.000000000000000e+00 0.000000000000000e+00
0.000000000000000e+00 0.000000000000000e+00 0.000000000000000e+00
0.000000000000000e+00 0.000000000000000e+00 0.000000000000000e+00
0.000000000000000e+00 0.000000000000000e+00 0.000000000000000e+00
0.000000000000000e+00 0.000000000000000e+00 0.000000000000000e+00
0.000000000000000e+00 0.000000000000000e+00 0.000000000000000e+00
0.000000000000000e+00 0.000000000000000e+00 0.000000000000000e+00
0.000000000000000e+00 0.000000000000000e+00 0.000000000000000e+00
0.000000000000000e+00 0.000000000000000e+00 0.000000000000000e+00
0.000000000000000e+00 0.000000000000000e+00 0.000000000000000e+00
0.000000000000000e+00 0.000000000000000e+00 0.000000000000000e+00
0.000000000000000e+00 0.000000000000000e+00 0.000000000000000e+00
0.000000000000000e+00 0.000000000000000e+00 0.000000000000000e+00
0.000000000000000e+00 0.000000000000000e+00 0.000000000000000e+00
0.000000000000000e+00 0.000000000000000e+00 0.000000000000000e+00
0.000000000000000e+00 0.000000000000000e+00 0.000000000000000e+00
0.000000000000000e+00 0.000000000000000e+00 0.000000000000000e+00
0.000000000000000e+00 0.000000000000000e+00 0.000000000000000e+00
0.000000000000000e+00 0.000000000000000e+00 0.000000000000000e+00
0.000000000000000e+00 0.000000000000000e+00 0.000000000000000e+00
0.000000000000000e+00 0.000000000000000e+00 0.000000000000000e+00
0.000000000000000e+00 0.000000000000000e+00 0.000000000000000e+00
0.000000000000000e+00 0.000000000000000e+00 0.000000000000000e+00
0.000000000000000e+00 0.000000000000000e+00 0.000000000000000e+00
0.000000000000000e+00 0.000000000000000e+00 0.000000000000000e+00
0.000000000000000e+00 0.000000000000000e+00 0.000000000000000e+00
0.000000000000000e+00 0.000000000000000e+00 0.000000000000000e+00
0.000000000000000e+00 0.000000000000000e+00 0.000000000000000e+00
0.000000000000000e+00 0.000000000000000e+00 0.000000000000000e+00
0.000000000000000e+00 0.000000000000000e+00 0.000000000000000e+00
0.000000000000000e+00 0.000000000000000e+00 0.000000000000000e+00
0.000000000000000e+00 0.000000000000000e+00 0.000000000000000e+00
0.000000000000000e+00 0.000000000000000e+00 0.000000000000000e+00
0.000000000000000e+00 0.000000000000000e+00 0.000000000000000e+00
0.000000000000000e+00 0.000000000000000e+00 0.000000000000000e+00
0.000000000000000e+00 0.000000000000000e+00 0.000000000000000e+00
0.000000000000000e+00 0.000000000000000e+00 0.000000000000000e+00
0.000000000000000e+00 0.000000000000000e+00 0.000000000000000e+00
0.000000000000000e+00 0.000000000000000e+00 0.000000000000000e+00
0.000000000000000e+00 0.000000000000000e+00 0.000000000000000e+00
0.000000000000000e+00 0.000000000000000e+00 0.000000000000000e+00
0.000000000000000e+00 0.000000000000000e+00 0.000000000000000e+00
0.000000000000000e+00 0.000000000000000e+00 0.000000000000000e+00
0.000000000000000e+00 0.000000000000000e+00 0.000000000000000e+00
0.000000000000000e+00 0.000000000000000e+00 0.000000000000000e+00
0.000000000000000e+00 0.000000000000000e+00 0.000000000000000e+00
0.000000000000000e+00 0.000000000000000e+00 0.000000000000000e+00
0.000000000000000e+00 0.000000000000000e+00 0.000000000000000e+00
0.000000000000000e+00 0.000000000000000e+00 0.000000000000000e+00
0.000000000000000e+00 0.000000000000000e+00 0.000000000000000e+00
0.000000000000000e+00 0.000000000000000e+00 0.000000000000000e+00
0.000000000000000e+00 0.000000000000000e+00 0.000000000000000e+00
0.000000000000000e+00 0.000000000000000e+00 0.000000000000000e+00
0.000000000000000e+00 0.000000000000000e+00 0.000000000000000e+00
0.000000000000000e+00 0.000000000000000e+00 0.000000000000000e+00
0.000000000000000e+00 0.000000000000000e+00 0.000000000000000e+00
0.000000000000000e+00 0.000000000000000e+00 0.000000000000000e+00
0.000000000000000e+00 0.000000000000000e+00 0.000000000000000e+00
0.000000000000000e+00 0.000000000000000e+00 0.000000000000000e+00
0.000000000000000e+00 0.000000000000000e+00 0.000000000000000e+00
0.000000000000000e+00 0.000000000000000e+00 0.000000000000000e+00
0.000000000000000e+00 0.000000000000000e+00 0.000000000000000e+00
0.000000000000000e+00 0.000000000000000e+00 0.000000000000000e+00
0.000000000000000e+00 0.000000000000000e+00 0.000000000000000e+00
0.000000000000000e+00 0.000000000000000e+00 0.000000000000000e+00
0.000000000000000e+00 0.000000000000000e+00 0.000000000000000e+00
0.000000000000000e+00 0.000000000000000e+00 0.000000000000000e+00
0.000000000000000e+00 0.000000000000000e+00 0.000000000000000e+00
0.000000000000000e+00 0.000000000000000e+00 0.000000000000000e+00
0.000000000000000e+00 0.000000000000000e+00 0.000000000000000e+00
0.000000000000000e+00 0.000000000000000e+00 0.000000000000000e+00
0.000000000000000e+00 0.000000000000000e+00 0.000000000000000e+00
0.000000000000000e+00 0.000000000000000e+00 0.000000000000000e+00
0.000000000000000e+00 0.000000000000000e+00 0.000000000000000e+00
0.000000000000000e+00 0.000000000000000e+00 0.000000000000000e+00
0.000000000000000e+00 0.000000000000000e+00 0.000000000000000e+00
0.000000000000000e+00 0.000000000000000e+00 0.000000000000000e+00
0.000000000000000e+00 0.000000000000000e+00 0.000000000000000e+00
0.000000000000000e+00 0.000000000000000e+00 0.000000000000000e+00
0.000000000000000e+00 0.000000000000000e+00 0.000000000000000e+00
0.000000000000000e+00 0.000000000000000e+00 0.000000000000000e+00
0.000000000000000e+00 0.000000000000000e+00 0.000000000000000e+00
0.000000000000000e+00 0.000000000000000e+00 0.000000000000000e+00
0.000000000000000e+00 0.000000000000000e+00 0.000000000000000e+00
0.000000000000000e+00 0.000000000000000e+00 0.000000000000000e+00
0.000000000000000e+00 0.000000000000000e+00 0.000000000000000e+00
0.000000000000000e+00 0.000000000000000e+00 0.000000000000000e+00
0.000000000000000e+00 0.000000000000000e+00 0.000000000000000e+00
0.000000000000000e+00 0.000000000000000e+00 0.000000000000000e+00
0.000000000000000e+00 0.000000000000000e+00 0.000000000000000e+00
0.000000000000000e+00 0.000000000000000e+00 0.000000000000000e+00
0.000000000000000e+00 0.000000000000000e+00 0.000000000000000e+00
0.000000000000000e+00 0.000000000000000e+00 0.000000000000000e+00
0.000000000000000e+00 0.000000000000000e+00 0.000000000000000e+00
0.000000000000000e+00 0.000000000000000e+00 0.000000000000000e+00
0.000000000000000e+00 0.000000000000000e+00 0.000000000000000e+00
0.000000000000000e+00 0.000000000000000e+00 0.000000000000000e+00
0.000000000000000e+00 0.000000000000000e+00 0.000000000000000e+00
0.000000000000000e+00 0.000000000000000e+00 0.000000000000000e+00
0.000000000000000e+00 0.000000000000000e+00 0.000000000000000e+00
0.000000000000000e+00 0.000000000000000e+00 0.000000000000000e+00
0.000000000000000e+00 0.000000000000000e+00 0.000000000000000e+00
0.000000000000000e+00 0.000000000000000e+00 0.000000000000000e+00
0.000000000000000e+00 0.000000000000000e+00 0.000000000000000e+00
0.000000000000000e+00 0.000000000000000e+00 0.000000000000000e+00
0.000000000000000e+00 0.000000000000000e+00 0.000000000000000e+00
0.000000000000000e+00 0.000000000000000e+00 0.000000000000000e+00
0.000000000000000e+00 0.000000000000000e+00 0.000000000000000e+00
0.000000000000000e+00 0.000000000000000e+00 0.000000000000000e+00
0.000000000000000e+00 0.000000000000000e+00 0.000000000000000e+00
0.000000000000000e+00 0.000000000000000e+00 0.000000000000000e+00
0.000000000000000e+00 0.000000000000000e+00 0.000000000000000e+00
0.000000000000000e+00 0.000000000000000e+00 0.000000000000000e+00
0.000000000000000e+00 0.000000000000000e+00 0.000000000000000e+00
0.000000000000000e+00 0.000000000000000e+00 0.000000000000000e+00
0.000000000000000e+00 0.000000000000000e+00 0.000000000000000e+00
0.000000000000000e+00 0.000000000000000e+00 0.000000000000000e+00
0.000000000000000e+00 0.000000000000000e+00 0.000000000000000e+00
0.000000000000000e+00 0.000000000000000e+00 0.000000000000000e+00
0.000000000000000e+00 0.000000000000000e+00 0.000000000000000e+00
0.000000000000000e+00 0.000000000000000e+00 0.000000000000000e+00
0.000000000000000e+00 0.000000000000000e+00 0.000000000000000e+00
0.000000000000000e+00 0.000000000000000e+00 0.000000000000000e+00
0.000000000000000e+00 0.000000000000000e+00 0.000000000000000e+00
0.000000000000000e+00 0.000000000000000e+00 0.000000000000000e+00
0.000000000000000e+00 0.000000000000000e+00 0.000000000000000e+00
0.000000000000000e+00 0.000000000000000e+00 0.000000000000000e+00
0.000000000000000e+00 0.000000000000000e+00 0.000000000000000e+00
0.000000000000000e+00 0.000000000000000e+00 0.000000000000000e+00
0.000000000000000e+00 0.000000000000000e+00 0.000000000000000e+00
0.000000000000000e+00 0.000000000000000e+00 0.000000000000000e+00
0.000000000000000e+00 0.000000000000000e+00 0.000000000000000e+00
0.000000000000000e+00 0.000000000000000e+00 0.000000000000000e+00
0.000000000000000e+00 0.000000000000000e+00 0.000000000000000e+00
0.000000000000000e+00 0.000000000000000e+00 0.000000000000000e+00
0.000000000000000e+00 0.000000000000000e+00 0.000000000000000e+00
0.000000000000000e+00 0.000000000000000e+00 0.000000000000000e+00
0.000000000000000e+00 0.000000000000000e+00 0.000000000000000e+00
0.000000000000000e+00 0.000000000000000e+00 0.000000000000000e+00
0.000000000000000e+00 0.000000000000000e+00 0.000000000000000e+00
0.000000000000000e+00 0.000000000000000e+00 0.000000000000000e+00
0.000000000000000e+00 0.000000000000000e+00 0.000000000000000e+00
0.000000000000000e+00 0.000000000000000e+00 0.000000000000000e+00
0.000000000000000e+00 0.000000000000000e+00 0.000000000000000e+00
0.000000000000000e+00 0.000000000000000e+00 0.000000000000000e+00
0.000000000000000e+00 0.000000000000000e+00 0.000000000000000e+00
0.000000000000000e+00 0.000000000000000e+00 0.000000000000000e+00
0.000000000000000e+00 0.000000000000000e+00 0.000000000000000e+00
0.000000000000000e+00 0.000000000000000e+00 0.000000000000000e+00
0.000000000000000e+00 0.000000000000000e+00 0.000000000000000e+00
0.000000000000000e+00 0.000000000000000e+00 0.000000000000000e+00
0.000000000000000e+00 0.000000000000000e+00 0.000000000000000e+00
0.000000000000000e+00 0.000000000000000e+00 0.000000000000000e+00
0.000000000000000e+00 0.000000000000000e+00 0.000000000000000e+00
0.000000000000000e+00 0.000000000000000e+00 0.000000000000000e+00
0.000000000000000e+00 0.000000000000000e+00 0.000000000000000e+00
0.000000000000000e+00 0.000000000000000e+00 0.000000000000000e+00
0.000000000000000e+00 0.000000000000000e+00 0.000000000000000e+00
0.000000000000000e+00 0.000000000000000e+00 0.000000000000000e+00
0.000000000000000e+00 0.000000000000000e+00 0.000000000000000e+00
0.000000000000000e+00 0.000000000000000e+00 0.000000000000000e+00
0.000000000000000e+00 0.000000000000000e+00 0.000000000000000e+00
0.000000000000000e+00 0.000000000000000e+00 0.000000000000000e+00
0.000000000000000e+00 0.000000000000000e+00 0.000000000000000e+00
0.000000000000000e+00 0.000000000000000e+00 0.000000000000000e+00
0.000000000000000e+00 0.000000000000000e+00 0.000000000000000e+00
0.000000000000000e+00 0.000000000000000e+00 0.000000000000000e+00
0.000000000000000e+00 0.000000000000000e+00 0.000000000000000e+00
0.000000000000000e+00 0.000000000000000e+00 0.000000000000000e+00
0.000000000000000e+00 0.000000000000000e+00 0.000000000000000e+00
0.000000000000000e+00 0.000000000000000e+00 0.000000000000000e+00
0.000000000000000e+00 0.000000000000000e+00 0.000000000000000e+00
0.000000000000000e+00 0.000000000000000e+00 0.000000000000000e+00
0.000000000000000e+00 0.000000000000000e+00 0.000000000000000e+00
0.000000000000000e+00 0.000000000000000e+00 0.000000000000000e+00
0.000000000000000e+00 0.000000000000000e+00 0.000000000000000e+00
0.000000000000000e+00 0.000000000000000e+00 0.000000000000000e+00
0.000000000000000e+00 0.000000000000000e+00 0.000000000000000e+00
0.000000000000000e+00 0.000000000000000e+00 0.000000000000000e+00
0.000000000000000e+00 0.000000000000000e+00 0.000000000000000e+00
0.000000000000000e+00 0.000000000000000e+00 0.000000000000000e+00
0.000000000000000e+00 0.000000000000000e+00 0.000000000000000e+00
0.000000000000000e+00 0.000000000000000e+00 0.000000000000000e+00
0.000000000000000e+00 0.000000000000000e+00 0.000000000000000e+00
0.000000000000000e+00 0.000000000000000e+00 0.000000000000000e+00
0.000000000000000e+00 0.000000000000000e+00 0.000000000000000e+00
0.000000000000000e+00 0.000000000000000e+00 0.000000000000000e+00
0.000000000000000e+00 0.000000000000000e+00 0.000000000000000e+00
0.000000000000000e+00 0.000000000000000e+00 0.000000000000000e+00
0.000000000000000e+00 0.000000000000000e+00 0.000000000000000e+00
0.000000000000000e+00 0.000000000000000e+00 0.000000000000000e+00
0.000000000000000e+00 0.000000000000000e+00 0.000000000000000e+00
0.000000000000000e+00 0.000000000000000e+00 0.000000000000000e+00
0.000000000000000e+00 0.000000000000000e+00 0.000000000000000e+00
0.000000000000000e+00 0.000000000000000e+00 0.000000000000000e+00
0.000000000000000e+00 0.000000000000000e+00 0.000000000000000e+00
0.000000000000000e+00 0.000000000000000e+00 0.000000000000000e+00
0.000000000000000e+00 0.000000000000000e+00 0.000000000000000e+00
0.000000000000000e+00 0.000000000000000e+00 0.000000000000000e+00
0.000000000000000e+00 0.000000000000000e+00 0.000000000000000e+00
0.000000000000000e+00 0.000000000000000e+00 0.000000000000000e+00
0.000000000000000e+00 0.000000000000000e+00 0.000000000000000e+00
0.000000000000000e+00 0.000000000000000e+00 0.000000000000000e+00
0.000000000000000e+00 0.000000000000000e+00 0.000000000000000e+00
0.000000000000000e+00 0.000000000000000e+00 0.000000000000000e+00
0.000000000000000e+00 0.000000000000000e+00 0.000000000000000e+00
0.000000000000000e+00 0.000000000000000e+00 0.000000000000000e+00
0.000000000000000e+00 0.000000000000000e+00 0.000000000000000e+00
0.000000000000000e+00 0.000000000000000e+00 0.000000000000000e+00
0.000000000000000e+00 0.000000000000000e+00 0.000000000000000e+00
0.000000000000000e+00 0.000000000000000e+00 0.000000000000000e+00
0.000000000000000e+00 0.000000000000000e+00 0.000000000000000e+00
0.000000000000000e+00 0.000000000000000e+00 0.000000000000000e+00
0.000000000000000e+00 0.000000000000000e+00 0.000000000000000e+00
0.000000000000000e+00 0.000000000000000e+00 0.000000000000000e+00
0.000000000000000e+00 0.000000000000000e+00 0.000000000000000e+00
0.000000000000000e+00 0.000000000000000e+00 0.000000000000000e+00
0.000000000000000e+00 0.000000000000000e+00 0.000000000000000e+00
0.000000000000000e+00 0.000000000000000e+00 0.000000000000000e+00
0.000000000000000e+00 0.000000000000000e+00 0.000000000000000e+00
0.000000000000000e+00 0.000000000000000e+00 0.000000000000000e+00
0.000000000000000e+00 0.000000000000000e+00 0.000000000000000e+00
0.000000000000000e+00 0.000000000000000e+00 0.000000000000000e+00
0.000000000000000e+00 0.000000000000000e+00 0.000000000000000e+00
0.000000000000000e+00 0.000000000000000e+00 0.000000000000000e+00
0.000000000000000e+00 0.000000000000000e+00 0.000000000000000e+00
0.000000000000000e+00 0.000000000000000e+00 0.000000000000000e+00
0.000000000000000e+00 0.000000000000000e+00 0.000000000000000e+00
0.000000000000000e+00 0.000000000000000e+00 0.000000000000000e+00
0.000000000000000e+00 0.000000000000000e+00 0.000000000000000e+00
0.000000000000000e+00 0.000000000000000e+00 0.000000000000000e+00
0.000000000000000e+00 0.000000000000000e+00 0.000000000000000e+00
0.000000000000000e+00 0.000000000000000e+00 0.000000000000000e+00
0.000000000000000e+00 0.000000000000000e+00 0.000000000000000e+00
0.000000000000000e+00 0.000000000000000e+00 0.000000000000000e+00
0.000000000000000e+00 0.000000000000000e+00 0.000000000000000e+00
0.000000000000000e+00 0.000000000000000e+00 0.000000000000000e+00
0.000000000000000e+00 0.000000000000000e+00 0.000000000000000e+00
0.000000000000000e+00 0.000000000000000e+00 0.000000000000000e+00
0.000000000000000e+00 0.000000000000000e+00 0.000000000000000e+00
0.000000000000000e+00 0.000000000000000e+00 0.000000000000000e+00
0.000000000000000e+00 0.000000000000000e+00 0.000000000000000e+00
0.000000000000000e+00 0.000000000000000e+00 0.000000000000000e+00
0.000000000000000e+00 0.000000000000000e+00 0.000000000000000e+00
0.000000000000000e+00 0.000000000000000e+00 0.000000000000000e+00
0.000000000000000e+00 0.000000000000000e+00 0.000000000000000e+00
0.000000000000000e+00 0.000000000000000e+00 0.000000000000000e+00
0.000000000000000e+00 0.000000000000000e+00 0.000000000000000e+00
0.000000000000000e+00 0.000000000000000e+00 0.000000000000000e+00
0.000000000000000e+00 0.000000000000000e+00 0.000000000000000e+00
0.000000000000000e+00 0.000000000000000e+00 0.000000000000000e+00
0.000000000000000e+00 0.000000000000000e+00 0.000000000000000e+00
0.000000000000000e+00 0.000000000000000e+00 0.000000000000000e+00
0.000000000000000e+00 0.000000000000000e+00 0.000000000000000e+00
0.000000000000000e+00 0.000000000000000e+00 0.000000000000000e+00
0.000000000000000e+00 0.000000000000000e+00 0.000000000000000e+00
0.000000000000000e+00 0.000000000000000e+00 0.000000000000000e+00
0.000000000000000e+00 0.000000000000000e+00 0.000000000000000e+00
0.000000000000000e+00 0.000000000000000e+00 0.000000000000000e+00
0.000000000000000e+00 0.000000000000000e+00 0.000000000000000e+00
0.000000000000000e+00 0.000000000000000e+00 0.000000000000000e+00
0.000000000000000e+00 0.000000000000000e+00 0.000000000000000e+00
0.000000000000000e+00 0.000000000000000e+00 0.000000000000000e+00
0.000000000000000e+00 0.000000000000000e+00 0.000000000000000e+00
0.000000000000000e+00 0.000000000000000e+00 0.000000000000000e+00
0.000000000000000e+00 0.000000000000000e+00 0.000000000000000e+00
0.000000000000000e+00 0.000000000000000e+00 0.000000000000000e+00
0.000000000000000e+00 0.000000000000000e+00 0.000000000000000e+00
0.000000000000000e+00 0.000000000000000e+00 0.000000000000000e+00
0.000000000000000e+00 0.000000000000000e+00 0.000000000000000e+00
0.000000000000000e+00 0.000000000000000e+00 0.000000000000000e+00
0.000000000000000e+00 0.000000000000000e+00 0.000000000000000e+00
0.000000000000000e+00 0.000000000000000e+00 0.000000000000000e+00
0.000000000000000e+00 0.000000000000000e+00 0.000000000000000e+00
0.000000000000000e+00 0.000000000000000e+00 0.000000000000000e+00
0.000000000000000e+00 0.000000000000000e+00 0.000000000000000e+00
0.000000000000000e+00 0.000000000000000e+00 0.000000000000000e+00
0.000000000000000e+00 0.000000000000000e+00 0.000000000000000e+00
0.000000000000000e+00 0.000000000000000e+00 0.000000000000000e+00
0.000000000000000e+00 0.000000000000000e+00 0.000000000000000e+00
0.000000000000000e+00 0.000000000000000e+00 0.000000000000000e+00
0.000000000000000e+00 0.000000000000000e+00 0.000000000000000e+00
0.000000000000000e+00 0.000000000000000e+00 0.000000000000000e+00
0.000000000000000e+00 0.000000000000000e+00 0.000000000000000e+00
0.000000000000000e+00 0.000000000000000e+00 0.000000000000000e+00
0.000000000000000e+00 0.000000000000000e+00 0.000000000000000e+00
0.000000000000000e+00 0.000000000000000e+00 0.000000000000000e+00
0.000000000000000e+00 0.000000000000000e+00 0.000000000000000e+00
0.000000000000000e+00 0.000000000000000e+00 0.000000000000000e+00
0.000000000000000e+00 0.000000000000000e+00 0.000000000000000e+00
0.000000000000000e+00 0.000000000000000e+00 0.000000000000000e+00
0.000000000000000e+00 0.000000000000000e+00 0.000000000000000e+00
0.000000000000000e+00 0.000000000000000e+00 0.000000000000000e+00
0.000000000000000e+00 0.000000000000000e+00 0.000000000000000e+00
0.000000000000000e+00 0.000000000000000e+00 0.000000000000000e+00
0.000000000000000e+00 0.000000000000000e+00 0.000000000000000e+00
0.000000000000000e+00 0.000000000000000e+00 0.000000000000000e+00
0.000000000000000e+00 0.000000000000000e+00 0.000000000000000e+00
0.000000000000000e+00 0.000000000000000e+00 0.000000000000000e+00
0.000000000000000e+00 0.000000000000000e+00 0.000000000000000e+00
0.000000000000000e+00 0.000000000000000e+00 0.000000000000000e+00
0.000000000000000e+00 0.000000000000000e+00 0.000000000000000e+00
0.000000000000000e+00 0.000000000000000e+00 0.000000000000000e+00
0.000000000000000e+00 0.000000000000000e+00 0.000000000000000e+00
0.000000000000000e+00 0.000000000000000e+00 0.000000000000000e+00
0.000000000000000e+00 0.000000000000000e+00 0.000000000000000e+00
0.000000000000000e+00 0.000000000000000e+00 0.000000000000000e+00
0.000000000000000e+00 0.000000000000000e+00 0.000000000000000e+00
0.000000000000000e+00 0.000000000000000e+00 0.000000000000000e+00
0.000000000000000e+00 0.000000000000000e+00 0.000000000000000e+00
0.000000000000000e+00 0.000000000000000e+00 0.000000000000000e+00
0.000000000000000e+00 0.000000000000000e+00 0.000000000000000e+00
0.000000000000000e+00 0.000000000000000e+00 0.000000000000000e+00
0.000000000000000e+00 0.000000000000000e+00 0.000000000000000e+00
0.000000000000000e+00 0.000000000000000e+00 0.000000000000000e+00
0.000000000000000e+00 0.000000000000000e+00 0.000000000000000e+00
0.000000000000000e+00 0.000000000000000e+00 0.000000000000000e+00
0.000000000000000e+00 0.000000000000000e+00 0.000000000000000e+00
0.000000000000000e+00 0.000000000000000e+00 0.000000000000000e+00
0.000000000000000e+00 0.000000000000000e+00 0.000000000000000e+00
0.000000000000000e+00 0.000000000000000e+00 0.000000000000000e+00
0.000000000000000e+00 0.000000000000000e+00 0.000000000000000e+00
0.000000000000000e+00 0.000000000000000e+00 0.000000000000000e+00
0.000000000000000e+00 0.000000000000000e+00 0.000000000000000e+00
0.000000000000000e+00 0.000000000000000e+00 0.000000000000000e+00
0.000000000000000e+00 0.000000000000000e+00 0.000000000000000e+00
0.000000000000000e+00 0.000000000000000e+00 0.000000000000000e+00
0.000000000000000e+00 0.000000000000000e+00 0.000000000000000e+00
0.000000000000000e+00 0.000000000000000e+00 0.000000000000000e+00
0.000000000000000e+00 0.000000000000000e+00 0.000000000000000e+00
0.000000000000000e+00 0.000000000000000e+00 0.000000000000000e+00
0.000000000000000e+00 0.000000000000000e+00 0.000000000000000e+00
0.000000000000000e+00 0.000000000000000e+00 0.000000000000000e+00
0.000000000000000e+00 0.000000000000000e+00 0.000000000000000e+00
0.000000000000000e+00 0.000000000000000e+00 0.000000000000000e+00
0.000000000000000e+00 0.000000000000000e+00 0.000000000000000e+00
0.000000000000000e+00 0.000000000000000e+00 0.000000000000000e+00
0.000000000000000e+00 0.000000000000000e+00 0.000000000000000e+00
0.000000000000000e+00 0.000000000000000e+00 0.000000000000000e+00
0.000000000000000e+00 0.000000000000000e+00 0.000000000000000e+00
0.000000000000000e+00 0.000000000000000e+00 0.000000000000000e+00
0.000000000000000e+00 0.000000000000000e+00 0.000000000000000e+00
0.000000000000000e+00 0.000000000000000e+00 0.000000000000000e+00
0.000000000000000e+00 0.000000000000000e+00 0.000000000000000e+00
0.000000000000000e+00 0.000000000000000e+00 0.000000000000000e+00
0.000000000000000e+00 0.000000000000000e+00 0.000000000000000e+00
0.000000000000000e+00 0.000000000000000e+00 0.000000000000000e+00
0.000000000000000e+00 0.000000000000000e+00 0.000000000000000e+00
0.000000000000000e+00 0.000000000000000e+00 0.000000000000000e+00
0.000000000000000e+00 0.000000000000000e+00 0.000000000000000e+00
0.000000000000000e+00 0.000000000000000e+00 0.000000000000000e+00
0.000000000000000e+00 0.000000000000000e+00 0.000000000000000e+00
0.000000000000000e+00 0.000000000000000e+00 0.000000000000000e+00
0.000000000000000e+00 0.000000000000000e+00 0.000000000000000e+00
0.000000000000000e+00 0.000000000000000e+00 0.000000000000000e+00
0.000000000000000e+00 0.000000000000000e+00 0.000000000000000e+00
0.000000000000000e+00 0.000000000000000e+00 0.000000000000000e+00
0.000000000000000e+00 0.000000000000000e+00 0.000000000000000e+00
0.000000000000000e+00 0.000000000000000e+00 0.000000000000000e+00
0.000000000000000e+00 0.000000000000000e+00 0.000000000000000e+00
0.000000000000000e+00 0.000000000000000e+00 0.000000000000000e+00
0.000000000000000e+00 0.000000000000000e+00 0.000000000000000e+00
0.000000000000000e+00 0.000000000000000e+00 0.000000000000000e+00
0.000000000000000e+00 0.000000000000000e+00 0.000000000000000e+00
0.000000000000000e+00 0.000000000000000e+00 0.000000000000000e+00
0.000000000000000e+00 0.000000000000000e+00 0.000000000000000e+00
0.000000000000000e+00 0.000000000000000e+00 0.000000000000000e+00
0.000000000000000e+00 0.000000000000000e+00 0.000000000000000e+00
0.000000000000000e+00 0.000000000000000e+00 0.000000000000000e+00
0.000000000000000e+00 0.000000000000000e+00 0.000000000000000e+00
0.000000000000000e+00 0.000000000000000e+00 0.000000000000000e+00
0.000000000000000e+00 0.000000000000000e+00 0.000000000000000e+00
0.000000000000000e+00 0.000000000000000e+00 0.000000000000000e+00
0.000000000000000e+00 0.000000000000000e+00 0.000000000000000e+00
0.000000000000000e+00 0.000000000000000e+00 0.000000000000000e+00
0.000000000000000e+00 0.000000000000000e+00 0.000000000000000e+00
0.000000000000000e+00 0.000000000000000e+00 0.000000000000000e+00
0.000000000000000e+00 0.000000000000000e+00 0.000000000000000e+00
0.000000000000000e+00 0.000000000000000e+00 0.000000000000000e+00
0.000000000000000e+00 0.000000000000000e+00 0.000000000000000e+00
0.000000000000000e+00 0.000000000000000e+00 0.000000000000000e+00
0.000000000000000e+00 0.000000000000000e+00 0.000000000000000e+00
0.000000000000000e+00 0.000000000000000e+00 0.000000000000000e+00
0.000000000000000e+00 0.000000000000000e+00 0.000000000000000e+00
0.000000000000000e+00 0.000000000000000e+00 0.000000000000000e+00
0.000000000000000e+00 0.000000000000000e+00 0.000000000000000e+00
0.000000000000000e+00 0.000000000000000e+00 0.000000000000000e+00
0.000000000000000e+00 0.000000000000000e+00 0.000000000000000e+00
0.000000000000000e+00 0.000000000000000e+00 0.000000000000000e+00
0.000000000000000e+00 0.000000000000000e+00 0.000000000000000e+00
0.000000000000000e+00 0.000000000000000e+00 0.000000000000000e+00
0.000000000000000e+00 0.000000000000000e+00 0.000000000000000e+00
0.000000000000000e+00 0.000000000000000e+00 0.000000000000000e+00
0.000000000000000e+00 0.000000000000000e+00 0.000000000000000e+00
0.000000000000000e+00 0.000000000000000e+00 0.000000000000000e+00
0.000000000000000e+00 0.000000000000000e+00 0.000000000000000e+00
0.000000000000000e+00 0.000000000000000e+00 0.000000000000000e+00
0.000000000000000e+00 0.000000000000000e+00 0.000000000000000e+00
0.000000000000000e+00 0.000000000000000e+00 0.000000000000000e+00
0.000000000000000e+00 0.000000000000000e+00 0.000000000000000e+00
0.000000000000000e+00 0.000000000000000e+00 0.000000000000000e+00
0.000000000000000e+00 0.000000000000000e+00 0.000000000000000e+00
0.000000000000000e+00 0.000000000000000e+00 0.000000000000000e+00
0.000000000000000e+00 0.000000000000000e+00 0.000000000000000e+00
0.000000000000000e+00 0.000000000000000e+00 0.000000000000000e+00
0.000000000000000e+00 0.000000000000000e+00 0.000000000000000e+00
0.000000000000000e+00 0.000000000000000e+00 0.000000000000000e+00
0.000000000000000e+00 0.000000000000000e+00 0.000000000000000e+00
0.000000000000000e+00 0.000000000000000e+00 0.000000000000000e+00
0.000000000000000e+00 0.000000000000000e+00 0.000000000000000e+00
0.000000000000000e+00 0.000000000000000e+00 0.000000000000000e+00
0.000000000000000e+00 0.000000000000000e+00 0.000000000000000e+00
0.000000000000000e+00 0.000000000000000e+00 0.000000000000000e+00
0.000000000000000e+00 0.000000000000000e+00 0.000000000000000e+00
0.000000000000000e+00 0.000000000000000e+00 0.000000000000000e+00
0.000000000000000e+00 0.000000000000000e+00 0.000000000000000e+00
0.000000000000000e+00 0.000000000000000e+00 0.000000000000000e+00
0.000000000000000e+00 0.000000000000000e+00 0.000000000000000e+00
0.000000000000000e+00 0.000000000000000e+00 0.000000000000000e+00
0.000000000000000e+00 0.000000000000000e+00 0.000000000000000e+00
0.000000000000000e+00 0.000000000000000e+00 0.000000000000000e+00
0.000000000000000e+00 0.000000000000000e+00 0.000000000000000e+00
0.000000000000000e+00 0.000000000000000e+00 0.000000000000000e+00
0.000000000000000e+00 0.000000000000000e+00 0.000000000000000e+00
0.000000000000000e+00 0.000000000000000e+00 0.000000000000000e+00
0.000000000000000e+00 0.000000000000000e+00 0.000000000000000e+00
0.000000000000000e+00 0.000000000000000e+00 0.000000000000000e+00
0.000000000000000e+00 0.000000000000000e+00 0.000000000000000e+00
0.000000000000000e+00 0.000000000000000e+00 0.000000000000000e+00
0.000000000000000e+00 0.000000000000000e+00 0.000000000000000e+00
0.000000000000000e+00 0.000000000000000e+00 0.000000000000000e+00
0.000000000000000e+00 0.000000000000000e+00 0.000000000000000e+00
0.000000000000000e+00 0.000000000000000e+00 0.000000000000000e+00
0.000000000000000e+00 0.000000000000000e+00 0.000000000000000e+00
0.000000000000000e+00 0.000000000000000e+00 0.000000000000000e+00
0.000000000000000e+00 0.000000000000000e+00 0.000000000000000e+00
0.000000000000000e+00 0.000000000000000e+00 0.000000000000000e+00
0.000000000000000e+00 0.000000000000000e+00 0.000000000000000e+00
0.000000000000000e+00 0.000000000000000e+00 0.000000000000000e+00
0.000000000000000e+00 0.000000000000000e+00 0.000000000000000e+00
0.000000000000000e+00 0.000000000000000e+00 0.000000000000000e+00
0.000000000000000e+00 0.000000000000000e+00 0.000000000000000e+00
0.000000000000000e+00 0.000000000000000e+00 0.000000000000000e+00
0.000000000000000e+00 0.000000000000000e+00 0.000000000000000e+00
0.000000000000000e+00 0.000000000000000e+00 0.000000000000000e+00
0.000000000000000e+00 0.000000000000000e+00 0.000000000000000e+00
0.000000000000000e+00 0.000000000000000e+00 0.000000000000000e+00
0.000000000000000e+00 0.000000000000000e+00 0.000000000000000e+00
0.000000000000000e+00 0.000000000000000e+00 0.000000000000000e+00
0.000000000000000e+00 0.000000000000000e+00 0.000000000000000e+00
0.000000000000000e+00 0.000000000000000e+00 0.000000000000000e+00
0.000000000000000e+00 0.000000000000000e+00 0.000000000000000e+00
0.000000000000000e+00 0.000000000000000e+00 0.000000000000000e+00
0.000000000000000e+00 0.000000000000000e+00 0.000000000000000e+00
0.000000000000000e+00 0.000000000000000e+00 0.000000000000000e+00
0.000000000000000e+00 0.000000000000000e+00 0.000000000000000e+00
0.000000000000000e+00 0.000000000000000e+00 0.000000000000000e+00
0.000000000000000e+00 0.000000000000000e+00 0.000000000000000e+00
0.000000000000000e+00 0.000000000000000e+00 0.000000000000000e+00
0.000000000000000e+00 0.000000000000000e+00 0.000000000000000e+00
0.000000000000000e+00 0.000000000000000e+00 0.000000000000000e+00
0.000000000000000e+00 0.000000000000000e+00 0.000000000000000e+00
0.000000000000000e+00 0.000000000000000e+00 0.000000000000000e+00
0.000000000000000e+00 0.000000000000000e+00 0.000000000000000e+00
0.000000000000000e+00 0.000000000000000e+00 0.000000000000000e+00
0.000000000000000e+00 0.000000000000000e+00 0.000000000000000e+00
0.000000000000000e+00 0.000000000000000e+00 0.000000000000000e+00
0.000000000000000e+00 0.000000000000000e+00 0.000000000000000e+00
0.000000000000000e+00 0.000000000000000e+00 0.000000000000000e+00
0.000000000000000e+00 0.000000000000000e+00 0.000000000000000e+00
0.000000000000000e+00 0.000000000000000e+00 0.000000000000000e+00
0.000000000000000e+00 0.000000000000000e+00 0.000000000000000e+00
0.000000000000000e+00 0.000000000000000e+00 0.000000000000000e+00
0.000000000000000e+00 0.000000000000000e+00 0.000000000000000e+00
0.000000000000000e+00 0.000000000000000e+00 0.000000000000000e+00
0.000000000000000e+00 0.000000000000000e+00 0.000000000000000e+00
0.000000000000000e+00 0.000000000000000e+00 0.000000000000000e+00
0.000000000000000e+00 0.000000000000000e+00 0.000000000000000e+00
0.000000000000000e+00 0.000000000000000e+00 0.000000000000000e+00
0.000000000000000e+00 0.000000000000000e+00 0.000000000000000e+00
0.000000000000000e+00 0.000000000000000e+00 0.000000000000000e+00
0.000000000000000e+00 0.000000000000000e+00 0.000000000000000e+00
0.000000000000000e+00 0.000000000000000e+00 0.000000000000000e+00
0.000000000000000e+00 0.000000000000000e+00 0.000000000000000e+00
0.000000000000000e+00 0.000000000000000e+00 0.000000000000000e+00
0.000000000000000e+00 0.000000000000000e+00 0.000000000000000e+00
0.000000000000000e+00 0.000000000000000e+00 0.000000000000000e+00
0.000000000000000e+00 0.000000000000000e+00 0.000000000000000e+00
0.000000000000000e+00 0.000000000000000e+00 0.000000000000000e+00
0.000000000000000e+00 0.000000000000000e+00 0.000000000000000e+00
0.000000000000000e+00 0.000000000000000e+00 0.000000000000000e+00
0.000000000000000e+00 0.000000000000000e+00 0.000000000000000e+00
0.000000000000000e+00 0.000000000000000e+00 0.000000000000000e+00
0.000000000000000e+00 0.000000000000000e+00 0.000000000000000e+00
0.000000000000000e+00 0.000000000000000e+00 0.000000000000000e+00
0.000000000000000e+00 0.000000000000000e+00 0.000000000000000e+00
0.000000000000000e+00 0.000000000000000e+00 0.000000000000000e+00
0.000000000000000e+00 0.000000000000000e+00 0.000000000000000e+00
0.000000000000000e+00 0.000000000000000e+00 0.000000000000000e+00
0.000000000000000e+00 0.000000000000000e+00 0.000000000000000e+00
0.000000000000000e+00 0.000000000000000e+00 0.000000000000000e+00
0.000000000000000e+00 0.000000000000000e+00 0.000000000000000e+00
0.000000000000000e+00 0.000000000000000e+00 0.000000000000000e+00
0.000000000000000e+00 0.000000000000000e+00 0.000000000000000e+00
0.000000000000000e+00 0.000000000000000e+00 0.000000000000000e+00
0.000000000000000e+00 0.000000000000000e+00 0.000000000000000e+00
0.000000000000000e+00 0.000000000000000e+00 0.000000000000000e+00
0.000000000000000e+00 0.000000000000000e+00 0.000000000000000e+00
0.000000000000000e+00 0.000000000000000e+00 0.000000000000000e+00
0.000000000000000e+00 0.000000000000000e+00 0.000000000000000e+00
0.000000000000000e+00 0.000000000000000e+00 0.000000000000000e+00
0.000000000000000e+00 0.000000000000000e+00 0.000000000000000e+00
0.000000000000000e+00 0.000000000000000e+00 0.000000000000000e+00
0.000000000000000e+00 0.000000000000000e+00 0.000000000000000e+00
0.000000000000000e+00 0.000000000000000e+00 0.000000000000000e+00
0.000000000000000e+00 0.000000000000000e+00 0.000000000000000e+00
0.000000000000000e+00 0.000000000000000e+00 0.000000000000000e+00
0.000000000000000e+00 0.000000000000000e+00 0.000000000000000e+00
0.000000000000000e+00 0.000000000000000e+00 0.000000000000000e+00
0.000000000000000e+00 0.000000000000000e+00 0.000000000000000e+00
0.000000000000000e+00 0.000000000000000e+00 0.000000000000000e+00
0.000000000000000e+00 0.000000000000000e+00 0.000000000000000e+00
0.000000000000000e+00 0.000000000000000e+00 0.000000000000000e+00
0.000000000000000e+00 0.000000000000000e+00 0.000000000000000e+00
0.000000000000000e+00 0.000000000000000e+00 0.000000000000000e+00
0.000000000000000e+00 0.000000000000000e+00 0.000000000000000e+00
0.000000000000000e+00 0.000000000000000e+00 0.000000000000000e+00
0.000000000000000e+00 0.000000000000000e+00 0.000000000000000e+00
0.000000000000000e+00 0.000000000000000e+00 0.000000000000000e+00
0.000000000000000e+00 0.000000000000000e+00 0.000000000000000e+00
0.000000000000000e+00 0.000000000000000e+00 0.000000000000000e+00
0.000000000000000e+00 0.000000000000000e+00 0.000000000000000e+00
0.000000000000000e+00 0.000000000000000e+00 0.000000000000000e+00
0.000000000000000e+00 0.000000000000000e+00 0.000000000000000e+00
0.000000000000000e+00 0.000000000000000e+00 0.000000000000000e+00
0.000000000000000e+00 0.000000000000000e+00 0.000000000000000e+00
0.000000000000000e+00 0.000000000000000e+00 0.000000000000000e+00
0.000000000000000e+00 0.000000000000000e+00 0.000000000000000e+00
0.000000000000000e+00 0.000000000000000e+00 0.000000000000000e+00
0.000000000000000e+00 0.000000000000000e+00 0.000000000000000e+00
0.000000000000000e+00 0.000000000000000e+00 0.000000000000000e+00
0.000000000000000e+00 0.000000000000000e+00 0.000000000000000e+00
0.000000000000000e+00 0.000000000000000e+00 0.000000000000000e+00
0.000000000000000e+00 0.000000000000000e+00 0.000000000000000e+00
0.000000000000000e+00 0.000000000000000e+00 0.000000000000000e+00
0.000000000000000e+00 0.000000000000000e+00 0.000000000000000e+00
0.000000000000000e+00 0.000000000000000e+00 0.000000000000000e+00
0.000000000000000e+00 0.000000000000000e+00 0.000000000000000e+00
0.000000000000000e+00 0.000000000000000e+00 0.000000000000000e+00
0.000000000000000e+00 0.000000000000000e+00 0.000000000000000e+00
0.000000000000000e+00 0.000000000000000e+00 0.000000000000000e+00
0.000000000000000e+00 0.000000000000000e+00 0.000000000000000e+00
0.000000000000000e+00 0.000000000000000e+00 0.000000000000000e+00
0.000000000000000e+00 0.000000000000000e+00 0.000000000000000e+00
0.000000000000000e+00 0.000000000000000e+00 0.000000000000000e+00
0.000000000000000e+00 0.000000000000000e+00 0.000000000000000e+00
0.000000000000000e+00 0.000000000000000e+00 0.000000000000000e+00
0.000000000000000e+00 0.000000000000000e+00 0.000000000000000e+00
0.000000000000000e+00 0.000000000000000e+00 0.000000000000000e+00
0.000000000000000e+00 0.000000000000000e+00 0.000000000000000e+00
0.000000000000000e+00 0.000000000000000e+00 0.000000000000000e+00
0.000000000000000e+00 0.000000000000000e+00 0.000000000000000e+00
0.000000000000000e+00 0.000000000000000e+00 0.000000000000000e+00
0.000000000000000e+00 0.000000000000000e+00 0.000000000000000e+00
0.000000000000000e+00 0.000000000000000e+00 0.000000000000000e+00
0.000000000000000e+00 0.000000000000000e+00 0.000000000000000e+00
0.000000000000000e+00 0.000000000000000e+00 0.000000000000000e+00
0.000000000000000e+00 0.000000000000000e+00 0.000000000000000e+00
0.000000000000000e+00 0.000000000000000e+00 0.000000000000000e+00
0.000000000000000e+00 0.000000000000000e+00 0.000000000000000e+00
0.000000000000000e+00 0.000000000000000e+00 0.000000000000000e+00
0.000000000000000e+00 0.000000000000000e+00 0.000000000000000e+00
0.000000000000000e+00 0.000000000000000e+00 0.000000000000000e+00
0.000000000000000e+00 0.000000000000000e+00 0.000000000000000e+00
0.000000000000000e+00 0.000000000000000e+00 0.000000000000000e+00
0.000000000000000e+00 0.000000000000000e+00 0.000000000000000e+00
0.000000000000000e+00 0.000000000000000e+00 0.000000000000000e+00
0.000000000000000e+00 0.000000000000000e+00 0.000000000000000e+00
0.000000000000000e+00 0.000000000000000e+00 0.000000000000000e+00
0.000000000000000e+00 0.000000000000000e+00 0.000000000000000e+00
0.000000000000000e+00 0.000000000000000e+00 0.000000000000000e+00
0.000000000000000e+00 0.000000000000000e+00 0.000000000000000e+00
0.000000000000000e+00 0.000000000000000e+00 0.000000000000000e+00
0.000000000000000e+00 0.000000000000000e+00 0.000000000000000e+00
0.000000000000000e+00 0.000000000000000e+00 0.000000000000000e+00
0.000000000000000e+00 0.000000000000000e+00 0.000000000000000e+00
0.000000000000000e+00 0.000000000000000e+00 0.000000000000000e+00
0.000000000000000e+00 0.000000000000000e+00 0.000000000000000e+00
0.000000000000000e+00 0.000000000000000e+00 0.000000000000000e+00
0.000000000000000e+00 0.000000000000000e+00 0.000000000000000e+00
0.000000000000000e+00 0.000000000000000e+00 0.000000000000000e+00
0.000000000000000e+00 0.000000000000000e+00 0.000000000000000e+00
0.000000000000000e+00 0.000000000000000e+00 0.000000000000000e+00
0.000000000000000e+00 0.000000000000000e+00 0.000000000000000e+00
0.000000000000000e+00 0.000000000000000e+00 0.000000000000000e+00
0.000000000000000e+00 0.000000000000000e+00 0.000000000000000e+00
0.000000000000000e+00 0.000000000000000e+00 0.000000000000000e+00
0.000000000000000e+00 0.000000000000000e+00 0.000000000000000e+00
0.000000000000000e+00 0.000000000000000e+00 0.000000000000000e+00
0.000000000000000e+00 0.000000000000000e+00 0.000000000000000e+00
0.000000000000000e+00 0.000000000000000e+00 0.000000000000000e+00
0.000000000000000e+00 0.000000000000000e+00 0.000000000000000e+00
0.000000000000000e+00 0.000000000000000e+00 0.000000000000000e+00
0.000000000000000e+00 0.000000000000000e+00 0.000000000000000e+00
0.000000000000000e+00 0.000000000000000e+00 0.000000000000000e+00
0.000000000000000e+00 0.000000000000000e+00 0.000000000000000e+00
0.000000000000000e+00 0.000000000000000e+00 0.000000000000000e+00
0.000000000000000e+00 0.000000000000000e+00 0.000000000000000e+00
0.000000000000000e+00 0.000000000000000e+00 0.000000000000000e+00
0.000000000000000e+00 0.000000000000000e+00 0.000000000000000e+00
0.000000000000000e+00 0.000000000000000e+00 0.000000000000000e+00
0.000000000000000e+00 0.000000000000000e+00 0.000000000000000e+00
0.000000000000000e+00 0.000000000000000e+00 0.000000000000000e+00
0.000000000000000e+00 0.000000000000000e+00 0.000000000000000e+00
0.000000000000000e+00 0.000000000000000e+00 0.000000000000000e+00
0.000000000000000e+00 0.000000000000000e+00 0.000000000000000e+00
0.000000000000000e+00 0.000000000000000e+00 0.000000000000000e+00
0.000000000000000e+00 0.000000000000000e+00 0.000000000000000e+00
0.000000000000000e+00 0.000000000000000e+00 0.000000000000000e+00
0.000000000000000e+00 0.000000000000000e+00 0.000000000000000e+00
0.000000000000000e+00 0.000000000000000e+00 0.000000000000000e+00
0.000000000000000e+00 0.000000000000000e+00 0.000000000000000e+00
0.000000000000000e+00 0.000000000000000e+00 0.000000000000000e+00
0.000000000000000e+00 0.000000000000000e+00 0.000000000000000e+00
0.000000000000000e+00 0.000000000000000e+00 0.000000000000000e+00
0.000000000000000e+00 0.000000000000000e+00 0.000000000000000e+00
0.000000000000000e+00 0.000000000000000e+00 0.000000000000000e+00
0.000000000000000e+00 0.000000000000000e+00 0.000000000000000e+00
0.000000000000000e+00 0.000000000000000e+00 0.000000000000000e+00
0.000000000000000e+00 0.000000000000000e+00 0.000000000000000e+00
0.000000000000000e+00 0.000000000000000e+00 0.000000000000000e+00
0.000000000000000e+00 0.000000000000000e+00 0.000000000000000e+00
0.000000000000000e+00 0.000000000000000e+00 0.000000000000000e+00
0.000000000000000e+00 0.000000000000000e+00 0.000000000000000e+00
0.000000000000000e+00 0.000000000000000e+00 0.000000000000000e+00
0.000000000000000e+00 0.000000000000000e+00 0.000000000000000e+00
0.000000000000000e+00 0.000000000000000e+00 0.000000000000000e+00
0.000000000000000e+00 0.000000000000000e+00 0.000000000000000e+00
0.000000000000000e+00 0.000000000000000e+00 0.000000000000000e+00
0.000000000000000e+00 0.000000000000000e+00 0.000000000000000e+00
0.000000000000000e+00 0.000000000000000e+00 0.000000000000000e+00
0.000000000000000e+00 0.000000000000000e+00 0.000000000000000e+00
0.000000000000000e+00 0.000000000000000e+00 0.000000000000000e+00
0.000000000000000e+00 0.000000000000000e+00 0.000000000000000e+00
0.000000000000000e+00 0.000000000000000e+00 0.000000000000000e+00
0.000000000000000e+00 0.000000000000000e+00 0.000000000000000e+00
0.000000000000000e+00 0.000000000000000e+00 0.000000000000000e+00
0.000000000000000e+00 0.000000000000000e+00 0.000000000000000e+00
0.000000000000000e+00 0.000000000000000e+00 0.000000000000000e+00
0.000000000000000e+00 0.000000000000000e+00 0.000000000000000e+00
0.000000000000000e+00 0.000000000000000e+00 0.000000000000000e+00
0.000000000000000e+00 0.000000000000000e+00 0.000000000000000e+00
0.000000000000000e+00 0.000000000000000e+00 0.000000000000000e+00
0.000000000000000e+00 0.000000000000000e+00 0.000000000000000e+00
0.000000000000000e+00 0.000000000000000e+00 0.000000000000000e+00
0.000000000000000e+00 0.000000000000000e+00 0.000000000000000e+00
0.000000000000000e+00 0.000000000000000e+00 0.000000000000000e+00
0.000000000000000e+00 0.000000000000000e+00 0.000000000000000e+00
0.000000000000000e+00 0.000000000000000e+00 0.000000000000000e+00
0.000000000000000e+00 0.000000000000000e+00 0.000000000000000e+00
0.000000000000000e+00 0.000000000000000e+00 0.000000000000000e+00
0.000000000000000e+00 0.000000000000000e+00 0.000000000000000e+00
0.000000000000000e+00 0.000000000000000e+00 0.000000000000000e+00
0.000000000000000e+00 0.000000000000000e+00 0.000000000000000e+00
0.000000000000000e+00 0.000000000000000e+00 0.000000000000000e+00
0.000000000000000e+00 0.000000000000000e+00 0.000000000000000e+00
0.000000000000000e+00 0.000000000000000e+00 0.000000000000000e+00
0.000000000000000e+00 0.000000000000000e+00 0.000000000000000e+00
0.000000000000000e+00 0.000000000000000e+00 0.000000000000000e+00
0.000000000000000e+00 0.000000000000000e+00 0.000000000000000e+00
0.000000000000000e+00 0.000000000000000e+00 0.000000000000000e+00
0.000000000000000e+00 0.000000000000000e+00 0.000000000000000e+00
0.000000000000000e+00 0.000000000000000e+00 0.000000000000000e+00
0.000000000000000e+00 0.000000000000000e+00 0.000000000000000e+00
0.000000000000000e+00 0.000000000000000e+00 0.000000000000000e+00
0.000000000000000e+00 0.000000000000000e+00 0.000000000000000e+00
0.000000000000000e+00 0.000000000000000e+00 0.000000000000000e+00
0.000000000000000e+00 0.000000000000000e+00 0.000000000000000e+00
0.000000000000000e+00 0.000000000000000e+00 0.000000000000000e+00
0.000000000000000e+00 0.000000000000000e+00 0.000000000000000e+00
0.000000000000000e+00 0.000000000000000e+00 0.000000000000000e+00
0.000000000000000e+00 0.000000000000000e+00 0.000000000000000e+00
0.000000000000000e+00 0.000000000000000e+00 0.000000000000000e+00
0.000000000000000e+00 0.000000000000000e+00 0.000000000000000e+00
0.000000000000000e+00 0.000000000000000e+00 0.000000000000000e+00
0.000000000000000e+00 0.000000000000000e+00 0.000000000000000e+00
0.000000000000000e+00 0.000000000000000e+00 0.000000000000000e+00
0.000000000000000e+00 0.000000000000000e+00 0.000000000000000e+00
0.000000000000000e+00 0.000000000000000e+00 0.000000000000000e+00
0.000000000000000e+00 0.000000000000000e+00 0.000000000000000e+00
0.000000000000000e+00 0.000000000000000e+00 0.000000000000000e+00
0.000000000000000e+00 0.000000000000000e+00 0.000000000000000e+00
0.000000000000000e+00 0.000000000000000e+00 0.000000000000000e+00
0.000000000000000e+00 0.000000000000000e+00 0.000000000000000e+00
0.000000000000000e+00 0.000000000000000e+00 0.000000000000000e+00
0.000000000000000e+00 0.000000000000000e+00 0.000000000000000e+00
0.000000000000000e+00 0.000000000000000e+00 0.000000000000000e+00
0.000000000000000e+00 0.000000000000000e+00 0.000000000000000e+00
0.000000000000000e+00 0.000000000000000e+00 0.000000000000000e+00
0.000000000000000e+00 0.000000000000000e+00 0.000000000000000e+00
0.000000000000000e+00 0.000000000000000e+00 0.000000000000000e+00
0.000000000000000e+00 0.000000000000000e+00 0.000000000000000e+00
0.000000000000000e+00 0.000000000000000e+00 0.000000000000000e+00
0.000000000000000e+00 0.000000000000000e+00 0.000000000000000e+00
0.000000000000000e+00 0.000000000000000e+00 0.000000000000000e+00
0.000000000000000e+00 0.000000000000000e+00 0.000000000000000e+00
0.000000000000000e+00 0.000000000000000e+00 0.000000000000000e+00
0.000000000000000e+00 0.000000000000000e+00 0.000000000000000e+00
0.000000000000000e+00 0.000000000000000e+00 0.000000000000000e+00
0.000000000000000e+00 0.000000000000000e+00 0.000000000000000e+00
0.000000000000000e+00 0.000000000000000e+00 0.000000000000000e+00
0.000000000000000e+00 0.000000000000000e+00 0.000000000000000e+00
0.000000000000000e+00 0.000000000000000e+00 0.000000000000000e+00
0.000000000000000e+00 0.000000000000000e+00 0.000000000000000e+00
0.000000000000000e+00 0.000000000000000e+00 0.000000000000000e+00
0.000000000000000e+00 0.000000000000000e+00 0.000000000000000e+00
0.000000000000000e+00 0.000000000000000e+00 0.000000000000000e+00
0.000000000000000e+00 0.000000000000000e+00 0.000000000000000e+00
0.000000000000000e+00 0.000000000000000e+00 0.000000000000000e+00
0.000000000000000e+00 0.000000000000000e+00 0.000000000000000e+00
0.000000000000000e+00 0.000000000000000e+00 0.000000000000000e+00
0.000000000000000e+00 0.000000000000000e+00 0.000000000000000e+00
0.000000000000000e+00 0.000000000000000e+00 0.000000000000000e+00
0.000000000000000e+00 0.000000000000000e+00 0.000000000000000e+00
0.000000000000000e+00 0.000000000000000e+00 0.000000000000000e+00
0.000000000000000e+00 0.000000000000000e+00 0.000000000000000e+00
0.000000000000000e+00 0.000000000000000e+00 0.000000000000000e+00
0.000000000000000e+00 0.000000000000000e+00 0.000000000000000e+00
0.000000000000000e+00 0.000000000000000e+00 0.000000000000000e+00
0.000000000000000e+00 0.000000000000000e+00 0.000000000000000e+00
0.000000000000000e+00 0.000000000000000e+00 0.000000000000000e+00
0.000000000000000e+00 0.000000000000000e+00 0.000000000000000e+00
0.000000000000000e+00 0.000000000000000e+00 0.000000000000000e+00
0.000000000000000e+00 0.000000000000000e+00 0.000000000000000e+00
0.000000000000000e+00 0.000000000000000e+00 0.000000000000000e+00
0.000000000000000e+00 0.000000000000000e+00 0.000000000000000e+00
0.000000000000000e+00 0.000000000000000e+00 0.000000000000000e+00
0.000000000000000e+00 0.000000000000000e+00 0.000000000000000e+00
0.000000000000000e+00 0.000000000000000e+00 0.000000000000000e+00
0.000000000000000e+00 0.000000000000000e+00 0.000000000000000e+00
0.000000000000000e+00 0.000000000000000e+00 0.000000000000000e+00
0.000000000000000e+00 0.000000000000000e+00 0.000000000000000e+00
0.000000000000000e+00 0.000000000000000e+00 0.000000000000000e+00
0.000000000000000e+00 0.000000000000000e+00 0.000000000000000e+00
0.000000000000000e+00 0.000000000000000e+00 0.000000000000000e+00
0.000000000000000e+00 0.000000000000000e+00 0.000000000000000e+00
0.000000000000000e+00 0.000000000000000e+00 0.000000000000000e+00
0.000000000000000e+00 0.000000000000000e+00 0.000000000000000e+00
0.000000000000000e+00 0.000000000000000e+00 0.000000000000000e+00
0.000000000000000e+00 0.000000000000000e+00 0.000000000000000e+00
0.000000000000000e+00 0.000000000000000e+00 0.000000000000000e+00
0.000000000000000e+00 0.000000000000000e+00 0.000000000000000e+00
0.000000000000000e+00 0.000000000000000e+00 0.000000000000000e+00
0.000000000000000e+00 0.000000000000000e+00 0.000000000000000e+00
0.000000000000000e+00 0.000000000000000e+00 0.000000000000000e+00
0.000000000000000e+00 0.000000000000000e+00 0.000000000000000e+00
0.000000000000000e+00 0.000000000000000e+00 0.000000000000000e+00
0.000000000000000e+00 0.000000000000000e+00 0.000000000000000e+00
0.000000000000000e+00 0.000000000000000e+00 0.000000000000000e+00
0.000000000000000e+00 0.000000000000000e+00 0.000000000000000e+00
0.000000000000000e+00 0.000000000000000e+00 0.000000000000000e+00
0.000000000000000e+00 0.000000000000000e+00 0.000000000000000e+00
0.000000000000000e+00 0.000000000000000e+00 0.000000000000000e+00
0.000000000000000e+00 0.000000000000000e+00 0.000000000000000e+00
0.000000000000000e+00 0.000000000000000e+00 0.000000000000000e+00
0.000000000000000e+00 0.000000000000000e+00 0.000000000000000e+00
0.000000000000000e+00 0.000000000000000e+00 0.000000000000000e+00
0.000000000000000e+00 0.000000000000000e+00 0.000000000000000e+00
0.000000000000000e+00 0.000000000000000e+00 0.000000000000000e+00
0.000000000000000e+00 0.000000000000000e+00 0.000000000000000e+00
0.000000000000000e+00 0.000000000000000e+00 0.000000000000000e+00
0.000000000000000e+00 0.000000000000000e+00 0.000000000000000e+00
0.000000000000000e+00 0.000000000000000e+00 0.000000000000000e+00
0.000000000000000e+00 0.000000000000000e+00 0.000000000000000e+00
0.000000000000000e+00 0.000000000000000e+00 0.000000000000000e+00
0.000000000000000e+00 0.000000000000000e+00 0.000000000000000e+00
0.000000000000000e+00 0.000000000000000e+00 0.000000000000000e+00
0.000000000000000e+00 0.000000000000000e+00 0.000000000000000e+00
0.000000000000000e+00 0.000000000000000e+00 0.000000000000000e+00
0.000000000000000e+00 0.000000000000000e+00 0.000000000000000e+00
0.000000000000000e+00 0.000000000000000e+00 0.000000000000000e+00
0.000000000000000e+00 0.000000000000000e+00 0.000000000000000e+00
0.000000000000000e+00 0.000000000000000e+00 0.000000000000000e+00
0.000000000000000e+00 0.000000000000000e+00 0.000000000000000e+00
0.000000000000000e+00 0.000000000000000e+00 0.000000000000000e+00
0.000000000000000e+00 0.000000000000000e+00 0.000000000000000e+00
0.000000000000000e+00 0.000000000000000e+00 0.000000000000000e+00
0.000000000000000e+00 0.000000000000000e+00 0.000000000000000e+00
0.000000000000000e+00 0.000000000000000e+00 0.000000000000000e+00
0.000000000000000e+00 0.000000000000000e+00 0.000000000000000e+00
0.000000000000000e+00 0.000000000000000e+00 0.000000000000000e+00
0.000000000000000e+00 0.000000000000000e+00 0.000000000000000e+00
0.000000000000000e+00 0.000000000000000e+00 0.000000000000000e+00
0.000000000000000e+00 0.000000000000000e+00 0.000000000000000e+00
0.000000000000000e+00 0.000000000000000e+00 0.000000000000000e+00
0.000000000000000e+00 0.000000000000000e+00 0.000000000000000e+00
0.000000000000000e+00 0.000000000000000e+00 0.000000000000000e+00
0.000000000000000e+00 0.000000000000000e+00 0.000000000000000e+00
0.000000000000000e+00 0.000000000000000e+00 0.000000000000000e+00
0.000000000000000e+00 0.000000000000000e+00 0.000000000000000e+00
0.000000000000000e+00 0.000000000000000e+00 0.000000000000000e+00
0.000000000000000e+00 0.000000000000000e+00 0.000000000000000e+00
0.000000000000000e+00 0.000000000000000e+00 0.000000000000000e+00
0.000000000000000e+00 0.000000000000000e+00 0.000000000000000e+00
0.000000000000000e+00 0.000000000000000e+00 0.000000000000000e+00
0.000000000000000e+00 0.000000000000000e+00 0.000000000000000e+00
0.000000000000000e+00 0.000000000000000e+00 0.000000000000000e+00
0.000000000000000e+00 0.000000000000000e+00 0.000000000000000e+00
0.000000000000000e+00 0.000000000000000e+00 0.000000000000000e+00
0.000000000000000e+00 0.000000000000000e+00 0.000000000000000e+00
0.000000000000000e+00 0.000000000000000e+00 0.000000000000000e+00
0.000000000000000e+00 0.000000000000000e+00 0.000000000000000e+00
0.000000000000000e+00 0.000000000000000e+00 0.000000000000000e+00
0.000000000000000e+00 0.000000000000000e+00 0.000000000000000e+00
0.000000000000000e+00 0.000000000000000e+00 0.000000000000000e+00
0.000000000000000e+00 0.000000000000000e+00 0.000000000000000e+00
0.000000000000000e+00 0.000000000000000e+00 0.000000000000000e+00
0.000000000000000e+00 0.000000000000000e+00 0.000000000000000e+00
0.000000000000000e+00 0.000000000000000e+00 0.000000000000000e+00
0.000000000000000e+00 0.000000000000000e+00 0.000000000000000e+00
0.000000000000000e+00 0.000000000000000e+00 0.000000000000000e+00
0.000000000000000e+00 0.000000000000000e+00 0.000000000000000e+00
0.000000000000000e+00 0.000000000000000e+00 0.000000000000000e+00
0.000000000000000e+00 0.000000000000000e+00 0.000000000000000e+00
0.000000000000000e+00 0.000000000000000e+00 0.000000000000000e+00
0.000000000000000e+00 0.000000000000000e+00 0.000000000000000e+00
0.000000000000000e+00 0.000000000000000e+00 0.000000000000000e+00
0.000000000000000e+00 0.000000000000000e+00 0.000000000000000e+00
0.000000000000000e+00 0.000000000000000e+00 0.000000000000000e+00
0.000000000000000e+00 0.000000000000000e+00 0.000000000000000e+00
0.000000000000000e+00 0.000000000000000e+00 0.000000000000000e+00
0.000000000000000e+00 0.000000000000000e+00 0.000000000000000e+00
0.000000000000000e+00 0.000000000000000e+00 0.000000000000000e+00
0.000000000000000e+00 0.000000000000000e+00 0.000000000000000e+00
0.000000000000000e+00 0.000000000000000e+00 0.000000000000000e+00
0.000000000000000e+00 0.000000000000000e+00 0.000000000000000e+00
0.000000000000000e+00 0.000000000000000e+00 0.000000000000000e+00
0.000000000000000e+00 0.000000000000000e+00 0.000000000000000e+00
0.000000000000000e+00 0.000000000000000e+00 0.000000000000000e+00
0.000000000000000e+00 0.000000000000000e+00 0.000000000000000e+00
0.000000000000000e+00 0.000000000000000e+00 0.000000000000000e+00
0.000000000000000e+00 0.000000000000000e+00 0.000000000000000e+00
0.000000000000000e+00 0.000000000000000e+00 0.000000000000000e+00
0.000000000000000e+00 0.000000000000000e+00 0.000000000000000e+00
0.000000000000000e+00 0.000000000000000e+00 0.000000000000000e+00
0.000000000000000e+00 0.000000000000000e+00 0.000000000000000e+00
0.000000000000000e+00 0.000000000000000e+00 0.000000000000000e+00
0.000000000000000e+00 0.000000000000000e+00 0.000000000000000e+00
0.000000000000000e+00 0.000000000000000e+00 0.000000000000000e+00
0.000000000000000e+00 0.000000000000000e+00 0.000000000000000e+00
0.000000000000000e+00 0.000000000000000e+00 0.000000000000000e+00
0.000000000000000e+00 0.000000000000000e+00 0.000000000000000e+00
0.000000000000000e+00 0.000000000000000e+00 0.000000000000000e+00
0.000000000000000e+00 0.000000000000000e+00 0.000000000000000e+00
0.000000000000000e+00 0.000000000000000e+00 0.000000000000000e+00
0.000000000000000e+00 0.000000000000000e+00 0.000000000000000e+00
0.000000000000000e+00 0.000000000000000e+00 0.000000000000000e+00
0.000000000000000e+00 0.000000000000000e+00 0.000000000000000e+00
0.000000000000000e+00 0.000000000000000e+00 0.000000000000000e+00
0.000000000000000e+00 0.000000000000000e+00 0.000000000000000e+00
0.000000000000000e+00 0.000000000000000e+00 0.000000000000000e+00
0.000000000000000e+00 0.000000000000000e+00 0.000000000000000e+00
0.000000000000000e+00 0.000000000000000e+00 0.000000000000000e+00
0.000000000000000e+00 0.000000000000000e+00 0.000000000000000e+00
0.000000000000000e+00 0.000000000000000e+00 0.000000000000000e+00
0.000000000000000e+00 0.000000000000000e+00 0.000000000000000e+00
0.000000000000000e+00 0.000000000000000e+00 0.000000000000000e+00
0.000000000000000e+00 0.000000000000000e+00 0.000000000000000e+00
0.000000000000000e+00 0.000000000000000e+00 0.000000000000000e+00
0.000000000000000e+00 0.000000000000000e+00 0.000000000000000e+00
0.000000000000000e+00 0.000000000000000e+00 0.000000000000000e+00
0.000000000000000e+00 0.000000000000000e+00 0.000000000000000e+00
0.000000000000000e+00 0.000000000000000e+00 0.000000000000000e+00
0.000000000000000e+00 0.000000000000000e+00 0.000000000000000e+00
0.000000000000000e+00 0.000000000000000e+00 0.000000000000000e+00
0.000000000000000e+00 0.000000000000000e+00 0.000000000000000e+00
0.000000000000000e+00 0.000000000000000e+00 0.000000000000000e+00
0.000000000000000e+00 0.000000000000000e+00 0.000000000000000e+00
0.000000000000000e+00 0.000000000000000e+00 0.000000000000000e+00
0.000000000000000e+00 0.000000000000000e+00 0.000000000000000e+00
0.000000000000000e+00 0.000000000000000e+00 0.000000000000000e+00
0.000000000000000e+00 0.000000000000000e+00 0.000000000000000e+00
0.000000000000000e+00 0.000000000000000e+00 0.000000000000000e+00
0.000000000000000e+00 0.000000000000000e+00 0.000000000000000e+00
0.000000000000000e+00 0.000000000000000e+00 0.000000000000000e+00
0.000000000000000e+00 0.000000000000000e+00 0.000000000000000e+00
0.000000000000000e+00 0.000000000000000e+00 0.000000000000000e+00
0.000000000000000e+00 0.000000000000000e+00 0.000000000000000e+00
0.000000000000000e+00 0.000000000000000e+00 0.000000000000000e+00
0.000000000000000e+00 0.000000000000000e+00 0.000000000000000e+00
0.000000000000000e+00 0.000000000000000e+00 0.000000000000000e+00
0.000000000000000e+00 0.000000000000000e+00 0.000000000000000e+00
0.000000000000000e+00 0.000000000000000e+00 0.000000000000000e+00
0.000000000000000e+00 0.000000000000000e+00 0.000000000000000e+00
0.000000000000000e+00 0.000000000000000e+00 0.000000000000000e+00
0.000000000000000e+00 0.000000000000000e+00 0.000000000000000e+00
0.000000000000000e+00 0.000000000000000e+00 0.000000000000000e+00
0.000000000000000e+00 0.000000000000000e+00 0.000000000000000e+00
0.000000000000000e+00 0.000000000000000e+00 0.000000000000000e+00
0.000000000000000e+00 0.000000000000000e+00 0.000000000000000e+00
0.000000000000000e+00 0.000000000000000e+00 0.000000000000000e+00
0.000000000000000e+00 0.000000000000000e+00 0.000000000000000e+00
0.000000000000000e+00 0.000000000000000e+00 0.000000000000000e+00
0.000000000000000e+00 0.000000000000000e+00 0.000000000000000e+00
0.000000000000000e+00 0.000000000000000e+00 0.000000000000000e+00
0.000000000000000e+00 0.000000000000000e+00 0.000000000000000e+00
0.000000000000000e+00 0.000000000000000e+00 0.000000000000000e+00
0.000000000000000e+00 0.000000000000000e+00 0.000000000000000e+00
0.000000000000000e+00 0.000000000000000e+00 0.000000000000000e+00
0.000000000000000e+00 0.000000000000000e+00 0.000000000000000e+00
0.000000000000000e+00 0.000000000000000e+00 0.000000000000000e+00
0.000000000000000e+00 0.000000000000000e+00 0.000000000000000e+00
0.000000000000000e+00 0.000000000000000e+00 0.000000000000000e+00
0.000000000000000e+00 0.000000000000000e+00 0.000000000000000e+00
0.000000000000000e+00 0.000000000000000e+00 0.000000000000000e+00
0.000000000000000e+00 0.000000000000000e+00 0.000000000000000e+00
0.000000000000000e+00 0.000000000000000e+00 0.000000000000000e+00
0.000000000000000e+00 0.000000000000000e+00 0.000000000000000e+00
0.000000000000000e+00 0.000000000000000e+00 0.000000000000000e+00
0.000000000000000e+00 0.000000000000000e+00 0.000000000000000e+00
0.000000000000000e+00 0.000000000000000e+00 0.000000000000000e+00
0.000000000000000e+00 0.000000000000000e+00 0.000000000000000e+00
0.000000000000000e+00 0.000000000000000e+00 0.000000000000000e+00
0.000000000000000e+00 0.000000000000000e+00 0.000000000000000e+00
0.000000000000000e+00 0.000000000000000e+00 0.000000000000000e+00
0.000000000000000e+00 0.000000000000000e+00 0.000000000000000e+00
0.000000000000000e+00 0.000000000000000e+00 0.000000000000000e+00
0.000000000000000e+00 0.000000000000000e+00 0.000000000000000e+00
0.000000000000000e+00 0.000000000000000e+00 0.000000000000000e+00
0.000000000000000e+00 0.000000000000000e+00 0.000000000000000e+00
0.000000000000000e+00 0.000000000000000e+00 0.000000000000000e+00
0.000000000000000e+00 0.000000000000000e+00 0.000000000000000e+00
0.000000000000000e+00 0.000000000000000e+00 0.000000000000000e+00
0.000000000000000e+00 0.000000000000000e+00 0.000000000000000e+00
0.000000000000000e+00 0.000000000000000e+00 0.000000000000000e+00
0.000000000000000e+00 0.000000000000000e+00 0.000000000000000e+00
0.000000000000000e+00 0.000000000000000e+00 0.000000000000000e+00
0.000000000000000e+00 0.000000000000000e+00 0.000000000000000e+00
0.000000000000000e+00 0.000000000000000e+00 0.000000000000000e+00
0.000000000000000e+00 0.000000000000000e+00 0.000000000000000e+00
0.000000000000000e+00 0.000000000000000e+00 0.000000000000000e+00
0.000000000000000e+00 0.000000000000000e+00 0.000000000000000e+00
0.000000000000000e+00 0.000000000000000e+00 0.000000000000000e+00
0.000000000000000e+00 0.000000000000000e+00 0.000000000000000e+00
0.000000000000000e+00 0.000000000000000e+00 0.000000000000000e+00
0.000000000000000e+00 0.000000000000000e+00 0.000000000000000e+00
0.000000000000000e+00 0.000000000000000e+00 0.000000000000000e+00
0.000000000000000e+00 0.000000000000000e+00 0.000000000000000e+00
0.000000000000000e+00 0.000000000000000e+00 0.000000000000000e+00
0.000000000000000e+00 0.000000000000000e+00 0.000000000000000e+00
0.000000000000000e+00 0.000000000000000e+00 0.000000000000000e+00
0.000000000000000e+00 0.000000000000000e+00 0.000000000000000e+00
0.000000000000000e+00 0.000000000000000e+00 0.000000000000000e+00
0.000000000000000e+00 0.000000000000000e+00 0.000000000000000e+00
0.000000000000000e+00 0.000000000000000e+00 0.000000000000000e+00
0.000000000000000e+00 0.000000000000000e+00 0.000000000000000e+00
0.000000000000000e+00 0.000000000000000e+00 0.000000000000000e+00
0.000000000000000e+00 0.000000000000000e+00 0.000000000000000e+00
0.000000000000000e+00 0.000000000000000e+00 0.000000000000000e+00
0.000000000000000e+00 0.000000000000000e+00 0.000000000000000e+00
0.000000000000000e+00 0.000000000000000e+00 0.000000000000000e+00
0.000000000000000e+00 0.000000000000000e+00 0.000000000000000e+00
0.000000000000000e+00 0.000000000000000e+00 0.000000000000000e+00
0.000000000000000e+00 0.000000000000000e+00 0.000000000000000e+00
0.000000000000000e+00 0.000000000000000e+00 0.000000000000000e+00
0.000000000000000e+00 0.000000000000000e+00 0.000000000000000e+00
0.000000000000000e+00 0.000000000000000e+00 0.000000000000000e+00
0.000000000000000e+00 0.000000000000000e+00 0.000000000000000e+00
0.000000000000000e+00 0.000000000000000e+00 0.000000000000000e+00
0.000000000000000e+00 0.000000000000000e+00 0.000000000000000e+00
0.000000000000000e+00 0.000000000000000e+00 0.000000000000000e+00
0.000000000000000e+00 0.000000000000000e+00 0.000000000000000e+00
0.000000000000000e+00 0.000000000000000e+00 0.000000000000000e+00
0.000000000000000e+00 0.000000000000000e+00 0.000000000000000e+00
0.000000000000000e+00 0.000000000000000e+00 0.000000000000000e+00
0.000000000000000e+00 0.000000000000000e+00 0.000000000000000e+00
0.000000000000000e+00 0.000000000000000e+00 0.000000000000000e+00
0.000000000000000e+00 0.000000000000000e+00 0.000000000000000e+00
0.000000000000000e+00 0.000000000000000e+00 0.000000000000000e+00
0.000000000000000e+00 0.000000000000000e+00 0.000000000000000e+00
0.000000000000000e+00 0.000000000000000e+00 0.000000000000000e+00
0.000000000000000e+00 0.000000000000000e+00 0.000000000000000e+00
0.000000000000000e+00 0.000000000000000e+00 0.000000000000000e+00
0.000000000000000e+00 0.000000000000000e+00 0.000000000000000e+00
0.000000000000000e+00 0.000000000000000e+00 0.000000000000000e+00
0.000000000000000e+00 0.000000000000000e+00 0.000000000000000e+00
0.000000000000000e+00 0.000000000000000e+00 0.000000000000000e+00
0.000000000000000e+00 0.000000000000000e+00 0.000000000000000e+00
0.000000000000000e+00 0.000000000000000e+00 0.000000000000000e+00
0.000000000000000e+00 0.000000000000000e+00 0.000000000000000e+00
0.000000000000000e+00 0.000000000000000e+00 0.000000000000000e+00
0.000000000000000e+00 0.000000000000000e+00 0.000000000000000e+00
0.000000000000000e+00 0.000000000000000e+00 0.000000000000000e+00
0.000000000000000e+00 0.000000000000000e+00 0.000000000000000e+00
0.000000000000000e+00 0.000000000000000e+00 0.000000000000000e+00
0.000000000000000e+00 0.000000000000000e+00 0.000000000000000e+00
0.000000000000000e+00 0.000000000000000e+00 0.000000000000000e+00
0.000000000000000e+00 0.000000000000000e+00 0.000000000000000e+00
0.000000000000000e+00 0.000000000000000e+00 0.000000000000000e+00
0.000000000000000e+00 0.000000000000000e+00 0.000000000000000e+00
0.000000000000000e+00 0.000000000000000e+00 0.000000000000000e+00
0.000000000000000e+00 0.000000000000000e+00 0.000000000000000e+00
0.000000000000000e+00 0.000000000000000e+00 0.000000000000000e+00
0.000000000000000e+00 0.000000000000000e+00 0.000000000000000e+00
0.000000000000000e+00 0.000000000000000e+00 0.000000000000000e+00
0.000000000000000e+00 0.000000000000000e+00 0.000000000000000e+00
0.000000000000000e+00 0.000000000000000e+00 0.000000000000000e+00
0.000000000000000e+00 0.000000000000000e+00 0.000000000000000e+00
0.000000000000000e+00 0.000000000000000e+00 0.000000000000000e+00
0.000000000000000e+00 0.000000000000000e+00 0.000000000000000e+00
0.000000000000000e+00 0.000000000000000e+00 0.000000000000000e+00
0.000000000000000e+00 0.000000000000000e+00 0.000000000000000e+00
0.000000000000000e+00 0.000000000000000e+00 0.000000000000000e+00
0.000000000000000e+00 0.000000000000000e+00 0.000000000000000e+00
0.000000000000000e+00 0.000000000000000e+00 0.000000000000000e+00
0.000000000000000e+00 0.000000000000000e+00 0.000000000000000e+00
0.000000000000000e+00 0.000000000000000e+00 0.000000000000000e+00
0.000000000000000e+00 0.000000000000000e+00 0.000000000000000e+00
0.000000000000000e+00 0.000000000000000e+00 0.000000000000000e+00
0.000000000000000e+00 0.000000000000000e+00 0.000000000000000e+00
0.000000000000000e+00 0.000000000000000e+00 0.000000000000000e+00
0.000000000000000e+00 0.000000000000000e+00 0.000000000000000e+00
0.000000000000000e+00 0.000000000000000e+00 0.000000000000000e+00
0.000000000000000e+00 0.000000000000000e+00 0.000000000000000e+00
0.000000000000000e+00 0.000000000000000e+00 0.000000000000000e+00
0.000000000000000e+00 0.000000000000000e+00 0.000000000000000e+00
0.000000000000000e+00 0.000000000000000e+00 0.000000000000000e+00
0.000000000000000e+00 0.000000000000000e+00 0.000000000000000e+00
0.000000000000000e+00 0.000000000000000e+00 0.000000000000000e+00
0.000000000000000e+00 0.000000000000000e+00 0.000000000000000e+00
0.000000000000000e+00 0.000000000000000e+00 0.000000000000000e+00
0.000000000000000e+00 0.000000000000000e+00 0.000000000000000e+00
0.000000000000000e+00 0.000000000000000e+00 0.000000000000000e+00
0.000000000000000e+00 0.000000000000000e+00 0.000000000000000e+00
0.000000000000000e+00 0.000000000000000e+00 0.000000000000000e+00
0.000000000000000e+00 0.000000000000000e+00 0.000000000000000e+00
0.000000000000000e+00 0.000000000000000e+00 0.000000000000000e+00
0.000000000000000e+00 0.000000000000000e+00 0.000000000000000e+00
0.000000000000000e+00 0.000000000000000e+00 0.000000000000000e+00
0.000000000000000e+00 0.000000000000000e+00 0.000000000000000e+00
0.000000000000000e+00 0.000000000000000e+00 0.000000000000000e+00
0.000000000000000e+00 0.000000000000000e+00 0.000000000000000e+00
0.000000000000000e+00 0.000000000000000e+00 0.000000000000000e+00
0.000000000000000e+00 0.000000000000000e+00 0.000000000000000e+00
0.000000000000000e+00 0.000000000000000e+00 0.000000000000000e+00
0.000000000000000e+00 0.000000000000000e+00 0.000000000000000e+00
0.000000000000000e+00 0.000000000000000e+00 0.000000000000000e+00
0.000000000000000e+00 0.000000000000000e+00 0.000000000000000e+00
0.000000000000000e+00 0.000000000000000e+00 0.000000000000000e+00
0.000000000000000e+00 0.000000000000000e+00 0.000000000000000e+00
0.000000000000000e+00 0.000000000000000e+00 0.000000000000000e+00
0.000000000000000e+00 0.000000000000000e+00 0.000000000000000e+00
0.000000000000000e+00 0.000000000000000e+00 0.000000000000000e+00
0.000000000000000e+00 0.000000000000000e+00 0.000000000000000e+00
0.000000000000000e+00 0.000000000000000e+00 0.000000000000000e+00
0.000000000000000e+00 0.000000000000000e+00 0.000000000000000e+00
0.000000000000000e+00 0.000000000000000e+00 0.000000000000000e+00
0.000000000000000e+00 0.000000000000000e+00 0.000000000000000e+00
0.000000000000000e+00 0.000000000000000e+00 0.000000000000000e+00
0.000000000000000e+00 0.000000000000000e+00 0.000000000000000e+00
0.000000000000000e+00 0.000000000000000e+00 0.000000000000000e+00
0.000000000000000e+00 0.000000000000000e+00 0.000000000000000e+00
0.000000000000000e+00 0.000000000000000e+00 0.000000000000000e+00
0.000000000000000e+00 0.000000000000000e+00 0.000000000000000e+00
0.000000000000000e+00 0.000000000000000e+00 0.000000000000000e+00
0.000000000000000e+00 0.000000000000000e+00 0.000000000000000e+00
0.000000000000000e+00 0.000000000000000e+00 0.000000000000000e+00
0.000000000000000e+00 0.000000000000000e+00 0.000000000000000e+00
0.000000000000000e+00 0.000000000000000e+00 0.000000000000000e+00
0.000000000000000e+00 0.000000000000000e+00 0.000000000000000e+00
0.000000000000000e+00 0.000000000000000e+00 0.000000000000000e+00
0.000000000000000e+00 0.000000000000000e+00 0.000000000000000e+00
0.000000000000000e+00 0.000000000000000e+00 0.000000000000000e+00
0.000000000000000e+00 0.000000000000000e+00 0.000000000000000e+00
0.000000000000000e+00 0.000000000000000e+00 0.000000000000000e+00
0.000000000000000e+00 0.000000000000000e+00 0.000000000000000e+00
0.000000000000000e+00 0.000000000000000e+00 0.000000000000000e+00
0.000000000000000e+00 0.000000000000000e+00 0.000000000000000e+00
0.000000000000000e+00 0.000000000000000e+00 0.000000000000000e+00
0.000000000000000e+00 0.000000000000000e+00 0.000000000000000e+00
0.000000000000000e+00 0.000000000000000e+00 0.000000000000000e+00
0.000000000000000e+00 0.000000000000000e+00 0.000000000000000e+00
0.000000000000000e+00 0.000000000000000e+00 0.000000000000000e+00
0.000000000000000e+00 0.000000000000000e+00 0.000000000000000e+00
0.000000000000000e+00 0.000000000000000e+00 0.000000000000000e+00
0.000000000000000e+00 0.000000000000000e+00 0.000000000000000e+00
0.000000000000000e+00 0.000000000000000e+00 0.000000000000000e+00
0.000000000000000e+00 0.000000000000000e+00 0.000000000000000e+00
0.000000000000000e+00 0.000000000000000e+00 0.000000000000000e+00
0.000000000000000e+00 0.000000000000000e+00 0.000000000000000e+00
0.000000000000000e+00 0.000000000000000e+00 0.000000000000000e+00
0.000000000000000e+00 0.000000000000000e+00 0.000000000000000e+00
0.000000000000000e+00 0.000000000000000e+00 0.000000000000000e+00
0.000000000000000e+00 0.000000000000000e+00 0.000000000000000e+00
0.000000000000000e+00 0.000000000000000e+00 0.000000000000000e+00
0.000000000000000e+00 0.000000000000000e+00 0.000000000000000e+00
0.000000000000000e+00 0.000000000000000e+00 0.000000000000000e+00
0.000000000000000e+00 0.000000000000000e+00 0.000000000000000e+00
0.000000000000000e+00 0.000000000000000e+00 0.000000000000000e+00
0.000000000000000e+00 0.000000000000000e+00 0.000000000000000e+00
0.000000000000000e+00 0.000000000000000e+00 0.000000000000000e+00
0.000000000000000e+00 0.000000000000000e+00 0.000000000000000e+00
0.000000000000000e+00 0.000000000000000e+00 0.000000000000000e+00
0.000000000000000e+00 0.000000000000000e+00 0.000000000000000e+00
0.000000000000000e+00 0.000000000000000e+00 0.000000000000000e+00
0.000000000000000e+00 0.000000000000000e+00 0.000000000000000e+00
0.000000000000000e+00 0.000000000000000e+00 0.000000000000000e+00
0.000000000000000e+00 0.000000000000000e+00 0.000000000000000e+00
0.000000000000000e+00 0.000000000000000e+00 0.000000000000000e+00
0.000000000000000e+00 0.000000000000000e+00 0.000000000000000e+00
0.000000000000000e+00 0.000000000000000e+00 0.000000000000000e+00
0.000000000000000e+00 0.000000000000000e+00 0.000000000000000e+00
0.000000000000000e+00 0.000000000000000e+00 0.000000000000000e+00
0.000000000000000e+00 0.000000000000000e+00 0.000000000000000e+00
0.000000000000000e+00 0.000000000000000e+00 0.000000000000000e+00
0.000000000000000e+00 0.000000000000000e+00 0.000000000000000e+00
0.000000000000000e+00 0.000000000000000e+00 0.000000000000000e+00
0.000000000000000e+00 0.000000000000000e+00 0.000000000000000e+00
0.000000000000000e+00 0.000000000000000e+00 0.000000000000000e+00
0.000000000000000e+00 0.000000000000000e+00 0.000000000000000e+00
0.000000000000000e+00 0.000000000000000e+00 0.000000000000000e+00
0.000000000000000e+00 0.000000000000000e+00 0.000000000000000e+00
0.000000000000000e+00 0.000000000000000e+00 0.000000000000000e+00
0.000000000000000e+00 0.000000000000000e+00 0.000000000000000e+00
0.000000000000000e+00 0.000000000000000e+00 0.000000000000000e+00
0.000000000000000e+00 0.000000000000000e+00 0.000000000000000e+00
0.000000000000000e+00 0.000000000000000e+00 0.000000000000000e+00
0.000000000000000e+00 0.000000000000000e+00 0.000000000000000e+00
0.000000000000000e+00 0.000000000000000e+00 0.000000000000000e+00
0.000000000000000e+00 0.000000000000000e+00 0.000000000000000e+00
0.000000000000000e+00 0.000000000000000e+00 0.000000000000000e+00
0.000000000000000e+00 0.000000000000000e+00 0.000000000000000e+00
0.000000000000000e+00 0.000000000000000e+00 0.000000000000000e+00
0.000000000000000e+00 0.000000000000000e+00 0.000000000000000e+00
0.000000000000000e+00 0.000000000000000e+00 0.000000000000000e+00
0.000000000000000e+00 0.000000000000000e+00 0.000000000000000e+00
0.000000000000000e+00 0.000000000000000e+00 0.000000000000000e+00
0.000000000000000e+00 0.000000000000000e+00 0.000000000000000e+00
0.000000000000000e+00 0.000000000000000e+00 0.000000000000000e+00
0.000000000000000e+00 0.000000000000000e+00 0.000000000000000e+00
0.000000000000000e+00 0.000000000000000e+00 0.000000000000000e+00
0.000000000000000e+00 0.000000000000000e+00 0.000000000000000e+00
0.000000000000000e+00 0.000000000000000e+00 0.000000000000000e+00
0.000000000000000e+00 0.000000000000000e+00 0.000000000000000e+00
0.000000000000000e+00 0.000000000000000e+00 0.000000000000000e+00
0.000000000000000e+00 0.000000000000000e+00 0.000000000000000e+00
0.000000000000000e+00 0.000000000000000e+00 0.000000000000000e+00
0.000000000000000e+00 0.000000000000000e+00 0.000000000000000e+00
0.000000000000000e+00 0.000000000000000e+00 0.000000000000000e+00
0.000000000000000e+00 0.000000000000000e+00 0.000000000000000e+00
0.000000000000000e+00 0.000000000000000e+00 0.000000000000000e+00
0.000000000000000e+00 0.000000000000000e+00 0.000000000000000e+00
0.000000000000000e+00 0.000000000000000e+00 0.000000000000000e+00
0.000000000000000e+00 0.000000000000000e+00 0.000000000000000e+00
0.000000000000000e+00 0.000000000000000e+00 0.000000000000000e+00
0.000000000000000e+00 0.000000000000000e+00 0.000000000000000e+00
0.000000000000000e+00 0.000000000000000e+00 0.000000000000000e+00
0.000000000000000e+00 0.000000000000000e+00 0.000000000000000e+00
0.000000000000000e+00 0.000000000000000e+00 0.000000000000000e+00
0.000000000000000e+00 0.000000000000000e+00 0.000000000000000e+00
0.000000000000000e+00 0.000000000000000e+00 0.000000000000000e+00
0.000000000000000e+00 0.000000000000000e+00 0.000000000000000e+00
0.000000000000000e+00 0.000000000000000e+00 0.000000000000000e+00
0.000000000000000e+00 0.000000000000000e+00 0.000000000000000e+00
0.000000000000000e+00 0.000000000000000e+00 0.000000000000000e+00
0.000000000000000e+00 0.000000000000000e+00 0.000000000000000e+00
0.000000000000000e+00 0.000000000000000e+00 0.000000000000000e+00
0.000000000000000e+00 0.000000000000000e+00 0.000000000000000e+00
0.000000000000000e+00 0.000000000000000e+00 0.000000000000000e+00
0.000000000000000e+00 0.000000000000000e+00 0.000000000000000e+00
0.000000000000000e+00 0.000000000000000e+00 0.000000000000000e+00
0.000000000000000e+00 0.000000000000000e+00 0.000000000000000e+00
0.000000000000000e+00 0.000000000000000e+00 0.000000000000000e+00
0.000000000000000e+00 0.000000000000000e+00 0.000000000000000e+00
0.000000000000000e+00 0.000000000000000e+00 0.000000000000000e+00
0.000000000000000e+00 0.000000000000000e+00 0.000000000000000e+00
0.000000000000000e+00 0.000000000000000e+00 0.000000000000000e+00
0.000000000000000e+00 0.000000000000000e+00 0.000000000000000e+00
0.000000000000000e+00 0.000000000000000e+00 0.000000000000000e+00
0.000000000000000e+00 0.000000000000000e+00 0.000000000000000e+00
0.000000000000000e+00 0.000000000000000e+00 0.000000000000000e+00
0.000000000000000e+00 0.000000000000000e+00 0.000000000000000e+00
0.000000000000000e+00 0.000000000000000e+00 0.000000000000000e+00
0.000000000000000e+00 0.000000000000000e+00 0.000000000000000e+00
0.000000000000000e+00 0.000000000000000e+00 0.000000000000000e+00
0.000000000000000e+00 0.000000000000000e+00 0.000000000000000e+00
0.000000000000000e+00 0.000000000000000e+00 0.000000000000000e+00
0.000000000000000e+00 0.000000000000000e+00 0.000000000000000e+00
0.000000000000000e+00 0.000000000000000e+00 0.000000000000000e+00
0.000000000000000e+00 0.000000000000000e+00 0.000000000000000e+00
0.000000000000000e+00 0.000000000000000e+00 0.000000000000000e+00
0.000000000000000e+00 0.000000000000000e+00 0.000000000000000e+00
0.000000000000000e+00 0.000000000000000e+00 0.000000000000000e+00
0.000000000000000e+00 0.000000000000000e+00 0.000000000000000e+00
0.000000000000000e+00 0.000000000000000e+00 0.000000000000000e+00
0.000000000000000e+00 0.000000000000000e+00 0.000000000000000e+00
0.000000000000000e+00 0.000000000000000e+00 0.000000000000000e+00
0.000000000000000e+00 0.000000000000000e+00 0.000000000000000e+00
0.000000000000000e+00 0.000000000000000e+00 0.000000000000000e+00
0.000000000000000e+00 0.000000000000000e+00 0.000000000000000e+00
0.000000000000000e+00 0.000000000000000e+00 0.000000000000000e+00
0.000000000000000e+00 0.000000000000000e+00 0.000000000000000e+00
0.000000000000000e+00 0.000000000000000e+00 0.000000000000000e+00
0.000000000000000e+00 0.000000000000000e+00 0.000000000000000e+00
0.000000000000000e+00 0.000000000000000e+00 0.000000000000000e+00
0.000000000000000e+00 0.000000000000000e+00 0.000000000000000e+00
0.000000000000000e+00 0.000000000000000e+00 0.000000000000000e+00
0.000000000000000e+00 0.000000000000000e+00 0.000000000000000e+00
0.000000000000000e+00 0.000000000000000e+00 0.000000000000000e+00
0.000000000000000e+00 0.000000000000000e+00 0.000000000000000e+00
0.000000000000000e+00 0.000000000000000e+00 0.000000000000000e+00
0.000000000000000e+00 0.000000000000000e+00 0.000000000000000e+00
0.000000000000000e+00 0.000000000000000e+00 0.000000000000000e+00
0.000000000000000e+00 0.000000000000000e+00 0.000000000000000e+00
0.000000000000000e+00 0.000000000000000e+00 0.000000000000000e+00
0.000000000000000e+00 0.000000000000000e+00 0.000000000000000e+00
0.000000000000000e+00 0.000000000000000e+00 0.000000000000000e+00
0.000000000000000e+00 0.000000000000000e+00 0.000000000000000e+00
0.000000000000000e+00 0.000000000000000e+00 0.000000000000000e+00
0.000000000000000e+00 0.000000000000000e+00 0.000000000000000e+00
0.000000000000000e+00 0.000000000000000e+00 0.000000000000000e+00
0.000000000000000e+00 0.000000000000000e+00 0.000000000000000e+00
0.000000000000000e+00 0.000000000000000e+00 0.000000000000000e+00
0.000000000000000e+00 0.000000000000000e+00 0.000000000000000e+00
0.000000000000000e+00 0.000000000000000e+00 0.000000000000000e+00
0.000000000000000e+00 0.000000000000000e+00 0.000000000000000e+00
0.000000000000000e+00 0.000000000000000e+00 0.000000000000000e+00
0.000000000000000e+00 0.000000000000000e+00 0.000000000000000e+00
0.000000000000000e+00 0.000000000000000e+00 0.000000000000000e+00
0.000000000000000e+00 0.000000000000000e+00 0.000000000000000e+00
0.000000000000000e+00 0.000000000000000e+00 0.000000000000000e+00
0.000000000000000e+00 0.000000000000000e+00 0.000000000000000e+00
0.000000000000000e+00 0.000000000000000e+00 0.000000000000000e+00
0.000000000000000e+00 0.000000000000000e+00 0.000000000000000e+00
0.000000000000000e+00 0.000000000000000e+00 0.000000000000000e+00
0.000000000000000e+00 0.000000000000000e+00 0.000000000000000e+00
0.000000000000000e+00 0.000000000000000e+00 0.000000000000000e+00
0.000000000000000e+00 0.000000000000000e+00 0.000000000000000e+00
0.000000000000000e+00 0.000000000000000e+00 0.000000000000000e+00
0.000000000000000e+00 0.000000000000000e+00 0.000000000000000e+00
0.000000000000000e+00 0.000000000000000e+00 0.000000000000000e+00
0.000000000000000e+00 0.000000000000000e+00 0.000000000000000e+00
0.000000000000000e+00 0.000000000000000e+00 0.000000000000000e+00
0.000000000000000e+00 0.000000000000000e+00 0.000000000000000e+00
0.000000000000000e+00 0.000000000000000e+00 0.000000000000000e+00
0.000000000000000e+00 0.000000000000000e+00 0.000000000000000e+00
0.000000000000000e+00 0.000000000000000e+00 0.000000000000000e+00
0.000000000000000e+00 0.000000000000000e+00 0.000000000000000e+00
0.000000000000000e+00 0.000000000000000e+00 0.000000000000000e+00
0.000000000000000e+00 0.000000000000000e+00 0.000000000000000e+00
0.000000000000000e+00 0.000000000000000e+00 0.000000000000000e+00
0.000000000000000e+00 0.000000000000000e+00 0.000000000000000e+00
0.000000000000000e+00 0.000000000000000e+00 0.000000000000000e+00
0.000000000000000e+00 0.000000000000000e+00 0.000000000000000e+00
0.000000000000000e+00 0.000000000000000e+00 0.000000000000000e+00
0.000000000000000e+00 0.000000000000000e+00 0.000000000000000e+00
0.000000000000000e+00 0.000000000000000e+00 0.000000000000000e+00
0.000000000000000e+00 0.000000000000000e+00 0.000000000000000e+00
0.000000000000000e+00 0.000000000000000e+00 0.000000000000000e+00
0.000000000000000e+00 0.000000000000000e+00 0.000000000000000e+00
0.000000000000000e+00 0.000000000000000e+00 0.000000000000000e+00
0.000000000000000e+00 0.000000000000000e+00 0.000000000000000e+00
0.000000000000000e+00 0.000000000000000e+00 0.000000000000000e+00
0.000000000000000e+00 0.000000000000000e+00 0.000000000000000e+00
0.000000000000000e+00 0.000000000000000e+00 0.000000000000000e+00
0.000000000000000e+00 0.000000000000000e+00 0.000000000000000e+00
0.000000000000000e+00 0.000000000000000e+00 0.000000000000000e+00
0.000000000000000e+00 0.000000000000000e+00 0.000000000000000e+00
0.000000000000000e+00 0.000000000000000e+00 0.000000000000000e+00
0.000000000000000e+00 0.000000000000000e+00 0.000000000000000e+00
0.000000000000000e+00 0.000000000000000e+00 0.000000000000000e+00
0.000000000000000e+00 0.000000000000000e+00 0.000000000000000e+00
0.000000000000000e+00 0.000000000000000e+00 0.000000000000000e+00
0.000000000000000e+00 0.000000000000000e+00 0.000000000000000e+00
0.000000000000000e+00 0.000000000000000e+00 0.000000000000000e+00
0.000000000000000e+00 0.000000000000000e+00 0.000000000000000e+00
0.000000000000000e+00 0.000000000000000e+00 0.000000000000000e+00
0.000000000000000e+00 0.000000000000000e+00 0.000000000000000e+00
0.000000000000000e+00 0.000000000000000e+00 0.000000000000000e+00
0.000000000000000e+00 0.000000000000000e+00 0.000000000000000e+00
0.000000000000000e+00 0.000000000000000e+00 0.000000000000000e+00
0.000000000000000e+00 0.000000000000000e+00 0.000000000000000e+00
0.000000000000000e+00 0.000000000000000e+00 0.000000000000000e+00
0.000000000000000e+00 0.000000000000000e+00 0.000000000000000e+00
0.000000000000000e+00 0.000000000000000e+00 0.000000000000000e+00
0.000000000000000e+00 0.000000000000000e+00 0.000000000000000e+00
0.000000000000000e+00 0.000000000000000e+00 0.000000000000000e+00
0.000000000000000e+00 0.000000000000000e+00 0.000000000000000e+00
0.000000000000000e+00 0.000000000000000e+00 0.000000000000000e+00
0.000000000000000e+00 0.000000000000000e+00 0.000000000000000e+00
0.000000000000000e+00 0.000000000000000e+00 0.000000000000000e+00
0.000000000000000e+00 0.000000000000000e+00 0.000000000000000e+00
0.000000000000000e+00 0.000000000000000e+00 0.000000000000000e+00
0.000000000000000e+00 0.000000000000000e+00 0.000000000000000e+00
0.000000000000000e+00 0.000000000000000e+00 0.000000000000000e+00
0.000000000000000e+00 0.000000000000000e+00 0.000000000000000e+00
0.000000000000000e+00 0.000000000000000e+00 0.000000000000000e+00
0.000000000000000e+00 0.000000000000000e+00 0.000000000000000e+00
0.000000000000000e+00 0.000000000000000e+00 0.000000000000000e+00
0.000000000000000e+00 0.000000000000000e+00 0.000000000000000e+00
0.000000000000000e+00 0.000000000000000e+00 0.000000000000000e+00
0.000000000000000e+00 0.000000000000000e+00 0.000000000000000e+00
0.000000000000000e+00 0.000000000000000e+00 0.000000000000000e+00
0.000000000000000e+00 0.000000000000000e+00 0.000000000000000e+00
0.000000000000000e+00 0.000000000000000e+00 0.000000000000000e+00
0.000000000000000e+00 0.000000000000000e+00 0.000000000000000e+00
0.000000000000000e+00 0.000000000000000e+00 0.000000000000000e+00
0.000000000000000e+00 0.000000000000000e+00 0.000000000000000e+00
0.000000000000000e+00 0.000000000000000e+00 0.000000000000000e+00
0.000000000000000e+00 0.000000000000000e+00 0.000000000000000e+00
0.000000000000000e+00 0.000000000000000e+00 0.000000000000000e+00
0.000000000000000e+00 0.000000000000000e+00 0.000000000000000e+00
0.000000000000000e+00 0.000000000000000e+00 0.000000000000000e+00
0.000000000000000e+00 0.000000000000000e+00 0.000000000000000e+00
0.000000000000000e+00 0.000000000000000e+00 0.000000000000000e+00
0.000000000000000e+00 0.000000000000000e+00 0.000000000000000e+00
0.000000000000000e+00 0.000000000000000e+00 0.000000000000000e+00
0.000000000000000e+00 0.000000000000000e+00 0.000000000000000e+00
0.000000000000000e+00 0.000000000000000e+00 0.000000000000000e+00
0.000000000000000e+00 0.000000000000000e+00 0.000000000000000e+00
0.000000000000000e+00 0.000000000000000e+00 0.000000000000000e+00
0.000000000000000e+00 0.000000000000000e+00 0.000000000000000e+00
0.000000000000000e+00 0.000000000000000e+00 0.000000000000000e+00
0.000000000000000e+00 0.000000000000000e+00 0.000000000000000e+00
0.000000000000000e+00 0.000000000000000e+00 0.000000000000000e+00
0.000000000000000e+00 0.000000000000000e+00 0.000000000000000e+00
0.000000000000000e+00 0.000000000000000e+00 0.000000000000000e+00
0.000000000000000e+00 0.000000000000000e+00 0.000000000000000e+00
0.000000000000000e+00 0.000000000000000e+00 0.000000000000000e+00
0.000000000000000e+00 0.000000000000000e+00 0.000000000000000e+00
0.000000000000000e+00 0.000000000000000e+00 0.000000000000000e+00
0.000000000000000e+00 0.000000000000000e+00 0.000000000000000e+00
0.000000000000000e+00 0.000000000000000e+00 0.000000000000000e+00
0.000000000000000e+00 0.000000000000000e+00 0.000000000000000e+00
0.000000000000000e+00 0.000000000000000e+00 0.000000000000000e+00
0.000000000000000e+00 0.000000000000000e+00 0.000000000000000e+00
0.000000000000000e+00 0.000000000000000e+00 0.000000000000000e+00
0.000000000000000e+00 0.000000000000000e+00 0.000000000000000e+00
0.000000000000000e+00 0.000000000000000e+00 0.000000000000000e+00
0.000000000000000e+00 0.000000000000000e+00 0.000000000000000e+00
0.000000000000000e+00 0.000000000000000e+00 0.000000000000000e+00
0.000000000000000e+00 0.000000000000000e+00 0.000000000000000e+00
0.000000000000000e+00 0.000000000000000e+00 0.000000000000000e+00
0.000000000000000e+00 0.000000000000000e+00 0.000000000000000e+00
0.000000000000000e+00 0.000000000000000e+00 0.000000000000000e+00
0.000000000000000e+00 0.000000000000000e+00 0.000000000000000e+00
0.000000000000000e+00 0.000000000000000e+00 0.000000000000000e+00
0.000000000000000e+00 0.000000000000000e+00 0.000000000000000e+00
0.000000000000000e+00 0.000000000000000e+00 0.000000000000000e+00
0.000000000000000e+00 0.000000000000000e+00 0.000000000000000e+00
0.000000000000000e+00 0.000000000000000e+00 0.000000000000000e+00
0.000000000000000e+00 0.000000000000000e+00 0.000000000000000e+00
0.000000000000000e+00 0.000000000000000e+00 0.000000000000000e+00
0.000000000000000e+00 0.000000000000000e+00 0.000000000000000e+00
0.000000000000000e+00 0.000000000000000e+00 0.000000000000000e+00
0.000000000000000e+00 0.000000000000000e+00 0.000000000000000e+00
0.000000000000000e+00 0.000000000000000e+00 0.000000000000000e+00
0.000000000000000e+00 0.000000000000000e+00 0.000000000000000e+00
0.000000000000000e+00 0.000000000000000e+00 0.000000000000000e+00
0.000000000000000e+00 0.000000000000000e+00 0.000000000000000e+00
0.000000000000000e+00 0.000000000000000e+00 0.000000000000000e+00
0.000000000000000e+00 0.000000000000000e+00 0.000000000000000e+00
0.000000000000000e+00 0.000000000000000e+00 0.000000000000000e+00
0.000000000000000e+00 0.000000000000000e+00 0.000000000000000e+00
0.000000000000000e+00 0.000000000000000e+00 0.000000000000000e+00
0.000000000000000e+00 0.000000000000000e+00 0.000000000000000e+00
0.000000000000000e+00 0.000000000000000e+00 0.000000000000000e+00
0.000000000000000e+00 0.000000000000000e+00 0.000000000000000e+00
0.000000000000000e+00 0.000000000000000e+00 0.000000000000000e+00
0.000000000000000e+00 0.000000000000000e+00 0.000000000000000e+00
0.000000000000000e+00 0.000000000000000e+00 0.000000000000000e+00
0.000000000000000e+00 0.000000000000000e+00 0.000000000000000e+00
0.000000000000000e+00 0.000000000000000e+00 0.000000000000000e+00
0.000000000000000e+00 0.000000000000000e+00 0.000000000000000e+00
0.000000000000000e+00 0.000000000000000e+00 0.000000000000000e+00
0.000000000000000e+00 0.000000000000000e+00 0.000000000000000e+00
0.000000000000000e+00 0.000000000000000e+00 0.000000000000000e+00
0.000000000000000e+00 0.000000000000000e+00 0.000000000000000e+00
0.000000000000000e+00 0.000000000000000e+00 0.000000000000000e+00
0.000000000000000e+00 0.000000000000000e+00 0.000000000000000e+00
0.000000000000000e+00 0.000000000000000e+00 0.000000000000000e+00
0.000000000000000e+00 0.000000000000000e+00 0.000000000000000e+00
0.000000000000000e+00 0.000000000000000e+00 0.000000000000000e+00
0.000000000000000e+00 0.000000000000000e+00 0.000000000000000e+00
0.000000000000000e+00 0.000000000000000e+00 0.000000000000000e+00
0.000000000000000e+00 0.000000000000000e+00 0.000000000000000e+00
0.000000000000000e+00 0.000000000000000e+00 0.000000000000000e+00
0.000000000000000e+00 0.000000000000000e+00 0.000000000000000e+00
0.000000000000000e+00 0.000000000000000e+00 0.000000000000000e+00
0.000000000000000e+00 0.000000000000000e+00 0.000000000000000e+00
0.000000000000000e+00 0.000000000000000e+00 0.000000000000000e+00
0.000000000000000e+00 0.000000000000000e+00 0.000000000000000e+00
0.000000000000000e+00 0.000000000000000e+00 0.000000000000000e+00
0.000000000000000e+00 0.000000000000000e+00 0.000000000000000e+00
0.000000000000000e+00 0.000000000000000e+00 0.000000000000000e+00
0.000000000000000e+00 0.000000000000000e+00 0.000000000000000e+00
0.000000000000000e+00 0.000000000000000e+00 0.000000000000000e+00
0.000000000000000e+00 0.000000000000000e+00 0.000000000000000e+00
0.000000000000000e+00 0.000000000000000e+00 0.000000000000000e+00
0.000000000000000e+00 0.000000000000000e+00 0.000000000000000e+00
0.000000000000000e+00 0.000000000000000e+00 0.000000000000000e+00
0.000000000000000e+00 0.000000000000000e+00 0.000000000000000e+00
0.000000000000000e+00 0.000000000000000e+00 0.000000000000000e+00
0.000000000000000e+00 0.000000000000000e+00 0.000000000000000e+00
0.000000000000000e+00 0.000000000000000e+00 0.000000000000000e+00
0.000000000000000e+00 0.000000000000000e+00 0.000000000000000e+00
0.000000000000000e+00 0.000000000000000e+00 0.000000000000000e+00
0.000000000000000e+00 0.000000000000000e+00 0.000000000000000e+00
0.000000000000000e+00 0.000000000000000e+00 0.000000000000000e+00
0.000000000000000e+00 0.000000000000000e+00 0.000000000000000e+00
0.000000000000000e+00 0.000000000000000e+00 0.000000000000000e+00
0.000000000000000e+00 0.000000000000000e+00 0.000000000000000e+00
0.000000000000000e+00 0.000000000000000e+00 0.000000000000000e+00
0.000000000000000e+00 0.000000000000000e+00 0.000000000000000e+00
0.000000000000000e+00 0.000000000000000e+00 0.000000000000000e+00
0.000000000000000e+00 0.000000000000000e+00 0.000000000000000e+00
0.000000000000000e+00 0.000000000000000e+00 0.000000000000000e+00
0.000000000000000e+00 0.000000000000000e+00 0.000000000000000e+00
0.000000000000000e+00 0.000000000000000e+00 0.000000000000000e+00
0.000000000000000e+00 0.000000000000000e+00 0.000000000000000e+00
0.000000000000000e+00 0.000000000000000e+00 0.000000000000000e+00
0.000000000000000e+00 0.000000000000000e+00 0.000000000000000e+00
0.000000000000000e+00 0.000000000000000e+00 0.000000000000000e+00
0.000000000000000e+00 0.000000000000000e+00 0.000000000000000e+00
0.000000000000000e+00 0.000000000000000e+00 0.000000000000000e+00
0.000000000000000e+00 0.000000000000000e+00 0.000000000000000e+00
0.000000000000000e+00 0.000000000000000e+00 0.000000000000000e+00
0.000000000000000e+00 0.000000000000000e+00 0.000000000000000e+00
0.000000000000000e+00 0.000000000000000e+00 0.000000000000000e+00
0.000000000000000e+00 0.000000000000000e+00 0.000000000000000e+00
0.000000000000000e+00 0.000000000000000e+00 0.000000000000000e+00
0.000000000000000e+00 0.000000000000000e+00 0.000000000000000e+00
0.000000000000000e+00 0.000000000000000e+00 0.000000000000000e+00
0.000000000000000e+00 0.000000000000000e+00 0.000000000000000e+00
0.000000000000000e+00 0.000000000000000e+00 0.000000000000000e+00
0.000000000000000e+00 0.000000000000000e+00 0.000000000000000e+00
0.000000000000000e+00 0.000000000000000e+00 0.000000000000000e+00
0.000000000000000e+00 0.000000000000000e+00 0.000000000000000e+00
0.000000000000000e+00 0.000000000000000e+00 0.000000000000000e+00
0.000000000000000e+00 0.000000000000000e+00 0.000000000000000e+00
0.000000000000000e+00 0.000000000000000e+00 0.000000000000000e+00
0.000000000000000e+00 0.000000000000000e+00 0.000000000000000e+00
0.000000000000000e+00 0.000000000000000e+00 0.000000000000000e+00
0.000000000000000e+00 0.000000000000000e+00 0.000000000000000e+00
0.000000000000000e+00 0.000000000000000e+00 0.000000000000000e+00
0.000000000000000e+00 0.000000000000000e+00 0.000000000000000e+00
0.000000000000000e+00 0.000000000000000e+00 0.000000000000000e+00
0.000000000000000e+00 0.000000000000000e+00 0.000000000000000e+00
0.000000000000000e+00 0.000000000000000e+00 0.000000000000000e+00
0.000000000000000e+00 0.000000000000000e+00 0.000000000000000e+00
0.000000000000000e+00 0.000000000000000e+00 0.000000000000000e+00
0.000000000000000e+00 0.000000000000000e+00 0.000000000000000e+00
0.000000000000000e+00 0.000000000000000e+00 0.000000000000000e+00
0.000000000000000e+00 0.000000000000000e+00 0.000000000000000e+00
0.000000000000000e+00 0.000000000000000e+00 0.000000000000000e+00
0.000000000000000e+00 0.000000000000000e+00 0.000000000000000e+00
0.000000000000000e+00 0.000000000000000e+00 0.000000000000000e+00
0.000000000000000e+00 0.000000000000000e+00 0.000000000000000e+00
0.000000000000000e+00 0.000000000000000e+00 0.000000000000000e+00
0.000000000000000e+00 0.000000000000000e+00 0.000000000000000e+00
0.000000000000000e+00 0.000000000000000e+00 0.000000000000000e+00
0.000000000000000e+00 0.000000000000000e+00 0.000000000000000e+00
0.000000000000000e+00 0.000000000000000e+00 0.000000000000000e+00
0.000000000000000e+00 0.000000000000000e+00 0.000000000000000e+00
0.000000000000000e+00 0.000000000000000e+00 0.000000000000000e+00
0.000000000000000e+00 0.000000000000000e+00 0.000000000000000e+00
0.000000000000000e+00 0.000000000000000e+00 0.000000000000000e+00
0.000000000000000e+00 0.000000000000000e+00 0.000000000000000e+00
0.000000000000000e+00 0.000000000000000e+00 0.000000000000000e+00
0.000000000000000e+00 0.000000000000000e+00 0.000000000000000e+00
0.000000000000000e+00 0.000000000000000e+00 0.000000000000000e+00
0.000000000000000e+00 0.000000000000000e+00 0.000000000000000e+00
0.000000000000000e+00 0.000000000000000e+00 0.000000000000000e+00
0.000000000000000e+00 0.000000000000000e+00 0.000000000000000e+00
0.000000000000000e+00 0.000000000000000e+00 0.000000000000000e+00
0.000000000000000e+00 0.000000000000000e+00 0.000000000000000e+00
0.000000000000000e+00 0.000000000000000e+00 0.000000000000000e+00
0.000000000000000e+00 0.000000000000000e+00 0.000000000000000e+00
0.000000000000000e+00 0.000000000000000e+00 0.000000000000000e+00
0.000000000000000e+00 0.000000000000000e+00 0.000000000000000e+00
0.000000000000000e+00 0.000000000000000e+00 0.000000000000000e+00
0.000000000000000e+00 0.000000000000000e+00 0.000000000000000e+00
0.000000000000000e+00 0.000000000000000e+00 0.000000000000000e+00
0.000000000000000e+00 0.000000000000000e+00 0.000000000000000e+00
0.000000000000000e+00 0.000000000000000e+00 0.000000000000000e+00
0.000000000000000e+00 0.000000000000000e+00 0.000000000000000e+00
0.000000000000000e+00 0.000000000000000e+00 0.000000000000000e+00
0.000000000000000e+00 0.000000000000000e+00 0.000000000000000e+00
0.000000000000000e+00 0.000000000000000e+00 0.000000000000000e+00
0.000000000000000e+00 0.000000000000000e+00 0.000000000000000e+00
0.000000000000000e+00 0.000000000000000e+00 0.000000000000000e+00
0.000000000000000e+00 0.000000000000000e+00 0.000000000000000e+00
0.000000000000000e+00 0.000000000000000e+00 0.000000000000000e+00
0.000000000000000e+00 0.000000000000000e+00 0.000000000000000e+00
0.000000000000000e+00 0.000000000000000e+00 0.000000000000000e+00
0.000000000000000e+00 0.000000000000000e+00 0.000000000000000e+00
0.000000000000000e+00 0.000000000000000e+00 0.000000000000000e+00
0.000000000000000e+00 0.000000000000000e+00 0.000000000000000e+00
0.000000000000000e+00 0.000000000000000e+00 0.000000000000000e+00
0.000000000000000e+00 0.000000000000000e+00 0.000000000000000e+00
0.000000000000000e+00 0.000000000000000e+00 0.000000000000000e+00
0.000000000000000e+00 0.000000000000000e+00 0.000000000000000e+00
0.000000000000000e+00 0.000000000000000e+00 0.000000000000000e+00
0.000000000000000e+00 0.000000000000000e+00 0.000000000000000e+00
0.000000000000000e+00 0.000000000000000e+00 0.000000000000000e+00
0.000000000000000e+00 0.000000000000000e+00 0.000000000000000e+00
0.000000000000000e+00 0.000000000000000e+00 0.000000000000000e+00
0.000000000000000e+00 0.000000000000000e+00 0.000000000000000e+00
0.000000000000000e+00 0.000000000000000e+00 0.000000000000000e+00
0.000000000000000e+00 0.000000000000000e+00 0.000000000000000e+00
0.000000000000000e+00 0.000000000000000e+00 0.000000000000000e+00
0.000000000000000e+00 0.000000000000000e+00 0.000000000000000e+00
0.000000000000000e+00 0.000000000000000e+00 0.000000000000000e+00
0.000000000000000e+00 0.000000000000000e+00 0.000000000000000e+00
0.000000000000000e+00 0.000000000000000e+00 0.000000000000000e+00
0.000000000000000e+00 0.000000000000000e+00 0.000000000000000e+00
0.000000000000000e+00 0.000000000000000e+00 0.000000000000000e+00
0.000000000000000e+00 0.000000000000000e+00 0.000000000000000e+00
0.000000000000000e+00 0.000000000000000e+00 0.000000000000000e+00
0.000000000000000e+00 0.000000000000000e+00 0.000000000000000e+00
0.000000000000000e+00 0.000000000000000e+00 0.000000000000000e+00
0.000000000000000e+00 0.000000000000000e+00 0.000000000000000e+00
0.000000000000000e+00 0.000000000000000e+00 0.000000000000000e+00
0.000000000000000e+00 0.000000000000000e+00 0.000000000000000e+00
0.000000000000000e+00 0.000000000000000e+00 0.000000000000000e+00
0.000000000000000e+00 0.000000000000000e+00 0.000000000000000e+00
0.000000000000000e+00 0.000000000000000e+00 0.000000000000000e+00
0.000000000000000e+00 0.000000000000000e+00 0.000000000000000e+00
0.000000000000000e+00 0.000000000000000e+00 0.000000000000000e+00
0.000000000000000e+00 0.000000000000000e+00 0.000000000000000e+00
0.000000000000000e+00 0.000000000000000e+00 0.000000000000000e+00
0.000000000000000e+00 0.000000000000000e+00 0.000000000000000e+00
0.000000000000000e+00 0.000000000000000e+00 0.000000000000000e+00
0.000000000000000e+00 0.000000000000000e+00 0.000000000000000e+00
0.000000000000000e+00 0.000000000000000e+00 0.000000000000000e+00
0.000000000000000e+00 0.000000000000000e+00 0.000000000000000e+00
0.000000000000000e+00 0.000000000000000e+00 0.000000000000000e+00
0.000000000000000e+00 0.000000000000000e+00 0.000000000000000e+00
0.000000000000000e+00 0.000000000000000e+00 0.000000000000000e+00
0.000000000000000e+00 0.000000000000000e+00 0.000000000000000e+00
0.000000000000000e+00 0.000000000000000e+00 0.000000000000000e+00
0.000000000000000e+00 0.000000000000000e+00 0.000000000000000e+00
0.000000000000000e+00 0.000000000000000e+00 0.000000000000000e+00
0.000000000000000e+00 0.000000000000000e+00 0.000000000000000e+00
0.000000000000000e+00 0.000000000000000e+00 0.000000000000000e+00
0.000000000000000e+00 0.000000000000000e+00 0.000000000000000e+00
0.000000000000000e+00 0.000000000000000e+00 0.000000000000000e+00
0.000000000000000e+00 0.000000000000000e+00 0.000000000000000e+00
0.000000000000000e+00 0.000000000000000e+00 0.000000000000000e+00
0.000000000000000e+00 0.000000000000000e+00 0.000000000000000e+00
0.000000000000000e+00 0.000000000000000e+00 0.000000000000000e+00
0.000000000000000e+00 0.000000000000000e+00 0.000000000000000e+00
0.000000000000000e+00 0.000000000000000e+00 0.000000000000000e+00
0.000000000000000e+00 0.000000000000000e+00 0.000000000000000e+00
0.000000000000000e+00 0.000000000000000e+00 0.000000000000000e+00
0.000000000000000e+00 0.000000000000000e+00 0.000000000000000e+00
0.000000000000000e+00 0.000000000000000e+00 0.000000000000000e+00
0.000000000000000e+00 0.000000000000000e+00 0.000000000000000e+00
0.000000000000000e+00 0.000000000000000e+00 0.000000000000000e+00
0.000000000000000e+00 0.000000000000000e+00 0.000000000000000e+00
0.000000000000000e+00 0.000000000000000e+00 0.000000000000000e+00
0.000000000000000e+00 0.000000000000000e+00 0.000000000000000e+00
0.000000000000000e+00 0.000000000000000e+00 0.000000000000000e+00
0.000000000000000e+00 0.000000000000000e+00 0.000000000000000e+00
0.000000000000000e+00 0.000000000000000e+00 0.000000000000000e+00
0.000000000000000e+00 0.000000000000000e+00 0.000000000000000e+00
0.000000000000000e+00 0.000000000000000e+00 0.000000000000000e+00
0.000000000000000e+00 0.000000000000000e+00 0.000000000000000e+00
0.000000000000000e+00 0.000000000000000e+00 0.000000000000000e+00
0.000000000000000e+00 0.000000000000000e+00 0.000000000000000e+00
0.000000000000000e+00 0.000000000000000e+00 0.000000000000000e+00
0.000000000000000e+00 0.000000000000000e+00 0.000000000000000e+00
0.000000000000000e+00 0.000000000000000e+00 0.000000000000000e+00
0.000000000000000e+00 0.000000000000000e+00 0.000000000000000e+00
0.000000000000000e+00 0.000000000000000e+00 0.000000000000000e+00
0.000000000000000e+00 0.000000000000000e+00 0.000000000000000e+00
0.000000000000000e+00 0.000000000000000e+00 0.000000000000000e+00
0.000000000000000e+00 0.000000000000000e+00 0.000000000000000e+00
0.000000000000000e+00 0.000000000000000e+00 0.000000000000000e+00
0.000000000000000e+00 0.000000000000000e+00 0.000000000000000e+00
0.000000000000000e+00 0.000000000000000e+00 0.000000000000000e+00
0.000000000000000e+00 0.000000000000000e+00 0.000000000000000e+00
0.000000000000000e+00 0.000000000000000e+00 0.000000000000000e+00
0.000000000000000e+00 0.000000000000000e+00 0.000000000000000e+00
0.000000000000000e+00 0.000000000000000e+00 0.000000000000000e+00
0.000000000000000e+00 0.000000000000000e+00 0.000000000000000e+00
0.000000000000000e+00 0.000000000000000e+00 0.000000000000000e+00
0.000000000000000e+00 0.000000000000000e+00 0.000000000000000e+00
0.000000000000000e+00 0.000000000000000e+00 0.000000000000000e+00
0.000000000000000e+00 0.000000000000000e+00 0.000000000000000e+00
0.000000000000000e+00 0.000000000000000e+00 0.000000000000000e+00
0.000000000000000e+00 0.000000000000000e+00 0.000000000000000e+00
0.000000000000000e+00 0.000000000000000e+00 0.000000000000000e+00
0.000000000000000e+00 0.000000000000000e+00 0.000000000000000e+00
0.000000000000000e+00 0.000000000000000e+00 0.000000000000000e+00
0.000000000000000e+00 0.000000000000000e+00 0.000000000000000e+00
0.000000000000000e+00 0.000000000000000e+00 0.000000000000000e+00
0.000000000000000e+00 0.000000000000000e+00 0.000000000000000e+00
0.000000000000000e+00 0.000000000000000e+00 0.000000000000000e+00
0.000000000000000e+00 0.000000000000000e+00 0.000000000000000e+00
0.000000000000000e+00 0.000000000000000e+00 0.000000000000000e+00
0.000000000000000e+00 0.000000000000000e+00 0.000000000000000e+00
0.000000000000000e+00 0.000000000000000e+00 0.000000000000000e+00
0.000000000000000e+00 0.000000000000000e+00 0.000000000000000e+00
0.000000000000000e+00 0.000000000000000e+00 0.000000000000000e+00
0.000000000000000e+00 0.000000000000000e+00 0.000000000000000e+00
0.000000000000000e+00 0.000000000000000e+00 0.000000000000000e+00
0.000000000000000e+00 0.000000000000000e+00 0.000000000000000e+00
0.000000000000000e+00 0.000000000000000e+00 0.000000000000000e+00
0.000000000000000e+00 0.000000000000000e+00 0.000000000000000e+00
0.000000000000000e+00 0.000000000000000e+00 0.000000000000000e+00
0.000000000000000e+00 0.000000000000000e+00 0.000000000000000e+00
0.000000000000000e+00 0.000000000000000e+00 0.000000000000000e+00
0.000000000000000e+00 0.000000000000000e+00 0.000000000000000e+00
0.000000000000000e+00 0.000000000000000e+00 0.000000000000000e+00
0.000000000000000e+00 0.000000000000000e+00 0.000000000000000e+00
0.000000000000000e+00 0.000000000000000e+00 0.000000000000000e+00
0.000000000000000e+00 0.000000000000000e+00 0.000000000000000e+00
0.000000000000000e+00 0.000000000000000e+00 0.000000000000000e+00
0.000000000000000e+00 0.000000000000000e+00 0.000000000000000e+00
0.000000000000000e+00 0.000000000000000e+00 0.000000000000000e+00
0.000000000000000e+00 0.000000000000000e+00 0.000000000000000e+00
0.000000000000000e+00 0.000000000000000e+00 0.000000000000000e+00
0.000000000000000e+00 0.000000000000000e+00 0.000000000000000e+00
0.000000000000000e+00 0.000000000000000e+00 0.000000000000000e+00
0.000000000000000e+00 0.000000000000000e+00 0.000000000000000e+00
0.000000000000000e+00 0.000000000000000e+00 0.000000000000000e+00
0.000000000000000e+00 0.000000000000000e+00 0.000000000000000e+00
0.000000000000000e+00 0.000000000000000e+00 0.000000000000000e+00
0.000000000000000e+00 0.000000000000000e+00 0.000000000000000e+00
0.000000000000000e+00 0.000000000000000e+00 0.000000000000000e+00
0.000000000000000e+00 0.000000000000000e+00 0.000000000000000e+00
0.000000000000000e+00 0.000000000000000e+00 0.000000000000000e+00
0.000000000000000e+00 0.000000000000000e+00 0.000000000000000e+00
0.000000000000000e+00 0.000000000000000e+00 0.000000000000000e+00
0.000000000000000e+00 0.000000000000000e+00 0.000000000000000e+00
0.000000000000000e+00 0.000000000000000e+00 0.000000000000000e+00
0.000000000000000e+00 0.000000000000000e+00 0.000000000000000e+00
0.000000000000000e+00 0.000000000000000e+00 0.000000000000000e+00
0.000000000000000e+00 0.000000000000000e+00 0.000000000000000e+00
0.000000000000000e+00 0.000000000000000e+00 0.000000000000000e+00
0.000000000000000e+00 0.000000000000000e+00 0.000000000000000e+00
0.000000000000000e+00 0.000000000000000e+00 0.000000000000000e+00
0.000000000000000e+00 0.000000000000000e+00 0.000000000000000e+00
0.000000000000000e+00 0.000000000000000e+00 0.000000000000000e+00
0.000000000000000e+00 0.000000000000000e+00 0.000000000000000e+00
0.000000000000000e+00 0.000000000000000e+00 0.000000000000000e+00
0.000000000000000e+00 0.000000000000000e+00 0.000000000000000e+00
0.000000000000000e+00 0.000000000000000e+00 0.000000000000000e+00
0.000000000000000e+00 0.000000000000000e+00 0.000000000000000e+00
0.000000000000000e+00 0.000000000000000e+00 0.000000000000000e+00
0.000000000000000e+00 0.000000000000000e+00 0.000000000000000e+00
0.000000000000000e+00 0.000000000000000e+00 0.000000000000000e+00
0.000000000000000e+00 0.000000000000000e+00 0.000000000000000e+00
0.000000000000000e+00 0.000000000000000e+00 0.000000000000000e+00
0.000000000000000e+00 0.000000000000000e+00 0.000000000000000e+00
0.000000000000000e+00 0.000000000000000e+00 0.000000000000000e+00
0.000000000000000e+00 0.000000000000000e+00 0.000000000000000e+00
0.000000000000000e+00 0.000000000000000e+00 0.000000000000000e+00
0.000000000000000e+00 0.000000000000000e+00 0.000000000000000e+00
0.000000000000000e+00 0.000000000000000e+00 0.000000000000000e+00
0.000000000000000e+00 0.000000000000000e+00 0.000000000000000e+00
0.000000000000000e+00 0.000000000000000e+00 0.000000000000000e+00
0.000000000000000e+00 0.000000000000000e+00 0.000000000000000e+00
0.000000000000000e+00 0.000000000000000e+00 0.000000000000000e+00
0.000000000000000e+00 0.000000000000000e+00 0.000000000000000e+00
0.000000000000000e+00 0.000000000000000e+00 0.000000000000000e+00
0.000000000000000e+00 0.000000000000000e+00 0.000000000000000e+00
0.000000000000000e+00 0.000000000000000e+00 0.000000000000000e+00
0.000000000000000e+00 0.000000000000000e+00 0.000000000000000e+00
0.000000000000000e+00 0.000000000000000e+00 0.000000000000000e+00
0.000000000000000e+00 0.000000000000000e+00 0.000000000000000e+00
0.000000000000000e+00 0.000000000000000e+00 0.000000000000000e+00
0.000000000000000e+00 0.000000000000000e+00 0.000000000000000e+00
0.000000000000000e+00 0.000000000000000e+00 0.000000000000000e+00
0.000000000000000e+00 0.000000000000000e+00 0.000000000000000e+00
0.000000000000000e+00 0.000000000000000e+00 0.000000000000000e+00
0.000000000000000e+00 0.000000000000000e+00 0.000000000000000e+00
0.000000000000000e+00 0.000000000000000e+00 0.000000000000000e+00
0.000000000000000e+00 0.000000000000000e+00 0.000000000000000e+00
0.000000000000000e+00 0.000000000000000e+00 0.000000000000000e+00
0.000000000000000e+00 0.000000000000000e+00 0.000000000000000e+00
0.000000000000000e+00 0.000000000000000e+00 0.000000000000000e+00
0.000000000000000e+00 0.000000000000000e+00 0.000000000000000e+00
0.000000000000000e+00 0.000000000000000e+00 0.000000000000000e+00
0.000000000000000e+00 0.000000000000000e+00 0.000000000000000e+00
0.000000000000000e+00 0.000000000000000e+00 0.000000000000000e+00
0.000000000000000e+00 0.000000000000000e+00 0.000000000000000e+00
0.000000000000000e+00 0.000000000000000e+00 0.000000000000000e+00
0.000000000000000e+00 0.000000000000000e+00 0.000000000000000e+00
0.000000000000000e+00 0.000000000000000e+00 0.000000000000000e+00
0.000000000000000e+00 0.000000000000000e+00 0.000000000000000e+00
0.000000000000000e+00 0.000000000000000e+00 0.000000000000000e+00
0.000000000000000e+00 0.000000000000000e+00 0.000000000000000e+00
0.000000000000000e+00 0.000000000000000e+00 0.000000000000000e+00
0.000000000000000e+00 0.000000000000000e+00 0.000000000000000e+00
0.000000000000000e+00 0.000000000000000e+00 0.000000000000000e+00
0.000000000000000e+00 0.000000000000000e+00 0.000000000000000e+00
0.000000000000000e+00 0.000000000000000e+00 0.000000000000000e+00
0.000000000000000e+00 0.000000000000000e+00 0.000000000000000e+00
0.000000000000000e+00 0.000000000000000e+00 0.000000000000000e+00
0.000000000000000e+00 0.000000000000000e+00 0.000000000000000e+00
0.000000000000000e+00 0.000000000000000e+00 0.000000000000000e+00
0.000000000000000e+00 0.000000000000000e+00 0.000000000000000e+00
0.000000000000000e+00 0.000000000000000e+00 0.000000000000000e+00
0.000000000000000e+00 0.000000000000000e+00 0.000000000000000e+00
0.000000000000000e+00 0.000000000000000e+00 0.000000000000000e+00
0.000000000000000e+00 0.000000000000000e+00 0.000000000000000e+00
0.000000000000000e+00 0.000000000000000e+00 0.000000000000000e+00
0.000000000000000e+00 0.000000000000000e+00 0.000000000000000e+00
0.000000000000000e+00 0.000000000000000e+00 0.000000000000000e+00
0.000000000000000e+00 0.000000000000000e+00 0.000000000000000e+00
0.000000000000000e+00 0.000000000000000e+00 0.000000000000000e+00
0.000000000000000e+00 0.000000000000000e+00 0.000000000000000e+00
0.000000000000000e+00 0.000000000000000e+00 0.000000000000000e+00
0.000000000000000e+00 0.000000000000000e+00 0.000000000000000e+00
0.000000000000000e+00 0.000000000000000e+00 0.000000000000000e+00
0.000000000000000e+00 0.000000000000000e+00 0.000000000000000e+00
0.000000000000000e+00 0.000000000000000e+00 0.000000000000000e+00
0.000000000000000e+00 0.000000000000000e+00 0.000000000000000e+00
0.000000000000000e+00 0.000000000000000e+00 0.000000000000000e+00
0.000000000000000e+00 0.000000000000000e+00 0.000000000000000e+00
0.000000000000000e+00 0.000000000000000e+00 0.000000000000000e+00
0.000000000000000e+00 0.000000000000000e+00 0.000000000000000e+00
0.000000000000000e+00 0.000000000000000e+00 0.000000000000000e+00
0.000000000000000e+00 0.000000000000000e+00 0.000000000000000e+00
0.000000000000000e+00 0.000000000000000e+00 0.000000000000000e+00
0.000000000000000e+00 0.000000000000000e+00 0.000000000000000e+00
0.000000000000000e+00 0.000000000000000e+00 0.000000000000000e+00
0.000000000000000e+00 0.000000000000000e+00 0.000000000000000e+00
0.000000000000000e+00 0.000000000000000e+00 0.000000000000000e+00
0.000000000000000e+00 0.000000000000000e+00 0.000000000000000e+00
0.000000000000000e+00 0.000000000000000e+00 0.000000000000000e+00
0.000000000000000e+00 0.000000000000000e+00 0.000000000000000e+00
0.000000000000000e+00 0.000000000000000e+00 0.000000000000000e+00
0.000000000000000e+00 0.000000000000000e+00 0.000000000000000e+00
0.000000000000000e+00 0.000000000000000e+00 0.000000000000000e+00
0.000000000000000e+00 0.000000000000000e+00 0.000000000000000e+00
0.000000000000000e+00 0.000000000000000e+00 0.000000000000000e+00
0.000000000000000e+00 0.000000000000000e+00 0.000000000000000e+00
0.000000000000000e+00 0.000000000000000e+00 0.000000000000000e+00
0.000000000000000e+00 0.000000000000000e+00 0.000000000000000e+00
0.000000000000000e+00 0.000000000000000e+00 0.000000000000000e+00
0.000000000000000e+00 0.000000000000000e+00 0.000000000000000e+00
0.000000000000000e+00 0.000000000000000e+00 0.000000000000000e+00
0.000000000000000e+00 0.000000000000000e+00 0.000000000000000e+00
0.000000000000000e+00 0.000000000000000e+00 0.000000000000000e+00
0.000000000000000e+00 0.000000000000000e+00 0.000000000000000e+00
0.000000000000000e+00 0.000000000000000e+00 0.000000000000000e+00
0.000000000000000e+00 0.000000000000000e+00 0.000000000000000e+00
0.000000000000000e+00 0.000000000000000e+00 0.000000000000000e+00
0.000000000000000e+00 0.000000000000000e+00 0.000000000000000e+00
0.000000000000000e+00 0.000000000000000e+00 0.000000000000000e+00
0.000000000000000e+00 0.000000000000000e+00 0.000000000000000e+00
0.000000000000000e+00 0.000000000000000e+00 0.000000000000000e+00
0.000000000000000e+00 0.000000000000000e+00 0.000000000000000e+00
0.000000000000000e+00 0.000000000000000e+00 0.000000000000000e+00
0.000000000000000e+00 0.000000000000000e+00 0.000000000000000e+00
0.000000000000000e+00 0.000000000000000e+00 0.000000000000000e+00
0.000000000000000e+00 0.000000000000000e+00 0.000000000000000e+00
0.000000000000000e+00 0.000000000000000e+00 0.000000000000000e+00
0.000000000000000e+00 0.000000000000000e+00 0.000000000000000e+00
0.000000000000000e+00 0.000000000000000e+00 0.000000000000000e+00
0.000000000000000e+00 0.000000000000000e+00 0.000000000000000e+00
0.000000000000000e+00 0.000000000000000e+00 0.000000000000000e+00
0.000000000000000e+00 0.000000000000000e+00 0.000000000000000e+00
0.000000000000000e+00 0.000000000000000e+00 0.000000000000000e+00
0.000000000000000e+00 0.000000000000000e+00 0.000000000000000e+00
0.000000000000000e+00 0.000000000000000e+00 0.000000000000000e+00
0.000000000000000e+00 0.000000000000000e+00 0.000000000000000e+00
0.000000000000000e+00 0.000000000000000e+00 0.000000000000000e+00
0.000000000000000e+00 0.000000000000000e+00 0.000000000000000e+00
0.000000000000000e+00 0.000000000000000e+00 0.000000000000000e+00
0.000000000000000e+00 0.000000000000000e+00 0.000000000000000e+00
0.000000000000000e+00 0.000000000000000e+00 0.000000000000000e+00
0.000000000000000e+00 0.000000000000000e+00 0.000000000000000e+00
0.000000000000000e+00 0.000000000000000e+00 0.000000000000000e+00
0.000000000000000e+00 0.000000000000000e+00 0.000000000000000e+00
0.000000000000000e+00 0.000000000000000e+00 0.000000000000000e+00
0.000000000000000e+00 0.000000000000000e+00 0.000000000000000e+00
0.000000000000000e+00 0.000000000000000e+00 0.000000000000000e+00
0.000000000000000e+00 0.000000000000000e+00 0.000000000000000e+00
0.000000000000000e+00 0.000000000000000e+00 0.000000000000000e+00
0.000000000000000e+00 0.000000000000000e+00 0.000000000000000e+00
0.000000000000000e+00 0.000000000000000e+00 0.000000000000000e+00
0.000000000000000e+00 0.000000000000000e+00 0.000000000000000e+00
0.000000000000000e+00 0.000000000000000e+00 0.000000000000000e+00
0.000000000000000e+00 0.000000000000000e+00 0.000000000000000e+00
0.000000000000000e+00 0.000000000000000e+00 0.000000000000000e+00
0.000000000000000e+00 0.000000000000000e+00 0.000000000000000e+00
0.000000000000000e+00 0.000000000000000e+00 0.000000000000000e+00
0.000000000000000e+00 0.000000000000000e+00 0.000000000000000e+00
0.000000000000000e+00 0.000000000000000e+00 0.000000000000000e+00
0.000000000000000e+00 0.000000000000000e+00 0.000000000000000e+00
0.000000000000000e+00 0.000000000000000e+00 0.000000000000000e+00
0.000000000000000e+00 0.000000000000000e+00 0.000000000000000e+00
0.000000000000000e+00 0.000000000000000e+00 0.000000000000000e+00
0.000000000000000e+00 0.000000000000000e+00 0.000000000000000e+00
0.000000000000000e+00 0.000000000000000e+00 0.000000000000000e+00
0.000000000000000e+00 0.000000000000000e+00 0.000000000000000e+00
0.000000000000000e+00 0.000000000000000e+00 0.000000000000000e+00
0.000000000000000e+00 0.000000000000000e+00 0.000000000000000e+00
0.000000000000000e+00 0.000000000000000e+00 0.000000000000000e+00
0.000000000000000e+00 0.000000000000000e+00 0.000000000000000e+00
0.000000000000000e+00 0.000000000000000e+00 0.000000000000000e+00
0.000000000000000e+00 0.000000000000000e+00 0.000000000000000e+00
0.000000000000000e+00 0.000000000000000e+00 0.000000000000000e+00
0.000000000000000e+00 0.000000000000000e+00 0.000000000000000e+00
0.000000000000000e+00 0.000000000000000e+00 0.000000000000000e+00
0.000000000000000e+00 0.000000000000000e+00 0.000000000000000e+00
0.000000000000000e+00 0.000000000000000e+00 0.000000000000000e+00
0.000000000000000e+00 0.000000000000000e+00 0.000000000000000e+00
0.000000000000000e+00 0.000000000000000e+00 0.000000000000000e+00
0.000000000000000e+00 0.000000000000000e+00 0.000000000000000e+00
0.000000000000000e+00 0.000000000000000e+00 0.000000000000000e+00
0.000000000000000e+00 0.000000000000000e+00 0.000000000000000e+00
0.000000000000000e+00 0.000000000000000e+00 0.000000000000000e+00
0.000000000000000e+00 0.000000000000000e+00 0.000000000000000e+00
0.000000000000000e+00 0.000000000000000e+00 0.000000000000000e+00
0.000000000000000e+00 0.000000000000000e+00 0.000000000000000e+00
0.000000000000000e+00 0.000000000000000e+00 0.000000000000000e+00
0.000000000000000e+00 0.000000000000000e+00 0.000000000000000e+00
0.000000000000000e+00 0.000000000000000e+00 0.000000000000000e+00
0.000000000000000e+00 0.000000000000000e+00 0.000000000000000e+00
0.000000000000000e+00 0.000000000000000e+00 0.000000000000000e+00
0.000000000000000e+00 0.000000000000000e+00 0.000000000000000e+00
0.000000000000000e+00 0.000000000000000e+00 0.000000000000000e+00
0.000000000000000e+00 0.000000000000000e+00 0.000000000000000e+00
0.000000000000000e+00 0.000000000000000e+00 0.000000000000000e+00
0.000000000000000e+00 0.000000000000000e+00 0.000000000000000e+00
0.000000000000000e+00 0.000000000000000e+00 0.000000000000000e+00
0.000000000000000e+00 0.000000000000000e+00 0.000000000000000e+00
0.000000000000000e+00 0.000000000000000e+00 0.000000000000000e+00
0.000000000000000e+00 0.000000000000000e+00 0.000000000000000e+00
0.000000000000000e+00 0.000000000000000e+00 0.000000000000000e+00
0.000000000000000e+00 0.000000000000000e+00 0.000000000000000e+00
0.000000000000000e+00 0.000000000000000e+00 0.000000000000000e+00
0.000000000000000e+00 0.000000000000000e+00 0.000000000000000e+00
0.000000000000000e+00 0.000000000000000e+00 0.000000000000000e+00
0.000000000000000e+00 0.000000000000000e+00 0.000000000000000e+00
0.000000000000000e+00 0.000000000000000e+00 0.000000000000000e+00
0.000000000000000e+00 0.000000000000000e+00 0.000000000000000e+00
0.000000000000000e+00 0.000000000000000e+00 0.000000000000000e+00
0.000000000000000e+00 0.000000000000000e+00 0.000000000000000e+00
0.000000000000000e+00 0.000000000000000e+00 0.000000000000000e+00
0.000000000000000e+00 0.000000000000000e+00 0.000000000000000e+00
0.000000000000000e+00 0.000000000000000e+00 0.000000000000000e+00
0.000000000000000e+00 0.000000000000000e+00 0.000000000000000e+00
0.000000000000000e+00 0.000000000000000e+00 0.000000000000000e+00
0.000000000000000e+00 0.000000000000000e+00 0.000000000000000e+00
0.000000000000000e+00 0.000000000000000e+00 0.000000000000000e+00
0.000000000000000e+00 0.000000000000000e+00 0.000000000000000e+00
0.000000000000000e+00 0.000000000000000e+00 0.000000000000000e+00
0.000000000000000e+00 0.000000000000000e+00 0.000000000000000e+00
0.000000000000000e+00 0.000000000000000e+00 0.000000000000000e+00
0.000000000000000e+00 0.000000000000000e+00 0.000000000000000e+00
0.000000000000000e+00 0.000000000000000e+00 0.000000000000000e+00
0.000000000000000e+00 0.000000000000000e+00 0.000000000000000e+00
0.000000000000000e+00 0.000000000000000e+00 0.000000000000000e+00
0.000000000000000e+00 0.000000000000000e+00 0.000000000000000e+00
0.000000000000000e+00 0.000000000000000e+00 0.000000000000000e+00
0.000000000000000e+00 0.000000000000000e+00 0.000000000000000e+00
0.000000000000000e+00 0.000000000000000e+00 0.000000000000000e+00
0.000000000000000e+00 0.000000000000000e+00 0.000000000000000e+00
0.000000000000000e+00 0.000000000000000e+00 0.000000000000000e+00
0.000000000000000e+00 0.000000000000000e+00 0.000000000000000e+00
0.000000000000000e+00 0.000000000000000e+00 0.000000000000000e+00
0.000000000000000e+00 0.000000000000000e+00 0.000000000000000e+00
0.000000000000000e+00 0.000000000000000e+00 0.000000000000000e+00
0.000000000000000e+00 0.000000000000000e+00 0.000000000000000e+00
0.000000000000000e+00 0.000000000000000e+00 0.000000000000000e+00
0.000000000000000e+00 0.000000000000000e+00 0.000000000000000e+00
0.000000000000000e+00 0.000000000000000e+00 0.000000000000000e+00
0.000000000000000e+00 0.000000000000000e+00 0.000000000000000e+00
0.000000000000000e+00 0.000000000000000e+00 0.000000000000000e+00
0.000000000000000e+00 0.000000000000000e+00 0.000000000000000e+00
0.000000000000000e+00 0.000000000000000e+00 0.000000000000000e+00
0.000000000000000e+00 0.000000000000000e+00 0.000000000000000e+00
0.000000000000000e+00 0.000000000000000e+00 0.000000000000000e+00
 6.811605447351639e-03 -5.950892497525490e-04  6.876001564688078e-19
6.089150386082636e-03 5.610119294247460e-04 2.981445580067245e-19
 7.292083620697019e-03 -4.809384488653756e-03 -5.309533281317818e-19
 2.754588022776256e-03 -2.313177432233943e-03  1.727988065682453e-19
3.677295232069551e-03 4.173116558079386e-03 1.486406853390967e-19
1.223606263550295e-02 3.659508284469724e-03 5.438744975286886e-19
-3.656268966715355e-03 -9.898962751964625e-03 -2.279497088254207e-19
 3.958784529074149e-03 -3.584230013701160e-04  2.571868103094307e-19
5.617748988597441e-03 1.768467104946389e-03 2.736906134637431e-19
6.103069755684812e-03 3.982461261225424e-03 2.795636751826640e-19
 3.114961633558311e-03 -6.778765632260327e-03  1.120891008017648e-19
1.993277172130391e-03 1.940329698800618e-03 5.419303086955065e-20
 3.763595382894347e-03 -1.173207013915274e-03  2.436479661977909e-19
4.613977539885303e-03 9.212246621150944e-04 2.374793789999950e-19
5.467219592434565e-03 1.980027594782904e-03 2.545760638869534e-19
 5.104856676939619e-03 -2.836167110535927e-05  2.475565223978987e-19
 5.972881838188867e-03 -1.708814490063474e-03  2.860987593858015e-19
 3.158133246650668e-03 -1.686222012608330e-03  2.737253652146358e-19
-1.069206625028328e-03  4.483813304824990e-03 -1.507658217079845e-19
 9.934566197372948e-03 -1.324356809564902e-03  4.077693736724941e-19
 6.813559722953136e-03 -1.633168849225160e-03  3.263961784076786e-19
4.767122762004430e-03 5.822760198974979e-04 2.092822457864626e-19
9.447976953087649e-03 3.160768454757868e-03 3.416552447868131e-19
 1.780905292042822e-03 -7.038311457949151e-03  2.899664818061226e-19
4.312378330755859e-03 2.532646525487545e-03 2.335011898339088e-19
7.899002111766230e-03 3.409124214072410e-03 3.264579188609933e-19
7.125709977761648e-03 7.799175106974421e-04 3.534610988386422e-19
7.155439876026131e-03 3.985931816285116e-03 3.366215594628000e-19
 4.873418764803990e-03 -2.438123727320596e-03  2.743832413158331e-19
-1.051173888174662e-03  6.721785652926009e-04  1.659026449323801e-19
1.959447171163013e-03 3.367461471482748e-03 3.660849963962437e-20
8.193727786463536e-03 3.108516350085506e-04 3.483534848321261e-19
 6.112086508272371e-03 -1.064515768949166e-03  2.672374519941870e-19
 5.524921053887735e-03 -2.341075947322262e-03  2.775033057818214e-19
 4.775313376264918e-03 -1.456097624568902e-03  2.915985471265487e-19
6.255831648915963e-03 6.799878256203066e-04 3.097464594749751e-19
6.197795082395253e-03 2.558460570365917e-03 2.837950336710027e-19
 7.679699963391220e-03 -1.432063203221438e-04  3.262750211127805e-19
 6.120050179877057e-03 -3.208584577880614e-03  2.731662939534710e-19
 6.688260590771908e-03 -8.457707973698255e-04  3.510934663829582e-19
5.941992088821253e-03 1.300384111050220e-03 2.659001065930458e-19
6.528131891203367e-03 2.357780500154846e-03 2.933277622283290e-19
6.479239345953471e-03 8.954967240676902e-04 3.323736412142022e-19
7.520717488107181e-03 6.624464142887884e-03 4.320459146159168e-19
 3.132654919446535e-03 -3.849925365101181e-03 -9.631564988412294e-19
-2.484450804780812e-03  1.449687750524484e-03 -4.493483739709825e-19
 1.722464336768625e-03  2.578344532706681e-03 -1.939971008412167e-19
 8.231532563276139e-03 -3.020021701487676e-04  1.535693738414621e-20
 6.298715605695061e-03 -1.030957595502020e-03  1.924664026624743e-19
 5.878149560085723e-03 -2.265208802523325e-03  2.860643850788037e-19
 5.015334429113003e-03 -1.558975132250943e-03  2.970953153412538e-19
6.354766583653297e-03 7.012982442306461e-04 3.059130573395256e-19
6.339911732789311e-03 2.449913281546361e-03 2.883560745814964e-19
 7.749908444177485e-03 -1.148538711876672e-04  3.290024841188427e-19
 6.356810226196182e-03 -2.784590338590931e-03  2.863335790940902e-19
 6.778832217195780e-03 -8.507496155284575e-04  3.356320550908419e-19
5.943072335628349e-03 1.327288989276601e-03 2.892968703252191e-19
6.534625063127542e-03 2.346223659968788e-03 3.005131897316477e-19
6.529076273674012e-03 8.993735478825140e-04 2.951818201153984e-19
7.760016277621548e-03 6.230473523768114e-03 3.727634443432554e-19
 3.082575672289821e-03 -3.735359091012698e-03  2.146992584039447e-19
-2.468204242940116e-03  1.286064344062790e-03  1.284538475877116e-19
1.772221717677157e-03 2.668507544816730e-03 2.130907892967001e-20
 8.256082367223812e-03 -3.320111928355061e-04  3.474105188061076e-19
 6.293855806178047e-03 -1.012871906625707e-03  2.754585021382740e-19
 5.908826126484953e-03 -2.273085977777549e-03  2.849213880299529e-19
 5.029345016816325e-03 -1.577084422022865e-03  2.933257274952855e-19
6.345457477038026e-03 7.107783393383496e-04 3.099720576313392e-19
6.238220060051761e-03 2.601967505672496e-03 2.832436674237990e-19
 7.717116524872236e-03 -1.374993226187142e-04  3.253779785975913e-19
 6.160318170503563e-03 -3.194851137604243e-03  2.767268967010508e-19
 6.716471788725036e-03 -8.458971347918959e-04  3.335193419790290e-19
5.980350442467542e-03 1.338650808464755e-03 2.898889629922102e-19
6.596758518478017e-03 2.331914607083168e-03 3.024110748508561e-19
6.458048938337930e-03 8.369270394379489e-04 2.921906136636008e-19
6.709363182277585e-03 7.582344439755552e-03 3.404882621978446e-19
 3.345550737386404e-03 -4.060552106932316e-03  2.134680689513981e-19
-2.348215297425477e-03  1.569793603619068e-03  1.514651494980789e-19
1.734297522162837e-03 2.564935957669279e-03 1.817980784673456e-20
 8.231909366289876e-03 -3.046360241638090e-04  3.454905566117867e-19
 6.325507881551511e-03 -1.041506916120858e-03  2.751506040024747e-19
 5.864872628077293e-03 -2.275514644527940e-03  2.829298878992874e-19
 5.014609355179347e-03 -1.553699143635748e-03  2.922019994394581e-19
6.362633040396888e-03 6.893641193495313e-04 3.094863509506193e-19
6.346293448059826e-03 2.439352923171309e-03 2.871564259289599e-19
 7.761341694510429e-03 -1.084151832348405e-04  3.272782532602969e-19
 6.363856763200815e-03 -2.797551498005534e-03  2.850942725058068e-19
 6.783302006520841e-03 -8.542916206781525e-04  3.338076294269287e-19
5.950708499529559e-03 1.334653204905858e-03 2.873858662374575e-19
6.547681858290817e-03 2.341813816271160e-03 2.989695820309683e-19
6.514646564851062e-03 8.863477168329816e-04 2.928288211831613e-19
7.535485169346414e-03 6.550313149529199e-03 3.642689775004816e-19
 3.134951565105220e-03 -3.799792300950180e-03  2.137395035683855e-19
-2.448417795893808e-03  1.330151553572874e-03  1.308626242500069e-19
1.758303222432369e-03 2.657016657228021e-03 1.847483139745227e-20
 8.251427348001524e-03 -3.515765196974396e-04  3.456499358649129e-19
 6.293048464993613e-03 -1.001877558763838e-03  2.630635070148838e-19
 5.910592166212313e-03 -2.274456395941288e-03  2.634357783866127e-19
 5.025867649897677e-03 -1.576855185351732e-03  9.022174703054522e-20
 6.340207815156122e-03  7.100739502413015e-04 -6.029146590366803e-19
6.237987457516550e-03 2.593639335914425e-03 3.519891939965655e-19
 7.717652836774154e-03 -1.475312137381747e-04  3.785709984810585e-19
 6.147385273642424e-03 -3.200292379264308e-03  2.849083845695260e-19
 6.709276449455045e-03 -8.416884562896759e-04  3.288895085787572e-19
5.958870456119628e-03 1.333591456359124e-03 2.866596774820857e-19
6.560743914373611e-03 2.339723207926872e-03 2.981440508526963e-19
6.532394560704962e-03 8.767040897587366e-04 2.920237153110055e-19
7.517485660127698e-03 6.555183223560602e-03 3.621529374972261e-19
 3.153293695805784e-03 -3.793398111938784e-03  2.139329507570694e-19
-2.413172142332093e-03  1.294097549393602e-03  1.294677664674639e-19
1.782891005642495e-03 2.678158706010757e-03 1.932692053758200e-20
 8.246875734755403e-03 -3.406409674697311e-04  3.433619316832452e-19
 6.286986248908263e-03 -1.009985014798942e-03  2.718306060288528e-19
 5.894319108926492e-03 -2.267114075392532e-03  2.814691254682802e-19
 5.014579226802423e-03 -1.571188483599581e-03  2.894706380370082e-19
6.356091989937148e-03 7.047727853779709e-04 3.062435467847824e-19
6.339531806619902e-03 2.450218235147672e-03 2.839089477788392e-19
 7.750137053595155e-03 -1.096262119549010e-04  3.240309743495797e-19
 6.355702159163524e-03 -2.793494667066391e-03  2.825442286223871e-19
 6.774810078437103e-03 -8.547027923942345e-04  3.306202979872975e-19
5.943476846575220e-03 1.341106853066132e-03 2.838744846741252e-19
6.549925920128867e-03 2.336632236151780e-03 2.959253673703796e-19
6.532032418783796e-03 8.728092790257144e-04 2.901079812239452e-19
7.542538153250452e-03 6.511834815582348e-03 3.613712548882409e-19
 3.158035066398853e-03 -3.788524149831519e-03  2.138562640727305e-19
-2.395208303127976e-03  1.276460289441879e-03  1.276673512201596e-19
1.793765403209283e-03 2.686395849943516e-03 1.910585778266739e-20
 8.252778166686014e-03 -3.255348961037711e-04  3.369364514200955e-19
 6.298183096536471e-03 -1.010185492644032e-03  2.690841920307841e-19
 5.902290047119017e-03 -2.273761744162539e-03  2.587282529609742e-19
 5.020535040290652e-03 -1.580098528698611e-03  4.287830772841209e-19
6.341286302951314e-03 7.079505229129170e-04 2.213737740584553e-19
 6.232601543239060e-03  2.598378440253035e-03 -4.461182610553778e-19
 7.714485009158209e-03 -1.334411142356885e-04 -6.846817263174829e-19
 6.155733450243750e-03 -3.188969078248419e-03 -6.535181960636588e-19
 6.703257282314562e-03 -8.459057920753742e-04  1.817949176513040e-18
5.958402832837285e-03 1.334325071472038e-03 2.005267049273387e-19
6.571031247445622e-03 2.325528078466294e-03 3.304664077990820e-19
6.549400812120432e-03 8.615904199023997e-04 3.138470942102860e-19
7.428769203473571e-03 6.636161433940834e-03 3.557258011514189e-19
 3.186105001787422e-03 -3.788392208322939e-03  2.155149100809738e-19
-2.362885768890047e-03  1.246902690134078e-03  1.261134247680005e-19
1.820787104804944e-03 2.715511135945205e-03 1.949079268745595e-20
 8.257346192538101e-03 -3.475348248496904e-04  3.414192645251418e-19
 6.294771958970548e-03 -1.003285191812630e-03  2.688032655427243e-19
 5.900458051561622e-03 -2.274942674163177e-03  2.781416992344348e-19
 5.017147828363402e-03 -1.579070351617892e-03  2.855679306905122e-19
6.339078848623756e-03 7.088651433481708e-04 2.997702700097764e-19
6.233148952429040e-03 2.598063608132402e-03 2.707565835582095e-19
 7.715306252162062e-03 -1.389545326943834e-04  3.188595897068225e-19
 6.152987273687799e-03 -3.187648071638026e-03  2.832458634741029e-19
 6.704069925390460e-03 -8.434253950880760e-04  7.244320408992582e-19
5.957096841308397e-03 1.334520423462105e-03 1.273924601876552e-18
6.566228932559899e-03 2.327591809534969e-03 1.745040697137191e-18
 6.559860221765560e-03  8.699794721350202e-04 -6.027753264741739e-19
7.573914093986392e-03 6.432719532553340e-03 4.652949387117756e-19
 3.148469026315103e-03 -3.744281313377370e-03  4.341812212213669e-19
-2.381765817814621e-03  1.214919772463732e-03  8.077699477199703e-20
1.817715129906567e-03 2.720532188909018e-03 1.779085674861572e-20
 8.259553737893019e-03 -3.291349591339437e-04  3.308677685039355e-19
 6.285515860781391e-03 -1.004690203194739e-03  2.497714435168937e-19
 5.886456487635987e-03 -2.271698885986077e-03  2.691201786452589e-19
 5.004818165537931e-03 -1.570468221075931e-03  2.827012227464083e-19
6.352168544720643e-03 7.077952024634932e-04 2.983281483857541e-19
6.336939433079625e-03 2.453272995593518e-03 2.761279541552897e-19
 7.747180051844160e-03 -1.155730936435694e-04  3.163534470974387e-19
 6.349269536533379e-03 -2.785792011260958e-03  2.755628694753350e-19
 6.768616387987242e-03 -8.511886812026512e-04  3.225687575614637e-19
5.942324860319457e-03 1.346875484542159e-03 2.755217830576085e-19
6.557705941062124e-03 2.321147875815215e-03 2.881826445065061e-19
6.538318493434380e-03 8.565671839728616e-04 2.819407903931736e-19
7.434763282008628e-03 6.611599455246467e-03 3.503401908422144e-19
 3.184775701584546e-03 -3.785252341116981e-03  2.092624127229911e-19
-2.364460576413169e-03  1.245721143474970e-03  1.201041806332410e-19
1.812305709363694e-03 2.711171360062839e-03 1.473537383319341e-20
 8.254344626503270e-03 -3.387236956184261e-04  3.328971580522580e-19
 6.290928651099614e-03 -1.000264028456104e-03  2.612411285471809e-19
 5.896111885898483e-03 -2.273373740583483e-03  2.714242760804891e-19
 5.010886906313411e-03 -1.576664172320273e-03  2.791303127352418e-19
6.333070914446367e-03 7.102569820170482e-04 2.940179201396876e-19
6.230029790906745e-03 2.594397089792041e-03 2.676999639102488e-19
 7.711558297622710e-03 -1.419645232911282e-04  3.091734752469023e-19
 6.145083592171224e-03 -3.195652700825482e-03  2.619127366605308e-19
 6.703113952037687e-03 -8.422527760904563e-04  3.159481612233313e-19
5.957917171167098e-03 1.338252719129135e-03 2.696021260640618e-19
6.571575178841359e-03 2.334139794403802e-03 2.687110010061193e-19
6.558676578316740e-03 8.626534738787896e-04 2.485350824188946e-19
7.490450250362380e-03 6.544093153280026e-03 8.594635795447358e-20
 3.163908846120760e-03 -3.761381503412678e-03 -9.102556613702114e-20
-2.389560755909532e-03  1.250384597489385e-03  3.327824990338964e-20
 1.792182999171112e-03  2.721865558137099e-03 -2.855130059933808e-20
 8.299947833075545e-03 -3.132149387278532e-04  2.327757131081928e-19
 6.318227406400066e-03 -1.004091576353057e-03  2.588714224441063e-19
 5.929643893925272e-03 -2.279320372004423e-03  2.655297196392864e-19
 5.075177404570892e-03 -1.571377762623226e-03  2.733917536571306e-19
6.431392243658464e-03 7.465636883496529e-04 2.932340927347008e-19
6.279838681411199e-03 2.693389884947921e-03 2.658466199318585e-19
 7.481446323378170e-03 -8.137337105799026e-05  3.009603265804460e-19
 5.793203653417902e-03 -2.418879464115520e-03  2.608836356663853e-19
6.269180704176236e-03 7.119344277314299e-05 2.836596603328572e-19
7.269242980521930e-03 2.652597047831667e-03 3.049442320605337e-19
 6.991068266159832e-03 -3.084506875269255e-03  2.869329324534791e-19
6.145044526826960e-03 7.784569019754142e-05 2.780613230390858e-19
5.946949313523704e-03 2.318542627904448e-03 2.452668329722592e-19
 7.646442184101243e-03 -2.438953568476981e-04  3.004353562517328e-19
 6.057341712863104e-03 -3.289017057240138e-03  2.595907806295773e-19
 6.564624909399866e-03 -8.544008736496809e-04  3.063612017039954e-19
5.800477966586765e-03 1.293643320584530e-03 2.548510709727301e-19
6.258235265064914e-03 1.806791946403136e-03 2.603948152402989e-19
7.424993285178396e-03 1.161469122241488e-03 2.932304846113656e-19
 6.147073490662915e-03 -6.393641845352438e-03  2.083832661565680e-19
 1.969641839349306e-03 -2.555830077534136e-03  2.059609838546565e-19
2.372341022636517e-03 2.826349573747538e-04 1.360937591402938e-19
5.887220514716508e-03 3.942001090033246e-03 2.404566078399354e-19
 1.101070396527714e-02 -4.088314213409425e-03  3.344824405208688e-19
 5.559542449595768e-03 -5.482830072668406e-03  1.883830207122344e-19
 6.743672879388357e-03 -2.251176872641894e-03  3.063100816400550e-19
 3.512839028528835e-03 -3.264183211987995e-03  2.876222918095518e-19
4.602183986228800e-03 6.121243480389657e-03 1.644841492271926e-19
 7.962682049830909e-03 -4.231876118006630e-03  3.159227184600630e-19
6.068770740328268e-03 4.760568478987404e-03 2.474363332692142e-19
 7.232130623539593e-03 -4.325450598367057e-03  2.587906082168912e-19
7.573067684787264e-03 5.544166088568282e-04 3.140218464629807e-19
 8.288800437367339e-03 -6.436993534404184e-04  3.356721886094127e-19
 4.854779847677479e-03 -9.718048096990696e-04  2.386036455232141e-19
3.995549002487282e-03 1.039176390009912e-02 2.337001140063171e-19
 6.538398432554123e-03 -1.185817210590062e-02  9.756958629603954e-20
 5.210231167639978e-03 -8.802419318337803e-04  2.461759240614871e-19
4.880011484070463e-03 3.609643789904960e-03 1.694415553767316e-19
8.697504969003121e-03 1.463811511642323e-03 3.271332547053985e-19
 6.849012823054573e-03 -3.951463788550645e-03  2.471884583811252e-19
7.761233561497165e-03 3.203273164450995e-03 3.016249312126514e-19
 5.521034029489635e-03 -4.304921385893076e-03  2.669425559631630e-19
3.782734586788058e-03 9.879527075850596e-04 1.471631741544738e-19
1.626763314619803e-03 1.163817881873919e-02 1.718455345252376e-19
 8.601885935566926e-03 -9.189314741925364e-03  1.768452594957610e-19
 5.323445510809172e-03 -1.253061500968383e-03  2.169326995637655e-19
 7.702637466538839e-03 -1.170359116960993e-03  3.059927815604329e-19
7.976028508573433e-03 7.342243637747968e-04 3.093225470041609e-19
8.328995019524787e-03 6.389397002148669e-04 3.173019943796228e-19
8.099473487230311e-03 1.472808839182296e-03 3.002227081798749e-19
7.106344842242700e-03 1.264847051484953e-03 2.506706478645559e-19
7.108788434517231e-03 2.608979923561213e-03 2.377585269473471e-19
 8.612973726421429e-03 -3.370689885985680e-03  2.616736319548847e-19
 1.339166068142917e-03 -2.014280333396270e-03  1.881092560638349e-19
 4.992537698875441e-04  4.242579065698940e-04 -1.001801605330305e-19
5.524388048308312e-03 4.366213970808803e-03 1.759528247718136e-19
 8.522637235717421e-03 -4.784259407830399e-03  1.995594718157456e-19
 6.455477098364351e-03 -2.016640641927032e-03  1.870956936965746e-19
 1.454800587505041e-03 -1.653423853653751e-03  1.607275389112803e-19
-5.815168858422410e-05 -4.742462143801540e-05 -1.379377699793073e-19
5.981938197176675e-03 3.735874317015930e-03 1.767988605253917e-19
1.060875462785658e-02 8.417338882457543e-03 4.372505561633804e-19
 5.966915689885864e-03 -5.240426283688509e-03  1.272587577191153e-19
 6.556294069485129e-03 -1.113323498957770e-04  1.868224928066303e-19
 6.671950273375326e-03 -3.190712107663297e-03  1.902713180402024e-19
7.946449522564568e-03 6.288096710915847e-04 2.205089398860661e-19
 5.885101617572610e-03 -2.148796844031748e-03  1.653315461638698e-19
5.455886873325757e-03 4.321045499061991e-03 1.245325517377676e-19
 6.710515404097982e-03 -8.105183117491022e-04  1.321739063794378e-19
4.564182746478959e-03 2.054838299372071e-03 4.226104295168360e-20
4.801612083515185e-03 5.383216855241083e-04 3.603143450072764e-20
4.553384304568266e-03 5.831483697332056e-03 1.063950680111661e-19
 6.288264303118985e-03 -2.932140863554664e-03  3.892693643585460e-20
 6.386520203767503e-03 -1.178554724464049e-03  5.970865135792665e-20
 4.781865139297704e-03 -3.228741216339390e-03  5.798871745238760e-20
 6.425435390024101e-03 -1.242482285838653e-04  6.006716259764057e-20
 8.456023172906529e-03 -1.446586837456551e-03  1.092405596816970e-19
 8.511494281458492e-03 -1.502979692593394e-03  9.733549391645596e-20
 5.937571731769503e-03  2.934817112155139e-03 -4.011769415178529e-20
-3.720720198662179e-04  1.237545027198078e-02  1.524038045172736e-19
 9.891971904756538e-03 -6.584903918562244e-03 -3.372118009893690e-20
 5.928096207131805e-03 -2.883274690158406e-03 -7.940812599115206e-20
 6.305890335938044e-03 -6.982447398454940e-04 -1.184888377990400e-19
 5.472821260759637e-03  8.557477498861907e-03 -2.058794752538369e-20
 8.140274843699795e-03 -5.541968401428903e-03 -9.787337133579987e-20
 6.363867375821702e-03  2.604600386398030e-03 -2.822124927984314e-19
 4.680430469904700e-03 -7.604358660833139e-04 -3.948880421741977e-19
-1.586384352873475e-03  5.971720214443932e-03  1.296148449853717e-20
 1.044279487049210e-02  1.816330802683138e-03 -2.980897813974325e-19
 7.572491600707742e-03 -3.063351039810854e-03 -3.935150526718655e-19
 5.700836957980730e-03 -1.589987498451419e-03 -5.020645373199686e-19
 2.862845067378410e-03  4.517603099805031e-03 -6.286950726202158e-19
 7.063546617440391e-03  1.748714213262757e-03 -7.881640351274952e-19
 5.272173485931508e-03  3.619335881107978e-03 -9.340557889187402e-19
 7.853658257349946e-03 -1.417614620364143e-03 -1.079168420053780e-18
 4.067100387466029e-03 -3.546761896661339e-03 -7.320021975136176e-19
 2.169931630826359e-04 -1.644356651126901e-04 -8.422381197872848e-19
 2.676213515370775e-03  2.478513373524921e-03 -1.553925099396524e-18
 7.222699250276425e-03 -1.104751007119574e-03 -1.698471789511240e-18
 4.337901183635795e-03 -1.455407261765679e-03 -1.829077308873696e-18
 1.526305585369307e-03 -5.315624789754088e-04 -2.016654419093775e-18
 5.737606855042424e-03  7.236709769326923e-03 -2.182694153022303e-18
 7.849781944718640e-03 -9.411122419615382e-03 -1.124472323148911e-18
 8.880422114496446e-04 -1.760653400002811e-03  1.121495652436641e-19
 3.189090274099902e-03  3.522357327274654e-03 -4.008864237706558e-18
 9.535755619659891e-03  2.423300307465921e-03 -5.263618321414854e-18
 5.334506713838825e-03 -5.326103640798392e-03 -2.379537919871659e-18
 6.541304300761603e-03  1.283180901995573e-03 -6.984743557905926e-18
-1.295116660029890e-03 -6.517314078339790e-03  4.751355246622877e-18
 3.722811706669620e-03  5.496178289225525e-05 -9.537911796724201e-18
-6.142625853278399e-04  7.164476057912336e-03 -2.422392191307294e-18
 7.710809794289228e-03 -1.868990178502271e-03 -1.144950370479533e-17
 5.233671181332545e-03  5.058406324677662e-04 -1.717277460395989e-17
 5.261801562983033e-03 -1.229277300242375e-04 -2.214662860421751e-17
 5.512062864164386e-03  8.830935966999058e-04 -3.280117456889984e-17
 4.354612889934490e-03 -2.913992878493919e-03 -4.511583864159113e-17
 6.331404002850658e-03  1.441155619810716e-03 -7.091665494675509e-17
 4.690353804310612e-03 -5.649143780662043e-03 -8.665388372912204e-17
 9.958937400574767e-03  1.031940156896312e-03 -1.596943599593412e-16
 6.382199803367784e-04 -6.470293252286974e-03  1.758142003946444e-17
6.469875503945738e-03 4.630467631598629e-03 2.419812450181004e-16
 5.980467301097435e-03  3.903527880057342e-03 -7.624748311327311e-15
 3.850761539555207e-03 -5.074608344350501e-03 -2.201904116667771e-16
 5.805721494557024e-03  3.789469045932654e-03 -6.933954085854656e-15
3.418182244192870e-03 6.143963192844177e-04 4.306523280816043e-16
 6.534790353504103e-03 -8.082495348929339e-05 -7.655446762714476e-17
 4.511922932810889e-03 -3.159672013815002e-03 -4.516882223227807e-17
 5.255452792268400e-03  2.154455933115815e-03 -4.255277188699136e-17
 8.614034915842696e-03 -1.481708899002762e-03 -3.591126638992093e-17
 4.495389450813293e-03  1.090641244271821e-02 -1.978892800069491e-17
 9.066227447792412e-03 -7.132491920279784e-03 -2.401978153603050e-17
 6.002863580772897e-03 -4.424045506731296e-03 -2.883807818852717e-17
1.622523610878742e-03 7.941626062233687e-03 3.398873750572321e-18
 8.494180069515212e-03 -2.582094174396255e-04 -1.637824761217223e-17
 3.875800521951808e-03  3.529061559879718e-03 -9.220027151577569e-18
 6.181997055275341e-03 -4.284366013010115e-03 -7.134652009463391e-18
 6.889144214928649e-04 -3.216366392736816e-03 -3.129800942345679e-18
 7.351563518466900e-04 -3.449900389310946e-04 -8.021999628576056e-18
 6.389704739117734e-03  2.341494928523133e-03 -5.215245963591242e-18
 4.925715574829298e-03 -2.198912231473486e-03 -5.006620958263419e-18
 2.790021384872522e-03  3.794454816233746e-03 -1.413037021540340e-18
 7.991995033287569e-03  4.447597068351895e-05 -3.566112837731013e-18
 5.955715759887978e-03 -1.987749515820256e-03 -2.996472634640999e-18
 6.766259623772683e-03  1.551217967377002e-03 -1.811193531382303e-18
 7.110657427685561e-03 -6.974979372436446e-04 -1.823098249016958e-18
 5.809491290856043e-03  1.909845018830605e-03 -1.094418210034353e-18
 5.270670999496310e-03 -8.769049810492934e-04 -1.102132033615350e-18
 6.091242797849192e-03  1.338445531563001e-03 -6.212808736697176e-19
 5.130648684443031e-03 -5.132101044868998e-03 -7.742168973356955e-19
 7.523546575766303e-03  2.282678698515278e-03 -3.505736811786975e-19
 8.510516654080322e-03 -7.349774251213366e-03 -6.080930477484394e-19
 2.824353187200133e-03 -4.264398634232744e-03 -5.142217653417218e-19
4.668938377098337e-03 5.805571637370867e-03 1.215977448005009e-19
1.240034814401693e-02 1.191830931757704e-02 4.419175197628638e-19
 6.830335699016798e-03 -1.549754444396534e-02 -5.247770498213655e-19
 3.780899295704185e-03 -4.687085407818689e-03 -3.459791752423513e-19
3.294160781995018e-03 5.071534671835343e-03 1.073968821959457e-19
7.294823251753573e-03 8.830549549544812e-03 2.762265391883326e-19
 1.013308703491888e-02 -6.143051018115772e-03 -2.138545757775802e-19
 6.729597542669502e-03 -3.565401069699391e-03 -2.051550557051617e-19
 4.051115436213398e-03 -3.488048347976529e-03 -1.453798703011082e-19
3.194988945305823e-03 7.210565526639129e-03 1.727794767660873e-19
 8.397141902061435e-03 -4.470828523990846e-03  1.028080289622042e-21
6.724351411946879e-03 6.544522709866381e-03 2.234274841709006e-19
 9.310871263112966e-03 -4.495474557868349e-03  1.851355083686899e-20
1.016055100354447e-02 4.231725522569117e-03 2.729554644909273e-19
 2.373153627280098e-03 -5.541354023200202e-03 -3.013600676982699e-20
3.713375822574293e-03 4.634033567847921e-03 9.852602706151827e-20
5.893432784928805e-03 7.022268228950055e-03 2.242144095880807e-19
4.842053294409111e-03 4.177685377938118e-04 2.490227621267365e-20
4.442437559442267e-03 6.957674716456378e-03 2.153718826926735e-19
 4.528564667957551e-03 -7.004069381982633e-03 -6.416169248303388e-20
 4.577827497322744e-03 -3.412178326819685e-04  9.204450819426139e-20
3.751114505749065e-03 4.897608349326396e-03 1.185955440636345e-19
 6.776095478037392e-03 -1.272927237354038e-03  1.262380529521610e-19
6.776198040663234e-03 9.442363734365098e-04 1.605037065719624e-19
 3.234015095253035e-03 -4.635567388611924e-03  5.306164866708457e-20
5.009513843849278e-03 2.886502877024386e-04 1.297103179131369e-19
4.374456222399723e-03 1.024418530428332e-02 3.020110203118355e-19
 9.690442264877277e-03 -6.756455550817370e-03  1.644721405781232e-19
 3.593411517442629e-03 -6.991250296733396e-03  2.177120225707749e-19
 9.648983291949778e-03  2.031215385715743e-03 -6.696383650238532e-19
2.019596991288538e-03 6.417610052619176e-03 8.757880613421381e-20
2.852718973149357e-03 1.028198788629530e-02 1.836758783938180e-19
 7.931824143338909e-03 -7.028083056550507e-03 -2.217765551652028e-18
 5.254514277269580e-03 -1.408206748128470e-03  6.069826117010574e-19
 3.219272290226057e-03 -3.574768344042580e-03  7.311809304116027e-20
5.045323028920381e-03 2.495135888777425e-03 1.788798844170197e-19
7.836405179213043e-03 5.160454474125775e-04 2.748673239621950e-19
7.672905413503619e-03 5.052786088153109e-04 2.662549438712801e-19
 7.520098975572336e-03 -3.729835492260990e-03  2.606456616423673e-19
 5.607022324293777e-03 -8.604911245606563e-04  2.455649823176693e-19
3.552233934624763e-03 3.785752114241746e-03 1.106904259417910e-19
1.608479277072999e-04 1.303139212338384e-02 1.689675312354180e-19
 8.104320768866793e-03 -5.525961410523781e-03  2.310645583478011e-19
 3.756824839368386e-04 -1.557079286641984e-04  1.055745710597557e-19
3.317938860427492e-03 3.329265925874082e-03 9.972925991670713e-20
 6.843085028168953e-03 -1.943084635178920e-03  2.225200581104704e-19
 5.102920449910604e-03 -1.223585717156675e-03  2.091722302075100e-19
6.598130390432238e-03 1.443043149221982e-04 2.596201628469229e-19
 6.507429574432937e-03 -2.747232280339820e-03  2.520962650341878e-19
 6.753254238379815e-03 -1.791450995502857e-04  2.708559511483456e-19
 7.363581312074093e-03 -8.888119762798570e-04  2.990762793986860e-19
6.017844339616344e-03 1.716278430932436e-03 2.463051952006862e-19
6.667810043702335e-03 2.146738387375819e-03 2.633486548820057e-19
6.305425222284967e-03 9.325333016364117e-04 2.543828652863996e-19
7.597703925605897e-03 6.171332190029545e-03 3.321095742497336e-19
 3.275381215569313e-03 -3.991348422735722e-03  1.051301304128702e-19
-2.400240600453986e-03  1.382768218935723e-03  2.611486342271345e-19
 1.748286303727088e-03  2.552758683197443e-03 -6.975509815933179e-20
 8.164515552185727e-03 -2.265231421777683e-04  5.077931914802877e-19
 6.300522883008224e-03 -1.036943695286192e-03 -1.574622707858251e-18
 5.874892669303562e-03 -2.263480052637034e-03 -7.633504173308924e-19
 5.034342644289173e-03 -1.547913147634776e-03  5.232804744325378e-19
6.378588756557271e-03 7.352857635579380e-04 2.517381007420809e-19
6.216348653301088e-03 2.662055518847291e-03 2.614672504247473e-19
 7.418479279785600e-03 -6.162348426222960e-05  2.865025271710907e-19
 5.698366471722808e-03 -2.447046755376845e-03  2.448923861699242e-19
6.148406889599723e-03 5.167439696398616e-05 2.719599396062041e-19
7.152358001052763e-03 2.565038690037768e-03 2.973201408947700e-19
 6.837503500514145e-03 -3.029612452035763e-03  2.735707295234424e-19
5.992049609094994e-03 1.052955336148500e-04 2.681960052813351e-19
5.830239065552300e-03 2.286288849410785e-03 2.424274952738397e-19
 7.573949517560015e-03 -1.823488382151871e-04  2.961444652048722e-19
 6.078658785889062e-03 -3.282871562357204e-03  2.524689458163071e-19
 6.712968866282120e-03 -8.487427604477642e-04  3.100791068671344e-19
5.960523109796266e-03 1.281071002992820e-03 2.679537193317671e-19
6.519549268442896e-03 2.397336822622605e-03 2.785542942960664e-19
6.453022961822512e-03 9.288256038693424e-04 2.700074141689660e-19
7.636552166321789e-03 6.563304008559025e-03 3.551825790283520e-19
 3.091956821850180e-03 -3.883412542147632e-03  1.960580651050354e-19
-2.560973075116439e-03  1.600505226532442e-03  1.235586354614385e-19
1.640979168835666e-03 2.479341352751627e-03 7.679846575648963e-22
 8.238176481114219e-03 -2.258655065909598e-04  3.266087440169400e-19
 6.326134689452109e-03 -1.052163385852155e-03  2.557481295476835e-19
 5.874458968237520e-03 -2.282101450907859e-03  2.650987527041863e-19
 5.022342820880074e-03 -1.557895178285060e-03  2.742974730523061e-19
6.372927982533456e-03 6.964521585450042e-04 2.922501623814751e-19
6.351471583748753e-03 2.451061672849052e-03 2.716483938500498e-19
 7.764060918179706e-03 -1.070288169586499e-04  3.107390377469518e-19
 6.373262006375420e-03 -2.792862755567825e-03  2.702707483196782e-19
 6.797277609718640e-03 -8.547043425678049e-04  3.188163505394661e-19
5.955044952908695e-03 1.313562139379982e-03 2.735441489935366e-19
6.525862901873986e-03 2.374522584973915e-03 2.845548135501553e-19
6.452208614158260e-03 9.235978085482723e-04 2.764144301271560e-19
7.534475897475253e-03 6.680010337638072e-03 3.557468848157540e-19
 3.108478579141660e-03 -3.890553510125928e-03  2.020092408863098e-19
-2.540643770300725e-03  1.553155882380658e-03  1.282843393872435e-19
1.664663887529358e-03 2.505097513046780e-03 4.503334927305108e-21
 8.232906095912056e-03 -2.445893793207401e-04  3.326153207990510e-19
 6.319580001509505e-03 -1.049694701671613e-03  2.620065275948538e-19
 5.879753791064376e-03 -2.279137655987605e-03  2.715436793059242e-19
 5.025695223103110e-03 -1.560974509370184e-03  2.803680377358719e-19
6.374779318505729e-03 6.954217630719668e-04 2.977570268509387e-19
6.353407677465201e-03 2.450943703754401e-03 2.762802746995433e-19
 7.769043660849120e-03 -1.040389694419387e-04  3.162619884055665e-19
 6.379270138750393e-03 -2.789191275021522e-03  2.757261241091039e-19
 6.803398895409516e-03 -8.540911126715935e-04  3.241230411874911e-19
5.955785846915636e-03 1.303651091493045e-03 2.781964009625858e-19
6.515209901053518e-03 2.386604473419638e-03 2.881548034689147e-19
6.460663477660548e-03 9.464228575670832e-04 2.810225036762805e-19
7.734921232701104e-03 6.422572682089346e-03 3.643775450316989e-19
 3.046168026516537e-03 -3.838672100678708e-03  2.051538482858168e-19
-2.592019260979646e-03  1.530151649307814e-03  1.283275397247881e-19
1.647359755337606e-03 2.496338370278022e-03 4.749135498942530e-21
 8.241764615872942e-03 -2.169517925269839e-04  3.374559053607497e-19
 6.320761528135729e-03 -1.049223712119089e-03  2.662002809563952e-19
 5.884358176952595e-03 -2.279526060720425e-03  2.757060371932874e-19
 5.028609491473620e-03 -1.564114590122277e-03  2.845386590697269e-19
6.376788862017086e-03 6.981747829759550e-04 3.016134578730591e-19
6.351477012214055e-03 2.452890568823385e-03 2.795551399820993e-19
 7.763898943245867e-03 -9.649903583897357e-05  3.198528580803342e-19
 6.379011750547721e-03 -2.798977897445553e-03  2.790470806317442e-19
 6.798513712845219e-03 -8.599075011678333e-04  3.275017177948603e-19
5.958249877950456e-03 1.316760094094672e-03 2.813937003408913e-19
6.530543842233197e-03 2.374354187039117e-03 2.919137150397176e-19
6.443879239672738e-03 9.223189086783991e-04 2.837700856790425e-19
7.469520179501859e-03 6.778373517542992e-03 3.591091364170883e-19
 3.123048716303740e-03 -3.919330569326576e-03  2.072549136449685e-19
-2.538256196804010e-03  1.581392155051797e-03  1.369907413212111e-19
1.654951387228779e-03 2.491764271380078e-03 7.103215943628442e-21
 8.230072400779775e-03 -2.462827628674053e-04  3.399262880672160e-19
 6.321890668014940e-03 -1.048476383366929e-03  2.692826195938071e-19
 5.879041794137241e-03 -2.279255238557997e-03  2.783333002978210e-19
 5.025031881734222e-03 -1.557083630283134e-03  2.871558032065683e-19
6.371245079313722e-03 6.989543842549786e-04 3.040957964803527e-19
6.352994734153896e-03 2.451807785640016e-03 2.821573291075036e-19
 7.765599930952601e-03 -1.130476462496618e-04  3.227749363352885e-19
 6.370516815005119e-03 -2.793403343833560e-03  2.814942027150691e-19
 6.799338360949859e-03 -8.516384500208824e-04  3.326604104860028e-19
5.960481519114381e-03 1.315732111664584e-03 2.709484204077880e-19
6.531474549836849e-03 2.369026596602594e-03 3.135126549579271e-19
6.443385216428453e-03 9.212353777071849e-04 4.166641488444959e-19
7.447476112667101e-03 6.797538240237698e-03 7.442530464744179e-19
 3.122791450845593e-03 -3.911575582069632e-03  8.352674919661018e-20
-2.540205907540501e-03  1.587330996576775e-03  3.315112312644387e-19
 1.657202573049033e-03  2.488789316292698e-03 -2.886420311228318e-19
 8.229889776747870e-03 -2.328613866837921e-04  1.045678631808935e-18
 6.321935511729841e-03 -1.055475080485240e-03 -1.380804241244301e-20
 5.870944461209939e-03 -2.280741695660315e-03  1.227945703171526e-19
 5.023567415484337e-03 -1.554875769557127e-03  2.730958784796138e-19
6.373302654903784e-03 6.938427480849225e-04 2.897746033620053e-19
6.350501322689854e-03 2.452654727943494e-03 2.818846104342391e-19
 7.764138665070459e-03 -1.051777705856677e-04  3.245147170002910e-19
 6.375873013253942e-03 -2.782569466461605e-03  2.825548502700074e-19
 6.794816165628116e-03 -8.533306642366797e-04  3.314857168173039e-19
5.953026151100146e-03 1.314923605749009e-03 2.856807246478448e-19
6.528995866325210e-03 2.367199721773840e-03 2.961459387153429e-19
6.463332500663795e-03 9.146163703919539e-04 2.889562805463542e-19
7.516779569890489e-03 6.687445228469683e-03 3.636497065632203e-19
 3.124497976598398e-03 -3.881180053802644e-03  2.107742254616049e-19
-2.508998701814648e-03  1.513899541672149e-03  1.381227058665297e-19
1.697245686209591e-03 2.534629285129530e-03 1.306954054923655e-20
 8.232680414193094e-03 -2.598905201998401e-04  3.439827842381999e-19
 6.320665530580907e-03 -1.053600182647027e-03  2.732571602130026e-19
 5.883632039090252e-03 -2.278203498360919e-03  2.822878988533086e-19
 5.029997254509988e-03 -1.561148856088912e-03  2.913244213189722e-19
6.347930443949243e-03 7.021078485515279e-04 3.076408929994460e-19
6.236579880261420e-03 2.598950537866968e-03 2.807376542502549e-19
 7.716502901745639e-03 -1.386055327259203e-04  3.234024679316325e-19
 6.160254548486844e-03 -3.182986401254070e-03  2.757334696464523e-19
 6.711897504521998e-03 -8.439498973157472e-04  3.319443621133545e-19
5.960794565774920e-03 1.315563171969138e-03 2.879056719080298e-19
6.545803093889158e-03 2.342988308044767e-03 2.987854382115651e-19
6.446086090860058e-03 8.925788489810672e-04 2.903392570566054e-19
7.242205266032024e-03 6.986866527394658e-03 3.561274447764928e-19
 3.170774252947537e-03 -3.914870752526090e-03  2.122808737666912e-19
-2.489181081132398e-03  1.532518213448781e-03  1.417505264505932e-19
1.702221627523777e-03 2.535297294997409e-03 1.453523507815715e-20
 8.193020159379581e-03 -3.303875183550332e-04  3.441121275308679e-19
 6.269227849342328e-03 -1.026747809044178e-03  2.740412182861855e-19
 5.838808379295739e-03 -2.255070960655381e-03  2.834462807410817e-19
 4.967859034328801e-03 -1.534092672585123e-03  2.919129198394007e-19
6.278754394527595e-03 6.929754706406886e-04 3.071356491122225e-19
6.239229467049377e-03 2.393664461668062e-03 2.889307116100383e-19
 7.591166421809136e-03 -1.204152192369708e-04  3.346512822808725e-19
 6.130414746545134e-03 -2.708412650287566e-03  3.207347876524960e-19
 6.476573822994994e-03 -7.972876910809562e-04  3.881841253606340e-19
 6.321946539537019e-03  1.303367603101758e-03 -6.393493359249614e-19
6.233970957486574e-03 6.076594507108464e-04 4.978922397696323e-19
4.767134196896092e-03 1.459984516436868e-03 1.937931513804812e-19
2.243483822163838e-04 1.047724729296355e-02 1.344068133812225e-19
 1.049184182999419e-02 -5.216764703302823e-03  3.295692113955629e-19
 6.645542016111994e-03 -5.961870114541142e-03  2.447367706967748e-19
 2.708408149718468e-03 -3.226104376705305e-03  2.900037996672964e-19
 8.448684414577853e-04  1.632330937749367e-03 -1.090808227949956e-19
8.253002309912896e-03 3.086521938253994e-03 3.824795299544374e-19
7.483011280248828e-03 3.563520407139964e-03 3.387750757266651e-19
9.365585719413285e-03 1.124941302939602e-03 4.035121427287283e-19
 7.351435037517564e-03 -2.735616729679391e-04  3.322962802471529e-19
5.923497205817222e-03 1.015332658870056e-04 2.944357711402247e-19
4.608876769164737e-03 4.001472175378086e-04 2.450386937769665e-19
1.737434179983933e-03 2.011858704039830e-04 1.287818611877725e-19
3.443104991241836e-03 5.098493363976490e-03 1.533751212610053e-19
 5.712967357073093e-03 -3.390457272939353e-03  2.194555092223374e-19
 5.230296157356146e-03 -1.219536955908087e-03  2.646488590098917e-19
 7.429792583062124e-03 -3.279035602039477e-03  3.434608187463212e-19
 3.104981189825341e-03 -2.534348956132995e-03  3.095694763305861e-19
-6.821475479124294e-05 -1.070069889999608e-03 -2.509485414771989e-19
3.498386887546516e-03 6.134454697485916e-03 1.392197890965040e-19
 7.574940722118598e-03 -2.847972985071621e-04  3.443559160764464e-19
 5.635197023690811e-03 -2.577521049789390e-03  3.607948899021853e-19
 5.615339226559899e-03 -1.408865894124903e-03 -1.209342032263126e-20
 6.791322033262530e-03 -1.398212625501218e-03 -6.803401640096908e-19
 7.761845914126111e-03 -6.244447043178814e-04  1.042179686957131e-18
 5.389406329690117e-03 -1.127599252727739e-03  1.405350931301898e-19
-3.494682696859377e-03  5.791086316976453e-03 -2.102430331294043e-19
1.301380871852515e-02 6.802603798869899e-04 5.746892618209037e-19
 6.921002824104515e-03 -5.303939966117749e-03  2.780438290690142e-19
6.576434875852241e-03 7.253560897342435e-04 3.140094076032653e-19
 7.332625723035326e-03 -4.716743890876688e-04  3.508361203112341e-19
5.609148836762108e-03 2.095795217947562e-03 2.645929070052130e-19
4.803391478312059e-03 1.084752809773825e-03 2.324929962389718e-19
6.377682418007161e-03 5.034465553853077e-03 3.018006815273178e-19
 3.777671334632208e-03 -7.038513307040811e-03  9.982181028333158e-20
5.999877889118048e-03 1.777224124410416e-03 2.775812579759951e-19
 2.638318720776250e-03 -4.774785922199772e-03  2.203097497647589e-19
5.216147521285053e-03 2.116813424648395e-03 2.516568533089297e-19
 7.907639486789858e-03 -5.028223073999152e-04  3.656623807010184e-19
6.439516345373973e-03 9.597704004178069e-04 3.099149173913225e-19
6.799250196213820e-03 1.460559125561034e-03 3.142252904290047e-19
 5.874362931524061e-03 -1.035480069341313e-03  2.934969027567853e-19
7.050059541523553e-03 2.949062301598499e-03 3.215979811335168e-19
 4.327707449156715e-03 -6.957473022110230e-03  1.769196145337551e-19
 4.381218207441065e-03 -4.536769925814312e-04  2.571586365765808e-19
5.855575416398086e-03 2.654430931536975e-03 2.687672862777890e-19
 9.536029420510751e-03 -8.234144220610482e-04  3.960026850802065e-19
 2.256538320816598e-03 -5.322682585101462e-03  1.890988412826491e-19
1.547532769638523e-03 2.522048165352262e-04 1.414425142132829e-19
5.756700986373061e-03 4.526381500404791e-03 2.544777424935878e-19
1.087496401791535e-02 6.480454464839617e-03 5.063412095609522e-19
 8.764428072390355e-03 -4.440157962607909e-03  3.661284391983934e-19
 8.342034559514402e-03 -4.146466799444793e-04  4.086213901962610e-19
4.954208587240519e-03 2.149870947054276e-03 2.308427778600889e-19
3.793872736265495e-03 8.179517970147262e-03 1.926924354987647e-19
 1.007025790388090e-02 -9.061951893967851e-04  3.950494569057201e-19
 4.591571288760690e-03 -7.765346601395330e-03  1.945904289030678e-19
 1.715396144478337e-03 -1.409155092364296e-03  3.034297183277434e-19
 1.487197137567759e-03  4.483017788848814e-03 -5.812991291042504e-20
 9.606842768294994e-03 -3.245186847576303e-04  4.509380185263591e-19
7.123340891351269e-03 4.793542535028584e-03 3.261724988631504e-19
 4.163805578987944e-03 -2.021289691585426e-03  2.721449709261084e-19
-5.595015405291502e-04  3.538060268576879e-03 -1.472487293585340e-19
9.821745390160007e-03 8.226171325029043e-04 4.323001917503957e-19
 3.223877089701254e-03 -4.318159323964951e-04  2.058928713756089e-19
2.317920531178368e-03 4.923511099299084e-03 9.417563303166014e-20
 7.506548180394972e-03 -3.370215172628185e-03  2.686225441911246e-19
 3.271153355609361e-03 -2.682312899567230e-03  2.253715849059721e-19
 4.616676124950624e-03 -2.519075946817500e-04  2.753507154474191e-19
5.574365837743320e-03 1.189896347878997e-03 2.796196271847197e-19
5.797140476147570e-03 8.557744531173347e-04 2.848155466882560e-19
4.992258774026966e-03 2.315680824224010e-03 2.293971700397903e-19
7.371208893709675e-03 1.623728730168445e-03 3.224168257901656e-19
 5.316441762923898e-03 -2.791408676380815e-03  2.484809456927584e-19
 5.579964252555514e-03 -3.655015639309311e-04  2.876044072058361e-19
 6.549186124095401e-03 -4.289880118381293e-04  3.158381816367078e-19
6.761098686747192e-03 4.431199310195945e-04 3.183714464682962e-19
 6.567326659882717e-03 -5.505947119501596e-04  3.106543714108617e-19
-6.041979574029759e-03  2.465766462536585e-03 -2.643349147646566e-19
-6.646176186835547e-03  8.957304612705577e-05 -3.021150897298777e-19
-6.312864931691625e-03 -1.537393558824320e-03 -4.239259536169232e-19
-6.321785673386123e-03  4.161972535017438e-04 -2.252063933362026e-19
-6.710676543872690e-03 -2.978160577735456e-03 -5.862684632018850e-20
-5.070509673956443e-03 -8.352239030763612e-04 -2.373005614923352e-19
-5.675230991317675e-03  1.596801106254110e-03 -2.888657622488612e-19
-5.920722789422141e-03  4.772203326294728e-03 -2.725315513549412e-19
-5.325057654640842e-03 -3.012341038339463e-03 -2.418237229699721e-19
-4.033989855139518e-03  1.430276009252584e-03 -2.415018478722130e-19
-8.130275711775348e-03 -1.935882327735362e-03 -3.461338376217665e-19
-2.247092135531894e-03 -6.372985457032634e-03 -3.296617328186774e-20
-6.623789846846567e-03  4.422898247548209e-03 -3.503311294562650e-19
-8.350197951745823e-03 -1.830794209702033e-03 -3.745612262347311e-19
-3.070624128327936e-03  7.853423973507991e-03 -2.720558831351512e-19
-8.498826475174623e-03 -2.225072196538968e-03 -1.841863140461218e-19
-5.825964597602264e-03  2.097376028677357e-03  1.440849365706001e-20
-7.318674582178251e-03  3.140961961369015e-03 -3.521967143807360e-19
-4.059450420611770e-03 -6.519131665217896e-03 -2.417264709015993e-19
-4.522399446883543e-03  1.259590159186962e-03 -1.985043149571160e-19
-6.683756805819563e-03 -1.039953754683170e-03 -3.041531091050919e-19
-4.291581922083690e-03 -3.380657017816053e-03 -1.748041471934971e-19
-6.082130366093567e-03  1.081229221023016e-03 -3.172065478384054e-19
-8.537353531595970e-03  3.222687736874373e-03 -3.536409821554409e-19
-7.733896912858700e-03 -2.028024327892482e-03 -3.661854852593901e-19
-1.078070663427713e-02 -9.349683536888871e-04 -4.639152300997792e-19
-1.573866982628997e-03 -6.539776366349559e-03 -8.623982122210679e-21
-5.724677054760115e-03  4.469015876700023e-03 -3.388394007838057e-19
-1.537327826871446e-02 -3.308800855181138e-05 -6.340863540372676e-19
-5.245628703801440e-03 -6.418271972107399e-03 -2.261561656581943e-19
-2.923418535375473e-03  4.105259620854535e-03 -2.503410172431023e-19
-8.492446420904539e-03  7.920458184038489e-03 -6.501195739688209e-19
-8.003168689217540e-03  3.155736220790459e-04 -2.369974287977140e-19
-6.225226070620192e-03 -1.434936086547827e-04 -1.602843422710352e-19
-6.871934577967697e-03  1.326905012951234e-03 -4.172561131361333e-19
-6.321945836807847e-03 -1.563639851992729e-03  1.093833459929274e-18
-5.085728206125239e-03  7.460696933390347e-04 -7.305540542599302e-19
-6.813613058319247e-03  3.181486041573751e-03 -1.021115468577996e-18
-7.264570393558472e-03 -2.426372591343231e-03 -1.389973687283639e-19
-6.373802582736804e-03 -1.982311294891144e-03 -4.140283592180087e-19
-6.533586426038824e-03 -2.119433945943478e-03 -3.482172292814588e-19
-8.247240181841971e-03 -1.109646061173095e-03 -3.903945257956036e-19
-7.047127622982673e-03 -1.901252728357922e-03 -2.595787203389637e-19
-8.257899176084016e-03  4.141320330956285e-03 -1.425629105442297e-19
-1.183981308619796e-02 -3.325631516049594e-03 -3.193106153480499e-19
-4.812800825181927e-03 -6.274668678369659e-03 -2.687716582800251e-19
-4.672961396598352e-03  6.217036870191641e-03 -7.278918760572271e-20
-1.023373785465333e-02 -2.562029676656949e-03 -7.857487478842820e-19
-6.628526874276762e-03  5.422982925240733e-03 -2.494499720333114e-20
-9.365170141701787e-03  4.768113843725430e-04 -5.560780223916341e-19
-6.486668149483264e-03 -6.164730123884400e-04 -5.402642356783796e-19
-6.580302570881387e-03  1.658829409273817e-03 -4.095486381030931e-19
-6.229379487004773e-03 -1.500214380738786e-03 -3.078038909527414e-19
-4.821208372038474e-03  7.317670021664426e-04 -2.797525933081144e-19
-6.527984366822385e-03  3.066252739878760e-03 -2.876234985459584e-19
-6.917322711497138e-03 -2.317885238169783e-03 -3.017644655284705e-19
-6.341650535533675e-03 -1.873889000154135e-03 -2.769356336947378e-19
-6.406168235859351e-03 -2.769544008262200e-03 -3.135016742840834e-19
-9.541085940257909e-03 -2.097149862194070e-03 -7.651263146765462e-19
-3.175966780250177e-04 -6.255030072869110e-03  7.812632752405908e-20
-7.003610066062507e-03  4.254115986804821e-03 -4.510056229919427e-19
-1.451973014211918e-02  4.686538853715232e-04 -5.736310649920319e-19
-5.037311061720355e-03 -6.491415871501692e-03 -1.788382169907710e-19
-4.444231664454828e-03  5.924771583934740e-03 -3.042857029985488e-19
-9.836099824903029e-03 -2.511056354962632e-03 -4.286374520519475e-19
-6.424131724106432e-03  5.254747548590622e-03 -3.231994880582589e-19
-9.226749919420898e-03  4.538189967504513e-04 -3.975561291660809e-19
-6.396344869755095e-03 -6.209882331948256e-04 -2.922793543825595e-19
-6.509779860774239e-03  1.608380851408094e-03 -3.183151033850016e-19
-6.169024238921019e-03 -1.463141182784916e-03 -2.806543826627829e-19
-4.793887306948632e-03  7.371559522789382e-04 -2.648557886151764e-19
-6.521042289921589e-03  3.061284959549896e-03 -2.925347880073426e-19
-6.906463092175510e-03 -2.324800431581218e-03 -2.598384554338812e-19
-6.348038730028446e-03 -1.868215094097739e-03 -2.596240390868057e-19
-6.427488493458779e-03 -2.786671813332357e-03 -2.948674305677922e-19
-9.599585929679423e-03 -2.108266327218937e-03 -4.492359938081408e-19
-3.705065924181375e-04 -6.415635165237006e-03  1.533877990556740e-19
-7.207000772889743e-03  4.344410739562567e-03 -3.966606830186050e-19
-1.477814877277622e-02  4.592389314245180e-04 -5.962681616516093e-19
-4.668799612727987e-03 -6.153994036113997e-03 -1.600881669366188e-19
-2.936942932050585e-03  3.750849504676520e-03 -3.545030257107512e-19
-8.309293816134575e-03  7.436325952621938e-03 -3.347699753858773e-19
-7.814837159954296e-03  2.795547811511601e-04 -3.468466320257202e-19
-6.185014926790726e-03 -1.842152501442327e-04 -3.021107466547312e-19
-6.755740731416562e-03  1.147503113155213e-03 -3.004405346109684e-19
-6.131023056644893e-03 -1.381590650073990e-03 -2.885027333510592e-19
-4.931963281712739e-03  7.889164065039133e-04 -2.986751495099681e-19
-6.641913801267408e-03  3.099209989785977e-03 -3.177957252876583e-19
-6.978271748960208e-03 -2.348124223009342e-03 -3.474423159490133e-19
-6.372158066157627e-03 -1.881062203633783e-03 -3.342561401545525e-19
-6.423794646143930e-03 -2.784913901278568e-03 -2.478405210181745e-19
-9.541647677094863e-03 -2.102128435558137e-03 -4.400585941665275e-19
-3.714441422925127e-04 -6.279228153175208e-03  9.162338075044147e-20
-7.022739567513740e-03  4.272248785544149e-03 -4.194456474400805e-19
-1.456451747148137e-02  4.476278535846058e-04 -5.501171056640319e-19
-5.022962147371724e-03 -6.518650955954254e-03 -1.710220510667736e-19
-4.488126408245907e-03  5.917734012800394e-03 -6.806054493167627e-20
-9.818737737514313e-03 -2.496325462281996e-03 -7.712212865470443e-19
-6.404674057773493e-03  5.270810736348615e-03  2.121024790732484e-19
-9.228345374080496e-03  4.340266224659099e-04 -4.373184030347838e-19
-6.372271974697486e-03 -6.042199083442704e-04 -2.734240255306898e-19
-6.501392521850554e-03  1.634701739403189e-03 -3.160687654705298e-19
-6.176373802975548e-03 -1.480324054497049e-03 -3.109362185950542e-19
-4.784993447477649e-03  7.243398465256079e-04 -2.375183641039383e-19
-6.505094822121113e-03  3.059355000204161e-03 -1.589806619119543e-19
-6.910503462368507e-03 -2.317516733483326e-03 -2.972009235219741e-19
-6.329944125972867e-03 -1.892894475317750e-03 -8.065766448865294e-19
-6.430898650662253e-03 -2.762381821952618e-03 -4.382322552372446e-19
-9.597632880099323e-03 -2.125099903656054e-03 -3.569517054262676e-19
-4.347602828601864e-04 -6.407241855655900e-03  4.626095295855858e-21
-7.175646508687220e-03  4.389402857709089e-03 -3.735156711686451e-19
-1.477492859717774e-02  4.296618042385333e-04 -2.922539969502513e-19
-4.698961266349284e-03 -6.116645232015733e-03 -8.403910477888878e-21
-2.887389760477236e-03  3.734577158933260e-03 -5.106107258777721e-19
-8.312983380554183e-03  7.426648119158824e-03 -1.254640994479218e-19
-7.813376033338423e-03  2.914672304869396e-04 -3.132972338120856e-19
-6.136525564496145e-03 -1.686199291245684e-04 -2.904252741492898e-19
-6.745548351365985e-03  1.232084834193677e-03 -3.278469195746308e-19
-6.155157646082474e-03 -1.453767955332063e-03 -3.413256637777025e-19
-4.910349602474811e-03  7.508344813197146e-04 -7.971128591300041e-19
-6.609371542306436e-03  3.093015399945947e-03 -1.934603809936448e-18
-6.975438320366566e-03 -2.337386891257890e-03  9.025008175734942e-20
-6.371108442881086e-03 -1.892069426020884e-03 -4.859644173447296e-19
-6.428213892011868e-03 -2.771965769901066e-03 -2.737213820239702e-19
-9.541344329775624e-03 -2.105018468359155e-03 -3.220971550909419e-19
-3.506073042514962e-04 -6.267591592892779e-03  1.213943635385599e-19
-7.016319068882323e-03  4.260437455637518e-03 -3.827792091547719e-19
-1.454216703517006e-02  4.658270087612923e-04 -5.940378229332843e-19
-5.026115276400994e-03 -6.498730131639612e-03 -2.663470275896551e-19
-4.455211582698132e-03  5.914499083808033e-03 -2.549835078983887e-19
-9.822891863294126e-03 -2.506448677147002e-03 -4.291172285164344e-19
-6.411927899525334e-03  5.252287512444844e-03 -5.482507166218963e-19
-9.216487979944964e-03  4.384880307110687e-04 -2.483658171757727e-19
-6.406675962104559e-03 -6.286337980770156e-04 -5.838075250026728e-19
-6.498842102409599e-03  1.550422999441858e-03 -6.236828957329787e-19
-6.135944063510272e-03 -1.405363645207905e-03 -3.356102060139997e-19
-4.785626073412115e-03  7.528630440262271e-04 -2.784240388841363e-19
-6.509793839116986e-03  3.049165929405737e-03 -2.782401627217800e-19
-6.891444377620252e-03 -2.308402618328281e-03 -2.782935672811635e-19
-6.293574786469643e-03 -1.875338995370228e-03 -3.017674388751056e-19
-6.381669646329136e-03 -2.740489176479338e-03 -1.847133064264928e-19
-9.514963595452040e-03 -2.101453735051542e-03 -3.957700155300135e-19
-3.261893972984498e-04 -6.234686342764155e-03  1.784110218398692e-19
-6.990810492882619e-03  4.247972705422144e-03 -3.713029476657972e-19
-1.450669827371792e-02  4.625462866268722e-04 -5.715998661284517e-19
-5.030306600012095e-03 -6.477878592818326e-03 -1.778674430344035e-19
-4.431558910805065e-03  5.915334720237196e-03 -7.089641714872837e-20
-9.814470138496453e-03 -2.509686017050030e-03 -3.826299644161872e-19
-6.405503251960675e-03  5.258596927478674e-03 -1.028710865389905e-19
-9.215631904502785e-03  4.254218653135150e-04 -8.622735358305019e-19
-6.395519023775165e-03 -6.134094285518350e-04 -2.855042718718923e-19
-6.499209151603094e-03  1.560460513008057e-03 -2.190963624627336e-19
-6.136355618859072e-03 -1.418184901262399e-03 -2.223366579743747e-19
-4.782002232063156e-03  7.501632302121440e-04 -2.645734175641734e-19
-6.510187715522376e-03  3.050818657937294e-03 -3.973939223018487e-19
-6.886036376814276e-03 -2.314751302947834e-03 -2.859579285440559e-19
-6.299577198706304e-03 -1.877413703278207e-03 -3.427454885556201e-19
-6.383772631750560e-03 -2.746555023255195e-03 -1.311785045602195e-19
-9.512504741201629e-03 -2.105875833813984e-03 -3.765746540349013e-19
-3.603325593969095e-04 -6.251123194777891e-03  1.332057885206005e-19
-7.004852714096393e-03  4.260254924110218e-03 -2.886082991841111e-19
-1.453553785615674e-02  4.506726779305741e-04 -4.694168791201543e-19
-5.019062001891013e-03 -6.500148485951184e-03  1.756579864546050e-19
-4.468975487603557e-03  5.908234215743999e-03 -3.258236029383758e-19
-9.808530771104057e-03 -2.491529171555701e-03 -4.604663476446293e-19
-6.401235999830899e-03  5.266104216610484e-03 -2.811117568892673e-19
-9.217024027542537e-03  4.174855646054564e-04 -3.692495746094663e-19
-6.375557868312965e-03 -6.014381030887230e-04 -2.680589128605611e-19
-6.500622990089271e-03  1.597268590411123e-03 -1.954840111469360e-19
-6.152213767236844e-03 -1.454029849733023e-03 -2.360088543583614e-19
-4.778855224314027e-03  7.376827165986359e-04 -2.060104455876325e-19
-6.505355385154002e-03  3.052097293230234e-03 -7.219552713447069e-20
-6.890428493512666e-03 -2.315687281825744e-03 -7.018584212222266e-19
-6.310476287534512e-03 -1.878146447846408e-03 -1.211163756565256e-18
-6.392670823380843e-03 -2.753772334170813e-03 -3.113823822412547e-19
-9.523982074709015e-03 -2.109037190297659e-03 -4.490098920071080e-19
-3.700437217681085e-04 -6.266446812470673e-03  2.396397871189050e-19
-7.017510249855196e-03  4.274848912823673e-03 -2.316170935681300e-19
-1.455905920893984e-02  4.428154584536909e-04 -5.909849227056030e-19
-5.049438007961985e-03 -6.519139955645626e-03 -2.786566380270970e-19
-4.482084298459338e-03  5.952073943681518e-03 -1.427816744734314e-19
-9.835692923323961e-03 -2.518874850134893e-03 -3.540495243725777e-19
-6.416564787648020e-03  5.321099027275589e-03 -5.995792503915766e-19
-9.311478782073996e-03  4.084773097866627e-04 -3.878974787687968e-19
-6.463337945179361e-03 -6.552666163876634e-04 -2.981113027520971e-19
-6.580153590501059e-03  1.595393815938598e-03 -1.118706013737404e-19
-6.289450964621827e-03 -1.431737495311433e-03 -4.420858912210471e-19
-4.985825604217518e-03  7.676556870980921e-04 -2.691033344726349e-20
-6.741975465269481e-03  3.157964269926227e-03 -7.579470287365486e-19
-7.192805348679118e-03 -2.422179400890786e-03 -2.479517698106146e-19
-6.324288628010226e-03 -1.958485336640221e-03 -2.964553564933006e-19
-6.538727895589460e-03 -2.077296488682853e-03 -3.140203496955460e-19
-8.320698896139849e-03 -1.088158632641259e-03 -3.666460981022019e-19
-7.194439797429514e-03 -2.070753025129030e-03 -4.280491622654572e-19
-8.438880634383944e-03  4.224375860850641e-03 -5.295661815655571e-19
-1.209221346714122e-02 -3.383893416082675e-03 -4.786910612681010e-19
-4.517201383852159e-03 -5.952413092668945e-03  6.227699511453901e-20
-3.220696745439314e-03  4.135150143252803e-03 -3.208217985939888e-19
-8.574624437748828e-03  7.843799823411631e-03 -5.235143416278067e-19
-8.192494491300478e-03  3.100981036782874e-04 -3.418055939960528e-19
-6.402504663677820e-03 -7.845249367326188e-05 -2.461461162737115e-19
-7.172596877610492e-03  1.514302011507961e-03 -2.508493512187328e-19
-6.648152735492126e-03 -1.817821465463249e-03  4.607270060592417e-19
-5.485060128769082e-03  8.739725529363458e-04 -7.027268017960773e-19
-7.217412513953882e-03  3.345558324946472e-03 -3.034631128547124e-19
-7.180566749605492e-03 -2.076301484741256e-03 -2.929852955484420e-19
-2.738897360343778e-03 -7.656311902603759e-04 -1.239913836335566e-19
-1.007719460212744e-03  4.301784975028680e-04 -2.380003586679884e-19
-4.459506817496519e-03  9.038152953851016e-03 -1.708015918742175e-19
-6.070659655903651e-03 -7.904550661116122e-03 -2.240616581658061e-19
-3.741821883259710e-03 -1.783064842245987e-03 -5.484449678281008e-20
-4.099860061719422e-03 -3.202619674122935e-04 -1.857165372571691e-19
-6.903064071724288e-03  1.906128785649778e-03 -2.749893247346422e-19
-6.877596058374588e-03 -2.347036157578124e-03 -3.652056664064511e-19
-5.215572259014130e-03  5.918594066803138e-04 -4.079537105716086e-19
-6.768064848870417e-03  3.351011046749969e-03 -4.508915791265660e-19
-7.174560511944353e-03 -2.477665680029202e-03 -3.043765626966315e-19
-6.497712227122091e-03 -1.976298207166630e-03  2.586729389640854e-19
-6.577531932002004e-03 -2.788811694632505e-03  3.524520694251128e-19
-9.611492370988430e-03 -2.156320171985874e-03 -5.406194407394919e-19
-3.437300224251512e-04 -6.309867793449763e-03  1.587745574193718e-19
-7.041694388243340e-03  4.269213345969720e-03 -3.652519352438936e-19
-1.443666241804730e-02  4.440174237453829e-04 -5.173420252834451e-19
-4.454309494741029e-03 -5.759329188892551e-03 -1.978618869302474e-20
-2.502580365296809e-03  3.273800706236092e-03 -4.716531138515105e-19
-7.773459962419077e-03  7.027843289123914e-03 -6.046213686578895e-20
-6.562063966670363e-03  3.252742815568307e-04 -2.436374059009069e-19
-4.961125519040700e-03  5.406040309248494e-04 -1.329918387006400e-19
-6.158426560912218e-03  5.661545388861180e-04 -2.854019171940729e-19
-9.528692589419288e-03 -5.478075123162393e-03 -3.377454086833511e-19
-3.025375137184367e-03 -6.589283389927049e-03 -4.569660541363401e-19
-7.477404663827393e-03  4.573236604623026e-03 -2.631728716292824e-19
-6.879457245764720e-03 -1.057972898840072e-03 -3.252763991647903e-19
 2.116662694959066e-03  3.114151770820861e-03 -1.745525799575049e-19
-1.099902336543487e-02  4.458298275567574e-03 -3.313212583776892e-19
-7.423534603924456e-03  3.411625734404301e-04 -2.595876053313298e-19
-1.540861247789068e-03 -6.315633911090525e-04 -1.657444432744670e-19
3.189117393432161e-05 5.737694611785959e-04 1.326620989397656e-19
-8.217427125508750e-03  4.501292186074635e-03 -2.105859840285543e-19
-9.185530542685460e-04 -7.373002941132072e-03 -2.972689206979525e-21
-2.911183437892699e-03  3.040334946382797e-04 -1.143187291627312e-19
-7.017921461316522e-03 -2.414361069816296e-03 -1.565291251232880e-19
-4.353056216858734e-03 -2.912297464543284e-03 -2.884359317460348e-19
-6.960991502532272e-03  3.417851514550724e-03 -3.873663912449671e-19
-5.687741429574393e-03 -4.014109847362205e-03 -2.459855166593036e-19
-2.171685151011969e-03  1.638385478645442e-03 -2.781266912036105e-20
-2.940037309372154e-03  7.330937049469220e-04 -1.308203246422772e-19
-3.262897907292576e-03  6.744218661140148e-03 -5.475537129209143e-21
-8.412183088348459e-03 -2.945390114170260e-03 -2.570161994872773e-19
-1.992626285561711e-03 -2.353669587849871e-03  3.086591638270351e-20
-2.594596728525138e-03  1.282059391194313e-03 -2.919199538921937e-20
-8.070663464582481e-03 -1.819717153081168e-03 -1.877511787079336e-19
 1.147873437256813e-04 -7.193375917119525e-03  3.886139127782672e-19
-7.877431808854826e-03  5.782070925625592e-04 -2.563944887500196e-19
-4.775884914310232e-03  4.306698167137386e-03 -5.561051803514533e-19
-8.468494154520268e-03  5.426841966539815e-03 -1.813688577236171e-19
-1.002689561348114e-02 -2.942261179760245e-03 -2.190709655567089e-19
-2.397178176875362e-03 -7.471919391990940e-03 -3.740769963453262e-19
-3.964205674740656e-03 -2.894760399511725e-03  7.669745638521182e-20
-6.978624842575473e-03 -7.864919601065467e-04 -1.256508596239739e-19
-8.442588411227530e-03  8.899481347538862e-04 -1.611567198480753e-19
-1.017202353290557e-02  4.253408292178515e-03 -2.871456001343017e-19
-7.297105486875503e-03 -5.588426582756376e-03 -1.600114576307942e-19
-4.709555565263442e-03  2.321108813781743e-04 -9.589848170170751e-21
-5.955765805038667e-03  5.854788523483825e-03 -4.266315249512915e-19
-9.432378464955975e-03 -2.087721750018958e-03 -1.395065417944425e-19
-6.314215267280013e-03 -3.070756651997213e-04  4.287454803305024e-20
-5.866858137088113e-03  3.224239661580898e-03 -5.745799799908769e-20
-4.371150243823200e-03 -1.063059934119823e-02  5.608047948826815e-20
-3.117574605811594e-03 -5.414782644305417e-03  6.039476928689888e-19
-3.804291843946804e-03 -1.108241791132845e-03  1.239360956857074e-19
-6.544652307636068e-03  7.322460232936430e-03 -2.225502074255300e-19
-6.629020130888329e-03 -5.277116424495363e-03  3.194126531756142e-19
 1.189456715801208e-03 -3.582102584746681e-04  3.311695030193450e-19
 2.867043493021347e-03  6.580267083516325e-03 -1.391693205494097e-19
-9.118073752528735e-03  2.665319612568292e-04  2.435463607645702e-19
-5.284398143734396e-03 -1.962077471263500e-03  5.403445615267401e-19
-3.626057915204487e-03 -3.337058311639645e-04  6.045809943105410e-19
-6.965234566584764e-03  5.616153055457164e-03  2.118075446766836e-19
-5.922988868743556e-03 -1.044889509739705e-02  3.455722004468849e-19
-6.040597419178371e-03 -5.094695216729310e-03  7.864784892008601e-19
-3.475165420493498e-03 -2.355602135237867e-03  1.383368655949567e-18
-1.605947109378737e-03  3.504169119414395e-03 -4.903461808100113e-19
-9.995363940208364e-03  2.665524727060219e-03  6.288774372305389e-19
-6.021994542499864e-03 -1.048367623816636e-03  1.149132489317546e-18
-6.731027403724795e-03 -1.643137952950569e-03  1.323255409931447e-18
-6.178848428212247e-03 -2.822175540761639e-03  1.684324069961143e-18
-4.121983543634994e-03  1.631536294933634e-03  1.413581492716663e-18
-5.229590142464447e-03  1.810452665931832e-03  1.322354004976991e-18
-4.955803467073708e-03  9.828802862254057e-03  1.436375669823526e-20
-4.701343471246338e-03 -1.255922481974101e-02  1.277836641481991e-18
-7.204267281489798e-03 -1.719419605211905e-03  2.710768034570970e-18
 4.432404576696485e-05 -4.813382099386920e-03  8.230506799607397e-19
-6.314029187387655e-03  1.844926117277598e-03  2.815010263490731e-18
-7.570840925271166e-03 -1.403410805174853e-04  4.916072842662285e-18
-4.964118148141143e-03  5.154143589440135e-04  6.076021916291932e-18
-6.931510147625995e-03  3.075371251087915e-03  5.486911631120975e-18
-5.974464412862418e-03 -3.325358665337879e-03  8.703899529056847e-18
-6.750053308936865e-03  2.608266025925421e-03  8.755333670128709e-18
-7.439190515184261e-03 -3.990128511075133e-03  1.377773743023483e-17
-6.903284569293334e-03  1.750229178328994e-03  1.918112441959045e-17
-2.625251958390503e-03  8.280351762937094e-03 -2.796568921820693e-18
-6.582635797946607e-03 -2.459572383683604e-05  3.783960157766130e-17
-6.522011616545192e-03 -5.630593085963316e-04  7.767072566302775e-17
-6.669540557989375e-03  8.445853580079111e-04  1.396793514000612e-16
-5.700291700392688e-03  7.218462598234862e-04  1.149129992253166e-16
-4.539229456116182e-03  4.118942823823397e-03 -3.139099868417352e-16
-5.485125402913026e-03 -2.009871010536833e-05  5.860132902156790e-15
-3.025151049027598e-04  6.503952866267192e-03  1.644619544278691e-15
-2.916246638434684e-03 -1.068577133173254e-05  5.816643758849412e-15
-6.230843745632019e-03 -2.765108454679872e-03 -1.219815737548339e-15
-5.512315278387602e-03  1.245580226164948e-03  2.123302119616168e-16
-1.268830545971993e-03 -4.041371888762748e-03  8.373338760953522e-17
-4.464105392098089e-03  2.358902707714264e-03  1.523398804980787e-16
-2.161313655651584e-03 -6.824295767580969e-03  1.041813767417321e-16
-5.658638771502101e-03 -9.937776587255677e-04  1.166380778908046e-16
-7.430308286061834e-03 -2.464740277451849e-03  6.943613748748753e-17
-5.583722198742168e-03 -1.004119662982454e-03  4.523790759982251e-17
-1.253360980509104e-03  6.173661625055272e-03 -1.428809559371573e-17
-1.018539984152302e-02  2.235037150470257e-03  2.656089757771215e-17
-7.790188609903504e-03 -2.668575375644173e-03  2.935393913775147e-17
-7.415995882713780e-03  1.173291682432096e-03  1.775889104431501e-17
-5.789911272716404e-03 -1.002977922098263e-03  1.659486197434299e-17
 1.308420211335910e-03  3.576156569444567e-03 -1.424518026228172e-17
-8.394065108462429e-03 -2.281249115442443e-04  1.255226365560322e-17
-7.232904455289815e-03  7.169131668493416e-03  1.565988044554768e-18
-6.674876018320262e-03 -6.575744891609087e-03  1.291491172471549e-17
-5.002620398270580e-03  8.146971498854129e-04  7.164331259254183e-18
-5.312814488239107e-03  3.266966213916720e-04  6.028391673382623e-18
-4.997003200496638e-03  1.612369417726295e-04  4.330058856843761e-18
-5.502543855314887e-03 -1.407856776024853e-03  4.072752401188986e-18
-5.130530447460359e-03 -2.020586128429681e-03  3.471515903781386e-18
-5.367235438650228e-03  1.468452704696836e-03  1.585215767934995e-18
-1.009642654734068e-02  2.780896613503920e-05  2.023428776339371e-18
-1.226164035698139e-03 -8.534565559997898e-03  2.558579730605680e-18
-4.615622309234019e-03 -5.337824939037761e-05  1.630688451180245e-18
-3.531339406073726e-03  4.592506460062558e-03 -8.637275867513599e-19
-6.537622611332639e-03  4.873569375396555e-03 -1.588471971222323e-19
-8.164840451478155e-03  6.893462712576653e-03 -1.761890495429290e-19
-2.763520529252391e-03 -7.842199351358733e-03  1.493982186184181e-18
-3.646610097987356e-03  9.740111606190892e-05  1.542728593681654e-18
-5.501886909314887e-03 -2.417236357918552e-03  1.403340796566804e-18
-7.546300699927449e-03  8.407142521999330e-04  5.333775696200470e-19
-7.511606302797989e-03 -3.492936565976470e-03  8.126258803288997e-19
-3.703823369897259e-03 -4.950653039075434e-04  6.451909054825822e-19
 6.178278994048454e-04 -1.088912350992031e-03 -6.000769444145400e-19
-1.933981054089394e-03  5.933966498154713e-03 -6.763865902981367e-19
-1.139600950373963e-02  6.353627115617564e-03 -2.584085567006096e-20
-6.185542761427525e-03 -3.280036633210479e-03  6.458673566939437e-19
-1.726545329001248e-03 -8.434007042290949e-04  6.908388905552928e-19
-1.781765393220383e-03  2.205661549501002e-03 -3.669653452701270e-19
-8.361922398328888e-03  5.814077102941230e-03 -9.879339509075106e-20
-5.224177653413958e-03 -4.074087755904178e-03  4.987391565221917e-19
4.136378864969896e-03 2.448960839667757e-03 8.347651445179240e-19
-8.065155316796150e-04 -3.902362700684190e-03 -8.034541216178753e-19
-4.790106058046986e-03  6.213604791370449e-03 -2.082397046694386e-19
-4.755392401574886e-03 -1.629842715246626e-03  2.864382355504715e-19
-5.880543344585478e-03 -2.376760549955580e-03  2.164722008747556e-19
 1.696236607920210e-03 -6.265504567407505e-03  3.618955485200857e-19
-6.190337256673027e-03  1.788541212971781e-03 -9.716859112598668e-20
-3.448261731534920e-03 -6.913948170078840e-03  2.877945245129674e-19
-5.092323759952832e-03  4.298222487829014e-03 -3.199180650204590e-19
-1.056345379121513e-02 -1.771172533177380e-04 -2.059685339991718e-19
-7.552512701554140e-03  2.713351192147539e-03 -2.085930318448985e-19
-7.463664749040796e-03  8.039185180489853e-03 -2.533458381124038e-19
-9.736858878098196e-03 -3.255733423437307e-03 -1.197971741161146e-19
-6.277220762006831e-03 -1.744843179079885e-03 -2.045607115620182e-20
-6.007845678032895e-03  3.345997024025150e-03 -2.336517681244472e-19
-8.150580539147032e-03 -3.371409999314847e-04 -1.524976447622088e-19
-4.579080365333664e-03 -5.501824586320495e-03  6.960045167828633e-20
-2.713453153314568e-03  4.632978907429544e-03 -3.588609412393617e-19
-9.163975038777215e-03  8.106284195926114e-04 -2.774025294742822e-19
-4.321663284703998e-03  3.117366534367417e-03 -2.210823450161749e-19
1.705244923705428e-03 1.174261943347833e-02 1.504210145325945e-20
-1.027933134408000e-02 -2.639105669866089e-03 -2.383711295037096e-19
-5.771808861163015e-03 -4.713886930690273e-04 -1.023882698278690e-19
-3.541142131828336e-03 -1.469465420566571e-03  3.014695222774804e-20
-3.078400814516094e-03  3.770824803194492e-03 -2.074064179198809e-19
-7.745944818423977e-03 -1.270879603841030e-03 -1.991541281813444e-19
-5.862988297590094e-03 -2.982597323956505e-03 -1.092894829691961e-19
 5.588368586524241e-04  7.779250821987505e-03 -9.178688595757550e-20
-7.476455817664868e-03 -4.259817003952055e-03 -1.833565436382146e-19
-7.091081920831408e-03  3.707713635124388e-04 -2.551981720530399e-19
-6.233208672343771e-03  2.756697948533738e-03 -2.619709380932056e-19
-7.290225702334597e-03  5.124965172776298e-03 -2.367177439918558e-19
-6.062496576082114e-03 -1.472194124981939e-03 -1.429081204326739e-19
-5.312134837127873e-03  1.853252609207203e-03 -2.180053587483677e-19
-6.749357921360997e-03  8.112296263056337e-03 -1.717497932545700e-19
-6.658496463903155e-03 -5.522849865119820e-03 -1.918122330444184e-19
-4.698197805034292e-03 -1.055206211007810e-03 -1.231513125989930e-19
-4.685851590030936e-03  1.245583699497405e-03 -2.130092553818042e-19
-5.963385358106766e-03  9.751434001089626e-04 -2.189724108272264e-19
-6.367981622063890e-03  3.428066764457103e-03 -2.668256057903267e-19
-6.013067388187005e-03 -7.548063966047794e-04 -1.759962012696335e-19
-8.757442519477594e-03  1.503927909521087e-03 -3.069432116212716e-19
-2.683444684603200e-03 -7.084564237567202e-03 -5.021930771177108e-20
-7.831729316713398e-03 -1.305022000152457e-03 -2.777952731582712e-19
-2.868412567382883e-03 -6.940659239955804e-03 -3.240503731401948e-21
-3.035394218075250e-03 -8.019967485008270e-04 -9.475177785526444e-20
-4.910227854226096e-03  1.642381708547908e-03 -2.823023264030415e-19
-7.119511578605358e-03  2.568273199371570e-03 -3.168836174447872e-19
-5.008106565173702e-03  7.635915535150846e-03 -1.241586999343121e-19
-6.788382801328763e-03 -2.501219796505823e-03 -2.160584057011953e-19
-4.919858818969967e-03  4.565420008944832e-03 -1.903176382044257e-19
-7.254154546497535e-03 -4.518998675959928e-03 -2.546809243313966e-19
-4.016283449535104e-03 -1.534798217542258e-03 -1.178186662901994e-19
-3.193465421839671e-03  9.526328502541336e-04 -1.993552444196443e-19
-6.598019805078470e-03  3.365883947517374e-03 -2.812637216433870e-19
-7.073223737211782e-03 -3.073354732315690e-03 -2.357776713393381e-19
-6.168208437828683e-03 -1.929505939233525e-03 -2.073380491297597e-19
-6.368352145176878e-03 -2.876823885381938e-03 -2.180215883600814e-19
-9.659779616367530e-03 -2.096781464279396e-03 -3.799595031059703e-19
-2.912336543056719e-04 -6.423397388616944e-03  1.497611788880157e-19
-7.188389185964722e-03  4.360354246196912e-03 -3.711065150488143e-19
-1.471172261425195e-02  5.050460428132425e-04 -5.457488475943074e-19
-4.726680684028871e-03 -6.142608321049562e-03 -1.126256025872481e-19
-2.941478792195678e-03  3.789095081532904e-03 -3.450339540900914e-19
-8.415630869126100e-03  7.443144796974163e-03 -3.138782416074847e-19
-8.007895569104962e-03  3.039073154949850e-04 -3.100594889739636e-19
-6.412281593323780e-03 -2.202172735655637e-04 -2.664613556150467e-19
-7.111466737283264e-03  1.336246159226364e-03 -3.033841885569549e-19
-6.582856830523876e-03 -1.648086593850875e-03 -2.677397484917370e-19
-5.505723437236063e-03  9.459641436628894e-04 -2.677453016839031e-19
-7.268920115698795e-03  3.369620584338270e-03 -2.981047085697921e-19
-7.177458744939373e-03 -2.118520891964446e-03 -2.910616751179369e-19
-2.784113526793374e-03 -7.565889792450313e-04 -1.023069706163660e-19
-1.107304154147002e-03  4.663184700943152e-04 -1.860813697927663e-19
-4.492667771010007e-03  9.064777651517163e-03  4.343461082776155e-20
-6.126420297159929e-03 -7.935454070990725e-03 -3.032310600225090e-19
-3.964248299829866e-03 -1.853472378648560e-03 -1.244613345476788e-19
-4.228400922301648e-03 -4.457231342600304e-04 -2.042975217089046e-19
-6.877665336396620e-03  2.153410578701233e-03 -3.236282521439349e-19
-7.053953922795790e-03 -2.312081683854348e-03 -2.890402356105499e-19
-5.320178712603532e-03  6.253804856199060e-04 -2.646021838789947e-19
-6.844431395205643e-03  3.357607894156710e-03 -3.139453359505573e-19
-7.224194187565846e-03 -2.494430547521998e-03 -2.847928196543587e-19
-6.635856254693075e-03 -1.911548463374604e-03 -2.689998517362414e-19
-6.646146672793458e-03 -2.915105131605787e-03 -8.265633135439470e-20
-9.770158542012854e-03 -2.133897655256632e-03 -1.162900655961105e-18
-2.677676893547828e-04 -6.483760273990290e-03 -5.097420908216664e-19
-7.228806460371868e-03  4.368367407818597e-03 -2.102294675883003e-19
-1.475133936609757e-02  4.765688225303899e-04 -4.229754882195923e-19
-4.703291602453938e-03 -6.155875217222761e-03 -1.595391352302747e-19
-2.932408194364410e-03  3.761774175471402e-03 -2.691586736888982e-19
-8.355616900437136e-03  7.425777700571215e-03 -4.233113410997840e-19
-7.868014966102361e-03  2.947730269262062e-04  4.149862812954322e-19
-6.186762750019500e-03 -2.496384714669142e-04 -2.692820389839327e-18
-6.782467895177052e-03  1.246550995642922e-03  2.437418977384971e-19
-6.216230322085247e-03 -1.461852531171138e-03 -2.544406842703897e-19
-4.969578259891761e-03  7.599131591157298e-04 -2.539096430468924e-19
-6.662125744663967e-03  3.115176950198301e-03 -2.731723431676128e-19
-7.020226443109874e-03 -2.355551132391366e-03 -2.400212854951626e-19
-6.477605548785284e-03 -1.839321690252956e-03 -2.551535909641059e-19
-6.481564647761166e-03 -2.871150877942149e-03 -4.184015006577529e-19
-9.663591752129096e-03 -2.086117216171215e-03 -1.539519501704246e-18
-3.699028741670989e-04 -6.451157533677113e-03  3.635484535762538e-20
-7.196751672238855e-03  4.382580372911036e-03 -3.919584543940060e-19
-1.479570561564391e-02  4.667935578668337e-04 -7.234491021248593e-19
-4.692090289245357e-03 -6.149429650149775e-03 -1.335205126250048e-19
-2.915927518089184e-03  3.749959880317423e-03 -3.410740393896651e-19
-8.322010172755752e-03  7.448221369429698e-03 -3.368103155817779e-19
-7.846061723896371e-03  2.928707598703052e-04 -3.347726184601347e-19
-6.219251167672100e-03 -2.928288600122532e-04 -2.854461074239082e-19
-6.761540257714470e-03  1.140116346027026e-03 -3.235366893117030e-19
-6.166969659321181e-03 -1.363636641134089e-03 -2.779180891981917e-19
-4.976573442352097e-03  7.994943623310457e-04 -2.709169332370547e-19
-6.680901402281372e-03  3.113096625507101e-03 -2.835127973460555e-19
-7.005307215108438e-03 -2.363889601986666e-03 -2.788318494065484e-19
-6.474710182861447e-03 -1.814321360125593e-03 -2.824871116662694e-19
-6.457056449269339e-03 -2.894086352525253e-03 -2.677908503038081e-19
-9.650634254745608e-03 -2.068040223563373e-03 -4.188509989698863e-19
-4.013766625420901e-04 -6.453012350294891e-03  1.227384615188571e-19
-7.190317169020299e-03  4.390629638225701e-03 -3.952845266268087e-19
-1.480738581700388e-02  4.420444209640489e-04 -5.850148600785969e-19
-4.699728738422972e-03 -6.146203066475511e-03 -1.423564087695173e-19
-2.914471877533544e-03  3.754865091875910e-03 -3.453610879236212e-19
-8.324888958695788e-03  7.450472305700595e-03 -3.183526064304212e-19
-7.839228619528153e-03  2.915820446062182e-04 -3.368325930591997e-19
-6.179107136563843e-03 -2.355931440526210e-04 -2.894622049480925e-19
-6.762349335986940e-03  1.204843730058053e-03 -3.222301675624147e-19
-6.182410453958212e-03 -1.423393102387485e-03 -2.730439265765335e-19
-4.958898906084537e-03  7.697919992256429e-04 -2.720530430708247e-19
-6.657147211433239e-03  3.103546051238930e-03 -3.105424130242371e-19
-7.003269783185698e-03 -2.352288504974400e-03 -3.041737360057349e-19
-6.469250104756189e-03 -1.828319058692626e-03 -2.778722514669172e-19
-6.464324878015550e-03 -2.878406141733964e-03 -2.898434747532495e-19
-9.646982117521559e-03 -2.079132895590869e-03 -4.219451278863541e-19
-4.275463914125190e-04 -6.455286225687661e-03  1.138010434628840e-19
-7.192345197447297e-03  4.402523953351342e-03 -3.960576095372273e-19
-1.481669816452722e-02  4.244819840513045e-04 -5.883746509173797e-19
-4.702402520523771e-03 -6.148929618349788e-03 -1.510548837304033e-19
-2.919702021819352e-03  3.756019936384533e-03 -3.494497986342910e-19
-8.324271971211709e-03  7.445347232552913e-03 -3.252858929169493e-19
-7.839696398866138e-03  2.948981764025716e-04 -3.277967514715826e-19
-6.163324058062628e-03 -2.265535923076153e-04 -2.989109877406153e-19
-6.763993865848180e-03  1.236980338697435e-03 -3.896964361293900e-19
-6.195387233353483e-03 -1.455021219838987e-03 -2.868823584004967e-19
-4.955615078897354e-03  7.561366544767055e-04 -2.232075993128170e-19
-6.651320264329689e-03  3.103746916256234e-03 -1.487645955608368e-18
-7.006518388668457e-03 -2.351273989964164e-03  5.117735146267027e-19
-6.485595262664879e-03 -1.816111950536434e-03  1.188707669085731e-18
-6.468553129248268e-03 -2.893486458056580e-03  1.436589845886722e-19
-9.657381609971533e-03 -2.069576940123535e-03 -4.253935833772062e-19
-4.063531200082835e-04 -6.462043467161769e-03  1.380747438998996e-19
-7.197868663210515e-03  4.395477020717823e-03 -3.982786958699802e-19
-1.481987503736664e-02  4.318471039967867e-04 -6.054913409150300e-19
-4.693200032188618e-03 -6.163074204728188e-03 -1.585218736319700e-19
-2.936961619425651e-03  3.758093684898426e-03 -3.501393060805801e-19
-8.321658545194026e-03  7.441463941231441e-03 -3.334360500568883e-19
-7.840819315970702e-03  2.958674179354302e-04 -2.667970933427488e-19
-6.148396937815497e-03 -2.346417646441585e-04 -6.825607861345994e-19
-6.759203716237807e-03  1.262268061990106e-03 -1.042489190475921e-20
-6.199254695913367e-03 -1.478164118439070e-03 -3.811926106777062e-19
-4.946473048455878e-03  7.506086251370229e-04 -2.465702176032272e-19
-6.644508223674533e-03  3.109406246659979e-03 -3.061620763452356e-19
-6.999773997800086e-03 -2.357614118101285e-03 -2.940925479929022e-19
-6.470896856264692e-03 -1.833145890675778e-03 -2.453453701349121e-19
-6.470973538070861e-03 -2.878895230371355e-03 -2.279108209351770e-19
-9.650368418205321e-03 -2.086086198125695e-03 -5.905530355279828e-19
-4.139040853631485e-04 -6.457002855199416e-03  1.078639276880703e-19
-7.201204623094283e-03  4.394906310423108e-03  5.161390404168789e-19
-1.481266006160661e-02  4.391853899464490e-04  2.794528571625829e-19
-4.694705801182837e-03 -6.155679778443936e-03 -1.032537981286960e-19
-2.928470190048140e-03  3.755980009030183e-03 -3.251939085458734e-19
-8.321902721365628e-03  7.442636240831018e-03 -3.292989409821931e-19
-7.840247407555486e-03  2.922411580205266e-04 -3.434242526767434e-19
-6.197051941619651e-03 -2.462368089860341e-04 -2.989595824334828e-19
-6.765358971320978e-03  1.174311477654358e-03 -3.330390474261715e-19
-6.170791162188818e-03 -1.400574193760370e-03 -2.869848222080627e-19
-4.962184863080739e-03  7.846792236674853e-04 -2.833362448955357e-19
-6.668546842139108e-03  3.116881612271352e-03 -3.060051173945196e-19
-7.005723260375459e-03 -2.364822511671262e-03 -2.857597199701670e-19
-6.463334224352486e-03 -1.831441304362805e-03 -1.996007092111439e-19
-6.467034347569425e-03 -2.875201697705710e-03  3.039208353781175e-19
-9.648596151623742e-03 -2.084961638748530e-03  8.430128886988977e-19
-4.198488045456963e-04 -6.458218529523560e-03  8.867167917998878e-20
-7.199416319353290e-03  4.397925721989591e-03 -2.906396589505299e-19
-1.481133811873602e-02  4.266926931643159e-04 -6.806051210773770e-19
-4.696367216917139e-03 -6.152073163551013e-03 -1.546535639240994e-19
-2.928142444460033e-03  3.752095523894390e-03 -3.488821714257952e-19
-8.315333114996673e-03  7.436374098986146e-03 -3.223591517109687e-19
-7.843864749636560e-03  2.910577250151148e-04 -3.337036723543067e-19
-6.302365651049133e-03 -2.901731125656269e-04 -1.352880163102614e-19
-6.776467566618700e-03  9.994780329645387e-04 -1.992610338850159e-19
-6.113854441276963e-03 -1.256608129238109e-03 -7.533120365692227e-19
-4.996734583879733e-03  8.571984897966841e-04 -3.328204593361910e-19
-6.726551585660408e-03  3.136834171341745e-03 -2.051976034497083e-19
-6.996699406875025e-03 -2.398599321565289e-03  1.561105095666731e-19
-6.470702552591992e-03 -1.775921407604376e-03 -3.681528416130001e-19
-6.432316768663272e-03 -2.914629322439886e-03 -1.226815109429615e-19
-9.610488559955707e-03 -2.042473586810002e-03 -4.097430336421793e-19
-2.646791617120724e-04 -6.313227506467315e-03  1.309777257005943e-19
-7.030636528462936e-03  4.260274803691851e-03 -3.968297407328272e-19
-1.453592945298711e-02  4.838835171551969e-04 -1.683934849457640e-20
-5.063505402285092e-03 -6.570276211205412e-03  3.690529922261453e-19
-4.651025891762603e-03  6.042004077206906e-03  8.820894177593003e-19
-1.034947781846437e-02 -2.719809929940462e-03 -2.167959946074525e-19
-6.794597486626660e-03  4.572819669529981e-03 -2.559548597642442e-19
-8.320836203983325e-03  1.769126807993938e-03 -3.821267345387998e-19
-6.136093422276568e-03  7.762888278146118e-04 -2.881625864298050e-19
-6.405869142473045e-03  6.811371836404010e-03 -2.341279688248995e-19
-6.016132297339347e-03 -5.095638798073930e-03 -2.658840900641202e-19
-6.014539127513232e-03  1.537559535312334e-03 -2.892760761712979e-19
-1.005750913933630e-02 -2.361061983321656e-03 -4.380110499505250e-19
-3.135577027403774e-03 -4.800707254260917e-03 -7.411261361377618e-20
-1.971742507704913e-03  3.863872096268655e-03 -2.890213284970626e-19
-1.157767734431113e-02  4.723749671922615e-03 -4.253372647461113e-19
-7.564300694103601e-03 -3.745937107938324e-03 -3.359079965520275e-19
-5.245782043410074e-03  2.721873230899988e-03 -3.198335452199470e-19
-5.339820929402988e-03  3.681693003778299e-03 -2.577301136079431e-19
-6.323478772810069e-03  2.701369211131413e-03 -2.440093274088395e-19
-4.773847928780473e-03 -9.731682628419362e-04 -2.674751672751765e-19
-3.794196739645076e-03 -3.194460344703086e-04 -3.907054305630615e-19
-6.306819518938024e-03  7.541453581311792e-04 -4.105149259496376e-19
-5.642994434368546e-03 -5.010136486826067e-03 -3.901013413169507e-19
-3.334824592439331e-03 -1.787716823167022e-03 -8.667512808283143e-20
-3.775382827390291e-03  4.363547784950619e-03 -2.096868458357336e-19
-8.156588145896917e-03 -2.627686376640475e-03 -3.554279540797206e-19
-9.258053749984684e-03 -2.604681200515033e-03 -3.957325088207904e-19
-3.598919114008583e-03 -5.016214120896591e-03 -1.158472468403972e-19
-1.590322126338827e-03  2.867150498153397e-03 -2.696556482072249e-19
-8.584876538382431e-03  5.018782895239416e-03 -3.467260326382711e-19
-8.272654385329262e-03  1.157940666291941e-03 -3.594341867679649e-19
-4.507362329786515e-03  1.266043474218339e-03 -2.404162999079679e-19
-4.086956619260992e-03  5.430198253152358e-03 -1.562006710695587e-19
-4.812762654367986e-03 -1.262932443498452e-03 -2.035473120423866e-19
-5.221978295161325e-03  4.645328339049306e-03 -1.648649864793378e-19
-2.129856565458526e-03 -5.170259254294891e-03 -9.529139275454979e-20
-4.496874021683257e-03  1.882843997607068e-03 -2.322888424837830e-19
-2.315049437564541e-03 -5.459583380194796e-03 -4.981534314060853e-20
-4.591066066559145e-03  1.319408526736633e-03 -2.765089687358598e-19
-9.095341869845322e-03  1.787373568010680e-03 -3.493985668460088e-19
-1.464270366976780e-03 -7.066960163856155e-03 -4.366661745158357e-20
-4.340604820329041e-03  3.629788493205284e-04 -2.367948481847194e-19
-8.512037510614866e-03 -2.732801209090594e-04 -3.717795483393560e-19
-7.595336987650405e-03 -3.499522135761300e-03 -3.373441459789807e-19
-8.635931199926970e-03 -4.295004292743343e-04 -3.907143589846138e-19
-7.273546760861918e-03  1.033337425893369e-03 -3.341402662617453e-19
-5.339326198358328e-03  2.911303353742283e-03 -2.798286712788207e-19
-6.456642205923156e-03  3.140980732369953e-03  7.608601539428157e-20
-7.143539147730964e-03  2.000761281426761e-03 -1.927145828239833e-19
-6.165167281707465e-03  1.520932952412705e-03 -1.108420887707992e-18
-5.044920842221249e-03  2.123946320898487e-04 -1.782095071596983e-18
-4.275594432962920e-03 -3.204673816013678e-03 -3.798914496580761e-19
-4.584539433882248e-03  1.367365944639571e-04 -4.121747344330560e-19
-6.642470365521120e-03 -1.194471890241431e-03 -3.099930950322101e-19
-7.460568329893272e-03 -1.328476257010075e-03 -3.503474409447142e-19
-5.929265713635360e-03  1.751132562365135e-03 -3.104868386441967e-19
-5.913397342248395e-03  3.291765466147331e-03 -2.653739122843436e-19
-5.971471991829600e-03 -2.274637249715818e-03 -2.698867223211293e-19
-5.934190424048445e-03  1.566550685989220e-03 -3.130334893532032e-19
-1.223386086694388e-03 -5.423256998508257e-03 -3.793859611907318e-20
-5.217458634739889e-03  1.238587952327280e-03 -6.158414188542028e-19
-4.990063749986162e-03 -4.474115707276623e-03 -4.583217623636792e-19
-1.954861522587931e-03  5.811173914113982e-03 -2.540372219470320e-19
-9.394196583374235e-03 -2.729585667106138e-03 -4.090799489712004e-19
-5.624879841960158e-03  1.641286211980094e-03 -2.515689348705354e-19
-6.637254722745036e-03 -3.084562184514488e-03 -3.042591966912456e-19
-5.315738444177880e-03 -1.629866259443310e-03 -2.387397166716390e-19
-3.581355285872647e-03  2.819095645761837e-04 -2.380654909102472e-19
-5.090925318730361e-03  7.242300063620144e-03 -1.603499383410132e-19
-4.562648410975028e-03 -7.196052489143093e-03 -2.295428120965791e-19
-6.599871894956301e-03 -9.553379168015598e-04 -3.137682959776223e-19
-5.437155493218792e-03 -3.190799581836904e-03 -2.602731254911260e-19
-6.525463433098343e-03  3.047933416027552e-03 -3.485944555124368e-19
-6.726122338360258e-03 -1.511505057000868e-03  4.848915881263007e-19
-6.716671319022057e-03  8.198978729837497e-04  4.314604350773450e-19
-6.167204400389444e-03 -4.756164900692458e-03 -3.018030105093561e-19
-1.670476233660258e-03 -1.640793021665567e-03 -2.453606750094892e-19
-3.570766740288337e-03  4.010220811428212e-03 -2.012943979442494e-19
-1.245790979153790e-02  3.776382026225679e-03 -4.187238600870705e-19
 3.737833388204681e-03 -1.016194024612400e-02  2.066363638935303e-19
-4.191843065404305e-03 -4.003431322484298e-04 -2.846109733195067e-19
-5.776656426339759e-03  1.816377321670698e-03 -3.002688144926344e-19
-6.204385229558384e-03  4.021422739979448e-03 -2.782227746475387e-19
-3.178852789603941e-03 -6.878659901623539e-03 -8.344969530922572e-20
-2.117285280362465e-03  2.044200080998956e-03 -1.558625174212813e-19
-3.873019880757433e-03 -1.192443517678645e-03 -2.468010611212724e-19
-4.701763112419337e-03  9.441719111790378e-04 -2.633050480674340e-19
-5.448532540810522e-03  2.015753631099108e-03 -2.641338356374215e-19
-5.083194468425653e-03  1.027327472875742e-04 -2.560200211339358e-19
-5.704035519548198e-03 -1.654021388262276e-03 -2.644909597449106e-19
-7.341200657585260e-03 -1.894684631165890e-03 -3.231725762803556e-19
-3.589009432714051e-03 -1.994184774163214e-03 -2.718940641779028e-19
-5.901728719461274e-03  4.533304578314184e-03 -1.426011680142232e-19
-4.225572758853414e-03 -6.668146022896140e-03 -8.762991037570295e-20
-8.026845473244282e-03  2.111550694709410e-03 -1.739243245235382e-19
-8.052106184386939e-04 -6.787502870753684e-03 -2.067058859159772e-20
-3.898006937443443e-03  1.800121895169907e-03 -2.844218149835176e-19
-7.912827951211331e-03  3.476519747063726e-03 -3.437006660626841e-19
-9.662478976912485e-03  1.620430690338476e-03 -3.607071555068825e-19
-8.088326995523833e-03 -4.499094566840940e-03 -2.723405057585695e-19
-5.307429425062209e-03 -1.250102876118724e-03 -2.905963974393839e-19
-1.761947657121052e-03  1.557127485292119e-03 -1.597649573729018e-19
-3.437703951608761e-03  5.566798286499868e-03 -1.755855015343844e-19
-8.729842378199340e-03  2.035636386646835e-03 -3.245713032820139e-19
-5.865580992729002e-03 -1.727521524653607e-03 -2.469380405928660e-19
-5.304787297587984e-03 -1.485767164930968e-03 -2.631301644372492e-19
-5.177371779792734e-03 -1.182392275504752e-03 -2.767999492412087e-19
-6.080067662739276e-03  3.451972326444806e-04 -2.954652663031320e-19
-5.986563032725658e-03  2.428231779972363e-03 -2.976475935236962e-19
-7.761593947273151e-03 -3.049105148928602e-04 -3.629152292414986e-19
-5.980257613144957e-03 -2.862284229844763e-03 -1.689757250522447e-19
-6.728444968339414e-03 -5.909315916848829e-04  4.444819240381735e-19
-6.448695750933964e-03  8.790293563783016e-04 -2.411464815502192e-18
-6.551400730330745e-03  1.441218783426671e-03  1.754787607670341e-18
-5.827771051667747e-03  1.535944155054814e-03  6.035614388632851e-19
-3.115211494328316e-03  9.464624529933118e-03  4.159038487643998e-20
-5.827547987488459e-03 -3.193558243128940e-03 -2.277072742901238e-19
 1.166778223016373e-03  1.049960738512872e-03 -1.733796156049652e-19
-1.299224111777093e-03  2.393183235023739e-03 -7.153592539225975e-20
-8.334571096721659e-03  1.682163686791848e-03 -2.986039292215520e-19
-6.306031348671090e-03 -1.841606889309573e-03 -2.609801926251937e-19
-5.720557467831039e-03 -1.506709386774821e-03 -2.717873112597646e-19
-5.461632154971037e-03 -1.288362967011534e-03 -2.820247764340119e-19
-6.236132600494540e-03  3.790184850490319e-04 -3.005430423186108e-19
-6.068586204380296e-03  2.480755309970917e-03 -2.819846295858577e-19
-7.833475705633074e-03 -2.969641721264338e-04 -3.017405786291285e-19
-6.030069900685307e-03 -2.879624486725735e-03 -2.529326432333288e-19
-6.767481603213915e-03 -5.928127661854791e-04 -3.106644387342909e-19
-6.477547706841450e-03  9.129380682072547e-04 -3.091960644225878e-19
-6.580458618659987e-03  1.440797024111192e-03 -3.036984796034173e-19
-5.805386769197974e-03  1.521213207061923e-03 -2.783770760599950e-19
-3.007907680822348e-03  9.525383739343130e-03 -1.768138635991273e-19
-5.861768123709871e-03 -3.245332320464658e-03 -2.412327629276157e-19
 1.158743125009599e-03  1.043065886449187e-03 -1.798895656555189e-19
-1.294099645305220e-03  2.377158485410395e-03 -8.933870424070667e-20
-8.325816739999376e-03  1.671010238830966e-03 -3.180751274143581e-19
-6.314839271448890e-03 -1.836048700003699e-03 -2.570801602888601e-19
-5.732103797691778e-03 -1.503761206467343e-03 -2.707106873707894e-19
-5.465021574137295e-03 -1.292300532942963e-03 -2.818586881431500e-19
-6.233706553167318e-03  3.781158811151618e-04 -3.014276785709893e-19
-6.062620876708820e-03  2.475185318209183e-03 -2.827848073999163e-19
-7.822720270211973e-03 -2.956242520102425e-04 -3.018951959131047e-19
-6.014207449339386e-03 -2.870296636343399e-03 -2.532061254744774e-19
-6.734569620269667e-03 -5.899221067705350e-04 -3.107542377086862e-19
-6.437600114075347e-03  9.126506731725073e-04 -3.089013565561480e-19
-6.626352305245720e-03  1.435946749101948e-03 -3.051522700441843e-19
-6.212018559436892e-03  1.433941764679065e-03 -2.881364284498141e-19
-2.200358926562535e-03  9.478704670493433e-03 -1.490410828973465e-19
-6.056135608165793e-03 -2.702928369243565e-03 -2.576273791637321e-19
 6.975479693711710e-04  5.611056861859594e-04 -1.864976284504210e-19
-1.533741932733704e-03  2.790008948154649e-03 -1.006693093265566e-19
-8.387940419040112e-03  1.652325181041582e-03 -3.199878207526442e-19
-6.301735748912482e-03 -1.807798034693868e-03 -2.578779866564152e-19
-5.718957318258522e-03 -1.477654476084885e-03 -2.713647630576003e-19
-5.459453765733988e-03 -1.284375522414707e-03 -2.825155473861039e-19
-6.221584827027282e-03  3.640555018191040e-04 -3.022519473567716e-19
-6.064944492021795e-03  2.462701335900824e-03 -2.840923539063885e-19
-7.837159695196629e-03 -2.940167021790739e-04 -3.032370280822198e-19
-6.035077289915873e-03 -2.880503461028382e-03 -2.543979516143370e-19
-6.774262669463490e-03 -5.916458656285265e-04 -3.126579974721825e-19
-6.484542663533504e-03  9.104976580838056e-04 -3.114142410921757e-19
-6.579176681464382e-03  1.444791863246439e-03 -3.059136012675946e-19
-5.791338479483036e-03  1.542941518133477e-03 -2.810716363990963e-19
-3.175276770370139e-03  9.501665770369556e-03 -1.830559533706222e-19
-5.803753403809633e-03 -3.285504866774128e-03 -2.437366152176307e-19
 1.239701540775083e-03  1.137666776924825e-03 -1.817870107372867e-19
-1.257401700717009e-03  2.339012631035180e-03 -8.599643755259389e-20
-8.342511400370671e-03  1.681245426445861e-03 -3.506162380510155e-19
-6.311209048040347e-03 -1.845303652668778e-03 -2.837778358291213e-19
-5.728602825672555e-03 -1.518886501344322e-03 -3.596657279003510e-19
-5.460430609690705e-03 -1.301489861350712e-03 -1.212212155334677e-18
-6.245448544719632e-03  3.807427132464576e-04  2.427308987744462e-19
-6.077053584324371e-03  2.483283995104163e-03 -2.381478939551380e-19
-7.843334927651536e-03 -2.939384930296563e-04 -2.615355115330286e-19
-6.039471264219443e-03 -2.884902450271638e-03 -2.645409905837600e-19
-6.780369329646275e-03 -5.944037531669212e-04 -3.153213497060867e-19
-6.492945596884152e-03  9.187619166128629e-04 -3.139218214960906e-19
-6.577262890962586e-03  1.444922922345553e-03 -3.068782063306882e-19
-5.691804382344280e-03  1.546470165455556e-03 -2.795965531434447e-19
-3.403330141383305e-03  9.489852411019011e-03 -1.922087508414617e-19
-5.740658679745267e-03 -3.476618842636406e-03 -2.358333353145328e-19
 1.338908854228178e-03  1.249410047839063e-03 -1.794382842028721e-19
-1.209396210223322e-03  2.222643685519164e-03 -8.862256303238171e-20
-8.307400784552959e-03  1.649987766012339e-03 -3.214318622898640e-19
-6.323930715522664e-03 -1.847405458523292e-03 -2.602694748001567e-19
-5.746680960870292e-03 -1.515006310803386e-03 -2.740714106523979e-19
-5.478030650789232e-03 -1.302265120903990e-03 -2.854154516876748e-19
-6.253714555526090e-03  3.823648340304845e-04 -3.057571009030530e-19
-6.082109396237541e-03  2.489447380444687e-03 -2.872562761837802e-19
-7.849554601414687e-03 -2.964923881365897e-04 -3.061776633178989e-19
-6.044618980131416e-03 -2.884720522766632e-03 -2.566042622745801e-19
-6.786519285207260e-03 -5.938208545394117e-04 -3.157281392137843e-19
-6.494701081435199e-03  9.204053808423895e-04 -3.146687078346698e-19
-6.578838170265453e-03  1.446652959350671e-03 -3.099066743808753e-19
-5.692760021300367e-03  1.555440263428837e-03 -2.830763137155938e-19
-3.478003694870569e-03  9.468427596141160e-03 -1.917739055772524e-19
-5.714890297915947e-03 -3.482684717510769e-03 -2.314331346360982e-19
 1.368580966880955e-03  1.282275869602482e-03 -1.736838582494505e-19
-1.192458486050309e-03  2.207532535864475e-03 -7.996055014394301e-20
-8.311639519088804e-03  1.665336597408105e-03 -3.549589260316550e-19
-6.320990597491444e-03 -1.848626372972465e-03 -2.777352305332028e-19
-5.740988185808432e-03 -1.521353831309643e-03 -1.300429594080010e-19
-5.470170564636318e-03 -1.300945160467894e-03 -1.380046365978916e-18
-6.250893504679949e-03  3.857801307611093e-04 -1.061513965826231e-18
-6.082140607703112e-03  2.485074701224217e-03 -2.813883060168982e-18
-7.847271945846215e-03 -2.974096774117818e-04 -9.659458548890554e-19
-6.040042694136182e-03 -2.888399114732691e-03 -2.445224713268099e-19
-6.785861608557428e-03 -5.920920159643086e-04 -3.179623375495717e-19
-6.494971600269479e-03  9.259660412350069e-04 -3.284635697685648e-19
-6.577523551657880e-03  1.447460187675354e-03 -3.165116438995988e-19
-5.674496667925330e-03  1.559231423260659e-03 -2.833362760166770e-19
-3.573040146356760e-03  9.448377837551923e-03 -1.999114196598033e-19
-5.674964961998171e-03 -3.523548645389887e-03 -2.357859055598762e-19
 1.420251198208799e-03  1.349135474843550e-03 -1.814375840456899e-19
-1.168346677264726e-03  2.173401255866129e-03 -8.868620587053151e-20
-8.316095027682185e-03  1.656656069738296e-03 -3.268561267561913e-19
-6.315347296420012e-03 -1.853686973328759e-03 -2.618908220785312e-19
-5.738400998114694e-03 -1.527282876699690e-03 -2.805715801514665e-19
-5.462889721710427e-03 -1.310357059009308e-03 -2.792548519076344e-19
-6.252349626928069e-03  3.859061758459493e-04 -3.892869665081050e-19
-6.082752088950250e-03  2.482949097704462e-03 -3.335419055976867e-19
-7.846443691199913e-03 -2.937455085731338e-04 -5.067172293635256e-19
-6.039243832689776e-03 -2.885486328178717e-03  8.250813608051592e-19
-6.779459500689772e-03 -5.929352969399012e-04  3.937704822107886e-20
-6.487882928398888e-03  9.191739623217560e-04 -4.037159165620169e-19
-6.577401662651501e-03  1.444754125748605e-03 -3.441513089032161e-19
-5.730390498798407e-03  1.552410689161424e-03 -2.214455043172829e-19
-3.360475927598946e-03  9.481816447829456e-03 -1.865646881273954e-19
-5.747737335696359e-03 -3.400193643362349e-03 -2.498441890108464e-19
 1.321986362177506e-03  1.230328802421383e-03 -1.834976300867198e-19
-1.216387633914333e-03  2.260408226910603e-03 -8.903711648022045e-20
-8.326851442508469e-03  1.670014353859885e-03 -3.331154777416026e-19
-6.314722483440298e-03 -1.846848153752549e-03 -2.663069616148917e-19
-5.736650798549471e-03 -1.521824828059260e-03 -2.806936317028201e-19
-5.464803455497321e-03 -1.305981549669123e-03 -2.918819272945077e-19
-6.251564952870678e-03  3.828105683108234e-04 -3.135670662007295e-19
-6.084048581450897e-03  2.481947123440327e-03 -2.950857203435010e-19
-7.850052120775310e-03 -2.948459382288678e-04 -3.143184696481574e-19
-6.046041971327428e-03 -2.884683232672575e-03 -2.637063595745663e-19
-6.788464321449320e-03 -5.950382330914487e-04 -3.241105773799782e-19
-6.496848538002747e-03  9.234262602006308e-04 -3.234140720840096e-19
-6.574190042591730e-03  1.447200831133711e-03 -3.177241916721945e-19
-5.646214795105151e-03  1.568707609216135e-03 -2.889280066348623e-19
-3.692557921240206e-03  9.421593487933103e-03 -2.063863291041119e-19
-5.630526108495656e-03 -3.577708558582729e-03 -2.401559290167142e-19
 1.470692292493914e-03  1.402372280835585e-03 -1.853149531850260e-19
-1.144299365895315e-03  2.128750552424531e-03 -9.146790109585362e-20
-8.302493290049522e-03  1.650190504333645e-03 -3.324703476782931e-19
-6.305914241502520e-03 -1.851222364594346e-03 -2.704630314992908e-19
-5.732224275585502e-03 -1.526710071621501e-03 -2.848173234741234e-19
-5.451985274137492e-03 -1.313156479798578e-03 -2.961602149259753e-19
-6.240408696265312e-03  3.861559925268503e-04 -3.174112293986974e-19
-6.068331335621104e-03  2.476481163405443e-03 -2.999882460633853e-19
-7.826712703558848e-03 -2.916271363726995e-04 -3.160236958684583e-19
-6.018864342392561e-03 -2.875810659399256e-03 -2.533616281408451e-19
-6.759202467153828e-03 -5.952220223968079e-04 -2.099099488956450e-19
-6.607794915311411e-03  9.446910257838539e-04 -4.743536312643924e-19
-6.586449437533784e-03  1.166787496534356e-03 -7.970155437423530e-19
-5.517071575011915e-03  1.788861884002591e-03  6.777805919564949e-20
-3.798304833135284e-03  9.544004844087468e-03 -2.069721757031623e-19
-5.623426880925389e-03 -3.635018250309120e-03 -2.531436225562083e-19
 1.493425127343110e-03  1.420026853909897e-03 -1.898661297363184e-19
-1.161723167648585e-03  2.104222381743853e-03 -8.945390026712267e-20
-8.232652540454818e-03  1.480878198827287e-03 -3.361225226311040e-19
-6.216083945099833e-03 -1.810946758356963e-03 -2.766800395922637e-19
-5.660171155071252e-03 -1.481438721592410e-03 -2.903026689918377e-19
-5.341886771714805e-03 -1.306420912782579e-03 -3.013592898154979e-19
-6.055377179034815e-03  3.711682096872981e-04 -3.214782337214457e-19
-5.809717750211720e-03  2.380246106251438e-03 -2.993398050694632e-19
-7.449106291592009e-03 -2.665877714689020e-04 -3.197499808674117e-19
-5.681283315839855e-03 -2.738120055161877e-03 -2.692513164562419e-19
-6.052504961956264e-03 -8.010956837649673e-04 -3.218457070039991e-19
-6.780797765370020e-03  8.043813708782647e-04 -3.398719949594524e-19
-7.786780862691413e-03 -4.718087053777384e-04 -3.472055391214043e-19
-8.434057005478121e-03 -1.295736709795527e-03 -3.558694863475412e-19
-2.668013717294697e-03 -4.766366572271198e-03 -1.583733245308226e-19
-4.038423930229634e-03  2.528232522620843e-03 -2.749846714818273e-19
-7.467061882051525e-03  6.133996949540564e-05 -3.691946433816274e-19
-5.337543922604368e-03  5.239904601580176e-03 -2.837622968598170e-19
-9.237894023916166e-03  6.954083844860377e-04 -3.828303070407858e-19
-6.943716094016636e-03 -5.515378488473440e-04 -3.419492106745686e-19
-6.211783260028949e-03  1.123985550006456e-03 -3.403189211925971e-19
-6.330785306738677e-03  9.199233021125281e-04 -3.404990172572226e-19
-5.281365749700872e-03  1.806025268194906e-03 -3.070842673939843e-19
-3.262913694308942e-03  9.727866317028565e-03 -2.003858596816020e-19
-5.732901647020896e-03 -3.620520470437258e-03 -2.670665554232140e-19
 1.335677543948324e-03  1.198792604837418e-03 -2.130193264496848e-19
-1.360966968502967e-03  2.371747848635614e-03 -1.184310405549207e-19
-8.717425394899414e-03  1.451140397049494e-03 -3.714728757642163e-19
-6.546312706618945e-03 -1.815551349930263e-03 -3.098350176144009e-19
-6.281605366223290e-03 -1.835673850021892e-03 -3.274491306907737e-19
-6.340833492142981e-03 -1.966314421839294e-03 -3.440369889739607e-19
-7.492175308792620e-03 -6.734919958165344e-04 -3.881851032345760e-19
-5.229330943482845e-03  2.743398502031858e-03 -3.215837250553941e-19
-5.861207352416759e-03  2.896800388824638e-03 -3.259235927066489e-19
-7.615937291421663e-03  4.435917500358839e-04 -3.560345149542813e-19
-6.875846022695288e-03 -2.650677366926407e-03 -3.123728105755601e-19
-6.212429375069074e-03 -3.660743023894861e-03 -3.045654772558057e-19
-7.280311392893288e-03 -3.584300742487371e-03 -3.598195878126405e-19
-5.482704122981317e-03 -3.223788905748609e-03 -3.628456158486664e-19
-4.057721269042466e-03  4.424828803292268e-03 -2.682267115648952e-19
-8.764016248357079e-03  4.874019562104059e-03 -4.192841899603309e-19
-9.015990951441677e-03  1.744121873208264e-04 -4.222484457632934e-19
-7.199237304466096e-03  1.169387015276689e-03 -3.884319430455865e-19
-7.695408569842395e-03  2.717046601291147e-04 -3.936359693697471e-19
-5.459109299672664e-03 -5.212885020183110e-03 -2.681467894273048e-19
-6.926772651170466e-03  2.779036572189009e-03 -3.848055152696598e-19
-4.940552879354073e-03 -3.186494986129875e-03 -3.322233133709323e-19
-3.048265229703741e-03  1.425156253317905e-03 -3.035994289542765e-19
-2.275753723747234e-03  1.073161526852641e-02 -1.686063841565316e-19
-8.607489534972467e-03 -5.859357404290948e-03 -3.143734680422217e-19
-6.463452349055814e-03 -9.756607746159803e-04 -3.860839794180389e-19
-7.453706583741943e-03 -2.495773825059368e-03 -4.030453476636863e-19
-7.247360175111419e-03 -7.001842280084322e-04 -4.346726205929910e-19
-9.315627053853843e-03  9.736783823231033e-04 -4.708091903473209e-19
-8.361651670120268e-03 -2.087267674711650e-03 -4.402753690083452e-19
-7.368165503235785e-03  2.470118199317562e-03 -4.256978706199285e-19
-5.467493981630244e-03  5.226324549424256e-03 -3.230651266807275e-19
-6.616614259033660e-03  2.108969119453661e-03 -3.950325045647051e-19
-6.520091063430109e-03  2.639112940688322e-03 -3.785577097626842e-19
-8.075529436857921e-03 -3.384106719149487e-03 -3.792561033687935e-19
-1.145240797623352e-03 -1.254607116759760e-03 -2.803626319385897e-19
 1.380383001193520e-04 -2.754896407702793e-04 -6.137709632583542e-20
-6.720537089019319e-03  4.567648418625585e-03 -3.764218736469320e-19
-6.327704174660117e-03 -8.910923184616488e-03 -2.134896295925503e-19
-7.137314962159688e-03 -1.931949830117788e-03 -4.058175825031727e-19
-2.482700436062663e-03 -1.446978705808714e-03 -3.591595496461750e-19
3.149759675437870e-04 1.449787872153195e-03 1.393007057357711e-19
-8.025649397278281e-03  2.983475981702784e-03 -4.458364021962896e-19
-9.901288341107132e-03  5.084943139622631e-03 -4.769325563962915e-19
-6.682607718782358e-03 -4.153258281287227e-03 -3.670697846864536e-19
-7.069828556490727e-03 -1.869547844635036e-04 -4.659108187792608e-19
-7.919497374324607e-03 -2.443825116287179e-03 -4.729924886012953e-19
-4.248825730922635e-03 -4.112962984042090e-03 -3.477491484410542e-19
-6.503579150150047e-03  1.620578326977954e-03 -4.690229075437394e-19
-6.415722945383233e-03  1.672438593260167e-03 -4.652015414132821e-19
-4.781380706707483e-03  1.922427267485441e-03 -4.144325357883125e-19
-6.431497709748941e-03  6.399518506719469e-03 -3.922328733771319e-19
-3.638493478566327e-03 -9.520989950131778e-03 -1.310765622730130e-19
-1.057874667596452e-03 -5.454279129428494e-04 -4.126408934539713e-19
-2.415213164013181e-03  7.888653533267603e-04 -4.163084642839912e-19
-5.173326206977630e-03  2.432078068767034e-03 -4.535696884425744e-19
-6.315042653329397e-03  6.936379646686994e-03 -4.110826383851957e-19
-5.819012771827509e-03 -2.747596389305205e-03 -4.686769464723313e-19
-5.626921504206408e-03  2.227866257475222e-03 -5.039745855339737e-19
-8.499735357994965e-03 -3.433843404863521e-03 -5.433055651665515e-19
-5.539563821529930e-03 -4.157454654137683e-03 -4.726251521614778e-19
-5.565192409079068e-03 -1.147603634185141e-03 -5.925621836447666e-19
-8.786427850165753e-03 -1.750030341566097e-04 -6.860843014483699e-19
-5.865974571970772e-03  1.385642148236346e-03 -6.601595197224539e-19
 1.256429474340416e-04  9.452896871481879e-03 -4.474926057373652e-20
-8.852195873299044e-03 -3.346307415936745e-03 -6.784911235686776e-19
-6.478069175960778e-03 -9.003693905668968e-04 -7.524172319996241e-19
-6.715594646578278e-03 -2.996251092402265e-03 -7.550971361726419e-19
-1.066554031589276e-02  5.741652706215725e-03 -9.128358825198398e-19
-9.900651578710641e-04 -6.750809833439128e-03 -9.804387596067480e-20
-3.061494279675240e-03  2.657854493440491e-03 -6.945453806929936e-19
-7.136798358206044e-03  3.889030245688155e-03 -9.740042140146939e-19
-8.986426504865575e-03 -3.881729352671396e-03 -9.994650740849824e-19
-4.716042658984704e-03 -3.112640195826122e-03 -9.411436743459966e-19
-1.491888977225626e-03  3.353570228255853e-03 -6.643788055410223e-19
-6.331204917029878e-03  4.886687157291943e-03 -1.277473360254402e-18
-5.424178097182276e-03  3.493375028003275e-03 -1.465901845923928e-18
-7.913457532283218e-03 -2.058814351913959e-03 -1.658603901556834e-18
-4.274630124586941e-03 -3.168578238277287e-03 -1.286281287008467e-18
 1.157970960319050e-04  1.081769278771707e-04 -1.108186622399117e-18
-1.846013748459689e-03  1.941858426074657e-03 -1.722197275934093e-18
-6.814456006310868e-03 -3.677015028576871e-04 -2.395235289595521e-18
-5.743326370267962e-03 -1.108614725487472e-03 -2.564368220299018e-18
-1.694131103975473e-03 -1.612879624923258e-03 -1.525614630717274e-18
-4.377782252614454e-03  6.454211747572805e-03 -2.556665922894270e-18
-7.413141338073381e-03 -7.859505428447346e-03 -1.651565301650499e-18
-2.584840408772059e-03 -2.413492307171522e-03 -1.706456537789952e-18
-3.678902665632799e-03  4.262167952071364e-03 -4.411929928699901e-18
-9.629649546964823e-03  1.922444298833288e-03 -6.031326838833729e-18
-8.099089317959442e-03 -2.627164768332190e-03 -5.332964782919607e-18
-6.106966872234401e-03 -1.682609904454699e-04 -8.360237766158718e-18
 3.381319172210616e-04  7.324678182701838e-03 -2.888337447795817e-18
-8.075764784991005e-03 -2.315834349604241e-03 -1.195191739521593e-17
-5.025763201589737e-03  4.715606728795759e-04 -1.772352040268916e-17
-5.410649448962121e-03 -2.237929054794747e-04 -2.263153260117706e-17
-5.579989610226414e-03  2.798922529650810e-04 -3.547873407044910e-17
-4.125346461778466e-03 -2.855104117660008e-03 -4.679050897231341e-17
-6.396500318898304e-03  1.453685005612348e-03 -7.149850256909985e-17
-4.647506824412946e-03 -5.594026905050931e-03 -8.721680065355056e-17
-9.899949409002254e-03  1.024028668591911e-03 -1.604407121972100e-16
-6.346108278981415e-04 -6.427783883978547e-03  1.707378223534587e-17
-6.443046131546661e-03  4.609093866321267e-03  2.422615024745704e-16
-5.966763963549588e-03  3.893544389705550e-03 -7.624552811704238e-15
-3.844180523067204e-03 -5.066109761644609e-03 -2.207476331323196e-16
-5.795286164529801e-03  3.781648489928928e-03 -6.934183795883023e-15
-3.408791592549300e-03  6.116472991489245e-04  4.301722931546932e-16
-6.525524790448907e-03 -8.010877391542758e-05 -7.713718702432138e-17
-4.502847760808525e-03 -3.153196427897625e-03 -4.570215588762924e-17
-5.242759415044138e-03  2.150653149266192e-03 -4.307478971832091e-17
-8.595320649153805e-03 -1.478460356247708e-03 -3.659597146182472e-17
-4.426868432673282e-03  1.090537837963850e-02 -2.017921006705584e-17
-9.052975404298856e-03 -7.099236303125383e-03 -2.460775677760200e-17
-6.000947450305743e-03 -4.406678146019808e-03 -2.950097270434901e-17
-1.607466621389483e-03  7.900479466057089e-03  3.195347847865680e-18
-8.413535395993070e-03 -2.294879737788574e-04 -1.705479230489904e-17
-3.926560629709872e-03  3.398452688047083e-03 -9.741040081720782e-18
-6.133403413724638e-03 -4.223457091268736e-03 -7.630613771378108e-18
-1.279300195986298e-03 -4.481213409799592e-03 -3.827461325558896e-18
-8.719478272107075e-04 -8.281051258014795e-04 -7.594479354102615e-18
-5.861066247199515e-03  2.635856652356985e-03 -5.496451448020672e-18
-5.413676604692671e-03 -2.045444825863346e-03 -5.543697485336786e-18
-3.415449982743676e-03  3.186894835998282e-03 -2.492702228554695e-18
-5.569240935552312e-03 -6.174270497073611e-04 -4.322396840306722e-18
-8.171349442605483e-03  4.543199713785404e-03 -2.816799636453563e-18
-1.834476192026167e-03 -8.948738945504849e-03 -1.634018068822667e-18
-6.149036589799982e-03 -9.871934400421196e-04 -2.851982399030282e-18
-6.001614278360352e-03  4.368565271803023e-03 -1.305466042958108e-18
-7.206826471062014e-03 -5.459934167239250e-04 -2.233952759992786e-18
-4.764760235049599e-03  3.671293349543613e-03 -1.116795761836036e-18
-5.653347732803788e-03 -1.210276105961575e-04 -1.946715767779363e-18
-7.768824605011055e-03  2.446184235083627e-03 -1.498754043436292e-18
-8.379996618188518e-04 -8.978995607150698e-03 -7.346623868155770e-19
-3.245077379661535e-03 -8.731289531867849e-04 -1.632523885552899e-18
-1.978096072433358e-03 -2.191487429560842e-03 -1.489584120546439e-18
-6.070102241122615e-03  2.668033226342720e-03 -1.025119583926282e-18
-8.121018313836841e-03 -2.079848844382563e-03 -1.400279012644267e-18
-9.423646086862593e-03  4.071374875550156e-04 -1.186883957408821e-18
-9.320932323535200e-04 -4.617238647221016e-03 -7.103752775706908e-19
-4.351500484479968e-03  3.855287631008339e-03 -4.682331620745202e-19
-1.247915811514780e-02  9.340526719709639e-03 -7.514256837847418e-19
-5.807152512170699e-03 -1.490924341198024e-02 -5.825006476468785e-19
-3.196586032650420e-03 -4.289671142688119e-03 -8.615493979763582e-19
-3.568090269327939e-03  5.017480793233317e-03 -2.267346838019901e-19
-7.827411622831761e-03  9.521437342483232e-03 -4.352998478833627e-19
-9.990418199606488e-03 -8.353789688757945e-03 -7.724439465055466e-19
-6.347385483248378e-03 -4.116713629944689e-03 -7.831790243169595e-19
-3.854658372018020e-03 -2.256386700826604e-03 -7.789603358608925e-19
-7.004876510619987e-03  5.699110586795919e-03 -4.790644736837698e-19
-9.109306905017038e-03 -4.070578177671555e-03 -7.938757396004770e-19
-5.702794545478453e-03  6.688136314603824e-03 -3.370279541617266e-19
-8.552001881645916e-03  3.815245344733161e-04 -6.498539187949624e-19
-6.409814399140355e-03  7.046356341849855e-04 -5.709663019370171e-19
-5.488709242808492e-03  2.495609674969833e-04 -5.386492163307377e-19
-6.904198968633738e-03  3.800213447200391e-03 -4.433283096205160e-19
 4.461513759991915e-04 -7.373868998266690e-03 -5.363648149943499e-20
-2.815385725604191e-03  6.791894716778961e-04 -4.149322613817604e-19
-3.059833340453606e-03  5.017170853062913e-05 -4.437561349589216e-19
8.609196825090105e-04 7.482266560053311e-03 1.093912400596583e-19
-5.410568576546046e-03 -2.567770089358587e-03 -4.389617569261917e-19
-5.748830222292070e-03 -3.288459132571745e-03 -4.583605659707639e-19
-8.081797073475111e-03  6.841728120497248e-04 -4.960036738967361e-19
-3.539066846379802e-03 -4.927479074421053e-03 -3.473265418441082e-19
-5.844060901472535e-03  4.263650733506172e-03 -4.181217577140918e-19
-6.713166570743914e-03  1.079254097830554e-03 -2.533421346123894e-19
-3.543887289893245e-03 -5.675371580829587e-03 -6.109548247728344e-19
-3.236959056400315e-03  2.330972667109493e-04 -2.941437334641695e-18
-5.531495233640304e-03  2.046503731099640e-03  9.393030044554565e-19
-3.476513988663364e-03  1.204791829341966e-02 -2.880984312265238e-19
-6.635114255196164e-03 -7.011304301932243e-03 -2.367217101177170e-19
-6.425506450241402e-03 -1.150839333608237e-03 -4.770085056962086e-19
-7.825527372145809e-03 -1.601940938232951e-03 -4.418657290808347e-19
-7.327817068934128e-03  1.024202170429674e-04 -4.215771095559105e-19
-3.739412686947107e-03  7.580746759734039e-03 -1.963176168203143e-19
-7.677603542644891e-03 -7.357326666033023e-04 -4.313002870523542e-19
-5.153476890858051e-03  3.270112180609758e-03 -3.255791143189691e-19
-7.599379441356540e-03  4.732908397139707e-03 -3.704847417911211e-19
-6.572067896497534e-03 -4.497996726166040e-03 -3.188429622375865e-19
-2.625421074310598e-03 -1.434311710023560e-03 -3.215448267895322e-19
-5.706199635832868e-03  7.336082887131195e-04 -3.717157276932534e-19
-6.305489720557422e-03  5.465552985544532e-03 -3.173905111697530e-19
-7.877952766096865e-03 -1.247731066933582e-03 -3.913889318690700e-19
-3.322506224811753e-03 -1.540819824763631e-04 -3.185385642655042e-19
-7.109327034020148e-04  1.010851287662025e-02 -8.618233767460766e-20
-8.551000545562773e-03 -9.361349952656056e-03 -2.246206085730139e-19
-3.885669969323984e-03 -2.468105885089250e-03 -2.817484702113352e-19
-4.520689673707416e-03 -9.626051955656331e-04 -3.404871357405877e-19
-5.828938815662036e-03  1.232693215100072e-03 -3.454143838093200e-19
-4.806287935402566e-03  4.776270507534648e-03 -2.572832051344977e-19
-7.217691088678028e-03 -7.560137089450671e-04 -3.339108356712441e-19
-5.055932551404943e-03 -3.485117940777580e-03 -2.745742201001414e-19
-6.492863108100920e-03 -6.279342543709977e-04 -3.628940171072264e-19
-6.484023734363391e-03  7.424437461065797e-04 -3.592505136262431e-19
-6.640513007392259e-03  1.489310227970599e-03 -3.304165765484355e-19
-6.296433449773202e-03  1.523325501788214e-03 -2.429722467675138e-19
-2.894795381649041e-03  9.343511413626328e-03 -3.234382879484014e-19
-6.010309308740556e-03 -2.707402431916303e-03 -4.540462319507928e-19
 7.434597582031447e-04  5.983384560945567e-04 -7.740907916813754e-19
-1.453358652696072e-03  2.721755830958211e-03 -3.774657818260751e-19
-8.387316834914798e-03  1.888822934512339e-03 -1.324398193196483e-18
-6.341247486525065e-03 -1.833429535138127e-03 -5.157406195859490e-19
-5.715209308008406e-03 -1.510464025772451e-03 -3.414900451487391e-19
-5.474457384152843e-03 -1.252113320012929e-03 -2.916138073132720e-19
-6.260404112348195e-03  3.871158213394426e-04 -3.304675412838960e-19
-6.062894337431395e-03  2.528390997580364e-03 -3.091809724504535e-19
-7.575880242112538e-03 -2.926872404708576e-04 -3.319369683103716e-19
-5.636681583698598e-03 -2.315235376086122e-03 -2.880677148678455e-19
-6.332251254842437e-03  1.521741786976704e-04 -3.290290809496057e-19
-7.484451993957529e-03  1.326165801589151e-03 -3.436506064591217e-19
-6.617169249838315e-03 -2.630357532845950e-03 -3.014134025761294e-19
-6.067276633460817e-03  2.956804751772474e-04 -3.225859785811038e-19
-5.834371459177117e-03  2.334201875316638e-03 -3.002279432304254e-19
-7.638704662824816e-03 -2.676783722977690e-04 -3.245800271553735e-19
-5.917740871429287e-03 -2.888502098893890e-03 -2.748827716034664e-19
-6.683499015715083e-03 -5.860744436458804e-04 -3.336879436766439e-19
-6.408316285316688e-03  8.410126628018269e-04 -3.305616232228662e-19
-6.560614538938695e-03  1.449792471065330e-03 -3.248191631437788e-19
-6.178484022416376e-03  1.521604433096619e-03 -3.073444972897837e-19
-2.759986597271853e-03  9.339992409580318e-03 -1.713949734422793e-19
-5.966219084357361e-03 -2.708665415912957e-03 -2.752581740741791e-19
 7.734623307544703e-04  6.166283176814607e-04 -2.030204808522002e-19
-1.460613934299627e-03  2.700020543983480e-03 -1.047440144564721e-19
-8.350018372593028e-03  1.807442547775586e-03 -3.386988338601377e-19
-6.305552717711019e-03 -1.813451087738507e-03 -2.763429473839040e-19
-5.703106145026456e-03 -1.496704828625047e-03 -2.891786212034933e-19
-5.454445041153612e-03 -1.264032738953083e-03 -3.004544210376332e-19
-6.220660629149399e-03  3.708311986804709e-04 -3.193000484852318e-19
-6.053284734386466e-03  2.477351336927953e-03 -2.986651196163158e-19
-7.821810709700779e-03 -2.982449449941136e-04 -3.190457167568598e-19
-6.008678559315299e-03 -2.878971167388770e-03 -2.681941120097431e-19
-6.742941174232706e-03 -5.814180960531637e-04 -3.268896579556406e-19
-6.450889553663074e-03  8.784814329869692e-04 -3.245949075418112e-19
-6.587204183498252e-03  1.444536655736791e-03 -3.190583009333343e-19
-6.134431180085185e-03  1.521379628842116e-03 -3.003657867841764e-19
-2.664946965272472e-03  9.407858624292022e-03 -1.688035744545188e-19
-5.992537367606419e-03 -2.770339126361120e-03 -2.673274546542561e-19
 7.746350217833543e-04  6.190280967885110e-04 -1.966574128782446e-19
-1.465787487716512e-03  2.680895176071629e-03 -1.042318717687265e-19
-8.338133755008550e-03  1.779228095060156e-03 -3.326872921158560e-19
-6.314287225577870e-03 -1.811073607695207e-03 -2.704713729545922e-19
-5.716607427531139e-03 -1.491838481258505e-03 -2.833110073113277e-19
-5.464377607264631e-03 -1.268218679381144e-03 -2.944290148069387e-19
-6.222792678299398e-03  3.706321090161939e-04 -3.138501052919998e-19
-6.051062994744773e-03  2.480674927722444e-03 -2.941399364152151e-19
-7.819330596487697e-03 -2.954243023606545e-04 -3.136844348275049e-19
-6.004941987184475e-03 -2.879654707033017e-03 -2.628817660869599e-19
-6.733520643138991e-03 -5.822820538445747e-04 -3.216416537783952e-19
-6.441535349023325e-03  8.734044882896413e-04 -3.197580424311424e-19
-6.603226895071488e-03  1.445271326210978e-03 -3.149245377718712e-19
-6.274630811570697e-03  1.502877337700797e-03 -2.991163462979658e-19
-2.502327760626733e-03  9.380254923449596e-03 -1.624165873094900e-19
-6.023567870902430e-03 -2.616260627637141e-03 -2.670446527141606e-19
 6.483833334943438e-04  4.998541664554261e-04 -1.946433153646359e-19
-1.533223016327077e-03  2.803380777991176e-03 -1.057511000251637e-19
-8.362606399632124e-03  1.762050859403463e-03 -3.289743492299932e-19
-6.305615723380655e-03 -1.804791328140717e-03 -2.658686017330487e-19
-5.708557015782699e-03 -1.487100170594796e-03 -2.790100607328473e-19
-5.458016225522782e-03 -1.265231044947459e-03 -2.904040650085980e-19
-6.218245340497257e-03  3.682322384545675e-04 -3.099134128267371e-19
-6.052559384886171e-03  2.472102332551750e-03 -2.909458914968910e-19
-7.819620193387423e-03 -2.981950779873061e-04 -3.099965346633855e-19
-6.007990343875190e-03 -2.869765156635859e-03 -2.596681987793123e-19
-6.748742645222358e-03 -5.815824186650027e-04 -3.182637044057352e-19
-6.591197133751803e-03  8.939837010401894e-04 -3.192518787083359e-19
-6.607263260607503e-03  1.180627680907337e-03 -3.132013649428694e-19
-5.925299727900290e-03  1.801962250270198e-03 -2.886822474449980e-19
-2.890756672838625e-03  9.623668555166229e-03 -1.771032908508395e-19
-5.991478136721942e-03 -2.931164764883051e-03 -2.560883200008035e-19
 9.008584277933951e-04  7.442645674336110e-04 -1.878611726832504e-19
-1.405910977464106e-03  2.573128133123790e-03 -9.907492273772575e-20
-8.314939745684024e-03  1.766024355726679e-03 -3.252239424607029e-19
-6.308276451202346e-03 -1.815947640018575e-03 -2.629987551354657e-19
-5.716797749009253e-03 -1.496218374092181e-03 -2.763518005731937e-19
-5.464478101477153e-03 -1.272013597338548e-03 -2.874476364795613e-19
-6.226640955917143e-03  3.727606899946957e-04 -3.077601230043494e-19
-6.053694773208802e-03  2.485367461135798e-03 -2.907353260175428e-19
-7.822717245155193e-03 -2.948426955809381e-04 -3.076619044553328e-19
-6.009550576809253e-03 -2.880740820071962e-03 -2.598928378580414e-19
-6.740997440913039e-03 -5.823605963298874e-04 -2.686466113849393e-19
-6.450815043072654e-03  8.746200091110086e-04 -4.232826502341496e-19
-6.588559485284766e-03  1.443491060103527e-03 -1.768106713281391e-19
-6.149290748404715e-03  1.519855006893617e-03  4.200347195386979e-19
-2.634212663182105e-03  9.409035772107402e-03  1.308610936348993e-19
-6.003037820300944e-03 -2.754238792655577e-03 -7.975725624228865e-19
7.423032704091262e-04 5.879559869242358e-04 6.076029896837522e-20
-1.486778400219377e-03  2.699042101376647e-03  1.241699942033486e-19
-8.330241586336268e-03  1.768004957318885e-03 -4.287176671729791e-19
-6.317016136591727e-03 -1.806918334187072e-03 -2.795438927217978e-19
-5.718607440412740e-03 -1.488052310088230e-03 -2.701793745867219e-19
-5.468606854272621e-03 -1.262372929096345e-03 -2.862594878517060e-19
-6.222055658727026e-03  3.700441458651941e-04 -3.085115697138047e-19
-6.052227973153806e-03  2.481999916115982e-03 -2.868654783565194e-19
-7.822422350208878e-03 -2.986769356957923e-04 -3.051665931729716e-19
-6.010308808488094e-03 -2.878071914860929e-03 -2.557162878271202e-19
-6.745370745454794e-03 -5.808591707761511e-04 -3.139899162660241e-19
-6.454050927761500e-03  8.766511814188254e-04 -3.124535154692658e-19
-6.582328629564596e-03  1.444419229114168e-03 -3.072535280759108e-19
-6.101696095257903e-03  1.530956569422064e-03 -2.882070883160109e-19
-2.736038951383639e-03  9.414829322199676e-03 -1.688079365851409e-19
-5.966476985776826e-03 -2.813222043670785e-03 -2.550603217219536e-19
 8.315362198393275e-04  6.759048483220608e-04 -1.863476227992907e-19
-1.448769653351926e-03  2.653789224256798e-03 -9.844168729561688e-20
-8.343800296959433e-03  1.755863499600687e-03 -3.217112434369093e-19
-6.306204797380303e-03 -1.814634352572068e-03 -2.593191645678204e-19
-5.711607222375058e-03 -1.492919918560683e-03 -2.726378392659358e-19
-5.456459685052780e-03 -1.271398005636467e-03 -2.839702867181980e-19
-6.217824690829344e-03  3.720982931397236e-04 -3.034659119071829e-19
-6.047870240468891e-03  2.474537291003274e-03 -2.848083335112635e-19
-7.814186976135822e-03 -2.944458271311382e-04 -3.037720863661797e-19
-6.002720515469052e-03 -2.874902590697585e-03 -2.542781760506584e-19
-6.732647159611538e-03 -5.830450595789572e-04 -3.124309817344538e-19
-6.442455121307056e-03  8.765847309247574e-04 -3.109493753029161e-19
-6.576887774604967e-03  1.438774938335510e-03 -3.059230947958140e-19
-6.108460650863471e-03  1.519634894248673e-03 -2.873333699639670e-19
-2.648808992804373e-03  9.416602449622434e-03 -1.653878750435079e-19
-5.974389960839162e-03 -2.787084064102190e-03 -2.549884700392315e-19
 8.071578886870694e-04  6.517091772539907e-04 -1.861688136101524e-19
-1.466102171293493e-03  2.670255733976756e-03 -9.901169591741845e-20
-8.332286527795711e-03  1.721768311217076e-03 -3.206960336448831e-19
-6.287797914258965e-03 -1.808790134251448e-03 -2.587594259156485e-19
-5.689107051180954e-03 -1.483255294197915e-03 -2.717753854854671e-19
-5.433367996595374e-03 -1.255398616832823e-03 -2.837434532575639e-19
-6.181387883449801e-03  3.762369874704764e-04 -3.081697331975666e-19
-5.997636253293749e-03  2.448043484004444e-03 -2.707186947898242e-19
-7.732685299895454e-03 -2.774727046767791e-04 -3.144714462816281e-19
-5.875049018648380e-03 -2.822123485973715e-03 -3.647180072487929e-19
-6.496488361901003e-03 -5.150253057905017e-04  3.565803095383482e-19
-6.080058886954621e-03  7.614478875374759e-04 -6.275932102808506e-19
-6.646569054614044e-03  1.583082156663964e-03 -1.361490528905594e-20
-9.140797550837841e-03  1.334159217097554e-03 -3.281077918251280e-19
-2.174918272555704e-03 -5.763628698078617e-03 -8.220353732238729e-20
-4.168700667815967e-03  1.761764095656196e-03 -2.615609458712023e-19
-7.278192996295284e-03 -1.998299733960026e-03 -3.103528980889065e-19
-7.584662991134476e-03 -1.693201252555612e-05 -3.350136806305363e-19
-6.527670028659709e-03  2.801231783250368e-03 -3.038131453545037e-19
-5.545061084627405e-03 -5.535019374608894e-03 -1.961955398182071e-19
-7.357320165275527e-03  1.709050337173033e-03 -3.164543268176162e-19
-5.644636542511685e-03 -3.458207330240573e-03 -2.420337640901502e-19
-6.110661616490216e-03  9.606523154670614e-04 -2.972416212769783e-19
-3.750540336174348e-03 -1.785553454760514e-03 -2.444062777713331e-19
-9.259035400977842e-04  8.826333422258875e-04 -1.297223010944184e-19
-5.745369274574539e-03  4.559422228111999e-03 -2.639666558686145e-19
-6.327799325954423e-03 -6.206054187992184e-03 -1.744845329730914e-19
-6.003238129739014e-03 -1.640515416775630e-03 -2.833292728320173e-19
-5.513095254575408e-03 -2.801292715816667e-03 -2.932264607543935e-19
-4.066642254768733e-03  5.180362432518491e-03 -2.035721703240199e-19
-7.141422187974746e-03 -8.671586726309089e-05 -3.158794818145171e-19
-6.026292293762047e-03 -1.935433322131420e-03 -1.982423987162490e-19
-5.826243594270296e-03 -1.498462089775131e-03 -1.161073228560225e-18
-6.785616736329848e-03 -1.410184674977619e-03 -2.489335126545234e-19
-7.779623329018286e-03 -5.752446118536587e-04 -1.639170421464618e-20
-5.435653901686001e-03 -1.151190582061946e-03 -3.527175871987187e-19
3.387325341309131e-03 5.809638522111981e-03 1.521764835486743e-19
-1.306718737965519e-02  1.251237583612200e-03 -4.140636287530773e-19
-7.329835275949236e-03 -5.416526598230155e-03 -2.372856226149686e-19
-6.604292593904822e-03  5.240701844057328e-04 -3.233413895535764e-19
-6.984474383003400e-03  5.200887798111189e-04 -3.215236273083595e-19
-6.249261009080746e-03  1.818467470579314e-03 -2.992599110231949e-19
-7.054250094742809e-03  3.795343214648817e-04 -3.098424723310676e-19
-5.571290389436739e-03 -3.930232060432995e-04 -2.861847911089294e-19
-5.375382532154588e-03  6.343816449588395e-03 -2.519723123503390e-19
-7.923720715975609e-03 -6.057369454068052e-03 -2.264369928040413e-19
-5.585155982274029e-03 -2.053638018934873e-03 -2.722409866308236e-19
-6.187741997644565e-03 -1.027338048392216e-03 -3.128824532267752e-19
-5.476379419369289e-03  2.584135021977176e-03 -2.826096550343807e-19
-9.596562638552634e-03  8.986783256395670e-03 -3.735508478392417e-19
-6.832415581331488e-04 -7.782913860431483e-03  2.044064489115784e-20
 2.901331730416243e-04 -2.690581301968398e-04 -1.057702916554191e-19
-5.178336931197920e-03  2.660602746690689e-04 -2.932477977175829e-19
-7.724834479780995e-03  3.123187727134363e-03 -3.299029531218644e-19
-4.404722079396617e-03 -7.066151437286662e-03 -1.331628162158131e-19
-4.331842808687382e-03 -4.418650456030701e-04 -2.779073050472064e-19
-5.711496594762765e-03  2.687014086380851e-03 -2.895505691491552e-19
-9.719331906551778e-03 -7.772038785799336e-04 -3.483715971719466e-19
-2.983907492055766e-03 -6.780244468304984e-03 -1.050652785957735e-19
-3.954727678865481e-03 -3.948246904251550e-04 -3.081031457003043e-19
-6.542949221516913e-03  6.096363759429589e-03 -3.118008471667697e-19
-1.054497308239445e-02 -3.216680003484356e-03 -3.658867001987524e-19
-8.745390147344448e-03 -1.957016208855073e-03 -3.793442013554480e-19
-3.666490402740757e-03  3.477259030138544e-03 -2.391616252336699e-19
-3.294593331723207e-03  9.084628179510324e-03 -1.903362767690625e-19
-1.043242467257268e-02 -1.284304138385457e-04 -3.637001502156477e-19
-4.802973868138588e-03 -8.116654857798066e-03 -1.338472574269574e-19
-1.165162902390843e-03 -1.423793796235042e-03 -2.159232009400162e-19
-2.886789541814857e-03  3.990771717766544e-03 -1.784238200099018e-19
-7.983156172313139e-03 -1.542424128268298e-03 -3.649494133066722e-19
-1.608457288746302e-04  7.361832642434399e-03 -3.956496237929572e-20
-5.799709834797313e-03  1.589388784105428e-02 -2.888273960560239e-19
-9.750110046109289e-03 -5.898938265860754e-03 -2.779574022860751e-19
-3.268023853761165e-03 -9.631450734657686e-04 -2.585152292084331e-19
-3.626208261157847e-04  4.425585832606348e-03 -8.070113849079025e-21
-8.401539493920335e-03  5.409556195441713e-04 -3.335733804342020e-19
-2.923186711912246e-03 -4.694919435050571e-04 -2.355875261050725e-19
-2.246177897266203e-03  5.251801214680908e-03 -1.256974647671654e-19
-7.987808346079255e-03 -3.380706068972891e-03 -2.486051563889329e-19
-3.480342051121930e-03 -2.933541502220703e-03 -1.960275038454322e-19
-4.704005999391581e-03 -2.747081646524752e-04 -2.774934847724877e-19
-5.625495355413485e-03  1.274151889854919e-03 -2.847010834830315e-19
-5.891903054650737e-03  8.980532446045165e-04 -2.849910230546532e-19
-5.084100493820329e-03  2.326287759169388e-03 -2.515643437095625e-19
-7.432373756957628e-03  1.614580156010241e-03 -2.960347369581774e-19
-5.385810698157763e-03 -2.825707505769214e-03 -2.276390078302809e-19
-5.701111165520077e-03 -3.822769693847307e-04 -2.810206333960096e-19
-6.738913986564165e-03 -4.518648279143171e-04 -2.993233561386326e-19
-6.454697576094767e-03  2.555807654550379e-04 -3.040913793130875e-19
-6.921442183133018e-03  8.524237549253379e-04 -3.138857612357156e-19
-5.862722947958269e-03 -2.819727848564249e-04 -4.375885049505297e-19
-4.336365077687819e-03  2.850397646944416e-03 -4.278976075308596e-19
 6.822706092204414e-03 -1.910527911572896e-03  3.182335475867629e-19
 6.006365836499519e-03 -1.033782841723748e-03  2.888081588083446e-19
 4.428925019414830e-03 -2.766568112715751e-03  3.005726581984984e-19
4.533051016025615e-03 4.911434233227146e-03 2.433238586000818e-19
 7.475755681017719e-03 -2.947588082629998e-03  1.083096835064602e-19
 5.304394295336801e-03 -3.381966874686969e-04  9.054925300638494e-19
6.002704102185570e-03 7.483971991606114e-04 1.497866863242726e-19
5.976371780532181e-03 4.023685466458345e-03 8.891064949095263e-19
 4.934708574740954e-03 -2.778902028886710e-03  2.730536241527396e-19
3.286973029638280e-03 2.511220107694201e-03 1.740901077047474e-19
 7.426045091023243e-03 -1.348993107686724e-03  2.664054237922207e-19
-5.201627840431030e-03 -4.482587428263122e-03 -2.477433348823796e-19
 6.057136182871767e-03 -1.905373115296368e-03  3.069356205075409e-19
 8.968137577898190e-03 -3.120495262884752e-03  3.961733664843152e-19
 5.184681459476907e-03 -1.528670094656392e-03  3.104938170985610e-19
2.272371463836137e-03 6.889382866176968e-03 1.092468862070492e-19
8.409548610239572e-03 3.898246154145363e-04 3.731669702210076e-19
6.412709468736648e-03 4.691692645089531e-03 4.835593320546519e-19
 3.851704753937597e-04 -8.851532442097557e-03  2.007036288017606e-19
5.523539819214291e-03 4.831606032409436e-05 5.665090667504266e-19
 3.435428538704457e-03 -7.419892598675386e-03  2.350864266801104e-19
 5.053932578901410e-03 -3.433920291162084e-03  2.716391641000840e-19
6.915016745720466e-03 1.737702082086811e-03 3.713435049384623e-19
 1.007001837653154e-02 -1.166373228714640e-03  4.312847303152148e-19
 1.188869115289208e-03 -6.602924826125641e-03  7.736819017422366e-20
6.724276996910586e-03 4.467623476833198e-03 3.489814875871359e-19
1.464654465733930e-02 1.791885384631410e-03 5.559998574631462e-19
 4.201846554237844e-03 -6.457711490637771e-03  2.172598315840488e-19
5.237710045800177e-03 5.097149356033749e-03 4.661482360353594e-19
1.355567793036923e-02 9.991039866195860e-04 2.135214627908104e-19
-9.902466869321473e-05 -5.708112966477862e-03  1.132724293352302e-19
4.297426800570604e-03 3.464841306364179e-03 2.368605393204516e-18
9.116340796845555e-03 1.553209483531791e-03 5.833475252076990e-20
8.332737084914875e-03 3.012220503375268e-04 5.355185235677102e-19
 6.771585845241897e-03 -4.290617073036264e-04  2.975016450034247e-19
 4.737742710024993e-03 -2.028554332163944e-04  4.672831017837718e-19
4.459660569209956e-03 1.662862144261865e-03 7.820192907227713e-20
6.961211749389050e-03 3.986923490388051e-03 9.223487987029343e-19
 6.894063653312910e-03 -3.270813384113804e-03  2.845667263685858e-20
 5.489038708669889e-03 -2.581326578896558e-03 -1.202431494150036e-18
 7.251291555838572e-03 -2.551106990776009e-03 -4.105184921673400e-19
 5.788097877890976e-03 -4.263842256916952e-03  8.799641651011715e-19
1.992929441138026e-03 7.801659644558009e-03 7.955946305201852e-20
1.553817403306062e-02 2.832812414500255e-03 4.844156830021666e-19
 3.791407869558461e-03 -8.249693121201216e-03  2.124758801727570e-19
6.284074864918537e-03 4.857345203668342e-03 3.194204516688399e-19
1.497789316710605e-02 1.387661526122941e-03 3.882333628549881e-19
 3.844784513590921e-03 -6.791888179910915e-03  1.837016579723447e-19
5.443218744467218e-03 5.104909397923497e-03 6.830075797037381e-19
1.402271460877153e-02 1.508566041764758e-03 7.607175711908671e-19
 1.410448848707271e-05 -5.976691388507313e-03  1.337112243973409e-19
4.226934193735345e-03 3.523735590387844e-03 2.939321513867371e-19
9.212166792774069e-03 1.669387007222714e-03 3.632245162133947e-19
8.449456094565743e-03 4.333678014783527e-04 4.892774443777607e-19
 6.824136948982666e-03 -4.593194668698453e-04  5.481745618477830e-19
 4.737143516037851e-03 -1.834532343877482e-04  3.030948267568074e-19
4.474639269456487e-03 1.685219801286102e-03 2.832293797141877e-19
7.006444277022305e-03 4.044475193392934e-03 2.669714058981797e-19
 6.956947614204214e-03 -3.345057401866118e-03  3.242506285978902e-19
 5.598760825636143e-03 -2.704425500090427e-03  3.170125863560431e-19
 7.314972205093520e-03 -2.866683739138937e-03  3.733072921351945e-19
 5.840870956608828e-03 -4.403130021545515e-03  3.223332712770272e-19
2.287441317815056e-03 8.024567975596555e-03 8.908347983829539e-20
1.606601214317394e-02 2.957794035895038e-03 6.751690047326901e-19
 3.912061849883562e-03 -8.505758395579112e-03 -1.111240072390816e-19
6.403134496406765e-03 4.999227415509367e-03 1.638210310793695e-19
1.527500075478947e-02 1.596234861004058e-03 5.524425763563511e-19
 3.929667808569596e-03 -6.988264747583186e-03  3.020010899477395e-19
5.541183872620237e-03 5.206960911838719e-03 2.703628126522151e-19
1.420763444891241e-02 1.684775439017647e-03 4.847426331993913e-19
 3.823683492829883e-05 -6.128186413163858e-03  3.408108482292780e-21
4.254361999891098e-03 3.558109009112295e-03 2.828211055025585e-19
9.241128547773760e-03 1.700909397162025e-03 3.737462683418070e-19
8.464623922229410e-03 4.047827011633066e-04 3.703620594937941e-19
 6.818014182324825e-03 -4.517667288315562e-04  3.537378876373443e-19
 4.737716500989596e-03 -1.652324458286833e-04  3.229098715673262e-19
4.488155811854331e-03 1.691466203167413e-03 2.960862706393783e-19
7.014944234288098e-03 4.026220277453336e-03 2.764214188571204e-19
 6.936597009202625e-03 -3.321923461918566e-03  3.277345853742706e-19
 5.580460988403866e-03 -2.691052054449373e-03  3.081752047191206e-19
 7.295293033803450e-03 -2.836851597923822e-03  3.611088208719248e-19
 5.845994205244502e-03 -4.387697420883983e-03  3.278537010288252e-19
2.255297986260008e-03 8.025899686632657e-03 8.763962631269243e-20
1.602922004075156e-02 2.979514150208127e-03 5.089416704998403e-19
 3.851984496010001e-03 -8.500747117955742e-03  2.199270318813871e-19
6.374233836144385e-03 4.935799757811273e-03 3.146091164037540e-19
1.516493360052354e-02 1.601049034271539e-03 5.000849036275946e-19
 3.867067530696054e-03 -6.892031973570727e-03  2.311846821745345e-19
5.465701571681789e-03 5.139052507223925e-03 2.865813868135864e-19
1.414263913856006e-02 1.624148593287940e-03 4.824323959053407e-19
 1.239838366724477e-04 -5.976592157035173e-03  1.167963260535798e-20
4.120248859776507e-03 3.491423503439241e-03 2.788524031749107e-19
9.183608215486562e-03 1.695591399188051e-03 3.733254095180494e-19
8.395969165912244e-03 4.503388805161507e-04 3.694084587677358e-19
 6.768177296883815e-03 -4.249582785382939e-04  3.514052199570655e-19
 4.702851554176163e-03 -1.719457152501898e-04  3.223501023206331e-19
4.448283648867825e-03 1.663475228098240e-03 2.957783835453501e-19
6.973727226785972e-03 3.998967674674656e-03 2.764670303231103e-19
 6.926574627714024e-03 -3.303598994688403e-03  3.280646222927148e-19
 5.577074964376812e-03 -2.692770606395008e-03  3.090543956993937e-19
 7.294560805713559e-03 -2.838020093856476e-03  3.620767125940944e-19
 5.845005489812234e-03 -4.396936269747966e-03  3.290307723251340e-19
2.271577700864196e-03 8.039856980049056e-03 8.872907247635072e-20
1.605864825710226e-02 2.972471058354961e-03 5.129697525171011e-19
 3.905362499019133e-03 -8.505282110349122e-03  2.229203043447599e-19
6.402212099712046e-03 5.002139059123767e-03 3.242443549862556e-19
1.528472223460313e-02 1.608342092889988e-03 4.802180810051802e-19
 3.937029376285199e-03 -6.987212492920128e-03  2.457267310227570e-19
5.536460326806963e-03 5.213684989185970e-03 3.023706210622568e-19
1.422482348206648e-02 1.701226362711167e-03 1.024732841926779e-18
 4.336671385846800e-05 -6.136200586503489e-03 -2.752739537385858e-20
4.248556522620094e-03 3.557344148741975e-03 4.965366773510680e-19
9.228155292420149e-03 1.715947860131681e-03 5.895340656428556e-19
8.472766540507619e-03 4.308855199518301e-04 4.082133929125024e-19
 6.817865686116922e-03 -4.607572591629540e-04  3.474863527030604e-19
 4.731036836423487e-03 -1.749604856300120e-04  3.212722472138489e-19
4.473249641301935e-03 1.680520000311804e-03 2.791867405020677e-19
7.001096339398208e-03 4.029053276661232e-03 2.864348738621121e-19
 6.940072677898532e-03 -3.334369576568675e-03  3.413962455639828e-19
 5.584133310689826e-03 -2.691511459906949e-03  1.946813956431662e-19
 7.291057850179217e-03 -2.855245027279722e-03  5.337964505983859e-19
 5.835970050798420e-03 -4.382398421884365e-03  1.101825967909645e-18
2.261425135891310e-03 8.013565511455056e-03 8.720012467615622e-20
1.602605191160273e-02 2.963895560566427e-03 4.718922333332630e-19
 3.899074245495222e-03 -8.459285568627069e-03  1.199760278233180e-19
6.346918104406364e-03 4.969802308058327e-03 2.938331581490264e-19
1.519834844091574e-02 1.583797154487471e-03 4.919968577586226e-19
 3.905414259638711e-03 -6.896144735068574e-03  1.178580916506630e-19
5.445960078138259e-03 5.138787350921759e-03 2.103173690965298e-19
1.403496858212010e-02 1.623261770772208e-03 1.319199613108550e-18
-2.534869379210780e-05 -6.012470662863064e-03  3.155669156329391e-19
4.207530755415674e-03 3.488683350251330e-03 6.436087227211235e-20
9.130691155717689e-03 1.649848457167910e-03 3.735187446990871e-19
8.355950015111016e-03 3.844987877990965e-04 3.791359246483434e-19
 6.747340928989472e-03 -4.296255600193999e-04  3.366162579432905e-19
 4.689167146983144e-03 -1.774720685499174e-04  3.128967682190187e-19
4.439401609559323e-03 1.672617262009668e-03 3.123232191451827e-19
6.985444372563806e-03 4.022220899530988e-03 2.539060110972084e-19
 6.923176233018755e-03 -3.333666731541012e-03  9.227116244047638e-20
 5.571120311478140e-03 -2.680972974976058e-03  1.350414813037734e-18
 7.290286458244780e-03 -2.840254901745806e-03  7.413871086005624e-19
 5.856743489511699e-03 -4.387037091499922e-03  3.203570075018428e-18
2.254261699895515e-03 8.054094285045261e-03 8.438627705652562e-20
1.605209318975616e-02 2.963902986417067e-03 7.835282150487605e-19
 3.920542365519623e-03 -8.491114929662709e-03 -1.050151716892069e-19
6.395127474027877e-03 5.015078069371210e-03 4.274602606848295e-19
1.529576894783754e-02 1.591335428194477e-03 5.049289045510898e-19
 3.961654626008769e-03 -6.982496007821238e-03  2.215744489058234e-19
5.514360894969410e-03 5.209972496568285e-03 2.919451814777587e-19
1.411275482152044e-02 1.671112798111292e-03 4.911850949662280e-19
-9.454524778791925e-05 -6.152461795979135e-03  4.565091681577360e-21
4.326441759054426e-03 3.553678923766504e-03 2.741684181674512e-19
9.201422407719647e-03 1.644748864555980e-03 2.633514509536372e-19
8.409408369069043e-03 3.366233000077262e-04 2.393865221727014e-19
 6.799075520608403e-03 -4.320280072227466e-04  5.513711525710794e-19
 4.749343174914999e-03 -1.636847705624603e-04  3.578360411079168e-19
4.500938141552351e-03 1.695854957952133e-03 2.111490179350805e-19
7.030031611334794e-03 4.022061088639214e-03 1.904638967363218e-19
 6.936852252369403e-03 -3.322148141823002e-03  3.414946996359722e-19
 5.584701208036441e-03 -2.684909262605995e-03  3.072322662866713e-19
 7.303591289160170e-03 -2.822610161234757e-03  3.714863981406431e-19
 5.875741948259982e-03 -4.392881584939956e-03  3.386434687862293e-19
2.244071245315157e-03 8.071978113291117e-03 8.463767034978828e-20
1.604667783578154e-02 2.983970931879549e-03 5.160039679423526e-19
 3.904792356742480e-03 -8.504580575067682e-03  2.292289386301794e-19
6.402489885706776e-03 5.008694156249831e-03 3.175880323202506e-19
1.528732386094203e-02 1.598421432975050e-03 5.099151442750515e-19
 3.962409169676270e-03 -6.974463543288891e-03  2.427185790424035e-19
5.512825490465470e-03 5.220532902073130e-03 2.956250895022392e-19
1.416008910542520e-02 1.665497306632562e-03 4.691943882681441e-19
-3.612273364995982e-05 -6.141981361078909e-03  2.357231899672888e-20
4.292730041627685e-03 3.556440349995162e-03 3.059519867526649e-19
9.200722444686076e-03 1.666103258997377e-03 6.701876770801635e-19
8.432717198206209e-03 4.301981020564764e-04 6.077903650575116e-19
 6.817963449353797e-03 -4.456486205058094e-04 -3.551850890546234e-19
 4.750229509549233e-03 -1.833077912526442e-04  1.376609463275139e-19
4.478787105191613e-03 1.670170192426160e-03 3.816042336845467e-19
6.997542693660431e-03 4.031411109664576e-03 2.940286128467697e-19
 6.955509669599523e-03 -3.341840213908118e-03  3.357575732913375e-19
 5.603928109436488e-03 -2.707203269940400e-03  3.158205772525567e-19
 7.306733512631110e-03 -2.882152871273913e-03  3.685489168673695e-19
 5.844387754255842e-03 -4.398409871561148e-03  3.366631675755806e-19
2.281756610774967e-03 8.044795431837863e-03 8.508686598088631e-20
1.608958436434264e-02 2.945127159311578e-03 5.417315060665734e-19
 3.937700670396141e-03 -8.496772689217285e-03  2.197123940036392e-19
6.393917274462569e-03 5.020016532721661e-03 4.333515260544680e-19
1.530141564537435e-02 1.598128302776151e-03 1.012783836282869e-19
 3.968042979161389e-03 -6.985026747548889e-03  5.224319870956978e-19
5.513574542297516e-03 5.214789250980358e-03 5.024137279435225e-19
1.410487527860557e-02 1.662714585249906e-03 5.576461391513922e-19
-1.067127607434486e-04 -6.153357841442141e-03  1.796594265322695e-21
4.334132971802182e-03 3.555064732971201e-03 2.849484420807086e-19
9.201199055106106e-03 1.633137360073690e-03 3.826839127240884e-19
8.400346065093288e-03 3.318608486362605e-04 3.763048421189711e-19
 6.800840906935235e-03 -4.205021584183163e-04  3.672084241084128e-19
 4.757982661980593e-03 -1.650479600174587e-04  3.341684103735683e-19
4.508720522582465e-03 1.697792225201283e-03 3.074692366944854e-19
7.040199423683216e-03 4.013297991418259e-03 3.028973843390455e-19
 6.939625679435116e-03 -3.322788877341595e-03  4.010618657646289e-19
 5.599277844347657e-03 -2.698501711160481e-03  6.612167970894608e-19
 7.316577740352932e-03 -2.849650216712536e-03  1.016696904688242e-18
 5.866178306357718e-03 -4.404490413121596e-03  2.778249388084712e-19
2.266408657592010e-03 8.059563778577007e-03 8.382629824972691e-20
1.607070311721265e-02 2.967948861112861e-03 2.727586884725171e-19
 3.914111468002868e-03 -8.516369205386679e-03  1.985370771110454e-19
6.411126252801417e-03 5.009851350115549e-03 3.569385049315781e-19
1.528550235681862e-02 1.601205702548382e-03 5.142384344742113e-19
 3.954476722651435e-03 -6.987271482364572e-03  2.462117628498349e-19
5.528879237937896e-03 5.219754522661965e-03 2.927209094064537e-19
1.416164869237669e-02 1.646891590175186e-03 5.012816671029560e-19
-1.868659333553209e-05 -6.134602732881832e-03  1.182322771687372e-20
4.292078637402516e-03 3.564482171557242e-03 2.892805376218589e-19
9.224754915965774e-03 1.669702241446393e-03 3.844589354101032e-19
8.431538337562151e-03 3.987974078562256e-04 3.723442734466525e-19
 6.821707056181762e-03 -4.162510989299684e-04  3.703215879979887e-19
 4.744535665193316e-03 -1.895310357558383e-04  3.927033487921378e-19
4.465005943143026e-03 1.682302209383317e-03 2.896873791954699e-19
6.999058589082906e-03 4.015236796059352e-03 3.141552019525593e-19
 6.903787922437913e-03 -3.324723715033639e-03  7.638294115273910e-21
 5.515235162307029e-03 -2.624740890551780e-03  3.382739662906296e-19
 7.279604248893530e-03 -2.674472337074872e-03  4.622091560567589e-19
 5.747947541289730e-03 -4.297521487806647e-03  3.623917814941381e-19
2.133214240674760e-03 7.744593840167736e-03 8.270184109988748e-20
1.562441848442089e-02 2.863854902510544e-03 5.093559617130023e-19
 3.822367421663037e-03 -8.277378820100255e-03  2.267902995704529e-19
6.267706725433963e-03 4.848902576526959e-03 3.139211752068875e-19
1.489979829837577e-02 1.363817509305516e-03 5.117481968505555e-19
 3.833643582784619e-03 -6.765911489688726e-03  2.465010544319169e-19
5.388734395970518e-03 5.017413180921259e-03 2.890509404268065e-19
1.349211856450614e-02 1.225535583718363e-03 4.891107931912603e-19
-3.802383516440741e-04 -5.852983900718039e-03 -1.130817491252586e-20
4.445659208496482e-03 3.516585840993784e-03 2.897447805911961e-19
9.165186153859856e-03 1.579041072778057e-03 3.819046663647959e-19
8.413624318724462e-03 2.894636106988865e-04 3.663397218729656e-19
 7.035744662656647e-03 -3.166207078974006e-04  3.733898757119473e-19
 5.116754785025220e-03 -2.980550061703152e-04  3.499813520394715e-19
4.974904708170604e-03 1.950349776895520e-03 6.209021469873926e-19
7.560329957614595e-03 3.886724595452366e-03 4.864372828516887e-19
 6.829125745581802e-03 -2.811562321606813e-03  8.282281173759867e-19
 4.330495113367399e-03 -7.219584402578220e-04  3.297729740917158e-19
5.540902314954113e-03 1.087503701502141e-03 2.989105977558732e-19
7.332054862684115e-03 2.100798198175821e-04 2.615964825505049e-19
 7.156500119103091e-03 -7.182907993583717e-04  3.723255424727961e-19
 6.669893702404402e-03 -9.537400912135361e-04  3.607842106543677e-19
 6.318873757377671e-03 -1.364823898827342e-03  3.636161898961574e-19
 6.748613827450637e-03 -3.149973035226143e-04  3.710781030901937e-19
 5.443572574162956e-03 -5.344173019870307e-04  3.824499493521263e-19
5.005270275447982e-03 1.733061557849894e-03 2.724563477001603e-19
7.474416428941242e-03 4.107355548386570e-03 3.914973108167750e-19
 7.246884200312103e-03 -3.482320666726163e-03  3.822858795539002e-19
 5.868925060574079e-03 -2.605440307578367e-03  4.971451371660823e-19
 7.872669429571115e-03 -2.197468716715820e-03  4.115816521201442e-19
 6.278393444294907e-03 -4.517234322967529e-03  1.709810975943314e-19
1.695830898114896e-03 7.855228422629250e-03 3.467359253050435e-20
1.510156572711745e-02 2.685671504326264e-03 7.168310502518906e-19
 4.247037403864549e-03 -8.478878862806084e-03  2.930651836963087e-19
7.056532836128336e-03 5.295342729433922e-03 4.615116328336763e-19
1.547343513718025e-02 1.275950429202111e-04 5.437367757218689e-19
 3.170369537636949e-03 -6.195339121250740e-03  2.034444085357248e-19
3.910583939001343e-03 5.095183965309985e-03 2.566566683705945e-19
1.062397587406567e-02 3.708884662839880e-03 4.778026470475175e-19
7.845246390669081e-03 8.492335481841787e-03 2.188499465830617e-19
 7.245804649772605e-03 -1.207512652919864e-03  4.727489013046034e-19
-5.137879083231147e-04 -6.570717069843034e-05 -1.051893920771528e-18
9.912759002311379e-04 6.252406905854112e-03 1.646285100165096e-19
 7.543204821224658e-03 -5.876967062821979e-04 -1.763753199479522e-18
 3.649361683785001e-03 -2.486639545837725e-03  1.317226389440521e-18
5.018770330372072e-03 1.839547955704541e-03 1.477890831407660e-18
 4.169794809784122e-03 -2.042440717261831e-03  6.293458300340327e-19
4.890565312591058e-03 3.604460687954370e-03 2.361043648997547e-19
 6.457226562621390e-03 -4.706687823005073e-03  3.547303883137878e-19
 7.013489366323714e-03 -2.285864069104163e-03  3.997744999895655e-19
8.651791924895950e-03 4.387305290226203e-04 4.356374400451896e-19
 2.967714543079079e-03 -1.039005738918807e-03  3.306952770197425e-19
-2.931947001899258e-05  2.279401855176639e-03  2.141973080163566e-20
9.387788290075635e-03 5.470455324235504e-03 3.201361871456023e-19
 1.361708556571001e-03 -7.538183100417635e-03  1.305752286423095e-19
2.692863081891056e-03 5.670582113359735e-04 3.190572576122765e-19
 8.478062990195641e-03 -8.148636511739816e-04  4.324220174738696e-19
 2.702730594576153e-03 -6.052149804549752e-03  1.892282942422372e-19
5.886158638159260e-03 9.990787628881134e-04 4.061672665392537e-19
8.828590420286204e-03 4.128627244024082e-03 3.903411775818202e-19
 6.370165172016619e-03 -4.357133255885887e-03  3.793297455080382e-19
1.260235578504202e-03 2.111654534807985e-04 3.531658582125655e-19
8.059524811207585e-04 1.022169575571812e-03 2.468138974651970e-19
4.178702190864170e-03 9.107910846420285e-03 1.096042423663852e-19
 6.418121215635821e-03 -5.399165819988229e-03  3.589990172479626e-19
-7.330716426135301e-04  5.015120859785424e-04  2.020008122714943e-19
-1.604840931069427e-05 -8.947090404118809e-04  7.369833921056209e-20
6.072374153828132e-03 7.085951816074984e-03 2.540933330223906e-19
 5.339588731436978e-03 -7.884980593899842e-03  3.069194071423687e-19
 7.169703565245283e-03 -2.345079310444336e-03  4.403436978244751e-19
 1.768704834818325e-03 -6.200811084980254e-03  1.285102584027096e-19
6.985793962891338e-03 1.284946100440883e-03 4.842554629833180e-19
4.747816954686094e-03 2.112077579938711e-03 4.140368925667526e-19
1.306804600483765e-03 8.118480603797943e-03 2.696760081175253e-20
9.915496927810390e-03 3.503168426951224e-04 4.885187678497365e-19
 2.951988690466676e-03 -7.030761511226393e-03  2.064401446278187e-19
 1.796801150418983e-03 -2.046731041580310e-03  2.511372031170921e-19
4.354974365067979e-03 7.631193490991515e-04 4.774108126183260e-19
5.509539061336075e-03 6.228763619039937e-03 3.256347372689543e-19
 1.031231585328873e-02 -2.843904125962701e-03  5.641597147283971e-19
 2.423270025845687e-03 -1.072522520146375e-02  1.763743016856596e-19
 2.993967072002736e-03 -6.918207247871129e-03  2.449252573106674e-19
8.763126549409072e-03 1.114950835156501e-03 6.421738342764909e-19
4.744478912222782e-03 7.618911906711446e-03 3.127156178537631e-19
1.097227519758045e-02 9.743633477608026e-03 4.407054867478743e-19
 9.504416004984409e-03 -3.715287867027092e-03  5.915237006282050e-19
 6.939066219568234e-03 -4.222627002737627e-04  6.055194543924592e-19
-1.089834881429869e-03 -3.645682936084155e-03 -2.519560140058776e-19
3.969775842992149e-03 1.650772865948689e-03 5.962611149817727e-19
6.802996701904840e-03 4.205938856981545e-03 5.828095278100033e-19
 3.942849335978407e-03 -5.217146275646424e-03  3.595116759808276e-19
5.129599914269658e-03 3.638472409239719e-03 5.826320771205842e-19
 5.385192680581067e-03 -5.978988601278739e-03  4.452550808068251e-19
 7.523548680667011e-03 -3.612656833467572e-03  6.916767668137857e-19
7.481350664618526e-03 1.599884159447498e-03 8.779981533933404e-19
2.419316428824163e-03 7.216559330362638e-03 4.000437795804264e-19
8.708850009173385e-03 3.309331315391527e-03 9.111917746828405e-19
9.921789330160895e-03 3.192068918295608e-04 9.920395176577344e-19
 4.744161641525907e-03 -2.099268101844915e-03  8.150100950802026e-19
1.612729210605159e-03 5.130132929948434e-03 5.452873086002216e-19
1.098841050638095e-02 9.857741719220891e-03 1.002709965800207e-18
 7.201326859532864e-03 -1.298060757788606e-02  4.763045461576648e-19
 1.989246265073341e-03 -2.705820333438940e-03  3.984113962975071e-19
7.788684408824270e-04 1.236851232410104e-03 9.216406120950327e-19
7.294797852263486e-03 4.376262317359638e-03 1.280855144990811e-18
 5.592909709690996e-03 -1.549008734512549e-03  1.312095829299484e-18
5.681403455739334e-03 1.593087990238759e-04 1.783036203690150e-18
5.300469756229674e-03 1.183700527505819e-03 2.121903593357257e-18
7.128055844512209e-03 1.149243761838357e-03 2.488292486346980e-18
 3.229786205090319e-03 -5.651237583499011e-03  6.284941163397379e-19
 7.708595440136785e-03 -4.535225985247538e-04  2.879471576792629e-18
-7.810828721946833e-04 -6.322263432893127e-03 -1.327929149975142e-18
7.283809388456530e-03 2.218171626690978e-03 4.195801252332177e-18
 7.301707764756784e-03 -1.342574127821139e-03  4.714783358782960e-18
5.082841854964733e-03 7.093915024797527e-03 5.289757718721217e-18
 5.548701263186236e-03 -4.503814622907576e-03  5.699626348652210e-18
2.277323598080819e-03 2.802188364221098e-03 7.662212494335832e-18
5.828482729926453e-03 1.164825665131361e-05 1.193409972289083e-17
5.716427959174934e-03 5.128306414415045e-03 8.770820263893706e-18
 4.657177406022075e-03 -5.053800806696237e-03  1.376693351561608e-17
 1.691841500038723e-03 -2.345581365341736e-03  1.288409788806329e-17
7.666053785538974e-03 1.248236590556696e-03 2.579671306172788e-17
7.737758505251401e-03 9.886345036358144e-04 2.981212932085223e-17
6.977799139470150e-03 5.232543571708621e-04 2.884270574470252e-17
6.641063922241762e-03 4.980031044325941e-04 1.928498302078950e-17
 5.227405154606575e-03  2.873871399646896e-04 -8.614277946003094e-18
3.880938766119615e-03 3.314158317495405e-03 7.888413303925740e-17
 5.692548560993808e-03  1.001898127610923e-03 -1.183263902554713e-15
 6.062005966763958e-03 -9.844016805215200e-04  6.486596893561829e-15
4.361953105171364e-04 5.474563947566041e-03 1.459109070442387e-15
 2.616175212243470e-03 -4.248374695730832e-04  7.090609938110506e-15
 5.993483692286954e-03 -2.754720946289284e-03 -1.393507039072586e-15
5.558850741684761e-03 1.287437970658460e-03 6.715146474525008e-17
 1.304897586792106e-03 -4.271830279827558e-03 -4.706176921490585e-17
4.641525880898357e-03 2.380330232951329e-03 1.023240756464385e-16
 2.317461629908372e-03 -7.068469806538058e-03  1.318643064390427e-17
 7.219249411925451e-03 -1.850528264974206e-03  5.013016519498108e-17
 5.720582793946147e-03 -9.876716233767049e-04  3.848589484701886e-17
 1.220821854014076e-03  6.242199228135059e-03 -1.333689710967575e-18
1.019418583942940e-02 2.200399204635974e-03 2.774726599940299e-17
 7.689949083365057e-03 -2.660323916756859e-03  2.653674736252237e-17
7.334144810587484e-03 1.259460741135612e-03 1.976014581638662e-17
 5.764439615512600e-03 -1.025077283322850e-03  1.781270521071662e-17
-1.363656230647515e-03  3.867369065027076e-03 -1.224438573391829e-17
 8.429930211057892e-03 -8.826931540873438e-04  1.446840126622073e-17
7.063936090254749e-03 7.234639995397303e-03 3.894478921982700e-18
 6.753617974430644e-03 -6.425131974863680e-03  1.260719849502185e-17
4.921411989077581e-03 7.644767831700305e-04 8.487281579705478e-18
5.338028175852965e-03 5.046419845293734e-04 6.611617412091439e-18
 5.277323224620002e-03 -3.860379264530870e-04  5.569597720370544e-18
 6.553157546635974e-03 -2.039231064738524e-03  4.805495043230186e-18
 3.022926068244509e-03 -2.601228207064743e-03  4.447888134230602e-18
2.729288631035494e-03 3.091964330200378e-03 7.772316607414637e-20
7.221823420277648e-03 1.422464345132796e-04 2.922137508829005e-18
7.006592763020531e-03 1.473822405322992e-03 2.044162443241665e-18
 6.372344223050938e-03 -3.492514505457086e-03  2.759365654558786e-18
 3.981661265112408e-03 -1.087986056675425e-03  2.401236239341390e-18
 5.154944613320323e-03  5.328480902606480e-03 -8.452963166206899e-20
 6.246885511419899e-03 -4.680702874954663e-03  3.608128112307589e-18
6.169151671180748e-03 2.062263851897603e-03 1.725603714606870e-18
 9.070553503234472e-03 -1.066391497082767e-03  1.620348110533693e-18
 4.646289568430936e-03 -2.906244261061732e-03  1.782216296819804e-18
 7.757253449003288e-05  2.847780257364418e-03 -9.491567013542502e-19
9.214383469987899e-03 3.953033671091608e-03 7.923716300932621e-19
 7.738474943187243e-03 -4.041637725337944e-03  1.520564166893385e-18
3.474477182718504e-03 2.469672657560028e-04 9.942892441106253e-19
1.014465444998552e-03 1.298221040483990e-03 2.902792408165776e-20
 2.892822391889857e-03  7.521582988473964e-03 -3.666137257383073e-19
1.103406903863280e-02 7.039127964202722e-03 4.907495324000432e-19
 5.759236277692037e-03 -2.926261197234399e-03  1.152798125310487e-18
 4.806266898020243e-04 -3.086792847104466e-04  9.260602950727237e-19
 4.815101826424306e-04  8.532249410349309e-04 -5.213613044156246e-20
7.246961187602645e-03 7.095319104476341e-03 2.001931138425929e-19
 6.323083909853225e-03 -5.080350263483723e-03  9.584252389352041e-19
 1.974101179182032e-03 -1.820085940893148e-03  7.715893465196256e-19
1.359977260352361e-03 1.123338758765245e-03 2.799672508880304e-19
7.000823823585796e-03 4.425145379379344e-03 3.797868483220810e-19
 2.514643710776187e-03 -5.505325445724781e-03  6.332479703303492e-19
3.977504969980223e-03 3.537427837102973e-03 2.234598571973425e-19
 6.481116634204523e-03 -4.140217643604997e-03  7.574760400206121e-19
 6.037621119278806e-03 -1.853378413877942e-03  6.928168379204327e-19
 4.835849379296540e-03 -3.066176074011088e-03  6.678026929195953e-19
6.200526932537235e-03 4.977031263076216e-03 3.011223744493412e-19
 9.992863740954649e-03 -5.670068568424542e-03  7.555931801707418e-19
 8.725234905575748e-03 -4.591688577705853e-03  7.141772739517274e-19
 5.093053389705915e-03 -3.291377120997658e-03  6.188601904382855e-19
 1.596339900930670e-03  8.969134237969240e-03 -1.320924534782740e-19
 1.141308973785213e-02 -6.907743079800471e-03  7.423466538910187e-19
6.004219176768430e-03 1.989735786698785e-03 4.580839956823958e-19
5.496661875515227e-03 8.807929098946683e-03 7.209666895618043e-20
 7.417471250965238e-03 -3.841103514292834e-03  5.834688281088128e-19
6.686345384008400e-03 1.214229270735163e-03 4.736533132193818e-19
 7.806997431456838e-03 -1.154421194015256e-03  5.473384578284396e-19
5.454676304969860e-03 2.599479339866817e-03 3.694682246053778e-19
 3.196017143879385e-03  9.928186621823841e-03 -4.117696302663177e-20
 8.432988886608411e-03 -1.692418250705077e-03  5.161418690485929e-19
4.493215791485135e-03 5.870928386348679e-04 3.975660596119746e-19
6.403964110101077e-03 4.033359493300107e-03 2.899778240662149e-19
 6.932163258100304e-03 -6.929462809068786e-03  4.739133220246860e-19
 5.948263989487246e-03 -2.185787044620629e-03  4.470413819739272e-19
 6.253943609987243e-03 -1.901126707192062e-03  4.550066352748614e-19
 6.404053953403239e-03 -5.755885554765141e-04  4.510714757434535e-19
 5.077757117411288e-03 -4.056502187361363e-04  4.256370294771855e-19
 3.514939504022045e-04 -7.322086682848293e-05  3.321036639535449e-19
 7.149725406605741e-04  8.530963039559905e-03 -1.093322886623214e-19
 9.778255233738336e-03 -5.356726247597844e-03  5.047513862210635e-19
 5.984914971563112e-03 -1.394594976694920e-03  4.135961440372152e-19
 5.173107396379419e-03 -1.991410333437544e-03  4.028277269211172e-19
6.950095588682644e-03 1.050262193866165e-03 3.916011732621230e-19
 8.927650961412202e-03 -4.261002197068718e-03  4.706640626694986e-19
 5.509315625483143e-03 -3.764504146757069e-03  3.966456164459750e-19
3.852554097184812e-04 3.252798770363438e-03 2.137126423364647e-20
1.040543171692804e-02 8.285521682332708e-03 2.597513586986329e-19
 9.054560597666114e-04 -1.148889393928312e-02  1.989069580112114e-19
 4.154328316472932e-03 -9.545762888029496e-05  3.417615483527459e-19
4.857677507827020e-03 5.396748919641583e-04 3.531641156290259e-19
5.134201229427929e-03 1.564383304240414e-03 3.221635061825517e-19
9.421428350292579e-03 2.870694886054799e-03 3.592856041729463e-19
-2.864268179488341e-03 -6.565589426355778e-03 -8.365596611103103e-20
-1.617687869442807e-04 -5.255396669311190e-06  2.725542202499307e-19
3.066757199432463e-03 9.979494922278474e-04 3.072173889737428e-19
3.011284461221278e-03 7.782204623203465e-03 5.950092282915845e-20
 8.313924596261974e-03 -1.778196029018823e-03  4.024010893195434e-19
 2.222898588191949e-03 -2.490908598230307e-03  2.268178294183104e-19
8.795850651624820e-04 4.613450119799860e-04 2.572622053322552e-19
5.710867545379673e-03 2.437041369704547e-03 3.066739275256960e-19
 6.203726093170994e-03 -2.540866181161960e-03  3.606249414768718e-19
 5.170281199101556e-03 -1.042511378799901e-03  3.486475260945529e-19
 6.671784790428232e-03 -8.751728591133633e-04  3.793153951529847e-19
 6.859910375355631e-03 -3.228065866830158e-03  3.851054482066344e-19
 8.138099222656073e-03 -2.585667204691588e-03  4.226253547815415e-19
 5.716709487793528e-03 -4.896211792164925e-03  3.635475947536539e-19
2.187842249199812e-03 7.249906762261547e-03 7.388070687739096e-20
1.495973699510148e-02 2.230937094781012e-03 5.268577263846434e-19
 3.885970066646947e-03 -8.143090490884703e-03  2.672985638267814e-19
6.486480303005102e-03 5.036841276753782e-03 3.200210323938329e-19
1.515236585215514e-02 1.214617973098394e-03 5.332738284760388e-19
 3.944489674414802e-03 -7.021017431458062e-03  2.770638709670646e-19
5.655546856625285e-03 5.221658110995948e-03 2.896775074475635e-19
1.400002817594516e-02 1.263158863174493e-03 5.096640437839057e-19
 3.328145586724447e-05 -5.999310815534065e-03  3.840131348817551e-20
4.354116959056784e-03 3.633118061164112e-03 2.816936072949486e-19
9.389404911337261e-03 1.741837982282360e-03 3.958374519873207e-19
8.609331800569371e-03 3.933711272248877e-04 3.964947892384803e-19
 7.136607445302471e-03 -3.008178048299862e-04  3.818416450072891e-19
 5.154153766022250e-03 -3.257516227013093e-04  3.528873845627661e-19
4.925002639048380e-03 1.897870677694429e-03 3.102755541104127e-19
7.458589092293203e-03 3.899298620667965e-03 2.953471139307340e-19
 6.843689889941340e-03 -2.839063633838517e-03  3.573417115182700e-19
 4.827135119478619e-03 -7.553751898334735e-04  3.273313032875137e-19
6.686202058031509e-03 7.434907248911170e-04 3.526484040948598e-19
 3.636753743089953e-03 -3.786931789894206e-03  2.500872470633245e-19
4.284299294993447e-03 2.713813175679073e-03 2.722785366507226e-19
 7.446261862396411e-03 -5.387065384757519e-04  3.724330432473817e-19
 6.787404080077806e-03 -1.448049515250171e-03  3.644582313956534e-19
 6.716559191374729e-03 -4.277377268879524e-04  3.660759638900195e-19
 5.246298636575917e-03 -5.269656741593966e-04  3.440366137829614e-19
4.776607135683069e-03 1.632040097059555e-03 3.103067120007242e-19
7.217682464050567e-03 4.082049567402796e-03 2.846714384418004e-19
 7.156365734413590e-03 -3.459449958364080e-03  3.564408008668729e-19
 5.798548394782818e-03 -2.770460842951801e-03  3.493672469378306e-19
 7.559051337090216e-03 -2.840035011742832e-03  3.719247584028125e-19
 5.828177152681721e-03 -4.478423377541675e-03  3.761639006597069e-19
2.295580982849601e-03 7.860734064638924e-03 8.327610601494943e-20
1.591151031160019e-02 2.824207499353503e-03 2.333577929923211e-19
 3.953321858204870e-03 -8.391027107780037e-03 -2.227432379968270e-19
6.349826957656840e-03 4.987680211331953e-03 2.243908369450737e-19
1.516398578306542e-02 1.455918871104817e-03 3.722445221495181e-18
 3.900487271019700e-03 -6.902883497229137e-03 -9.753355597644526e-19
5.504788006462882e-03 5.165627275899608e-03 9.626078919911472e-20
1.416513508122984e-02 1.588592872659982e-03 5.045373903351151e-19
 1.409808128073799e-04 -5.996303537202766e-03  1.608941393257718e-20
4.147372579356712e-03 3.516780889078346e-03 2.044206818905481e-19
9.213573131235478e-03 1.737578264022496e-03 3.263024488266097e-19
8.461673304744231e-03 4.489225688902819e-04 1.234600092683850e-19
 6.801336811809285e-03 -4.515471308709190e-04  4.890611555037939e-19
 4.732883514934465e-03 -1.879231563578277e-04  2.139792805783662e-18
4.457075720574221e-03 1.642756885328432e-03 1.991583568645496e-18
 6.957538507617347e-03  4.001981166385281e-03 -1.062224984903901e-18
 6.964392229264774e-03 -3.312842257709725e-03 -1.997814969976081e-19
 5.623005637752460e-03 -2.754480342042910e-03  3.794716438549008e-19
 7.318544938657484e-03 -2.953406334982158e-03  4.759123686922997e-19
 5.729782414942143e-03 -4.419048382466032e-03  1.195481122890501e-19
2.396126403602755e-03 7.881012816631885e-03 1.250738775040382e-21
1.608361047098395e-02 2.927388925491951e-03 2.804246910682148e-19
 3.932213738674063e-03 -8.443875114061953e-03 -2.203086397911815e-20
6.322767713897472e-03 4.965999893594527e-03 8.288142583870271e-20
1.518251114362414e-02 1.573411378400606e-03 1.372551476148326e-18
 3.870962158565274e-03 -6.901714856144020e-03  1.186433240777445e-19
5.492246165004269e-03 5.149803525933178e-03 2.455620071958870e-19
1.425090204156016e-02 1.689786246195770e-03 4.738589560734203e-19
 2.269030669246131e-04 -5.999714264653544e-03  3.581911811073304e-20
4.078413028621344e-03 3.503502747873859e-03 2.797691805372818e-19
9.209940667764878e-03 1.783109100706201e-03 3.837213096418936e-19
8.478817208593911e-03 5.079120122663330e-04 3.818072558191041e-19
 6.788916857575721e-03 -4.707042378115913e-04  3.631091707897298e-19
 4.695372278609060e-03 -1.820414703116863e-04  3.329830496519950e-19
4.428765921239100e-03 1.640603476620531e-03 3.021829810200837e-19
6.937698546140819e-03 4.011736694099948e-03 2.793727617178769e-19
 6.949407087207145e-03 -3.314522737848480e-03  3.416651060330901e-19
 5.596930878992368e-03 -2.732969992663584e-03  3.217348380692022e-19
 7.297534651050163e-03 -2.923462852370402e-03  3.738550036025357e-19
 5.752588975219974e-03 -4.404344267064264e-03  3.381290834055417e-19
2.362603457925363e-03 7.913242664514930e-03 8.868223026435430e-20
1.606656119885696e-02 2.954337605319922e-03 5.173867225981262e-19
 3.918792463458635e-03 -8.447435685049281e-03  2.361188412939601e-19
6.324085595762336e-03 4.964236687702036e-03 3.146178990227213e-19
1.518350090063648e-02 1.579241546643490e-03 5.089714397099355e-19
 3.873170090576739e-03 -6.897064090330797e-03  2.433193807171349e-19
5.483518387867833e-03 5.148063271878086e-03 2.876341700168557e-19
1.424194206880132e-02 1.693404520934361e-03 4.911262342975540e-19
 2.140257172277322e-04 -6.000169714661999e-03  2.594781543630284e-20
4.080319752448015e-03 3.498918207309931e-03 2.798399771057708e-19
9.196649898383690e-03 1.783506762878671e-03 3.787074009441459e-19
8.472157230206289e-03 5.002281676925906e-04 3.771162060123606e-19
 6.778918467173449e-03 -4.745059132253991e-04  3.594589933172493e-19
 4.685740038299566e-03 -1.820951634605807e-04  3.295698459531658e-19
4.424191846334762e-03 1.639323279699773e-03 3.001510767004544e-19
6.937669372285755e-03 4.001760909431484e-03 2.780905975463847e-19
 6.943870247228331e-03 -3.314560995932647e-03  3.372798318659891e-19
 5.602879246258193e-03 -2.744576663508297e-03  3.176638689526210e-19
 7.291990347662630e-03 -2.960772321260548e-03  3.694911106075893e-19
 5.728662851088670e-03 -4.407416232279527e-03  3.332921152729444e-19
2.389165521248614e-03 7.893781365509726e-03 9.233149499933784e-20
1.609268479512374e-02 2.935029459507602e-03 5.153636663237330e-19
 3.928056401634777e-03 -8.444776192147421e-03  2.330950942258703e-19
6.317397754907451e-03 4.963418754855542e-03 3.137891021038026e-19
1.518516652473965e-02 1.589113864311738e-03 5.065335814559043e-19
 3.873840186371613e-03 -6.895518359328473e-03  2.398582814939262e-19
5.473585509465750e-03 5.142244759293656e-03 2.870484866524781e-19
1.420325382484720e-02 1.685175606304812e-03 4.876071548266620e-19
 1.730419766539121e-04 -5.998388339591945e-03  2.080867739337197e-20
4.097005469479770e-03 3.490606068434401e-03 2.782595474888896e-19
9.191135562311886e-03 1.745012037940526e-03 3.781203341135304e-19
8.424716821256961e-03 4.152396238126797e-04 3.811614265450149e-19
 6.758951835446982e-03 -4.535573907659362e-04  3.628252343582308e-19
 4.769140428278795e-03 -1.497268701156933e-04  2.996320279510040e-19
4.496937995406541e-03 1.583317959243829e-03 2.011299679629255e-19
6.897862194842225e-03 3.951422645202872e-03 3.101812834805088e-19
 6.990172308793250e-03 -3.228918262001956e-03 -1.657109632957345e-19
 5.654831127416839e-03 -2.822576067777097e-03 -8.946500081847189e-19
 7.327901073977400e-03 -3.036537682909790e-03 -8.621387315482354e-19
 5.606275809713485e-03 -4.462303196742081e-03 -1.124638616907795e-18
2.580882697300496e-03 7.752550468915565e-03 2.371934014045748e-19
 1.615559540998318e-02  2.974427479699084e-03 -5.250539038596347e-19
 3.946963065226572e-03 -8.438856571386282e-03  2.293993799050935e-19
6.287755779589777e-03 4.967242873267145e-03 3.635074722218464e-19
1.518397045659588e-02 1.588995935147232e-03 3.569036606506372e-19
 3.885609950998275e-03 -6.881974207969754e-03  2.114231676825895e-19
5.464651372402707e-03 5.153496586632409e-03 2.920893161474768e-19
1.424094534416537e-02 1.693329524906197e-03 4.809673414511631e-19
 2.089652547766804e-04 -6.001867233605822e-03  1.674710923882442e-20
4.080358940542762e-03 3.495700772132073e-03 2.778027386462086e-19
9.189005923616199e-03 1.767175912336676e-03 3.526560285491483e-19
8.451040560107450e-03 4.973404413397388e-04 3.756404935073496e-19
 6.773343495332257e-03 -4.685930721452886e-04  3.222149037709701e-19
 4.712380196934257e-03 -1.753841349811684e-04  5.715092614367762e-19
 4.442907068704873e-03  1.613468057264257e-03 -1.880609921226204e-19
6.913852354572076e-03 3.980261616723883e-03 7.310764917570021e-19
 6.962877311651331e-03 -3.282475615313855e-03  3.702285479455431e-19
 5.626312386185986e-03 -2.782688508018490e-03  2.560652533220144e-19
 7.306917182363364e-03 -3.004359802723506e-03  3.644765617029227e-19
 5.670037607758184e-03 -4.430171262596206e-03  4.106121614991793e-19
2.471720194477638e-03 7.827035997101196e-03 1.163477823806093e-19
1.612631603063087e-02 2.930114845790520e-03 2.459781355918902e-19
 3.954881715013918e-03 -8.429014096602244e-03 -9.056644727694123e-20
6.296158546826974e-03 4.974429875901445e-03 1.689509421812988e-18
 1.518962812746533e-02  1.583158214831592e-03 -3.936377452920736e-19
 3.890618318247699e-03 -6.889020892130135e-03  1.095443467004590e-19
5.472004759974290e-03 5.157482414623190e-03 1.475803341565351e-19
1.423339129174742e-02 1.686477503855731e-03 5.056696931773324e-19
 1.983712650024515e-04 -6.005581045052001e-03 -2.293284521617444e-22
4.090875317155199e-03 3.499498575221362e-03 2.734830132480889e-19
9.187760034031022e-03 1.773076727099932e-03 3.749277412757323e-19
8.462102248384399e-03 5.059526323145029e-04 3.736241994051354e-19
 6.779892800380835e-03 -4.683619429117473e-04  3.526415757645774e-19
 4.679701103984399e-03 -1.890244685309480e-04  3.231917806263969e-19
4.417057707336650e-03 1.646267365345913e-03 2.997089059210174e-19
6.948136883869145e-03 4.010455570407054e-03 2.807629556845991e-19
 6.940130953311527e-03 -3.333173096315441e-03  3.023637907369462e-19
 5.601967097060678e-03 -2.736619686035415e-03  3.591099109064441e-19
 7.297989469552887e-03 -2.957607547373058e-03  2.968810473196438e-19
 5.746367693032365e-03 -4.405057537477076e-03  6.862016591938811e-19
2.366970843822102e-03 7.911904014935110e-03 1.005473922750121e-19
1.609041907782827e-02 2.912181232576254e-03 7.749264680108358e-19
 3.917435819980860e-03 -8.459282037817310e-03  9.340369494059207e-20
6.335433655039289e-03 4.953014321035687e-03 3.252071425770640e-19
1.517208605700019e-02 1.593743076519613e-03 5.914982033220734e-19
 3.864209672384481e-03 -6.902983988987555e-03  2.639967871404395e-19
5.493256651123937e-03 5.147487312293415e-03 2.592394943541673e-19
1.423428251999473e-02 1.665080576628114e-03 4.697569948233926e-19
 2.242105931278267e-04 -5.982669338282753e-03  2.048239845640229e-20
4.074710759382232e-03 3.502774052966731e-03 2.793482063229654e-19
9.197039267682731e-03 1.769964327105838e-03 3.815995825927553e-19
8.480788275140651e-03 5.917740381982124e-04 3.983468112014816e-19
 6.814590761742423e-03 -4.784383376753972e-04  3.256626222151433e-19
 4.720781236488317e-03 -2.087465969834481e-04  3.337607480831687e-19
4.417204770048826e-03 1.606265377085426e-03 4.441423977428248e-19
6.899610955204060e-03 4.035175763299816e-03 3.902830820871566e-20
 6.999898479922604e-03 -3.347110027768105e-03 -4.171398479189297e-19
 5.642248493200558e-03 -2.783594610531889e-03  4.915082521839961e-19
 7.347148951072744e-03 -3.005523921192248e-03 -2.497640506533597e-20
 5.667743981065853e-03 -4.434143785980972e-03  5.843687050183861e-19
2.475484157244508e-03 7.769381609360421e-03 9.710174788446989e-20
1.605970504956563e-02 2.897328534440694e-03 5.868811146864492e-19
 3.947351745685355e-03 -8.413263670037989e-03  2.459627275564352e-19
6.292270608111404e-03 4.940944174334706e-03 2.520784852941303e-19
1.505948376100326e-02 1.516271732902185e-03 3.871977265266579e-19
 3.870307255713825e-03 -6.847886517473355e-03  4.577870363242646e-19
 5.467495721257150e-03  5.116952553227113e-03 -2.634872450576189e-19
 1.404998387203324e-02  7.651213931882952e-04 -1.953127427474078e-19
-1.687583623132893e-03 -7.948925312824394e-03 -2.504346264595096e-19
5.769652303401624e-03 2.388759604817169e-03 6.140077213473934e-19
7.075941340056163e-03 1.576695050778290e-03 6.424773601518283e-19
5.716922711883014e-03 3.123878220768645e-03 1.019013740333810e-19
6.911134144362553e-03 9.109836542708164e-03 1.984768236202020e-19
 6.211723512347128e-03 -6.044205545248843e-03  2.456209119170288e-19
5.230102146065149e-03 4.472687878730096e-04 2.703150188274094e-19
 9.609458135818280e-03 -1.056387289010312e-03  4.158792416231003e-19
 2.685157138598137e-03 -5.765126190017872e-03  1.641143764507384e-19
4.612448953647070e-03 3.069777018242589e-03 3.044352714351336e-19
8.827619794954425e-03 6.898150888341217e-04 3.827941597181900e-19
7.624667539096694e-03 9.406239877063302e-03 1.854719265537362e-19
 7.302914859094014e-03 -6.779769921333192e-03  3.416351814145753e-19
7.794506770358945e-03 1.280633756768763e-03 3.717123132076494e-19
6.127844900662620e-03 3.825989761716528e-03 2.802388181336678e-19
5.956218664024058e-03 1.903958450125426e-03 2.812060260217975e-19
 3.765338718361038e-03 -7.253451324503923e-04  3.736498831407214e-19
2.741769651470877e-04 3.474202998918343e-03 8.231596643893614e-20
 5.530178997690172e-03  8.471641400415653e-05 -1.006491185997941e-19
 5.638078784507554e-03 -1.815709452432810e-03  8.640391474044478e-20
 8.806525587700334e-03 -2.804354713628406e-03  4.979376979402095e-19
 3.765052799702923e-03 -5.157666689527223e-03  2.063574235605431e-19
1.682155555559533e-03 3.044042654450384e-03 1.915659922794691e-19
8.482923372020251e-03 4.984686441731308e-03 3.050975877937349e-19
8.089820674402955e-03 1.784599731043483e-03 3.278630347841816e-19
4.615959733676033e-03 1.316936265604748e-03 2.682917677032770e-19
4.072366102308606e-03 5.429405066900370e-03 1.481802747570232e-19
 4.749376661089112e-03 -1.253398911128641e-03  2.512814089265709e-19
5.187486051540201e-03 4.610261145520816e-03 1.843322836290847e-19
 2.122622275744797e-03 -5.154184351295328e-03  1.171904216310009e-19
4.511071621768279e-03 1.844091785099405e-03 2.560334059031822e-19
 2.299175341026800e-03 -5.463774294125767e-03  1.183022666459688e-19
4.626762723764151e-03 1.328948410287153e-03 2.849599511560862e-19
9.161989502840452e-03 1.798207389181832e-03 3.288440095405518e-19
 1.484982048273426e-03 -7.160630956384239e-03  9.657282498910365e-20
4.460598227107164e-03 3.725960399058321e-04 2.889604688258323e-19
 8.661379069120814e-03 -2.704883185860044e-04  3.622068431593649e-19
 7.792621879335576e-03 -3.552696893627643e-03  3.486402865845939e-19
 8.955639930177492e-03 -4.493798839731471e-04  3.830243723965189e-19
7.832323051836669e-03 1.097834933054541e-03 3.522431001935620e-19
5.945571559286841e-03 3.256579085169029e-03 2.926489028208645e-19
7.144222729733754e-03 3.478308226924153e-03 3.140376799739069e-19
7.914589765773977e-03 2.704772284679452e-03 3.622315534405632e-19
7.095287906075443e-03 1.735673588772620e-03 3.430555788287858e-19
 5.869398813300175e-03  8.739098178172140e-04 -3.649261199584908e-20
5.934570385280469e-03 7.917109687917569e-04 2.012336622224360e-18
 4.947816538339733e-03 -1.848325670330568e-04  8.336774208562088e-19
4.798475837025203e-03 1.490034824286909e-03 2.421038680216471e-19
 4.891746548858091e-03 -6.683076633662111e-05  3.097909063103389e-19
4.842865871695367e-03 4.983950171493288e-04 2.659424008368561e-19
 5.250065417773037e-03 -2.096670409428559e-03  2.685527138747667e-19
7.135459243185679e-03 1.463642420227892e-03 3.118833077774845e-19
-3.077984221474753e-03 -6.878441333126309e-03 -1.043529555538064e-19
6.258052266456268e-03 3.642955139258840e-04 2.410854943800075e-19
 4.621358623401236e-03 -5.429640736967670e-03  5.387362473004634e-19
6.456270536371681e-03 1.586956251527137e-04 2.492244339127812e-19
7.273262729120918e-03 2.684090640517582e-03 3.300741416982450e-19
 8.222126046436283e-03 -3.157419111853028e-03  3.336609729656524e-19
 5.726921683815947e-03 -1.972107147874737e-03  3.045168650381256e-19
3.919947485241368e-03 7.236848772375490e-04 2.877458776750284e-19
5.603664281457121e-03 7.625809420497512e-03 1.398119548021841e-19
 4.707448556487803e-03 -7.088374184296837e-03  2.304565137427931e-19
6.573805416417009e-03 1.928347917568026e-04 3.232511647782571e-19
 6.230910428341793e-03 -3.164623480138749e-03  3.082859447610913e-19
5.348814990602752e-03 1.767769560049934e-03 3.055237865480535e-19
5.772154936741659e-03 5.056183024838134e-03 2.133418301795713e-19

VECTORS velocity double
0.000000000000000e+00 0.000000000000000e+00 0.000000000000000e+00
0.000000000000000e+00 0.000000000000000e+00 0.000000000000000e+00
0.000000000000000e+00 0.000000000000000e+00 0.000000000000000e+00
0.000000000000000e+00 0.000000000000000e+00 0.000000000000000e+00
0.000000000000000e+00 0.000000000000000e+00 0.000000000000000e+00
0.000000000000000e+00 0.000000000000000e+00 0.000000000000000e+00
0.000000000000000e+00 0.000000000000000e+00 0.000000000000000e+00
0.000000000000000e+00 0.000000000000000e+00 0.000000000000000e+00
0.000000000000000e+00 0.000000000000000e+00 0.000000000000000e+00
0.000000000000000e+00 0.000000000000000e+00 0.000000000000000e+00
0.000000000000000e+00 0.000000000000000e+00 0.000000000000000e+00
0.000000000000000e+00 0.000000000000000e+00 0.000000000000000e+00
0.000000000000000e+00 0.000000000000000e+00 0.000000000000000e+00
0.000000000000000e+00 0.000000000000000e+00 0.000000000000000e+00
0.000000000000000e+00 0.000000000000000e+00 0.000000000000000e+00
0.000000000000000e+00 0.000000000000000e+00 0.000000000000000e+00
0.000000000000000e+00 0.000000000000000e+00 0.000000000000000e+00
0.000000000000000e+00 0.000000000000000e+00 0.000000000000000e+00
0.000000000000000e+00 0.000000000000000e+00 0.000000000000000e+00
0.000000000000000e+00 0.000000000000000e+00 0.000000000000000e+00
0.000000000000000e+00 0.000000000000000e+00 0.000000000000000e+00
0.000000000000000e+00 0.000000000000000e+00 0.000000000000000e+00
0.000000000000000e+00 0.000000000000000e+00 0.000000000000000e+00
0.000000000000000e+00 0.000000000000000e+00 0.000000000000000e+00
0.000000000000000e+00 0.000000000000000e+00 0.000000000000000e+00
0.000000000000000e+00 0.000000000000000e+00 0.000000000000000e+00
0.000000000000000e+00 0.000000000000000e+00 0.000000000000000e+00
0.000000000000000e+00 0.000000000000000e+00 0.000000000000000e+00
0.000000000000000e+00 0.000000000000000e+00 0.000000000000000e+00
0.000000000000000e+00 0.000000000000000e+00 0.000000000000000e+00
0.000000000000000e+00 0.000000000000000e+00 0.000000000000000e+00
0.000000000000000e+00 0.000000000000000e+00 0.000000000000000e+00
0.000000000000000e+00 0.000000000000000e+00 0.000000000000000e+00
0.000000000000000e+00 0.000000000000000e+00 0.000000000000000e+00
0.000000000000000e+00 0.000000000000000e+00 0.000000000000000e+00
0.000000000000000e+00 0.000000000000000e+00 0.000000000000000e+00
0.000000000000000e+00 0.000000000000000e+00 0.000000000000000e+00
0.000000000000000e+00 0.000000000000000e+00 0.000000000000000e+00
0.000000000000000e+00 0.000000000000000e+00 0.000000000000000e+00
0.000000000000000e+00 0.000000000000000e+00 0.000000000000000e+00
0.000000000000000e+00 0.000000000000000e+00 0.000000000000000e+00
0.000000000000000e+00 0.000000000000000e+00 0.000000000000000e+00
0.000000000000000e+00 0.000000000000000e+00 0.000000000000000e+00
0.000000000000000e+00 0.000000000000000e+00 0.000000000000000e+00
0.000000000000000e+00 0.000000000000000e+00 0.000000000000000e+00
0.000000000000000e+00 0.000000000000000e+00 0.000000000000000e+00
0.000000000000000e+00 0.000000000000000e+00 0.000000000000000e+00
0.000000000000000e+00 0.000000000000000e+00 0.000000000000000e+00
0.000000000000000e+00 0.000000000000000e+00 0.000000000000000e+00
0.000000000000000e+00 0.000000000000000e+00 0.000000000000000e+00
0.000000000000000e+00 0.000000000000000e+00 0.000000000000000e+00
0.000000000000000e+00 0.000000000000000e+00 0.000000000000000e+00
0.000000000000000e+00 0.000000000000000e+00 0.000000000000000e+00
0.000000000000000e+00 0.000000000000000e+00 0.000000000000000e+00
0.000000000000000e+00 0.000000000000000e+00 0.000000000000000e+00
0.000000000000000e+00 0.000000000000000e+00 0.000000000000000e+00
0.000000000000000e+00 0.000000000000000e+00 0.000000000000000e+00
0.000000000000000e+00 0.000000000000000e+00 0.000000000000000e+00
0.000000000000000e+00 0.000000000000000e+00 0.000000000000000e+00
0.000000000000000e+00 0.000000000000000e+00 0.000000000000000e+00
0.000000000000000e+00 0.000000000000000e+00 0.000000000000000e+00
0.000000000000000e+00 0.000000000000000e+00 0.000000000000000e+00
0.000000000000000e+00 0.000000000000000e+00 0.000000000000000e+00
0.000000000000000e+00 0.000000000000000e+00 0.000000000000000e+00
0.000000000000000e+00 0.000000000000000e+00 0.000000000000000e+00
0.000000000000000e+00 0.000000000000000e+00 0.000000000000000e+00
0.000000000000000e+00 0.000000000000000e+00 0.000000000000000e+00
0.000000000000000e+00 0.000000000000000e+00 0.000000000000000e+00
0.000000000000000e+00 0.000000000000000e+00 0.000000000000000e+00
0.000000000000000e+00 0.000000000000000e+00 0.000000000000000e+00
0.000000000000000e+00 0.000000000000000e+00 0.000000000000000e+00
0.000000000000000e+00 0.000000000000000e+00 0.000000000000000e+00
0.000000000000000e+00 0.000000000000000e+00 0.000000000000000e+00
0.000000000000000e+00 0.000000000000000e+00 0.000000000000000e+00
0.000000000000000e+00 0.000000000000000e+00 0.000000000000000e+00
0.000000000000000e+00 0.000000000000000e+00 0.000000000000000e+00
0.000000000000000e+00 0.000000000000000e+00 0.000000000000000e+00
0.000000000000000e+00 0.000000000000000e+00 0.000000000000000e+00
0.000000000000000e+00 0.000000000000000e+00 0.000000000000000e+00
0.000000000000000e+00 0.000000000000000e+00 0.000000000000000e+00
0.000000000000000e+00 0.000000000000000e+00 0.000000000000000e+00
0.000000000000000e+00 0.000000000000000e+00 0.000000000000000e+00
0.000000000000000e+00 0.000000000000000e+00 0.000000000000000e+00
0.000000000000000e+00 0.000000000000000e+00 0.000000000000000e+00
0.000000000000000e+00 0.000000000000000e+00 0.000000000000000e+00
0.000000000000000e+00 0.000000000000000e+00 0.000000000000000e+00
0.000000000000000e+00 0.000000000000000e+00 0.000000000000000e+00
0.000000000000000e+00 0.000000000000000e+00 0.000000000000000e+00
0.000000000000000e+00 0.000000000000000e+00 0.000000000000000e+00
0.000000000000000e+00 0.000000000000000e+00 0.000000000000000e+00
0.000000000000000e+00 0.000000000000000e+00 0.000000000000000e+00
0.000000000000000e+00 0.000000000000000e+00 0.000000000000000e+00
0.000000000000000e+00 0.000000000000000e+00 0.000000000000000e+00
0.000000000000000e+00 0.000000000000000e+00 0.000000000000000e+00
0.000000000000000e+00 0.000000000000000e+00 0.000000000000000e+00
0.000000000000000e+00 0.000000000000000e+00 0.000000000000000e+00
0.000000000000000e+00 0.000000000000000e+00 0.000000000000000e+00
0.000000000000000e+00 0.000000000000000e+00 0.000000000000000e+00
0.000000000000000e+00 0.000000000000000e+00 0.000000000000000e+00
0.000000000000000e+00 0.000000000000000e+00 0.000000000000000e+00
0.000000000000000e+00 0.000000000000000e+00 0.000000000000000e+00
0.000000000000000e+00 0.000000000000000e+00 0.000000000000000e+00
0.000000000000000e+00 0.000000000000000e+00 0.000000000000000e+00
0.000000000000000e+00 0.000000000000000e+00 0.000000000000000e+00
0.000000000000000e+00 0.000000000000000e+00 0.000000000000000e+00
0.000000000000000e+00 0.000000000000000e+00 0.000000000000000e+00
0.000000000000000e+00 0.000000000000000e+00 0.000000000000000e+00
0.000000000000000e+00 0.000000000000000e+00 0.000000000000000e+00
0.000000000000000e+00 0.000000000000000e+00 0.000000000000000e+00
0.000000000000000e+00 0.000000000000000e+00 0.000000000000000e+00
0.000000000000000e+00 0.000000000000000e+00 0.000000000000000e+00
0.000000000000000e+00 0.000000000000000e+00 0.000000000000000e+00
0.000000000000000e+00 0.000000000000000e+00 0.000000000000000e+00
0.000000000000000e+00 0.000000000000000e+00 0.000000000000000e+00
0.000000000000000e+00 0.000000000000000e+00 0.000000000000000e+00
0.000000000000000e+00 0.000000000000000e+00 0.000000000000000e+00
0.000000000000000e+00 0.000000000000000e+00 0.000000000000000e+00
0.000000000000000e+00 0.000000000000000e+00 0.000000000000000e+00
0.000000000000000e+00 0.000000000000000e+00 0.000000000000000e+00
0.000000000000000e+00 0.000000000000000e+00 0.000000000000000e+00
0.000000000000000e+00 0.000000000000000e+00 0.000000000000000e+00
0.000000000000000e+00 0.000000000000000e+00 0.000000000000000e+00
0.000000000000000e+00 0.000000000000000e+00 0.000000000000000e+00
0.000000000000000e+00 0.000000000000000e+00 0.000000000000000e+00
0.000000000000000e+00 0.000000000000000e+00 0.000000000000000e+00
0.000000000000000e+00 0.000000000000000e+00 0.000000000000000e+00
0.000000000000000e+00 0.000000000000000e+00 0.000000000000000e+00
0.000000000000000e+00 0.000000000000000e+00 0.000000000000000e+00
0.000000000000000e+00 0.000000000000000e+00 0.000000000000000e+00
0.000000000000000e+00 0.000000000000000e+00 0.000000000000000e+00
0.000000000000000e+00 0.000000000000000e+00 0.000000000000000e+00
0.000000000000000e+00 0.000000000000000e+00 0.000000000000000e+00
0.000000000000000e+00 0.000000000000000e+00 0.000000000000000e+00
0.000000000000000e+00 0.000000000000000e+00 0.000000000000000e+00
0.000000000000000e+00 0.000000000000000e+00 0.000000000000000e+00
0.000000000000000e+00 0.000000000000000e+00 0.000000000000000e+00
0.000000000000000e+00 0.000000000000000e+00 0.000000000000000e+00
0.000000000000000e+00 0.000000000000000e+00 0.000000000000000e+00
0.000000000000000e+00 0.000000000000000e+00 0.000000000000000e+00
0.000000000000000e+00 0.000000000000000e+00 0.000000000000000e+00
0.000000000000000e+00 0.000000000000000e+00 0.000000000000000e+00
0.000000000000000e+00 0.000000000000000e+00 0.000000000000000e+00
0.000000000000000e+00 0.000000000000000e+00 0.000000000000000e+00
0.000000000000000e+00 0.000000000000000e+00 0.000000000000000e+00
0.000000000000000e+00 0.000000000000000e+00 0.000000000000000e+00
0.000000000000000e+00 0.000000000000000e+00 0.000000000000000e+00
0.000000000000000e+00 0.000000000000000e+00 0.000000000000000e+00
0.000000000000000e+00 0.000000000000000e+00 0.000000000000000e+00
0.000000000000000e+00 0.000000000000000e+00 0.000000000000000e+00
0.000000000000000e+00 0.000000000000000e+00 0.000000000000000e+00
0.000000000000000e+00 0.000000000000000e+00 0.000000000000000e+00
0.000000000000000e+00 0.000000000000000e+00 0.000000000000000e+00
0.000000000000000e+00 0.000000000000000e+00 0.000000000000000e+00
0.000000000000000e+00 0.000000000000000e+00 0.000000000000000e+00
0.000000000000000e+00 0.000000000000000e+00 0.000000000000000e+00
0.000000000000000e+00 0.000000000000000e+00 0.000000000000000e+00
0.000000000000000e+00 0.000000000000000e+00 0.000000000000000e+00
0.000000000000000e+00 0.000000000000000e+00 0.000000000000000e+00
0.000000000000000e+00 0.000000000000000e+00 0.000000000000000e+00
0.000000000000000e+00 0.000000000000000e+00 0.000000000000000e+00
0.000000000000000e+00 0.000000000000000e+00 0.000000000000000e+00
0.000000000000000e+00 0.000000000000000e+00 0.000000000000000e+00
0.000000000000000e+00 0.000000000000000e+00 0.000000000000000e+00
0.000000000000000e+00 0.000000000000000e+00 0.000000000000000e+00
0.000000000000000e+00 0.000000000000000e+00 0.000000000000000e+00
0.000000000000000e+00 0.000000000000000e+00 0.000000000000000e+00
0.000000000000000e+00 0.000000000000000e+00 0.000000000000000e+00
0.000000000000000e+00 0.000000000000000e+00 0.000000000000000e+00
0.000000000000000e+00 0.000000000000000e+00 0.000000000000000e+00
0.000000000000000e+00 0.000000000000000e+00 0.000000000000000e+00
0.000000000000000e+00 0.000000000000000e+00 0.000000000000000e+00
0.000000000000000e+00 0.000000000000000e+00 0.000000000000000e+00
0.000000000000000e+00 0.000000000000000e+00 0.000000000000000e+00
0.000000000000000e+00 0.000000000000000e+00 0.000000000000000e+00
0.000000000000000e+00 0.000000000000000e+00 0.000000000000000e+00
0.000000000000000e+00 0.000000000000000e+00 0.000000000000000e+00
0.000000000000000e+00 0.000000000000000e+00 0.000000000000000e+00
0.000000000000000e+00 0.000000000000000e+00 0.000000000000000e+00
0.000000000000000e+00 0.000000000000000e+00 0.000000000000000e+00
0.000000000000000e+00 0.000000000000000e+00 0.000000000000000e+00
0.000000000000000e+00 0.000000000000000e+00 0.000000000000000e+00
0.000000000000000e+00 0.000000000000000e+00 0.000000000000000e+00
0.000000000000000e+00 0.000000000000000e+00 0.000000000000000e+00
0.000000000000000e+00 0.000000000000000e+00 0.000000000000000e+00
0.000000000000000e+00 0.000000000000000e+00 0.000000000000000e+00
0.000000000000000e+00 0.000000000000000e+00 0.000000000000000e+00
0.000000000000000e+00 0.000000000000000e+00 0.000000000000000e+00
0.000000000000000e+00 0.000000000000000e+00 0.000000000000000e+00
0.000000000000000e+00 0.000000000000000e+00 0.000000000000000e+00
0.000000000000000e+00 0.000000000000000e+00 0.000000000000000e+00
0.000000000000000e+00 0.000000000000000e+00 0.000000000000000e+00
0.000000000000000e+00 0.000000000000000e+00 0.000000000000000e+00
0.000000000000000e+00 0.000000000000000e+00 0.000000000000000e+00
0.000000000000000e+00 0.000000000000000e+00 0.000000000000000e+00
0.000000000000000e+00 0.000000000000000e+00 0.000000000000000e+00
0.000000000000000e+00 0.000000000000000e+00 0.000000000000000e+00
0.000000000000000e+00 0.000000000000000e+00 0.000000000000000e+00
0.000000000000000e+00 0.000000000000000e+00 0.000000000000000e+00
0.000000000000000e+00 0.000000000000000e+00 0.000000000000000e+00
0.000000000000000e+00 0.000000000000000e+00 0.000000000000000e+00
0.000000000000000e+00 0.000000000000000e+00 0.000000000000000e+00
0.000000000000000e+00 0.000000000000000e+00 0.000000000000000e+00
0.000000000000000e+00 0.000000000000000e+00 0.000000000000000e+00
0.000000000000000e+00 0.000000000000000e+00 0.000000000000000e+00
0.000000000000000e+00 0.000000000000000e+00 0.000000000000000e+00
0.000000000000000e+00 0.000000000000000e+00 0.000000000000000e+00
0.000000000000000e+00 0.000000000000000e+00 0.000000000000000e+00
0.000000000000000e+00 0.000000000000000e+00 0.000000000000000e+00
0.000000000000000e+00 0.000000000000000e+00 0.000000000000000e+00
0.000000000000000e+00 0.000000000000000e+00 0.000000000000000e+00
0.000000000000000e+00 0.000000000000000e+00 0.000000000000000e+00
0.000000000000000e+00 0.000000000000000e+00 0.000000000000000e+00
0.000000000000000e+00 0.000000000000000e+00 0.000000000000000e+00
0.000000000000000e+00 0.000000000000000e+00 0.000000000000000e+00
0.000000000000000e+00 0.000000000000000e+00 0.000000000000000e+00
0.000000000000000e+00 0.000000000000000e+00 0.000000000000000e+00
0.000000000000000e+00 0.000000000000000e+00 0.000000000000000e+00
0.000000000000000e+00 0.000000000000000e+00 0.000000000000000e+00
0.000000000000000e+00 0.000000000000000e+00 0.000000000000000e+00
0.000000000000000e+00 0.000000000000000e+00 0.000000000000000e+00
0.000000000000000e+00 0.000000000000000e+00 0.000000000000000e+00
0.000000000000000e+00 0.000000000000000e+00 0.000000000000000e+00
0.000000000000000e+00 0.000000000000000e+00 0.000000000000000e+00
0.000000000000000e+00 0.000000000000000e+00 0.000000000000000e+00
0.000000000000000e+00 0.000000000000000e+00 0.000000000000000e+00
0.000000000000000e+00 0.000000000000000e+00 0.000000000000000e+00
0.000000000000000e+00 0.000000000000000e+00 0.000000000000000e+00
0.000000000000000e+00 0.000000000000000e+00 0.000000000000000e+00
0.000000000000000e+00 0.000000000000000e+00 0.000000000000000e+00
0.000000000000000e+00 0.000000000000000e+00 0.000000000000000e+00
0.000000000000000e+00 0.000000000000000e+00 0.000000000000000e+00
0.000000000000000e+00 0.000000000000000e+00 0.000000000000000e+00
0.000000000000000e+00 0.000000000000000e+00 0.000000000000000e+00
0.000000000000000e+00 0.000000000000000e+00 0.000000000000000e+00
0.000000000000000e+00 0.000000000000000e+00 0.000000000000000e+00
0.000000000000000e+00 0.000000000000000e+00 0.000000000000000e+00
0.000000000000000e+00 0.000000000000000e+00 0.000000000000000e+00
0.000000000000000e+00 0.000000000000000e+00 0.000000000000000e+00
0.000000000000000e+00 0.000000000000000e+00 0.000000000000000e+00
0.000000000000000e+00 0.000000000000000e+00 0.000000000000000e+00
0.000000000000000e+00 0.000000000000000e+00 0.000000000000000e+00
0.000000000000000e+00 0.000000000000000e+00 0.000000000000000e+00
0.000000000000000e+00 0.000000000000000e+00 0.000000000000000e+00
0.000000000000000e+00 0.000000000000000e+00 0.000000000000000e+00
0.000000000000000e+00 0.000000000000000e+00 0.000000000000000e+00
0.000000000000000e+00 0.000000000000000e+00 0.000000000000000e+00
0.000000000000000e+00 0.000000000000000e+00 0.000000000000000e+00
0.000000000000000e+00 0.000000000000000e+00 0.000000000000000e+00
0.000000000000000e+00 0.000000000000000e+00 0.000000000000000e+00
0.000000000000000e+00 0.000000000000000e+00 0.000000000000000e+00
0.000000000000000e+00 0.000000000000000e+00 0.000000000000000e+00
0.000000000000000e+00 0.000000000000000e+00 0.000000000000000e+00
0.000000000000000e+00 0.000000000000000e+00 0.000000000000000e+00
0.000000000000000e+00 0.000000000000000e+00 0.000000000000000e+00
0.000000000000000e+00 0.000000000000000e+00 0.000000000000000e+00
0.000000000000000e+00 0.000000000000000e+00 0.000000000000000e+00
0.000000000000000e+00 0.000000000000000e+00 0.000000000000000e+00
0.000000000000000e+00 0.000000000000000e+00 0.000000000000000e+00
0.000000000000000e+00 0.000000000000000e+00 0.000000000000000e+00
0.000000000000000e+00 0.000000000000000e+00 0.000000000000000e+00
0.000000000000000e+00 0.000000000000000e+00 0.000000000000000e+00
0.000000000000000e+00 0.000000000000000e+00 0.000000000000000e+00
0.000000000000000e+00 0.000000000000000e+00 0.000000000000000e+00
0.000000000000000e+00 0.000000000000000e+00 0.000000000000000e+00
0.000000000000000e+00 0.000000000000000e+00 0.000000000000000e+00
0.000000000000000e+00 0.000000000000000e+00 0.000000000000000e+00
0.000000000000000e+00 0.000000000000000e+00 0.000000000000000e+00
0.000000000000000e+00 0.000000000000000e+00 0.000000000000000e+00
0.000000000000000e+00 0.000000000000000e+00 0.000000000000000e+00
0.000000000000000e+00 0.000000000000000e+00 0.000000000000000e+00
0.000000000000000e+00 0.000000000000000e+00 0.000000000000000e+00
0.000000000000000e+00 0.000000000000000e+00 0.000000000000000e+00
0.000000000000000e+00 0.000000000000000e+00 0.000000000000000e+00
0.000000000000000e+00 0.000000000000000e+00 0.000000000000000e+00
0.000000000000000e+00 0.000000000000000e+00 0.000000000000000e+00
0.000000000000000e+00 0.000000000000000e+00 0.000000000000000e+00
0.000000000000000e+00 0.000000000000000e+00 0.000000000000000e+00
0.000000000000000e+00 0.000000000000000e+00 0.000000000000000e+00
0.000000000000000e+00 0.000000000000000e+00 0.000000000000000e+00
0.000000000000000e+00 0.000000000000000e+00 0.000000000000000e+00
0.000000000000000e+00 0.000000000000000e+00 0.000000000000000e+00
0.000000000000000e+00 0.000000000000000e+00 0.000000000000000e+00
0.000000000000000e+00 0.000000000000000e+00 0.000000000000000e+00
0.000000000000000e+00 0.000000000000000e+00 0.000000000000000e+00
0.000000000000000e+00 0.000000000000000e+00 0.000000000000000e+00
0.000000000000000e+00 0.000000000000000e+00 0.000000000000000e+00
0.000000000000000e+00 0.000000000000000e+00 0.000000000000000e+00
0.000000000000000e+00 0.000000000000000e+00 0.000000000000000e+00
0.000000000000000e+00 0.000000000000000e+00 0.000000000000000e+00
0.000000000000000e+00 0.000000000000000e+00 0.000000000000000e+00
0.000000000000000e+00 0.000000000000000e+00 0.000000000000000e+00
0.000000000000000e+00 0.000000000000000e+00 0.000000000000000e+00
0.000000000000000e+00 0.000000000000000e+00 0.000000000000000e+00
0.000000000000000e+00 0.000000000000000e+00 0.000000000000000e+00
0.000000000000000e+00 0.000000000000000e+00 0.000000000000000e+00
0.000000000000000e+00 0.000000000000000e+00 0.000000000000000e+00
0.000000000000000e+00 0.000000000000000e+00 0.000000000000000e+00
0.000000000000000e+00 0.000000000000000e+00 0.000000000000000e+00
0.000000000000000e+00 0.000000000000000e+00 0.000000000000000e+00
0.000000000000000e+00 0.000000000000000e+00 0.000000000000000e+00
0.000000000000000e+00 0.000000000000000e+00 0.000000000000000e+00
0.000000000000000e+00 0.000000000000000e+00 0.000000000000000e+00
0.000000000000000e+00 0.000000000000000e+00 0.000000000000000e+00
0.000000000000000e+00 0.000000000000000e+00 0.000000000000000e+00
0.000000000000000e+00 0.000000000000000e+00 0.000000000000000e+00
0.000000000000000e+00 0.000000000000000e+00 0.000000000000000e+00
0.000000000000000e+00 0.000000000000000e+00 0.000000000000000e+00
0.000000000000000e+00 0.000000000000000e+00 0.000000000000000e+00
0.000000000000000e+00 0.000000000000000e+00 0.000000000000000e+00
0.000000000000000e+00 0.000000000000000e+00 0.000000000000000e+00
0.000000000000000e+00 0.000000000000000e+00 0.000000000000000e+00
0.000000000000000e+00 0.000000000000000e+00 0.000000000000000e+00
0.000000000000000e+00 0.000000000000000e+00 0.000000000000000e+00
0.000000000000000e+00 0.000000000000000e+00 0.000000000000000e+00
0.000000000000000e+00 0.000000000000000e+00 0.000000000000000e+00
0.000000000000000e+00 0.000000000000000e+00 0.000000000000000e+00
0.000000000000000e+00 0.000000000000000e+00 0.000000000000000e+00
0.000000000000000e+00 0.000000000000000e+00 0.000000000000000e+00
0.000000000000000e+00 0.000000000000000e+00 0.000000000000000e+00
0.000000000000000e+00 0.000000000000000e+00 0.000000000000000e+00
0.000000000000000e+00 0.000000000000000e+00 0.000000000000000e+00
0.000000000000000e+00 0.000000000000000e+00 0.000000000000000e+00
0.000000000000000e+00 0.000000000000000e+00 0.000000000000000e+00
0.000000000000000e+00 0.000000000000000e+00 0.000000000000000e+00
0.000000000000000e+00 0.000000000000000e+00 0.000000000000000e+00
0.000000000000000e+00 0.000000000000000e+00 0.000000000000000e+00
0.000000000000000e+00 0.000000000000000e+00 0.000000000000000e+00
0.000000000000000e+00 0.000000000000000e+00 0.000000000000000e+00
0.000000000000000e+00 0.000000000000000e+00 0.000000000000000e+00
0.000000000000000e+00 0.000000000000000e+00 0.000000000000000e+00
0.000000000000000e+00 0.000000000000000e+00 0.000000000000000e+00
0.000000000000000e+00 0.000000000000000e+00 0.000000000000000e+00
0.000000000000000e+00 0.000000000000000e+00 0.000000000000000e+00
0.000000000000000e+00 0.000000000000000e+00 0.000000000000000e+00
0.000000000000000e+00 0.000000000000000e+00 0.000000000000000e+00
0.000000000000000e+00 0.000000000000000e+00 0.000000000000000e+00
0.000000000000000e+00 0.000000000000000e+00 0.000000000000000e+00
0.000000000000000e+00 0.000000000000000e+00 0.000000000000000e+00
0.000000000000000e+00 0.000000000000000e+00 0.000000000000000e+00
0.000000000000000e+00 0.000000000000000e+00 0.000000000000000e+00
0.000000000000000e+00 0.000000000000000e+00 0.000000000000000e+00
0.000000000000000e+00 0.000000000000000e+00 0.000000000000000e+00
0.000000000000000e+00 0.000000000000000e+00 0.000000000000000e+00
0.000000000000000e+00 0.000000000000000e+00 0.000000000000000e+00
0.000000000000000e+00 0.000000000000000e+00 0.000000000000000e+00
0.000000000000000e+00 0.000000000000000e+00 0.000000000000000e+00
0.000000000000000e+00 0.000000000000000e+00 0.000000000000000e+00
0.000000000000000e+00 0.000000000000000e+00 0.000000000000000e+00
0.000000000000000e+00 0.000000000000000e+00 0.000000000000000e+00
0.000000000000000e+00 0.000000000000000e+00 0.000000000000000e+00
0.000000000000000e+00 0.000000000000000e+00 0.000000000000000e+00
0.000000000000000e+00 0.000000000000000e+00 0.000000000000000e+00
0.000000000000000e+00 0.000000000000000e+00 0.000000000000000e+00
0.000000000000000e+00 0.000000000000000e+00 0.000000000000000e+00
0.000000000000000e+00 0.000000000000000e+00 0.000000000000000e+00
0.000000000000000e+00 0.000000000000000e+00 0.000000000000000e+00
0.000000000000000e+00 0.000000000000000e+00 0.000000000000000e+00
0.000000000000000e+00 0.000000000000000e+00 0.000000000000000e+00
0.000000000000000e+00 0.000000000000000e+00 0.000000000000000e+00
0.000000000000000e+00 0.000000000000000e+00 0.000000000000000e+00
0.000000000000000e+00 0.000000000000000e+00 0.000000000000000e+00
0.000000000000000e+00 0.000000000000000e+00 0.000000000000000e+00
0.000000000000000e+00 0.000000000000000e+00 0.000000000000000e+00
0.000000000000000e+00 0.000000000000000e+00 0.000000000000000e+00
0.000000000000000e+00 0.000000000000000e+00 0.000000000000000e+00
0.000000000000000e+00 0.000000000000000e+00 0.000000000000000e+00
0.000000000000000e+00 0.000000000000000e+00 0.000000000000000e+00
0.000000000000000e+00 0.000000000000000e+00 0.000000000000000e+00
0.000000000000000e+00 0.000000000000000e+00 0.000000000000000e+00
0.000000000000000e+00 0.000000000000000e+00 0.000000000000000e+00
0.000000000000000e+00 0.000000000000000e+00 0.000000000000000e+00
0.000000000000000e+00 0.000000000000000e+00 0.000000000000000e+00
0.000000000000000e+00 0.000000000000000e+00 0.000000000000000e+00
0.000000000000000e+00 0.000000000000000e+00 0.000000000000000e+00
0.000000000000000e+00 0.000000000000000e+00 0.000000000000000e+00
0.000000000000000e+00 0.000000000000000e+00 0.000000000000000e+00
0.000000000000000e+00 0.000000000000000e+00 0.000000000000000e+00
0.000000000000000e+00 0.000000000000000e+00 0.000000000000000e+00
0.000000000000000e+00 0.000000000000000e+00 0.000000000000000e+00
0.000000000000000e+00 0.000000000000000e+00 0.000000000000000e+00
0.000000000000000e+00 0.000000000000000e+00 0.000000000000000e+00
0.000000000000000e+00 0.000000000000000e+00 0.000000000000000e+00
0.000000000000000e+00 0.000000000000000e+00 0.000000000000000e+00
0.000000000000000e+00 0.000000000000000e+00 0.000000000000000e+00
0.000000000000000e+00 0.000000000000000e+00 0.000000000000000e+00
0.000000000000000e+00 0.000000000000000e+00 0.000000000000000e+00
0.000000000000000e+00 0.000000000000000e+00 0.000000000000000e+00
0.000000000000000e+00 0.000000000000000e+00 0.000000000000000e+00
0.000000000000000e+00 0.000000000000000e+00 0.000000000000000e+00
0.000000000000000e+00 0.000000000000000e+00 0.000000000000000e+00
0.000000000000000e+00 0.000000000000000e+00 0.000000000000000e+00
0.000000000000000e+00 0.000000000000000e+00 0.000000000000000e+00
0.000000000000000e+00 0.000000000000000e+00 0.000000000000000e+00
0.000000000000000e+00 0.000000000000000e+00 0.000000000000000e+00
0.000000000000000e+00 0.000000000000000e+00 0.000000000000000e+00
0.000000000000000e+00 0.000000000000000e+00 0.000000000000000e+00
0.000000000000000e+00 0.000000000000000e+00 0.000000000000000e+00
0.000000000000000e+00 0.000000000000000e+00 0.000000000000000e+00
0.000000000000000e+00 0.000000000000000e+00 0.000000000000000e+00
0.000000000000000e+00 0.000000000000000e+00 0.000000000000000e+00
0.000000000000000e+00 0.000000000000000e+00 0.000000000000000e+00
0.000000000000000e+00 0.000000000000000e+00 0.000000000000000e+00
0.000000000000000e+00 0.000000000000000e+00 0.000000000000000e+00
0.000000000000000e+00 0.000000000000000e+00 0.000000000000000e+00
0.000000000000000e+00 0.000000000000000e+00 0.000000000000000e+00
0.000000000000000e+00 0.000000000000000e+00 0.000000000000000e+00
0.000000000000000e+00 0.000000000000000e+00 0.000000000000000e+00
0.000000000000000e+00 0.000000000000000e+00 0.000000000000000e+00
0.000000000000000e+00 0.000000000000000e+00 0.000000000000000e+00
0.000000000000000e+00 0.000000000000000e+00 0.000000000000000e+00
0.000000000000000e+00 0.000000000000000e+00 0.000000000000000e+00
0.000000000000000e+00 0.000000000000000e+00 0.000000000000000e+00
0.000000000000000e+00 0.000000000000000e+00 0.000000000000000e+00
0.000000000000000e+00 0.000000000000000e+00 0.000000000000000e+00
0.000000000000000e+00 0.000000000000000e+00 0.000000000000000e+00
0.000000000000000e+00 0.000000000000000e+00 0.000000000000000e+00
0.000000000000000e+00 0.000000000000000e+00 0.000000000000000e+00
0.000000000000000e+00 0.000000000000000e+00 0.000000000000000e+00
0.000000000000000e+00 0.000000000000000e+00 0.000000000000000e+00
0.000000000000000e+00 0.000000000000000e+00 0.000000000000000e+00
0.000000000000000e+00 0.000000000000000e+00 0.000000000000000e+00
0.000000000000000e+00 0.000000000000000e+00 0.000000000000000e+00
0.000000000000000e+00 0.000000000000000e+00 0.000000000000000e+00
0.000000000000000e+00 0.000000000000000e+00 0.000000000000000e+00
0.000000000000000e+00 0.000000000000000e+00 0.000000000000000e+00
0.000000000000000e+00 0.000000000000000e+00 0.000000000000000e+00
0.000000000000000e+00 0.000000000000000e+00 0.000000000000000e+00
0.000000000000000e+00 0.000000000000000e+00 0.000000000000000e+00
0.000000000000000e+00 0.000000000000000e+00 0.000000000000000e+00
0.000000000000000e+00 0.000000000000000e+00 0.000000000000000e+00
0.000000000000000e+00 0.000000000000000e+00 0.000000000000000e+00
0.000000000000000e+00 0.000000000000000e+00 0.000000000000000e+00
0.000000000000000e+00 0.000000000000000e+00 0.000000000000000e+00
0.000000000000000e+00 0.000000000000000e+00 0.000000000000000e+00
0.000000000000000e+00 0.000000000000000e+00 0.000000000000000e+00
0.000000000000000e+00 0.000000000000000e+00 0.000000000000000e+00
0.000000000000000e+00 0.000000000000000e+00 0.000000000000000e+00
0.000000000000000e+00 0.000000000000000e+00 0.000000000000000e+00
0.000000000000000e+00 0.000000000000000e+00 0.000000000000000e+00
0.000000000000000e+00 0.000000000000000e+00 0.000000000000000e+00
0.000000000000000e+00 0.000000000000000e+00 0.000000000000000e+00
0.000000000000000e+00 0.000000000000000e+00 0.000000000000000e+00
0.000000000000000e+00 0.000000000000000e+00 0.000000000000000e+00
0.000000000000000e+00 0.000000000000000e+00 0.000000000000000e+00
0.000000000000000e+00 0.000000000000000e+00 0.000000000000000e+00
0.000000000000000e+00 0.000000000000000e+00 0.000000000000000e+00
0.000000000000000e+00 0.000000000000000e+00 0.000000000000000e+00
0.000000000000000e+00 0.000000000000000e+00 0.000000000000000e+00
0.000000000000000e+00 0.000000000000000e+00 0.000000000000000e+00
0.000000000000000e+00 0.000000000000000e+00 0.000000000000000e+00
0.000000000000000e+00 0.000000000000000e+00 0.000000000000000e+00
0.000000000000000e+00 0.000000000000000e+00 0.000000000000000e+00
0.000000000000000e+00 0.000000000000000e+00 0.000000000000000e+00
0.000000000000000e+00 0.000000000000000e+00 0.000000000000000e+00
0.000000000000000e+00 0.000000000000000e+00 0.000000000000000e+00
0.000000000000000e+00 0.000000000000000e+00 0.000000000000000e+00
0.000000000000000e+00 0.000000000000000e+00 0.000000000000000e+00
0.000000000000000e+00 0.000000000000000e+00 0.000000000000000e+00
0.000000000000000e+00 0.000000000000000e+00 0.000000000000000e+00
0.000000000000000e+00 0.000000000000000e+00 0.000000000000000e+00
0.000000000000000e+00 0.000000000000000e+00 0.000000000000000e+00
0.000000000000000e+00 0.000000000000000e+00 0.000000000000000e+00
0.000000000000000e+00 0.000000000000000e+00 0.000000000000000e+00
0.000000000000000e+00 0.000000000000000e+00 0.000000000000000e+00
0.000000000000000e+00 0.000000000000000e+00 0.000000000000000e+00
0.000000000000000e+00 0.000000000000000e+00 0.000000000000000e+00
0.000000000000000e+00 0.000000000000000e+00 0.000000000000000e+00
0.000000000000000e+00 0.000000000000000e+00 0.000000000000000e+00
0.000000000000000e+00 0.000000000000000e+00 0.000000000000000e+00
0.000000000000000e+00 0.000000000000000e+00 0.000000000000000e+00
0.000000000000000e+00 0.000000000000000e+00 0.000000000000000e+00
0.000000000000000e+00 0.000000000000000e+00 0.000000000000000e+00
0.000000000000000e+00 0.000000000000000e+00 0.000000000000000e+00
0.000000000000000e+00 0.000000000000000e+00 0.000000000000000e+00
0.000000000000000e+00 0.000000000000000e+00 0.000000000000000e+00
0.000000000000000e+00 0.000000000000000e+00 0.000000000000000e+00
0.000000000000000e+00 0.000000000000000e+00 0.000000000000000e+00
0.000000000000000e+00 0.000000000000000e+00 0.000000000000000e+00
0.000000000000000e+00 0.000000000000000e+00 0.000000000000000e+00
0.000000000000000e+00 0.000000000000000e+00 0.000000000000000e+00
0.000000000000000e+00 0.000000000000000e+00 0.000000000000000e+00
0.000000000000000e+00 0.000000000000000e+00 0.000000000000000e+00
0.000000000000000e+00 0.000000000000000e+00 0.000000000000000e+00
0.000000000000000e+00 0.000000000000000e+00 0.000000000000000e+00
0.000000000000000e+00 0.000000000000000e+00 0.000000000000000e+00
0.000000000000000e+00 0.000000000000000e+00 0.000000000000000e+00
0.000000000000000e+00 0.000000000000000e+00 0.000000000000000e+00
0.000000000000000e+00 0.000000000000000e+00 0.000000000000000e+00
0.000000000000000e+00 0.000000000000000e+00 0.000000000000000e+00
0.000000000000000e+00 0.000000000000000e+00 0.000000000000000e+00
0.000000000000000e+00 0.000000000000000e+00 0.000000000000000e+00
0.000000000000000e+00 0.000000000000000e+00 0.000000000000000e+00
0.000000000000000e+00 0.000000000000000e+00 0.000000000000000e+00
0.000000000000000e+00 0.000000000000000e+00 0.000000000000000e+00
0.000000000000000e+00 0.000000000000000e+00 0.000000000000000e+00
0.000000000000000e+00 0.000000000000000e+00 0.000000000000000e+00
0.000000000000000e+00 0.000000000000000e+00 0.000000000000000e+00
0.000000000000000e+00 0.000000000000000e+00 0.000000000000000e+00
0.000000000000000e+00 0.000000000000000e+00 0.000000000000000e+00
0.000000000000000e+00 0.000000000000000e+00 0.000000000000000e+00
0.000000000000000e+00 0.000000000000000e+00 0.000000000000000e+00
0.000000000000000e+00 0.000000000000000e+00 0.000000000000000e+00
0.000000000000000e+00 0.000000000000000e+00 0.000000000000000e+00
0.000000000000000e+00 0.000000000000000e+00 0.000000000000000e+00
0.000000000000000e+00 0.000000000000000e+00 0.000000000000000e+00
0.000000000000000e+00 0.000000000000000e+00 0.000000000000000e+00
0.000000000000000e+00 0.000000000000000e+00 0.000000000000000e+00
0.000000000000000e+00 0.000000000000000e+00 0.000000000000000e+00
0.000000000000000e+00 0.000000000000000e+00 0.000000000000000e+00
0.000000000000000e+00 0.000000000000000e+00 0.000000000000000e+00
0.000000000000000e+00 0.000000000000000e+00 0.000000000000000e+00
0.000000000000000e+00 0.000000000000000e+00 0.000000000000000e+00
0.000000000000000e+00 0.000000000000000e+00 0.000000000000000e+00
0.000000000000000e+00 0.000000000000000e+00 0.000000000000000e+00
0.000000000000000e+00 0.000000000000000e+00 0.000000000000000e+00
0.000000000000000e+00 0.000000000000000e+00 0.000000000000000e+00
0.000000000000000e+00 0.000000000000000e+00 0.000000000000000e+00
0.000000000000000e+00 0.000000000000000e+00 0.000000000000000e+00
0.000000000000000e+00 0.000000000000000e+00 0.000000000000000e+00
0.000000000000000e+00 0.000000000000000e+00 0.000000000000000e+00
0.000000000000000e+00 0.000000000000000e+00 0.000000000000000e+00
0.000000000000000e+00 0.000000000000000e+00 0.000000000000000e+00
0.000000000000000e+00 0.000000000000000e+00 0.000000000000000e+00
0.000000000000000e+00 0.000000000000000e+00 0.000000000000000e+00
0.000000000000000e+00 0.000000000000000e+00 0.000000000000000e+00
0.000000000000000e+00 0.000000000000000e+00 0.000000000000000e+00
0.000000000000000e+00 0.000000000000000e+00 0.000000000000000e+00
0.000000000000000e+00 0.000000000000000e+00 0.000000000000000e+00
0.000000000000000e+00 0.000000000000000e+00 0.000000000000000e+00
0.000000000000000e+00 0.000000000000000e+00 0.000000000000000e+00
0.000000000000000e+00 0.000000000000000e+00 0.000000000000000e+00
0.000000000000000e+00 0.000000000000000e+00 0.000000000000000e+00
0.000000000000000e+00 0.000000000000000e+00 0.000000000000000e+00
0.000000000000000e+00 0.000000000000000e+00 0.000000000000000e+00
0.000000000000000e+00 0.000000000000000e+00 0.000000000000000e+00
0.000000000000000e+00 0.000000000000000e+00 0.000000000000000e+00
0.000000000000000e+00 0.000000000000000e+00 0.000000000000000e+00
0.000000000000000e+00 0.000000000000000e+00 0.000000000000000e+00
0.000000000000000e+00 0.000000000000000e+00 0.000000000000000e+00
0.000000000000000e+00 0.000000000000000e+00 0.000000000000000e+00
0.000000000000000e+00 0.000000000000000e+00 0.000000000000000e+00
0.000000000000000e+00 0.000000000000000e+00 0.000000000000000e+00
0.000000000000000e+00 0.000000000000000e+00 0.000000000000000e+00
0.000000000000000e+00 0.000000000000000e+00 0.000000000000000e+00
0.000000000000000e+00 0.000000000000000e+00 0.000000000000000e+00
0.000000000000000e+00 0.000000000000000e+00 0.000000000000000e+00
0.000000000000000e+00 0.000000000000000e+00 0.000000000000000e+00
0.000000000000000e+00 0.000000000000000e+00 0.000000000000000e+00
0.000000000000000e+00 0.000000000000000e+00 0.000000000000000e+00
0.000000000000000e+00 0.000000000000000e+00 0.000000000000000e+00
0.000000000000000e+00 0.000000000000000e+00 0.000000000000000e+00
0.000000000000000e+00 0.000000000000000e+00 0.000000000000000e+00
0.000000000000000e+00 0.000000000000000e+00 0.000000000000000e+00
0.000000000000000e+00 0.000000000000000e+00 0.000000000000000e+00
0.000000000000000e+00 0.000000000000000e+00 0.000000000000000e+00
0.000000000000000e+00 0.000000000000000e+00 0.000000000000000e+00
0.000000000000000e+00 0.000000000000000e+00 0.000000000000000e+00
0.000000000000000e+00 0.000000000000000e+00 0.000000000000000e+00
0.000000000000000e+00 0.000000000000000e+00 0.000000000000000e+00
0.000000000000000e+00 0.000000000000000e+00 0.000000000000000e+00
0.000000000000000e+00 0.000000000000000e+00 0.000000000000000e+00
0.000000000000000e+00 0.000000000000000e+00 0.000000000000000e+00
0.000000000000000e+00 0.000000000000000e+00 0.000000000000000e+00
0.000000000000000e+00 0.000000000000000e+00 0.000000000000000e+00
0.000000000000000e+00 0.000000000000000e+00 0.000000000000000e+00
0.000000000000000e+00 0.000000000000000e+00 0.000000000000000e+00
0.000000000000000e+00 0.000000000000000e+00 0.000000000000000e+00
0.000000000000000e+00 0.000000000000000e+00 0.000000000000000e+00
0.000000000000000e+00 0.000000000000000e+00 0.000000000000000e+00
0.000000000000000e+00 0.000000000000000e+00 0.000000000000000e+00
0.000000000000000e+00 0.000000000000000e+00 0.000000000000000e+00
0.000000000000000e+00 0.000000000000000e+00 0.000000000000000e+00
0.000000000000000e+00 0.000000000000000e+00 0.000000000000000e+00
0.000000000000000e+00 0.000000000000000e+00 0.000000000000000e+00
0.000000000000000e+00 0.000000000000000e+00 0.000000000000000e+00
0.000000000000000e+00 0.000000000000000e+00 0.000000000000000e+00
0.000000000000000e+00 0.000000000000000e+00 0.000000000000000e+00
0.000000000000000e+00 0.000000000000000e+00 0.000000000000000e+00
0.000000000000000e+00 0.000000000000000e+00 0.000000000000000e+00
0.000000000000000e+00 0.000000000000000e+00 0.000000000000000e+00
0.000000000000000e+00 0.000000000000000e+00 0.000000000000000e+00
0.000000000000000e+00 0.000000000000000e+00 0.000000000000000e+00
0.000000000000000e+00 0.000000000000000e+00 0.000000000000000e+00
0.000000000000000e+00 0.000000000000000e+00 0.000000000000000e+00
0.000000000000000e+00 0.000000000000000e+00 0.000000000000000e+00
0.000000000000000e+00 0.000000000000000e+00 0.000000000000000e+00
0.000000000000000e+00 0.000000000000000e+00 0.000000000000000e+00
0.000000000000000e+00 0.000000000000000e+00 0.000000000000000e+00
0.000000000000000e+00 0.000000000000000e+00 0.000000000000000e+00
0.000000000000000e+00 0.000000000000000e+00 0.000000000000000e+00
0.000000000000000e+00 0.000000000000000e+00 0.000000000000000e+00
0.000000000000000e+00 0.000000000000000e+00 0.000000000000000e+00
0.000000000000000e+00 0.000000000000000e+00 0.000000000000000e+00
0.000000000000000e+00 0.000000000000000e+00 0.000000000000000e+00
0.000000000000000e+00 0.000000000000000e+00 0.000000000000000e+00
0.000000000000000e+00 0.000000000000000e+00 0.000000000000000e+00
0.000000000000000e+00 0.000000000000000e+00 0.000000000000000e+00
0.000000000000000e+00 0.000000000000000e+00 0.000000000000000e+00
0.000000000000000e+00 0.000000000000000e+00 0.000000000000000e+00
0.000000000000000e+00 0.000000000000000e+00 0.000000000000000e+00
0.000000000000000e+00 0.000000000000000e+00 0.000000000000000e+00
0.000000000000000e+00 0.000000000000000e+00 0.000000000000000e+00
0.000000000000000e+00 0.000000000000000e+00 0.000000000000000e+00
0.000000000000000e+00 0.000000000000000e+00 0.000000000000000e+00
0.000000000000000e+00 0.000000000000000e+00 0.000000000000000e+00
0.000000000000000e+00 0.000000000000000e+00 0.000000000000000e+00
0.000000000000000e+00 0.000000000000000e+00 0.000000000000000e+00
0.000000000000000e+00 0.000000000000000e+00 0.000000000000000e+00
0.000000000000000e+00 0.000000000000000e+00 0.000000000000000e+00
0.000000000000000e+00 0.000000000000000e+00 0.000000000000000e+00
0.000000000000000e+00 0.000000000000000e+00 0.000000000000000e+00
0.000000000000000e+00 0.000000000000000e+00 0.000000000000000e+00
0.000000000000000e+00 0.000000000000000e+00 0.000000000000000e+00
0.000000000000000e+00 0.000000000000000e+00 0.000000000000000e+00
0.000000000000000e+00 0.000000000000000e+00 0.000000000000000e+00
0.000000000000000e+00 0.000000000000000e+00 0.000000000000000e+00
0.000000000000000e+00 0.000000000000000e+00 0.000000000000000e+00
0.000000000000000e+00 0.000000000000000e+00 0.000000000000000e+00
0.000000000000000e+00 0.000000000000000e+00 0.000000000000000e+00
0.000000000000000e+00 0.000000000000000e+00 0.000000000000000e+00
0.000000000000000e+00 0.000000000000000e+00 0.000000000000000e+00
0.000000000000000e+00 0.000000000000000e+00 0.000000000000000e+00
0.000000000000000e+00 0.000000000000000e+00 0.000000000000000e+00
0.000000000000000e+00 0.000000000000000e+00 0.000000000000000e+00
0.000000000000000e+00 0.000000000000000e+00 0.000000000000000e+00
0.000000000000000e+00 0.000000000000000e+00 0.000000000000000e+00
0.000000000000000e+00 0.000000000000000e+00 0.000000000000000e+00
0.000000000000000e+00 0.000000000000000e+00 0.000000000000000e+00
0.000000000000000e+00 0.000000000000000e+00 0.000000000000000e+00
0.000000000000000e+00 0.000000000000000e+00 0.000000000000000e+00
0.000000000000000e+00 0.000000000000000e+00 0.000000000000000e+00
0.000000000000000e+00 0.000000000000000e+00 0.000000000000000e+00
0.000000000000000e+00 0.000000000000000e+00 0.000000000000000e+00
0.000000000000000e+00 0.000000000000000e+00 0.000000000000000e+00
0.000000000000000e+00 0.000000000000000e+00 0.000000000000000e+00
0.000000000000000e+00 0.000000000000000e+00 0.000000000000000e+00
0.000000000000000e+00 0.000000000000000e+00 0.000000000000000e+00
0.000000000000000e+00 0.000000000000000e+00 0.000000000000000e+00
0.000000000000000e+00 0.000000000000000e+00 0.000000000000000e+00
0.000000000000000e+00 0.000000000000000e+00 0.000000000000000e+00
0.000000000000000e+00 0.000000000000000e+00 0.000000000000000e+00
0.000000000000000e+00 0.000000000000000e+00 0.000000000000000e+00
0.000000000000000e+00 0.000000000000000e+00 0.000000000000000e+00
0.000000000000000e+00 0.000000000000000e+00 0.000000000000000e+00
0.000000000000000e+00 0.000000000000000e+00 0.000000000000000e+00
0.000000000000000e+00 0.000000000000000e+00 0.000000000000000e+00
0.000000000000000e+00 0.000000000000000e+00 0.000000000000000e+00
0.000000000000000e+00 0.000000000000000e+00 0.000000000000000e+00
0.000000000000000e+00 0.000000000000000e+00 0.000000000000000e+00
0.000000000000000e+00 0.000000000000000e+00 0.000000000000000e+00
0.000000000000000e+00 0.000000000000000e+00 0.000000000000000e+00
0.000000000000000e+00 0.000000000000000e+00 0.000000000000000e+00
0.000000000000000e+00 0.000000000000000e+00 0.000000000000000e+00
0.000000000000000e+00 0.000000000000000e+00 0.000000000000000e+00
0.000000000000000e+00 0.000000000000000e+00 0.000000000000000e+00
0.000000000000000e+00 0.000000000000000e+00 0.000000000000000e+00
0.000000000000000e+00 0.000000000000000e+00 0.000000000000000e+00
0.000000000000000e+00 0.000000000000000e+00 0.000000000000000e+00
0.000000000000000e+00 0.000000000000000e+00 0.000000000000000e+00
0.000000000000000e+00 0.000000000000000e+00 0.000000000000000e+00
0.000000000000000e+00 0.000000000000000e+00 0.000000000000000e+00
0.000000000000000e+00 0.000000000000000e+00 0.000000000000000e+00
0.000000000000000e+00 0.000000000000000e+00 0.000000000000000e+00
0.000000000000000e+00 0.000000000000000e+00 0.000000000000000e+00
0.000000000000000e+00 0.000000000000000e+00 0.000000000000000e+00
0.000000000000000e+00 0.000000000000000e+00 0.000000000000000e+00
0.000000000000000e+00 0.000000000000000e+00 0.000000000000000e+00
0.000000000000000e+00 0.000000000000000e+00 0.000000000000000e+00
0.000000000000000e+00 0.000000000000000e+00 0.000000000000000e+00
0.000000000000000e+00 0.000000000000000e+00 0.000000000000000e+00
0.000000000000000e+00 0.000000000000000e+00 0.000000000000000e+00
0.000000000000000e+00 0.000000000000000e+00 0.000000000000000e+00
0.000000000000000e+00 0.000000000000000e+00 0.000000000000000e+00
0.000000000000000e+00 0.000000000000000e+00 0.000000000000000e+00
0.000000000000000e+00 0.000000000000000e+00 0.000000000000000e+00
0.000000000000000e+00 0.000000000000000e+00 0.000000000000000e+00
0.000000000000000e+00 0.000000000000000e+00 0.000000000000000e+00
0.000000000000000e+00 0.000000000000000e+00 0.000000000000000e+00
0.000000000000000e+00 0.000000000000000e+00 0.000000000000000e+00
0.000000000000000e+00 0.000000000000000e+00 0.000000000000000e+00
0.000000000000000e+00 0.000000000000000e+00 0.000000000000000e+00
0.000000000000000e+00 0.000000000000000e+00 0.000000000000000e+00
0.000000000000000e+00 0.000000000000000e+00 0.000000000000000e+00
0.000000000000000e+00 0.000000000000000e+00 0.000000000000000e+00
0.000000000000000e+00 0.000000000000000e+00 0.000000000000000e+00
0.000000000000000e+00 0.000000000000000e+00 0.000000000000000e+00
0.000000000000000e+00 0.000000000000000e+00 0.000000000000000e+00
0.000000000000000e+00 0.000000000000000e+00 0.000000000000000e+00
0.000000000000000e+00 0.000000000000000e+00 0.000000000000000e+00
0.000000000000000e+00 0.000000000000000e+00 0.000000000000000e+00
0.000000000000000e+00 0.000000000000000e+00 0.000000000000000e+00
0.000000000000000e+00 0.000000000000000e+00 0.000000000000000e+00
0.000000000000000e+00 0.000000000000000e+00 0.000000000000000e+00
0.000000000000000e+00 0.000000000000000e+00 0.000000000000000e+00
0.000000000000000e+00 0.000000000000000e+00 0.000000000000000e+00
0.000000000000000e+00 0.000000000000000e+00 0.000000000000000e+00
0.000000000000000e+00 0.000000000000000e+00 0.000000000000000e+00
0.000000000000000e+00 0.000000000000000e+00 0.000000000000000e+00
0.000000000000000e+00 0.000000000000000e+00 0.000000000000000e+00
0.000000000000000e+00 0.000000000000000e+00 0.000000000000000e+00
0.000000000000000e+00 0.000000000000000e+00 0.000000000000000e+00
0.000000000000000e+00 0.000000000000000e+00 0.000000000000000e+00
0.000000000000000e+00 0.000000000000000e+00 0.000000000000000e+00
0.000000000000000e+00 0.000000000000000e+00 0.000000000000000e+00
0.000000000000000e+00 0.000000000000000e+00 0.000000000000000e+00
0.000000000000000e+00 0.000000000000000e+00 0.000000000000000e+00
0.000000000000000e+00 0.000000000000000e+00 0.000000000000000e+00
0.000000000000000e+00 0.000000000000000e+00 0.000000000000000e+00
0.000000000000000e+00 0.000000000000000e+00 0.000000000000000e+00
0.000000000000000e+00 0.000000000000000e+00 0.000000000000000e+00
0.000000000000000e+00 0.000000000000000e+00 0.000000000000000e+00
0.000000000000000e+00 0.000000000000000e+00 0.000000000000000e+00
0.000000000000000e+00 0.000000000000000e+00 0.000000000000000e+00
0.000000000000000e+00 0.000000000000000e+00 0.000000000000000e+00
0.000000000000000e+00 0.000000000000000e+00 0.000000000000000e+00
0.000000000000000e+00 0.000000000000000e+00 0.000000000000000e+00
0.000000000000000e+00 0.000000000000000e+00 0.000000000000000e+00
0.000000000000000e+00 0.000000000000000e+00 0.000000000000000e+00
0.000000000000000e+00 0.000000000000000e+00 0.000000000000000e+00
0.000000000000000e+00 0.000000000000000e+00 0.000000000000000e+00
0.000000000000000e+00 0.000000000000000e+00 0.000000000000000e+00
0.000000000000000e+00 0.000000000000000e+00 0.000000000000000e+00
0.000000000000000e+00 0.000000000000000e+00 0.000000000000000e+00
0.000000000000000e+00 0.000000000000000e+00 0.000000000000000e+00
0.000000000000000e+00 0.000000000000000e+00 0.000000000000000e+00
0.000000000000000e+00 0.000000000000000e+00 0.000000000000000e+00
0.000000000000000e+00 0.000000000000000e+00 0.000000000000000e+00
0.000000000000000e+00 0.000000000000000e+00 0.000000000000000e+00
0.000000000000000e+00 0.000000000000000e+00 0.000000000000000e+00
0.000000000000000e+00 0.000000000000000e+00 0.000000000000000e+00
0.000000000000000e+00 0.000000000000000e+00 0.000000000000000e+00
0.000000000000000e+00 0.000000000000000e+00 0.000000000000000e+00
0.000000000000000e+00 0.000000000000000e+00 0.000000000000000e+00
0.000000000000000e+00 0.000000000000000e+00 0.000000000000000e+00
0.000000000000000e+00 0.000000000000000e+00 0.000000000000000e+00
0.000000000000000e+00 0.000000000000000e+00 0.000000000000000e+00
0.000000000000000e+00 0.000000000000000e+00 0.000000000000000e+00
0.000000000000000e+00 0.000000000000000e+00 0.000000000000000e+00
0.000000000000000e+00 0.000000000000000e+00 0.000000000000000e+00
0.000000000000000e+00 0.000000000000000e+00 0.000000000000000e+00
0.000000000000000e+00 0.000000000000000e+00 0.000000000000000e+00
0.000000000000000e+00 0.000000000000000e+00 0.000000000000000e+00
0.000000000000000e+00 0.000000000000000e+00 0.000000000000000e+00
0.000000000000000e+00 0.000000000000000e+00 0.000000000000000e+00
0.000000000000000e+00 0.000000000000000e+00 0.000000000000000e+00
0.000000000000000e+00 0.000000000000000e+00 0.000000000000000e+00
0.000000000000000e+00 0.000000000000000e+00 0.000000000000000e+00
0.000000000000000e+00 0.000000000000000e+00 0.000000000000000e+00
0.000000000000000e+00 0.000000000000000e+00 0.000000000000000e+00
0.000000000000000e+00 0.000000000000000e+00 0.000000000000000e+00
0.000000000000000e+00 0.000000000000000e+00 0.000000000000000e+00
0.000000000000000e+00 0.000000000000000e+00 0.000000000000000e+00
0.000000000000000e+00 0.000000000000000e+00 0.000000000000000e+00
0.000000000000000e+00 0.000000000000000e+00 0.000000000000000e+00
0.000000000000000e+00 0.000000000000000e+00 0.000000000000000e+00
0.000000000000000e+00 0.000000000000000e+00 0.000000000000000e+00
0.000000000000000e+00 0.000000000000000e+00 0.000000000000000e+00
0.000000000000000e+00 0.000000000000000e+00 0.000000000000000e+00
0.000000000000000e+00 0.000000000000000e+00 0.000000000000000e+00
0.000000000000000e+00 0.000000000000000e+00 0.000000000000000e+00
0.000000000000000e+00 0.000000000000000e+00 0.000000000000000e+00
0.000000000000000e+00 0.000000000000000e+00 0.000000000000000e+00
0.000000000000000e+00 0.000000000000000e+00 0.000000000000000e+00
0.000000000000000e+00 0.000000000000000e+00 0.000000000000000e+00
0.000000000000000e+00 0.000000000000000e+00 0.000000000000000e+00
0.000000000000000e+00 0.000000000000000e+00 0.000000000000000e+00
0.000000000000000e+00 0.000000000000000e+00 0.000000000000000e+00
0.000000000000000e+00 0.000000000000000e+00 0.000000000000000e+00
0.000000000000000e+00 0.000000000000000e+00 0.000000000000000e+00
0.000000000000000e+00 0.000000000000000e+00 0.000000000000000e+00
0.000000000000000e+00 0.000000000000000e+00 0.000000000000000e+00
0.000000000000000e+00 0.000000000000000e+00 0.000000000000000e+00
0.000000000000000e+00 0.000000000000000e+00 0.000000000000000e+00
0.000000000000000e+00 0.000000000000000e+00 0.000000000000000e+00
0.000000000000000e+00 0.000000000000000e+00 0.000000000000000e+00
0.000000000000000e+00 0.000000000000000e+00 0.000000000000000e+00
0.000000000000000e+00 0.000000000000000e+00 0.000000000000000e+00
0.000000000000000e+00 0.000000000000000e+00 0.000000000000000e+00
0.000000000000000e+00 0.000000000000000e+00 0.000000000000000e+00
0.000000000000000e+00 0.000000000000000e+00 0.000000000000000e+00
0.000000000000000e+00 0.000000000000000e+00 0.000000000000000e+00
0.000000000000000e+00 0.000000000000000e+00 0.000000000000000e+00
0.000000000000000e+00 0.000000000000000e+00 0.000000000000000e+00
0.000000000000000e+00 0.000000000000000e+00 0.000000000000000e+00
0.000000000000000e+00 0.000000000000000e+00 0.000000000000000e+00
0.000000000000000e+00 0.000000000000000e+00 0.000000000000000e+00
0.000000000000000e+00 0.000000000000000e+00 0.000000000000000e+00
0.000000000000000e+00 0.000000000000000e+00 0.000000000000000e+00
0.000000000000000e+00 0.000000000000000e+00 0.000000000000000e+00
0.000000000000000e+00 0.000000000000000e+00 0.000000000000000e+00
0.000000000000000e+00 0.000000000000000e+00 0.000000000000000e+00
0.000000000000000e+00 0.000000000000000e+00 0.000000000000000e+00
0.000000000000000e+00 0.000000000000000e+00 0.000000000000000e+00
0.000000000000000e+00 0.000000000000000e+00 0.000000000000000e+00
0.000000000000000e+00 0.000000000000000e+00 0.000000000000000e+00
0.000000000000000e+00 0.000000000000000e+00 0.000000000000000e+00
0.000000000000000e+00 0.000000000000000e+00 0.000000000000000e+00
0.000000000000000e+00 0.000000000000000e+00 0.000000000000000e+00
0.000000000000000e+00 0.000000000000000e+00 0.000000000000000e+00
0.000000000000000e+00 0.000000000000000e+00 0.000000000000000e+00
0.000000000000000e+00 0.000000000000000e+00 0.000000000000000e+00
0.000000000000000e+00 0.000000000000000e+00 0.000000000000000e+00
0.000000000000000e+00 0.000000000000000e+00 0.000000000000000e+00
0.000000000000000e+00 0.000000000000000e+00 0.000000000000000e+00
0.000000000000000e+00 0.000000000000000e+00 0.000000000000000e+00
0.000000000000000e+00 0.000000000000000e+00 0.000000000000000e+00
0.000000000000000e+00 0.000000000000000e+00 0.000000000000000e+00
0.000000000000000e+00 0.000000000000000e+00 0.000000000000000e+00
0.000000000000000e+00 0.000000000000000e+00 0.000000000000000e+00
0.000000000000000e+00 0.000000000000000e+00 0.000000000000000e+00
0.000000000000000e+00 0.000000000000000e+00 0.000000000000000e+00
0.000000000000000e+00 0.000000000000000e+00 0.000000000000000e+00
0.000000000000000e+00 0.000000000000000e+00 0.000000000000000e+00
0.000000000000000e+00 0.000000000000000e+00 0.000000000000000e+00
0.000000000000000e+00 0.000000000000000e+00 0.000000000000000e+00
0.000000000000000e+00 0.000000000000000e+00 0.000000000000000e+00
0.000000000000000e+00 0.000000000000000e+00 0.000000000000000e+00
0.000000000000000e+00 0.000000000000000e+00 0.000000000000000e+00
0.000000000000000e+00 0.000000000000000e+00 0.000000000000000e+00
0.000000000000000e+00 0.000000000000000e+00 0.000000000000000e+00
0.000000000000000e+00 0.000000000000000e+00 0.000000000000000e+00
0.000000000000000e+00 0.000000000000000e+00 0.000000000000000e+00
0.000000000000000e+00 0.000000000000000e+00 0.000000000000000e+00
0.000000000000000e+00 0.000000000000000e+00 0.000000000000000e+00
0.000000000000000e+00 0.000000000000000e+00 0.000000000000000e+00
0.000000000000000e+00 0.000000000000000e+00 0.000000000000000e+00
0.000000000000000e+00 0.000000000000000e+00 0.000000000000000e+00
0.000000000000000e+00 0.000000000000000e+00 0.000000000000000e+00
0.000000000000000e+00 0.000000000000000e+00 0.000000000000000e+00
0.000000000000000e+00 0.000000000000000e+00 0.000000000000000e+00
0.000000000000000e+00 0.000000000000000e+00 0.000000000000000e+00
0.000000000000000e+00 0.000000000000000e+00 0.000000000000000e+00
0.000000000000000e+00 0.000000000000000e+00 0.000000000000000e+00
0.000000000000000e+00 0.000000000000000e+00 0.000000000000000e+00
0.000000000000000e+00 0.000000000000000e+00 0.000000000000000e+00
0.000000000000000e+00 0.000000000000000e+00 0.000000000000000e+00
0.000000000000000e+00 0.000000000000000e+00 0.000000000000000e+00
0.000000000000000e+00 0.000000000000000e+00 0.000000000000000e+00
0.000000000000000e+00 0.000000000000000e+00 0.000000000000000e+00
0.000000000000000e+00 0.000000000000000e+00 0.000000000000000e+00
0.000000000000000e+00 0.000000000000000e+00 0.000000000000000e+00
0.000000000000000e+00 0.000000000000000e+00 0.000000000000000e+00
0.000000000000000e+00 0.000000000000000e+00 0.000000000000000e+00
0.000000000000000e+00 0.000000000000000e+00 0.000000000000000e+00
0.000000000000000e+00 0.000000000000000e+00 0.000000000000000e+00
0.000000000000000e+00 0.000000000000000e+00 0.000000000000000e+00
0.000000000000000e+00 0.000000000000000e+00 0.000000000000000e+00
0.000000000000000e+00 0.000000000000000e+00 0.000000000000000e+00
0.000000000000000e+00 0.000000000000000e+00 0.000000000000000e+00
0.000000000000000e+00 0.000000000000000e+00 0.000000000000000e+00
0.000000000000000e+00 0.000000000000000e+00 0.000000000000000e+00
0.000000000000000e+00 0.000000000000000e+00 0.000000000000000e+00
0.000000000000000e+00 0.000000000000000e+00 0.000000000000000e+00
0.000000000000000e+00 0.000000000000000e+00 0.000000000000000e+00
0.000000000000000e+00 0.000000000000000e+00 0.000000000000000e+00
0.000000000000000e+00 0.000000000000000e+00 0.000000000000000e+00
0.000000000000000e+00 0.000000000000000e+00 0.000000000000000e+00
0.000000000000000e+00 0.000000000000000e+00 0.000000000000000e+00
0.000000000000000e+00 0.000000000000000e+00 0.000000000000000e+00
0.000000000000000e+00 0.000000000000000e+00 0.000000000000000e+00
0.000000000000000e+00 0.000000000000000e+00 0.000000000000000e+00
0.000000000000000e+00 0.000000000000000e+00 0.000000000000000e+00
0.000000000000000e+00 0.000000000000000e+00 0.000000000000000e+00
0.000000000000000e+00 0.000000000000000e+00 0.000000000000000e+00
0.000000000000000e+00 0.000000000000000e+00 0.000000000000000e+00
0.000000000000000e+00 0.000000000000000e+00 0.000000000000000e+00
0.000000000000000e+00 0.000000000000000e+00 0.000000000000000e+00
0.000000000000000e+00 0.000000000000000e+00 0.000000000000000e+00
0.000000000000000e+00 0.000000000000000e+00 0.000000000000000e+00
0.000000000000000e+00 0.000000000000000e+00 0.000000000000000e+00
0.000000000000000e+00 0.000000000000000e+00 0.000000000000000e+00
0.000000000000000e+00 0.000000000000000e+00 0.000000000000000e+00
0.000000000000000e+00 0.000000000000000e+00 0.000000000000000e+00
0.000000000000000e+00 0.000000000000000e+00 0.000000000000000e+00
0.000000000000000e+00 0.000000000000000e+00 0.000000000000000e+00
0.000000000000000e+00 0.000000000000000e+00 0.000000000000000e+00
0.000000000000000e+00 0.000000000000000e+00 0.000000000000000e+00
0.000000000000000e+00 0.000000000000000e+00 0.000000000000000e+00
0.000000000000000e+00 0.000000000000000e+00 0.000000000000000e+00
0.000000000000000e+00 0.000000000000000e+00 0.000000000000000e+00
0.000000000000000e+00 0.000000000000000e+00 0.000000000000000e+00
0.000000000000000e+00 0.000000000000000e+00 0.000000000000000e+00
0.000000000000000e+00 0.000000000000000e+00 0.000000000000000e+00
0.000000000000000e+00 0.000000000000000e+00 0.000000000000000e+00
0.000000000000000e+00 0.000000000000000e+00 0.000000000000000e+00
0.000000000000000e+00 0.000000000000000e+00 0.000000000000000e+00
0.000000000000000e+00 0.000000000000000e+00 0.000000000000000e+00
0.000000000000000e+00 0.000000000000000e+00 0.000000000000000e+00
0.000000000000000e+00 0.000000000000000e+00 0.000000000000000e+00
0.000000000000000e+00 0.000000000000000e+00 0.000000000000000e+00
0.000000000000000e+00 0.000000000000000e+00 0.000000000000000e+00
0.000000000000000e+00 0.000000000000000e+00 0.000000000000000e+00
0.000000000000000e+00 0.000000000000000e+00 0.000000000000000e+00
0.000000000000000e+00 0.000000000000000e+00 0.000000000000000e+00
0.000000000000000e+00 0.000000000000000e+00 0.000000000000000e+00
0.000000000000000e+00 0.000000000000000e+00 0.000000000000000e+00
0.000000000000000e+00 0.000000000000000e+00 0.000000000000000e+00
0.000000000000000e+00 0.000000000000000e+00 0.000000000000000e+00
0.000000000000000e+00 0.000000000000000e+00 0.000000000000000e+00
0.000000000000000e+00 0.000000000000000e+00 0.000000000000000e+00
0.000000000000000e+00 0.000000000000000e+00 0.000000000000000e+00
0.000000000000000e+00 0.000000000000000e+00 0.000000000000000e+00
0.000000000000000e+00 0.000000000000000e+00 0.000000000000000e+00
0.000000000000000e+00 0.000000000000000e+00 0.000000000000000e+00
0.000000000000000e+00 0.000000000000000e+00 0.000000000000000e+00
0.000000000000000e+00 0.000000000000000e+00 0.000000000000000e+00
0.000000000000000e+00 0.000000000000000e+00 0.000000000000000e+00
0.000000000000000e+00 0.000000000000000e+00 0.000000000000000e+00
0.000000000000000e+00 0.000000000000000e+00 0.000000000000000e+00
0.000000000000000e+00 0.000000000000000e+00 0.000000000000000e+00
0.000000000000000e+00 0.000000000000000e+00 0.000000000000000e+00
0.000000000000000e+00 0.000000000000000e+00 0.000000000000000e+00
0.000000000000000e+00 0.000000000000000e+00 0.000000000000000e+00
0.000000000000000e+00 0.000000000000000e+00 0.000000000000000e+00
0.000000000000000e+00 0.000000000000000e+00 0.000000000000000e+00
0.000000000000000e+00 0.000000000000000e+00 0.000000000000000e+00
0.000000000000000e+00 0.000000000000000e+00 0.000000000000000e+00
0.000000000000000e+00 0.000000000000000e+00 0.000000000000000e+00
0.000000000000000e+00 0.000000000000000e+00 0.000000000000000e+00
0.000000000000000e+00 0.000000000000000e+00 0.000000000000000e+00
0.000000000000000e+00 0.000000000000000e+00 0.000000000000000e+00
0.000000000000000e+00 0.000000000000000e+00 0.000000000000000e+00
0.000000000000000e+00 0.000000000000000e+00 0.000000000000000e+00
0.000000000000000e+00 0.000000000000000e+00 0.000000000000000e+00
0.000000000000000e+00 0.000000000000000e+00 0.000000000000000e+00
0.000000000000000e+00 0.000000000000000e+00 0.000000000000000e+00
0.000000000000000e+00 0.000000000000000e+00 0.000000000000000e+00
0.000000000000000e+00 0.000000000000000e+00 0.000000000000000e+00
0.000000000000000e+00 0.000000000000000e+00 0.000000000000000e+00
0.000000000000000e+00 0.000000000000000e+00 0.000000000000000e+00
0.000000000000000e+00 0.000000000000000e+00 0.000000000000000e+00
0.000000000000000e+00 0.000000000000000e+00 0.000000000000000e+00
0.000000000000000e+00 0.000000000000000e+00 0.000000000000000e+00
0.000000000000000e+00 0.000000000000000e+00 0.000000000000000e+00
0.000000000000000e+00 0.000000000000000e+00 0.000000000000000e+00
0.000000000000000e+00 0.000000000000000e+00 0.000000000000000e+00
0.000000000000000e+00 0.000000000000000e+00 0.000000000000000e+00
0.000000000000000e+00 0.000000000000000e+00 0.000000000000000e+00
0.000000000000000e+00 0.000000000000000e+00 0.000000000000000e+00
0.000000000000000e+00 0.000000000000000e+00 0.000000000000000e+00
0.000000000000000e+00 0.000000000000000e+00 0.000000000000000e+00
0.000000000000000e+00 0.000000000000000e+00 0.000000000000000e+00
0.000000000000000e+00 0.000000000000000e+00 0.000000000000000e+00
0.000000000000000e+00 0.000000000000000e+00 0.000000000000000e+00
0.000000000000000e+00 0.000000000000000e+00 0.000000000000000e+00
0.000000000000000e+00 0.000000000000000e+00 0.000000000000000e+00
0.000000000000000e+00 0.000000000000000e+00 0.000000000000000e+00
0.000000000000000e+00 0.000000000000000e+00 0.000000000000000e+00
0.000000000000000e+00 0.000000000000000e+00 0.000000000000000e+00
0.000000000000000e+00 0.000000000000000e+00 0.000000000000000e+00
0.000000000000000e+00 0.000000000000000e+00 0.000000000000000e+00
0.000000000000000e+00 0.000000000000000e+00 0.000000000000000e+00
0.000000000000000e+00 0.000000000000000e+00 0.000000000000000e+00
0.000000000000000e+00 0.000000000000000e+00 0.000000000000000e+00
0.000000000000000e+00 0.000000000000000e+00 0.000000000000000e+00
0.000000000000000e+00 0.000000000000000e+00 0.000000000000000e+00
0.000000000000000e+00 0.000000000000000e+00 0.000000000000000e+00
0.000000000000000e+00 0.000000000000000e+00 0.000000000000000e+00
0.000000000000000e+00 0.000000000000000e+00 0.000000000000000e+00
0.000000000000000e+00 0.000000000000000e+00 0.000000000000000e+00
0.000000000000000e+00 0.000000000000000e+00 0.000000000000000e+00
0.000000000000000e+00 0.000000000000000e+00 0.000000000000000e+00
0.000000000000000e+00 0.000000000000000e+00 0.000000000000000e+00
0.000000000000000e+00 0.000000000000000e+00 0.000000000000000e+00
0.000000000000000e+00 0.000000000000000e+00 0.000000000000000e+00
0.000000000000000e+00 0.000000000000000e+00 0.000000000000000e+00
0.000000000000000e+00 0.000000000000000e+00 0.000000000000000e+00
0.000000000000000e+00 0.000000000000000e+00 0.000000000000000e+00
0.000000000000000e+00 0.000000000000000e+00 0.000000000000000e+00
0.000000000000000e+00 0.000000000000000e+00 0.000000000000000e+00
0.000000000000000e+00 0.000000000000000e+00 0.000000000000000e+00
0.000000000000000e+00 0.000000000000000e+00 0.000000000000000e+00
0.000000000000000e+00 0.000000000000000e+00 0.000000000000000e+00
0.000000000000000e+00 0.000000000000000e+00 0.000000000000000e+00
0.000000000000000e+00 0.000000000000000e+00 0.000000000000000e+00
0.000000000000000e+00 0.000000000000000e+00 0.000000000000000e+00
0.000000000000000e+00 0.000000000000000e+00 0.000000000000000e+00
0.000000000000000e+00 0.000000000000000e+00 0.000000000000000e+00
0.000000000000000e+00 0.000000000000000e+00 0.000000000000000e+00
0.000000000000000e+00 0.000000000000000e+00 0.000000000000000e+00
0.000000000000000e+00 0.000000000000000e+00 0.000000000000000e+00
0.000000000000000e+00 0.000000000000000e+00 0.000000000000000e+00
0.000000000000000e+00 0.000000000000000e+00 0.000000000000000e+00
0.000000000000000e+00 0.000000000000000e+00 0.000000000000000e+00
0.000000000000000e+00 0.000000000000000e+00 0.000000000000000e+00
0.000000000000000e+00 0.000000000000000e+00 0.000000000000000e+00
0.000000000000000e+00 0.000000000000000e+00 0.000000000000000e+00
0.000000000000000e+00 0.000000000000000e+00 0.000000000000000e+00
0.000000000000000e+00 0.000000000000000e+00 0.000000000000000e+00
0.000000000000000e+00 0.000000000000000e+00 0.000000000000000e+00
0.000000000000000e+00 0.000000000000000e+00 0.000000000000000e+00
0.000000000000000e+00 0.000000000000000e+00 0.000000000000000e+00
0.000000000000000e+00 0.000000000000000e+00 0.000000000000000e+00
0.000000000000000e+00 0.000000000000000e+00 0.000000000000000e+00
0.000000000000000e+00 0.000000000000000e+00 0.000000000000000e+00
0.000000000000000e+00 0.000000000000000e+00 0.000000000000000e+00
0.000000000000000e+00 0.000000000000000e+00 0.000000000000000e+00
0.000000000000000e+00 0.000000000000000e+00 0.000000000000000e+00
0.000000000000000e+00 0.000000000000000e+00 0.000000000000000e+00
0.000000000000000e+00 0.000000000000000e+00 0.000000000000000e+00
0.000000000000000e+00 0.000000000000000e+00 0.000000000000000e+00
0.000000000000000e+00 0.000000000000000e+00 0.000000000000000e+00
0.000000000000000e+00 0.000000000000000e+00 0.000000000000000e+00
0.000000000000000e+00 0.000000000000000e+00 0.000000000000000e+00
0.000000000000000e+00 0.000000000000000e+00 0.000000000000000e+00
0.000000000000000e+00 0.000000000000000e+00 0.000000000000000e+00
0.000000000000000e+00 0.000000000000000e+00 0.000000000000000e+00
0.000000000000000e+00 0.000000000000000e+00 0.000000000000000e+00
0.000000000000000e+00 0.000000000000000e+00 0.000000000000000e+00
0.000000000000000e+00 0.000000000000000e+00 0.000000000000000e+00
0.000000000000000e+00 0.000000000000000e+00 0.000000000000000e+00
0.000000000000000e+00 0.000000000000000e+00 0.000000000000000e+00
0.000000000000000e+00 0.000000000000000e+00 0.000000000000000e+00
0.000000000000000e+00 0.000000000000000e+00 0.000000000000000e+00
0.000000000000000e+00 0.000000000000000e+00 0.000000000000000e+00
0.000000000000000e+00 0.000000000000000e+00 0.000000000000000e+00
0.000000000000000e+00 0.000000000000000e+00 0.000000000000000e+00
0.000000000000000e+00 0.000000000000000e+00 0.000000000000000e+00
0.000000000000000e+00 0.000000000000000e+00 0.000000000000000e+00
0.000000000000000e+00 0.000000000000000e+00 0.000000000000000e+00
0.000000000000000e+00 0.000000000000000e+00 0.000000000000000e+00
0.000000000000000e+00 0.000000000000000e+00 0.000000000000000e+00
0.000000000000000e+00 0.000000000000000e+00 0.000000000000000e+00
0.000000000000000e+00 0.000000000000000e+00 0.000000000000000e+00
0.000000000000000e+00 0.000000000000000e+00 0.000000000000000e+00
0.000000000000000e+00 0.000000000000000e+00 0.000000000000000e+00
0.000000000000000e+00 0.000000000000000e+00 0.000000000000000e+00
0.000000000000000e+00 0.000000000000000e+00 0.000000000000000e+00
0.000000000000000e+00 0.000000000000000e+00 0.000000000000000e+00
0.000000000000000e+00 0.000000000000000e+00 0.000000000000000e+00
0.000000000000000e+00 0.000000000000000e+00 0.000000000000000e+00
0.000000000000000e+00 0.000000000000000e+00 0.000000000000000e+00
0.000000000000000e+00 0.000000000000000e+00 0.000000000000000e+00
0.000000000000000e+00 0.000000000000000e+00 0.000000000000000e+00
0.000000000000000e+00 0.000000000000000e+00 0.000000000000000e+00
0.000000000000000e+00 0.000000000000000e+00 0.000000000000000e+00
0.000000000000000e+00 0.000000000000000e+00 0.000000000000000e+00
0.000000000000000e+00 0.000000000000000e+00 0.000000000000000e+00
0.000000000000000e+00 0.000000000000000e+00 0.000000000000000e+00
0.000000000000000e+00 0.000000000000000e+00 0.000000000000000e+00
0.000000000000000e+00 0.000000000000000e+00 0.000000000000000e+00
0.000000000000000e+00 0.000000000000000e+00 0.000000000000000e+00
0.000000000000000e+00 0.000000000000000e+00 0.000000000000000e+00
0.000000000000000e+00 0.000000000000000e+00 0.000000000000000e+00
0.000000000000000e+00 0.000000000000000e+00 0.000000000000000e+00
0.000000000000000e+00 0.000000000000000e+00 0.000000000000000e+00
0.000000000000000e+00 0.000000000000000e+00 0.000000000000000e+00
0.000000000000000e+00 0.000000000000000e+00 0.000000000000000e+00
0.000000000000000e+00 0.000000000000000e+00 0.000000000000000e+00
0.000000000000000e+00 0.000000000000000e+00 0.000000000000000e+00
0.000000000000000e+00 0.000000000000000e+00 0.000000000000000e+00
0.000000000000000e+00 0.000000000000000e+00 0.000000000000000e+00
0.000000000000000e+00 0.000000000000000e+00 0.000000000000000e+00
0.000000000000000e+00 0.000000000000000e+00 0.000000000000000e+00
0.000000000000000e+00 0.000000000000000e+00 0.000000000000000e+00
0.000000000000000e+00 0.000000000000000e+00 0.000000000000000e+00
0.000000000000000e+00 0.000000000000000e+00 0.000000000000000e+00
0.000000000000000e+00 0.000000000000000e+00 0.000000000000000e+00
0.000000000000000e+00 0.000000000000000e+00 0.000000000000000e+00
0.000000000000000e+00 0.000000000000000e+00 0.000000000000000e+00
0.000000000000000e+00 0.000000000000000e+00 0.000000000000000e+00
0.000000000000000e+00 0.000000000000000e+00 0.000000000000000e+00
0.000000000000000e+00 0.000000000000000e+00 0.000000000000000e+00
0.000000000000000e+00 0.000000000000000e+00 0.000000000000000e+00
0.000000000000000e+00 0.000000000000000e+00 0.000000000000000e+00
0.000000000000000e+00 0.000000000000000e+00 0.000000000000000e+00
0.000000000000000e+00 0.000000000000000e+00 0.000000000000000e+00
0.000000000000000e+00 0.000000000000000e+00 0.000000000000000e+00
0.000000000000000e+00 0.000000000000000e+00 0.000000000000000e+00
0.000000000000000e+00 0.000000000000000e+00 0.000000000000000e+00
0.000000000000000e+00 0.000000000000000e+00 0.000000000000000e+00
0.000000000000000e+00 0.000000000000000e+00 0.000000000000000e+00
0.000000000000000e+00 0.000000000000000e+00 0.000000000000000e+00
0.000000000000000e+00 0.000000000000000e+00 0.000000000000000e+00
0.000000000000000e+00 0.000000000000000e+00 0.000000000000000e+00
0.000000000000000e+00 0.000000000000000e+00 0.000000000000000e+00
0.000000000000000e+00 0.000000000000000e+00 0.000000000000000e+00
0.000000000000000e+00 0.000000000000000e+00 0.000000000000000e+00
0.000000000000000e+00 0.000000000000000e+00 0.000000000000000e+00
0.000000000000000e+00 0.000000000000000e+00 0.000000000000000e+00
0.000000000000000e+00 0.000000000000000e+00 0.000000000000000e+00
0.000000000000000e+00 0.000000000000000e+00 0.000000000000000e+00
0.000000000000000e+00 0.000000000000000e+00 0.000000000000000e+00
0.000000000000000e+00 0.000000000000000e+00 0.000000000000000e+00
0.000000000000000e+00 0.000000000000000e+00 0.000000000000000e+00
0.000000000000000e+00 0.000000000000000e+00 0.000000000000000e+00
0.000000000000000e+00 0.000000000000000e+00 0.000000000000000e+00
0.000000000000000e+00 0.000000000000000e+00 0.000000000000000e+00
0.000000000000000e+00 0.000000000000000e+00 0.000000000000000e+00
0.000000000000000e+00 0.000000000000000e+00 0.000000000000000e+00
0.000000000000000e+00 0.000000000000000e+00 0.000000000000000e+00
0.000000000000000e+00 0.000000000000000e+00 0.000000000000000e+00
0.000000000000000e+00 0.000000000000000e+00 0.000000000000000e+00
0.000000000000000e+00 0.000000000000000e+00 0.000000000000000e+00
0.000000000000000e+00 0.000000000000000e+00 0.000000000000000e+00
0.000000000000000e+00 0.000000000000000e+00 0.000000000000000e+00
0.000000000000000e+00 0.000000000000000e+00 0.000000000000000e+00
0.000000000000000e+00 0.000000000000000e+00 0.000000000000000e+00
0.000000000000000e+00 0.000000000000000e+00 0.000000000000000e+00
0.000000000000000e+00 0.000000000000000e+00 0.000000000000000e+00
0.000000000000000e+00 0.000000000000000e+00 0.000000000000000e+00
0.000000000000000e+00 0.000000000000000e+00 0.000000000000000e+00
0.000000000000000e+00 0.000000000000000e+00 0.000000000000000e+00
0.000000000000000e+00 0.000000000000000e+00 0.000000000000000e+00
0.000000000000000e+00 0.000000000000000e+00 0.000000000000000e+00
0.000000000000000e+00 0.000000000000000e+00 0.000000000000000e+00
0.000000000000000e+00 0.000000000000000e+00 0.000000000000000e+00
0.000000000000000e+00 0.000000000000000e+00 0.000000000000000e+00
0.000000000000000e+00 0.000000000000000e+00 0.000000000000000e+00
0.000000000000000e+00 0.000000000000000e+00 0.000000000000000e+00
0.000000000000000e+00 0.000000000000000e+00 0.000000000000000e+00
0.000000000000000e+00 0.000000000000000e+00 0.000000000000000e+00
0.000000000000000e+00 0.000000000000000e+00 0.000000000000000e+00
0.000000000000000e+00 0.000000000000000e+00 0.000000000000000e+00
0.000000000000000e+00 0.000000000000000e+00 0.000000000000000e+00
0.000000000000000e+00 0.000000000000000e+00 0.000000000000000e+00
0.000000000000000e+00 0.000000000000000e+00 0.000000000000000e+00
0.000000000000000e+00 0.000000000000000e+00 0.000000000000000e+00
0.000000000000000e+00 0.000000000000000e+00 0.000000000000000e+00
0.000000000000000e+00 0.000000000000000e+00 0.000000000000000e+00
0.000000000000000e+00 0.000000000000000e+00 0.000000000000000e+00
0.000000000000000e+00 0.000000000000000e+00 0.000000000000000e+00
0.000000000000000e+00 0.000000000000000e+00 0.000000000000000e+00
0.000000000000000e+00 0.000000000000000e+00 0.000000000000000e+00
0.000000000000000e+00 0.000000000000000e+00 0.000000000000000e+00
0.000000000000000e+00 0.000000000000000e+00 0.000000000000000e+00
0.000000000000000e+00 0.000000000000000e+00 0.000000000000000e+00
0.000000000000000e+00 0.000000000000000e+00 0.000000000000000e+00
0.000000000000000e+00 0.000000000000000e+00 0.000000000000000e+00
0.000000000000000e+00 0.000000000000000e+00 0.000000000000000e+00
0.000000000000000e+00 0.000000000000000e+00 0.000000000000000e+00
0.000000000000000e+00 0.000000000000000e+00 0.000000000000000e+00
0.000000000000000e+00 0.000000000000000e+00 0.000000000000000e+00
0.000000000000000e+00 0.000000000000000e+00 0.000000000000000e+00
0.000000000000000e+00 0.000000000000000e+00 0.000000000000000e+00
0.000000000000000e+00 0.000000000000000e+00 0.000000000000000e+00
0.000000000000000e+00 0.000000000000000e+00 0.000000000000000e+00
0.000000000000000e+00 0.000000000000000e+00 0.000000000000000e+00
0.000000000000000e+00 0.000000000000000e+00 0.000000000000000e+00
0.000000000000000e+00 0.000000000000000e+00 0.000000000000000e+00
0.000000000000000e+00 0.000000000000000e+00 0.000000000000000e+00
0.000000000000000e+00 0.000000000000000e+00 0.000000000000000e+00
0.000000000000000e+00 0.000000000000000e+00 0.000000000000000e+00
0.000000000000000e+00 0.000000000000000e+00 0.000000000000000e+00
0.000000000000000e+00 0.000000000000000e+00 0.000000000000000e+00
0.000000000000000e+00 0.000000000000000e+00 0.000000000000000e+00
0.000000000000000e+00 0.000000000000000e+00 0.000000000000000e+00
0.000000000000000e+00 0.000000000000000e+00 0.000000000000000e+00
0.000000000000000e+00 0.000000000000000e+00 0.000000000000000e+00
0.000000000000000e+00 0.000000000000000e+00 0.000000000000000e+00
0.000000000000000e+00 0.000000000000000e+00 0.000000000000000e+00
0.000000000000000e+00 0.000000000000000e+00 0.000000000000000e+00
0.000000000000000e+00 0.000000000000000e+00 0.000000000000000e+00
0.000000000000000e+00 0.000000000000000e+00 0.000000000000000e+00
0.000000000000000e+00 0.000000000000000e+00 0.000000000000000e+00
0.000000000000000e+00 0.000000000000000e+00 0.000000000000000e+00
0.000000000000000e+00 0.000000000000000e+00 0.000000000000000e+00
0.000000000000000e+00 0.000000000000000e+00 0.000000000000000e+00
0.000000000000000e+00 0.000000000000000e+00 0.000000000000000e+00
0.000000000000000e+00 0.000000000000000e+00 0.000000000000000e+00
0.000000000000000e+00 0.000000000000000e+00 0.000000000000000e+00
0.000000000000000e+00 0.000000000000000e+00 0.000000000000000e+00
0.000000000000000e+00 0.000000000000000e+00 0.000000000000000e+00
0.000000000000000e+00 0.000000000000000e+00 0.000000000000000e+00
0.000000000000000e+00 0.000000000000000e+00 0.000000000000000e+00
0.000000000000000e+00 0.000000000000000e+00 0.000000000000000e+00
0.000000000000000e+00 0.000000000000000e+00 0.000000000000000e+00
0.000000000000000e+00 0.000000000000000e+00 0.000000000000000e+00
0.000000000000000e+00 0.000000000000000e+00 0.000000000000000e+00
0.000000000000000e+00 0.000000000000000e+00 0.000000000000000e+00
0.000000000000000e+00 0.000000000000000e+00 0.000000000000000e+00
0.000000000000000e+00 0.000000000000000e+00 0.000000000000000e+00
0.000000000000000e+00 0.000000000000000e+00 0.000000000000000e+00
0.000000000000000e+00 0.000000000000000e+00 0.000000000000000e+00
0.000000000000000e+00 0.000000000000000e+00 0.000000000000000e+00
0.000000000000000e+00 0.000000000000000e+00 0.000000000000000e+00
0.000000000000000e+00 0.000000000000000e+00 0.000000000000000e+00
0.000000000000000e+00 0.000000000000000e+00 0.000000000000000e+00
0.000000000000000e+00 0.000000000000000e+00 0.000000000000000e+00
0.000000000000000e+00 0.000000000000000e+00 0.000000000000000e+00
0.000000000000000e+00 0.000000000000000e+00 0.000000000000000e+00
0.000000000000000e+00 0.000000000000000e+00 0.000000000000000e+00
0.000000000000000e+00 0.000000000000000e+00 0.000000000000000e+00
0.000000000000000e+00 0.000000000000000e+00 0.000000000000000e+00
0.000000000000000e+00 0.000000000000000e+00 0.000000000000000e+00
0.000000000000000e+00 0.000000000000000e+00 0.000000000000000e+00
0.000000000000000e+00 0.000000000000000e+00 0.000000000000000e+00
0.000000000000000e+00 0.000000000000000e+00 0.000000000000000e+00
0.000000000000000e+00 0.000000000000000e+00 0.000000000000000e+00
0.000000000000000e+00 0.000000000000000e+00 0.000000000000000e+00
0.000000000000000e+00 0.000000000000000e+00 0.000000000000000e+00
0.000000000000000e+00 0.000000000000000e+00 0.000000000000000e+00
0.000000000000000e+00 0.000000000000000e+00 0.000000000000000e+00
0.000000000000000e+00 0.000000000000000e+00 0.000000000000000e+00
0.000000000000000e+00 0.000000000000000e+00 0.000000000000000e+00
0.000000000000000e+00 0.000000000000000e+00 0.000000000000000e+00
0.000000000000000e+00 0.000000000000000e+00 0.000000000000000e+00
0.000000000000000e+00 0.000000000000000e+00 0.000000000000000e+00
0.000000000000000e+00 0.000000000000000e+00 0.000000000000000e+00
0.000000000000000e+00 0.000000000000000e+00 0.000000000000000e+00
0.000000000000000e+00 0.000000000000000e+00 0.000000000000000e+00
0.000000000000000e+00 0.000000000000000e+00 0.000000000000000e+00
0.000000000000000e+00 0.000000000000000e+00 0.000000000000000e+00
0.000000000000000e+00 0.000000000000000e+00 0.000000000000000e+00
0.000000000000000e+00 0.000000000000000e+00 0.000000000000000e+00
0.000000000000000e+00 0.000000000000000e+00 0.000000000000000e+00
0.000000000000000e+00 0.000000000000000e+00 0.000000000000000e+00
0.000000000000000e+00 0.000000000000000e+00 0.000000000000000e+00
0.000000000000000e+00 0.000000000000000e+00 0.000000000000000e+00
0.000000000000000e+00 0.000000000000000e+00 0.000000000000000e+00
0.000000000000000e+00 0.000000000000000e+00 0.000000000000000e+00
0.000000000000000e+00 0.000000000000000e+00 0.000000000000000e+00
0.000000000000000e+00 0.000000000000000e+00 0.000000000000000e+00
0.000000000000000e+00 0.000000000000000e+00 0.000000000000000e+00
0.000000000000000e+00 0.000000000000000e+00 0.000000000000000e+00
0.000000000000000e+00 0.000000000000000e+00 0.000000000000000e+00
0.000000000000000e+00 0.000000000000000e+00 0.000000000000000e+00
0.000000000000000e+00 0.000000000000000e+00 0.000000000000000e+00
0.000000000000000e+00 0.000000000000000e+00 0.000000000000000e+00
0.000000000000000e+00 0.000000000000000e+00 0.000000000000000e+00
0.000000000000000e+00 0.000000000000000e+00 0.000000000000000e+00
0.000000000000000e+00 0.000000000000000e+00 0.000000000000000e+00
0.000000000000000e+00 0.000000000000000e+00 0.000000000000000e+00
0.000000000000000e+00 0.000000000000000e+00 0.000000000000000e+00
0.000000000000000e+00 0.000000000000000e+00 0.000000000000000e+00
0.000000000000000e+00 0.000000000000000e+00 0.000000000000000e+00
0.000000000000000e+00 0.000000000000000e+00 0.000000000000000e+00
0.000000000000000e+00 0.000000000000000e+00 0.000000000000000e+00
0.000000000000000e+00 0.000000000000000e+00 0.000000000000000e+00
0.000000000000000e+00 0.000000000000000e+00 0.000000000000000e+00
0.000000000000000e+00 0.000000000000000e+00 0.000000000000000e+00
0.000000000000000e+00 0.000000000000000e+00 0.000000000000000e+00
0.000000000000000e+00 0.000000000000000e+00 0.000000000000000e+00
0.000000000000000e+00 0.000000000000000e+00 0.000000000000000e+00
0.000000000000000e+00 0.000000000000000e+00 0.000000000000000e+00
0.000000000000000e+00 0.000000000000000e+00 0.000000000000000e+00
0.000000000000000e+00 0.000000000000000e+00 0.000000000000000e+00
0.000000000000000e+00 0.000000000000000e+00 0.000000000000000e+00
0.000000000000000e+00 0.000000000000000e+00 0.000000000000000e+00
0.000000000000000e+00 0.000000000000000e+00 0.000000000000000e+00
0.000000000000000e+00 0.000000000000000e+00 0.000000000000000e+00
0.000000000000000e+00 0.000000000000000e+00 0.000000000000000e+00
0.000000000000000e+00 0.000000000000000e+00 0.000000000000000e+00
0.000000000000000e+00 0.000000000000000e+00 0.000000000000000e+00
0.000000000000000e+00 0.000000000000000e+00 0.000000000000000e+00
0.000000000000000e+00 0.000000000000000e+00 0.000000000000000e+00
0.000000000000000e+00 0.000000000000000e+00 0.000000000000000e+00
0.000000000000000e+00 0.000000000000000e+00 0.000000000000000e+00
0.000000000000000e+00 0.000000000000000e+00 0.000000000000000e+00
0.000000000000000e+00 0.000000000000000e+00 0.000000000000000e+00
0.000000000000000e+00 0.000000000000000e+00 0.000000000000000e+00
0.000000000000000e+00 0.000000000000000e+00 0.000000000000000e+00
0.000000000000000e+00 0.000000000000000e+00 0.000000000000000e+00
0.000000000000000e+00 0.000000000000000e+00 0.000000000000000e+00
0.000000000000000e+00 0.000000000000000e+00 0.000000000000000e+00
0.000000000000000e+00 0.000000000000000e+00 0.000000000000000e+00
0.000000000000000e+00 0.000000000000000e+00 0.000000000000000e+00
0.000000000000000e+00 0.000000000000000e+00 0.000000000000000e+00
0.000000000000000e+00 0.000000000000000e+00 0.000000000000000e+00
0.000000000000000e+00 0.000000000000000e+00 0.000000000000000e+00
0.000000000000000e+00 0.000000000000000e+00 0.000000000000000e+00
0.000000000000000e+00 0.000000000000000e+00 0.000000000000000e+00
0.000000000000000e+00 0.000000000000000e+00 0.000000000000000e+00
0.000000000000000e+00 0.000000000000000e+00 0.000000000000000e+00
0.000000000000000e+00 0.000000000000000e+00 0.000000000000000e+00
0.000000000000000e+00 0.000000000000000e+00 0.000000000000000e+00
0.000000000000000e+00 0.000000000000000e+00 0.000000000000000e+00
0.000000000000000e+00 0.000000000000000e+00 0.000000000000000e+00
0.000000000000000e+00 0.000000000000000e+00 0.000000000000000e+00
0.000000000000000e+00 0.000000000000000e+00 0.000000000000000e+00
0.000000000000000e+00 0.000000000000000e+00 0.000000000000000e+00
0.000000000000000e+00 0.000000000000000e+00 0.000000000000000e+00
0.000000000000000e+00 0.000000000000000e+00 0.000000000000000e+00
0.000000000000000e+00 0.000000000000000e+00 0.000000000000000e+00
0.000000000000000e+00 0.000000000000000e+00 0.000000000000000e+00
0.000000000000000e+00 0.000000000000000e+00 0.000000000000000e+00
0.000000000000000e+00 0.000000000000000e+00 0.000000000000000e+00
0.000000000000000e+00 0.000000000000000e+00 0.000000000000000e+00
0.000000000000000e+00 0.000000000000000e+00 0.000000000000000e+00
0.000000000000000e+00 0.000000000000000e+00 0.000000000000000e+00
0.000000000000000e+00 0.000000000000000e+00 0.000000000000000e+00
0.000000000000000e+00 0.000000000000000e+00 0.000000000000000e+00
0.000000000000000e+00 0.000000000000000e+00 0.000000000000000e+00
0.000000000000000e+00 0.000000000000000e+00 0.000000000000000e+00
0.000000000000000e+00 0.000000000000000e+00 0.000000000000000e+00
0.000000000000000e+00 0.000000000000000e+00 0.000000000000000e+00
0.000000000000000e+00 0.000000000000000e+00 0.000000000000000e+00
0.000000000000000e+00 0.000000000000000e+00 0.000000000000000e+00
0.000000000000000e+00 0.000000000000000e+00 0.000000000000000e+00
0.000000000000000e+00 0.000000000000000e+00 0.000000000000000e+00
0.000000000000000e+00 0.000000000000000e+00 0.000000000000000e+00
0.000000000000000e+00 0.000000000000000e+00 0.000000000000000e+00
0.000000000000000e+00 0.000000000000000e+00 0.000000000000000e+00
0.000000000000000e+00 0.000000000000000e+00 0.000000000000000e+00
0.000000000000000e+00 0.000000000000000e+00 0.000000000000000e+00
0.000000000000000e+00 0.000000000000000e+00 0.000000000000000e+00
0.000000000000000e+00 0.000000000000000e+00 0.000000000000000e+00
0.000000000000000e+00 0.000000000000000e+00 0.000000000000000e+00
0.000000000000000e+00 0.000000000000000e+00 0.000000000000000e+00
0.000000000000000e+00 0.000000000000000e+00 0.000000000000000e+00
0.000000000000000e+00 0.000000000000000e+00 0.000000000000000e+00
0.000000000000000e+00 0.000000000000000e+00 0.000000000000000e+00
0.000000000000000e+00 0.000000000000000e+00 0.000000000000000e+00
0.000000000000000e+00 0.000000000000000e+00 0.000000000000000e+00
0.000000000000000e+00 0.000000000000000e+00 0.000000000000000e+00
0.000000000000000e+00 0.000000000000000e+00 0.000000000000000e+00
0.000000000000000e+00 0.000000000000000e+00 0.000000000000000e+00
0.000000000000000e+00 0.000000000000000e+00 0.000000000000000e+00
0.000000000000000e+00 0.000000000000000e+00 0.000000000000000e+00
0.000000000000000e+00 0.000000000000000e+00 0.000000000000000e+00
0.000000000000000e+00 0.000000000000000e+00 0.000000000000000e+00
0.000000000000000e+00 0.000000000000000e+00 0.000000000000000e+00
0.000000000000000e+00 0.000000000000000e+00 0.000000000000000e+00
0.000000000000000e+00 0.000000000000000e+00 0.000000000000000e+00
0.000000000000000e+00 0.000000000000000e+00 0.000000000000000e+00
0.000000000000000e+00 0.000000000000000e+00 0.000000000000000e+00
0.000000000000000e+00 0.000000000000000e+00 0.000000000000000e+00
0.000000000000000e+00 0.000000000000000e+00 0.000000000000000e+00
0.000000000000000e+00 0.000000000000000e+00 0.000000000000000e+00
0.000000000000000e+00 0.000000000000000e+00 0.000000000000000e+00
0.000000000000000e+00 0.000000000000000e+00 0.000000000000000e+00
0.000000000000000e+00 0.000000000000000e+00 0.000000000000000e+00
0.000000000000000e+00 0.000000000000000e+00 0.000000000000000e+00
0.000000000000000e+00 0.000000000000000e+00 0.000000000000000e+00
0.000000000000000e+00 0.000000000000000e+00 0.000000000000000e+00
0.000000000000000e+00 0.000000000000000e+00 0.000000000000000e+00
0.000000000000000e+00 0.000000000000000e+00 0.000000000000000e+00
0.000000000000000e+00 0.000000000000000e+00 0.000000000000000e+00
0.000000000000000e+00 0.000000000000000e+00 0.000000000000000e+00
0.000000000000000e+00 0.000000000000000e+00 0.000000000000000e+00
0.000000000000000e+00 0.000000000000000e+00 0.000000000000000e+00
0.000000000000000e+00 0.000000000000000e+00 0.000000000000000e+00
0.000000000000000e+00 0.000000000000000e+00 0.000000000000000e+00
0.000000000000000e+00 0.000000000000000e+00 0.000000000000000e+00
0.000000000000000e+00 0.000000000000000e+00 0.000000000000000e+00
0.000000000000000e+00 0.000000000000000e+00 0.000000000000000e+00
0.000000000000000e+00 0.000000000000000e+00 0.000000000000000e+00
0.000000000000000e+00 0.000000000000000e+00 0.000000000000000e+00
0.000000000000000e+00 0.000000000000000e+00 0.000000000000000e+00
0.000000000000000e+00 0.000000000000000e+00 0.000000000000000e+00
0.000000000000000e+00 0.000000000000000e+00 0.000000000000000e+00
0.000000000000000e+00 0.000000000000000e+00 0.000000000000000e+00
0.000000000000000e+00 0.000000000000000e+00 0.000000000000000e+00
0.000000000000000e+00 0.000000000000000e+00 0.000000000000000e+00
0.000000000000000e+00 0.000000000000000e+00 0.000000000000000e+00
0.000000000000000e+00 0.000000000000000e+00 0.000000000000000e+00
0.000000000000000e+00 0.000000000000000e+00 0.000000000000000e+00
0.000000000000000e+00 0.000000000000000e+00 0.000000000000000e+00
0.000000000000000e+00 0.000000000000000e+00 0.000000000000000e+00
0.000000000000000e+00 0.000000000000000e+00 0.000000000000000e+00
0.000000000000000e+00 0.000000000000000e+00 0.000000000000000e+00
0.000000000000000e+00 0.000000000000000e+00 0.000000000000000e+00
0.000000000000000e+00 0.000000000000000e+00 0.000000000000000e+00
0.000000000000000e+00 0.000000000000000e+00 0.000000000000000e+00
0.000000000000000e+00 0.000000000000000e+00 0.000000000000000e+00
0.000000000000000e+00 0.000000000000000e+00 0.000000000000000e+00
0.000000000000000e+00 0.000000000000000e+00 0.000000000000000e+00
0.000000000000000e+00 0.000000000000000e+00 0.000000000000000e+00
0.000000000000000e+00 0.000000000000000e+00 0.000000000000000e+00
0.000000000000000e+00 0.000000000000000e+00 0.000000000000000e+00
0.000000000000000e+00 0.000000000000000e+00 0.000000000000000e+00
0.000000000000000e+00 0.000000000000000e+00 0.000000000000000e+00
0.000000000000000e+00 0.000000000000000e+00 0.000000000000000e+00
0.000000000000000e+00 0.000000000000000e+00 0.000000000000000e+00
0.000000000000000e+00 0.000000000000000e+00 0.000000000000000e+00
0.000000000000000e+00 0.000000000000000e+00 0.000000000000000e+00
0.000000000000000e+00 0.000000000000000e+00 0.000000000000000e+00
0.000000000000000e+00 0.000000000000000e+00 0.000000000000000e+00
0.000000000000000e+00 0.000000000000000e+00 0.000000000000000e+00
0.000000000000000e+00 0.000000000000000e+00 0.000000000000000e+00
0.000000000000000e+00 0.000000000000000e+00 0.000000000000000e+00
0.000000000000000e+00 0.000000000000000e+00 0.000000000000000e+00
0.000000000000000e+00 0.000000000000000e+00 0.000000000000000e+00
0.000000000000000e+00 0.000000000000000e+00 0.000000000000000e+00
0.000000000000000e+00 0.000000000000000e+00 0.000000000000000e+00
0.000000000000000e+00 0.000000000000000e+00 0.000000000000000e+00
0.000000000000000e+00 0.000000000000000e+00 0.000000000000000e+00
0.000000000000000e+00 0.000000000000000e+00 0.000000000000000e+00
0.000000000000000e+00 0.000000000000000e+00 0.000000000000000e+00
0.000000000000000e+00 0.000000000000000e+00 0.000000000000000e+00
0.000000000000000e+00 0.000000000000000e+00 0.000000000000000e+00
0.000000000000000e+00 0.000000000000000e+00 0.000000000000000e+00
0.000000000000000e+00 0.000000000000000e+00 0.000000000000000e+00
0.000000000000000e+00 0.000000000000000e+00 0.000000000000000e+00
0.000000000000000e+00 0.000000000000000e+00 0.000000000000000e+00
0.000000000000000e+00 0.000000000000000e+00 0.000000000000000e+00
0.000000000000000e+00 0.000000000000000e+00 0.000000000000000e+00
0.000000000000000e+00 0.000000000000000e+00 0.000000000000000e+00
0.000000000000000e+00 0.000000000000000e+00 0.000000000000000e+00
0.000000000000000e+00 0.000000000000000e+00 0.000000000000000e+00
0.000000000000000e+00 0.000000000000000e+00 0.000000000000000e+00
0.000000000000000e+00 0.000000000000000e+00 0.000000000000000e+00
0.000000000000000e+00 0.000000000000000e+00 0.000000000000000e+00
0.000000000000000e+00 0.000000000000000e+00 0.000000000000000e+00
0.000000000000000e+00 0.000000000000000e+00 0.000000000000000e+00
0.000000000000000e+00 0.000000000000000e+00 0.000000000000000e+00
0.000000000000000e+00 0.000000000000000e+00 0.000000000000000e+00
0.000000000000000e+00 0.000000000000000e+00 0.000000000000000e+00
0.000000000000000e+00 0.000000000000000e+00 0.000000000000000e+00
0.000000000000000e+00 0.000000000000000e+00 0.000000000000000e+00
0.000000000000000e+00 0.000000000000000e+00 0.000000000000000e+00
0.000000000000000e+00 0.000000000000000e+00 0.000000000000000e+00
0.000000000000000e+00 0.000000000000000e+00 0.000000000000000e+00
0.000000000000000e+00 0.000000000000000e+00 0.000000000000000e+00
0.000000000000000e+00 0.000000000000000e+00 0.000000000000000e+00
0.000000000000000e+00 0.000000000000000e+00 0.000000000000000e+00
0.000000000000000e+00 0.000000000000000e+00 0.000000000000000e+00
0.000000000000000e+00 0.000000000000000e+00 0.000000000000000e+00
0.000000000000000e+00 0.000000000000000e+00 0.000000000000000e+00
0.000000000000000e+00 0.000000000000000e+00 0.000000000000000e+00
0.000000000000000e+00 0.000000000000000e+00 0.000000000000000e+00
0.000000000000000e+00 0.000000000000000e+00 0.000000000000000e+00
0.000000000000000e+00 0.000000000000000e+00 0.000000000000000e+00
0.000000000000000e+00 0.000000000000000e+00 0.000000000000000e+00
0.000000000000000e+00 0.000000000000000e+00 0.000000000000000e+00
0.000000000000000e+00 0.000000000000000e+00 0.000000000000000e+00
0.000000000000000e+00 0.000000000000000e+00 0.000000000000000e+00
0.000000000000000e+00 0.000000000000000e+00 0.000000000000000e+00
0.000000000000000e+00 0.000000000000000e+00 0.000000000000000e+00
0.000000000000000e+00 0.000000000000000e+00 0.000000000000000e+00
0.000000000000000e+00 0.000000000000000e+00 0.000000000000000e+00
0.000000000000000e+00 0.000000000000000e+00 0.000000000000000e+00
0.000000000000000e+00 0.000000000000000e+00 0.000000000000000e+00
0.000000000000000e+00 0.000000000000000e+00 0.000000000000000e+00
0.000000000000000e+00 0.000000000000000e+00 0.000000000000000e+00
0.000000000000000e+00 0.000000000000000e+00 0.000000000000000e+00
0.000000000000000e+00 0.000000000000000e+00 0.000000000000000e+00
0.000000000000000e+00 0.000000000000000e+00 0.000000000000000e+00
0.000000000000000e+00 0.000000000000000e+00 0.000000000000000e+00
0.000000000000000e+00 0.000000000000000e+00 0.000000000000000e+00
0.000000000000000e+00 0.000000000000000e+00 0.000000000000000e+00
0.000000000000000e+00 0.000000000000000e+00 0.000000000000000e+00
0.000000000000000e+00 0.000000000000000e+00 0.000000000000000e+00
0.000000000000000e+00 0.000000000000000e+00 0.000000000000000e+00
0.000000000000000e+00 0.000000000000000e+00 0.000000000000000e+00
0.000000000000000e+00 0.000000000000000e+00 0.000000000000000e+00
0.000000000000000e+00 0.000000000000000e+00 0.000000000000000e+00
0.000000000000000e+00 0.000000000000000e+00 0.000000000000000e+00
0.000000000000000e+00 0.000000000000000e+00 0.000000000000000e+00
0.000000000000000e+00 0.000000000000000e+00 0.000000000000000e+00
0.000000000000000e+00 0.000000000000000e+00 0.000000000000000e+00
0.000000000000000e+00 0.000000000000000e+00 0.000000000000000e+00
0.000000000000000e+00 0.000000000000000e+00 0.000000000000000e+00
0.000000000000000e+00 0.000000000000000e+00 0.000000000000000e+00
0.000000000000000e+00 0.000000000000000e+00 0.000000000000000e+00
0.000000000000000e+00 0.000000000000000e+00 0.000000000000000e+00
0.000000000000000e+00 0.000000000000000e+00 0.000000000000000e+00
0.000000000000000e+00 0.000000000000000e+00 0.000000000000000e+00
0.000000000000000e+00 0.000000000000000e+00 0.000000000000000e+00
0.000000000000000e+00 0.000000000000000e+00 0.000000000000000e+00
0.000000000000000e+00 0.000000000000000e+00 0.000000000000000e+00
0.000000000000000e+00 0.000000000000000e+00 0.000000000000000e+00
0.000000000000000e+00 0.000000000000000e+00 0.000000000000000e+00
0.000000000000000e+00 0.000000000000000e+00 0.000000000000000e+00
0.000000000000000e+00 0.000000000000000e+00 0.000000000000000e+00
0.000000000000000e+00 0.000000000000000e+00 0.000000000000000e+00
0.000000000000000e+00 0.000000000000000e+00 0.000000000000000e+00
0.000000000000000e+00 0.000000000000000e+00 0.000000000000000e+00
0.000000000000000e+00 0.000000000000000e+00 0.000000000000000e+00
0.000000000000000e+00 0.000000000000000e+00 0.000000000000000e+00
0.000000000000000e+00 0.000000000000000e+00 0.000000000000000e+00
0.000000000000000e+00 0.000000000000000e+00 0.000000000000000e+00
0.000000000000000e+00 0.000000000000000e+00 0.000000000000000e+00
0.000000000000000e+00 0.000000000000000e+00 0.000000000000000e+00
0.000000000000000e+00 0.000000000000000e+00 0.000000000000000e+00
0.000000000000000e+00 0.000000000000000e+00 0.000000000000000e+00
0.000000000000000e+00 0.000000000000000e+00 0.000000000000000e+00
0.000000000000000e+00 0.000000000000000e+00 0.000000000000000e+00
0.000000000000000e+00 0.000000000000000e+00 0.000000000000000e+00
0.000000000000000e+00 0.000000000000000e+00 0.000000000000000e+00
0.000000000000000e+00 0.000000000000000e+00 0.000000000000000e+00
0.000000000000000e+00 0.000000000000000e+00 0.000000000000000e+00
0.000000000000000e+00 0.000000000000000e+00 0.000000000000000e+00
0.000000000000000e+00 0.000000000000000e+00 0.000000000000000e+00
0.000000000000000e+00 0.000000000000000e+00 0.000000000000000e+00
0.000000000000000e+00 0.000000000000000e+00 0.000000000000000e+00
0.000000000000000e+00 0.000000000000000e+00 0.000000000000000e+00
0.000000000000000e+00 0.000000000000000e+00 0.000000000000000e+00
0.000000000000000e+00 0.000000000000000e+00 0.000000000000000e+00
0.000000000000000e+00 0.000000000000000e+00 0.000000000000000e+00
0.000000000000000e+00 0.000000000000000e+00 0.000000000000000e+00
0.000000000000000e+00 0.000000000000000e+00 0.000000000000000e+00
0.000000000000000e+00 0.000000000000000e+00 0.000000000000000e+00
0.000000000000000e+00 0.000000000000000e+00 0.000000000000000e+00
0.000000000000000e+00 0.000000000000000e+00 0.000000000000000e+00
0.000000000000000e+00 0.000000000000000e+00 0.000000000000000e+00
0.000000000000000e+00 0.000000000000000e+00 0.000000000000000e+00
0.000000000000000e+00 0.000000000000000e+00 0.000000000000000e+00
0.000000000000000e+00 0.000000000000000e+00 0.000000000000000e+00
0.000000000000000e+00 0.000000000000000e+00 0.000000000000000e+00
0.000000000000000e+00 0.000000000000000e+00 0.000000000000000e+00
0.000000000000000e+00 0.000000000000000e+00 0.000000000000000e+00
0.000000000000000e+00 0.000000000000000e+00 0.000000000000000e+00
0.000000000000000e+00 0.000000000000000e+00 0.000000000000000e+00
0.000000000000000e+00 0.000000000000000e+00 0.000000000000000e+00
0.000000000000000e+00 0.000000000000000e+00 0.000000000000000e+00
0.000000000000000e+00 0.000000000000000e+00 0.000000000000000e+00
0.000000000000000e+00 0.000000000000000e+00 0.000000000000000e+00
0.000000000000000e+00 0.000000000000000e+00 0.000000000000000e+00
0.000000000000000e+00 0.000000000000000e+00 0.000000000000000e+00
0.000000000000000e+00 0.000000000000000e+00 0.000000000000000e+00
0.000000000000000e+00 0.000000000000000e+00 0.000000000000000e+00
0.000000000000000e+00 0.000000000000000e+00 0.000000000000000e+00
0.000000000000000e+00 0.000000000000000e+00 0.000000000000000e+00
0.000000000000000e+00 0.000000000000000e+00 0.000000000000000e+00
0.000000000000000e+00 0.000000000000000e+00 0.000000000000000e+00
0.000000000000000e+00 0.000000000000000e+00 0.000000000000000e+00
0.000000000000000e+00 0.000000000000000e+00 0.000000000000000e+00
0.000000000000000e+00 0.000000000000000e+00 0.000000000000000e+00
0.000000000000000e+00 0.000000000000000e+00 0.000000000000000e+00
0.000000000000000e+00 0.000000000000000e+00 0.000000000000000e+00
0.000000000000000e+00 0.000000000000000e+00 0.000000000000000e+00
0.000000000000000e+00 0.000000000000000e+00 0.000000000000000e+00
0.000000000000000e+00 0.000000000000000e+00 0.000000000000000e+00
0.000000000000000e+00 0.000000000000000e+00 0.000000000000000e+00
0.000000000000000e+00 0.000000000000000e+00 0.000000000000000e+00
0.000000000000000e+00 0.000000000000000e+00 0.000000000000000e+00
0.000000000000000e+00 0.000000000000000e+00 0.000000000000000e+00
0.000000000000000e+00 0.000000000000000e+00 0.000000000000000e+00
0.000000000000000e+00 0.000000000000000e+00 0.000000000000000e+00
0.000000000000000e+00 0.000000000000000e+00 0.000000000000000e+00
0.000000000000000e+00 0.000000000000000e+00 0.000000000000000e+00
0.000000000000000e+00 0.000000000000000e+00 0.000000000000000e+00
0.000000000000000e+00 0.000000000000000e+00 0.000000000000000e+00
0.000000000000000e+00 0.000000000000000e+00 0.000000000000000e+00
0.000000000000000e+00 0.000000000000000e+00 0.000000000000000e+00
0.000000000000000e+00 0.000000000000000e+00 0.000000000000000e+00
0.000000000000000e+00 0.000000000000000e+00 0.000000000000000e+00
0.000000000000000e+00 0.000000000000000e+00 0.000000000000000e+00
0.000000000000000e+00 0.000000000000000e+00 0.000000000000000e+00
0.000000000000000e+00 0.000000000000000e+00 0.000000000000000e+00
0.000000000000000e+00 0.000000000000000e+00 0.000000000000000e+00
0.000000000000000e+00 0.000000000000000e+00 0.000000000000000e+00
0.000000000000000e+00 0.000000000000000e+00 0.000000000000000e+00
0.000000000000000e+00 0.000000000000000e+00 0.000000000000000e+00
0.000000000000000e+00 0.000000000000000e+00 0.000000000000000e+00
0.000000000000000e+00 0.000000000000000e+00 0.000000000000000e+00
0.000000000000000e+00 0.000000000000000e+00 0.000000000000000e+00
0.000000000000000e+00 0.000000000000000e+00 0.000000000000000e+00
0.000000000000000e+00 0.000000000000000e+00 0.000000000000000e+00
0.000000000000000e+00 0.000000000000000e+00 0.000000000000000e+00
0.000000000000000e+00 0.000000000000000e+00 0.000000000000000e+00
0.000000000000000e+00 0.000000000000000e+00 0.000000000000000e+00
0.000000000000000e+00 0.000000000000000e+00 0.000000000000000e+00
0.000000000000000e+00 0.000000000000000e+00 0.000000000000000e+00
0.000000000000000e+00 0.000000000000000e+00 0.000000000000000e+00
0.000000000000000e+00 0.000000000000000e+00 0.000000000000000e+00
0.000000000000000e+00 0.000000000000000e+00 0.000000000000000e+00
0.000000000000000e+00 0.000000000000000e+00 0.000000000000000e+00
0.000000000000000e+00 0.000000000000000e+00 0.000000000000000e+00
0.000000000000000e+00 0.000000000000000e+00 0.000000000000000e+00
0.000000000000000e+00 0.000000000000000e+00 0.000000000000000e+00
0.000000000000000e+00 0.000000000000000e+00 0.000000000000000e+00
0.000000000000000e+00 0.000000000000000e+00 0.000000000000000e+00
0.000000000000000e+00 0.000000000000000e+00 0.000000000000000e+00
0.000000000000000e+00 0.000000000000000e+00 0.000000000000000e+00
0.000000000000000e+00 0.000000000000000e+00 0.000000000000000e+00
0.000000000000000e+00 0.000000000000000e+00 0.000000000000000e+00
0.000000000000000e+00 0.000000000000000e+00 0.000000000000000e+00
0.000000000000000e+00 0.000000000000000e+00 0.000000000000000e+00
0.000000000000000e+00 0.000000000000000e+00 0.000000000000000e+00
0.000000000000000e+00 0.000000000000000e+00 0.000000000000000e+00
0.000000000000000e+00 0.000000000000000e+00 0.000000000000000e+00
0.000000000000000e+00 0.000000000000000e+00 0.000000000000000e+00
0.000000000000000e+00 0.000000000000000e+00 0.000000000000000e+00
0.000000000000000e+00 0.000000000000000e+00 0.000000000000000e+00
0.000000000000000e+00 0.000000000000000e+00 0.000000000000000e+00
0.000000000000000e+00 0.000000000000000e+00 0.000000000000000e+00
0.000000000000000e+00 0.000000000000000e+00 0.000000000000000e+00
0.000000000000000e+00 0.000000000000000e+00 0.000000000000000e+00
0.000000000000000e+00 0.000000000000000e+00 0.000000000000000e+00
0.000000000000000e+00 0.000000000000000e+00 0.000000000000000e+00
0.000000000000000e+00 0.000000000000000e+00 0.000000000000000e+00
0.000000000000000e+00 0.000000000000000e+00 0.000000000000000e+00
0.000000000000000e+00 0.000000000000000e+00 0.000000000000000e+00
0.000000000000000e+00 0.000000000000000e+00 0.000000000000000e+00
0.000000000000000e+00 0.000000000000000e+00 0.000000000000000e+00
0.000000000000000e+00 0.000000000000000e+00 0.000000000000000e+00
0.000000000000000e+00 0.000000000000000e+00 0.000000000000000e+00
0.000000000000000e+00 0.000000000000000e+00 0.000000000000000e+00
0.000000000000000e+00 0.000000000000000e+00 0.000000000000000e+00
0.000000000000000e+00 0.000000000000000e+00 0.000000000000000e+00
0.000000000000000e+00 0.000000000000000e+00 0.000000000000000e+00
0.000000000000000e+00 0.000000000000000e+00 0.000000000000000e+00
0.000000000000000e+00 0.000000000000000e+00 0.000000000000000e+00
0.000000000000000e+00 0.000000000000000e+00 0.000000000000000e+00
0.000000000000000e+00 0.000000000000000e+00 0.000000000000000e+00
0.000000000000000e+00 0.000000000000000e+00 0.000000000000000e+00
0.000000000000000e+00 0.000000000000000e+00 0.000000000000000e+00
0.000000000000000e+00 0.000000000000000e+00 0.000000000000000e+00
0.000000000000000e+00 0.000000000000000e+00 0.000000000000000e+00
0.000000000000000e+00 0.000000000000000e+00 0.000000000000000e+00
0.000000000000000e+00 0.000000000000000e+00 0.000000000000000e+00
0.000000000000000e+00 0.000000000000000e+00 0.000000000000000e+00
0.000000000000000e+00 0.000000000000000e+00 0.000000000000000e+00
0.000000000000000e+00 0.000000000000000e+00 0.000000000000000e+00
0.000000000000000e+00 0.000000000000000e+00 0.000000000000000e+00
0.000000000000000e+00 0.000000000000000e+00 0.000000000000000e+00
0.000000000000000e+00 0.000000000000000e+00 0.000000000000000e+00
0.000000000000000e+00 0.000000000000000e+00 0.000000000000000e+00
0.000000000000000e+00 0.000000000000000e+00 0.000000000000000e+00
0.000000000000000e+00 0.000000000000000e+00 0.000000000000000e+00
0.000000000000000e+00 0.000000000000000e+00 0.000000000000000e+00
0.000000000000000e+00 0.000000000000000e+00 0.000000000000000e+00
0.000000000000000e+00 0.000000000000000e+00 0.000000000000000e+00
0.000000000000000e+00 0.000000000000000e+00 0.000000000000000e+00
0.000000000000000e+00 0.000000000000000e+00 0.000000000000000e+00
0.000000000000000e+00 0.000000000000000e+00 0.000000000000000e+00
0.000000000000000e+00 0.000000000000000e+00 0.000000000000000e+00
0.000000000000000e+00 0.000000000000000e+00 0.000000000000000e+00
0.000000000000000e+00 0.000000000000000e+00 0.000000000000000e+00
0.000000000000000e+00 0.000000000000000e+00 0.000000000000000e+00
0.000000000000000e+00 0.000000000000000e+00 0.000000000000000e+00
0.000000000000000e+00 0.000000000000000e+00 0.000000000000000e+00
0.000000000000000e+00 0.000000000000000e+00 0.000000000000000e+00
0.000000000000000e+00 0.000000000000000e+00 0.000000000000000e+00
0.000000000000000e+00 0.000000000000000e+00 0.000000000000000e+00
0.000000000000000e+00 0.000000000000000e+00 0.000000000000000e+00
0.000000000000000e+00 0.000000000000000e+00 0.000000000000000e+00
0.000000000000000e+00 0.000000000000000e+00 0.000000000000000e+00
0.000000000000000e+00 0.000000000000000e+00 0.000000000000000e+00
0.000000000000000e+00 0.000000000000000e+00 0.000000000000000e+00
0.000000000000000e+00 0.000000000000000e+00 0.000000000000000e+00
0.000000000000000e+00 0.000000000000000e+00 0.000000000000000e+00
0.000000000000000e+00 0.000000000000000e+00 0.000000000000000e+00
0.000000000000000e+00 0.000000000000000e+00 0.000000000000000e+00
0.000000000000000e+00 0.000000000000000e+00 0.000000000000000e+00
0.000000000000000e+00 0.000000000000000e+00 0.000000000000000e+00
0.000000000000000e+00 0.000000000000000e+00 0.000000000000000e+00
0.000000000000000e+00 0.000000000000000e+00 0.000000000000000e+00
0.000000000000000e+00 0.000000000000000e+00 0.000000000000000e+00
0.000000000000000e+00 0.000000000000000e+00 0.000000000000000e+00
0.000000000000000e+00 0.000000000000000e+00 0.000000000000000e+00
0.000000000000000e+00 0.000000000000000e+00 0.000000000000000e+00
0.000000000000000e+00 0.000000000000000e+00 0.000000000000000e+00
0.000000000000000e+00 0.000000000000000e+00 0.000000000000000e+00
0.000000000000000e+00 0.000000000000000e+00 0.000000000000000e+00
0.000000000000000e+00 0.000000000000000e+00 0.000000000000000e+00
0.000000000000000e+00 0.000000000000000e+00 0.000000000000000e+00
0.000000000000000e+00 0.000000000000000e+00 0.000000000000000e+00
0.000000000000000e+00 0.000000000000000e+00 0.000000000000000e+00
0.000000000000000e+00 0.000000000000000e+00 0.000000000000000e+00
0.000000000000000e+00 0.000000000000000e+00 0.000000000000000e+00
0.000000000000000e+00 0.000000000000000e+00 0.000000000000000e+00
0.000000000000000e+00 0.000000000000000e+00 0.000000000000000e+00
0.000000000000000e+00 0.000000000000000e+00 0.000000000000000e+00
0.000000000000000e+00 0.000000000000000e+00 0.000000000000000e+00
0.000000000000000e+00 0.000000000000000e+00 0.000000000000000e+00
0.000000000000000e+00 0.000000000000000e+00 0.000000000000000e+00
0.000000000000000e+00 0.000000000000000e+00 0.000000000000000e+00
0.000000000000000e+00 0.000000000000000e+00 0.000000000000000e+00
0.000000000000000e+00 0.000000000000000e+00 0.000000000000000e+00
0.000000000000000e+00 0.000000000000000e+00 0.000000000000000e+00
0.000000000000000e+00 0.000000000000000e+00 0.000000000000000e+00
0.000000000000000e+00 0.000000000000000e+00 0.000000000000000e+00
0.000000000000000e+00 0.000000000000000e+00 0.000000000000000e+00
0.000000000000000e+00 0.000000000000000e+00 0.000000000000000e+00
0.000000000000000e+00 0.000000000000000e+00 0.000000000000000e+00
0.000000000000000e+00 0.000000000000000e+00 0.000000000000000e+00
0.000000000000000e+00 0.000000000000000e+00 0.000000000000000e+00
0.000000000000000e+00 0.000000000000000e+00 0.000000000000000e+00
0.000000000000000e+00 0.000000000000000e+00 0.000000000000000e+00
0.000000000000000e+00 0.000000000000000e+00 0.000000000000000e+00
0.000000000000000e+00 0.000000000000000e+00 0.000000000000000e+00
0.000000000000000e+00 0.000000000000000e+00 0.000000000000000e+00
0.000000000000000e+00 0.000000000000000e+00 0.000000000000000e+00
0.000000000000000e+00 0.000000000000000e+00 0.000000000000000e+00
0.000000000000000e+00 0.000000000000000e+00 0.000000000000000e+00
0.000000000000000e+00 0.000000000000000e+00 0.000000000000000e+00
0.000000000000000e+00 0.000000000000000e+00 0.000000000000000e+00
0.000000000000000e+00 0.000000000000000e+00 0.000000000000000e+00
0.000000000000000e+00 0.000000000000000e+00 0.000000000000000e+00
0.000000000000000e+00 0.000000000000000e+00 0.000000000000000e+00
0.000000000000000e+00 0.000000000000000e+00 0.000000000000000e+00
0.000000000000000e+00 0.000000000000000e+00 0.000000000000000e+00
0.000000000000000e+00 0.000000000000000e+00 0.000000000000000e+00
0.000000000000000e+00 0.000000000000000e+00 0.000000000000000e+00
0.000000000000000e+00 0.000000000000000e+00 0.000000000000000e+00
0.000000000000000e+00 0.000000000000000e+00 0.000000000000000e+00
0.000000000000000e+00 0.000000000000000e+00 0.000000000000000e+00
0.000000000000000e+00 0.000000000000000e+00 0.000000000000000e+00
0.000000000000000e+00 0.000000000000000e+00 0.000000000000000e+00
0.000000000000000e+00 0.000000000000000e+00 0.000000000000000e+00
0.000000000000000e+00 0.000000000000000e+00 0.000000000000000e+00
0.000000000000000e+00 0.000000000000000e+00 0.000000000000000e+00
0.000000000000000e+00 0.000000000000000e+00 0.000000000000000e+00
0.000000000000000e+00 0.000000000000000e+00 0.000000000000000e+00
0.000000000000000e+00 0.000000000000000e+00 0.000000000000000e+00
0.000000000000000e+00 0.000000000000000e+00 0.000000000000000e+00
0.000000000000000e+00 0.000000000000000e+00 0.000000000000000e+00
0.000000000000000e+00 0.000000000000000e+00 0.000000000000000e+00
0.000000000000000e+00 0.000000000000000e+00 0.000000000000000e+00
0.000000000000000e+00 0.000000000000000e+00 0.000000000000000e+00
0.000000000000000e+00 0.000000000000000e+00 0.000000000000000e+00
0.000000000000000e+00 0.000000000000000e+00 0.000000000000000e+00
0.000000000000000e+00 0.000000000000000e+00 0.000000000000000e+00
0.000000000000000e+00 0.000000000000000e+00 0.000000000000000e+00
0.000000000000000e+00 0.000000000000000e+00 0.000000000000000e+00
0.000000000000000e+00 0.000000000000000e+00 0.000000000000000e+00
0.000000000000000e+00 0.000000000000000e+00 0.000000000000000e+00
0.000000000000000e+00 0.000000000000000e+00 0.000000000000000e+00
0.000000000000000e+00 0.000000000000000e+00 0.000000000000000e+00
0.000000000000000e+00 0.000000000000000e+00 0.000000000000000e+00
0.000000000000000e+00 0.000000000000000e+00 0.000000000000000e+00
0.000000000000000e+00 0.000000000000000e+00 0.000000000000000e+00
0.000000000000000e+00 0.000000000000000e+00 0.000000000000000e+00
0.000000000000000e+00 0.000000000000000e+00 0.000000000000000e+00
0.000000000000000e+00 0.000000000000000e+00 0.000000000000000e+00
0.000000000000000e+00 0.000000000000000e+00 0.000000000000000e+00
0.000000000000000e+00 0.000000000000000e+00 0.000000000000000e+00
0.000000000000000e+00 0.000000000000000e+00 0.000000000000000e+00
0.000000000000000e+00 0.000000000000000e+00 0.000000000000000e+00
0.000000000000000e+00 0.000000000000000e+00 0.000000000000000e+00
0.000000000000000e+00 0.000000000000000e+00 0.000000000000000e+00
0.000000000000000e+00 0.000000000000000e+00 0.000000000000000e+00
0.000000000000000e+00 0.000000000000000e+00 0.000000000000000e+00
0.000000000000000e+00 0.000000000000000e+00 0.000000000000000e+00
0.000000000000000e+00 0.000000000000000e+00 0.000000000000000e+00
0.000000000000000e+00 0.000000000000000e+00 0.000000000000000e+00
0.000000000000000e+00 0.000000000000000e+00 0.000000000000000e+00
0.000000000000000e+00 0.000000000000000e+00 0.000000000000000e+00
0.000000000000000e+00 0.000000000000000e+00 0.000000000000000e+00
0.000000000000000e+00 0.000000000000000e+00 0.000000000000000e+00
0.000000000000000e+00 0.000000000000000e+00 0.000000000000000e+00
0.000000000000000e+00 0.000000000000000e+00 0.000000000000000e+00
0.000000000000000e+00 0.000000000000000e+00 0.000000000000000e+00
0.000000000000000e+00 0.000000000000000e+00 0.000000000000000e+00
0.000000000000000e+00 0.000000000000000e+00 0.000000000000000e+00
0.000000000000000e+00 0.000000000000000e+00 0.000000000000000e+00
0.000000000000000e+00 0.000000000000000e+00 0.000000000000000e+00
0.000000000000000e+00 0.000000000000000e+00 0.000000000000000e+00
0.000000000000000e+00 0.000000000000000e+00 0.000000000000000e+00
0.000000000000000e+00 0.000000000000000e+00 0.000000000000000e+00
0.000000000000000e+00 0.000000000000000e+00 0.000000000000000e+00
0.000000000000000e+00 0.000000000000000e+00 0.000000000000000e+00
0.000000000000000e+00 0.000000000000000e+00 0.000000000000000e+00
0.000000000000000e+00 0.000000000000000e+00 0.000000000000000e+00
0.000000000000000e+00 0.000000000000000e+00 0.000000000000000e+00
0.000000000000000e+00 0.000000000000000e+00 0.000000000000000e+00
0.000000000000000e+00 0.000000000000000e+00 0.000000000000000e+00
0.000000000000000e+00 0.000000000000000e+00 0.000000000000000e+00
0.000000000000000e+00 0.000000000000000e+00 0.000000000000000e+00
0.000000000000000e+00 0.000000000000000e+00 0.000000000000000e+00
0.000000000000000e+00 0.000000000000000e+00 0.000000000000000e+00
0.000000000000000e+00 0.000000000000000e+00 0.000000000000000e+00
0.000000000000000e+00 0.000000000000000e+00 0.000000000000000e+00
0.000000000000000e+00 0.000000000000000e+00 0.000000000000000e+00
0.000000000000000e+00 0.000000000000000e+00 0.000000000000000e+00
0.000000000000000e+00 0.000000000000000e+00 0.000000000000000e+00
0.000000000000000e+00 0.000000000000000e+00 0.000000000000000e+00
0.000000000000000e+00 0.000000000000000e+00 0.000000000000000e+00
0.000000000000000e+00 0.000000000000000e+00 0.000000000000000e+00
0.000000000000000e+00 0.000000000000000e+00 0.000000000000000e+00
0.000000000000000e+00 0.000000000000000e+00 0.000000000000000e+00
0.000000000000000e+00 0.000000000000000e+00 0.000000000000000e+00
0.000000000000000e+00 0.000000000000000e+00 0.000000000000000e+00
0.000000000000000e+00 0.000000000000000e+00 0.000000000000000e+00
0.000000000000000e+00 0.000000000000000e+00 0.000000000000000e+00
0.000000000000000e+00 0.000000000000000e+00 0.000000000000000e+00
0.000000000000000e+00 0.000000000000000e+00 0.000000000000000e+00
0.000000000000000e+00 0.000000000000000e+00 0.000000000000000e+00
0.000000000000000e+00 0.000000000000000e+00 0.000000000000000e+00
0.000000000000000e+00 0.000000000000000e+00 0.000000000000000e+00
0.000000000000000e+00 0.000000000000000e+00 0.000000000000000e+00
0.000000000000000e+00 0.000000000000000e+00 0.000000000000000e+00
0.000000000000000e+00 0.000000000000000e+00 0.000000000000000e+00
0.000000000000000e+00 0.000000000000000e+00 0.000000000000000e+00
0.000000000000000e+00 0.000000000000000e+00 0.000000000000000e+00
0.000000000000000e+00 0.000000000000000e+00 0.000000000000000e+00
0.000000000000000e+00 0.000000000000000e+00 0.000000000000000e+00
0.000000000000000e+00 0.000000000000000e+00 0.000000000000000e+00
0.000000000000000e+00 0.000000000000000e+00 0.000000000000000e+00
0.000000000000000e+00 0.000000000000000e+00 0.000000000000000e+00
0.000000000000000e+00 0.000000000000000e+00 0.000000000000000e+00
0.000000000000000e+00 0.000000000000000e+00 0.000000000000000e+00
0.000000000000000e+00 0.000000000000000e+00 0.000000000000000e+00
0.000000000000000e+00 0.000000000000000e+00 0.000000000000000e+00
0.000000000000000e+00 0.000000000000000e+00 0.000000000000000e+00
0.000000000000000e+00 0.000000000000000e+00 0.000000000000000e+00
0.000000000000000e+00 0.000000000000000e+00 0.000000000000000e+00
0.000000000000000e+00 0.000000000000000e+00 0.000000000000000e+00
0.000000000000000e+00 0.000000000000000e+00 0.000000000000000e+00
0.000000000000000e+00 0.000000000000000e+00 0.000000000000000e+00
0.000000000000000e+00 0.000000000000000e+00 0.000000000000000e+00
0.000000000000000e+00 0.000000000000000e+00 0.000000000000000e+00
0.000000000000000e+00 0.000000000000000e+00 0.000000000000000e+00
0.000000000000000e+00 0.000000000000000e+00 0.000000000000000e+00
0.000000000000000e+00 0.000000000000000e+00 0.000000000000000e+00
0.000000000000000e+00 0.000000000000000e+00 0.000000000000000e+00
0.000000000000000e+00 0.000000000000000e+00 0.000000000000000e+00
0.000000000000000e+00 0.000000000000000e+00 0.000000000000000e+00
0.000000000000000e+00 0.000000000000000e+00 0.000000000000000e+00
0.000000000000000e+00 0.000000000000000e+00 0.000000000000000e+00
0.000000000000000e+00 0.000000000000000e+00 0.000000000000000e+00
0.000000000000000e+00 0.000000000000000e+00 0.000000000000000e+00
0.000000000000000e+00 0.000000000000000e+00 0.000000000000000e+00
0.000000000000000e+00 0.000000000000000e+00 0.000000000000000e+00
0.000000000000000e+00 0.000000000000000e+00 0.000000000000000e+00
0.000000000000000e+00 0.000000000000000e+00 0.000000000000000e+00
0.000000000000000e+00 0.000000000000000e+00 0.000000000000000e+00
0.000000000000000e+00 0.000000000000000e+00 0.000000000000000e+00
0.000000000000000e+00 0.000000000000000e+00 0.000000000000000e+00
0.000000000000000e+00 0.000000000000000e+00 0.000000000000000e+00
0.000000000000000e+00 0.000000000000000e+00 0.000000000000000e+00
0.000000000000000e+00 0.000000000000000e+00 0.000000000000000e+00
0.000000000000000e+00 0.000000000000000e+00 0.000000000000000e+00
0.000000000000000e+00 0.000000000000000e+00 0.000000000000000e+00
0.000000000000000e+00 0.000000000000000e+00 0.000000000000000e+00
0.000000000000000e+00 0.000000000000000e+00 0.000000000000000e+00
0.000000000000000e+00 0.000000000000000e+00 0.000000000000000e+00
0.000000000000000e+00 0.000000000000000e+00 0.000000000000000e+00
0.000000000000000e+00 0.000000000000000e+00 0.000000000000000e+00
0.000000000000000e+00 0.000000000000000e+00 0.000000000000000e+00
0.000000000000000e+00 0.000000000000000e+00 0.000000000000000e+00
0.000000000000000e+00 0.000000000000000e+00 0.000000000000000e+00
0.000000000000000e+00 0.000000000000000e+00 0.000000000000000e+00
0.000000000000000e+00 0.000000000000000e+00 0.000000000000000e+00
0.000000000000000e+00 0.000000000000000e+00 0.000000000000000e+00
0.000000000000000e+00 0.000000000000000e+00 0.000000000000000e+00
0.000000000000000e+00 0.000000000000000e+00 0.000000000000000e+00
0.000000000000000e+00 0.000000000000000e+00 0.000000000000000e+00
0.000000000000000e+00 0.000000000000000e+00 0.000000000000000e+00
0.000000000000000e+00 0.000000000000000e+00 0.000000000000000e+00
0.000000000000000e+00 0.000000000000000e+00 0.000000000000000e+00
0.000000000000000e+00 0.000000000000000e+00 0.000000000000000e+00
0.000000000000000e+00 0.000000000000000e+00 0.000000000000000e+00
0.000000000000000e+00 0.000000000000000e+00 0.000000000000000e+00
0.000000000000000e+00 0.000000000000000e+00 0.000000000000000e+00
0.000000000000000e+00 0.000000000000000e+00 0.000000000000000e+00
0.000000000000000e+00 0.000000000000000e+00 0.000000000000000e+00
0.000000000000000e+00 0.000000000000000e+00 0.000000000000000e+00
0.000000000000000e+00 0.000000000000000e+00 0.000000000000000e+00
0.000000000000000e+00 0.000000000000000e+00 0.000000000000000e+00
0.000000000000000e+00 0.000000000000000e+00 0.000000000000000e+00
0.000000000000000e+00 0.000000000000000e+00 0.000000000000000e+00
0.000000000000000e+00 0.000000000000000e+00 0.000000000000000e+00
0.000000000000000e+00 0.000000000000000e+00 0.000000000000000e+00
0.000000000000000e+00 0.000000000000000e+00 0.000000000000000e+00
0.000000000000000e+00 0.000000000000000e+00 0.000000000000000e+00
0.000000000000000e+00 0.000000000000000e+00 0.000000000000000e+00
0.000000000000000e+00 0.000000000000000e+00 0.000000000000000e+00
0.000000000000000e+00 0.000000000000000e+00 0.000000000000000e+00
0.000000000000000e+00 0.000000000000000e+00 0.000000000000000e+00
0.000000000000000e+00 0.000000000000000e+00 0.000000000000000e+00
0.000000000000000e+00 0.000000000000000e+00 0.000000000000000e+00
0.000000000000000e+00 0.000000000000000e+00 0.000000000000000e+00
0.000000000000000e+00 0.000000000000000e+00 0.000000000000000e+00
0.000000000000000e+00 0.000000000000000e+00 0.000000000000000e+00
0.000000000000000e+00 0.000000000000000e+00 0.000000000000000e+00
0.000000000000000e+00 0.000000000000000e+00 0.000000000000000e+00
0.000000000000000e+00 0.000000000000000e+00 0.000000000000000e+00
0.000000000000000e+00 0.000000000000000e+00 0.000000000000000e+00
0.000000000000000e+00 0.000000000000000e+00 0.000000000000000e+00
0.000000000000000e+00 0.000000000000000e+00 0.000000000000000e+00
0.000000000000000e+00 0.000000000000000e+00 0.000000000000000e+00
0.000000000000000e+00 0.000000000000000e+00 0.000000000000000e+00
0.000000000000000e+00 0.000000000000000e+00 0.000000000000000e+00
0.000000000000000e+00 0.000000000000000e+00 0.000000000000000e+00
0.000000000000000e+00 0.000000000000000e+00 0.000000000000000e+00
0.000000000000000e+00 0.000000000000000e+00 0.000000000000000e+00
0.000000000000000e+00 0.000000000000000e+00 0.000000000000000e+00
0.000000000000000e+00 0.000000000000000e+00 0.000000000000000e+00
0.000000000000000e+00 0.000000000000000e+00 0.000000000000000e+00
0.000000000000000e+00 0.000000000000000e+00 0.000000000000000e+00
0.000000000000000e+00 0.000000000000000e+00 0.000000000000000e+00
0.000000000000000e+00 0.000000000000000e+00 0.000000000000000e+00
0.000000000000000e+00 0.000000000000000e+00 0.000000000000000e+00
0.000000000000000e+00 0.000000000000000e+00 0.000000000000000e+00
0.000000000000000e+00 0.000000000000000e+00 0.000000000000000e+00
0.000000000000000e+00 0.000000000000000e+00 0.000000000000000e+00
0.000000000000000e+00 0.000000000000000e+00 0.000000000000000e+00
0.000000000000000e+00 0.000000000000000e+00 0.000000000000000e+00
0.000000000000000e+00 0.000000000000000e+00 0.000000000000000e+00
0.000000000000000e+00 0.000000000000000e+00 0.000000000000000e+00
0.000000000000000e+00 0.000000000000000e+00 0.000000000000000e+00
0.000000000000000e+00 0.000000000000000e+00 0.000000000000000e+00
0.000000000000000e+00 0.000000000000000e+00 0.000000000000000e+00
0.000000000000000e+00 0.000000000000000e+00 0.000000000000000e+00
0.000000000000000e+00 0.000000000000000e+00 0.000000000000000e+00
0.000000000000000e+00 0.000000000000000e+00 0.000000000000000e+00
0.000000000000000e+00 0.000000000000000e+00 0.000000000000000e+00
0.000000000000000e+00 0.000000000000000e+00 0.000000000000000e+00
0.000000000000000e+00 0.000000000000000e+00 0.000000000000000e+00
0.000000000000000e+00 0.000000000000000e+00 0.000000000000000e+00
0.000000000000000e+00 0.000000000000000e+00 0.000000000000000e+00
0.000000000000000e+00 0.000000000000000e+00 0.000000000000000e+00
0.000000000000000e+00 0.000000000000000e+00 0.000000000000000e+00
0.000000000000000e+00 0.000000000000000e+00 0.000000000000000e+00
0.000000000000000e+00 0.000000000000000e+00 0.000000000000000e+00
0.000000000000000e+00 0.000000000000000e+00 0.000000000000000e+00
0.000000000000000e+00 0.000000000000000e+00 0.000000000000000e+00
0.000000000000000e+00 0.000000000000000e+00 0.000000000000000e+00
0.000000000000000e+00 0.000000000000000e+00 0.000000000000000e+00
0.000000000000000e+00 0.000000000000000e+00 0.000000000000000e+00
0.000000000000000e+00 0.000000000000000e+00 0.000000000000000e+00
0.000000000000000e+00 0.000000000000000e+00 0.000000000000000e+00
0.000000000000000e+00 0.000000000000000e+00 0.000000000000000e+00
0.000000000000000e+00 0.000000000000000e+00 0.000000000000000e+00
0.000000000000000e+00 0.000000000000000e+00 0.000000000000000e+00
0.000000000000000e+00 0.000000000000000e+00 0.000000000000000e+00
0.000000000000000e+00 0.000000000000000e+00 0.000000000000000e+00
0.000000000000000e+00 0.000000000000000e+00 0.000000000000000e+00
0.000000000000000e+00 0.000000000000000e+00 0.000000000000000e+00
0.000000000000000e+00 0.000000000000000e+00 0.000000000000000e+00
0.000000000000000e+00 0.000000000000000e+00 0.000000000000000e+00
0.000000000000000e+00 0.000000000000000e+00 0.000000000000000e+00
0.000000000000000e+00 0.000000000000000e+00 0.000000000000000e+00
0.000000000000000e+00 0.000000000000000e+00 0.000000000000000e+00
0.000000000000000e+00 0.000000000000000e+00 0.000000000000000e+00
0.000000000000000e+00 0.000000000000000e+00 0.000000000000000e+00
0.000000000000000e+00 0.000000000000000e+00 0.000000000000000e+00
0.000000000000000e+00 0.000000000000000e+00 0.000000000000000e+00
0.000000000000000e+00 0.000000000000000e+00 0.000000000000000e+00
0.000000000000000e+00 0.000000000000000e+00 0.000000000000000e+00
0.000000000000000e+00 0.000000000000000e+00 0.000000000000000e+00
0.000000000000000e+00 0.000000000000000e+00 0.000000000000000e+00
0.000000000000000e+00 0.000000000000000e+00 0.000000000000000e+00
0.000000000000000e+00 0.000000000000000e+00 0.000000000000000e+00
0.000000000000000e+00 0.000000000000000e+00 0.000000000000000e+00
0.000000000000000e+00 0.000000000000000e+00 0.000000000000000e+00
0.000000000000000e+00 0.000000000000000e+00 0.000000000000000e+00
0.000000000000000e+00 0.000000000000000e+00 0.000000000000000e+00
0.000000000000000e+00 0.000000000000000e+00 0.000000000000000e+00
0.000000000000000e+00 0.000000000000000e+00 0.000000000000000e+00
0.000000000000000e+00 0.000000000000000e+00 0.000000000000000e+00
0.000000000000000e+00 0.000000000000000e+00 0.000000000000000e+00
0.000000000000000e+00 0.000000000000000e+00 0.000000000000000e+00
0.000000000000000e+00 0.000000000000000e+00 0.000000000000000e+00
0.000000000000000e+00 0.000000000000000e+00 0.000000000000000e+00
0.000000000000000e+00 0.000000000000000e+00 0.000000000000000e+00
0.000000000000000e+00 0.000000000000000e+00 0.000000000000000e+00
0.000000000000000e+00 0.000000000000000e+00 0.000000000000000e+00
0.000000000000000e+00 0.000000000000000e+00 0.000000000000000e+00
0.000000000000000e+00 0.000000000000000e+00 0.000000000000000e+00
0.000000000000000e+00 0.000000000000000e+00 0.000000000000000e+00
0.000000000000000e+00 0.000000000000000e+00 0.000000000000000e+00
0.000000000000000e+00 0.000000000000000e+00 0.000000000000000e+00
0.000000000000000e+00 0.000000000000000e+00 0.000000000000000e+00
0.000000000000000e+00 0.000000000000000e+00 0.000000000000000e+00
0.000000000000000e+00 0.000000000000000e+00 0.000000000000000e+00
0.000000000000000e+00 0.000000000000000e+00 0.000000000000000e+00
0.000000000000000e+00 0.000000000000000e+00 0.000000000000000e+00
0.000000000000000e+00 0.000000000000000e+00 0.000000000000000e+00
0.000000000000000e+00 0.000000000000000e+00 0.000000000000000e+00
0.000000000000000e+00 0.000000000000000e+00 0.000000000000000e+00
0.000000000000000e+00 0.000000000000000e+00 0.000000000000000e+00
0.000000000000000e+00 0.000000000000000e+00 0.000000000000000e+00
0.000000000000000e+00 0.000000000000000e+00 0.000000000000000e+00
0.000000000000000e+00 0.000000000000000e+00 0.000000000000000e+00
0.000000000000000e+00 0.000000000000000e+00 0.000000000000000e+00
0.000000000000000e+00 0.000000000000000e+00 0.000000000000000e+00
0.000000000000000e+00 0.000000000000000e+00 0.000000000000000e+00
0.000000000000000e+00 0.000000000000000e+00 0.000000000000000e+00
0.000000000000000e+00 0.000000000000000e+00 0.000000000000000e+00
0.000000000000000e+00 0.000000000000000e+00 0.000000000000000e+00
0.000000000000000e+00 0.000000000000000e+00 0.000000000000000e+00
0.000000000000000e+00 0.000000000000000e+00 0.000000000000000e+00
0.000000000000000e+00 0.000000000000000e+00 0.000000000000000e+00
0.000000000000000e+00 0.000000000000000e+00 0.000000000000000e+00
0.000000000000000e+00 0.000000000000000e+00 0.000000000000000e+00
0.000000000000000e+00 0.000000000000000e+00 0.000000000000000e+00
0.000000000000000e+00 0.000000000000000e+00 0.000000000000000e+00
0.000000000000000e+00 0.000000000000000e+00 0.000000000000000e+00
0.000000000000000e+00 0.000000000000000e+00 0.000000000000000e+00
0.000000000000000e+00 0.000000000000000e+00 0.000000000000000e+00
0.000000000000000e+00 0.000000000000000e+00 0.000000000000000e+00
0.000000000000000e+00 0.000000000000000e+00 0.000000000000000e+00
0.000000000000000e+00 0.000000000000000e+00 0.000000000000000e+00
0.000000000000000e+00 0.000000000000000e+00 0.000000000000000e+00
0.000000000000000e+00 0.000000000000000e+00 0.000000000000000e+00
0.000000000000000e+00 0.000000000000000e+00 0.000000000000000e+00
0.000000000000000e+00 0.000000000000000e+00 0.000000000000000e+00
0.000000000000000e+00 0.000000000000000e+00 0.000000000000000e+00
0.000000000000000e+00 0.000000000000000e+00 0.000000000000000e+00
0.000000000000000e+00 0.000000000000000e+00 0.000000000000000e+00
0.000000000000000e+00 0.000000000000000e+00 0.000000000000000e+00
0.000000000000000e+00 0.000000000000000e+00 0.000000000000000e+00
0.000000000000000e+00 0.000000000000000e+00 0.000000000000000e+00
0.000000000000000e+00 0.000000000000000e+00 0.000000000000000e+00
0.000000000000000e+00 0.000000000000000e+00 0.000000000000000e+00
0.000000000000000e+00 0.000000000000000e+00 0.000000000000000e+00
0.000000000000000e+00 0.000000000000000e+00 0.000000000000000e+00
0.000000000000000e+00 0.000000000000000e+00 0.000000000000000e+00
0.000000000000000e+00 0.000000000000000e+00 0.000000000000000e+00
0.000000000000000e+00 0.000000000000000e+00 0.000000000000000e+00
0.000000000000000e+00 0.000000000000000e+00 0.000000000000000e+00
0.000000000000000e+00 0.000000000000000e+00 0.000000000000000e+00
0.000000000000000e+00 0.000000000000000e+00 0.000000000000000e+00
0.000000000000000e+00 0.000000000000000e+00 0.000000000000000e+00
0.000000000000000e+00 0.000000000000000e+00 0.000000000000000e+00
0.000000000000000e+00 0.000000000000000e+00 0.000000000000000e+00
0.000000000000000e+00 0.000000000000000e+00 0.000000000000000e+00
0.000000000000000e+00 0.000000000000000e+00 0.000000000000000e+00
0.000000000000000e+00 0.000000000000000e+00 0.000000000000000e+00
0.000000000000000e+00 0.000000000000000e+00 0.000000000000000e+00
0.000000000000000e+00 0.000000000000000e+00 0.000000000000000e+00
0.000000000000000e+00 0.000000000000000e+00 0.000000000000000e+00
0.000000000000000e+00 0.000000000000000e+00 0.000000000000000e+00
0.000000000000000e+00 0.000000000000000e+00 0.000000000000000e+00
0.000000000000000e+00 0.000000000000000e+00 0.000000000000000e+00
0.000000000000000e+00 0.000000000000000e+00 0.000000000000000e+00
0.000000000000000e+00 0.000000000000000e+00 0.000000000000000e+00
0.000000000000000e+00 0.000000000000000e+00 0.000000000000000e+00
0.000000000000000e+00 0.000000000000000e+00 0.000000000000000e+00
0.000000000000000e+00 0.000000000000000e+00 0.000000000000000e+00
0.000000000000000e+00 0.000000000000000e+00 0.000000000000000e+00
0.000000000000000e+00 0.000000000000000e+00 0.000000000000000e+00
0.000000000000000e+00 0.000000000000000e+00 0.000000000000000e+00
0.000000000000000e+00 0.000000000000000e+00 0.000000000000000e+00
0.000000000000000e+00 0.000000000000000e+00 0.000000000000000e+00
0.000000000000000e+00 0.000000000000000e+00 0.000000000000000e+00
0.000000000000000e+00 0.000000000000000e+00 0.000000000000000e+00
0.000000000000000e+00 0.000000000000000e+00 0.000000000000000e+00
0.000000000000000e+00 0.000000000000000e+00 0.000000000000000e+00
0.000000000000000e+00 0.000000000000000e+00 0.000000000000000e+00
0.000000000000000e+00 0.000000000000000e+00 0.000000000000000e+00
0.000000000000000e+00 0.000000000000000e+00 0.000000000000000e+00
0.000000000000000e+00 0.000000000000000e+00 0.000000000000000e+00
0.000000000000000e+00 0.000000000000000e+00 0.000000000000000e+00
0.000000000000000e+00 0.000000000000000e+00 0.000000000000000e+00
0.000000000000000e+00 0.000000000000000e+00 0.000000000000000e+00
0.000000000000000e+00 0.000000000000000e+00 0.000000000000000e+00
0.000000000000000e+00 0.000000000000000e+00 0.000000000000000e+00
0.000000000000000e+00 0.000000000000000e+00 0.000000000000000e+00
0.000000000000000e+00 0.000000000000000e+00 0.000000000000000e+00
0.000000000000000e+00 0.000000000000000e+00 0.000000000000000e+00
0.000000000000000e+00 0.000000000000000e+00 0.000000000000000e+00
0.000000000000000e+00 0.000000000000000e+00 0.000000000000000e+00
0.000000000000000e+00 0.000000000000000e+00 0.000000000000000e+00
0.000000000000000e+00 0.000000000000000e+00 0.000000000000000e+00
0.000000000000000e+00 0.000000000000000e+00 0.000000000000000e+00
0.000000000000000e+00 0.000000000000000e+00 0.000000000000000e+00
0.000000000000000e+00 0.000000000000000e+00 0.000000000000000e+00
0.000000000000000e+00 0.000000000000000e+00 0.000000000000000e+00
0.000000000000000e+00 0.000000000000000e+00 0.000000000000000e+00
0.000000000000000e+00 0.000000000000000e+00 0.000000000000000e+00
0.000000000000000e+00 0.000000000000000e+00 0.000000000000000e+00
0.000000000000000e+00 0.000000000000000e+00 0.000000000000000e+00
0.000000000000000e+00 0.000000000000000e+00 0.000000000000000e+00
0.000000000000000e+00 0.000000000000000e+00 0.000000000000000e+00
0.000000000000000e+00 0.000000000000000e+00 0.000000000000000e+00
0.000000000000000e+00 0.000000000000000e+00 0.000000000000000e+00
0.000000000000000e+00 0.000000000000000e+00 0.000000000000000e+00
0.000000000000000e+00 0.000000000000000e+00 0.000000000000000e+00
0.000000000000000e+00 0.000000000000000e+00 0.000000000000000e+00
0.000000000000000e+00 0.000000000000000e+00 0.000000000000000e+00
0.000000000000000e+00 0.000000000000000e+00 0.000000000000000e+00
0.000000000000000e+00 0.000000000000000e+00 0.000000000000000e+00
0.000000000000000e+00 0.000000000000000e+00 0.000000000000000e+00
0.000000000000000e+00 0.000000000000000e+00 0.000000000000000e+00
0.000000000000000e+00 0.000000000000000e+00 0.000000000000000e+00
0.000000000000000e+00 0.000000000000000e+00 0.000000000000000e+00
0.000000000000000e+00 0.000000000000000e+00 0.000000000000000e+00
0.000000000000000e+00 0.000000000000000e+00 0.000000000000000e+00
0.000000000000000e+00 0.000000000000000e+00 0.000000000000000e+00
0.000000000000000e+00 0.000000000000000e+00 0.000000000000000e+00
0.000000000000000e+00 0.000000000000000e+00 0.000000000000000e+00
0.000000000000000e+00 0.000000000000000e+00 0.000000000000000e+00
0.000000000000000e+00 0.000000000000000e+00 0.000000000000000e+00
0.000000000000000e+00 0.000000000000000e+00 0.000000000000000e+00
0.000000000000000e+00 0.000000000000000e+00 0.000000000000000e+00
0.000000000000000e+00 0.000000000000000e+00 0.000000000000000e+00
0.000000000000000e+00 0.000000000000000e+00 0.000000000000000e+00
0.000000000000000e+00 0.000000000000000e+00 0.000000000000000e+00
0.000000000000000e+00 0.000000000000000e+00 0.000000000000000e+00
0.000000000000000e+00 0.000000000000000e+00 0.000000000000000e+00
0.000000000000000e+00 0.000000000000000e+00 0.000000000000000e+00
0.000000000000000e+00 0.000000000000000e+00 0.000000000000000e+00
0.000000000000000e+00 0.000000000000000e+00 0.000000000000000e+00
0.000000000000000e+00 0.000000000000000e+00 0.000000000000000e+00
0.000000000000000e+00 0.000000000000000e+00 0.000000000000000e+00
0.000000000000000e+00 0.000000000000000e+00 0.000000000000000e+00
0.000000000000000e+00 0.000000000000000e+00 0.000000000000000e+00
0.000000000000000e+00 0.000000000000000e+00 0.000000000000000e+00
0.000000000000000e+00 0.000000000000000e+00 0.000000000000000e+00
0.000000000000000e+00 0.000000000000000e+00 0.000000000000000e+00
0.000000000000000e+00 0.000000000000000e+00 0.000000000000000e+00
0.000000000000000e+00 0.000000000000000e+00 0.000000000000000e+00
0.000000000000000e+00 0.000000000000000e+00 0.000000000000000e+00
0.000000000000000e+00 0.000000000000000e+00 0.000000000000000e+00
0.000000000000000e+00 0.000000000000000e+00 0.000000000000000e+00
0.000000000000000e+00 0.000000000000000e+00 0.000000000000000e+00
0.000000000000000e+00 0.000000000000000e+00 0.000000000000000e+00
0.000000000000000e+00 0.000000000000000e+00 0.000000000000000e+00
0.000000000000000e+00 0.000000000000000e+00 0.000000000000000e+00
0.000000000000000e+00 0.000000000000000e+00 0.000000000000000e+00
0.000000000000000e+00 0.000000000000000e+00 0.000000000000000e+00
0.000000000000000e+00 0.000000000000000e+00 0.000000000000000e+00
0.000000000000000e+00 0.000000000000000e+00 0.000000000000000e+00
0.000000000000000e+00 0.000000000000000e+00 0.000000000000000e+00
0.000000000000000e+00 0.000000000000000e+00 0.000000000000000e+00
0.000000000000000e+00 0.000000000000000e+00 0.000000000000000e+00
0.000000000000000e+00 0.000000000000000e+00 0.000000000000000e+00
0.000000000000000e+00 0.000000000000000e+00 0.000000000000000e+00
0.000000000000000e+00 0.000000000000000e+00 0.000000000000000e+00
0.000000000000000e+00 0.000000000000000e+00 0.000000000000000e+00
0.000000000000000e+00 0.000000000000000e+00 0.000000000000000e+00
0.000000000000000e+00 0.000000000000000e+00 0.000000000000000e+00
0.000000000000000e+00 0.000000000000000e+00 0.000000000000000e+00
0.000000000000000e+00 0.000000000000000e+00 0.000000000000000e+00
0.000000000000000e+00 0.000000000000000e+00 0.000000000000000e+00
0.000000000000000e+00 0.000000000000000e+00 0.000000000000000e+00
0.000000000000000e+00 0.000000000000000e+00 0.000000000000000e+00
0.000000000000000e+00 0.000000000000000e+00 0.000000000000000e+00
0.000000000000000e+00 0.000000000000000e+00 0.000000000000000e+00
0.000000000000000e+00 0.000000000000000e+00 0.000000000000000e+00
0.000000000000000e+00 0.000000000000000e+00 0.000000000000000e+00
0.000000000000000e+00 0.000000000000000e+00 0.000000000000000e+00
0.000000000000000e+00 0.000000000000000e+00 0.000000000000000e+00
0.000000000000000e+00 0.000000000000000e+00 0.000000000000000e+00
0.000000000000000e+00 0.000000000000000e+00 0.000000000000000e+00
0.000000000000000e+00 0.000000000000000e+00 0.000000000000000e+00
0.000000000000000e+00 0.000000000000000e+00 0.000000000000000e+00
0.000000000000000e+00 0.000000000000000e+00 0.000000000000000e+00
0.000000000000000e+00 0.000000000000000e+00 0.000000000000000e+00
0.000000000000000e+00 0.000000000000000e+00 0.000000000000000e+00
0.000000000000000e+00 0.000000000000000e+00 0.000000000000000e+00
0.000000000000000e+00 0.000000000000000e+00 0.000000000000000e+00
0.000000000000000e+00 0.000000000000000e+00 0.000000000000000e+00
0.000000000000000e+00 0.000000000000000e+00 0.000000000000000e+00
0.000000000000000e+00 0.000000000000000e+00 0.000000000000000e+00
0.000000000000000e+00 0.000000000000000e+00 0.000000000000000e+00
0.000000000000000e+00 0.000000000000000e+00 0.000000000000000e+00
0.000000000000000e+00 0.000000000000000e+00 0.000000000000000e+00
0.000000000000000e+00 0.000000000000000e+00 0.000000000000000e+00
0.000000000000000e+00 0.000000000000000e+00 0.000000000000000e+00
0.000000000000000e+00 0.000000000000000e+00 0.000000000000000e+00
0.000000000000000e+00 0.000000000000000e+00 0.000000000000000e+00
0.000000000000000e+00 0.000000000000000e+00 0.000000000000000e+00
0.000000000000000e+00 0.000000000000000e+00 0.000000000000000e+00
0.000000000000000e+00 0.000000000000000e+00 0.000000000000000e+00
0.000000000000000e+00 0.000000000000000e+00 0.000000000000000e+00
0.000000000000000e+00 0.000000000000000e+00 0.000000000000000e+00
0.000000000000000e+00 0.000000000000000e+00 0.000000000000000e+00
0.000000000000000e+00 0.000000000000000e+00 0.000000000000000e+00
0.000000000000000e+00 0.000000000000000e+00 0.000000000000000e+00
0.000000000000000e+00 0.000000000000000e+00 0.000000000000000e+00
0.000000000000000e+00 0.000000000000000e+00 0.000000000000000e+00
0.000000000000000e+00 0.000000000000000e+00 0.000000000000000e+00
0.000000000000000e+00 0.000000000000000e+00 0.000000000000000e+00
0.000000000000000e+00 0.000000000000000e+00 0.000000000000000e+00
0.000000000000000e+00 0.000000000000000e+00 0.000000000000000e+00
0.000000000000000e+00 0.000000000000000e+00 0.000000000000000e+00
0.000000000000000e+00 0.000000000000000e+00 0.000000000000000e+00
0.000000000000000e+00 0.000000000000000e+00 0.000000000000000e+00
0.000000000000000e+00 0.000000000000000e+00 0.000000000000000e+00
0.000000000000000e+00 0.000000000000000e+00 0.000000000000000e+00
0.000000000000000e+00 0.000000000000000e+00 0.000000000000000e+00
0.000000000000000e+00 0.000000000000000e+00 0.000000000000000e+00
0.000000000000000e+00 0.000000000000000e+00 0.000000000000000e+00
0.000000000000000e+00 0.000000000000000e+00 0.000000000000000e+00
0.000000000000000e+00 0.000000000000000e+00 0.000000000000000e+00
0.000000000000000e+00 0.000000000000000e+00 0.000000000000000e+00
0.000000000000000e+00 0.000000000000000e+00 0.000000000000000e+00
0.000000000000000e+00 0.000000000000000e+00 0.000000000000000e+00
0.000000000000000e+00 0.000000000000000e+00 0.000000000000000e+00
0.000000000000000e+00 0.000000000000000e+00 0.000000000000000e+00
0.000000000000000e+00 0.000000000000000e+00 0.000000000000000e+00
0.000000000000000e+00 0.000000000000000e+00 0.000000000000000e+00
0.000000000000000e+00 0.000000000000000e+00 0.000000000000000e+00
0.000000000000000e+00 0.000000000000000e+00 0.000000000000000e+00
0.000000000000000e+00 0.000000000000000e+00 0.000000000000000e+00
0.000000000000000e+00 0.000000000000000e+00 0.000000000000000e+00
0.000000000000000e+00 0.000000000000000e+00 0.000000000000000e+00
0.000000000000000e+00 0.000000000000000e+00 0.000000000000000e+00
0.000000000000000e+00 0.000000000000000e+00 0.000000000000000e+00
0.000000000000000e+00 0.000000000000000e+00 0.000000000000000e+00
0.000000000000000e+00 0.000000000000000e+00 0.000000000000000e+00
0.000000000000000e+00 0.000000000000000e+00 0.000000000000000e+00
0.000000000000000e+00 0.000000000000000e+00 0.000000000000000e+00
0.000000000000000e+00 0.000000000000000e+00 0.000000000000000e+00
0.000000000000000e+00 0.000000000000000e+00 0.000000000000000e+00
0.000000000000000e+00 0.000000000000000e+00 0.000000000000000e+00
0.000000000000000e+00 0.000000000000000e+00 0.000000000000000e+00
0.000000000000000e+00 0.000000000000000e+00 0.000000000000000e+00
0.000000000000000e+00 0.000000000000000e+00 0.000000000000000e+00
0.000000000000000e+00 0.000000000000000e+00 0.000000000000000e+00
0.000000000000000e+00 0.000000000000000e+00 0.000000000000000e+00
0.000000000000000e+00 0.000000000000000e+00 0.000000000000000e+00
0.000000000000000e+00 0.000000000000000e+00 0.000000000000000e+00
0.000000000000000e+00 0.000000000000000e+00 0.000000000000000e+00
0.000000000000000e+00 0.000000000000000e+00 0.000000000000000e+00
0.000000000000000e+00 0.000000000000000e+00 0.000000000000000e+00
0.000000000000000e+00 0.000000000000000e+00 0.000000000000000e+00
0.000000000000000e+00 0.000000000000000e+00 0.000000000000000e+00
0.000000000000000e+00 0.000000000000000e+00 0.000000000000000e+00
0.000000000000000e+00 0.000000000000000e+00 0.000000000000000e+00
0.000000000000000e+00 0.000000000000000e+00 0.000000000000000e+00
0.000000000000000e+00 0.000000000000000e+00 0.000000000000000e+00
0.000000000000000e+00 0.000000000000000e+00 0.000000000000000e+00
0.000000000000000e+00 0.000000000000000e+00 0.000000000000000e+00
0.000000000000000e+00 0.000000000000000e+00 0.000000000000000e+00
0.000000000000000e+00 0.000000000000000e+00 0.000000000000000e+00
0.000000000000000e+00 0.000000000000000e+00 0.000000000000000e+00
0.000000000000000e+00 0.000000000000000e+00 0.000000000000000e+00
0.000000000000000e+00 0.000000000000000e+00 0.000000000000000e+00
0.000000000000000e+00 0.000000000000000e+00 0.000000000000000e+00
0.000000000000000e+00 0.000000000000000e+00 0.000000000000000e+00
0.000000000000000e+00 0.000000000000000e+00 0.000000000000000e+00
0.000000000000000e+00 0.000000000000000e+00 0.000000000000000e+00
0.000000000000000e+00 0.000000000000000e+00 0.000000000000000e+00
0.000000000000000e+00 0.000000000000000e+00 0.000000000000000e+00
0.000000000000000e+00 0.000000000000000e+00 0.000000000000000e+00
0.000000000000000e+00 0.000000000000000e+00 0.000000000000000e+00
0.000000000000000e+00 0.000000000000000e+00 0.000000000000000e+00
0.000000000000000e+00 0.000000000000000e+00 0.000000000000000e+00
0.000000000000000e+00 0.000000000000000e+00 0.000000000000000e+00
0.000000000000000e+00 0.000000000000000e+00 0.000000000000000e+00
0.000000000000000e+00 0.000000000000000e+00 0.000000000000000e+00
0.000000000000000e+00 0.000000000000000e+00 0.000000000000000e+00
0.000000000000000e+00 0.000000000000000e+00 0.000000000000000e+00
0.000000000000000e+00 0.000000000000000e+00 0.000000000000000e+00
0.000000000000000e+00 0.000000000000000e+00 0.000000000000000e+00
0.000000000000000e+00 0.000000000000000e+00 0.000000000000000e+00
0.000000000000000e+00 0.000000000000000e+00 0.000000000000000e+00
0.000000000000000e+00 0.000000000000000e+00 0.000000000000000e+00
0.000000000000000e+00 0.000000000000000e+00 0.000000000000000e+00
0.000000000000000e+00 0.000000000000000e+00 0.000000000000000e+00
0.000000000000000e+00 0.000000000000000e+00 0.000000000000000e+00
0.000000000000000e+00 0.000000000000000e+00 0.000000000000000e+00
0.000000000000000e+00 0.000000000000000e+00 0.000000000000000e+00
0.000000000000000e+00 0.000000000000000e+00 0.000000000000000e+00
0.000000000000000e+00 0.000000000000000e+00 0.000000000000000e+00
0.000000000000000e+00 0.000000000000000e+00 0.000000000000000e+00
0.000000000000000e+00 0.000000000000000e+00 0.000000000000000e+00
0.000000000000000e+00 0.000000000000000e+00 0.000000000000000e+00
0.000000000000000e+00 0.000000000000000e+00 0.000000000000000e+00
0.000000000000000e+00 0.000000000000000e+00 0.000000000000000e+00
0.000000000000000e+00 0.000000000000000e+00 0.000000000000000e+00
0.000000000000000e+00 0.000000000000000e+00 0.000000000000000e+00
0.000000000000000e+00 0.000000000000000e+00 0.000000000000000e+00
0.000000000000000e+00 0.000000000000000e+00 0.000000000000000e+00
0.000000000000000e+00 0.000000000000000e+00 0.000000000000000e+00
0.000000000000000e+00 0.000000000000000e+00 0.000000000000000e+00
0.000000000000000e+00 0.000000000000000e+00 0.000000000000000e+00
0.000000000000000e+00 0.000000000000000e+00 0.000000000000000e+00
0.000000000000000e+00 0.000000000000000e+00 0.000000000000000e+00
0.000000000000000e+00 0.000000000000000e+00 0.000000000000000e+00
0.000000000000000e+00 0.000000000000000e+00 0.000000000000000e+00
0.000000000000000e+00 0.000000000000000e+00 0.000000000000000e+00
0.000000000000000e+00 0.000000000000000e+00 0.000000000000000e+00
0.000000000000000e+00 0.000000000000000e+00 0.000000000000000e+00
0.000000000000000e+00 0.000000000000000e+00 0.000000000000000e+00
0.000000000000000e+00 0.000000000000000e+00 0.000000000000000e+00
0.000000000000000e+00 0.000000000000000e+00 0.000000000000000e+00
0.000000000000000e+00 0.000000000000000e+00 0.000000000000000e+00
0.000000000000000e+00 0.000000000000000e+00 0.000000000000000e+00
0.000000000000000e+00 0.000000000000000e+00 0.000000000000000e+00
0.000000000000000e+00 0.000000000000000e+00 0.000000000000000e+00
0.000000000000000e+00 0.000000000000000e+00 0.000000000000000e+00
0.000000000000000e+00 0.000000000000000e+00 0.000000000000000e+00
0.000000000000000e+00 0.000000000000000e+00 0.000000000000000e+00
0.000000000000000e+00 0.000000000000000e+00 0.000000000000000e+00
0.000000000000000e+00 0.000000000000000e+00 0.000000000000000e+00
0.000000000000000e+00 0.000000000000000e+00 0.000000000000000e+00
0.000000000000000e+00 0.000000000000000e+00 0.000000000000000e+00
0.000000000000000e+00 0.000000000000000e+00 0.000000000000000e+00
0.000000000000000e+00 0.000000000000000e+00 0.000000000000000e+00
0.000000000000000e+00 0.000000000000000e+00 0.000000000000000e+00
0.000000000000000e+00 0.000000000000000e+00 0.000000000000000e+00
0.000000000000000e+00 0.000000000000000e+00 0.000000000000000e+00
0.000000000000000e+00 0.000000000000000e+00 0.000000000000000e+00
0.000000000000000e+00 0.000000000000000e+00 0.000000000000000e+00
0.000000000000000e+00 0.000000000000000e+00 0.000000000000000e+00
0.000000000000000e+00 0.000000000000000e+00 0.000000000000000e+00
0.000000000000000e+00 0.000000000000000e+00 0.000000000000000e+00
0.000000000000000e+00 0.000000000000000e+00 0.000000000000000e+00
0.000000000000000e+00 0.000000000000000e+00 0.000000000000000e+00
0.000000000000000e+00 0.000000000000000e+00 0.000000000000000e+00
0.000000000000000e+00 0.000000000000000e+00 0.000000000000000e+00
0.000000000000000e+00 0.000000000000000e+00 0.000000000000000e+00
0.000000000000000e+00 0.000000000000000e+00 0.000000000000000e+00
0.000000000000000e+00 0.000000000000000e+00 0.000000000000000e+00
0.000000000000000e+00 0.000000000000000e+00 0.000000000000000e+00
0.000000000000000e+00 0.000000000000000e+00 0.000000000000000e+00
0.000000000000000e+00 0.000000000000000e+00 0.000000000000000e+00
0.000000000000000e+00 0.000000000000000e+00 0.000000000000000e+00
0.000000000000000e+00 0.000000000000000e+00 0.000000000000000e+00
0.000000000000000e+00 0.000000000000000e+00 0.000000000000000e+00
0.000000000000000e+00 0.000000000000000e+00 0.000000000000000e+00
0.000000000000000e+00 0.000000000000000e+00 0.000000000000000e+00
0.000000000000000e+00 0.000000000000000e+00 0.000000000000000e+00
0.000000000000000e+00 0.000000000000000e+00 0.000000000000000e+00
0.000000000000000e+00 0.000000000000000e+00 0.000000000000000e+00
0.000000000000000e+00 0.000000000000000e+00 0.000000000000000e+00
0.000000000000000e+00 0.000000000000000e+00 0.000000000000000e+00
0.000000000000000e+00 0.000000000000000e+00 0.000000000000000e+00
0.000000000000000e+00 0.000000000000000e+00 0.000000000000000e+00
0.000000000000000e+00 0.000000000000000e+00 0.000000000000000e+00
0.000000000000000e+00 0.000000000000000e+00 0.000000000000000e+00
0.000000000000000e+00 0.000000000000000e+00 0.000000000000000e+00
0.000000000000000e+00 0.000000000000000e+00 0.000000000000000e+00
0.000000000000000e+00 0.000000000000000e+00 0.000000000000000e+00
0.000000000000000e+00 0.000000000000000e+00 0.000000000000000e+00
0.000000000000000e+00 0.000000000000000e+00 0.000000000000000e+00
0.000000000000000e+00 0.000000000000000e+00 0.000000000000000e+00
0.000000000000000e+00 0.000000000000000e+00 0.000000000000000e+00
0.000000000000000e+00 0.000000000000000e+00 0.000000000000000e+00
0.000000000000000e+00 0.000000000000000e+00 0.000000000000000e+00
0.000000000000000e+00 0.000000000000000e+00 0.000000000000000e+00
0.000000000000000e+00 0.000000000000000e+00 0.000000000000000e+00
0.000000000000000e+00 0.000000000000000e+00 0.000000000000000e+00
0.000000000000000e+00 0.000000000000000e+00 0.000000000000000e+00
0.000000000000000e+00 0.000000000000000e+00 0.000000000000000e+00
0.000000000000000e+00 0.000000000000000e+00 0.000000000000000e+00
0.000000000000000e+00 0.000000000000000e+00 0.000000000000000e+00
0.000000000000000e+00 0.000000000000000e+00 0.000000000000000e+00
0.000000000000000e+00 0.000000000000000e+00 0.000000000000000e+00
0.000000000000000e+00 0.000000000000000e+00 0.000000000000000e+00
0.000000000000000e+00 0.000000000000000e+00 0.000000000000000e+00
0.000000000000000e+00 0.000000000000000e+00 0.000000000000000e+00
0.000000000000000e+00 0.000000000000000e+00 0.000000000000000e+00
0.000000000000000e+00 0.000000000000000e+00 0.000000000000000e+00
0.000000000000000e+00 0.000000000000000e+00 0.000000000000000e+00
0.000000000000000e+00 0.000000000000000e+00 0.000000000000000e+00
0.000000000000000e+00 0.000000000000000e+00 0.000000000000000e+00
0.000000000000000e+00 0.000000000000000e+00 0.000000000000000e+00
0.000000000000000e+00 0.000000000000000e+00 0.000000000000000e+00
0.000000000000000e+00 0.000000000000000e+00 0.000000000000000e+00
0.000000000000000e+00 0.000000000000000e+00 0.000000000000000e+00
0.000000000000000e+00 0.000000000000000e+00 0.000000000000000e+00
0.000000000000000e+00 0.000000000000000e+00 0.000000000000000e+00
0.000000000000000e+00 0.000000000000000e+00 0.000000000000000e+00
0.000000000000000e+00 0.000000000000000e+00 0.000000000000000e+00
0.000000000000000e+00 0.000000000000000e+00 0.000000000000000e+00
0.000000000000000e+00 0.000000000000000e+00 0.000000000000000e+00
0.000000000000000e+00 0.000000000000000e+00 0.000000000000000e+00
0.000000000000000e+00 0.000000000000000e+00 0.000000000000000e+00
0.000000000000000e+00 0.000000000000000e+00 0.000000000000000e+00
0.000000000000000e+00 0.000000000000000e+00 0.000000000000000e+00
0.000000000000000e+00 0.000000000000000e+00 0.000000000000000e+00
0.000000000000000e+00 0.000000000000000e+00 0.000000000000000e+00
0.000000000000000e+00 0.000000000000000e+00 0.000000000000000e+00
0.000000000000000e+00 0.000000000000000e+00 0.000000000000000e+00
0.000000000000000e+00 0.000000000000000e+00 0.000000000000000e+00
0.000000000000000e+00 0.000000000000000e+00 0.000000000000000e+00
0.000000000000000e+00 0.000000000000000e+00 0.000000000000000e+00
0.000000000000000e+00 0.000000000000000e+00 0.000000000000000e+00
0.000000000000000e+00 0.000000000000000e+00 0.000000000000000e+00
0.000000000000000e+00 0.000000000000000e+00 0.000000000000000e+00
0.000000000000000e+00 0.000000000000000e+00 0.000000000000000e+00
0.000000000000000e+00 0.000000000000000e+00 0.000000000000000e+00
0.000000000000000e+00 0.000000000000000e+00 0.000000000000000e+00
0.000000000000000e+00 0.000000000000000e+00 0.000000000000000e+00
0.000000000000000e+00 0.000000000000000e+00 0.000000000000000e+00
0.000000000000000e+00 0.000000000000000e+00 0.000000000000000e+00
0.000000000000000e+00 0.000000000000000e+00 0.000000000000000e+00
0.000000000000000e+00 0.000000000000000e+00 0.000000000000000e+00
0.000000000000000e+00 0.000000000000000e+00 0.000000000000000e+00
0.000000000000000e+00 0.000000000000000e+00 0.000000000000000e+00
0.000000000000000e+00 0.000000000000000e+00 0.000000000000000e+00
0.000000000000000e+00 0.000000000000000e+00 0.000000000000000e+00
0.000000000000000e+00 0.000000000000000e+00 0.000000000000000e+00
0.000000000000000e+00 0.000000000000000e+00 0.000000000000000e+00
0.000000000000000e+00 0.000000000000000e+00 0.000000000000000e+00
0.000000000000000e+00 0.000000000000000e+00 0.000000000000000e+00
0.000000000000000e+00 0.000000000000000e+00 0.000000000000000e+00
0.000000000000000e+00 0.000000000000000e+00 0.000000000000000e+00
0.000000000000000e+00 0.000000000000000e+00 0.000000000000000e+00
0.000000000000000e+00 0.000000000000000e+00 0.000000000000000e+00
0.000000000000000e+00 0.000000000000000e+00 0.000000000000000e+00
0.000000000000000e+00 0.000000000000000e+00 0.000000000000000e+00
0.000000000000000e+00 0.000000000000000e+00 0.000000000000000e+00
0.000000000000000e+00 0.000000000000000e+00 0.000000000000000e+00
0.000000000000000e+00 0.000000000000000e+00 0.000000000000000e+00
0.000000000000000e+00 0.000000000000000e+00 0.000000000000000e+00
0.000000000000000e+00 0.000000000000000e+00 0.000000000000000e+00
0.000000000000000e+00 0.000000000000000e+00 0.000000000000000e+00
0.000000000000000e+00 0.000000000000000e+00 0.000000000000000e+00
0.000000000000000e+00 0.000000000000000e+00 0.000000000000000e+00
0.000000000000000e+00 0.000000000000000e+00 0.000000000000000e+00
0.000000000000000e+00 0.000000000000000e+00 0.000000000000000e+00
0.000000000000000e+00 0.000000000000000e+00 0.000000000000000e+00
0.000000000000000e+00 0.000000000000000e+00 0.000000000000000e+00
0.000000000000000e+00 0.000000000000000e+00 0.000000000000000e+00
0.000000000000000e+00 0.000000000000000e+00 0.000000000000000e+00
0.000000000000000e+00 0.000000000000000e+00 0.000000000000000e+00
0.000000000000000e+00 0.000000000000000e+00 0.000000000000000e+00
0.000000000000000e+00 0.000000000000000e+00 0.000000000000000e+00
0.000000000000000e+00 0.000000000000000e+00 0.000000000000000e+00
0.000000000000000e+00 0.000000000000000e+00 0.000000000000000e+00
0.000000000000000e+00 0.000000000000000e+00 0.000000000000000e+00
0.000000000000000e+00 0.000000000000000e+00 0.000000000000000e+00
0.000000000000000e+00 0.000000000000000e+00 0.000000000000000e+00
0.000000000000000e+00 0.000000000000000e+00 0.000000000000000e+00
0.000000000000000e+00 0.000000000000000e+00 0.000000000000000e+00
0.000000000000000e+00 0.000000000000000e+00 0.000000000000000e+00
0.000000000000000e+00 0.000000000000000e+00 0.000000000000000e+00
0.000000000000000e+00 0.000000000000000e+00 0.000000000000000e+00
0.000000000000000e+00 0.000000000000000e+00 0.000000000000000e+00
0.000000000000000e+00 0.000000000000000e+00 0.000000000000000e+00
0.000000000000000e+00 0.000000000000000e+00 0.000000000000000e+00
0.000000000000000e+00 0.000000000000000e+00 0.000000000000000e+00
0.000000000000000e+00 0.000000000000000e+00 0.000000000000000e+00
0.000000000000000e+00 0.000000000000000e+00 0.000000000000000e+00
0.000000000000000e+00 0.000000000000000e+00 0.000000000000000e+00
0.000000000000000e+00 0.000000000000000e+00 0.000000000000000e+00
0.000000000000000e+00 0.000000000000000e+00 0.000000000000000e+00
0.000000000000000e+00 0.000000000000000e+00 0.000000000000000e+00
0.000000000000000e+00 0.000000000000000e+00 0.000000000000000e+00
0.000000000000000e+00 0.000000000000000e+00 0.000000000000000e+00
0.000000000000000e+00 0.000000000000000e+00 0.000000000000000e+00
0.000000000000000e+00 0.000000000000000e+00 0.000000000000000e+00
0.000000000000000e+00 0.000000000000000e+00 0.000000000000000e+00
0.000000000000000e+00 0.000000000000000e+00 0.000000000000000e+00
0.000000000000000e+00 0.000000000000000e+00 0.000000000000000e+00
0.000000000000000e+00 0.000000000000000e+00 0.000000000000000e+00
0.000000000000000e+00 0.000000000000000e+00 0.000000000000000e+00
0.000000000000000e+00 0.000000000000000e+00 0.000000000000000e+00
0.000000000000000e+00 0.000000000000000e+00 0.000000000000000e+00
0.000000000000000e+00 0.000000000000000e+00 0.000000000000000e+00
0.000000000000000e+00 0.000000000000000e+00 0.000000000000000e+00
0.000000000000000e+00 0.000000000000000e+00 0.000000000000000e+00
0.000000000000000e+00 0.000000000000000e+00 0.000000000000000e+00
0.000000000000000e+00 0.000000000000000e+00 0.000000000000000e+00
0.000000000000000e+00 0.000000000000000e+00 0.000000000000000e+00
0.000000000000000e+00 0.000000000000000e+00 0.000000000000000e+00
0.000000000000000e+00 0.000000000000000e+00 0.000000000000000e+00
0.000000000000000e+00 0.000000000000000e+00 0.000000000000000e+00
0.000000000000000e+00 0.000000000000000e+00 0.000000000000000e+00
0.000000000000000e+00 0.000000000000000e+00 0.000000000000000e+00
0.000000000000000e+00 0.000000000000000e+00 0.000000000000000e+00
0.000000000000000e+00 0.000000000000000e+00 0.000000000000000e+00
0.000000000000000e+00 0.000000000000000e+00 0.000000000000000e+00
0.000000000000000e+00 0.000000000000000e+00 0.000000000000000e+00
0.000000000000000e+00 0.000000000000000e+00 0.000000000000000e+00
0.000000000000000e+00 0.000000000000000e+00 0.000000000000000e+00
0.000000000000000e+00 0.000000000000000e+00 0.000000000000000e+00
0.000000000000000e+00 0.000000000000000e+00 0.000000000000000e+00
0.000000000000000e+00 0.000000000000000e+00 0.000000000000000e+00
0.000000000000000e+00 0.000000000000000e+00 0.000000000000000e+00
0.000000000000000e+00 0.000000000000000e+00 0.000000000000000e+00
0.000000000000000e+00 0.000000000000000e+00 0.000000000000000e+00
0.000000000000000e+00 0.000000000000000e+00 0.000000000000000e+00
0.000000000000000e+00 0.000000000000000e+00 0.000000000000000e+00
0.000000000000000e+00 0.000000000000000e+00 0.000000000000000e+00
0.000000000000000e+00 0.000000000000000e+00 0.000000000000000e+00
0.000000000000000e+00 0.000000000000000e+00 0.000000000000000e+00
0.000000000000000e+00 0.000000000000000e+00 0.000000000000000e+00
0.000000000000000e+00 0.000000000000000e+00 0.000000000000000e+00
0.000000000000000e+00 0.000000000000000e+00 0.000000000000000e+00
0.000000000000000e+00 0.000000000000000e+00 0.000000000000000e+00
0.000000000000000e+00 0.000000000000000e+00 0.000000000000000e+00
0.000000000000000e+00 0.000000000000000e+00 0.000000000000000e+00
0.000000000000000e+00 0.000000000000000e+00 0.000000000000000e+00
0.000000000000000e+00 0.000000000000000e+00 0.000000000000000e+00
0.000000000000000e+00 0.000000000000000e+00 0.000000000000000e+00
0.000000000000000e+00 0.000000000000000e+00 0.000000000000000e+00
0.000000000000000e+00 0.000000000000000e+00 0.000000000000000e+00
0.000000000000000e+00 0.000000000000000e+00 0.000000000000000e+00
0.000000000000000e+00 0.000000000000000e+00 0.000000000000000e+00
0.000000000000000e+00 0.000000000000000e+00 0.000000000000000e+00
0.000000000000000e+00 0.000000000000000e+00 0.000000000000000e+00
0.000000000000000e+00 0.000000000000000e+00 0.000000000000000e+00
0.000000000000000e+00 0.000000000000000e+00 0.000000000000000e+00
0.000000000000000e+00 0.000000000000000e+00 0.000000000000000e+00
0.000000000000000e+00 0.000000000000000e+00 0.000000000000000e+00
0.000000000000000e+00 0.000000000000000e+00 0.000000000000000e+00
0.000000000000000e+00 0.000000000000000e+00 0.000000000000000e+00
0.000000000000000e+00 0.000000000000000e+00 0.000000000000000e+00
0.000000000000000e+00 0.000000000000000e+00 0.000000000000000e+00
0.000000000000000e+00 0.000000000000000e+00 0.000000000000000e+00
0.000000000000000e+00 0.000000000000000e+00 0.000000000000000e+00
0.000000000000000e+00 0.000000000000000e+00 0.000000000000000e+00
0.000000000000000e+00 0.000000000000000e+00 0.000000000000000e+00
0.000000000000000e+00 0.000000000000000e+00 0.000000000000000e+00
0.000000000000000e+00 0.000000000000000e+00 0.000000000000000e+00
0.000000000000000e+00 0.000000000000000e+00 0.000000000000000e+00
0.000000000000000e+00 0.000000000000000e+00 0.000000000000000e+00
0.000000000000000e+00 0.000000000000000e+00 0.000000000000000e+00
0.000000000000000e+00 0.000000000000000e+00 0.000000000000000e+00
0.000000000000000e+00 0.000000000000000e+00 0.000000000000000e+00
0.000000000000000e+00 0.000000000000000e+00 0.000000000000000e+00
0.000000000000000e+00 0.000000000000000e+00 0.000000000000000e+00
0.000000000000000e+00 0.000000000000000e+00 0.000000000000000e+00
0.000000000000000e+00 0.000000000000000e+00 0.000000000000000e+00
0.000000000000000e+00 0.000000000000000e+00 0.000000000000000e+00
0.000000000000000e+00 0.000000000000000e+00 0.000000000000000e+00
0.000000000000000e+00 0.000000000000000e+00 0.000000000000000e+00
0.000000000000000e+00 0.000000000000000e+00 0.000000000000000e+00
0.000000000000000e+00 0.000000000000000e+00 0.000000000000000e+00
0.000000000000000e+00 0.000000000000000e+00 0.000000000000000e+00
0.000000000000000e+00 0.000000000000000e+00 0.000000000000000e+00
0.000000000000000e+00 0.000000000000000e+00 0.000000000000000e+00
0.000000000000000e+00 0.000000000000000e+00 0.000000000000000e+00
0.000000000000000e+00 0.000000000000000e+00 0.000000000000000e+00
0.000000000000000e+00 0.000000000000000e+00 0.000000000000000e+00
0.000000000000000e+00 0.000000000000000e+00 0.000000000000000e+00
0.000000000000000e+00 0.000000000000000e+00 0.000000000000000e+00
0.000000000000000e+00 0.000000000000000e+00 0.000000000000000e+00
0.000000000000000e+00 0.000000000000000e+00 0.000000000000000e+00
0.000000000000000e+00 0.000000000000000e+00 0.000000000000000e+00
0.000000000000000e+00 0.000000000000000e+00 0.000000000000000e+00
0.000000000000000e+00 0.000000000000000e+00 0.000000000000000e+00
0.000000000000000e+00 0.000000000000000e+00 0.000000000000000e+00
0.000000000000000e+00 0.000000000000000e+00 0.000000000000000e+00
0.000000000000000e+00 0.000000000000000e+00 0.000000000000000e+00
0.000000000000000e+00 0.000000000000000e+00 0.000000000000000e+00
0.000000000000000e+00 0.000000000000000e+00 0.000000000000000e+00
0.000000000000000e+00 0.000000000000000e+00 0.000000000000000e+00
0.000000000000000e+00 0.000000000000000e+00 0.000000000000000e+00
0.000000000000000e+00 0.000000000000000e+00 0.000000000000000e+00
0.000000000000000e+00 0.000000000000000e+00 0.000000000000000e+00
0.000000000000000e+00 0.000000000000000e+00 0.000000000000000e+00
0.000000000000000e+00 0.000000000000000e+00 0.000000000000000e+00
0.000000000000000e+00 0.000000000000000e+00 0.000000000000000e+00
0.000000000000000e+00 0.000000000000000e+00 0.000000000000000e+00
0.000000000000000e+00 0.000000000000000e+00 0.000000000000000e+00
0.000000000000000e+00 0.000000000000000e+00 0.000000000000000e+00
0.000000000000000e+00 0.000000000000000e+00 0.000000000000000e+00
0.000000000000000e+00 0.000000000000000e+00 0.000000000000000e+00
0.000000000000000e+00 0.000000000000000e+00 0.000000000000000e+00
0.000000000000000e+00 0.000000000000000e+00 0.000000000000000e+00
0.000000000000000e+00 0.000000000000000e+00 0.000000000000000e+00
0.000000000000000e+00 0.000000000000000e+00 0.000000000000000e+00
0.000000000000000e+00 0.000000000000000e+00 0.000000000000000e+00
0.000000000000000e+00 0.000000000000000e+00 0.000000000000000e+00
0.000000000000000e+00 0.000000000000000e+00 0.000000000000000e+00
0.000000000000000e+00 0.000000000000000e+00 0.000000000000000e+00
0.000000000000000e+00 0.000000000000000e+00 0.000000000000000e+00
0.000000000000000e+00 0.000000000000000e+00 0.000000000000000e+00
0.000000000000000e+00 0.000000000000000e+00 0.000000000000000e+00
0.000000000000000e+00 0.000000000000000e+00 0.000000000000000e+00
0.000000000000000e+00 0.000000000000000e+00 0.000000000000000e+00
0.000000000000000e+00 0.000000000000000e+00 0.000000000000000e+00
0.000000000000000e+00 0.000000000000000e+00 0.000000000000000e+00
0.000000000000000e+00 0.000000000000000e+00 0.000000000000000e+00
0.000000000000000e+00 0.000000000000000e+00 0.000000000000000e+00
0.000000000000000e+00 0.000000000000000e+00 0.000000000000000e+00
0.000000000000000e+00 0.000000000000000e+00 0.000000000000000e+00
0.000000000000000e+00 0.000000000000000e+00 0.000000000000000e+00
0.000000000000000e+00 0.000000000000000e+00 0.000000000000000e+00
0.000000000000000e+00 0.000000000000000e+00 0.000000000000000e+00
0.000000000000000e+00 0.000000000000000e+00 0.000000000000000e+00
0.000000000000000e+00 0.000000000000000e+00 0.000000000000000e+00
0.000000000000000e+00 0.000000000000000e+00 0.000000000000000e+00
0.000000000000000e+00 0.000000000000000e+00 0.000000000000000e+00
0.000000000000000e+00 0.000000000000000e+00 0.000000000000000e+00
0.000000000000000e+00 0.000000000000000e+00 0.000000000000000e+00
0.000000000000000e+00 0.000000000000000e+00 0.000000000000000e+00
0.000000000000000e+00 0.000000000000000e+00 0.000000000000000e+00
0.000000000000000e+00 0.000000000000000e+00 0.000000000000000e+00
0.000000000000000e+00 0.000000000000000e+00 0.000000000000000e+00
0.000000000000000e+00 0.000000000000000e+00 0.000000000000000e+00
0.000000000000000e+00 0.000000000000000e+00 0.000000000000000e+00
0.000000000000000e+00 0.000000000000000e+00 0.000000000000000e+00
0.000000000000000e+00 0.000000000000000e+00 0.000000000000000e+00
0.000000000000000e+00 0.000000000000000e+00 0.000000000000000e+00
0.000000000000000e+00 0.000000000000000e+00 0.000000000000000e+00
0.000000000000000e+00 0.000000000000000e+00 0.000000000000000e+00
0.000000000000000e+00 0.000000000000000e+00 0.000000000000000e+00
0.000000000000000e+00 0.000000000000000e+00 0.000000000000000e+00
0.000000000000000e+00 0.000000000000000e+00 0.000000000000000e+00
0.000000000000000e+00 0.000000000000000e+00 0.000000000000000e+00
0.000000000000000e+00 0.000000000000000e+00 0.000000000000000e+00
0.000000000000000e+00 0.000000000000000e+00 0.000000000000000e+00
0.000000000000000e+00 0.000000000000000e+00 0.000000000000000e+00
0.000000000000000e+00 0.000000000000000e+00 0.000000000000000e+00
0.000000000000000e+00 0.000000000000000e+00 0.000000000000000e+00
-2.840381508378737e+01  1.813604319105536e+00  4.868456451519335e-16
-1.004261810213765e+01 -1.010367245158669e+00  1.891015248024123e-16
-2.540274165375202e+01  1.931525514036776e+01  2.536148593376178e-16
 1.795810607321559e+01 -2.243498545853403e+01 -8.907459317620174e-17
 7.945674607802276e+00  1.601546475451466e+01 -3.059558399811428e-16
-2.775328369583776e+01 -9.403603289427501e+00  5.905213964202077e-16
-1.142269271115993e+01 -2.597460325951046e+01  4.701600549400042e-16
 3.248970535319963e+01 -7.694508443225263e-01 -5.702872339767004e-16
 3.078637713963845e+01  9.940996020774270e+00 -6.500204273551444e-16
-1.551931832373097e+01 -1.293961987057736e+01  4.091346752515013e-16
-6.499418848343262e+00  2.774389417968385e+01 -1.693935229525680e-16
-1.910352973576162e+01 -2.119921486065605e+01  5.577843308298865e-16
-2.036282994857857e+01  6.316278598904534e+00  2.974833804299517e-16
 2.542898816455356e+01  6.174807379388631e+00 -5.159830798765609e-16
-2.911688265554332e+01 -1.308061770144185e+01  6.525682537956533e-16
-2.905533538280583e+01  1.177485496014180e-01  5.158645280238179e-16
-2.416836778220337e+01  7.100293264111556e+00  3.571519998007330e-16
-1.379807526129954e+01  5.896526555179063e+00  1.849685398978029e-16
 7.367304302354638e+00 -2.346865596303622e+01  1.100219464222326e-16
-2.648379135262724e+01  7.124139151852979e+00  3.981127163375838e-16
 3.089770503806416e+00 -7.810632882556808e-01 -4.696101019133542e-17
 3.210734350120356e+01  5.311159875361272e+00 -6.259587149411315e-16
-1.913135080302751e+01 -1.085882384525194e+01  4.520356785460739e-16
 5.566403603001843e-01  5.365722407150290e+00 -6.503692770938239e-17
 2.230133076534835e+01  1.787100275469318e+01 -5.804968442413534e-16
-2.899824677562563e+01 -1.333449502865603e+01  6.530654841157874e-16
 1.649010046281688e+01  6.848618336269626e-01 -3.004977143912390e-16
-2.475600553230690e+01 -2.022058184435224e+01  6.483217813657771e-16
-2.743215482686811e+01  1.591253244144526e+01  3.246924271404357e-16
 2.285984720908623e+01 -2.316284333805002e+01 -1.688284484179416e-16
-1.298087856555519e+01 -2.632069104068788e+01  5.014457571203080e-16
-3.249833170015508e+01  1.692256085753566e+00  5.609592614902768e-16
-2.957327522673152e+01  5.008097985779550e+00  4.748353214343312e-16
-1.862638592453388e+01  8.476837017029023e+00  2.443823349041673e-16
 3.029383082168801e+01 -1.103767539072805e+01 -4.257067502810383e-16
 2.728487349036689e+01  3.272193151943566e+00 -5.191874662782022e-16
-1.740184989001101e+01 -9.154163814020523e+00  4.037423842187383e-16
-3.186472082827929e+01  4.184925305331502e-01  5.627708580298077e-16
-6.398134464029836e+00  4.451380336928145e+00  6.812611886782023e-17
 2.559724542365585e+01 -3.151767716579018e+00 -4.231502474739457e-16
 3.148460483929315e+01  8.157233400769433e+00 -6.441187092174500e-16
-1.727391551435722e+01 -7.098187126285160e+00  3.803412257973303e-16
 8.344850433541142e+00  4.604789472652798e-01 -1.532378214641491e-16
-1.498827567629662e+01 -2.676520173731559e+01  5.417369691617509e-16
-1.679651282556190e+01  2.346088620985941e+01  5.786189820678562e-17
 2.581951601795281e+01 -1.981016200147298e+01 -2.559468680743813e-16
-1.511020662065727e+01 -2.591935259038880e+01  5.352160830244602e-16
-3.221905556912429e+01  4.552319799723440e+00  5.266030939185935e-16
-2.769022547951384e+01  4.243167371090754e+00  4.491835891887590e-16
-1.891385618400107e+01  7.849109450122147e+00  2.559478838110795e-16
 3.006948207200116e+01 -1.137770131890741e+01 -4.182205537870430e-16
 2.706770952974984e+01  3.374723597900460e+00 -5.163762376422900e-16
-1.648787777557784e+01 -8.119295022914507e+00  3.768442593040492e-16
-3.194813172980557e+01  3.838953054476999e-01  5.646107284375827e-16
-6.986301099656540e+00  3.979591076561862e+00  8.344070899318991e-17
 2.497762386717150e+01 -3.193678326619270e+00 -4.116927264684935e-16
 3.143661607836828e+01  8.339419356100164e+00 -6.451365864772265e-16
-1.756232956718540e+01 -7.159639402199410e+00  3.861052977116934e-16
 6.171209110816874e+00  3.426941176547789e-01 -1.133450849840989e-16
-1.806996210103748e+01 -2.672665065576723e+01  5.961831566257353e-16
-1.692934985741437e+01  2.325072605832456e+01  6.238521086418503e-17
 2.688558132561210e+01 -1.833726922717294e+01 -2.900522100685535e-16
-1.496616682886965e+01 -2.592780724183985e+01  5.327395915889678e-16
-3.219626931093764e+01  4.708808378755806e+00  5.245897219726996e-16
-2.748774580291524e+01  4.116833739275468e+00  4.468782539656382e-16
-1.919168386866744e+01  7.964583538542966e+00  2.597057045519800e-16
 3.003138874758505e+01 -1.148673862683248e+01 -4.164223189289065e-16
 2.746361089539961e+01  3.407452122881732e+00 -5.237580484007537e-16
-1.729768897468809e+01 -9.241066238782656e+00  4.027816073926104e-16
-3.186532655845834e+01  4.094943014630504e-01  5.628740912541603e-16
-6.263066939784523e+00  4.350043451590454e+00  6.676363085896313e-17
 2.566032816169615e+01 -3.163958466828962e+00 -4.241476245162069e-16
 3.142362226604155e+01  8.384141192819875e+00 -6.453648467159088e-16
-1.801055026636511e+01 -7.252722478571282e+00  3.950383145090240e-16
 1.299160424916697e+01  5.907024841949272e-01 -2.372703480044760e-16
 1.333240969621137e+01  1.149839803211925e+01 -3.554079967935913e-16
-1.679328056391569e+01  2.317768837855789e+01  6.071413106746449e-17
 2.428518276708731e+01 -2.166379061695094e+01 -2.095962170042285e-16
-1.526027142543864e+01 -2.577933141168689e+01  5.364479984735665e-16
-3.221800338078634e+01  4.560453125454077e+00  5.265008020067026e-16
-2.793576746550081e+01  4.299006702552208e+00  4.529795728704123e-16
-1.858694180600005e+01  7.760128922640811e+00  2.510442950991700e-16
 3.010488482000797e+01 -1.132503258285081e+01 -4.193917400469328e-16
 2.709655465072128e+01  3.312917071116698e+00 -5.162545313744260e-16
-1.604204877741495e+01 -7.852086541904447e+00  3.661647304544392e-16
-3.195287873504308e+01  3.436949766259225e-01  5.651082508313727e-16
-7.001797789647721e+00  4.018553706698773e+00  8.331616418994985e-17
 2.499232071155535e+01 -3.208306269077248e+00 -4.118039775579717e-16
 3.142405985555716e+01  8.384867290553869e+00 -6.453800945383803e-16
-1.772530687514672e+01 -7.200934085739314e+00  3.894299611736704e-16
 7.891974408631462e+00  4.393063687796490e-01 -1.449608118546016e-16
-1.566871783732336e+01 -2.703633291713762e+01  5.566320234386900e-16
-1.688058952495959e+01  2.321238939221605e+01  6.191135789214980e-17
 2.650461863506746e+01 -1.888372624604478e+01 -2.776578771976220e-16
-1.493152970906299e+01 -2.596032016604350e+01  5.324572412091372e-16
-3.218057927729900e+01  4.813209048827410e+00  5.232378201486871e-16
-2.747776250203484e+01  4.051737387023495e+00  4.473694306220453e-16
-1.926951442070539e+01  8.004169386486874e+00  2.606840618655334e-16
 3.003096216430413e+01 -1.149317805608971e+01 -4.163485645636772e-16
 2.747075537206406e+01  3.410059766971814e+00 -5.239119854763716e-16
-1.739476744783278e+01 -9.257416726507131e+00  4.046772299042800e-16
-3.187358966525873e+01  4.529740235081663e-01  5.625744047496176e-16
-5.979187163997944e+00  4.161681863145561e+00  6.364699848616277e-17
 2.566712180163076e+01 -3.146228157580742e+00 -4.244506979265575e-16
 3.142866968314008e+01  8.367668591241809e+00 -6.452854215172716e-16
-1.779239178719781e+01 -7.214281712250662e+00  3.907609591958333e-16
 7.848254301364436e+00  4.315064695123926e-01 -1.441026192519783e-16
-1.556643490349177e+01 -2.707463527809693e+01  5.552053194744738e-16
-1.694213411728423e+01  2.310976396910390e+01  6.406105626024348e-17
 2.661362932741558e+01 -1.872978002937705e+01 -2.811795939643776e-16
-1.497634030949386e+01 -2.587563791998796e+01  5.323846199733438e-16
-3.219013349605802e+01  4.749044306234574e+00  5.240671182891912e-16
-2.753881882511997e+01  4.112276906153155e+00  4.478339791473929e-16
-1.923342537531607e+01  7.977069027686505e+00  2.603202605974242e-16
 3.002945383126546e+01 -1.147219546723470e+01 -4.165373104665245e-16
 2.708963223094180e+01  3.399450255318245e+00 -5.170204356801540e-16
-1.647167895671035e+01 -8.109364624118367e+00  3.764539507770964e-16
-3.194926206573673e+01  3.548163506040873e-01  5.649296197954510e-16
-7.125060771026416e+00  4.075811931932113e+00  8.492146852602054e-17
 2.498769087245518e+01 -3.217014783120972e+00 -4.116321072270405e-16
 3.140794487493098e+01  8.443815471009060e+00 -6.456989803379403e-16
-1.804203312473074e+01 -7.311956842140281e+00  3.962072011096926e-16
 7.508272789632557e+00  4.029598432778924e-01 -1.377589365021232e-16
-1.594640933179959e+01 -2.712323120671998e+01  5.624667231588504e-16
-1.696715637411070e+01  2.307842875589242e+01  6.482831510884857e-17
 2.666902455024411e+01 -1.865081916336124e+01 -2.829767122403682e-16
-1.499435957763864e+01 -2.580572661555386e+01  5.319869810810367e-16
-3.220075919141611e+01  4.678320798881664e+00  5.249828735629564e-16
-2.759897949533853e+01  4.114605741599509e+00  4.488806820849316e-16
-1.923054013511476e+01  7.989750221722704e+00  2.601386196407775e-16
 3.001731368340848e+01 -1.152608181465040e+01 -4.157675993932343e-16
 2.747020477994099e+01  3.398692687938782e+00 -5.237853944245707e-16
-1.716264482356295e+01 -9.154519802957157e+00  3.994891023595086e-16
-3.187594505895997e+01  3.905940045529723e-01  5.632572538241872e-16
-6.387649499067686e+00  4.418038018072406e+00  6.828210660023261e-17
 2.562678507806602e+01 -3.167875299635497e+00 -4.235104412981036e-16
 3.142250301901790e+01  8.388694174152894e+00 -6.453917086020573e-16
-1.796639355633049e+01 -7.230045510430891e+00  3.940194955900516e-16
 8.187856500904928e+00  4.415673160713148e-01 -1.502496170318037e-16
-1.459149250767524e+01 -2.695920454662233e+01  5.366690477247963e-16
-1.703183904366422e+01  2.293837666512973e+01  6.741840471807188e-17
 2.674077450136997e+01 -1.854780054326678e+01 -2.853120671056663e-16
-1.502064877650495e+01 -2.575369817271311e+01  5.319202553967978e-16
-3.218463825297778e+01  4.787670189541493e+00  5.235724569638553e-16
-2.757959358734057e+01  4.070135782800371e+00  4.489925994030235e-16
-1.926411267737489e+01  8.012946774492297e+00  2.604977469170244e-16
 3.001863731928347e+01 -1.152662849363903e+01 -4.157855381402341e-16
 2.747076316499753e+01  3.404899345003393e+00 -5.238591027032474e-16
-1.724115131617077e+01 -9.195688625491659e+00  4.013092137496208e-16
-3.187811808006542e+01  4.176723968679948e-01  5.630177046829942e-16
-6.236628662638229e+00  4.310990691837112e+00  6.669438302556864e-17
 2.563988132595382e+01 -3.157638269180696e+00 -4.238486864156471e-16
 3.142297633348981e+01  8.387632065346791e+00 -6.453892190169110e-16
-1.789593875324783e+01 -7.210431466963436e+00  3.925641411411565e-16
 7.155862385303513e+00  3.935801460151472e-01 -1.313910000016337e-16
-1.656652919772142e+01 -2.718593538015503e+01  5.741467585496116e-16
-1.704665120611626e+01  2.294543645091936e+01  6.760946808760582e-17
 2.704556164420249e+01 -1.810048400666592e+01 -2.953321328032611e-16
-1.497618273432297e+01 -2.577883064654169e+01  5.313871561765488e-16
-3.219770858288336e+01  4.700814660557438e+00  5.246974680839385e-16
-2.758617840306127e+01  4.092549166444376e+00  4.488794946770620e-16
-1.928866405472299e+01  8.030119067767801e+00  2.607582288972293e-16
 3.002695184865583e+01 -1.148823777676217e+01 -4.163279557705425e-16
 2.708804272120550e+01  3.416863361768082e+00 -5.171710618055241e-16
-1.660629686982797e+01 -8.190101961266464e+00  3.796791839113237e-16
-3.195399790349790e+01  3.881069275570440e-01  5.646718511263595e-16
-7.017404687750142e+00  3.996228475927428e+00  8.382329119612065e-17
 2.499218870119989e+01 -3.208475368755749e+00 -4.117998908333114e-16
 3.139377963547604e+01  8.494219335799000e+00 -6.459647744512420e-16
-1.827921687663478e+01 -7.347356437839777e+00  4.007918868671145e-16
 7.973570413366225e+00  4.145065480644627e-01 -1.461581009289701e-16
-1.478252117980153e+01 -2.699624311292775e+01  5.404491885542446e-16
-1.703515840045974e+01  2.293655875493977e+01  6.749615499845110e-17
 2.675847726924144e+01 -1.852225202715412e+01 -2.858896106989880e-16
-1.498216026612824e+01 -2.576248016670696e+01  5.313255382473891e-16
-3.219030115332845e+01  4.750023291743871e+00  5.240600432294050e-16
-2.760159821868637e+01  4.063828765816519e+00  4.494490003786033e-16
-1.930477934427962e+01  8.030743348035434e+00  2.610386054414173e-16
 3.001872266417224e+01 -1.152542416168295e+01 -4.157994310392703e-16
 2.746589961565874e+01  3.415754268008994e+00 -5.238840804279830e-16
-1.735377516541848e+01 -9.242997147746298e+00  4.037995673766569e-16
-3.187748484560119e+01  4.285697595709645e-01  5.628944690744019e-16
-6.144870364260957e+00  4.263008398572341e+00  6.555443532078377e-17
 2.565357012957506e+01 -3.152995060121303e+00 -4.241400022881342e-16
 3.141773845530415e+01  8.407307682476221e+00 -6.454981645495275e-16
-1.803666438184094e+01 -7.287948726207975e+00  3.958649832567396e-16
 7.741787368607569e+00  4.182607025391449e-01 -1.420718177142740e-16
-1.553823907123771e+01 -2.714315784330037e+01  5.554075854063010e-16
-1.706601325613678e+01  2.297223852665537e+01  6.767865728322436e-17
 2.681871849495246e+01 -1.843491969644622e+01 -2.878589831211610e-16
-1.480730901545388e+01 -2.587215194838445e+01  5.293406893781329e-16
-3.220603565454049e+01  4.646180163141345e+00  5.254070078711123e-16
-2.753363753747436e+01  4.060968424147506e+00  4.482689479650356e-16
-1.891943617152531e+01  7.856464539709763e+00  2.559716154816001e-16
 3.010817075320017e+01 -1.136699780013466e+01 -4.190190398005123e-16
 2.768337769089031e+01  3.524937566680421e+00 -5.288761809246693e-16
-1.650499712680058e+01 -9.120350168401618e+00  3.874343965638980e-16
-3.160121113833899e+01  4.703385059091854e-01  5.575486902101740e-16
 1.292623942085853e+01 -8.014984073650547e+00 -1.476867997258222e-16
 2.422275755665807e+01  4.194560325740095e-01 -4.353826230299719e-16
-2.069972543257856e+01 -1.178637541707703e+01  4.894770313553625e-16
-1.089878814142302e+01  8.257153659442007e+00  1.091176813170537e-16
 2.543025174730863e+01  4.550506422338961e-01 -4.572371441925521e-16
 1.246980685515680e+00  1.302183283961393e+00 -3.557096894786176e-17
-3.175176337567473e+01  8.005086157900567e-01  5.568355689178030e-16
-5.104563613466874e+00  3.667355467703636e+00  5.316105326663890e-17
 2.550908284686820e+01 -3.224411414899625e+00 -4.208349016479741e-16
 3.131508231485976e+01  8.682664679255115e+00 -6.465004692062727e-16
-1.535990166240146e+01 -4.740181488706067e+00  3.220514148675780e-16
-2.969747940957978e+01 -6.422721593735799e+00  5.944932017127403e-16
-1.949652534519235e+01  2.605699114954686e+01  7.923780650863052e-17
 1.553968993799994e+01 -2.855377366279398e+01  1.683233275472755e-17
 3.207578222720249e+01  4.987079858751995e+00 -6.220672399941661e-16
-1.227584384387122e+01 -1.086089646929400e+01  3.300550501346620e-16
-2.966153573266934e+01  1.338966206387145e+01  3.902884962940680e-16
 9.921079359150639e+00 -1.045033495500686e+01 -6.918404612127255e-17
 7.716927546875102e+00 -1.856617355683226e+00 -1.182558618498848e-16
 9.975874454996820e+00 -1.588675379153437e+01 -1.430196157291377e-17
 5.583976950323504e+00  7.982282552638909e+00 -1.813885841214068e-16
 1.558134265869062e+01 -8.217445997859761e+00 -1.928573062488820e-16
-1.947413316660997e-02 -1.781427256361663e+00  1.865008334549906e-17
 4.672240830062036e-01  4.930828322464862e-01 -1.338105686033567e-17
 2.351636123343734e+01  3.031213660748546e+00 -4.496463186825115e-16
-2.867654870342908e+01  2.529529299943587e+00  4.843433961588710e-16
 3.002817181337736e+01 -1.113446484337611e+01 -4.199845548827273e-16
 9.137602455192857e+00  2.824918829584926e+01 -4.528646830354650e-16
 1.388978465767368e+01 -2.816643141107899e+01  4.221456437204623e-17
 3.194400841233390e+01 -5.016039622637368e+00 -5.169437489521103e-16
 2.089242083433235e+01  2.228719575297637e+01 -6.007983902109616e-16
-3.174037475068571e+01 -6.050695323890285e+00  6.270265263861204e-16
-3.288869615780051e+00  4.782153147482543e+00  9.394471517436292e-18
-2.028725028590985e+01 -1.684546224599776e+01  5.341168235218061e-16
 1.212508532784836e+01 -1.285723862246261e+01 -8.367690060059467e-17
 3.166067267229288e+01  7.491731484247753e+00 -6.404142558883625e-16
 2.841377747065501e+00  2.957174412034049e+01 -3.544046345896381e-16
 1.875015973399247e+01 -1.894163806927485e+01 -1.390630082612602e-16
 3.215462642285133e+01 -4.929219116207930e+00 -5.215839968452949e-16
 2.085442528516463e+01 -3.359905515578176e+00 -3.366075653861001e-16
 3.182934175228943e+01  4.144214164463405e+00 -6.090213989668713e-16
 2.676404933801582e+01  1.748332199407813e+00 -4.942616614939504e-16
 2.185329592000211e+01  4.133070835013355e+00 -4.313712698526072e-16
 1.238173521299752e+01  2.049646222878735e+00 -2.414071179439988e-16
-2.514314236074458e+01 -1.270314097625820e+01  5.779723689637123e-16
-3.003449445508769e+01  1.246324239862843e+01  4.064443671626092e-16
-1.229203526753141e+01  1.278888290265672e+01  8.735030406444669e-17
 2.073004546001203e+01  2.496092863190281e+01 -6.253803607541997e-16
-2.191204518848801e+01 -2.002719440929372e+01  5.957231290104667e-16
-2.460573892274695e+01  2.126527281823169e+01  2.193955217735784e-16
-2.541133919313121e+01  5.972198808442459e+00  3.908629194549209e-16
-1.658542661048605e+01  1.725414783403977e+01  1.178773492909715e-16
 2.072646725323833e+01  2.508979155080774e+01 -6.266407019738222e-16
-2.902071296658789e+00 -1.728220651381336e+00  6.940265978415235e-17
-1.959741500012628e+01 -2.598136353694224e+01  6.157084486271128e-16
 1.791706023739916e+01 -1.858324217367627e+01 -1.279193965913017e-16
 2.278720547950384e+01  2.093015217414979e+00 -4.270304741037179e-16
 1.928790972807654e+01 -1.280445861063763e+01 -2.116902003324889e-16
 6.875115102849378e+00  1.401976943968621e-01 -1.237913545715276e-16
 2.374942189632817e+01 -1.400686349156576e+01 -2.787338579000740e-16
-6.752602349189224e+00 -7.880262504719599e+00  2.011374481847659e-16
-1.798349994113425e+01  4.155117312988840e+00  2.773455119941305e-16
 2.674203899937715e+01  1.753221054685122e+01 -6.560435774702305e-16
 2.024165159966242e+01 -1.183159256725153e+00 -3.480678037757166e-16
-1.186000790424909e+01 -2.714807453006727e+01  4.899995914643196e-16
-2.056834241377231e+01  1.210260701223107e+01  2.416882975372431e-16
-2.913233409908044e+01  2.239358723374839e+00  4.954360382083523e-16
 1.609285399378193e+01 -1.453667080544720e+01 -1.370325213014672e-16
 3.033052908575354e+01  1.864501522150947e+00 -5.589250204522631e-16
-2.945591866229069e+01  5.951671090848320e+00  4.630519504578169e-16
 2.711998241651286e+01 -5.904840739966032e+00 -4.219623434496443e-16
 2.915746311171752e+01  1.406563982491462e+01 -6.634111759084258e-16
-4.147115581107206e+00  3.158536092392819e+01 -2.507252408253226e-16
 1.190789667014383e+01 -4.392177163838959e+00 -1.667872006913373e-16
 2.550479087288375e+01 -1.328129228407892e+01 -3.174277232874710e-16
 3.163364258315079e+01 -5.276855551382631e+00 -5.087406298832337e-16
 1.280061848742120e+01  2.260233476572820e+01 -4.600330540492518e-16
 1.938278144810031e+01 -1.423278000533103e+01 -1.987030722969986e-16
 2.134717895705890e+01  1.239825210280412e+01 -5.072860498030736e-16
-1.791109977586721e+01  3.034487525103608e+00  2.875711286729767e-16
 8.449078685500529e+00 -1.937995854293561e+01  4.876060019230121e-17
-3.225544952736352e+01 -4.312434268280977e+00  6.183328955562724e-16
-1.699817647992186e+01  9.080656897725984e+00  2.092023757170543e-16
 2.767772724298155e+01 -1.026886164195738e+01 -3.870493484828816e-16
 1.007602002076092e+01  2.974050487921485e+01 -4.848876791388339e-16
-3.024699758616967e+01 -2.713866221314523e+00  5.661653914818419e-16
-2.136896990623511e+01 -1.785136310255825e+01  5.637025803096714e-16
-3.173353499320017e+01  7.040050136929009e+00  4.924021506269491e-16
-2.276703715820873e+01  2.314106363977836e+01  1.674005613240307e-16
 2.231261744741865e+01 -2.360042500304480e+01 -1.545938493954988e-16
-1.850387357695735e+01 -1.917508887875470e+01  5.263155749899709e-16
-3.113786331543436e+01  7.005428139958725e+00  4.821571910237789e-16
-2.769682472033245e+01  9.715255662395407e+00  3.930773112204455e-16
 2.841855238970768e+01 -1.585798848651313e+01 -3.428069677157606e-16
-2.807205727429685e+00 -1.194205701724598e+01  1.726578720993120e-16
-1.118651518043561e+01  2.047832963008507e+01 -1.133001636740470e-17
-1.342283650414509e+00 -6.060434022585238e-01  3.011441449322487e-17
-1.580365570252280e+00  4.596419229677506e-01  2.340183666705139e-17
-3.149012324457782e+01 -8.100791339580043e+00  6.436369941453428e-16
 1.302001352186543e+01 -2.053817305824136e+01 -2.068440416133135e-17
 7.396136541695935e+00  2.430761531034122e+00 -1.565982638663657e-16
-1.021615641250776e+01 -1.968087403654778e+01  3.840225208115989e-16
 3.211255575902918e+01 -4.665747584654401e-01 -5.666873488317112e-16
-3.601951988581285e+00  1.344872526938810e+01 -7.407973440962108e-17
-1.438618278785366e+01  6.355491336062991e+00  1.907189184524755e-16
 2.017776404852481e+01  3.805858843013431e+00 -3.981911972008673e-16
 6.491070863119695e+00 -1.176080124113005e+00 -1.034325528222534e-16
-2.683153139875563e+01 -6.046506005377276e+00  5.396247597337218e-16
-1.356885938347909e+01  9.710240857769723e+00  1.417048408899594e-16
-9.181454078635277e+00 -3.066064471148122e+00  1.948976259983624e-16
 3.649336621609196e+00 -4.665890812647072e+00 -1.700396515000043e-17
 1.333971639246629e+01 -1.289501329799924e+00 -2.241470076817222e-16
 3.644557589997935e-01  1.127306320230011e+01 -1.223125541885525e-16
 2.023732197765505e+01  1.647826832981356e+01 -5.294555055485285e-16
-2.420091373255070e+01 -1.544244459470690e+01  5.893496361751388e-16
-7.930329851024205e+00  1.484334694474111e+01 -1.138031835672609e-17
-2.363662200768743e+01 -1.884463041740208e+01  6.142636152346432e-16
 2.708803072170987e+01  1.112687033107783e+01 -5.963883690503406e-16
-2.627370382457228e+01 -4.555146700884782e-01  4.722521477258924e-16
-7.377960940177789e+00  3.877317395760303e+00  9.146158795807074e-17
 1.995312226010285e+01  1.335257035949808e+01 -4.922824214156513e-16
 1.641151918117259e+01 -2.915336554271038e+00 -2.621085361630130e-16
 7.974100265635095e+00  3.054679581760125e+01 -4.557658563378249e-16
 4.832719068487430e-01  1.626374447830081e+00 -2.531080668476517e-17
 1.947177535612444e+01 -1.671555270996704e+01 -1.747772374260224e-16
 2.451200950168067e+00  8.416993971777151e+00 -1.301036002138795e-16
-3.684754492728794e-03  2.519715698895235e-01 -2.523341745146938e-18
-1.547488842496101e+01 -1.677392348829681e+01  4.477400689922624e-16
-2.417923173051863e+01  1.924872021600741e+01  2.325246629678832e-16
-1.375009219740224e+00  3.210034759942997e+01 -3.053494812226633e-16
 2.897217089843470e+01 -1.482194374270718e+01 -3.633042528265992e-16
-1.076509152067110e+01 -5.430894011406162e+00  2.473781077508628e-16
-1.332906067968582e+01  6.258799765856622e+00  1.728996403317924e-16
-9.570559470911973e-01  4.882791318573368e-01  1.201506149761369e-17
-3.246710748133875e+01  1.439672117452253e+00  5.629987977822092e-16
 3.971282139440228e+00 -2.223960567355660e+00 -4.782331585596448e-17
 2.639692645383374e+01  9.374139826695789e+00 -5.660806750035248e-16
 2.052296379852649e+01 -3.857585984626673e+00 -3.255953268101283e-16
-1.606730731914922e+01 -6.409061771224573e+00  3.517876809908877e-16
-1.851333745036109e+01  3.712509669955928e+00  2.913222352213276e-16
-2.018876895516882e+01 -6.683242264660925e+00  4.279511120251886e-16
-1.178576482059915e+01  1.834720764906320e+01  2.123084996179374e-17
 1.636421547948743e+01  7.249360443820816e+00 -3.657052794751106e-16
-2.265039905341252e+01  2.256643157577012e+01  1.712289828285412e-16
 5.770637182055049e+00 -1.571653624309733e+01  5.878632840706505e-17
 1.558656296486089e+01  2.351184817130185e+01 -5.189571790625422e-16
-1.919235564142677e+01 -2.575119744441513e+01  6.061350612020624e-16
 1.459336428020586e+01 -2.107078355383107e+01 -4.321167835911212e-17
 1.499040038716600e+01 -2.246191552499637e+01 -3.598403384153465e-17
 1.128338610902108e+01  2.330833049568077e+01 -4.402859437125567e-16
-1.755542613519290e+01 -2.729941238565006e+01  5.929112941109961e-16
-2.397157502353704e+01  2.153283805705420e+01  2.053606831012170e-16
-4.555950836957069e+00  2.018058343536013e+00  6.034376328173956e-17
 1.335443663426010e+01 -1.649609694307004e+01 -6.816672612877093e-17
-2.883036455824789e+00 -2.310814880806823e+01  2.887349071977120e-16
 2.249821103235071e+01 -1.421319382076726e+01 -2.543470988972893e-16
 1.524140497228386e+01  1.588517941062750e+01 -4.344534299051356e-16
 3.162985199038054e+00  2.036594785939294e+00 -7.721436615003597e-17
 1.872829936205391e+01  4.794868607602833e+00 -3.825579601941756e-16
-3.267934307643096e+00  7.291232735768288e+00 -1.675797851400226e-17
 1.367975145147335e+01  2.098292769417292e+01 -4.590394544370909e-16
-1.760027344518885e+01 -2.737155317407694e+01  5.944506258909786e-16
-6.045304371019309e+00 -2.431754135350125e+00  1.325687927347636e-16
 9.465771358388917e+00  1.846077442465148e+01 -3.581324434438478e-16
 9.326466744993425e+00 -1.691368889935384e+01  7.806408441433247e-18
 3.066559297338402e+01 -1.932907977158672e+00 -5.258708789156773e-16
 5.097976149758240e+00  1.410358999998148e+01 -2.356338304923731e-16
-2.737531238536335e+01  9.093637365782941e+00  3.937425178828844e-16
-2.835203667348333e+01 -7.725440407738043e+00  5.839344058940696e-16
 1.096903771593907e+00 -9.376075016203153e+00  7.681505369166160e-17
 2.824607228008426e+01  2.134154068307189e+00 -5.246002071355990e-16
 6.745226619443522e+00  3.167278474246873e+01 -4.454657111051177e-16
-2.060799381041434e+01  1.552268796996023e+01  2.072538520153624e-16
 8.840322125793463e+00 -2.429730430726386e+01  9.232189789579308e-17
 3.165587161577275e+01  7.042155218829812e+00 -6.357095825527720e-16
 6.144672297109727e+00  3.140072784745553e+01 -4.319828448024581e-16
-1.127322171953412e+00 -2.083062331793288e+01  2.340891301983513e-16
 1.339742155130576e+01 -8.326460031345803e+00 -1.528717454824590e-16
-1.831524121173470e+01  4.169749668666427e+00  2.830989014768274e-16
-4.763513271517699e-01 -6.644041824900427e-01  1.530375169524886e-17
 1.614789844809698e+01  1.363449694604143e+01 -4.274606178978166e-16
-1.848908770395512e+01 -3.069831332616101e+00  3.605767720344946e-16
-2.346353497884836e+01  5.450012935527888e-01  4.119619029584034e-16
-2.529129218460616e+01  1.835363644854090e+01  2.615117658174372e-16
 3.131351620182447e+01 -6.943680170803825e+00 -4.859175816091737e-16
 2.154638505417209e+01  2.437959281999362e+01 -6.339350833109350e-16
 3.023479267124285e-01  2.925124721599145e+01 -3.059265810094728e-16
 7.079266913005386e-03  1.020704056196826e-02 -2.308576330205030e-19
 2.809682203342924e+01 -1.642128045112583e+01 -3.312937719307507e-16
-1.694288643886298e+01 -1.994276896881694e+01  5.064235809058480e-16
-2.942829316058437e+01  1.230140046593392e+01  3.973191590939235e-16
 7.233879939864716e+00 -2.290944664427125e+00 -1.051968982224492e-16
-2.551846469483124e+00 -1.839251244310602e-02  4.560212828218812e-17
-1.824203198883398e+01  1.059685287944233e+01  2.157599053317463e-16
 2.462980855866956e+01  7.134437657990930e-01 -4.456471983298933e-16
 1.807640241001153e+01 -2.755124133748208e+00 -2.933832435920728e-16
 3.064813498663243e+01  1.084287275997491e+01 -6.568266992012025e-16
-1.883147811824778e+01 -6.610275509270130e+00  4.030467956607764e-16
 1.386942048060773e+01  9.668430874718894e-01 -2.567568429909744e-16
-1.763303677172648e+01 -2.587789753918822e+01  5.796869192464119e-16
-1.700522241665839e+01  2.409355703947809e+01  5.507567138849622e-17
 2.593534617299367e+01 -1.965827420738933e+01 -2.595687957578473e-16
-1.540541019414640e+01 -2.567432371941579e+01  5.379520001083249e-16
-3.227203820730659e+01  4.164747587542519e+00  5.315281468476974e-16
-2.794145603289529e+01  4.335652239146766e+00  4.527042881423663e-16
-1.870097597740484e+01  7.758379014666417e+00  2.530916488335243e-16
 3.013115514318701e+01 -1.128447318061209e+01 -4.202759849109058e-16
 2.755947466842284e+01  3.484458802140318e+00 -5.262552742285692e-16
-1.662729168636998e+01 -9.109816839301917e+00  3.895025479824328e-16
-3.164272617711456e+01  3.361351745970508e-01  5.596663903096703e-16
 1.176431303821967e+01 -7.697769551586974e+00 -1.302681977650247e-16
 2.390268423585240e+01  3.658757152073778e-01 -4.291360181908867e-16
-2.113035362336166e+01 -1.167659628483909e+01  4.960126329786675e-16
-1.108488773962651e+01  8.151239375850670e+00  1.135177763838261e-16
 2.512994189210717e+01  6.030469882176173e-01 -4.534133807802927e-16
 3.273486297393810e-01  7.920043759603176e-01 -1.396311658336577e-17
-3.175446648639040e+01  5.178795714053439e-01  5.597875847583379e-16
-5.664245873443370e+00  4.080878628405361e+00  5.887246647198198e-17
 2.573738439537554e+01 -3.135671431343571e+00 -4.258095711242596e-16
 3.153336303181764e+01  7.973157725629907e+00 -6.430951087186853e-16
-1.657348670143992e+01 -6.948251819816767e+00  3.663357287613831e-16
 8.248276678676708e+00  4.866152998192071e-01 -1.517877178332047e-16
-1.586343709968776e+01 -2.674393008676301e+01  5.570929521171582e-16
-1.664592830424361e+01  2.381011935755162e+01  5.159382328284862e-17
 2.512942385891349e+01 -2.067853917579758e+01 -2.347435949196906e-16
-1.509172646304827e+01 -2.605938683134531e+01  5.363260075203910e-16
-3.226930254450126e+01  4.187845282468583e+00  5.312421420445260e-16
-2.786106982885518e+01  4.371723574218331e+00  4.509030998899431e-16
-1.863594811765764e+01  7.795739996651120e+00  2.515505300663737e-16
 3.009790373432511e+01 -1.133876945839666e+01 -4.191263619184774e-16
 2.708039167966177e+01  3.339683044511200e+00 -5.162419026740153e-16
-1.615904018790182e+01 -7.954188527185785e+00  3.692957929245070e-16
-3.194413108154367e+01  3.421895093116962e-01  5.649680440497013e-16
-7.017230991421435e+00  4.021338071715479e+00  8.356220810492064e-17
 2.497006689666216e+01 -3.194650164859047e+00 -4.115482558800342e-16
 3.147161011316167e+01  8.210029670443346e+00 -6.444299150515331e-16
-1.693910893049849e+01 -7.004658043662032e+00  3.734219659262556e-16
 8.836649888351076e+00  5.261060261511652e-01 -1.626642737967569e-16
-1.462355266573651e+01 -2.655234988222389e+01  5.330593125960157e-16
-1.662161644574919e+01  2.367760509954520e+01  5.252270064490129e-17
 2.536223256835910e+01 -2.039232907429632e+01 -2.418274084545478e-16
-1.511781158904052e+01 -2.602407395653563e+01  5.364273965182177e-16
-3.225801472850473e+01  4.272062346539733e+00  5.301759621553172e-16
-2.779799562834827e+01  4.351788199038974e+00  4.499854479911180e-16
-1.870011143530894e+01  7.805634233432953e+00  2.525907331313075e-16
 3.008871579153493e+01 -1.135532507134817e+01 -4.187927485899756e-16
 2.708421231910677e+01  3.334713149538209e+00 -5.162588316444086e-16
-1.603132166492270e+01 -7.887893244308083e+00  3.663417294794449e-16
-3.194879768897112e+01  3.288244737853993e-01  5.651884127650183e-16
-6.997441743350617e+00  4.004721777564866e+00  8.338076120662020e-17
 2.496477939989551e+01 -3.185926701372062e+00 -4.115437889873183e-16
 3.149275776527948e+01  8.131274974405720e+00 -6.439970868382427e-16
-1.654563158521380e+01 -6.887441753297447e+00  3.652152124061332e-16
 7.499541007042630e+00  4.650256854772560e-01 -1.382412479837912e-16
-1.711754020639930e+01 -2.679813469253781e+01  5.799681454446957e-16
-1.657587021906230e+01  2.377100426822215e+01  5.074894943101877e-17
 2.574462363171479e+01 -1.990739259640193e+01 -2.536150596858209e-16
-1.504676767948550e+01 -2.609255587919096e+01  5.358667122714718e-16
-3.227473037225850e+01  4.146611293060150e+00  5.317624009725091e-16
-2.777364249501177e+01  4.354646709907492e+00  4.495226847710748e-16
-1.873912352120475e+01  7.818641158164069e+00  2.531513582844003e-16
 3.008057100408004e+01 -1.137335677339153e+01 -4.184625331864817e-16
 2.708923886595820e+01  3.348738473865617e+00 -5.164923901508248e-16
-1.606138560999834e+01 -7.910601209434388e+00  3.671100693614375e-16
-3.193923880766852e+01  2.888023745373173e-01  5.654295136019926e-16
-7.284762912125242e+00  4.186744069090037e+00  8.662377121557061e-17
 2.496530144349576e+01 -3.216465176598144e+00 -4.112393076355425e-16
 3.146588219471510e+01  8.231067781367928e+00 -6.445441388629399e-16
-1.694937148955648e+01 -7.003847089170608e+00  3.735962681277881e-16
 9.399833117133573e+00  5.597301806988081e-01 -1.730322671158575e-16
-1.334797631865453e+01 -2.600836705976080e+01  5.047696839637701e-16
-1.657775392896641e+01  2.369098198508554e+01  5.160467218697479e-17
 2.516205768514765e+01 -2.063881728625040e+01 -2.357324807727289e-16
-1.512280488949207e+01 -2.603864372164375e+01  5.366659572839818e-16
-3.225669789448180e+01  4.281746547135381e+00  5.300530258804849e-16
-2.780643339797373e+01  4.343686822663405e+00  4.502188468668016e-16
-1.867657420579340e+01  7.798559555190402e+00  2.522445497886420e-16
 3.009851600273551e+01 -1.133104432273669e+01 -4.192166309050420e-16
 2.707831582856961e+01  3.352366360964723e+00 -5.163352768891979e-16
-1.629623455406533e+01 -8.024471427063739e+00  3.724594615936000e-16
-3.194549178723164e+01  3.715260595234194e-01  5.646908370197488e-16
-6.829810024752605e+00  3.916591187967845e+00  8.130306461538118e-17
 2.499046670663494e+01 -3.182355085333092e+00 -4.120376223074046e-16
 3.146913128421451e+01  8.218909147464961e+00 -6.444770347533438e-16
-1.691259452294086e+01 -6.969415245447120e+00  3.725880034796964e-16
 9.537918135658789e+00  5.683925922168098e-01 -1.755786578468074e-16
-1.305650707360444e+01 -2.588091822634726e+01  4.982731507342287e-16
-1.661585980723055e+01  2.368657289075043e+01  5.232811359396066e-17
 2.512050476120078e+01 -2.068937327393980e+01 -2.344735525170314e-16
-1.516007324976618e+01 -2.602071307729059e+01  5.371449613518052e-16
-3.226597440717909e+01  4.212903345985449e+00  5.309254513674916e-16
-2.786024878452204e+01  4.390589941901721e+00  4.506946433644109e-16
-1.858064422451278e+01  7.770551513068077e+00  2.508251337925854e-16
 3.010878121040492e+01 -1.131270424141247e+01 -4.195877501951689e-16
 2.707427186902475e+01  3.323159617737302e+00 -5.159632211296521e-16
-1.604239271340298e+01 -7.903347536934286e+00  3.666975392500916e-16
-3.194705126394504e+01  3.378904619979491e-01  5.650641833147670e-16
-7.061153902905802e+00  4.024969584411884e+00  8.430655624259072e-17
 2.495750117251920e+01 -3.191780222881691e+00 -4.113541214387329e-16
 3.146702627890162e+01  8.227047996131668e+00 -6.445231973644356e-16
-1.708474631850755e+01 -7.039425442515514e+00  3.763709793444695e-16
 8.775830397499393e+00  5.131099615559039e-01 -1.614483885638057e-16
-1.450588308374538e+01 -2.657918281833193e+01  5.312409407192648e-16
-1.669467295899037e+01  2.358694404742318e+01  5.475433779008840e-17
 2.548510822711775e+01 -2.023855687982769e+01 -2.455940807791381e-16
-1.518121630706843e+01 -2.593837844892628e+01  5.366752688938190e-16
-3.224936630056065e+01  4.335265591427741e+00  5.293726626802946e-16
-2.778260502970725e+01  4.365129067995117e+00  4.495744813531335e-16
-1.864713835655245e+01  7.773416792139860e+00  2.519790364930008e-16
 3.009230219935267e+01 -1.135649906177009e+01 -4.188445106652031e-16
 2.744046046299508e+01  3.351500101380129e+00 -5.227711721349567e-16
-1.712358110072315e+01 -9.138592469638384e+00  3.986302692829029e-16
-3.186933653150800e+01  4.184956291954360e-01  5.628529681349122e-16
-6.275730530439871e+00  4.331754562166111e+00  6.717690622484069e-17
 2.560114312380501e+01 -3.147081056426726e+00 -4.232677654276625e-16
 3.146252420305992e+01  8.240585556613645e+00 -6.445821710696749e-16
-1.722376699200032e+01 -7.004315940822091e+00  3.784842807029451e-16
 1.034650346920712e+01  5.729640017733810e-01 -1.900153679707798e-16
-8.849410774931375e+00 -2.291951123342570e+01  3.929754725702474e-16
-1.672211423666157e+01  2.346521892563882e+01  5.649336948340781e-17
 2.525345075849462e+01 -2.052688848106828e+01 -2.385089573432504e-16
-1.521894514956803e+01 -2.595944954471640e+01  5.375631965022274e-16
-3.219982442985518e+01  4.684138698846713e+00  5.249064615512072e-16
-2.771745662231909e+01  4.240211603813149e+00  4.496985692970489e-16
-1.897535277681401e+01  7.887649007404409e+00  2.566463090901814e-16
 3.009448069366340e+01 -1.130580555923286e+01 -4.194041368948971e-16
 2.689657581661551e+01  3.360697444075152e+00 -5.131865954619092e-16
-1.716949554824582e+01 -8.299541494454223e+00  3.908264276643069e-16
-3.199116524507706e+01  4.089957203136532e-01  5.651186635240129e-16
-8.359508565688047e+00  4.522503015248201e+00  1.023003509182788e-16
 2.409266947959263e+01 -2.975191947081800e+00 -3.981887756951470e-16
 3.059757653542813e+01  8.679746743090815e+00 -6.337016172395460e-16
 1.106916388264045e+01  4.973179902919463e-01 -2.020987367590827e-16
 3.153455961534456e+01  7.186982572402568e+00 -6.350387392493987e-16
-3.331488275972452e+00  3.084816229359863e+01 -2.576658535041886e-16
-2.552955979144727e+01  1.557816539479705e+01  2.942689789079720e-16
-1.796965869191697e+01  1.681819317315118e+01  1.469906861290017e-16
-4.756487789530388e-01 -1.461535270646920e+00  2.348148136676991e-17
-1.136326072495930e+01 -2.923038072402096e+01  5.025543225635222e-16
-6.566449523497571e+00 -9.659797509731324e-01  1.267828930424907e-16
 1.028872355279045e+01  4.818510420365396e+00 -2.326085525659291e-16
-3.244226089644545e+01 -2.567028214276543e+00  6.037240135558865e-16
 3.122807428446662e+00 -8.644656704177106e-02 -5.468587613016048e-17
 2.786957809504624e+01  4.195611686132684e-01 -5.002832248467643e-16
-6.295986174730644e+00 -4.648600268581545e-01  1.168208519801159e-16
 3.252686547570839e+01 -1.045441653496582e+00 -5.681128373744794e-16
-1.275272288067312e+01 -2.573027342687217e+01  4.913191280602792e-16
-2.070918972547758e+01  1.605477912044998e+01  2.035877107536416e-16
 1.558682706325525e+01 -1.540327172266168e+00 -2.615598780423215e-16
-2.370186653751435e+01  1.000395702385573e+01  3.190159633854642e-16
-1.393081347497384e+01  1.076138786665332e+01  1.373460920373791e-16
-5.510316132231402e+00 -2.613764287068429e+01  3.666174339281751e-16
-1.373091083762612e+01 -2.807125187921111e+01  5.327798527545133e-16
-3.206018638322784e+01  3.583554473234873e+00  5.337295390523771e-16
-2.669194443685800e+01  1.503991800930931e+01  3.204852965827501e-16
 9.822138633977247e+00 -2.200274332959750e+00 -1.521896538003471e-16
 1.817535862890262e+01 -3.882207028162385e+00 -2.835639202436959e-16
 9.569756306314163e-01 -4.453559266867524e-01 -1.245465252736658e-17
 1.049323008866889e+01 -3.877702038515273e+00 -1.468975664190917e-16
 1.380488832654155e+00 -1.929003472022707e+00 -4.747635569863647e-18
-3.251311876884103e+01 -3.708919091934508e-01  5.824205111745238e-16
 2.032681010525840e+01 -2.024948721523521e+01 -1.536837074501409e-16
 2.317956434064187e+01  4.821380924798805e+00 -4.620459345523634e-16
 1.445282322183130e+01 -1.484271170852651e+00 -2.419548821027457e-16
 2.774333823082837e+01  1.311263831746679e+01 -6.284533925468342e-16
 3.210792166867596e+01  3.782060402562589e+00 -6.102580625068147e-16
-1.660301252123346e+01 -1.854176196893674e+01  4.859802811239310e-16
 3.608935445199577e+00 -4.025964583463590e+00 -2.285998755593518e-17
-5.568437574570862e+00 -1.449044451880160e+00  1.139853942572874e-16
-1.457450244254507e-01 -7.626248364932434e-02  3.377275875668437e-18
 1.762933108733341e+01  1.190122614268970e+01 -4.360157509557415e-16
-1.818167107990754e+01  3.238354726927718e+00  2.902916063333969e-16
 2.866990235357273e+01  4.906388368803379e+00 -5.606264691901550e-16
-2.569625070917525e+01 -6.966890897214410e+00  5.288777060657742e-16
 4.455761752600235e+00 -2.333837505008308e+00 -5.531626286273373e-17
-4.938232592565109e+00 -4.385140332784843e+00  1.329374634574374e-16
-6.199531386585420e-01  1.059213603350297e+01 -9.779754432867242e-17
 3.225327461755994e+01 -2.473971673662318e+00 -5.485663346942112e-16
-1.316395952675042e+01 -7.840186217956480e+00  3.148234275874751e-16
-3.193885309545051e+01  1.005970889266147e+00  5.580540034264660e-16
-6.123968569240295e+00  2.240783607777113e+01 -1.212490499272280e-16
 3.164322460399852e+01  7.602347326827932e+00 -6.412402843009343e-16
 2.389781286794152e+01  2.134261257453781e+01 -6.445776773546594e-16
-2.528576126467331e+01 -2.048707405150557e+01  6.604875271692409e-16
 2.096244919990984e+01 -1.109345370413459e+01 -2.590705815495579e-16
 3.018644842153050e+01 -1.387389004451194e+00 -5.229489393420308e-16
 3.005095712955083e+01  1.249117348516971e+01 -6.631348980799787e-16
-5.128859040322385e+00 -2.960503593063078e+01  3.954551540635046e-16
-3.127403940818605e+01  3.059638551747548e+00  5.251221616639933e-16
-9.467425711657709e+00  2.752931619969341e+01 -1.143695896384889e-16
 2.288355284961775e+01 -2.204113289636024e+01 -1.807754858461762e-16
-4.692463538567099e+00 -3.097243652370709e+01  4.017385199349129e-16
 2.096943555382180e+01 -7.846655068934035e-01 -3.651139658920803e-16
-1.162637105188539e+00 -4.290106836179935e+00  6.476980340625343e-17
-2.211366932320295e+01  1.282323920827316e+01  2.617849991929510e-16
 4.258848420244292e+00 -2.384370075750354e+01  1.691940757669270e-16
-3.252642716553639e+01  7.818464711424333e-01  5.708133818681348e-16
 2.949596578184034e+01 -1.011234879559735e+01 -4.210151848115945e-16
-6.697899185384946e+00 -1.771096304368609e+01  3.011708169353177e-16
-2.754981553437061e+01  1.550770746157500e+01  3.309457693855251e-16
 1.132322559977265e+01 -1.494596592627507e+01 -4.794593593046324e-17
 2.985436847114732e+01 -4.520731516783617e-02 -5.308296097796416e-16
 3.118383417102470e+01  8.763833781341622e+00 -6.449987349946236e-16
 1.463788819727385e+01  1.375471149487145e+00 -2.746311475667246e-16
 1.580559389520603e+01  9.629763223932677e+00 -3.802217158746160e-16
-3.126549423219005e+01 -8.987237273351083e+00  6.487473628752685e-16
-5.857188693630125e+00  2.648839905714218e+00  7.701979170789622e-17
 2.173129116281009e+01 -2.695538107193677e+00 -3.590385734249395e-16
 7.386999362267296e+00  1.049608452706448e-01 -1.325388997371423e-16
 1.193173608401244e+01  1.351445959722663e+00 -2.262250925961520e-16
 1.751525033524585e+01 -2.443529459177382e+00 -2.865983951203678e-16
 1.110768085154349e+01 -5.857929684347899e+00 -1.374863309900583e-16
 8.780089217421969e+00  3.621658958738618e-01 -1.599732839071011e-16
 2.648867231045755e+01  9.422317581063023e+00 -5.682084108853173e-16
 2.497436518607938e+01 -3.789353409959402e+00 -4.055143892767110e-16
 1.653300476091304e+01  8.991084662381072e+00 -3.866046697026354e-16
-3.192634292403534e+01 -6.308607719328481e+00  6.329860080307332e-16
-2.791552540106376e+01  7.526386586853055e+00  4.194591853009873e-16
 1.325865737945811e+01 -1.559209705746469e+01 -7.575049046718046e-17
 2.169180273677430e+01  1.687939334625812e+01 -5.594611394447970e-16
-1.347484241656197e+01  1.177746403290437e+01  1.187917296671928e-16
 3.198863665143075e+01  5.728292160560963e+00 -6.281320676699011e-16
-9.925170699066507e-01 -7.438246152024211e+00  9.408830228586000e-17
-1.172687101642561e+01  8.768563004855464e+00  1.185998585500158e-16
 2.179013359821871e+00  3.205530513582564e+00 -7.171380350785931e-17
-5.239091978072998e+00  2.125523288943785e+01 -1.251539053887942e-16
-1.460824410431774e+01 -3.505318265434890e+00  2.959870009689668e-16
-2.539885412413361e+01  1.105290478472561e+01  3.384383245259288e-16
 2.208870959024889e+01 -1.263334011048881e+01 -2.632919552218912e-16
 1.026917897544916e+01  2.994381729553585e+01 -4.904141343682134e-16
-2.860246491457931e+01  1.545201419083308e+01  3.502511488930118e-16
 3.201919312387056e+01  4.486301900692616e+00 -6.159148577849348e-16
-2.054005996353733e+01 -2.438896614716429e+01  6.161226355391943e-16
-2.879350304356350e+01  6.866680461101878e+00  4.418620855250019e-16
 2.786289031447479e+01 -1.681514999188078e+01 -3.230838115017770e-16
 4.878781895351351e-01  6.835156840205789e-01 -1.570524970024295e-17
 3.123119413815305e+01 -3.576403921383501e+00 -5.190501025159593e-16
 5.718865527146059e-01  5.147429221717983e+00 -6.306536871457742e-17
-1.212592432755570e+01  1.182120405384376e+01  9.433671038398753e-17
 3.253205039447968e+01 -8.689676541096333e-01 -5.700183154293138e-16
-1.258158534803244e+01 -1.835593122622343e+01  4.125048442910546e-16
-9.688587340092534e+00  2.119794066816613e+01 -4.538117107902716e-17
 2.080475141777830e+01 -2.390448354870375e+01 -1.246354836429359e-16
 2.239245628953767e+01  7.594901635830905e-01 -4.063039558918073e-16
-3.125535015966273e+01 -2.384314634762192e+00  5.807242056526779e-16
 2.074081865944580e+01 -5.405109935764622e+00 -3.135720675221764e-16
 1.454561682249492e+01  5.062239453340530e+00 -3.108692733018151e-16
-3.004624710793696e+01  4.726941631993920e+00  4.861411996653113e-16
 2.572334074587372e+01 -1.685604405450287e+01 -2.845878031208836e-16
 2.919236240338616e+01  1.244285233559531e+01 -6.473586984931907e-16
-2.469405190805946e+00 -7.443598706724390e-01  5.159403817791888e-17
-2.790248414047663e+01 -9.987853409981858e+00  5.991795540500905e-16
-1.559109560244877e+01 -2.018735734606792e+00  2.982039203034124e-16
-3.019789315889074e+01 -1.164880885109259e+01  6.570948093705837e-16
-1.093053769016823e+01  3.438374307709417e+00  1.591939096285424e-16
 3.134921268899037e+01  8.687581105618710e+00 -6.471583744006468e-16
-1.197485195119090e+01 -1.948925158552901e+01  4.133517547489525e-16
-7.835114056052836e+00  1.233845334860763e+01  1.266207473512613e-17
-1.958846816366190e+01 -2.865689112360887e+00  3.780440715342936e-16
-1.482369559385721e+01  1.331672281953131e+01  1.269808560539382e-16
 3.220278301367832e+01  8.076212052504792e-01 -5.813849510946106e-16
-3.142229549095413e+01 -5.494137522285477e+00  6.156474972951148e-16
 1.767414968376628e+01 -5.935560478596549e+00 -2.535468484573562e-16
 2.100516469979266e+01  7.404746342445122e+00 -4.498930404742815e-16
-2.982933513652145e+01  4.864353814267954e+00  4.808691321222328e-16
 2.600175651392842e+01 -1.691989941933780e+01 -2.888864531741726e-16
 2.921490358072492e+01  1.245028357122526e+01 -6.478361988752612e-16
 2.343812623082174e+01  6.386620868816276e+00 -4.827296236349626e-16
-2.090841513375899e+01 -1.006415818945925e+01  4.754957571205013e-16
 1.575373969205377e+01 -7.134189297950905e-01 -2.730264692209298e-16
-3.010807398408255e+00  2.313754623727049e+01 -1.841489732734689e-16
-1.589850833840722e+01  1.073910334202571e+01  1.725925346789395e-16
 3.242734200704700e+01 -2.747709155090626e+00 -5.488515183439810e-16
-1.109980296194524e+01 -1.689493533143057e+01  3.711235571121969e-16
-5.982336765269288e+00  9.883013045420016e+00  4.918449889289185e-18
-1.872951130501684e+01 -3.123461611099062e+00  3.654064284551180e-16
-1.394521119076127e+01  1.270864077980410e+01  1.175950002634760e-16
 3.222135686313744e+01  8.409405139321032e-01 -5.820578386935653e-16
-3.137090881031583e+01 -5.566379840098428e+00  6.154752736179773e-16
 1.784416816576226e+01 -5.825750417535143e+00 -2.577007886227641e-16
 2.062139395878465e+01  7.090298552510511e+00 -4.398325455193417e-16
-2.976097277314679e+01  4.917187661946327e+00  4.791096937150114e-16
 2.604562318228569e+01 -1.692683974791368e+01 -2.895958035003589e-16
 2.918429352948787e+01  1.249374890506509e+01 -6.477380470236218e-16
 2.339762786970037e+01  6.331448835005363e+00 -4.814420343253985e-16
-2.097395303499497e+01 -1.012485451845326e+01  4.772857150011601e-16
 1.519422282505921e+01 -8.546846731576879e-01 -2.616177449626088e-16
-2.973358043102415e+00  2.242561706875967e+01 -1.775006156696957e-16
-1.699102841090182e+01  1.131883555714174e+01  1.860786946670256e-16
 3.242676475902229e+01 -2.754838733969456e+00 -5.487679916891002e-16
-9.529605343316925e+00 -1.557834677477726e+01  3.296525483514151e-16
-1.028201653275003e+01  2.037339749534985e+01 -2.634850915808488e-17
 2.125556158116723e+01 -2.339987018846355e+01 -1.378429072102086e-16
 2.295761229551543e+01  7.384169809810173e-01 -4.161450618662961e-16
-3.075285344400223e+01 -2.523196490386986e+00  5.732086377009702e-16
 2.033108901597152e+01 -4.626381240284339e+00 -3.142815942260989e-16
 8.342478735387489e+00  2.176839345650051e+00 -1.708305938463778e-16
-2.969258821765413e+01  5.098699693897985e+00  4.760277387978529e-16
 2.606856269500462e+01 -1.686769818942135e+01 -2.906116975176565e-16
 2.918285424157540e+01  1.250839334225569e+01 -6.478628994496895e-16
 2.330220914891549e+01  6.329431484946120e+00 -4.797232168295417e-16
-2.097111173097370e+01 -1.012019078479119e+01  4.771872324159681e-16
 1.568883058308763e+01 -7.127734214722685e-01 -2.718779665622513e-16
-2.823138634787818e+00  2.293362710905603e+01 -1.853935678460847e-16
-1.605952399348279e+01  1.086550088382181e+01  1.741593114977161e-16
 3.243210377040597e+01 -2.691126625705941e+00 -5.495176245362998e-16
-1.113071791721415e+01 -1.709035544290870e+01  3.736815962753101e-16
-6.126382337196000e+00  9.956107817121307e+00  6.730890453068287e-18
-1.876932809555258e+01 -3.172599656148751e+00  3.666198912515750e-16
-1.384321844959284e+01  1.268814911877157e+01  1.159904621458770e-16
 3.222318034799603e+01  9.464941645937981e-01 -5.831748152079307e-16
-3.145139434786334e+01 -5.494651135132357e+00  6.161706233595257e-16
 1.803836584344723e+01 -5.986604178694513e+00 -2.595040539518377e-16
 2.126064100579455e+01  7.420763739531631e+00 -4.546041189276460e-16
-2.979700851367912e+01  4.839601902002536e+00  4.805481582052997e-16
 2.600812136008955e+01 -1.693651427399019e+01 -2.888290116113019e-16
 2.922861415795614e+01  1.245215991178115e+01 -6.480994736744935e-16
 2.310864285223543e+01  6.409046915115307e+00 -4.770964933705193e-16
-2.101176120231331e+01 -1.001811250284430e+01  4.768618210182417e-16
 1.562722858772052e+01 -7.435160588229190e-01 -2.704658161507447e-16
-2.697222501504597e+00  2.224834360462489e+01 -1.805933565714445e-16
-1.683918228509808e+01  1.137748362544400e+01  1.827738241308939e-16
 3.243806349493635e+01 -2.618494030202573e+00 -5.503699584711066e-16
-9.593198162095561e+00 -1.547462500702195e+01  3.297185549369102e-16
-1.001078839809920e+01  2.034991180126209e+01 -3.093403037195922e-17
 2.133082109304057e+01 -2.335034024722069e+01 -1.396911421441175e-16
 2.296442409442606e+01  7.019555235538181e-01 -4.158916577277559e-16
-3.101557305886054e+01 -2.516364559779851e+00  5.778138511462864e-16
 2.078671223944202e+01 -5.074009565666469e+00 -3.177907345539729e-16
 1.269855815134941e+01  3.956326050557468e+00 -2.666358026266672e-16
-2.982905767850179e+01  4.892269604537416e+00  4.805773698132302e-16
 2.598553273869828e+01 -1.688904025651366e+01 -2.889147984208406e-16
 2.920315099350701e+01  1.245485684402490e+01 -6.476740362958257e-16
 2.322551605586079e+01  6.371003588610310e+00 -4.787855100637890e-16
-2.100419129012263e+01 -1.006768730764960e+01  4.772364684984293e-16
 1.579122042342288e+01 -6.845234820529656e-01 -2.739903737643512e-16
-2.895372969994158e+00  2.302310183992053e+01 -1.850273920462587e-16
-1.601736006421232e+01  1.081972623114248e+01  1.738792720138959e-16
 3.242755256996056e+01 -2.745373251771610e+00 -5.488792661208534e-16
-1.110106303708955e+01 -1.697744384191248e+01  3.719937266291352e-16
-6.003690544062486e+00  9.876993172945275e+00  5.360317874017895e-18
-1.861982709778411e+01 -3.069152064531045e+00  3.628964562651742e-16
-1.384455443245887e+01  1.263088676245636e+01  1.166025874662595e-16
 3.221743994741381e+01  9.008685004416779e-01 -5.826038707999363e-16
-3.132794596486198e+01 -5.563306147906291e+00  6.146791174552619e-16
 1.766026786963910e+01 -5.552840253197186e+00 -2.572321162822900e-16
 1.953987923965702e+01  6.415968978370044e+00 -4.136572096163087e-16
-2.965760162976874e+01  5.008839155593064e+00  4.763283951153559e-16
 2.610283608658140e+01 -1.688423923769964e+01 -2.910516801218799e-16
 2.925392850653972e+01  1.244989105369348e+01 -6.485266610096023e-16
 2.324803547690509e+01  6.424083423539990e+00 -4.797316460313970e-16
-2.080345183627215e+01 -9.936103469667202e+00  4.723120943331842e-16
 1.609486032684804e+01 -6.061214017998006e-01 -2.801995609415056e-16
-2.953423925300606e+00  2.317301730493497e+01 -1.855346329905245e-16
-1.584193064530632e+01  1.071301854569941e+01  1.718536789475081e-16
 3.242888300037701e+01 -2.729514462982937e+00 -5.490658860110808e-16
-1.106794281225620e+01 -1.685206951395012e+01  3.701161370425716e-16
-5.891849682000134e+00  9.770585380827379e+00  4.463277733157113e-18
-1.872848680102729e+01 -3.172125588360454e+00  3.658882008503859e-16
-1.380335899800288e+01  1.261762879254637e+01  1.160056863902845e-16
 3.221532346689158e+01  9.695925222513853e-01 -5.832723198555680e-16
-3.138190248230765e+01 -5.480844511483220e+00  6.147920746707566e-16
 1.784539637208706e+01 -5.647178111326073e+00 -2.595574115597538e-16
 1.973949623553646e+01  6.549280420081117e+00 -4.185793587872611e-16
-2.966750423035686e+01  5.000278304118768e+00  4.765925833467617e-16
 2.610316185931470e+01 -1.690316956082716e+01 -2.908629754474311e-16
 2.922671963121113e+01  1.247762724335837e+01 -6.483274258807552e-16
 2.320044333221777e+01  6.405281102955917e+00 -4.786915000789955e-16
-2.083396414856515e+01 -9.970002969272512e+00  4.732034023661053e-16
 1.605362429147328e+01 -5.980870185785618e-01 -2.795482668727902e-16
-2.838968907112319e+00  2.305892771613443e+01 -1.863992674842084e-16
-1.595240071689085e+01  1.079687851071344e+01  1.729579949633803e-16
 3.243148639372060e+01 -2.698491729603954e+00 -5.494309638265546e-16
-1.108167955814080e+01 -1.698641372841305e+01  3.717409368231808e-16
-6.020796465268056e+00  9.848197884803449e+00  5.960599266156550e-18
-1.872082216197380e+01 -3.155482544746340e+00  3.655807982220589e-16
-1.378019764662263e+01  1.261893827163189e+01  1.155800480953856e-16
 3.221630426381181e+01  1.014434539170768e+00 -5.837505097511354e-16
-3.145805578001704e+01 -5.449423788592185e+00  6.158244769400774e-16
 1.805518883363948e+01 -5.850578873406256e+00 -2.612010497299616e-16
 2.052911776281465e+01  7.014783768723224e+00 -4.374144935256013e-16
-2.973128127518740e+01  4.933451535845694e+00  4.784141926999025e-16
 2.606788063241213e+01 -1.691434853099373e+01 -2.901202440462380e-16
 2.921977703190204e+01  1.247343904478925e+01 -6.481608418403427e-16
 2.323708886000535e+01  6.400727232598905e+00 -4.792968616187003e-16
-2.085907466672432e+01 -9.993957207715260e+00  4.738963950914704e-16
 1.597853709316284e+01 -6.212015230689618e-01 -2.779745074799338e-16
-2.814444261862939e+00  2.298329869466919e+01 -1.860586520795891e-16
-1.601421052009883e+01  1.084713991880424e+01  1.735415564426159e-16
 3.243395216250387e+01 -2.668718088318824e+00 -5.497807584629967e-16
-1.121435762033021e+01 -1.709498339158004e+01  3.752176150562781e-16
-6.167530632614796e+00  1.004531304716916e+01  6.546622089048622e-18
-1.914375197904820e+01 -3.434663862475715e+00  3.759758254541231e-16
-1.389783163979618e+01  1.280199622010466e+01  1.157926314046914e-16
 3.222580403303018e+01  1.074407997125987e+00 -5.845357749662662e-16
-3.139838844653189e+01 -5.687954787196077e+00  6.172134449255636e-16
 1.687851132258280e+01 -5.443778204298848e+00 -2.444403989127836e-16
 1.965803213611430e+01  6.572692242398954e+00 -4.173701559660325e-16
-2.978580679689020e+01  4.889565992570162e+00  4.798354474128031e-16
 2.586419238734954e+01 -1.691360787697315e+01 -2.865029787550868e-16
 2.917340281405490e+01  1.252712838427650e+01 -6.478871957575453e-16
-5.372285745553001e+00 -1.623779152757657e+00  1.122899739752274e-16
-2.795178601197939e+01 -9.783550072887879e+00  5.979577970808371e-16
-1.517335150588906e+01 -1.934026770829678e+00  2.898993119727513e-16
-2.993721678363576e+01 -1.221585438809173e+01  6.582819492196249e-16
-1.335598822134037e+01  5.054216727092597e+00  1.857555011711485e-16
 3.136168265057616e+01  8.634692235238278e+00 -6.468368783138965e-16
-1.077473183049832e+01 -1.845713018564567e+01  3.813895131863212e-16
-1.148505088662058e+01  2.155334561435050e+01 -1.706261608417665e-17
 2.065194262155815e+01 -2.364796899308829e+01 -1.245516627058442e-16
 2.148870214690270e+01  8.892491842625354e-01 -3.915537996803830e-16
-3.179989132648344e+01 -1.991159586420466e+00  5.863754397983815e-16
 2.024219402460169e+01 -5.906420084124646e+00 -2.995476677062863e-16
 1.375646476962262e+01  5.730466692779978e+00 -3.036911634547813e-16
-3.051118536193499e+01  5.342470264966035e+00  4.880909973725071e-16
 2.529737730147710e+01 -1.653782942298025e+01 -2.802768152969418e-16
 2.967356121635700e+01  1.103504928786902e+01 -6.414575404476181e-16
-3.030471760006943e+01 -1.175073813927944e+01  6.600431641441511e-16
-3.020798978588484e+01  1.210283500819794e+01  4.132349785398684e-16
-8.205280916793621e+00  1.190633505321564e+01  2.368949408710787e-17
-7.169677381989571e-01  8.250062664527387e-01  4.282656443620067e-18
-2.972856868440879e+01 -1.314549477032304e+01  6.641205246416624e-16
-3.244578234779315e+01 -2.521087542912799e+00  6.033146582827741e-16
 1.939269712365898e+01 -7.450544938614085e+00 -2.685645350839661e-16
 2.288900680742850e+01  1.198537483241511e+01 -5.304825515972291e-16
-3.127085769483993e+01  3.850489372687194e+00  5.169398343775048e-16
 2.480400359066700e+01 -1.757343646371640e+01 -2.608561554586544e-16
 2.886682446398087e+01  1.273097494867677e+01 -6.445257177319079e-16
 2.039489799581520e+01  5.751868839365700e+00 -4.220499005776977e-16
-2.149321683683963e+01 -1.003107577144830e+01  4.855630911735421e-16
 1.573115888350972e+01 -6.684513184016667e-01 -2.730866426663545e-16
-2.973419389339226e+00  2.292665544619740e+01 -1.826475112454405e-16
-1.610773905065840e+01  1.084937898043335e+01  1.751830026613606e-16
 3.243273300496899e+01 -2.683376366520680e+00 -5.496084536159848e-16
-7.860139247998843e+00 -1.324663527642729e+01  2.759849191818416e-16
-8.202641897450693e+00  1.874654526161128e+01 -4.663814544443797e-17
 2.147981156645530e+01 -2.354158514863799e+01 -1.403776334550649e-16
 2.376031870190626e+01  9.029260266834543e-02 -4.237709373212678e-16
-2.349882139469418e+01  3.167371403071066e+00  3.856459664447808e-16
 2.574798525390412e+01 -3.275680386677101e+00 -4.245596848920960e-16
 2.829148812869435e+01  1.608358247996587e+01 -6.687337458311228e-16
-7.561181168519072e+00 -2.444308312971345e+01  3.857040378805372e-16
-1.570428783524138e+01  1.032218577591732e+01  1.734198256887279e-16
 1.143583111117904e+01  3.220279566977123e+00 -2.366014584886428e-16
-1.468127893191358e+01 -2.000523750427585e+01  4.668174190799850e-16
 3.105837937706922e+01 -9.690119271162782e+00 -4.531584534210044e-16
 2.540078584978520e+01 -1.613647360817414e+00 -4.354576429115195e-16
 2.319833636973732e+01  8.242279226672235e+00 -4.975284925463569e-16
-3.960429746473900e+00 -3.129162107189581e+01  3.919906106735701e-16
 2.566648258001112e+01 -1.430140690698140e+01 -3.098239129230691e-16
-1.007420940195500e+00 -1.469926184102504e+00  3.303121489239359e-17
-1.372839416094823e+01  7.267431652080331e+00  1.696429297314936e-16
 2.950427147590526e+01  1.081139940528944e+01 -6.361469063094193e-16
-2.327161214316454e+01 -2.268360021342472e+01  6.472118493631279e-16
-7.275655287925983e-02 -6.262217426258190e-01  7.728990563513377e-18
 1.288039042194615e+01  1.347916780021223e+01 -3.677154644136511e-16
-1.772838971420330e+01  2.367991907335542e+01  7.219527590138570e-17
-3.103158635973841e+01  4.946056978130905e-01  5.471622012152590e-16
 2.766577571940926e+00 -1.302023616162830e+01  8.454364870871420e-17
 2.994537549130841e+01  1.266746656807539e+01 -6.630672942640277e-16
 8.425895991801948e+00  3.581782135122038e+00 -1.867503802314460e-16
 1.266644664297854e+01 -3.927089549272095e-01 -2.213795852472276e-16
 3.110924228718001e+01  5.660702279174102e+00 -6.117877344960843e-16
 5.839135090777504e-01 -5.571527498976990e+00  4.685398368748581e-17
-3.103727163171030e+01  2.959300302507009e+00  5.219395357045753e-16
-1.823400285616977e+01  2.041790109309477e+01  1.147093146444188e-16
 2.559970780571154e+01 -1.971523407105387e+01 -2.530104687369300e-16
 3.119375621638889e+01  9.272377067424141e+00 -6.504004071049434e-16
 2.342498698987372e+00  2.771593418089031e+01 -3.264587139422725e-16
-2.620804567771680e+01 -1.928228808098021e+01  6.645219402511981e-16
-3.199605710080030e+01 -2.807160746344040e+00  5.982505592950382e-16
-2.551068770599980e+01  2.654778690797584e+00  4.267162313351679e-16
 2.309839583758568e+01 -1.835352746909140e+01 -2.224876792795636e-16
-8.210716860750102e+00 -3.463607724466224e+00  1.817068117649650e-16
-3.251714544618165e+01  1.277243517009767e+00  5.655581779220347e-16
-3.763533358665378e+00  1.326730647963086e+00  5.334488998563122e-17
 2.949687809954470e+01  1.226941449063225e+01 -6.509959077003243e-16
-2.726466213488545e+01 -2.731794361662770e+00  5.132753798395624e-16
 4.207808170562118e+00 -2.784856280942113e+00 -4.626957902564693e-17
 5.556064627969801e+00  3.176355709944668e+01 -4.252358079797959e-16
-1.401869522547938e+01 -2.847245177525069e+01  5.420235024041413e-16
-3.086044669428268e+01 -1.033037813958460e+01  6.553393432509672e-16
-1.225453099921665e+01  1.153371091277683e+01  9.957930711016256e-17
 3.255543582540112e+00  7.706515293800671e+00 -1.371179264981504e-16
-3.131166503666099e+01  8.832791825574480e+00  4.664747019266244e-16
-5.501340449811449e+00 -7.016253072956166e+00  1.699923670452960e-16
 2.543673687486367e+01  1.169951270864898e+00 -4.646978990207388e-16
 2.682916232737578e+01  1.225186388395079e+01 -6.033403972554401e-16
-3.210281351149437e+01 -5.040170835473532e+00  6.230937844435185e-16
-1.389457891735142e+01  1.137179292410933e+01  1.304295646632188e-16
 9.353259289477046e+00  3.090779958664834e+01 -4.840188188540884e-16
-2.548183009421825e+01 -2.024177820123958e+01  6.614564801114046e-16
-2.173426500428373e+01 -1.910701042167370e+01  5.831047623751997e-16
 7.517310350298260e+00 -8.938335370508337e+00 -4.194135576379525e-17
 3.180940307083015e+01 -6.851882471537189e+00 -4.956856679730557e-16
 2.631012515197981e+01  5.330543569064198e+00 -5.229894596636144e-16
 2.286190239962551e+01  5.246049135660178e+00 -4.607560729952114e-16
-2.175742357914165e+01 -1.230578284232356e+01  5.136367541369527e-16
-2.827648194482774e+01  1.610934286822866e+01  3.376960797074264e-16
-2.532324322568838e+01  6.111121827264538e+00  3.878677630882865e-16
-1.200711532560884e+01  2.769955703353510e+01 -7.092194623739296e-17
-7.693799676999874e+00 -3.155952311939459e+01  4.611829781394638e-16
 1.288061167492551e+01  3.539545211145627e-01 -2.328626034424965e-16
-1.403015978471309e+00  2.070352222195808e+01 -1.877528269170951e-16
-1.366093659193522e+01  5.998708510763686e+00  1.814781112250477e-16
 1.667626255182690e+01  1.327126169345797e+00 -3.104097235652434e-16
-3.246998838899962e+01  2.188215331866639e+00  5.553590573953152e-16
 2.414222140017441e+01 -1.469666972950128e+01 -2.786366851104681e-16
 1.455991415359108e+01  1.130383016700759e+01 -3.752537886644695e-16
 5.074121587684882e+00 -4.435254053182378e+00 -4.472942208168588e-17
-2.013919361957158e+01 -1.303865014166498e+01  4.923683669922847e-16
-3.029493260391046e+01  7.736384432809075e+00  4.596459231505756e-16
-3.628089268946419e+00 -7.833969623907559e+00  1.450573683106890e-16
 2.450190682847999e+01  1.456659829851032e+00 -4.510073095331112e-16
-1.577326407678109e+01 -2.216305858610849e+00  3.034757868521180e-16
-1.226789485529829e+01  7.553974649599263e-01  2.105603880863211e-16
-2.235198127692633e+01  4.618567873372751e+00  3.503260621287514e-16
 1.486364496163024e+01 -2.083889361861165e+01 -5.040423033450440e-17
 2.639096472309023e+01  1.025656603478225e+00 -4.801969465428013e-16
 6.476311489466991e+00  3.039173786420761e+01 -4.275177542813757e-16
-1.818883509683990e+01 -3.937302146351511e+00  3.641463662142725e-16
 9.282911510272109e+00  5.681688613627582e+00 -2.235777698890076e-16
 2.091068059454270e+01 -7.111603700695175e+00 -2.990613597603943e-16
 5.809939830343442e+00  2.422812603017435e+01 -3.523300032422737e-16
 1.101966399330411e+01 -4.741253799963602e+00 -1.473934050535868e-16
-2.363743645745747e+00 -2.262278628871893e+01  2.745065486687599e-16
-2.738192233681434e+01 -1.456079508586841e+00  5.022546583253376e-16
-8.100755017832732e+00 -2.638062928301552e+00  1.712677367281966e-16
-3.091484518798407e+01 -7.899921745082691e+00  6.313353727969857e-16
 1.896681335512318e+00  1.224038230813786e+01 -1.595191883868506e-16
 3.193275099428458e+01 -6.072859964309255e+00 -5.058849646739549e-16
-8.453580018849943e+00 -2.229597585316931e+00  1.733498454644679e-16
-1.242764355279701e+01  2.684546454588926e+00  1.935820016512582e-16
-6.538794097260789e+00 -2.665968391962244e+00  1.437574974738994e-16
 1.097708869810270e+01  1.108330816870450e+01 -3.092273525080088e-16
-2.786719378016139e+01 -4.914014786213676e+00  5.464196713193310e-16
-7.731054883270131e+00  2.693991834995491e+00  1.099035561275509e-16
-1.599793785062752e+01 -1.845682037286787e+01  4.743395115824694e-16
-2.237261147133664e+01  6.739892495260054e+00  3.288973611753474e-16
 2.064622203500943e+01 -1.201449183258713e+00 -3.550796949123640e-16
 2.534754035040001e+01 -1.186313075934111e+00 -4.389007802744017e-16
 2.933553762696101e+01  8.161564881802402e+00 -6.059179990616713e-16
-7.560823820803185e+00 -4.208991382703983e+00  1.777997362047672e-16
-2.900319267656968e+01  1.476159681374952e+01  3.644763651803148e-16
 3.119595281763526e+01 -3.751328052386173e+00 -5.166256592677807e-16
-1.953639709611366e+00 -1.701516360037103e+01  2.095919738870561e-16
-3.250681363089640e+01  2.792775137837321e-01  5.756280490938851e-16
-1.262692587291908e+01  2.270290993523484e+01 -8.552944431855410e-18
 2.211278210479944e+01 -1.435690369018685e+01 -2.460113646399278e-16
 7.302122778595654e+00 -1.222679281130049e+01 -4.324130642114601e-18
-4.194063916831404e+00 -1.030800148981443e+01  1.805493409660003e-16
-2.995241807926691e+01  8.149991270105446e+00  4.493008086173302e-16
-2.561796652185103e+01 -1.629519442292883e+01  6.233294756110396e-16
-5.239619290438420e+00  3.514867422554127e-01  8.963387671985741e-17
 2.515781335536028e+01  1.666489399375124e+01 -6.189390298928204e-16
-2.778241410031364e+01 -4.752892040595790e+00  5.432554381045236e-16
-1.142474836613710e+01  3.047236536103447e+01 -1.097754592308364e-16
 7.076673451103422e+00 -2.807071166351898e+01  1.624785196171192e-16
 2.772012278893573e+01 -1.704943376909016e+01 -3.181359123936357e-16
 2.259296456963774e+01  1.412464276503386e+01 -5.471943277159867e-16
-2.684384986033605e+01 -1.831003144723240e+01  6.658472503792640e-16
-9.999353750138898e+00  2.408212894795397e+01 -6.948469895350850e-17
 2.429905035889017e+01 -2.114890176123180e+01 -2.151333032882674e-16
 2.258608902690587e+01  2.192020686987666e+01 -6.271685584987372e-16
-1.089303353100296e+01 -1.424880163229146e+01  3.402557859670883e-16
-8.031724308256720e+00 -3.141790222248435e+01  4.657416467624106e-16
 1.866701299075386e+01 -2.657857294500238e+01 -5.911658121329651e-17
 2.892075618681253e+01  1.218202304726441e+01 -6.398452156987425e-16
 2.964748778234228e+01  9.445029642111026e+00 -6.246566583541052e-16
-1.321158212654448e+01  2.731465904662501e+01 -4.553233578277232e-17
 2.797938307244895e+01 -1.451358265210968e+01 -3.488047074404043e-16
-5.244989302905337e+00 -1.245759672040036e+01  2.213381219015108e-16
-1.228395858502456e+01  1.528812110232026e+01  6.152780526814788e-17
 1.494365019878210e+01  6.185426928968051e+00 -3.294930954469811e-16
-2.965932303311572e+01  1.046940363850725e+01  4.202537131402677e-16
 7.659478265988090e+00 -2.160869126679201e+01  8.571190066142506e-17
 2.802734895371209e+01  1.388604019484002e+01 -6.414541254621415e-16
-2.930468885655118e+01 -1.034605888213278e+01  6.278138906880297e-16
-8.642979520401498e+00  7.141897415175064e+00  8.043172878954515e-17
 2.902378977935228e+01  3.856837919200134e-02 -5.169092360348910e-16
 3.616472972209177e+00  7.260292476895414e+00 -1.389563181770011e-16
 3.737212950042908e+00 -2.449637511580407e+00 -4.133902680580167e-17
 2.395642900375483e+01  4.465016484577741e+00 -4.722096527633780e-16
-2.666061824918569e+01  1.791780112557135e+01  2.903586061421041e-16
 7.269516145615459e+00  3.026071683143040e+01 -4.402875838087084e-16
 1.812179012774669e+01  9.479341982878182e+00 -4.198956670975398e-16
 2.434387084774831e+01  9.304947553343021e-01 -4.427887157527055e-16
-2.197584379351053e+01 -1.527932778153136e+01  5.480758964701214e-16
 1.084720334576100e+01 -1.352963317895843e+01 -5.402685655432747e-17
 3.168712651933898e+01  6.697507527967912e+00 -6.327246710219352e-16
-1.092607187323247e+01 -7.118796636512053e+00  2.675855314452957e-16
 5.336445223030999e+00  2.357978529567865e+01 -3.372421362736877e-16
-2.146905440102258e+01 -1.440737838629012e+01  5.300980114160444e-16
-3.213281726140760e+01  2.160822028980572e+00  5.496401511985419e-16
-2.406237769372746e+01  1.125755464452107e+01  3.125514292733401e-16
 2.252971161541429e+01 -2.254970751490585e+01 -1.692530395578490e-16
 1.254563480900343e+01  3.968903219271470e+00 -2.640435751913917e-16
-2.968659147043905e+01  1.153225760065546e+01  4.098185491672583e-16
 1.141059139788837e+01 -2.952138743974902e+01  1.002564466332662e-16
-7.108724035101377e+00 -4.117118163532769e+00  1.688101172955064e-16
-3.141612442851184e+01 -7.141091158356593e+00  6.324595262137318e-16
-2.891010248227148e+01  1.062670294042822e+01  4.053042465393415e-16
-2.328269391291521e+01  2.498277732148179e+00  3.886744145624962e-16
 2.569059351054044e+01 -1.997611375147380e+01 -2.519474443518392e-16
 1.555352862755386e+01  2.485491445404031e+00 -3.023311165362554e-16
 2.951930873659132e+01 -1.127675240724000e+01 -4.094667764217893e-16
-4.679026450556387e+00 -2.661193939214860e+01  3.566968669338840e-16
-1.217079287498635e+01 -1.733979854784883e+00  2.344097901633729e-16
 6.849341006397373e+00  3.156525010160523e+01 -4.462136714647290e-16
-3.180943826713139e+01 -6.873831759323374e+00  6.367130218949687e-16
-2.830591292291216e+01  1.105782507867985e+01  3.901223492748872e-16
-2.261943854818090e+01  7.224764368569558e+00  3.283080610756691e-16
-7.616357129837123e+00  7.102223393910797e+00  6.256939487687734e-17
-1.907339580397130e+00 -2.460214759980572e-01  3.647116428192438e-17
-3.307430920365444e+00  5.126431213384855e+00  6.187460013428870e-18
 2.452883869702100e+01  2.125022128815088e+01 -6.548582477970364e-16
-2.872939932854024e+01 -1.282888929600132e+01  6.430861078722067e-16
-3.038014147481050e+01  1.154899283904918e+01  4.219891502901552e-16
 2.603854780602926e+01 -1.748428900268336e+01 -2.837423001548110e-16
 2.796216655664734e+01  1.589979036806345e+01 -6.609846784635759e-16
 8.674937966725663e+00  2.552139520125491e+00 -1.806031754168901e-16
-2.208607266908431e+01 -1.117852966396536e+01  5.079033398245199e-16
 1.401852281247434e+01 -1.202086169698527e+00 -2.371253366492681e-16
-3.284355628223604e+00  2.265313609034169e+01 -1.743037179569255e-16
-1.674651650703981e+01  1.119446649835504e+01  1.830051605703682e-16
 3.241946031889698e+01 -2.838493156343012e+00 -5.477784816726301e-16
-9.525662110476095e+00 -1.522817625739602e+01  3.259844989582661e-16
-1.032451810431619e+01  2.065555210333324e+01 -2.849117909248603e-17
 2.141950885346063e+01 -2.319683761015908e+01 -1.428466304638540e-16
 2.226799193750899e+01  7.332592384673060e-01 -4.038194510448360e-16
-3.135153544087250e+01 -2.834989395814944e+00  5.870664567774048e-16
 1.891848694778706e+01 -4.941719746779984e+00 -2.859026668507706e-16
 6.866964751468288e+00  2.514904774412080e+00 -1.480455619297143e-16
-3.029926702029794e+01  5.699329482637104e+00  4.806530588717917e-16
 2.545866086322784e+01 -1.659982893147491e+01 -2.825100262253951e-16
 2.956469073269575e+01  1.125397417376671e+01 -6.417694340123255e-16
-3.043877684191087e+01 -1.141350359447785e+01  6.589639458391074e-16
-3.028267136540456e+01  1.191416595598055e+01  4.165025322965577e-16
-8.346368459187735e+00  1.213957441146670e+01  2.380386552475087e-17
-4.176204703122951e-01  2.490234442182266e-01  4.873428999569793e-18
-2.984148810806268e+01 -1.280675389066691e+01  6.626496209869941e-16
-3.231763430364325e+01 -3.827960608329246e+00  6.144617569676529e-16
 1.733159153719143e+01 -7.634798895279106e+00 -2.299915601390119e-16
 2.354453135823477e+01  1.207688474666567e+01 -5.430886240390137e-16
-3.121886737704636e+01  3.969541796274327e+00  5.147913842446407e-16
 2.487184261622015e+01 -1.747214392118495e+01 -2.631041759040032e-16
 2.876094907782658e+01  1.275611599210609e+01 -6.428998540283395e-16
 2.191075552656057e+01  5.666885089463862e+00 -4.481532164414627e-16
-2.155004686083550e+01 -1.048570778965510e+01  4.912456281003246e-16
 1.377837747266164e+01 -1.285507482756472e+00 -2.319945401683164e-16
-3.431257309212437e+00  2.248416647570423e+01 -1.699533259049433e-16
-1.691551021978764e+01  1.124852489382427e+01  1.854571748940642e-16
 3.242441363128410e+01 -2.781623555665285e+00 -5.484509462588981e-16
-9.502372055521381e+00 -1.532781834179493e+01  3.265938108823092e-16
-1.028586075461934e+01  2.051192330545314e+01 -2.770339903027859e-17
 2.137052691937412e+01 -2.328690201358094e+01 -1.410495594908142e-16
 2.290380437240071e+01  6.849918572593022e-01 -4.146385619485463e-16
-3.094856449196408e+01 -3.072739629943708e+00  5.823379053776569e-16
 1.995744372538726e+01 -4.937023018671627e+00 -3.044403991725751e-16
 1.264835834911326e+01  3.990897986288444e+00 -2.660976513408616e-16
-2.988797488910748e+01  4.897350193515574e+00  4.815736706462761e-16
 2.594165533318541e+01 -1.687781240787268e+01 -2.882493097184822e-16
 2.911648912450982e+01  1.249646372655525e+01 -6.465592805484474e-16
 2.411155388862548e+01  6.164491144676322e+00 -4.924317699004490e-16
-2.100733068176139e+01 -1.040743717697654e+01  4.807831441816981e-16
 1.436357838144781e+01 -1.147846063747503e+00 -2.438233094595839e-16
-2.988646631254642e+00  2.226065738483015e+01 -1.755336361763764e-16
-1.690798387082470e+01  1.136034436841801e+01  1.841743300569069e-16
 3.242797566267961e+01 -2.740460903809626e+00 -5.489372681556024e-16
-9.564119424653121e+00 -1.549867334868231e+01  3.294481521031410e-16
-1.018526491556758e+01  2.041712738566699e+01 -2.851962833265991e-17
 2.128271802050553e+01 -2.339389335805376e+01 -1.383875981904491e-16
 2.307293511876126e+01  6.719182974646642e-01 -4.175141192521237e-16
-3.046279110922280e+01 -3.251790120201369e+00  5.755326673242383e-16
 1.928427347243901e+01 -4.381156512694390e+00 -2.981718579125705e-16
 7.681849838622630e+00  1.941571753743036e+00 -1.566566256072937e-16
-2.969719386616837e+01  5.111127131336869e+00  4.759820143972473e-16
 2.604598066581031e+01 -1.684546869320368e+01 -2.904382233651048e-16
 2.909019951536879e+01  1.256962707975910e+01 -6.468431524875857e-16
 2.440261172300221e+01  6.103762980199617e+00 -4.969875313842228e-16
-2.094250582252946e+01 -1.053667150998813e+01  4.809573443292221e-16
 1.415621180055165e+01 -1.206077345593177e+00 -2.395346685410638e-16
-2.873862005509170e+00  2.218388139181263e+01 -1.767875200756021e-16
-1.689865372281052e+01  1.138970770083599e+01  1.837065913705893e-16
 3.243447188263612e+01 -2.662616209144401e+00 -5.498527020898280e-16
-9.637655985717274e+00 -1.559252360175932e+01  3.317211001683756e-16
-1.015363375179635e+01  2.040988095967694e+01 -2.900808823006336e-17
 2.128764913995733e+01 -2.339021272134591e+01 -1.385131705619214e-16
 2.300012718845175e+01  6.919976088056805e-01 -4.164247229108301e-16
-3.081886286434011e+01 -2.939403944412230e+00  5.786597344714945e-16
 2.004162837694781e+01 -4.795505522772912e+00 -3.073926063117167e-16
 1.112547446323692e+01  3.308911864888596e+00 -2.319889562799087e-16
-2.979930631259921e+01  4.957972366481643e+00  4.793728367615663e-16
 2.600551567875836e+01 -1.684668210888559e+01 -2.897056332735323e-16
 2.911455742136553e+01  1.250747112066166e+01 -6.466380005815666e-16
 2.431462439245771e+01  6.169170732080484e+00 -4.960937327853471e-16
-2.095468109367190e+01 -1.045278530119792e+01  4.803121174694619e-16
 1.437057879555546e+01 -1.139781208813518e+00 -2.440307536490950e-16
-2.778195231080143e+00  2.210820824022819e+01 -1.777125103045107e-16
-1.691624909780815e+01  1.142789253870861e+01  1.836273867195894e-16
 3.243905855317626e+01 -2.606186195733539e+00 -5.505141252577328e-16
-9.672818879411947e+00 -1.564979157545975e+01  3.329352734262644e-16
-1.019506154395281e+01  2.043550253062557e+01 -2.853408358329010e-17
 2.128610455995448e+01 -2.337442448497731e+01 -1.386479013063921e-16
 2.299485338385183e+01  6.841350456608351e-01 -4.162500842851195e-16
-3.094159168265782e+01 -2.916684660928147e+00  5.806104077240708e-16
 2.023785161465429e+01 -4.968132416930356e+00 -3.091109542902160e-16
 1.261817572519450e+01  3.948679014220270e+00 -2.651267309860846e-16
-2.986502425810688e+01  4.884409503583745e+00  4.812981976545867e-16
 2.596840387353956e+01 -1.685141557551952e+01 -2.889965497589192e-16
 2.910337437502509e+01  1.250198051334456e+01 -6.463825709327428e-16
 2.448572633572419e+01  6.124760452812104e+00 -4.986823964756806e-16
-2.093698656596947e+01 -1.050599477476024e+01  4.805439302501186e-16
 1.414792402082113e+01 -1.211338994907489e+00 -2.393331160754022e-16
-2.863638348260116e+00  2.213148015153423e+01 -1.764310585391430e-16
-1.693285684191459e+01  1.141059469693936e+01  1.841006703752174e-16
 3.243656955589586e+01 -2.636945460371169e+00 -5.501537903097889e-16
-9.647516833061998e+00 -1.567433230560774e+01  3.327371404235153e-16
-1.031144091193894e+01  2.046372789083376e+01 -2.675297923021739e-17
 2.126641602771513e+01 -2.337289129040266e+01 -1.383132734100442e-16
 2.301779232135653e+01  6.785864016021432e-01 -4.166012997431439e-16
-3.102577151898839e+01 -3.006979229637015e+00  5.830362321450375e-16
 2.024157061005189e+01 -5.072071528143727e+00 -3.081092016046216e-16
 1.353710337536969e+01  4.365048597539942e+00 -2.857581908492046e-16
-2.988594431886419e+01  4.863898316050707e+00  4.818812401294200e-16
 2.594221141923829e+01 -1.689495041442157e+01 -2.880831191288652e-16
 2.908984290749569e+01  1.252625294811963e+01 -6.463911527806397e-16
 2.419955436499708e+01  6.157724170471417e+00 -4.939283151767437e-16
-2.099678539206976e+01 -1.045809297071139e+01  4.811159480626339e-16
 1.434217446636320e+01 -1.133186921346583e+00 -2.435930186581436e-16
-2.838678848860619e+00  2.215943765695760e+01 -1.771624958167249e-16
-1.695662042290703e+01  1.142071603446271e+01  1.844195785783404e-16
 3.243484941467680e+01 -2.657997095101883e+00 -5.499068804453028e-16
-9.635359814961662e+00 -1.563222445272393e+01  3.320881488907976e-16
-1.025200098192640e+01  2.043963868667009e+01 -2.756327586476099e-17
 2.127635390797300e+01 -2.337801934177244e+01 -1.384374409686004e-16
 2.301089078614437e+01  6.868273517535548e-01 -4.165631514634867e-16
-3.070791781064182e+01 -2.979842421599838e+00  5.771008255585467e-16
 1.983625920452107e+01 -4.628921682579821e+00 -3.054494053617855e-16
 9.536316089750628e+00  2.673606422212051e+00 -1.971804549539233e-16
-2.976430449729358e+01  5.044591921804617e+00  4.778599532365003e-16
 2.600263873656565e+01 -1.688490327989089e+01 -2.892617259818707e-16
 2.909739652465223e+01  1.256497589479213e+01 -6.469234426075191e-16
 2.406453559436899e+01  6.126793239574909e+00 -4.912076909830026e-16
-2.095778733014889e+01 -1.043230996043317e+01  4.801570199561406e-16
 1.438143366801998e+01 -1.126892575046190e+00 -2.443563550808223e-16
-2.815082566044149e+00  2.213231277698158e+01 -1.773037215315515e-16
-1.694349164320960e+01  1.142227088722729e+01  1.841699607379862e-16
 3.243811264214629e+01 -2.617870232541713e+00 -5.503772424048268e-16
-9.648087167661972e+00 -1.564577761153661e+01  3.324539011032767e-16
-1.027515717737400e+01  2.046013341040650e+01 -2.736175958727476e-17
 2.126615292591191e+01 -2.337094298778809e+01 -1.383286092971857e-16
 2.303130524523769e+01  6.799254376382303e-01 -4.168555364611163e-16
-2.977422528887636e+01 -3.039555797221367e+00  5.610981866187277e-16
 1.866276237544591e+01 -3.725435913315462e+00 -2.938486175798197e-16
-1.979269169811044e+00 -1.338317108237651e+00  4.897417794433842e-17
-2.950382118282382e+01  5.425489414570823e+00  4.693107585707336e-16
 2.612749981055570e+01 -1.688236885263363e+01 -2.915098180607669e-16
 2.899797522011067e+01  1.275837382473018e+01 -6.471412154126376e-16
 2.424999637246896e+01  5.863048446931904e+00 -4.917983048809302e-16
-2.077929253237460e+01 -1.061392084951927e+01  4.788464779788116e-16
 1.402548707838901e+01 -1.232489206600479e+00 -2.369368938966607e-16
-3.290833489810310e+00  2.312187523045082e+01 -1.790045610765073e-16
-1.596726289940578e+01  1.073801765510779e+01  1.738272591445930e-16
 3.242355376014947e+01 -2.791562065642838e+00 -5.483335292449695e-16
-1.126833381132281e+01 -1.722610070248143e+01  3.775253685026362e-16
-7.275454156632954e+00  1.136967387662608e+01  1.265611638811070e-17
-1.298085704779448e+01  1.337749238020425e+00  2.172649478322219e-16
-1.918840017250799e+01  1.511501862365806e+01  1.861791442992780e-16
 2.965565507413231e+01 -4.823881624416391e+00 -4.781941252839318e-16
-3.017916823492276e+01  1.313696039631722e+00  5.235765481785370e-16
 3.928018842998412e+00 -1.425141623241127e+01  7.652434381021876e-17
-3.888184133941209e+00 -1.768912241157068e+00  8.736980533539176e-17
-2.781157496827024e+01  1.270867461828811e+01  3.643631364180114e-16
 3.202094043648670e+01  5.796309933030170e+00 -6.294058099502237e-16
 2.869504473730332e+00  2.203458968764057e+00 -7.370599543919751e-17
 8.099521658885989e+00 -1.379630259756450e+01 -2.388651992139627e-18
 2.968007875714476e+01 -1.251116260441528e+01 -3.996447543490449e-16
-2.038111784493827e+01 -1.304923113845495e+01  4.967824130637969e-16
-2.343043401933034e+01  1.473724316119190e+01  2.655527023456840e-16
 1.317740616312509e+01 -9.888941674403315e+00 -1.329023779401115e-16
 2.851434522562480e+01 -1.399310946648529e+01 -3.636726699610786e-16
 2.894945050156862e+01  7.427257856837013e+00 -5.915023801937236e-16
-3.145911884574604e+01 -3.117030489638527e+00  5.918789016094018e-16
 2.903975107035363e+01 -6.049089145511721e+00 -4.546448166540109e-16
 2.082109049919524e+01  2.491833168917046e+01 -6.265629477160252e-16
-2.639728369257214e+01 -1.785833285139372e+01  6.532590337571646e-16
 6.809557808702801e+00 -7.649270785794658e+00 -4.259072538726856e-17
 2.814359874874106e+01  1.291234818159537e+01 -6.335185975135617e-16
 3.217229729779859e+01  4.879033829336670e+00 -6.226747071023183e-16
-3.611002483418417e+00 -8.425793359310545e+00  1.508340624847623e-16
 7.716415853860520e+00 -5.812205067603499e+00 -7.760452894249021e-17
 2.673672850779137e+01 -1.423630368392419e+01 -3.295391278080781e-16
 3.250269633488466e+01 -1.363603142491278e+00 -5.644137249344325e-16
-3.144182824430871e+01  6.494496733075421e+00  4.928162441321768e-16
 1.141602805867692e+01 -2.236404076730905e+01  2.662055782151445e-17
 1.341810773127147e+01  2.787359468151188e+00 -2.674303387434147e-16
 3.894257390076313e-01 -8.860336720787845e-01  2.173378559517883e-18
 3.993766957921268e+00  7.642824260854255e+00 -1.496010898160151e-16
 9.592990974936304e+00 -1.736768973708798e+00 -1.528740470434904e-16
 3.896830703144945e-01 -7.931883669226858e+00  7.456234820746125e-17
-2.110226381830043e+01  1.001298596654226e+01  2.726601629676194e-16
 2.909891361175454e+01 -9.386725395666831e+00 -4.214046846547920e-16
-8.135230524116479e-01  7.190858500588738e+00 -5.940584571138937e-17
-3.088059346181319e+01  7.379444182875468e+00  4.737358881029328e-16
 3.183806992580266e+01 -1.628477061740594e-01 -5.649232311158726e-16
-2.489437022650763e+01 -1.416426178103011e+01  5.885576576355176e-16
-2.747374550603839e+01 -1.152473615610087e+00  5.007693208887132e-16
-2.950584693215035e+01  4.063537748289076e+00  4.833403678106730e-16
-2.732611634165929e+01  1.761197595072025e+01  3.053441810675358e-16
 1.644384744475131e+01 -8.247280430117579e+00 -2.079000698808327e-16
 3.155022849472732e+01 -7.910499879459658e+00 -4.801964378876209e-16
 2.662761567331846e+01 -7.227772751951979e+00 -3.996074440771137e-16
 2.943556224642935e+01 -2.033727816327604e+00 -5.029451276678554e-16
 2.182797394255447e+01  2.123881317918362e+01 -6.066759236253796e-16
-3.109359029107690e+01  5.594180738987805e+00  4.958693541316368e-16
 1.784918995516230e+01  3.569320815057594e+00 -3.543211012761353e-16
-2.376141572652675e+01 -5.152898174833494e+00  4.758068933413485e-16
-2.890792949869301e+01  9.786717039657001e+00  4.138961257145883e-16
 1.690813099305678e+01 -1.143434770326626e+01 -1.834165908942409e-16
 2.427722706123263e+01  1.582360832208446e+01 -5.946240417237550e-16
 2.181465732582141e+01 -8.115987817641896e+00 -3.048290220564136e-16
 2.385472265731062e+00  1.801726949387660e+01 -2.275732233656639e-16
 2.050619177063389e+01 -7.140111582428601e+00 -2.915700905166343e-16
-2.000890720930212e+00 -2.911211855021167e+00  6.551988137651877e-17
 2.447275389762724e+00 -7.242584651503627e+00  3.086274149011610e-17
 1.583770521082981e+01  1.227760635463565e+01 -4.079988013137236e-16
 1.086897400887661e+01 -3.388657637357206e+00 -1.586091312500514e-16
 2.758410072742977e+01  1.687061003130243e+01 -6.642313654059935e-16
-2.922413645773892e+01 -1.010417743343916e+01  6.238951206497421e-16
-3.233934502898492e+01  2.983106814435033e-01  5.724521866739552e-16
-8.985020140114310e+00  1.199237798634839e+01  3.668182378858667e-17
-7.751568690646056e+00 -1.198140085248147e+01  2.610529525125575e-16
-2.697394039741653e+01 -4.112903848745097e-01  4.842593043467990e-16
-2.430154986926772e+01 -2.124716082769670e+01  6.507819268790238e-16
-9.272358814059571e+00  5.387415811052807e+00  1.096589451995847e-16
 2.937317869508204e+01  6.258331552516083e+00 -5.870328357050990e-16
 3.220488440266359e+01 -3.821821827543069e+00 -5.338565023957630e-16
 2.204329879207064e+01  1.878360678416304e+01 -5.852815323605734e-16
-1.625360277126816e+01 -2.541631624672612e+01  5.503956657173281e-16
-3.991341841382742e+00  1.016063664571681e+01 -3.336616133574535e-17
 2.740869749524144e+01 -9.478019642211867e+00 -3.903872574952274e-16
 1.159133090465045e+01 -2.649684628671666e+01  6.596390999023879e-17
-3.248632469815772e+01 -9.730443603156396e-01  5.881305764174048e-16
-3.079312349661167e+01  9.964949350993988e+00  4.456141293878055e-16
 1.513559410952332e+01 -1.264955133550325e+01 -1.393864068224907e-16
 6.449508266616237e+00  2.781222324877875e+01 -4.005371833400422e-16
 1.897264163728805e+01 -2.094569951466201e+01 -1.224313358632403e-16
 1.960351966873197e+01  5.894346163871619e+00 -4.094302820167747e-16
-2.571837779802834e+01  6.219824277166708e+00  3.937827759402833e-16
 2.880314257841142e+01 -1.307889041211813e+01 -3.782054320221287e-16
 2.931979323258792e+01 -7.433072940170879e-01 -5.141434820661712e-16
 1.993664552692837e+01  6.347409483319142e+00 -4.200137150507299e-16
 3.496522515812476e+00  6.208704128465343e-01 -6.860400692524579e-17
-2.399772177528087e+01 -2.197405896360062e+01  6.528435578188881e-16
 4.737441002993456e+00 -5.915500856692273e+00 -2.352879129720494e-17
-4.967862052961512e+00 -6.950253247699377e+00  1.598203583893547e-16
-1.344341143759955e+01  3.683441933223754e+00  2.013955146409816e-16
-6.599236518859294e-01  9.299373382278612e+00 -8.380355475086114e-17
-2.391233028259245e+01  1.550139062162248e+01  2.662772836212520e-16
 2.433931029573947e+01 -1.183576878712841e+01 -3.115388349887160e-16
 3.164890539029366e+01 -6.502623358927765e+00 -4.964179308058258e-16
 2.500021468904858e+01  2.035773422104701e+01 -6.540769654783181e-16
-2.851185944498788e+01 -8.383416169218791e+00  5.935391046845890e-16
-2.225381136086045e+01  2.374569022964040e+01  1.520547775019533e-16
 1.332636490219948e+01 -2.713240973247900e+01  4.161709384652062e-17
 3.187287934285313e+01 -6.573322521746571e+00 -4.996774062423622e-16
 2.656090459979488e+01  9.091227303901096e+00 -5.660920383186294e-16
 5.698104818833737e+00  1.563874899894643e+00 -1.174728186822796e-16
-3.066886611812999e+01 -8.422322801010200e+00  6.323253629105994e-16
-2.648737052952306e+01  1.283957444378099e+00  4.581821575382293e-16
 1.066372783769221e+01 -5.180691367984294e+00 -1.365440352198939e-16
 3.221982312696029e+01  1.315487844560915e+00 -5.869063454624829e-16
-1.776964335594458e+00 -1.402083751571648e+00  4.602910119963465e-17
-2.505260938740921e+01 -1.802368701222789e+00  4.643597515442885e-16
-3.197925259764978e+01  5.213396964014207e+00  5.155431862779947e-16
-1.410671259711053e+01  3.160241016731874e+00  2.185754493506839e-16
-3.136726719327287e+01  5.781450020582063e+00  4.988156372091838e-16
-6.682009413329840e+00  4.811397840654432e+00  6.947896309141262e-17
 2.317702584187499e+01  1.419899186032030e+01 -5.583523046908883e-16
-1.745004051260541e+01 -2.743558662303467e+01  5.924349720321944e-16
 1.273534176611299e+01 -2.677470099610325e+01  4.845972825220183e-17
 3.211110182885923e+01 -5.287374949381890e+00 -5.171295037065494e-16
 2.589648493311522e+01  8.951037952180860e+00 -5.528275031360741e-16
 2.158277284518614e+00  5.732549967542125e-01 -4.429910562619604e-17
-3.052678136790761e+01 -8.775492513430180e+00  6.334254858029269e-16
-2.691808273644209e+01  1.454198206609098e+00  4.640980330563390e-16
 1.019192672238968e+01 -5.067244535404392e+00 -1.293133965640493e-16
 3.222539638240180e+01  1.273891572381338e+00 -5.865781416026348e-16
-2.252521612916622e+00 -1.618975870111375e+00  5.672069794691137e-17
-2.518886033485762e+01 -1.820694172986862e+00  4.669727872425662e-16
-3.194922962176616e+01  5.410401006557726e+00  5.129847466314649e-16
-1.378607497110096e+01  3.065299407747767e+00  2.138448108615113e-16
-3.139472326340886e+01  5.696498022805907e+00  5.001771016313938e-16
-7.447823610227248e+00  9.934778615547293e+00  3.046666396803634e-17
 2.300046500751065e+01  1.426003981840784e+01 -5.558374396235279e-16
-1.748421359134474e+01 -2.741219223253613e+01  5.928027539067017e-16
 1.276951242802569e+01 -2.675009727778857e+01  4.759882628865963e-17
 3.211774941590163e+01 -5.246764541086820e+00 -5.176650626373083e-16
 2.589124052716543e+01  8.911870118400289e+00 -5.523317374091799e-16
 2.269552267673598e+00  6.012520187923996e-01 -4.656703589963140e-17
-3.051370346191983e+01 -8.800921607800349e+00  6.334540235675597e-16
-2.690994070422089e+01  1.451953565583399e+00  4.639761987347622e-16
 1.018908171201411e+01 -5.050175315621815e+00 -1.294381462330701e-16
 3.222846302913138e+01  1.268998097849747e+00 -5.865824375751436e-16
-2.084738026850693e+00 -1.540426524923205e+00  5.292772290709706e-17
-2.509605672913883e+01 -1.813196306624173e+00  4.652441985196697e-16
-3.193438769812557e+01  5.458046794708978e+00  5.122310737349168e-16
-1.070246053430892e+01  2.389331973465870e+00  1.659135335153338e-16
-3.126705410540153e+01  4.813160918948257e+00  5.069810445501230e-16
-5.323363889405839e+00  1.824687135963907e+01 -9.274436428870638e-17
 2.405628131376958e+01  1.192902842006624e+01 -5.506766548903667e-16
-1.882794535517508e+01 -2.650314254648586e+01  6.073759082104548e-16
 1.248186677220822e+01 -2.605992364738121e+01  4.562654055403657e-17
 3.214094320362203e+01 -5.102392198792594e+00 -5.195611971255791e-16
 2.601738262799877e+01  8.837704324172034e+00 -5.538145599883295e-16
 2.798141187038282e+00  7.309186847453191e-01 -5.730618411434894e-17
-3.048829277174075e+01 -8.756371120839697e+00  6.325440699414975e-16
-2.685239767740939e+01  1.379315079018592e+00  4.636984859958101e-16
 9.843554827902373e+00 -4.834373787960151e+00 -1.255063654752558e-16
 3.222999184983668e+01  1.252429540886838e+00 -5.864394088619001e-16
-2.352475365401092e+00 -1.672393111475649e+00  5.904833693399994e-17
-2.519391210032612e+01 -1.813605982602744e+00  4.669898608510519e-16
-3.195428487284256e+01  5.383239105514869e+00  5.133537895308240e-16
-1.424234226715190e+01  3.171279882891183e+00  2.208757207630332e-16
-3.137161611463185e+01  5.856207337662694e+00  4.981249271779497e-16
-7.236479243358072e+00  6.635990185344768e+00  6.059939154644197e-17
 2.295199441113892e+01  1.454135607598860e+01 -5.578652699002648e-16
-1.718965642582372e+01 -2.759781547174972e+01  5.894679691399757e-16
 1.267774102457439e+01 -2.693129562219440e+01  5.109375505743581e-17
 3.211518455504187e+01 -5.262585542574727e+00 -5.174568628330065e-16
 2.588443110145522e+01  8.951997039179778e+00 -5.526228450815380e-16
 2.395901752960640e+00  6.390589295765041e-01 -4.920402797853774e-17
-3.052237784860515e+01 -8.868897889789553e+00  6.343068262087667e-16
-2.695773928465540e+01  1.468895608071580e+00  4.646527581704612e-16
 1.007242937319776e+01 -5.009683381958541e+00 -1.277782186506212e-16
 3.222666250720933e+01  1.256184232960241e+00 -5.864187373326027e-16
-2.306657314819086e+00 -1.638273039672887e+00  5.788237870509343e-17
-2.523370698482245e+01 -1.828131222785661e+00  4.678472998590201e-16
-3.194899472708667e+01  5.430137399678664e+00  5.127777821485797e-16
-1.466994623396874e+01  3.256476542847820e+00  2.276100786810611e-16
-3.134413228202210e+01  5.997952925653969e+00  4.961794351651093e-16
-7.387038398427024e+00  6.451662196684334e+00  6.517267460296217e-17
 2.243149260991784e+01  1.526301517234212e+01 -5.560171045247135e-16
-1.722002469840410e+01 -2.759167596618270e+01  5.899453275501572e-16
 1.289269814156520e+01 -2.697242634267612e+01  4.769093994213974e-17
 3.213021556789717e+01 -5.169912245197228e+00 -5.186765421056640e-16
 2.582813746426951e+01  8.927647589889327e+00 -5.513708509256734e-16
 2.084663461252777e+00  5.555111607399884e-01 -4.280674836972819e-17
-3.051539849577048e+01 -8.847033221730175e+00  6.339579687994713e-16
-2.697402068426897e+01  1.473167468668055e+00  4.648986132704560e-16
 1.006659178206584e+01 -5.023254036974587e+00 -1.275348982104003e-16
 3.222606449678880e+01  1.270798472242612e+00 -5.865582510192853e-16
-2.407130856284554e+00 -1.691191589148832e+00  6.021414413403077e-17
-2.525055865791508e+01 -1.825922501356065e+00  4.681245016785426e-16
-3.194906030586476e+01  5.437446103742397e+00  5.127038549263829e-16
-1.479119090987313e+01  3.284035779422173e+00  2.294846111794792e-16
-3.133116349242244e+01  6.060562710068218e+00  4.953053472956957e-16
-6.855425107887884e+00  4.506190821139808e+00  7.570099354409380e-17
 2.243306249096881e+01  1.535576894189887e+01 -5.569980537255878e-16
-1.716874584282873e+01 -2.762425009871994e+01  5.893674465577207e-16
 1.282830860861962e+01 -2.704817094005447e+01  4.961507672396275e-17
 3.212097610233909e+01 -5.227101299400004e+00 -5.179245180278491e-16
 2.583798303857356e+01  8.938368588259012e+00 -5.516562189915584e-16
 2.152094421046290e+00  5.740527384206037e-01 -4.419727066673382e-17
-3.052908867881919e+01 -8.851415967762735e+00  6.342466330674880e-16
-2.696839108431650e+01  1.493378765074803e+00  4.645907640973900e-16
 1.022913674876464e+01 -5.098936265576671e+00 -1.296499723626688e-16
 3.222591392031111e+01  1.270724050452010e+00 -5.865548066701178e-16
-2.462635488033077e+00 -1.732265476406199e+00  6.162393452173004e-17
-2.526892840639568e+01 -1.819940380139577e+00  4.683899491359913e-16
-3.194377648516253e+01  5.470997244715284e+00  5.122650972115797e-16
-1.486652666916522e+01  3.299552275251707e+00  2.306658745035328e-16
-3.131417539296652e+01  6.112732002493567e+00  4.944670032781242e-16
-6.402168005764699e+00  3.358634043449508e+00  7.942547177538523e-17
 2.235023220847173e+01  1.558754927137629e+01 -5.579054487259173e-16
-1.697510727991036e+01 -2.774350635846458e+01  5.871467321561193e-16
 1.280554908427820e+01 -2.713880182923904e+01  5.095130907923260e-17
 3.212898965545114e+01 -5.177657939747863e+00 -5.185751413335677e-16
 2.582871509996838e+01  8.961325104248994e+00 -5.517271548651382e-16
 2.327910905096963e+00  6.239218365784014e-01 -4.783852161828883e-17
-3.051956905222347e+01 -8.929398579146195e+00  6.348784629666460e-16
-2.698444495610659e+01  1.500087373564302e+00  4.648075333824477e-16
 1.013809227666970e+01 -5.043715840345278e+00 -1.285970971547959e-16
 3.222841093191490e+01  1.252912185066369e+00 -5.864162335278998e-16
-2.356633238401886e+00 -1.668944843284060e+00  5.908690156638312e-17
-2.523515400470472e+01 -1.822009558959153e+00  4.678101534277639e-16
-3.194788876147263e+01  5.436953252191111e+00  5.126880697607685e-16
-1.455697130881178e+01  3.232095572996188e+00  2.258500607414400e-16
-3.134972684941384e+01  5.993488442426959e+00  4.963248681103113e-16
-6.967390358745377e+00  5.057903492373304e+00  7.202490142966893e-17
 2.265936608084881e+01  1.503094973203121e+01 -5.576879966616518e-16
-1.713955882795660e+01 -2.763685460886433e+01  5.889775355754145e-16
 1.274932852733198e+01 -2.702217856743244e+01  5.075355929118751e-17
 3.212076321085898e+01 -5.228430367459445e+00 -5.179070736842632e-16
 2.585283802382995e+01  8.941190944361065e+00 -5.519495798859567e-16
 2.371927882867272e+00  6.333787063974455e-01 -4.871902211837928e-17
-3.052060639902158e+01 -8.894826821750403e+00  6.345417115253264e-16
-2.696793530814470e+01  1.481523490697855e+00  4.647044616559984e-16
 1.005990283864854e+01 -4.999873270868892e+00 -1.276560893596928e-16
 3.222835016884236e+01  1.259024377124266e+00 -5.864779527393934e-16
-2.399462104924277e+00 -1.684297423745587e+00  6.000683450053478e-17
-2.525552761898019e+01 -1.832123734435329e+00  4.682766456855235e-16
-3.194756775136575e+01  5.454714364396494e+00  5.124998680283404e-16
-1.516558337268196e+01  3.362293759458268e+00  2.353432993202011e-16
-3.128621863938915e+01  6.217594235973204e+00  4.928920581402286e-16
-5.572922065707957e+00  1.959152373486018e+00  7.904721678979715e-17
 2.220170475643476e+01  1.586256068526861e+01 -5.580878679176720e-16
-1.702996103345335e+01 -2.771458846714302e+01  5.878257992612341e-16
 1.283705714750559e+01 -2.718529288859333e+01  5.086826424879281e-17
 3.213163699024303e+01 -5.161230067547324e+00 -5.187910442302764e-16
 2.582275059775934e+01  8.954934025488768e+00 -5.515553434326873e-16
 2.517803991782408e+00  6.754076988375145e-01 -5.174689413644699e-17
-3.050699046857980e+01 -8.968941668403200e+00  6.350609029264880e-16
-2.697123365611743e+01  1.506826458297242e+00  4.645031808930605e-16
 1.024955517628209e+01 -5.084705679253503e+00 -1.301595567158519e-16
 3.223151446774497e+01  1.245512382956725e+00 -5.863954343584513e-16
-2.004362290517661e+00 -1.484582637344653e+00  5.092356510528401e-17
-2.520615240387921e+01 -1.838274532876873e+00  4.674611520414228e-16
-3.178510575650913e+01  5.677686454462369e+00  5.073177058324912e-16
-1.978508767880548e+01  3.228402133231377e+00  3.189285766191982e-16
-3.103803407698585e+01  8.032214130256660e+00  4.698307575929111e-16
-3.823547420893969e+00  3.272022546812089e-01  6.468270294952036e-17
 2.200913660335713e+01  1.602353082550407e+01 -5.563147976418831e-16
-1.720246727930958e+01 -2.761443666720924e+01  5.898667303247730e-16
 1.314485381908675e+01 -2.710309935154546e+01  4.454614659510823e-17
 3.223486000832645e+01 -4.471029276848792e+00 -5.277195833646229e-16
 2.580595080869455e+01  8.825628575439143e+00 -5.499278046062915e-16
 3.960347555538953e+00  1.049176564149939e+00 -8.125901688514029e-17
-3.036419598270670e+01 -9.123487820226444e+00  6.341076103275534e-16
-2.669512593760945e+01  1.472456916077415e+00  4.599426492332341e-16
 1.208562764983783e+01 -5.809489960019679e+00 -1.553877613738673e-16
 3.225448481513646e+01  1.185350736043806e+00 -5.861860800363121e-16
 8.904391653546471e+00  4.782288834362661e+00 -2.076005515253472e-16
-2.336505054843299e+01 -2.855277176305609e+00  4.451458810948352e-16
-2.415991785105827e+01  4.474726912264699e+00  3.839783636697531e-16
 2.599356485275497e+01  1.842576236085167e+00 -4.815182942449170e-16
 2.833412233161678e+01  2.203797036822360e+00 -5.268827190324860e-16
 9.716082919057154e+00  2.675584527177999e+01 -4.478158758379666e-16
-1.674214724833958e+00  5.665214691974732e+00 -2.841337487083097e-17
-1.813261391297407e+01 -1.206202982263285e+00  3.350847914185314e-16
-1.722716292362659e+01  2.362424057702743e+01  6.384742359596460e-17
 3.252903145087248e+01 -3.721912401808195e-01 -5.750687868964792e-16
-7.302531540392021e+00 -7.960905139185651e-01  1.381368003684780e-16
-3.114032191062930e+01  7.327647379510720e+00  4.788902590163105e-16
-1.756238403799809e+01  2.001910339931620e+00  2.919746716246295e-16
-3.092731563075327e+01  8.657905612022619e+00  4.614316380966256e-16
-8.006960230947872e+00  1.379601190034610e+01  7.443977713144757e-19
 2.179978986903384e+01  1.555563759808742e+01 -5.477817898438019e-16
-1.830218194611547e+01 -2.690643209769874e+01  6.021629748295184e-16
 1.329618522781937e+01 -2.564952459084445e+01  2.691807103831983e-17
 3.231343405662516e+01 -3.864120910519674e+00 -5.353536652697852e-16
 2.480639922656837e+01  7.931960437289429e+00 -5.229574764115868e-16
 6.959385378472063e+00  2.033975223183657e+00 -1.447489208025690e-16
-2.971142336101465e+01 -1.058740348574381e+01  6.375319444895010e-16
-2.714636580790324e+01 -3.130813899030136e+00  5.152699363874967e-16
-2.719799421831919e+01  1.784026181118210e+01  3.007185407957676e-16
 2.497583801737928e+01 -1.345266755504397e+01 -3.062535576213138e-16
 3.248246526921039e+01 -1.894136175155435e+00 -5.586026548383579e-16
 2.859892821566044e+01  1.197826651587430e+01 -6.320243787197395e-16
 8.378751901468043e+00  5.402004630711899e+00 -2.046135198078466e-16
-1.042301482032546e+01 -5.140971089716723e+00  2.383115921131297e-16
-2.416306000907588e+01 -1.808108843577693e+01  6.157870909337220e-16
-1.741132555958623e+01  2.731743766886424e+01  2.917855891369875e-17
 2.790492281532962e+01 -1.624773910677590e+01 -3.296617707130808e-16
 3.098396037727045e+01  2.663859244228847e+00 -5.787667199917228e-16
 2.365682795169402e+00 -6.390311032979780e-01 -3.553433465955599e-17
 2.771656835442424e+01 -2.378121337123194e+00 -4.688150625511432e-16
 1.496583989375167e+01  2.338600919534622e+01 -5.066177218550987e-16
 2.405384055821375e+01 -1.723018935536411e+01 -2.510328488076405e-16
-9.174561880144566e+00 -1.000731471488203e+01  2.660937957940788e-16
-2.935819590941269e+01  1.404117582920060e+01  3.781961350443906e-16
-5.734637394221334e+00  2.227797292055768e+01 -1.268433658586250e-16
-1.115791473634904e+01 -4.519391200378847e+00  2.450035051878814e-16
-3.133666514826252e+01 -1.629497529991797e+00  5.744158312113388e-16
-1.123242734097666e+01 -3.848918325636725e+00  2.394406806442181e-16
-3.240104197728482e+01 -2.997491652067457e+00  6.074133291762779e-16
-8.704571757466544e+00  7.329476967291065e-02  1.541551604661062e-16
-2.825995236222190e+01 -1.020155111168777e+01  6.077367937238388e-16
-2.927417411091819e+01  1.043628160766520e+01  4.137398454869839e-16
-1.672277482511230e+01  2.170334032974954e+01  7.460778797084271e-17
 2.077699444976950e+01 -5.636942214022115e+00 -3.118338664323917e-16
 2.754501104250839e+01 -1.402240173524756e+01 -3.461212444764278e-16
 2.941393989433882e+01  1.385222457686443e+01 -6.657827220428501e-16
 1.640795715683613e+01  1.546503562674704e+01 -4.508967927859159e-16
 1.454726302888140e+01 -1.181012796882577e+01 -1.375411236211405e-16
 2.563135784489696e+01 -1.879572117448586e+01 -2.630213799189078e-16
 6.089083393671038e+00  2.786720689695647e+01 -3.946879298415181e-16
-1.997938687929596e+01 -3.842997153631376e+00  3.950424214840710e-16
 1.703925691362121e+01  8.739951490860129e+00 -3.930337285391660e-16
-9.302713056215069e+00 -3.023473405882222e+01  4.762037845473660e-16
 3.046156559057985e+01 -7.334624072631647e+00 -4.667392976634505e-16
 2.574176805647128e+01 -1.991108493374062e+01 -2.535263039120151e-16
-1.441410715610196e+01 -1.037122361312934e+01  3.630767856648514e-16
-2.222049986427805e+01  8.638942357768751e-01  3.865641012111281e-16
 3.114208252904881e+01  9.447559589047478e+00 -6.512807489717287e-16
-1.793847941194928e+01 -2.715325566791047e+01  5.982264769136029e-16
-2.792275577803187e+01  8.661385356737380e+00  4.079261584325073e-16
-2.802672225100963e+01  6.792241941108633e+00  4.289811353922121e-16
-3.062136055599430e+01  1.062014153366629e+01  4.358255413096635e-16
 5.442647935551033e+00 -1.078824295675469e+01  1.398686507558521e-17
-7.422189109007048e+00 -1.310656649952480e+01  2.667519182341854e-16
-2.906800167141755e+01 -1.458717368523527e+01  6.671776738327066e-16
-2.988854138458834e+01  1.285938417443572e+01  3.997767453315298e-16
-2.528718933943162e+01  1.108696114741482e+01  3.361011997331419e-16
 1.577813757954084e+01 -2.845390896836312e+01  1.156279908572463e-17
 7.973734428581680e+00  4.439120188674506e+00 -1.875124629041797e-16
-2.208660300084760e+01  1.513464461777873e+01  2.375544707862253e-16
 2.940376333139528e+01  1.371583717868592e+01 -6.642002870091678e-16
-1.339349405164784e+01 -1.170985577429498e+01  3.586677172117941e-16
-3.205912660378805e+01 -5.564917232484023e+00  6.277079024440923e-16
-2.565680943442160e+01 -6.585306249438453e-01  4.633596913813616e-16
-3.174435404121197e+01  5.221550362900691e+00  5.112791130639999e-16
 3.099150659614931e+00  2.688499111922036e+01 -3.313865999721774e-16
 7.581941251234282e+00  6.939601529395486e+00 -2.062315733860470e-16
 8.604260632027362e+00  8.969711242106412e-01 -1.623391339377988e-16
-2.198197949956845e+01 -1.273948177375702e+01  5.220890935988618e-16
-2.527261817937048e+01  1.459737095424855e+01  2.997737030251629e-16
 4.452038480051670e-02  2.901279877910273e+00 -3.060189014543490e-17
-8.343253789073179e+00  1.290099150509521e+01  1.592515221119499e-17
 2.552437223099811e+01 -1.618490540339711e+01 -2.879426269180386e-16
 2.800076067916677e+01  1.583575391506037e+01 -6.610135556027231e-16
-1.283727428253964e+01 -1.173339115486895e+01  3.490109404233109e-16
-3.972633641212387e+00  2.872017977360797e+01 -2.243916595556545e-16
 2.655830028029687e+01 -1.841459286383413e+01 -2.834333811952490e-16
 2.494129292443116e+01 -1.819448215763464e+01 -2.569183640052842e-16
 3.088193491521942e+01  1.024484928312852e+01 -6.548429738418326e-16
 2.542335073951127e+01  2.024484005618529e+01 -6.604472296879408e-16
-1.731413151477540e+01 -2.627921469959653e+01  5.781350078942170e-16
 1.827366374170689e+01 -2.040645330956313e+01 -1.155327492247344e-16
 3.183627944651775e+01  3.938359710142841e+00 -6.070297837598379e-16
 3.201456818190756e+01  4.922856399946286e+00 -6.203179903356174e-16
-1.821630709021770e+00 -9.600480554864999e+00  1.310595415344670e-16
 5.074614508166081e+00 -1.515849187473690e+01  6.543917898324280e-17
 5.526923372794404e+00  1.284925063769751e+01 -2.303795767031316e-16
-1.695582716678841e+01 -2.232051330225422e+01  5.310843358499418e-16
-7.730043340125158e+00  1.571440990909379e+01 -2.389451125439335e-17
 3.208936914287671e+01 -5.012336527821902e+00 -5.195686644967889e-16
 2.684477161478618e+01  1.467684928679677e+01 -6.285340272295944e-16
-2.211606505130283e+01 -2.096254064219646e+00  4.151200075873970e-16
 6.308021995279738e+00  2.449503293950935e+01 -3.639363409985170e-16
 1.202791419525834e+01  6.948300645946063e+00 -2.854423455416397e-16
-2.101277948868826e+01  4.159293685792138e+00  3.312122442873620e-16
 1.561457168163054e+01  7.408051710821271e-01 -2.854914328373652e-16
 2.464929306799135e+01 -2.204548932368882e+00 -4.160126334555750e-16
 1.160541927108968e+01  7.178202674110052e+00 -2.802857041895761e-16
 1.470828806023703e+01 -5.348342386535433e+00 -2.067992555816212e-16
-3.227890479825155e+00 -4.177027413035421e+00  1.003616007537380e-16
-1.286814189591515e+01 -1.371712304544339e+00  2.430977803354168e-16
-3.202718067041415e-01  1.160239740094661e+01 -1.135107996389904e-16
-2.017961587099084e+01  1.644224105874870e+01  1.901822816621281e-16
 2.419140266506271e+01 -1.543415680276386e+01 -2.719345126099012e-16
 7.974833287490733e+00  1.489735291107155e+01 -2.949865604564767e-16
 2.365165423901615e+01 -1.884589553381684e+01 -2.272746694758645e-16
-2.709107048182155e+01  1.112252508262493e+01  3.678380098877487e-16
 2.629192236145802e+01 -4.577369045858230e-01 -4.631930401504870e-16
 7.458976284372185e+00  3.936102915721240e+00 -1.731834079374836e-16
-1.989892735273445e+01  1.334522074529423e+01  2.170078533041129e-16
-1.628263110154681e+01 -2.889389093698767e+00  3.194562664770401e-16
-7.779531744920831e+00  3.060075650796994e+01 -1.759656095973621e-16
-4.738411096865127e-01  1.655141666274337e+00 -8.573411586110690e-18
-1.948609073319624e+01 -1.668284494715919e+01  5.181883998762203e-16
-2.370213723537939e+00  8.151363968707512e+00 -4.157152312450864e-17
 2.514682293339539e+00  2.943503366174543e+00 -7.499519883041675e-17
 1.642553623053584e+01 -1.702919553528865e+01 -1.173432123880501e-16
 2.357965766686049e+01  1.899140687837495e+01 -6.147579416572556e-16
 1.827718260427800e+00  3.249228008498279e+01 -3.663728009341032e-16
-2.078590916177422e+01 -2.500432812875257e+01  6.268204360291402e-16
 4.083275338809861e+00 -1.770986430212981e+00 -5.447051314770373e-17
 1.602452224235460e+01  7.774387339333385e+00 -3.650544937482143e-16
-5.766748719223847e+00  1.378156810725966e+01 -3.897443356645227e-17
 1.390295690636403e+01  1.965993364568396e+00 -2.676195698299531e-16
 2.442530878080014e+00 -5.871107106387749e+00  1.685574219243355e-17
-2.932566978368923e+00 -2.443735732607193e+01  3.032734966090641e-16
-3.077855252912151e+01 -4.076974722545287e+00  5.896304904680772e-16
-1.994419279113787e+01  1.942624908318797e+01  1.553330487004143e-16
 2.758602587581450e+01  6.669609299388189e+00 -5.594540489355417e-16
-3.624772713832221e+00  6.397289332164078e+00 -1.222669467535516e-18
 1.766772373210187e+01  1.227953794935374e+00 -3.270349978445713e-16
 1.944211665618784e+01 -9.753651226200535e+00 -2.457804341882847e-16
-1.889954926663395e+00 -1.665350105224446e+01  2.047426759107166e-16
-1.916534063860155e+01  2.606104412133253e-01  3.383924203002447e-16
-1.312680638387439e+01 -2.973335259301642e+01  5.391065744294554e-16
 1.465958251733347e+01 -8.512851934761319e+00 -1.734182963137456e-16
 1.760622525691551e+01  8.357897548504992e+00 -3.991981410428712e-16
 1.489276036466428e+01 -5.071518478666975e+00 -2.129264253991887e-16
 2.489292218046447e+00  2.588012337856481e+01 -3.102087905609133e-16
-1.450297112516196e+01  1.600327259567061e+01  9.366985854960579e-17
 2.194022017448829e+01 -2.316473561805558e+01 -1.524431458583358e-16
-1.266578347036042e+01 -1.088346602313961e+01  3.372263848811060e-16
-1.332717092002454e+01 -2.244844202950701e+01  4.678224907230571e-16
-1.269002241356192e+01  2.310585699879780e+01 -1.157020090158927e-17
 1.679412099878131e+01 -2.753484582483632e+01 -1.596087768596159e-17
 1.783338754884769e+01  2.486102467442848e+01 -5.728044010977269e-16
-1.249493143009458e+01 -8.035466680942932e+00  3.049237103807300e-16
-2.567314101407883e+01 -1.999582829571013e+01  6.623340402115561e-16
 1.455017834972246e+01 -2.207531340932434e+01 -3.212195389861488e-17
-2.400960946220140e+01 -1.264583174450611e+01  5.572109673858598e-16
-1.446362346210202e+01  2.032683024324696e+01  4.854663574644927e-17
 3.187061676039004e+01  2.754789252387683e+00 -5.954801007343292e-16
 4.565738370299900e+00 -5.014496702152659e-01 -7.610054731299815e-17
-2.899133921261273e+01 -1.180104532587173e+00  5.280606088091252e-16
-8.800033294434764e-02 -4.381666464944830e-01  6.068074010013745e-18
 1.223455041185918e+00 -8.891589048490346e+00  6.958500558317935e-17
-2.579688470593355e+01  1.255581174429920e+01  3.300799304750471e-16
-1.266957157259829e+01 -4.512126794067544e+00  2.718306026320448e-16
 3.791315130463139e+00  1.491861720788777e+01 -2.207543474944664e-16
 1.877764319042013e+01  9.740342174860418e+00 -4.342490368156715e-16
-2.199421182845087e+01 -1.520850600526480e+01  5.476751095079428e-16
-1.661470092428186e+01  2.256366540835744e+00  2.724950751280386e-16
-5.255992500410289e-01 -6.644057246917530e+00  7.761894023431686e-17
 6.685488374546358e-03 -5.015871044709254e-01  5.034649052422456e-18
 2.720669868449287e+01 -5.006694079945962e+00 -4.327336935343343e-16
 9.608690046734907e+00  2.934204605402580e+01 -4.724769651198027e-16
-3.221088253168463e+01  4.632013767797103e+00  5.256388184010756e-16
-2.814932461615827e+01  9.059796737769320e+00  4.078646889600508e-16
-5.078012586928593e+00  3.157013437886569e+01 -2.340023709379610e-16
-1.654273373631608e+01 -1.898051042394097e+01  4.894155292532151e-16
-2.714764230708678e+01 -2.840376384792930e+00  5.123085132683752e-16
-2.350681246550478e+01 -5.284689132468392e+00  4.726300288299096e-16
-3.245609382462465e+01 -7.919280122449918e-01  5.857316772728110e-16
-6.966335413573173e-01 -1.702543369771250e+01  1.873275713643742e-16
-2.052259445937529e+01 -3.833728891466768e+00  4.046142202575108e-16
-2.583051276228207e+01  1.954983972483416e+01  2.588172850953162e-16
 2.500744423751431e+01 -2.026834707472322e+01 -2.367873968827050e-16
 2.212821492239916e+01  1.922859168877059e+01 -5.913647744392379e-16
-2.648141462905008e+01 -1.891625240818747e+01  6.656259832581974e-16
-2.677737286764486e+01  3.163810993423596e+00  4.440282827583969e-16
 1.655449598254271e+01 -2.498793595355942e+01 -3.786503840806569e-17
 2.508079237957866e+01  6.528601782123622e+00 -5.134216294973441e-16
-3.071266772693256e+01 -5.960227026529549e+00  6.078077251130591e-16
-3.508118118266233e-01  2.769428794082150e+01 -2.783056333946965e-16
-1.639028149955178e+01 -1.540259237168112e+01  4.499406516199138e-16
-2.722219042322984e+01 -1.777539553721835e+01  6.670870822349987e-16
-3.079720087867353e+01 -7.283103215096136e+00  6.229041656598188e-16
-2.967637165741694e+01  6.007425462476374e+00  4.664023186004058e-16
 1.578541164916658e+01 -2.332808642556353e+01 -4.123261620186222e-17
 3.155681637480847e+01  4.079681768377069e+00 -6.035084378610113e-16
 8.102615545267652e-01 -2.557812314298548e-01 -1.179151165760193e-17
-2.653460652097149e+01 -1.744573952634778e+00  4.901398382752954e-16
-3.212325650766324e+01  4.321336734792775e+00  5.272715024298025e-16
-1.458558494969423e+01  3.412827402902773e+00  2.245023207130931e-16
-3.120444454847543e+01  5.269904574398795e+00  5.011739576533406e-16
-2.610073928848504e+00 -1.615383552323822e+00  6.304685814901627e-17
 2.419008483731084e+01  1.211306140083860e+01 -5.549487202216065e-16
-1.884203054374556e+01 -2.649023254058508e+01  6.074939253372896e-16
 1.223506261730815e+01 -2.618878477074435e+01  5.134271608756161e-17
 3.195810378659010e+01 -6.145003620374358e+00 -5.055948980055064e-16
 2.609414509663551e+01  8.980776426230369e+00 -5.566506535361939e-16
 1.745405355240342e+00  4.543713372620523e-01 -3.573007071330914e-17
-3.063548860107847e+01 -8.503596939578150e+00  6.325664324455215e-16
-2.696833134560844e+01  1.454219014414176e+00  4.649920531921122e-16
 1.046789797476725e+01 -5.344152526848895e+00 -1.313795051861190e-16
 3.208647294209682e+01  1.550744703700015e+00 -5.869503986409315e-16
-1.444164463279545e+01 -8.624518612039680e+00  3.456200885517025e-16
-2.161072197991623e+01  1.116028777176840e+00  3.731217855755470e-16
 2.717376283476199e+01 -7.571476068411470e+00 -4.057953576227964e-16
-7.031393904254050e+00 -3.599003494616077e+00  1.621104954127786e-16
-2.573483548934013e+01  1.370187919347060e+00  4.439039120346377e-16
 7.877821884902443e+00 -3.442023510617606e+00 -1.048296962654926e-16
 3.219303481049950e+01  1.081799609875116e+00 -5.840285536929416e-16
-5.913239688238475e-01 -7.383064281611078e-01  1.810914574745414e-17
-2.497392013771785e+01 -1.760661749972730e+00  4.625308587037971e-16
-3.200922173471002e+01  4.996484439935649e+00  5.183052202064169e-16
-1.288091983460656e+01  2.937107407694686e+00  1.990536217245751e-16
-3.123162139999067e+01  5.386072877080502e+00  5.004640150235648e-16
-2.194935013226128e+00 -2.543318752018311e-03  3.908761839916462e-17
 2.415381115715322e+01  1.219065411597452e+01 -5.551004237748556e-16
-1.908458748772833e+01 -2.632997775082229e+01  6.101639557248777e-16
 1.239206927517300e+01 -2.619093903723668e+01  4.857072965152284e-17
 3.201663579724073e+01 -5.832241091593290e+00 -5.098500663081252e-16
 2.608169123236774e+01  8.902771786784598e+00 -5.556275528406969e-16
 2.429676185024334e+00  6.359345469395767e-01 -4.977298237727294e-17
-3.054910782036040e+01 -8.607820058315585e+00  6.321000381014138e-16
-2.683734957438267e+01  1.400351409202908e+00  4.632145464063916e-16
 1.017622264852015e+01 -5.050123238611123e+00 -1.292098389707631e-16
 3.222532754595326e+01  1.279169965195909e+00 -5.866311501447103e-16
-2.300775514367551e+00 -1.681402128829191e+00  5.822084081433154e-17
-2.509461719073922e+01 -1.758806289462626e+00  4.646597425601455e-16
-3.197350498425658e+01  5.201364475289425e+00  5.155645301066231e-16
-1.279197341015202e+01  2.878879107836947e+00  1.980689886372014e-16
-3.128628810332228e+01  5.410176052869529e+00  5.011892228531754e-16
-6.373022618041404e+00  4.905365475762833e+00  6.301469122032178e-17
 2.397022079996529e+01  1.234527522471716e+01 -5.534218900934846e-16
-1.912256486837942e+01 -2.630535916535575e+01  6.105868614921068e-16
 1.251402117163538e+01 -2.612870582878919e+01  4.576102657004992e-17
 3.203520423485632e+01 -5.729265109440274e+00 -5.112385546136511e-16
 2.605197815706554e+01  8.869536877123169e+00 -5.547572966070994e-16
 2.385291940745374e+00  6.231175959071275e-01 -4.885142231374635e-17
-3.053010579373530e+01 -8.623430222548143e+00  6.319222631137368e-16
-2.685335587853288e+01  1.398959952426612e+00  4.635136943924361e-16
 1.012432249240665e+01 -5.030273621171303e+00 -1.284901614047900e-16
 3.222530466610826e+01  1.266444874644173e+00 -5.864999972894058e-16
-2.175440151283617e+00 -1.611013844357048e+00  5.526713443569684e-17
-2.506614448345397e+01 -1.761597386359225e+00  4.641817142694189e-16
-3.197396567364967e+01  5.179872642029392e+00  5.157935493923806e-16
-1.208080207845915e+01  2.725519919690801e+00  1.869885563909003e-16
-3.119037379880966e+01  5.198280062088214e+00  5.016594677145509e-16
-6.675292812692739e+00  7.072412949514941e+00  4.612832431380613e-17
 2.420481242720465e+01  1.167775243258376e+01 -5.507381737216779e-16
-1.958214785730319e+01 -2.596798925816888e+01  6.152993357688248e-16
 1.239519426144165e+01 -2.595100316562642e+01  4.604986286178985e-17
 3.205367844708051e+01 -5.624899442451201e+00 -5.126396445868241e-16
 2.608127034544724e+01  8.855306238323024e+00 -5.551323713816055e-16
 2.527133856406864e+00  6.589764660103581e-01 -5.174410525006802e-17
-3.052989511373960e+01 -8.613939999808180e+00  6.318210052103246e-16
-2.681855455819773e+01  1.388221445929885e+00  4.630046976400607e-16
 1.010328045818539e+01 -4.997175565960918e+00 -1.284557637947210e-16
 3.222748753372390e+01  1.281247636000377e+00 -5.866909370179785e-16
-2.261933803600566e+00 -1.657738283482845e+00  5.728646882080468e-17
-2.508547269357148e+01 -1.758346331802864e+00  4.644922794210133e-16
-3.182544824515862e+01  5.353682119423436e+00  5.113646753509503e-16
-1.872839663995894e+01  3.155055783795750e+00  3.008771062073583e-16
-3.117280027529976e+01  7.498354057317374e+00  4.777143011586536e-16
-5.285512820176448e+00  2.005840665897882e+00  7.345272125450983e-17
 2.362318030926325e+01  1.291273199650173e+01 -5.530763027906769e-16
-1.870325320841964e+01 -2.660572169866115e+01  6.062108262162882e-16
 1.261838811209924e+01 -2.633580367342957e+01  4.603154749819560e-17
 3.204156012915862e+01 -5.693660046109422e+00 -5.117174944189130e-16
 2.602382512320655e+01  8.886221814923072e+00 -5.544277114450977e-16
 2.332261482640640e+00  6.112857196393940e-01 -4.778611381244064e-17
-3.053033518877976e+01 -8.649645932453446e+00  6.321957023710321e-16
-2.687471879442773e+01  1.410755572299459e+00  4.637726772516707e-16
 1.011930584794895e+01 -5.039785094398370e+00 -1.283031572784732e-16
 3.222478653485838e+01  1.264829388111056e+00 -5.864741779935617e-16
-2.198538342188612e+00 -1.618268526523429e+00  5.575273354999987e-17
-2.509360557948670e+01 -1.761842851025742e+00  4.646729392879674e-16
-3.197599686464523e+01  5.177714891744525e+00  5.158518669556740e-16
-1.276483018873527e+01  2.871710899707282e+00  1.976595933627391e-16
-3.127948409398092e+01  5.389396781703165e+00  5.012816368502357e-16
-6.515702275537372e+00  5.529459537427925e+00  5.914150615185870e-17
 2.396734833882924e+01  1.225152709118656e+01 -5.524075432082616e-16
-1.927811670330169e+01 -2.619488049075689e+01  6.122199636256156e-16
 1.257095585834919e+01 -2.604760523257240e+01  4.391452670888243e-17
 3.204134099910299e+01 -5.694749266866723e+00 -5.117024033965086e-16
 2.606513308183144e+01  8.851127426961229e+00 -5.548022537550451e-16
 2.279409343863493e+00  5.932786665151503e-01 -4.666053103309839e-17
-3.053391963862554e+01 -8.575033638120473e+00  6.314928777136565e-16
-2.684034404412172e+01  1.392168594040044e+00  4.633519120147072e-16
 1.015194203066912e+01 -5.049387156082974e+00 -1.287852994044379e-16
 3.222429029093733e+01  1.284131929648869e+00 -5.866636733407648e-16
-2.305881612120212e+00 -1.681969945710542e+00  5.831754402336151e-17
-2.510163543258412e+01 -1.755734184292851e+00  4.647530757631422e-16
-3.197668489406868e+01  5.185165700422852e+00  5.157875568952501e-16
-1.307044235184968e+01  2.939798925940521e+00  2.023987466077575e-16
-3.130090945444318e+01  5.495064236555727e+00  5.005772320004849e-16
-6.005620757271901e+00  3.713416083314375e+00  6.872318385510362e-17
 2.391172846439446e+01  1.255931943993268e+01 -5.545801757700843e-16
-1.886953896648515e+01 -2.648694287750006e+01  6.079496704365703e-16
 1.253694522082132e+01 -2.624396816606048e+01  4.653734440867396e-17
 3.205520982904781e+01 -5.616263187289376e+00 -5.127556317201636e-16
 2.602223593193883e+01  8.879263217865065e+00 -5.543279328425806e-16
 2.442381356190683e+00  6.400083308273873e-01 -5.004094274480303e-17
-3.052670933600053e+01 -8.661552679846887e+00  6.322535134938292e-16
-2.684575751569993e+01  1.411437639647539e+00  4.632502687515485e-16
 1.018583847209483e+01 -5.046440433449267e+00 -1.294188034943672e-16
 3.222754104625566e+01  1.261922598498118e+00 -5.864933315979498e-16
-2.105248206403120e+00 -1.571030119088192e+00  5.360716683038202e-17
-2.506554914639441e+01 -1.766882649787400e+00  4.642254236891754e-16
-3.197246617068998e+01  5.201340375042942e+00  5.155462907953751e-16
-1.280524595341864e+01  2.872925491022510e+00  1.983663605954000e-16
-3.129718821303650e+01  5.423824938701523e+00  5.012429659375841e-16
-6.672308522173981e+00  6.260228919854498e+00  5.442011127963294e-17
 2.395061435282925e+01  1.244146020965811e+01 -5.540612357697747e-16
-1.895742692790600e+01 -2.642462980914935e+01  6.088734974047881e-16
 1.257905414204227e+01 -2.619130703716442e+01  4.524689196823341e-17
 3.207869514977276e+01 -5.480420840628811e+00 -5.145693117861838e-16
 2.603977590627557e+01  8.872824665581676e+00 -5.545739238138482e-16
 2.400925060045879e+00  6.270041437229399e-01 -4.916956515016262e-17
-3.053033036824559e+01 -8.592271704549388e+00  6.316061172592841e-16
-2.675101693880633e+01  1.436187602978841e+00  4.613099503045902e-16
 1.058584066577672e+01 -5.184693566267445e+00 -1.351168188996348e-16
 3.224362409494679e+01  1.179878349724548e+00 -5.859365737775378e-16
-1.364948365476909e+00 -1.303614978989337e+00  3.768505467282197e-17
-2.453540959593611e+01 -1.462310764747235e+00  4.516615925517633e-16
-3.204326230349911e+01  4.620566843334925e+00  5.227734294868788e-16
-1.548286572088769e-01  4.917539039735442e-02  2.250101355921483e-18
 3.123408130880827e+01 -7.969860304231741e+00 -4.739603148192420e-16
 4.038422733142391e+00  1.945483212143385e+01 -2.717598824135983e-16
-1.162220073812760e+01  1.106001100523412e+01  9.319333031283217e-17
 2.177356991879370e+01  9.655147863998144e+00 -4.866897860210135e-16
-2.324667456188666e+01 -3.042160482847651e-01  4.168280128492437e-16
-1.861283630798314e+01  1.032929422174242e+01  2.251078785335696e-16
 1.182406595994467e+01  2.651442086741993e+01 -4.828494005515254e-16
 1.648247726887313e+01 -6.480386363943636e+00 -2.267417282997687e-16
-3.719499437228891e+00 -4.162233572884839e+00  1.089583671417256e-16
 9.016902671361672e+00 -1.668453204645682e+00 -1.433237882099958e-16
 2.302578318886247e+01  1.264189377864307e+01 -5.396621441069917e-16
-1.895873483225054e+01  2.645101698387061e+01  6.561871054425564e-17
 2.279192653648523e+01 -2.185277481379983e+01 -1.810801971880271e-16
 9.378334726617082e+00  1.752198408955720e+01 -3.469306746378247e-16
-2.111863338743072e+01 -3.442887464115563e+00  4.112056903521456e-16
-2.139694644156019e+01 -1.523655176652755e+01  5.373342195186727e-16
-3.989559492415205e+00  8.709219988509755e+00 -1.848510148742870e-17
 3.206713777718135e+01  2.631006207786753e+00 -5.977056008279486e-16
 2.947912498003620e+01  1.127390257958153e+01 -6.404514465294454e-16
-2.461297217613239e+00 -6.288864075118977e-01  5.026329932289139e-17
-1.882894364978880e+01 -4.064542983128447e+00  3.768452148507542e-16
-5.620683690639017e-01 -4.175156554926732e-01  1.429249876793253e-17
-1.106948500328468e+01 -4.052432226677156e+00  2.386319587920341e-16
-2.492975637733056e+00 -3.435447222070075e+00  7.966344740930819e-17
 3.248408207908920e+01 -1.822264966212822e+00 -5.593698784651439e-16
-2.069485805153182e+01 -1.910814736448777e+01  5.646189574555726e-16
-2.841253227483704e+01  4.141762627135323e+00  4.630797971147582e-16
-1.075396077668861e+01  6.354118030974522e-01  1.848509343558014e-16
-1.512217709693143e+01  5.704932612906552e+00  2.105010696690060e-16
 3.187330020766880e+01 -1.394071054321648e+00 -5.528998233876613e-16
-1.573111504845661e+01 -3.118010911282778e+00  3.119903864632053e-16
-1.437021792983436e+01  2.413737936268259e+01  7.732364942842004e-18
 1.738708124248509e+01  2.108610861376247e+01 -5.260759567986040e-16
-3.013851315892654e+01 -1.072594951366469e+01  6.465560270080449e-16
-2.804633256290697e+01 -6.010243919788459e+00  5.608710157555815e-16
-2.875297605559929e+01  1.503370735533921e+01  3.572276249436618e-16
-1.416489195161180e+01  7.167297085856756e+00  1.784397748917514e-16
-1.124408559886336e+00 -3.512412015056758e+00  5.609894907731580e-17
 2.225738023059994e+01 -2.174955758044266e+01 -1.726278276222215e-16
 2.650840825786880e+01  3.281383471253408e-01 -4.751202476361358e-16
 2.190513658782002e+01 -1.351690170568654e+01 -2.509467802487713e-16
-8.022565252102799e-02  9.234800026389825e+00 -9.345650433222723e-17
-3.226313502745298e+01 -2.468114653700360e+00  5.995199541469020e-16
 1.307493041159041e+01 -7.880034530326930e+00 -1.517194905823665e-16
 3.192424495044483e+01  8.117349469995410e-01 -5.764703012156089e-16
 1.436102252947536e-03  5.473847490716735e+00 -5.626735162731015e-17
-3.242295485696155e+01 -2.476056920167682e+00  6.024457425579370e-16
-6.589099551909618e-01 -3.974656425054873e+00  5.256423951285364e-17
 2.326706936206298e+01  1.241236878829942e+01 -5.415978335029772e-16
-2.821203523496565e+01 -7.492238270573810e+00  5.790468460521814e-16
-2.185757204941051e+01  2.411090991140606e+01  1.412507267356977e-16
 3.356364085757361e+00 -3.023108761888086e+01  2.508829406714058e-16
 3.192198506004107e+01  6.548343041278862e-01 -5.748179866570990e-16
 1.117141300134858e+01  2.912486331481077e+01 -4.980560104504725e-16
-1.692686596321432e+01 -2.715174353845148e+01  5.802080723091912e-16
 1.378174652888030e+01 -2.822558151122284e+01  4.474497753535189e-17
-1.847800005634338e+01 -5.053989608219703e+00  3.807659596126195e-16
 2.495124825935513e+00  2.772783875808695e+01 -3.292971930775674e-16
 7.456932094037931e+00 -3.167781699658125e+01  1.927730604296170e-16
-1.699505565033341e+01 -8.358492974585152e+00  3.883277666554240e-16
-2.611027441097757e+01 -1.044759601871394e+01  5.720087323841989e-16
 2.253480243221872e+00 -1.659302164930824e+01  1.303839006724359e-16
 3.248770715777579e+01  6.050282047520100e-01 -5.843739466247839e-16
-2.828027606075823e+01 -1.115288627458936e+01  6.178731013750222e-16
 5.235894682224163e+00 -1.542284087961149e+01  6.528509589182125e-17
 2.791505106099431e+01  1.490470301276213e+01 -6.499220409120085e-16
-1.070488961441579e+01 -1.459854481735398e+01  3.405010247046318e-16
-3.016888078386740e+01 -2.132896085040773e-01  5.390826935363098e-16
-3.106421316425705e+01  9.280975533084412e+00  4.574660759036605e-16
-1.404382122741281e+01  1.406867800564861e+00  2.354714952432290e-16
-1.513350107618998e+01  9.068403461889117e+00  1.761441522547601e-16
 3.128924722349143e+01 -8.901287844947255e+00 -4.653719784818075e-16
 5.205596153532946e+00  2.303691066982680e+00 -1.163093818646523e-16
-2.222601380483885e+01 -2.663483700244550e+00  4.229047552561764e-16
-6.746560451715562e+00 -2.343553793187142e-02  1.203038824701432e-16
-2.899720171189372e+01  1.384637743486702e+00  5.018131437819418e-16
 2.033944797056240e+01 -3.257746232913411e+00 -3.284925792745906e-16
-1.737113867635751e+01 -2.650678202364964e+00  3.363748894068101e-16
-2.095231183512712e+01  2.065319489986507e+01  1.606673070248177e-16
-3.147220683981937e+01  7.854784944703280e+00  4.793804002114017e-16
-2.918668726800150e+01  6.711038013405747e+00  4.504584374163557e-16
 2.183971277460395e+01 -1.935111521088801e+01 -1.898380610967551e-16
-4.015117188439698e+00 -6.034773041689315e+00  1.334589005170718e-16
-2.189137307215774e+01  1.234056275769036e+01  2.627882974360855e-16
 3.252299622724393e+01 -1.159586615621039e+00 -5.668711814573504e-16
 2.826951722561031e+01  2.288398125545799e+00 -5.266022395591834e-16
-1.295592618966334e+01 -1.234120697516419e+01  3.573675793951809e-16
-2.108186355606628e+01  1.589531894290282e+01  2.118582815318405e-16
-4.843134716398407e-01  5.998055653429504e-01  2.456151645298428e-18
-3.135018240753595e+01  6.034265032839868e+00  4.959140106657834e-16
-2.439955445344928e+01 -1.347937414407248e+01  5.727148489874180e-16
 1.910740480421988e+01 -4.668660804442164e+00 -2.920702668631718e-16
 1.940914419152206e+01 -6.759067328050162e+00 -2.759619115367064e-16
 2.961190062155364e+01 -1.296987097739403e+01 -3.937183812015755e-16
 4.704356214865893e-01 -2.513112150426661e+00  1.744935137683713e-17
-1.289803278354611e+01  3.700948695139683e+00  1.915099753059092e-16
 1.191757044007178e+01  9.620555083565382e+00 -3.109350903834699e-16
-2.889279015283379e+00 -2.896494468001030e+01  3.490224509792409e-16
-6.914293188735954e-02  4.063660005971207e-01 -2.944782084566700e-18
-5.828026987204070e+00  3.175903337397390e+01 -2.225958386094121e-16
 2.587248148813317e+01 -1.889136254593994e+01 -2.663297824305192e-16
 2.668155782877828e+01  1.132955397416496e+01 -5.912371998758239e-16
-2.619016466489480e+01  5.286719260640429e-01  4.606533089754690e-16
 5.264714962682219e-01  1.915789438918707e+01 -2.062095936090119e-16
 1.693258329802543e+01  1.286094512658021e+01 -4.334770568686753e-16
-3.195659386597245e+01 -6.153334667771634e+00  6.319289854380967e-16
 8.976514510090059e+00 -1.854475018486226e+01  3.079278809127365e-17
 1.155067557771468e+01  1.438274719142836e+01 -3.533355525962004e-16
-3.234748962294530e+01 -3.550385715816440e+00  6.121410868045797e-16
 2.649928585346351e+00  2.111255827949782e+01 -2.640825068807157e-16
-8.158418349799250e+00 -6.161942503811466e+00  2.085005070181400e-16
-3.159289438515570e+01 -3.203922546018734e+00  5.951523812187064e-16
-3.251834208976766e+01 -9.813811379212175e-01  5.887860215266309e-16
-8.605229807659352e+00  6.236055974127046e-01  1.467330081389601e-16
 3.213303911922718e+01 -3.408331218255277e+00 -5.368263956977502e-16
 2.516124812103620e+01  1.033990461858710e+01 -5.540131875008666e-16
-2.527563808143291e+01 -1.963644813190151e+01  6.515675007218280e-16
-2.778716261350180e+01  1.659815452429822e+01  3.239656963390673e-16
 1.319502293946073e+01 -6.473319708782091e+00 -1.683101643650131e-16
-3.074267988850550e+01  8.473267820199991e+00  4.600429110343644e-16
 1.780300867272410e+01 -1.561520040905045e+01 -1.563852638731944e-16
 2.814515309686795e+00  2.373252537137083e+01 -2.939307340567936e-16
-3.188549642993489e+01 -6.511914362376597e+00  6.343479978485073e-16
 8.691603548724006e+00 -2.439789590312424e+01  9.600206447733799e-17
 1.719738284469108e+01  1.606921848472987e+01 -4.711533239465792e-16
-3.217140719151423e+01 -4.908086320176737e+00  6.229573703890126e-16
 7.923074935293873e+00 -1.889412407831261e+01  5.312969173891857e-17
 1.276104510047767e+01  1.490512900090783e+01 -3.802428053658420e-16
-3.217080885953298e+01 -4.903558224119551e+00  6.229001978154629e-16
 1.853379937293943e+00  1.801872442039472e+01 -2.181189545073414e-16
-7.931219275788290e+00 -6.125604334067815e+00  2.040838669872181e-16
-3.155195076166741e+01 -3.465169551717175e+00  5.971079586798631e-16
-3.249429151539382e+01 -1.622531807437227e+00  5.949456030229093e-16
-9.116059311932135e+00  7.245766414151629e-01  1.547863877451419e-16
 3.217279728815258e+01 -3.225934469861477e+00 -5.394080000512518e-16
 2.456537081924394e+01  1.018397183927010e+01 -5.418066874729719e-16
-2.518549014467664e+01 -1.976051171435342e+01  6.512379188928818e-16
-2.770162533598979e+01  1.676210983155332e+01  3.207588772209110e-16
 9.129588714264349e+00 -4.573938630108358e+00 -1.154763635005951e-16
-3.030170444443075e+01  9.740426089298634e+00  4.391756361230629e-16
 1.864653410829992e+01 -1.667481071802582e+01 -1.605096942019185e-16
 3.894341433098454e+00  2.500044348300995e+01 -3.261749259643361e-16
-3.186836524092758e+01 -6.595242047093389e+00  6.348992895968077e-16
 9.086611852098049e+00 -2.505957772057798e+01  9.577096084364181e-17
 1.773282078610955e+01  1.657583201079567e+01 -4.858873507527327e-16
-3.209645376390854e+01 -5.376514606093036e+00  6.264364152117204e-16
 8.447160680091873e+00 -1.984791415866708e+01  5.360280736859815e-17
 1.339971211249904e+01  1.549212657508055e+01 -3.976398335117674e-16
-3.210542439233575e+01 -5.315767266517440e+00  6.259719013905797e-16
 1.673640299076228e+00  1.644582374907294e+01 -1.987592902464393e-16
-7.505106411459488e+00 -5.750127083088572e+00  1.926427879316340e-16
-3.156171434497670e+01 -3.574673897337746e+00  5.984068306602716e-16
-3.250187049642630e+01 -1.442299406064734e+00  5.932286575605943e-16
-8.536880789379321e+00  6.684335525080767e-01  1.450560648849775e-16
 3.218627516908287e+01 -3.072017822484300e+00 -5.412292926637788e-16
 2.445391656182230e+01  1.014758405214545e+01 -5.394493547122434e-16
-2.527451047259104e+01 -1.971592409949347e+01  6.523640203129555e-16
-2.773845424915313e+01  1.669314281226014e+01  3.221229027348862e-16
 9.187624256535637e+00 -4.603809428726277e+00 -1.162022635787044e-16
-3.032157616230572e+01  9.650320756303095e+00  4.404550765853990e-16
 1.861140307762568e+01 -1.656654415776982e+01 -1.609968951866119e-16
 3.788443786159619e+00  2.505197442371682e+01 -3.248198127294109e-16
-3.185617970129299e+01 -6.653851218724923e+00  6.352846213219166e-16
 8.911195174461987e+00 -2.508331194514664e+01  9.913657040106267e-17
 1.764156581858022e+01  1.639512628050159e+01 -4.824066740162945e-16
-3.208730933661187e+01 -5.430814021368848e+00  6.268315859823942e-16
 8.136463795404248e+00 -1.939220937287731e+01  5.444982789553964e-17
 1.295252413426914e+01  1.509740465133394e+01 -3.856259656311956e-16
-3.212484905494853e+01 -5.197894153222680e+00  6.251064830159738e-16
 1.356370749261695e+00  1.720754385285357e+01 -2.009394974997787e-16
-8.317429382146210e+00 -6.508437708857898e+00  2.148904103694138e-16
-3.160264071331066e+01 -3.567638284105259e+00  5.990628758299517e-16
-3.248930140562477e+01 -1.679464700328418e+00  5.954417628490932e-16
-9.784856444855846e+00  7.233156801579351e-01  1.667013863956906e-16
 3.215856944771303e+01 -3.155648928042098e+00 -5.398769570737460e-16
 2.449041216851212e+01  1.008147763897502e+01 -5.394196181621354e-16
-2.527904933841970e+01 -1.968075183391688e+01  6.520834125573457e-16
-2.777484428451791e+01  1.664130506142935e+01  3.233031208732806e-16
 8.839179141151973e+00 -4.443524097905768e+00 -1.116481406551430e-16
-3.033650545958851e+01  9.654332053424202e+00  4.406795466505569e-16
 1.860252590141094e+01 -1.659469943371610e+01 -1.605496300087302e-16
 3.846120467420462e+00  2.510069695965361e+01 -3.263468444336703e-16
-3.186111117907762e+01 -6.630197283079727e+00  6.351293472587966e-16
 9.072382613879167e+00 -2.508569585427266e+01  9.629254144975241e-17
 1.772568881115577e+01  1.657539050543980e+01 -4.857558924364461e-16
-3.209195411404683e+01 -5.403311206202729e+00  6.266316639030983e-16
 8.475675225707088e+00 -1.985804628554902e+01  5.319946093648891e-17
 1.340454274853062e+01  1.553249002110220e+01 -3.981405201891492e-16
-3.209965289762235e+01 -5.350850565261110e+00  6.262296589065535e-16
 1.639405712801184e+00  1.628952656514705e+01 -1.965441481412555e-16
-7.499667905223689e+00 -5.744745288378986e+00  1.924907072356684e-16
-3.153378877863218e+01 -3.629888646764466e+00  5.984771733721349e-16
-3.249774011228480e+01 -1.576013412467054e+00  5.945290152983622e-16
-8.941118151909430e+00  7.140541488668467e-01  1.517812158885085e-16
 3.217691458129026e+01 -3.147589214238989e+00 -5.402862412278026e-16
 2.454693449191522e+01  1.014945384383151e+01 -5.411239311655832e-16
-2.522863318024228e+01 -1.973171775803162e+01  6.517098532607772e-16
-2.771012943380333e+01  1.674620456333218e+01  3.210736386408296e-16
 9.046147598393700e+00 -4.522740464794381e+00 -1.145174720419154e-16
-3.028972632727444e+01  9.745908425146359e+00  4.389061422133224e-16
 1.863281025320317e+01 -1.660322305745790e+01 -1.610009990383504e-16
 3.805454229369126e+00  2.500613837303530e+01 -3.246515850697211e-16
-3.186289302402970e+01 -6.621628914468626e+00  6.350730204449115e-16
 9.054127512011004e+00 -2.497764203382777e+01  9.550719899390843e-17
 1.751883121467146e+01  1.646971522499994e+01 -4.809888396352880e-16
-3.210111584677454e+01 -5.348609529279106e+00  6.262326680091870e-16
 8.289676973812794e+00 -1.949604783056269e+01  5.279011906837780e-17
 1.290416545341647e+01  1.512989883363315e+01 -3.850992311439844e-16
-3.212921172300629e+01 -5.169743667495697e+00  6.248948858794221e-16
 1.915195937615835e+00  1.755207653581256e+01 -2.144244064481000e-16
-8.206968248976345e+00 -6.331530954637105e+00  2.111069701091220e-16
-3.157790318064028e+01 -3.496201598635593e+00  5.978886559242980e-16
-3.250507684746540e+01 -1.365404265749466e+00  5.924956487780124e-16
-9.310265698318197e+00  6.880448627317091e-01  1.586178727567886e-16
 3.215949935254981e+01 -3.217937456861580e+00 -5.392535138402162e-16
 2.446523341932764e+01  1.015910293533829e+01 -5.397691040270905e-16
-2.523765710350918e+01 -1.973799247690158e+01  6.519349151789509e-16
-2.769268920671326e+01  1.677347147098479e+01  3.204831114350040e-16
 9.382879650928517e+00 -4.681310027305149e+00 -1.188807757566834e-16
-3.029867923725294e+01  9.681953473737080e+00  4.397225838203639e-16
 1.866555393972319e+01 -1.657423503738908e+01 -1.618815533731254e-16
 3.791475146307185e+00  2.512822538236423e+01 -3.256572103001559e-16
-3.186488386053563e+01 -6.612041915863982e+00  6.350099468265919e-16
 9.119738167535409e+00 -2.505700373498450e+01  9.515499178097169e-17
 1.768316169124135e+01  1.659640035691051e+01 -4.852149402034277e-16
-3.210170873906204e+01 -5.345055164715837e+00  6.262066994280024e-16
 8.563317285440862e+00 -1.988546270786279e+01  5.192145970681264e-17
 1.328867496381808e+01  1.548019343999449e+01 -3.955411863732369e-16
-3.211571011283553e+01 -5.252260876724238e+00  6.255024429770158e-16
 2.157922928822827e+00  1.684323772528502e+01 -2.114609615184534e-16
-7.471734228245652e+00 -5.680248632181701e+00  1.913309144207144e-16
-3.156273990668433e+01 -3.446957008718657e+00  5.971128371105083e-16
-3.251273864229292e+01 -1.105676101444931e+00  5.899633870585000e-16
-7.985685803966766e+00  5.924504626490034e-01  1.360275912740882e-16
 3.217985886508048e+01 -3.069513977747255e+00 -5.411408329809285e-16
 2.441054548532439e+01  1.013086194045762e+01 -5.385057010494637e-16
-2.531554354591128e+01 -1.969086790714785e+01  6.528368094871098e-16
-2.773584091597865e+01  1.669046084153982e+01  3.221039516307113e-16
 9.608390216365011e+00 -4.795665662527329e+00 -1.217190426358761e-16
-3.032846029492195e+01  9.576753225362772e+00  4.413334675918288e-16
 1.866987982155015e+01 -1.653003168629911e+01 -1.624127109727104e-16
 3.760436046102883e+00  2.521765119359733e+01 -3.260236502260327e-16
-3.185532849367947e+01 -6.657925238888149e+00  6.353113321501370e-16
 9.073999056230848e+00 -2.510138080551602e+01  9.642493210738210e-17
 1.770478505249978e+01  1.656965421284121e+01 -4.853249467954211e-16
-3.209752836447958e+01 -5.370099799378538e+00  6.263896291974096e-16
 8.553148047311820e+00 -1.983353117609476e+01  5.156885581151085e-17
 1.327984488066105e+01  1.549817276369429e+01 -3.955687755341337e-16
-3.211815768075767e+01 -5.238124591228627e+00  6.254007551715580e-16
 1.948560146833107e+00  1.669569411064379e+01 -2.062191440483256e-16
-7.525038180879314e+00 -5.755035912909998e+00  1.930479339905736e-16
-3.152831542069906e+01 -3.470375476149621e+00  5.967408285700067e-16
-3.249516796793936e+01 -1.598206781245027e+00  5.947112697165684e-16
-9.175598419976902e+00  7.073177495833316e-01  1.560232858800408e-16
 3.215893691736311e+01 -3.214480115349387e+00 -5.392790275419137e-16
 2.461175773481997e+01  1.008637264603923e+01 -5.416294017077380e-16
-2.519427645741734e+01 -1.973955796814307e+01  6.511789896793822e-16
-2.770963978121312e+01  1.675046907580045e+01  3.210211083779936e-16
 8.764029419268494e+00 -4.390086401342394e+00 -1.108598147094010e-16
-3.026565585716271e+01  9.831341659296980e+00  4.375999841194411e-16
 1.869942889870629e+01 -1.669005911523375e+01 -1.612943483375082e-16
 3.884698860573516e+00  2.505480141268283e+01 -3.265618328929577e-16
-3.187658415009993e+01 -6.555402697378271e+00  6.346362200399524e-16
 9.168275615640212e+00 -2.505573297272657e+01  9.427815337721277e-17
 1.769269020485014e+01  1.662824055939901e+01 -4.857116579841179e-16
-3.209942905623444e+01 -5.358729240063565e+00  6.263066259151362e-16
 8.589726275648689e+00 -1.990869305786290e+01  5.169016364262768e-17
 1.327350025928773e+01  1.547510484770614e+01 -3.952188509652649e-16
-3.212002147526596e+01 -5.225713423579805e+00  6.253064033782186e-16
 2.212382877486817e+00  1.692725409816810e+01 -2.132933790114946e-16
-7.479942038849063e+00 -5.690234918399457e+00  1.915795876641461e-16
-3.156856049136281e+01 -3.405031015047019e+00  5.967856470149221e-16
-3.251208225635681e+01 -1.078729623003965e+00  5.896748405721070e-16
-8.013340271675931e+00  5.781470246414648e-01  1.366666981248415e-16
 3.217377429933377e+01 -3.087341211207808e+00 -5.408493825189789e-16
 2.438916730190676e+01  1.012216260611742e+01 -5.380358682628740e-16
-2.535847800806442e+01 -1.965190798578538e+01  6.532005803941720e-16
-2.774077226029049e+01  1.668038887364052e+01  3.222951965954784e-16
 9.258119502318404e+00 -4.631760934233342e+00 -1.171696190156685e-16
-3.031284881259388e+01  9.667374804428171e+00  4.401245388494723e-16
 1.868161137467399e+01 -1.661727330710204e+01 -1.617251120014370e-16
 3.833810030833363e+00  2.512687370982007e+01 -3.263967221159483e-16
-3.186474921237685e+01 -6.612690758834709e+00  6.350142172210294e-16
 9.096594780741540e+00 -2.510864690476868e+01  9.609747075671952e-17
 1.774571671791985e+01  1.658801925437794e+01 -4.862420687397969e-16
-3.209569971331148e+01 -5.381013674845786e+00  6.264692222678720e-16
 8.528393426557855e+00 -1.985505179907819e+01  5.223051040011120e-17
 1.331809892979262e+01  1.547601160595875e+01 -3.960218541173719e-16
-3.212427027984631e+01 -5.200255493871724e+00  6.251204449433184e-16
 1.912790119544605e+00  1.679604334531454e+01 -2.066136256861364e-16
-7.472691187769690e+00 -5.720890695073048e+00  1.917655270906632e-16
-3.155203468882752e+01 -3.475949509237625e+00  5.972202124047874e-16
-3.250252960186872e+01 -1.404130478365047e+00  5.928482152943968e-16
-9.090759258576178e+00  6.506163432288899e-01  1.550960582768718e-16
 3.214595799558228e+01 -3.314359116376118e+00 -5.380218316869741e-16
 2.452656066453000e+01  1.019312428384084e+01 -5.412100525233981e-16
-2.527728575203215e+01 -1.969127215179041e+01  6.521601198743941e-16
-2.768128444099854e+01  1.678103514735363e+01  3.202024359937034e-16
 1.202630699922291e+01 -5.946247349375693e+00 -1.529269471364420e-16
-3.057342476204992e+01  8.955781313950828e+00  4.520731633485611e-16
 1.800660037994759e+01 -1.607217551918513e+01 -1.553131679118031e-16
 3.252460156002195e+00  2.371123365226246e+01 -3.015057203189779e-16
-3.187765653821577e+01 -6.550184750469993e+00  6.346016919566096e-16
 8.772521865309326e+00 -2.439910292453942e+01  9.457442821012089e-17
 1.709916048624777e+01  1.601308702700986e+01 -4.688286095712095e-16
-3.218128671171586e+01 -4.842826060158071e+00  6.224626627730621e-16
 7.807319064347479e+00 -1.866596880220319e+01  5.284549298879341e-17
 1.209320467226794e+01  1.415546422053397e+01 -3.606552550238693e-16
-3.227630433570420e+01 -4.140678642557319e+00  6.169393050835731e-16
 3.877830034808991e+00  2.119671710920014e+01 -2.867991792397343e-16
-7.804942668040946e+00 -5.889658784518373e+00  1.994123693162232e-16
-3.146462432243827e+01 -3.299544917159966e+00  5.938521475720443e-16
-3.250951343231414e+01 -7.698581658960367e-01  5.864555832669547e-16
-8.591706541539754e+00  4.401011972200853e-01  1.483777865250839e-16
 3.206960131966963e+01 -4.185328268526478e+00 -5.277140819412297e-16
 2.475008651259544e+01  1.093810932586424e+01 -5.528424122840223e-16
-2.646268981237206e+01 -1.825967525538944e+01  6.585466610694602e-16
-2.743706917789634e+01  1.504931803001324e+01  3.336490984028713e-16
 3.196383602760264e+01 -5.978196307756321e+00 -5.074107945987092e-16
 1.787999576108152e+01  5.022003391205367e+00 -3.697951130947554e-16
-3.250852527200515e+01 -6.604423472761702e-01  5.853137899810772e-16
-2.971077554078285e+01  3.262838990575647e+00  4.952142057312643e-16
-1.147819470067702e+01  1.626735486886742e+00  1.875540502033674e-16
 3.123273655302449e+01 -8.373691791223834e+00 -4.697871614537929e-16
 7.148325350776011e+00 -1.919242472917349e-01 -1.252410245402189e-16
 3.166284953473215e+01 -5.571117115383394e+00 -5.062369717209881e-16
 2.715088900043629e+01  1.040391875579435e+01 -5.900789422943383e-16
-2.547499299262847e+01 -1.937263855042791e+01  6.524047115651817e-16
-2.752142871754298e+01  1.679825020153492e+01  3.171807342871683e-16
 2.231869662889414e+01 -1.029532415562398e+01 -2.914071135143959e-16
-3.123189430038453e+01  5.808378231774586e+00  4.961298375288154e-16
 1.804990217956376e+01 -1.503080624553783e+01 -1.667834660726770e-16
 1.924234674700703e+00  2.099641411927513e+01 -2.499745790309112e-16
-3.193125899569707e+01 -6.283631370259688e+00  6.328168724788121e-16
 9.910089885495999e+00 -2.465016229363914e+01  7.690959216694707e-17
 1.905551729973769e+01  1.668909807211688e+01 -5.105900806091373e-16
-3.249089772421964e+01 -1.851217550376616e+00  5.972348693836602e-16
 3.153407443766888e+00 -9.632954176004002e+00  4.285645778308862e-17
 3.733888462125334e+00  7.526251060402414e+00 -1.437784946996337e-16
-2.160710338101170e+01 -1.051719317363486e+00  3.953302124601300e-16
-1.466208907863476e+01 -2.900055727245477e+01  5.588995556302708e-16
-2.088921667029570e+01  5.615831356847116e+00  3.140479010864843e-16
 3.254160112944338e+01  3.647162125005864e-01 -5.828639357058463e-16
 3.743945723383989e-02 -2.311034713314189e+01  2.367841416542030e-16
-3.090254137950393e+01  4.444216720806413e+00  5.042848733839205e-16
-1.437552888459506e+01  8.857601634502114e+00  1.648210451675689e-16
-2.751144321798684e+01 -1.573173539427401e+01  6.512368151714139e-16
 1.188689419553754e+01 -1.143419730424741e+01 -9.405923783564831e-17
-5.166492247911614e+00 -3.228127813433487e+00  1.251117329783411e-16
-2.054402470982640e+01  2.194130474012651e+01  1.401664899599447e-16
 2.708747085582852e+01 -9.125147443761559e+00 -3.882962799085069e-16
 1.777933653316309e+01  1.156207237131376e+00 -3.282841109083719e-16
-1.089681444924940e+01  2.107760908111789e-01  1.917561635573375e-16
 2.143923187894150e+00 -2.941779219130886e+01  2.641034576288300e-16
-2.448972340594043e+01 -1.482571613394333e+01  5.881526879285083e-16
 1.574846286176179e+00 -4.103797543588750e+00  1.413876076163881e-17
 2.412909663344236e+01  1.303415773893438e+01 -5.633272926580368e-16
-3.209621823049694e+01  1.240814267332182e+00  5.584415733273760e-16
 2.260220463747137e+00 -1.542015478488195e+01  1.182131694467519e-16
 3.048713217229249e+01  7.157018649930997e+00 -6.160906500702708e-16
-1.778597515060513e+01 -1.450439683065978e+01  4.655500520807226e-16
-1.404621536912340e+01  1.500351957950287e+01  9.581344408748199e-17
 3.200760219405609e+01  5.869852845353732e+00 -6.299240667323510e-16
 1.826733347640462e+01  2.685194912235503e+01 -6.009830119627066e-16
-6.325398418439112e-01 -1.273408398725411e+01  1.420948880454795e-16
-1.918402276048383e+01  2.130061090951075e+01  1.225465293594518e-16
 1.561644636176055e+01 -1.630180622117019e+01 -1.104181540014646e-16
-8.875612785005686e-02 -3.108841152808887e+01  3.210016560942133e-16
-1.964795132792855e+01 -2.573409500270463e+01  6.140672084942349e-16
 8.897781543728941e+00 -9.796417075450830e+00 -5.769200953834699e-17
-1.171684533112144e+00 -6.106922416670068e-01  2.712616482783210e-17
-1.141752369352145e-02 -1.933841023032739e+01  1.988983284825237e-16
 2.988848369750802e+01  7.264350419382908e+00 -6.065397813007280e-16
 2.787018128471857e+01  1.034612036279691e+01 -6.022857489963583e-16
 2.365158742237238e+00  1.020975967640232e+01 -1.469923928552907e-16
-3.235552882907721e+01 -1.271018379934689e+00  5.888644827113368e-16
-7.381332904871593e+00  3.044585374519429e+01 -1.814604633070422e-16
 1.915526686068470e+01 -2.630858904786611e+01 -7.057962770082540e-17
 3.104903954146142e+01  6.185027168806893e+00 -6.161036025874672e-16
-3.277434725903668e+00 -1.071095378571956e+01  1.683770195708580e-16
-3.129018971329596e+01  8.713456996968500e+00  4.673186449473588e-16
-4.761706664976078e-01  3.109432751312082e+01 -3.110088945040160e-16
 9.950224439294331e+00 -3.091273970600160e+01  1.405410578088150e-16
 3.214852489296739e+01  4.358729922525448e+00 -6.169057151712016e-16
 1.355851255694211e+01  2.565132508530360e+01 -5.048479509847847e-16
-2.194110105696631e+01 -2.403470238550885e+01  6.374159014891679e-16
-8.816530963683739e+00  9.243722863350268e+00  6.192479077845252e-17
-1.311514806265683e+01 -3.644001544142088e-01  2.371437833021501e-16
 1.413706424721921e+01  2.880565963866647e+01 -5.475536100922818e-16
 1.286878015508838e+01  6.891641225313560e+00 -2.998244033514778e-16
-1.953727307778929e+01 -1.637641567551291e+01  5.159508012982870e-16
-9.979014128611167e+00  2.069728492078343e+01 -3.506862399798062e-17
-9.994834288065389e+00 -9.126996580207887e+00  2.716465726717078e-16
-1.243114624547762e+01  2.183374842109459e+01 -3.106757585079974e-18
 2.718554478624556e+01 -1.386688988555180e+01 -3.413219414344314e-16
 3.123628438910952e+01  7.213716345642126e+00 -6.300052555986208e-16
 1.861105881288271e+00  2.842600622820035e+01 -3.251874868780399e-16
-2.547599954275938e+01 -8.609428709317202e+00  5.418345531760314e-16
-3.249541504786566e+01 -1.767553623676333e+00  5.964556440924525e-16
 1.271191501317743e+01 -9.378632500662569e+00 -1.298616490234350e-16
 2.735399617099800e+00  3.042367865952800e+01 -3.612719452568179e-16
-2.301724093552798e+01 -2.294791951534627e+01  6.454007950694651e-16
-9.749154140135960e+00  3.100763430684208e+01 -1.450943511751018e-16
 1.474021684725620e+01 -2.651166286214083e+01  1.007796342171904e-17
-1.382300971404354e+01 -1.762021960070723e+01  4.270383020198413e-16
-2.679991897043157e+01 -1.794352891552293e+01  6.612997674130479e-16
-2.331523566698081e+01  8.450992329113785e+00  3.280915539464488e-16
 2.555932927420744e+01  1.245235016648172e+00 -4.676530901404726e-16
 7.796673598450574e+00  2.541875479958895e+00 -1.648679540616635e-16
-3.015560806719180e+01 -7.699504860365233e+00  6.157646318955401e-16
 1.971883709585566e-01 -3.597486574700772e+00  3.345366542095661e-17
 7.407941446806963e+00 -6.624312082302098e-01 -1.250269145404859e-16
 5.602072416004429e+00  1.772333481875634e+01 -2.817963879104207e-16
 9.772401767053475e+00  3.322348256433457e+00 -2.080474678084323e-16
 2.077726626124887e+01 -6.532520947391016e+00 -3.026369574726301e-16
 9.962885056660687e+00  1.478758161944977e+01 -3.292384529726057e-16
-3.386020545447312e+00  4.732461079037230e+00  1.163395616682796e-17
-1.022957318429279e+01 -6.351326627569973e+00  2.473050309352551e-16
-1.587005111936726e+01  1.065488193947548e+00  2.714789860326953e-16
-1.014547711788377e+01 -1.567814009710458e+01  3.416380613423297e-16
-1.745240841175719e+01  2.219657725653214e+01  8.252465774459756e-17
 1.220865072444860e+01 -3.016684891423608e+01  9.268591119534439e-17
 2.043186078165078e+01  3.951176544103681e+00 -4.042062382602305e-16
-9.877425685011175e+00 -1.337105743229971e+00  1.895188480636247e-16
-3.589940960959875e+00 -2.982501774549658e-01  6.695169386341462e-17
-3.809498604690087e+00 -2.750048005389769e-01  7.062014622463177e-17
 2.430201237584137e+01 -7.912158135198096e-01 -4.243538436509483e-16
-3.286512468201923e+00  2.349714579650318e-01  5.607316329562587e-17
-2.980671162015934e+01 -5.157613117036581e+00  5.834385891773607e-16
-3.162232862451599e+01  7.688839853194184e+00  4.837570219807341e-16
-4.491014299974370e+00  1.475303289456635e+01 -7.165909706842390e-17
 1.497453014407187e+01 -6.292280601854626e+00 -2.018387288014146e-16
-1.087430421386368e+01  6.583599078038735e+00  1.258771259317584e-16
-1.985355332528069e+01 -6.804549805230899e+00  4.232319409770511e-16
-5.355792794093085e+00  2.397966413353643e+01 -1.510696164814083e-16
-1.014905627710233e+01 -4.157428466238161e+00  2.233306299064897e-16
 2.930466525219805e+00 -3.131594924923778e+01  2.696088549371598e-16
 2.388716540073131e+01 -5.045508838080279e+00 -3.732598315252141e-16
 3.081114216908276e+01 -7.933937750811398e+00 -4.668026995510094e-16
-1.853441743582355e+00  1.210981520619556e+01 -9.143974541351269e-17
-3.195716006704317e+01 -5.947909504801743e+00  6.298283927323538e-16
 1.056228157420540e+01 -3.487401741200348e+00 -1.521366136803145e-16
 1.075198319264007e+01  2.446736973774954e+00 -2.164836998937460e-16
 5.673097372593319e+00 -2.533751256636155e+00 -7.492616113868399e-17
-1.190333753502652e+01  1.434602454351736e+01  6.443389955959583e-17
 2.911135904316864e+01 -7.896720130204060e+00 -4.369354287435813e-16
 9.658814110728633e+00  5.407272172464499e+00 -2.274478758673852e-16
 1.632389036714212e+01 -1.828112788229252e+01 -1.026711529611146e-16
 2.336851097378432e+01  6.562411043584943e+00 -4.832969172859756e-16
-2.517067415614412e+01 -2.622750560389286e+00  4.748899805131273e-16
-2.606973461287831e+01  1.824249133678669e+00  4.451985273918177e-16
-2.998936218057234e+01  9.027240602798843e+00  4.409448547610541e-16
 1.107259856227184e+01 -1.732581113474532e+01 -1.903368383114157e-17
-1.451752047952736e+01 -1.782016266119330e+01  4.414522918394362e-16
-2.514267203900677e+01  1.969959349303844e+00  4.272032235219895e-16
-2.203161509774829e+01 -6.859072653456066e+00  4.625533507307405e-16
-2.600929314586453e+01  1.853117051006820e+01  2.724653514088373e-16
 3.063244560711580e+01 -1.098507486399243e+01 -4.322732556014211e-16
-1.255478150957498e+00 -4.080780233635385e+00  6.427126572759611e-17
 9.272610973438487e+00 -7.688066205886493e+00 -8.602508561829260e-17
 2.306299090156011e+01  1.190982178572201e+01 -5.328025259619898e-16
-3.229979557257590e+01  3.497790538214600e+00  5.388748636712121e-16
-4.072135945801346e+00  1.265375120932902e+00  5.946724687596315e-17
 3.279421353502684e+00 -3.142275844104217e+01  2.644962131700155e-16
-2.969848513398731e+01 -1.279739122914735e+01  6.600085145474488e-16
-1.576284172829584e+01  1.457956231298730e+01  1.307188647213679e-16
 3.201935407278197e+01  1.847884618723253e+00 -5.888089429507355e-16
 1.777747420678955e+01  2.725880295423078e+01 -5.964456572702681e-16
-5.516261553605274e+00 -2.225393294230831e+01  3.268195311586159e-16
-2.612310087577530e+01 -1.940807877517053e+01  6.643026998574608e-16
-2.374830944900640e+01  1.348932879484976e+01  2.840315415760222e-16
 2.182313055783467e+01 -2.227001409133947e+01 -1.595523351041888e-16
-3.714633711052439e+00  1.644291261641188e+01 -1.028386160145285e-16
-2.002216585358225e+01 -2.494462907357195e+01  6.126153267280322e-16
-2.177912412674129e+01  2.160658182709551e+01  1.655857136842980e-16
 1.932504778945384e+01 -2.491520398393618e+01 -8.791760719512134e-17
 1.892021980698128e+01  2.467948612485316e+01 -5.902806349001787e-16
-2.162193372792659e+01 -1.665539450124976e+01  5.559162303439087e-16
-6.300257917644204e+00  2.380540157627165e+01 -1.324712484814312e-16
-1.587459019737070e+01 -1.726983395226561e+01  4.599485386808003e-16
-2.400966161275346e+01  2.094175606489635e+01  2.121116321290238e-16
-9.903845254499050e+00  2.686556578659371e+00  1.486473471496628e-16
 2.275069151404007e+01 -1.942386839417394e+01 -2.053025019075542e-16
 1.543571226118061e+01  1.645331682784623e+01 -4.437487654472977e-16
-2.568273292601061e+01  1.990453789161639e+01  2.525429718052583e-16
 5.519715373655097e+00 -3.403153501959995e+00 -6.326375326354278e-17
 2.328882598925200e+01 -1.903202875196762e+01 -2.189052567627043e-16
 2.954901297096654e+00  2.087570441071760e+01 -2.670762725796904e-16
 2.564659458940482e+01 -1.647579876851186e+01 -2.871288959249130e-16
 3.041169766607215e+01  1.045583867254017e+01 -6.486423804070648e-16
 3.596252249218287e+00 -2.770126258549448e-01 -6.115339443985390e-17
-5.683445326272277e+00  6.565301300372375e+00  3.368760316513698e-17
 2.717384278301977e+01  9.097027979102526e+00 -5.770596042595743e-16
 2.273598120600892e+01 -4.805640576048467e+00 -3.552376948541039e-16
 2.885013732322402e+01  1.414139726212503e+01 -6.587203270582734e-16
 3.551823871352681e+00 -2.668363934150677e+00 -3.579247251999108e-17
-1.680757098135413e+01  7.096085631896553e+00  2.262010723399912e-16
 3.106410088496725e+01  3.703115037022142e+00 -5.908708916089750e-16
-5.805490793207626e+00 -5.920769211969526e+00  1.641493865395828e-16
-1.661933316023721e+01  2.797838523583462e+01  8.293113294716561e-18
 2.404805536334269e+01 -8.073081900557414e+00 -3.450158469421581e-16
 2.399270459910490e+01 -7.700180644201945e+00 -3.478622390312371e-16
 3.102995395922278e+01 -1.840544928329437e+00 -5.333041139889363e-16
-2.612142607028141e+01  1.849208400281220e+00  4.458619911847429e-16
 2.997102323742820e+01 -1.266459178669518e+01 -4.032460293079589e-16
 2.115547330991769e+00  8.063234586453072e+00 -1.204954945051812e-16
-9.065668320738851e+00  1.160116027758606e+01  4.213667421558272e-17
 2.470507848651668e+01 -4.044895660057763e+00 -3.980965074445960e-16
 2.864991536465621e+01 -1.463280274666572e+01 -3.595126862252036e-16
 4.438142940953592e-01 -6.083006265161058e-02 -7.273197961691109e-18
-2.820094697489373e+01  1.624127344703007e+01  3.349963060484165e-16
 1.717537402066910e+01 -1.428306609949764e+01 -1.589029526785410e-16
-3.263914877159092e+00 -2.160438241740321e+01  2.800624396622469e-16
-1.550322147562199e+01 -1.222469412272142e+01  4.015026102993939e-16
 7.124970081529252e-01 -2.955107364901418e+01  2.909468125132723e-16
 3.228657963136895e+01  2.828882055361411e+00 -6.036439328465270e-16
 2.993944802924220e+01  2.764253324631789e+00 -5.612098895076961e-16
 9.259398529359812e-01  1.300145131308606e+00 -2.983672310250967e-17
-2.974028573648430e+01 -7.428794828964515e+00  6.055920283726960e-16
 1.610074125046300e+00  1.568948228207065e+00 -4.477356270505504e-17
 3.120319420451835e+01  5.009199535516301e+00 -6.067657669126870e-16
 3.123663472492209e+01  8.209338388495979e+00 -6.402411450519583e-16
-1.432064065601005e+00 -2.594872596359784e+01  2.920990211873603e-16
-3.110378813312898e+01  7.697126996875284e+00  4.744438280226936e-16
-1.720990018069881e+01  2.148622177919069e+01  8.550757895362802e-17
 2.566485655428764e+01  2.000929628453375e+01 -6.623249870503148e-16
-2.838087150594595e+01 -1.456253521126676e+01  6.546962215102100e-16
-2.753911093455416e+01  1.461315216234310e+01  3.399464989969771e-16
 2.950081196265219e+01 -5.273690301258192e+00 -4.708168866613870e-16
-2.684351742866880e+01  2.428785045105025e+00  4.527575287339623e-16
-2.624402524123542e+01  1.459866833295236e+01  3.170477203056272e-16
-3.037419486553295e+01  6.773329675577259e+00  4.709515274373461e-16
 1.491472767912682e+01 -1.496277788828542e+01 -1.116882627392917e-16
 2.757129359192650e+00  1.724072952102210e+01 -2.262086385304084e-16
-3.207421442815934e+01 -5.507567689747385e+00  6.273871625270856e-16
 8.734970243267309e+00 -2.292230693593240e+01  8.006916184247422e-17
 1.784299818724281e+01  1.659078676382719e+01 -4.880017436800844e-16
-3.224368555959280e+01 -4.408150106120793e+00  6.191069871649180e-16
 8.376458553650037e+00 -1.961998065234394e+01  5.251910206055341e-17
 1.344814891669424e+01  1.515500655918895e+01 -3.950380385143794e-16
-3.225761323145487e+01 -4.289438370424161e+00  6.181351267514217e-16
 2.097856836618290e+00  1.914729567701461e+01 -2.340653722336144e-16
-6.801794100998836e+00 -5.168109939839812e+00  1.741464917132869e-16
-3.148440950909196e+01 -3.607539585949950e+00  5.973687818965338e-16
-3.250542221887709e+01 -1.181230156402876e+00  5.906094730278278e-16
-9.262134223890628e+00  4.507287509167336e-01  1.601996526040246e-16
 3.201060579744052e+01 -4.369303396679094e+00 -5.247739086313015e-16
 2.515590710378919e+01  1.089197595123828e+01 -5.595904701183623e-16
-2.624115568840458e+01 -1.843365225971414e+01  6.563917475929802e-16
-2.733701848657050e+01  1.519198768009557e+01  3.304026981390409e-16
 3.207524498718116e+01 -5.156408198682318e+00 -5.178370242170918e-16
-2.859003861797914e+01 -6.091721013597676e+00  5.713840611194492e-16
-1.333659699259714e+01  1.695042634123394e+01  6.318117890162636e-17
-8.304201615849076e+00 -3.154633440716327e+00  1.801958860839072e-16
-2.945622078065483e+01  3.500059954390345e+00  4.882467408682983e-16
 1.082832520615953e+01 -2.938164491337532e+00 -1.625143907402185e-16
 6.781437289219968e+00 -3.165788094057280e-01 -1.174310334578647e-16
 3.168479037512416e+01 -5.581458700912767e+00 -5.065211791440566e-16
 2.742361719613097e+01  1.033188138962982e+01 -5.941923080787284e-16
-2.511709981038369e+01 -1.957709422911973e+01  6.481362832928265e-16
-2.760095506536105e+01  1.685437054480222e+01  3.180193843610555e-16
 1.314363369716100e+01 -6.468952396749089e+00 -1.674405040570703e-16
-3.060270040561324e+01  9.145089167285466e+00  4.506490888969567e-16
 1.831134071776596e+01 -1.669506040518554e+01 -1.543364698054717e-16
 3.842735748511743e+00  2.395071040417377e+01 -3.144709152109880e-16
-3.191415294069711e+01 -6.369988106277127e+00  6.333997339185285e-16
 9.166373858848264e+00 -2.457158093927025e+01  8.933751113625038e-17
 1.749566270397735e+01  1.652246775057564e+01 -4.811185413984764e-16
-3.215465509304566e+01 -5.016689763268777e+00  6.237751077377323e-16
 8.252681762875845e+00 -1.946784313953914e+01  5.315870001967877e-17
 1.314269664736850e+01  1.524382865271560e+01 -3.905147657755796e-16
-3.213861067771352e+01 -5.111784422160310e+00  6.244666413077362e-16
 1.329342202687756e+00  1.713653338200591e+01 -1.997288854689099e-16
-7.975092285350811e+00 -6.191124509612640e+00  2.055378355366010e-16
-3.156296610042013e+01 -3.705395099953857e+00  5.997722200136985e-16
-3.249506377934311e+01 -1.653006334997788e+00  5.952724611016124e-16
-9.531851259522970e+00  7.446125044665172e-01  1.619800401912174e-16
 3.214315883927042e+01 -3.238672521408291e+00 -5.387496696523333e-16
 2.521176095131181e+01  1.019852301720260e+01 -5.534594789877879e-16
-2.519620437177041e+01 -1.969190612384223e+01  6.507236938472658e-16
-2.780613319136985e+01  1.660969895734950e+01  3.241846855400004e-16
 6.638089073235673e+00 -3.398580881132683e+00 -8.321352937735558e-17
-3.028105240082284e+01  1.008672175446684e+01  4.352500462482217e-16
 1.845976180579946e+01 -1.697795073562382e+01 -1.540712047325842e-16
 4.219836894076720e+00  2.450351364091566e+01 -3.268617323673462e-16
-3.188162980106957e+01 -6.530819232699788e+00  6.344734272517064e-16
 9.134685316467543e+00 -2.482728844973284e+01  9.252874833001805e-17
 1.746522364006405e+01  1.650342710760414e+01 -4.803812062452562e-16
-3.210540930981406e+01 -5.322776561741389e+00  6.260436509458105e-16
 8.177783961464185e+00 -1.950003202146353e+01  5.482232479113439e-17
 1.317033674433739e+01  1.527894919414109e+01 -3.913675050778385e-16
-3.209522871135398e+01 -5.378661954214681e+00  6.264366771561447e-16
 9.488412174250322e-01  1.635098234661515e+01 -1.848861650878342e-16
-8.112009410397574e+00 -6.340958361355433e+00  2.095139274859490e-16
-3.155774527799664e+01 -3.842366646789182e+00  6.010866421457310e-16
-3.247978369035010e+01 -1.949497434984965e+00  5.980468719760807e-16
-1.008404754703310e+01  8.279659056710660e-01  1.709506059731002e-16
 3.215858179828726e+01 -3.193910518753818e+00 -5.394840529346870e-16
 2.515656267525669e+01  1.022836122599036e+01 -5.527837365595519e-16
-2.514410862518478e+01 -1.974677336859503e+01  6.503603288846732e-16
-2.778186114449777e+01  1.665237160271437e+01  3.233142895866086e-16
 7.102388249133498e+00 -3.620993571177098e+00 -8.919107742177821e-17
-3.028010333941887e+01  1.000449000714889e+01  4.360780578478672e-16
 1.849500193912553e+01 -1.686933253306231e+01 -1.558143575146073e-16
 4.118697038734560e+00  2.467347654643973e+01 -3.268081350996963e-16
-3.186866853517690e+01 -6.593776276423674e+00  6.348896268169875e-16
 9.101416863391121e+00 -2.487156450882515e+01  9.357572056754930e-17
 1.745934117738966e+01  1.648190714573453e+01 -4.800554110237437e-16
-3.210286122469056e+01 -5.338124651013648e+00  6.261560007790971e-16
 8.181858123334651e+00 -1.948218456998002e+01  5.456644416114606e-17
 1.314001148278572e+01  1.527458499597568e+01 -3.907829903223899e-16
-3.209432005186692e+01 -5.384107858395217e+00  6.264764611661971e-16
 9.872615114186740e-01  1.637235040610582e+01 -1.857894490351090e-16
-8.134947173662251e+00 -6.352300458038492e+00  2.100386682689792e-16
-3.155035076375245e+01 -3.862968421784087e+00  6.011667236852075e-16
-3.248230520067826e+01 -1.913005235593413e+00  5.977168012048438e-16
-1.006999193596217e+01  8.324926853527808e-01  1.706539584871335e-16
 3.215904887310231e+01 -3.195528813824721e+00 -5.394757376901763e-16
 2.513097915170202e+01  1.022846559303534e+01 -5.523295195727575e-16
-2.517854747357639e+01 -1.971887787597428e+01  6.506865932240021e-16
-2.778086339761689e+01  1.665547063598567e+01  3.232646920387013e-16
 6.327979286713457e+00 -3.239532867091365e+00 -7.932891633248486e-17
-3.023696365467484e+01  1.017739087316505e+01  4.335338421904936e-16
 1.849723218488496e+01 -1.697157978033960e+01 -1.548034940808542e-16
 4.204237173494575e+00  2.457672741716569e+01 -3.273363617178391e-16
-3.187931879691438e+01 -6.542090845640066e+00  6.345481119009464e-16
 9.126950432215189e+00 -2.485068462288963e+01  9.290678699285061e-17
 1.745318206307790e+01  1.649972832917987e+01 -4.801289084139073e-16
-3.209879461089335e+01 -5.362524914424901e+00  6.263343343809339e-16
 8.186363747691743e+00 -1.948635611198518e+01  5.452912227909491e-17
 1.307499136031047e+01  1.522235733376863e+01 -3.890892594274903e-16
-3.209849180866770e+01 -5.358800624926910e+00  6.262906799257148e-16
 1.136502325608896e+00  1.660028427989749e+01 -1.907873051225715e-16
-8.211332891226863e+00 -6.402091945760673e+00  2.119096326742823e-16
-3.160284625656657e+01 -3.770519736665030e+00  6.011510669667315e-16
-3.250147832073365e+01 -1.479791950115128e+00  5.936069006263602e-16
-8.793260840811774e+00  6.939035848715134e-01  1.493569584008265e-16
 3.213466681571232e+01 -2.810589663012308e+00 -5.429969398040607e-16
 2.482590346334068e+01  9.485209127208288e+00 -5.392636436292728e-16
-2.519553348115332e+01 -1.965770210722594e+01  6.503603206862579e-16
-2.806195813895057e+01  1.620137717547486e+01  3.329327536070242e-16
 2.410058391160172e+00 -1.320678173762785e+00 -2.932037541946907e-17
-3.027937452876219e+01  1.037507268604655e+01  4.322574853775563e-16
 1.818853846262659e+01 -1.737102384925676e+01 -1.452057783682724e-16
 4.812825628212578e+00  2.430437865040853e+01 -3.353686345370719e-16
-3.186040899118441e+01 -6.633570438789673e+00  6.351515089445937e-16
 9.172470627632155e+00 -2.474985106134871e+01  9.106067260497803e-17
 1.733959393777896e+01  1.650075705833260e+01 -4.781180420596104e-16
-3.210132678761880e+01 -5.347350377658000e+00  6.262234846279210e-16
 8.221799228742096e+00 -1.946382553256716e+01  5.366701210231057e-17
 1.306237245759258e+01  1.527066296808774e+01 -3.893610138504942e-16
-3.209631722632724e+01 -5.372349652220296e+00  6.263911919722285e-16
 1.002255921364200e+00  1.636620090661113e+01 -1.859931085984098e-16
-8.187190929089814e+00 -6.400595134961280e+00  2.114646184709145e-16
-3.156456484048502e+01 -3.808501046996154e+00  6.008600476505048e-16
-3.248164597864649e+01 -1.908318245347881e+00  5.976569124263908e-16
-1.000294431914259e+01  8.183419917890913e-01  1.696061594186308e-16
 3.214748155581764e+01 -3.097026852857542e+00 -5.402819553469810e-16
 2.521006449045623e+01  1.001143422456240e+01 -5.515070190575355e-16
-2.517125315214691e+01 -1.969167912492518e+01  6.502773247824345e-16
-2.789077029279162e+01  1.648332951108777e+01  3.269893038746545e-16
 4.579296417366047e+00 -2.396523956838781e+00 -5.687062906171380e-17
-3.024703966094752e+01  1.031159705040365e+01  4.323342369580642e-16
 1.837081390034046e+01 -1.716602113110347e+01 -1.505559156612844e-16
 4.462587628109910e+00  2.439033969797003e+01 -3.300189500825354e-16
-3.188214796404309e+01 -6.528289207346416e+00  6.344566534755096e-16
 9.201421328779103e+00 -2.476904287464133e+01  9.074264925299543e-17
 1.737357357322149e+01  1.652996968447033e+01 -4.790228993273896e-16
-3.210415226049761e+01 -5.330359440514837e+00  6.260991915768832e-16
 8.246119819847680e+00 -1.950225268202285e+01  5.362902317578384e-17
 1.309015633638026e+01  1.528378891717210e+01 -3.899903254691676e-16
-3.209936930848711e+01 -5.353971066923093e+00  6.262566741199820e-16
 1.047175522787517e+00  1.642204383414689e+01 -1.873662722867785e-16
-8.131063724945090e+00 -6.343720626079879e+00  2.098814030124842e-16
-3.154497150488529e+01 -3.829864451176364e+00  6.007308621020361e-16
-3.248019219034629e+01 -1.946534795167918e+00  5.980237016923732e-16
-1.029563159101941e+01  8.393279164280182e-01  1.745992557944510e-16
 3.215354321233625e+01 -3.275109290625124e+00 -5.385600973888528e-16
 2.512694636757304e+01  1.030300064147483e+01 -5.530235719165735e-16
-2.517649413547526e+01 -1.972821922568552e+01  6.507460305782476e-16
-2.772738985260294e+01  1.673911382345178e+01  3.214536631522437e-16
 6.946025277379147e+00 -3.531638223750679e+00 -8.732650560386869e-17
-3.022601968319636e+01  1.015877482013199e+01  4.335303542571310e-16
 1.854666688247142e+01 -1.694097981123095e+01 -1.559976470623265e-16
 4.133651199670958e+00  2.456622544524905e+01 -3.259722961417605e-16
-3.189026369654225e+01 -6.488528387139626e+00  6.341925546433523e-16
 9.093356208480664e+00 -2.489373101123705e+01  9.394692229330782e-17
 1.753296359914813e+01  1.648856698896062e+01 -4.814340373079692e-16
-3.209428693614657e+01 -5.389430219612814e+00  6.265305571628720e-16
 8.148896002056796e+00 -1.947842408071760e+01  5.511440675175882e-17
 1.313769426782904e+01  1.522745191073994e+01 -3.902574773893740e-16
-3.210535594581076e+01 -5.317864938928898e+00  6.259922361290441e-16
 9.685060691544165e-01  1.657408082085330e+01 -1.875283803319412e-16
-8.190212932541559e+00 -6.429060133745808e+00  2.118108661469098e-16
-3.153105598911745e+01 -3.756509465772304e+00  5.997295230655348e-16
-3.244992904000132e+01 -2.406232525495713e+00  6.022083600272319e-16
-1.113482432992623e+01  9.318066583252417e-01  1.885835061376669e-16
 3.212273620501459e+01 -3.384679236695130e+00 -5.368860585336465e-16
 2.560136674336948e+01  1.016857243825397e+01 -5.600852474671709e-16
-2.493354903625920e+01 -1.983145512005541e+01  6.474832441004412e-16
-2.776078290119096e+01  1.670970418143449e+01  3.223501056812723e-16
 6.206197671104804e+00 -3.198687871845949e+00 -7.758133468715068e-17
-3.026883730515427e+01  1.023439492120613e+01  4.335153758462233e-16
 1.837894827685351e+01 -1.720811574970530e+01 -1.502681696866449e-16
 4.437392781750118e+00  2.405935312511039e+01 -3.261698109567130e-16
-3.189197391088009e+01 -6.480116700992676e+00  6.341365629311687e-16
 9.156649312265724e+00 -2.465425203849213e+01  9.035998655303291e-17
 1.731581430472571e+01  1.640472913371866e+01 -4.767082030791737e-16
-3.212771514598659e+01 -5.186398892819200e+00  6.250393789057109e-16
 8.064502736671027e+00 -1.913819549794956e+01  5.312056048778179e-17
 1.172221351238282e+01  1.357772471258764e+01 -3.481169612356772e-16
-3.243334356609037e+01 -2.536298552478286e+00  6.032495829138615e-16
 1.165725229313341e+00 -1.305850302395337e+00 -7.328333490026804e-18
 1.671596400890092e+01  9.031989021525412e+00 -3.902809251926429e-16
 2.132653488602704e+01  3.492850948180950e+00 -4.154189021695543e-16
 2.520212458588518e+01  1.349075513620621e+01 -5.871144774109312e-16
-5.478476797253568e+00 -2.273041603865255e+01  3.310427970776514e-16
 9.961537134887811e+00 -8.930106156419805e+00 -8.552383915876287e-17
 3.139024310422788e+01  7.080241886776032e+00 -6.313737330121250e-16
-3.253786567159897e+01  1.695306489490043e-01  5.773082663637622e-16
 8.928627756697288e-01 -6.615937710147715e+00  5.208679844790938e-17
 9.595465255916546e+00  1.146002299516486e+01 -2.885103232948376e-16
 1.974500521512896e+01  1.032532666235512e+00 -3.619948185532305e-16
 1.694928208750936e+01  1.716840844099495e+01 -4.780318525050621e-16
 1.941835323920709e+01 -2.147706758216496e+01 -1.249036915437582e-16
 3.050262605391686e+01  6.142505448824983e+00 -6.059426275688298e-16
 1.566830998255205e+01  1.171603040310821e+01 -3.992142222823350e-16
-2.465441268050535e+01 -8.437463234493725e+00  5.254465521403451e-16
-2.392705579463411e+01  5.291380903776356e+00  3.714434825090763e-16
 2.676608060244465e+00 -3.085956632875327e+01  2.694374004487712e-16
-3.124678035471314e+01  4.297117046361483e-01  5.516585972576292e-16
-2.697448004006399e+01  9.705813508601604e+00  3.803193406852611e-16
-3.191870723314549e+01  6.342010454796638e+00  5.028696156700830e-16
 5.724152459381282e+00 -1.135260497532379e+01  1.477577101994707e-17
-6.969341205963649e+00 -4.631401430921569e+00  1.716137073380236e-16
-2.596081718321545e+01 -1.351317081857887e+01  6.008466301651376e-16
-3.220189273957860e+01 -4.683844313883663e+00  6.211958919734471e-16
 3.129026135673624e+01  6.336529318093554e+00 -6.219530620775760e-16
-1.148543743650626e+01 -2.256549761216419e+01  4.362493500707269e-16
-1.396104920396878e+01  2.998834731271179e+00  2.176415864440732e-16
-7.041706538165123e-01 -1.146297579283306e+00  2.430934795959228e-17
-4.001243062727149e+00  7.513497322014859e+00 -5.991562382832335e-18
-9.365563108625810e+00 -1.481064403963457e+00  1.818887658910772e-16
-4.569583154693819e-01 -7.788796925607065e+00  8.815917726616432e-17
 2.115403017988148e+01  9.990307745723266e+00 -4.791079833859399e-16
-2.904788519894534e+01 -9.394576871374690e+00  6.134676312557280e-16
 1.010205370907018e+00  6.253060170282676e+00 -8.222573127024733e-17
 3.093294095886702e+01  7.323418633257080e+00 -6.257340485788466e-16
-3.177768969970201e+01 -2.003137339505926e-01  5.675800448663357e-16
 2.517364151024019e+01 -1.406053717552925e+01 -3.035280671967338e-16
 2.797620627951324e+01 -1.203410388811090e+00 -4.855053573895754e-16
 3.004149726965861e+01  4.076910255463715e+00 -5.765130505647045e-16
 2.733116850861170e+01  1.761886460339937e+01 -6.674181787938172e-16
-8.302145555890247e+00 -4.175264952758909e+00  1.906459139387738e-16
-3.083615726115717e+01 -1.032529093039564e+01  6.548548146192374e-16
-1.879187025151207e+01 -4.722487560271907e+00  3.829455910166918e-16
-1.466350860987381e+01 -2.134808294564805e+00  2.828890066905682e-16
-2.619875557329436e+01 -3.909156769539962e+00  5.064032721532317e-16
 2.242712692415986e+01 -3.351933373189066e+00 -3.646775779207394e-16
-1.632753301415166e+01 -5.188021166205454e+00  3.438729589870644e-16
-2.795522590782032e+01  1.365896358142652e+00  4.834625023401868e-16
-3.057151651857247e+01 -5.113560339129577e+00  5.965965783511951e-16
-5.081708947589881e+00  1.167986244483706e+00  7.843443803820287e-17
 1.839583433879316e+01  5.645621599072718e+00 -3.853825264380686e-16
-1.634658928248361e+01 -2.290165066217618e+01  5.262131962374094e-16
-1.171411673730849e+01 -1.261658972300769e+00  2.214297680603078e-16
-9.763274178200767e+00  2.032452056118604e+01 -3.507795540955579e-17
 3.094790394728357e+01  2.013892555754543e+00 -5.714468811540328e-16
-7.889857660102988e+00 -4.974597192997495e+00  1.915216074571637e-16
-2.884329219445489e+01  1.492628141038656e+01  3.599386709050702e-16
 2.915205849941297e+01 -1.213658612810635e+01 -3.940966412228750e-16
 3.200048285189610e+01  4.717983728023372e+00 -6.179623328039525e-16
 1.006817445787161e+01  1.161737803936198e+01 -2.985395133244263e-16
 9.112479509972477e+00 -1.497174372070580e+01 -8.338214718997290e-18
 2.440072206668248e+01  4.447237129701896e+00 -4.799337013616532e-16
 2.283915932411222e+01 -1.703940196797194e+01 -2.313764183986988e-16
 2.847498077572667e+01  1.046253822627447e+01 -6.142450286194021e-16
-1.714228048172543e+01 -2.208711209131614e+01  5.320043823456402e-16
VECTORS SF_force double
0.000000000000000e+00 0.000000000000000e+00 0.000000000000000e+00
0.000000000000000e+00 0.000000000000000e+00 0.000000000000000e+00
0.000000000000000e+00 0.000000000000000e+00 0.000000000000000e+00
0.000000000000000e+00 0.000000000000000e+00 0.000000000000000e+00
0.000000000000000e+00 0.000000000000000e+00 0.000000000000000e+00
0.000000000000000e+00 0.000000000000000e+00 0.000000000000000e+00
0.000000000000000e+00 0.000000000000000e+00 0.000000000000000e+00
0.000000000000000e+00 0.000000000000000e+00 0.000000000000000e+00
0.000000000000000e+00 0.000000000000000e+00 0.000000000000000e+00
0.000000000000000e+00 0.000000000000000e+00 0.000000000000000e+00
0.000000000000000e+00 0.000000000000000e+00 0.000000000000000e+00
0.000000000000000e+00 0.000000000000000e+00 0.000000000000000e+00
0.000000000000000e+00 0.000000000000000e+00 0.000000000000000e+00
0.000000000000000e+00 0.000000000000000e+00 0.000000000000000e+00
0.000000000000000e+00 0.000000000000000e+00 0.000000000000000e+00
0.000000000000000e+00 0.000000000000000e+00 0.000000000000000e+00
0.000000000000000e+00 0.000000000000000e+00 0.000000000000000e+00
0.000000000000000e+00 0.000000000000000e+00 0.000000000000000e+00
0.000000000000000e+00 0.000000000000000e+00 0.000000000000000e+00
0.000000000000000e+00 0.000000000000000e+00 0.000000000000000e+00
0.000000000000000e+00 0.000000000000000e+00 0.000000000000000e+00
0.000000000000000e+00 0.000000000000000e+00 0.000000000000000e+00
0.000000000000000e+00 0.000000000000000e+00 0.000000000000000e+00
0.000000000000000e+00 0.000000000000000e+00 0.000000000000000e+00
0.000000000000000e+00 0.000000000000000e+00 0.000000000000000e+00
0.000000000000000e+00 0.000000000000000e+00 0.000000000000000e+00
0.000000000000000e+00 0.000000000000000e+00 0.000000000000000e+00
0.000000000000000e+00 0.000000000000000e+00 0.000000000000000e+00
0.000000000000000e+00 0.000000000000000e+00 0.000000000000000e+00
0.000000000000000e+00 0.000000000000000e+00 0.000000000000000e+00
0.000000000000000e+00 0.000000000000000e+00 0.000000000000000e+00
0.000000000000000e+00 0.000000000000000e+00 0.000000000000000e+00
0.000000000000000e+00 0.000000000000000e+00 0.000000000000000e+00
0.000000000000000e+00 0.000000000000000e+00 0.000000000000000e+00
0.000000000000000e+00 0.000000000000000e+00 0.000000000000000e+00
0.000000000000000e+00 0.000000000000000e+00 0.000000000000000e+00
0.000000000000000e+00 0.000000000000000e+00 0.000000000000000e+00
0.000000000000000e+00 0.000000000000000e+00 0.000000000000000e+00
0.000000000000000e+00 0.000000000000000e+00 0.000000000000000e+00
0.000000000000000e+00 0.000000000000000e+00 0.000000000000000e+00
0.000000000000000e+00 0.000000000000000e+00 0.000000000000000e+00
0.000000000000000e+00 0.000000000000000e+00 0.000000000000000e+00
0.000000000000000e+00 0.000000000000000e+00 0.000000000000000e+00
0.000000000000000e+00 0.000000000000000e+00 0.000000000000000e+00
0.000000000000000e+00 0.000000000000000e+00 0.000000000000000e+00
0.000000000000000e+00 0.000000000000000e+00 0.000000000000000e+00
0.000000000000000e+00 0.000000000000000e+00 0.000000000000000e+00
0.000000000000000e+00 0.000000000000000e+00 0.000000000000000e+00
0.000000000000000e+00 0.000000000000000e+00 0.000000000000000e+00
0.000000000000000e+00 0.000000000000000e+00 0.000000000000000e+00
0.000000000000000e+00 0.000000000000000e+00 0.000000000000000e+00
0.000000000000000e+00 0.000000000000000e+00 0.000000000000000e+00
0.000000000000000e+00 0.000000000000000e+00 0.000000000000000e+00
0.000000000000000e+00 0.000000000000000e+00 0.000000000000000e+00
0.000000000000000e+00 0.000000000000000e+00 0.000000000000000e+00
0.000000000000000e+00 0.000000000000000e+00 0.000000000000000e+00
0.000000000000000e+00 0.000000000000000e+00 0.000000000000000e+00
0.000000000000000e+00 0.000000000000000e+00 0.000000000000000e+00
0.000000000000000e+00 0.000000000000000e+00 0.000000000000000e+00
0.000000000000000e+00 0.000000000000000e+00 0.000000000000000e+00
0.000000000000000e+00 0.000000000000000e+00 0.000000000000000e+00
0.000000000000000e+00 0.000000000000000e+00 0.000000000000000e+00
0.000000000000000e+00 0.000000000000000e+00 0.000000000000000e+00
0.000000000000000e+00 0.000000000000000e+00 0.000000000000000e+00
0.000000000000000e+00 0.000000000000000e+00 0.000000000000000e+00
0.000000000000000e+00 0.000000000000000e+00 0.000000000000000e+00
0.000000000000000e+00 0.000000000000000e+00 0.000000000000000e+00
0.000000000000000e+00 0.000000000000000e+00 0.000000000000000e+00
0.000000000000000e+00 0.000000000000000e+00 0.000000000000000e+00
0.000000000000000e+00 0.000000000000000e+00 0.000000000000000e+00
0.000000000000000e+00 0.000000000000000e+00 0.000000000000000e+00
0.000000000000000e+00 0.000000000000000e+00 0.000000000000000e+00
0.000000000000000e+00 0.000000000000000e+00 0.000000000000000e+00
0.000000000000000e+00 0.000000000000000e+00 0.000000000000000e+00
0.000000000000000e+00 0.000000000000000e+00 0.000000000000000e+00
0.000000000000000e+00 0.000000000000000e+00 0.000000000000000e+00
0.000000000000000e+00 0.000000000000000e+00 0.000000000000000e+00
0.000000000000000e+00 0.000000000000000e+00 0.000000000000000e+00
0.000000000000000e+00 0.000000000000000e+00 0.000000000000000e+00
0.000000000000000e+00 0.000000000000000e+00 0.000000000000000e+00
0.000000000000000e+00 0.000000000000000e+00 0.000000000000000e+00
0.000000000000000e+00 0.000000000000000e+00 0.000000000000000e+00
0.000000000000000e+00 0.000000000000000e+00 0.000000000000000e+00
0.000000000000000e+00 0.000000000000000e+00 0.000000000000000e+00
0.000000000000000e+00 0.000000000000000e+00 0.000000000000000e+00
0.000000000000000e+00 0.000000000000000e+00 0.000000000000000e+00
0.000000000000000e+00 0.000000000000000e+00 0.000000000000000e+00
0.000000000000000e+00 0.000000000000000e+00 0.000000000000000e+00
0.000000000000000e+00 0.000000000000000e+00 0.000000000000000e+00
0.000000000000000e+00 0.000000000000000e+00 0.000000000000000e+00
0.000000000000000e+00 0.000000000000000e+00 0.000000000000000e+00
0.000000000000000e+00 0.000000000000000e+00 0.000000000000000e+00
0.000000000000000e+00 0.000000000000000e+00 0.000000000000000e+00
0.000000000000000e+00 0.000000000000000e+00 0.000000000000000e+00
0.000000000000000e+00 0.000000000000000e+00 0.000000000000000e+00
0.000000000000000e+00 0.000000000000000e+00 0.000000000000000e+00
0.000000000000000e+00 0.000000000000000e+00 0.000000000000000e+00
0.000000000000000e+00 0.000000000000000e+00 0.000000000000000e+00
0.000000000000000e+00 0.000000000000000e+00 0.000000000000000e+00
0.000000000000000e+00 0.000000000000000e+00 0.000000000000000e+00
0.000000000000000e+00 0.000000000000000e+00 0.000000000000000e+00
0.000000000000000e+00 0.000000000000000e+00 0.000000000000000e+00
0.000000000000000e+00 0.000000000000000e+00 0.000000000000000e+00
0.000000000000000e+00 0.000000000000000e+00 0.000000000000000e+00
0.000000000000000e+00 0.000000000000000e+00 0.000000000000000e+00
0.000000000000000e+00 0.000000000000000e+00 0.000000000000000e+00
0.000000000000000e+00 0.000000000000000e+00 0.000000000000000e+00
0.000000000000000e+00 0.000000000000000e+00 0.000000000000000e+00
0.000000000000000e+00 0.000000000000000e+00 0.000000000000000e+00
0.000000000000000e+00 0.000000000000000e+00 0.000000000000000e+00
0.000000000000000e+00 0.000000000000000e+00 0.000000000000000e+00
0.000000000000000e+00 0.000000000000000e+00 0.000000000000000e+00
0.000000000000000e+00 0.000000000000000e+00 0.000000000000000e+00
0.000000000000000e+00 0.000000000000000e+00 0.000000000000000e+00
0.000000000000000e+00 0.000000000000000e+00 0.000000000000000e+00
0.000000000000000e+00 0.000000000000000e+00 0.000000000000000e+00
0.000000000000000e+00 0.000000000000000e+00 0.000000000000000e+00
0.000000000000000e+00 0.000000000000000e+00 0.000000000000000e+00
0.000000000000000e+00 0.000000000000000e+00 0.000000000000000e+00
0.000000000000000e+00 0.000000000000000e+00 0.000000000000000e+00
0.000000000000000e+00 0.000000000000000e+00 0.000000000000000e+00
0.000000000000000e+00 0.000000000000000e+00 0.000000000000000e+00
0.000000000000000e+00 0.000000000000000e+00 0.000000000000000e+00
0.000000000000000e+00 0.000000000000000e+00 0.000000000000000e+00
0.000000000000000e+00 0.000000000000000e+00 0.000000000000000e+00
0.000000000000000e+00 0.000000000000000e+00 0.000000000000000e+00
0.000000000000000e+00 0.000000000000000e+00 0.000000000000000e+00
0.000000000000000e+00 0.000000000000000e+00 0.000000000000000e+00
0.000000000000000e+00 0.000000000000000e+00 0.000000000000000e+00
0.000000000000000e+00 0.000000000000000e+00 0.000000000000000e+00
0.000000000000000e+00 0.000000000000000e+00 0.000000000000000e+00
0.000000000000000e+00 0.000000000000000e+00 0.000000000000000e+00
0.000000000000000e+00 0.000000000000000e+00 0.000000000000000e+00
0.000000000000000e+00 0.000000000000000e+00 0.000000000000000e+00
0.000000000000000e+00 0.000000000000000e+00 0.000000000000000e+00
0.000000000000000e+00 0.000000000000000e+00 0.000000000000000e+00
0.000000000000000e+00 0.000000000000000e+00 0.000000000000000e+00
0.000000000000000e+00 0.000000000000000e+00 0.000000000000000e+00
0.000000000000000e+00 0.000000000000000e+00 0.000000000000000e+00
0.000000000000000e+00 0.000000000000000e+00 0.000000000000000e+00
0.000000000000000e+00 0.000000000000000e+00 0.000000000000000e+00
0.000000000000000e+00 0.000000000000000e+00 0.000000000000000e+00
0.000000000000000e+00 0.000000000000000e+00 0.000000000000000e+00
0.000000000000000e+00 0.000000000000000e+00 0.000000000000000e+00
0.000000000000000e+00 0.000000000000000e+00 0.000000000000000e+00
0.000000000000000e+00 0.000000000000000e+00 0.000000000000000e+00
0.000000000000000e+00 0.000000000000000e+00 0.000000000000000e+00
0.000000000000000e+00 0.000000000000000e+00 0.000000000000000e+00
0.000000000000000e+00 0.000000000000000e+00 0.000000000000000e+00
0.000000000000000e+00 0.000000000000000e+00 0.000000000000000e+00
0.000000000000000e+00 0.000000000000000e+00 0.000000000000000e+00
0.000000000000000e+00 0.000000000000000e+00 0.000000000000000e+00
0.000000000000000e+00 0.000000000000000e+00 0.000000000000000e+00
0.000000000000000e+00 0.000000000000000e+00 0.000000000000000e+00
0.000000000000000e+00 0.000000000000000e+00 0.000000000000000e+00
0.000000000000000e+00 0.000000000000000e+00 0.000000000000000e+00
0.000000000000000e+00 0.000000000000000e+00 0.000000000000000e+00
0.000000000000000e+00 0.000000000000000e+00 0.000000000000000e+00
0.000000000000000e+00 0.000000000000000e+00 0.000000000000000e+00
0.000000000000000e+00 0.000000000000000e+00 0.000000000000000e+00
0.000000000000000e+00 0.000000000000000e+00 0.000000000000000e+00
0.000000000000000e+00 0.000000000000000e+00 0.000000000000000e+00
0.000000000000000e+00 0.000000000000000e+00 0.000000000000000e+00
0.000000000000000e+00 0.000000000000000e+00 0.000000000000000e+00
0.000000000000000e+00 0.000000000000000e+00 0.000000000000000e+00
0.000000000000000e+00 0.000000000000000e+00 0.000000000000000e+00
0.000000000000000e+00 0.000000000000000e+00 0.000000000000000e+00
0.000000000000000e+00 0.000000000000000e+00 0.000000000000000e+00
0.000000000000000e+00 0.000000000000000e+00 0.000000000000000e+00
0.000000000000000e+00 0.000000000000000e+00 0.000000000000000e+00
0.000000000000000e+00 0.000000000000000e+00 0.000000000000000e+00
0.000000000000000e+00 0.000000000000000e+00 0.000000000000000e+00
0.000000000000000e+00 0.000000000000000e+00 0.000000000000000e+00
0.000000000000000e+00 0.000000000000000e+00 0.000000000000000e+00
0.000000000000000e+00 0.000000000000000e+00 0.000000000000000e+00
0.000000000000000e+00 0.000000000000000e+00 0.000000000000000e+00
0.000000000000000e+00 0.000000000000000e+00 0.000000000000000e+00
0.000000000000000e+00 0.000000000000000e+00 0.000000000000000e+00
0.000000000000000e+00 0.000000000000000e+00 0.000000000000000e+00
0.000000000000000e+00 0.000000000000000e+00 0.000000000000000e+00
0.000000000000000e+00 0.000000000000000e+00 0.000000000000000e+00
0.000000000000000e+00 0.000000000000000e+00 0.000000000000000e+00
0.000000000000000e+00 0.000000000000000e+00 0.000000000000000e+00
0.000000000000000e+00 0.000000000000000e+00 0.000000000000000e+00
0.000000000000000e+00 0.000000000000000e+00 0.000000000000000e+00
0.000000000000000e+00 0.000000000000000e+00 0.000000000000000e+00
0.000000000000000e+00 0.000000000000000e+00 0.000000000000000e+00
0.000000000000000e+00 0.000000000000000e+00 0.000000000000000e+00
0.000000000000000e+00 0.000000000000000e+00 0.000000000000000e+00
0.000000000000000e+00 0.000000000000000e+00 0.000000000000000e+00
0.000000000000000e+00 0.000000000000000e+00 0.000000000000000e+00
0.000000000000000e+00 0.000000000000000e+00 0.000000000000000e+00
0.000000000000000e+00 0.000000000000000e+00 0.000000000000000e+00
0.000000000000000e+00 0.000000000000000e+00 0.000000000000000e+00
0.000000000000000e+00 0.000000000000000e+00 0.000000000000000e+00
0.000000000000000e+00 0.000000000000000e+00 0.000000000000000e+00
0.000000000000000e+00 0.000000000000000e+00 0.000000000000000e+00
0.000000000000000e+00 0.000000000000000e+00 0.000000000000000e+00
0.000000000000000e+00 0.000000000000000e+00 0.000000000000000e+00
0.000000000000000e+00 0.000000000000000e+00 0.000000000000000e+00
0.000000000000000e+00 0.000000000000000e+00 0.000000000000000e+00
0.000000000000000e+00 0.000000000000000e+00 0.000000000000000e+00
0.000000000000000e+00 0.000000000000000e+00 0.000000000000000e+00
0.000000000000000e+00 0.000000000000000e+00 0.000000000000000e+00
0.000000000000000e+00 0.000000000000000e+00 0.000000000000000e+00
0.000000000000000e+00 0.000000000000000e+00 0.000000000000000e+00
0.000000000000000e+00 0.000000000000000e+00 0.000000000000000e+00
0.000000000000000e+00 0.000000000000000e+00 0.000000000000000e+00
0.000000000000000e+00 0.000000000000000e+00 0.000000000000000e+00
0.000000000000000e+00 0.000000000000000e+00 0.000000000000000e+00
0.000000000000000e+00 0.000000000000000e+00 0.000000000000000e+00
0.000000000000000e+00 0.000000000000000e+00 0.000000000000000e+00
0.000000000000000e+00 0.000000000000000e+00 0.000000000000000e+00
0.000000000000000e+00 0.000000000000000e+00 0.000000000000000e+00
0.000000000000000e+00 0.000000000000000e+00 0.000000000000000e+00
0.000000000000000e+00 0.000000000000000e+00 0.000000000000000e+00
0.000000000000000e+00 0.000000000000000e+00 0.000000000000000e+00
0.000000000000000e+00 0.000000000000000e+00 0.000000000000000e+00
0.000000000000000e+00 0.000000000000000e+00 0.000000000000000e+00
0.000000000000000e+00 0.000000000000000e+00 0.000000000000000e+00
0.000000000000000e+00 0.000000000000000e+00 0.000000000000000e+00
0.000000000000000e+00 0.000000000000000e+00 0.000000000000000e+00
0.000000000000000e+00 0.000000000000000e+00 0.000000000000000e+00
0.000000000000000e+00 0.000000000000000e+00 0.000000000000000e+00
0.000000000000000e+00 0.000000000000000e+00 0.000000000000000e+00
0.000000000000000e+00 0.000000000000000e+00 0.000000000000000e+00
0.000000000000000e+00 0.000000000000000e+00 0.000000000000000e+00
0.000000000000000e+00 0.000000000000000e+00 0.000000000000000e+00
0.000000000000000e+00 0.000000000000000e+00 0.000000000000000e+00
0.000000000000000e+00 0.000000000000000e+00 0.000000000000000e+00
0.000000000000000e+00 0.000000000000000e+00 0.000000000000000e+00
0.000000000000000e+00 0.000000000000000e+00 0.000000000000000e+00
0.000000000000000e+00 0.000000000000000e+00 0.000000000000000e+00
0.000000000000000e+00 0.000000000000000e+00 0.000000000000000e+00
0.000000000000000e+00 0.000000000000000e+00 0.000000000000000e+00
0.000000000000000e+00 0.000000000000000e+00 0.000000000000000e+00
0.000000000000000e+00 0.000000000000000e+00 0.000000000000000e+00
0.000000000000000e+00 0.000000000000000e+00 0.000000000000000e+00
0.000000000000000e+00 0.000000000000000e+00 0.000000000000000e+00
0.000000000000000e+00 0.000000000000000e+00 0.000000000000000e+00
0.000000000000000e+00 0.000000000000000e+00 0.000000000000000e+00
0.000000000000000e+00 0.000000000000000e+00 0.000000000000000e+00
0.000000000000000e+00 0.000000000000000e+00 0.000000000000000e+00
0.000000000000000e+00 0.000000000000000e+00 0.000000000000000e+00
0.000000000000000e+00 0.000000000000000e+00 0.000000000000000e+00
0.000000000000000e+00 0.000000000000000e+00 0.000000000000000e+00
0.000000000000000e+00 0.000000000000000e+00 0.000000000000000e+00
0.000000000000000e+00 0.000000000000000e+00 0.000000000000000e+00
0.000000000000000e+00 0.000000000000000e+00 0.000000000000000e+00
0.000000000000000e+00 0.000000000000000e+00 0.000000000000000e+00
0.000000000000000e+00 0.000000000000000e+00 0.000000000000000e+00
0.000000000000000e+00 0.000000000000000e+00 0.000000000000000e+00
0.000000000000000e+00 0.000000000000000e+00 0.000000000000000e+00
0.000000000000000e+00 0.000000000000000e+00 0.000000000000000e+00
0.000000000000000e+00 0.000000000000000e+00 0.000000000000000e+00
0.000000000000000e+00 0.000000000000000e+00 0.000000000000000e+00
0.000000000000000e+00 0.000000000000000e+00 0.000000000000000e+00
0.000000000000000e+00 0.000000000000000e+00 0.000000000000000e+00
0.000000000000000e+00 0.000000000000000e+00 0.000000000000000e+00
0.000000000000000e+00 0.000000000000000e+00 0.000000000000000e+00
0.000000000000000e+00 0.000000000000000e+00 0.000000000000000e+00
0.000000000000000e+00 0.000000000000000e+00 0.000000000000000e+00
0.000000000000000e+00 0.000000000000000e+00 0.000000000000000e+00
0.000000000000000e+00 0.000000000000000e+00 0.000000000000000e+00
0.000000000000000e+00 0.000000000000000e+00 0.000000000000000e+00
0.000000000000000e+00 0.000000000000000e+00 0.000000000000000e+00
0.000000000000000e+00 0.000000000000000e+00 0.000000000000000e+00
0.000000000000000e+00 0.000000000000000e+00 0.000000000000000e+00
0.000000000000000e+00 0.000000000000000e+00 0.000000000000000e+00
0.000000000000000e+00 0.000000000000000e+00 0.000000000000000e+00
0.000000000000000e+00 0.000000000000000e+00 0.000000000000000e+00
0.000000000000000e+00 0.000000000000000e+00 0.000000000000000e+00
0.000000000000000e+00 0.000000000000000e+00 0.000000000000000e+00
0.000000000000000e+00 0.000000000000000e+00 0.000000000000000e+00
0.000000000000000e+00 0.000000000000000e+00 0.000000000000000e+00
0.000000000000000e+00 0.000000000000000e+00 0.000000000000000e+00
0.000000000000000e+00 0.000000000000000e+00 0.000000000000000e+00
0.000000000000000e+00 0.000000000000000e+00 0.000000000000000e+00
0.000000000000000e+00 0.000000000000000e+00 0.000000000000000e+00
0.000000000000000e+00 0.000000000000000e+00 0.000000000000000e+00
0.000000000000000e+00 0.000000000000000e+00 0.000000000000000e+00
0.000000000000000e+00 0.000000000000000e+00 0.000000000000000e+00
0.000000000000000e+00 0.000000000000000e+00 0.000000000000000e+00
0.000000000000000e+00 0.000000000000000e+00 0.000000000000000e+00
0.000000000000000e+00 0.000000000000000e+00 0.000000000000000e+00
0.000000000000000e+00 0.000000000000000e+00 0.000000000000000e+00
0.000000000000000e+00 0.000000000000000e+00 0.000000000000000e+00
0.000000000000000e+00 0.000000000000000e+00 0.000000000000000e+00
0.000000000000000e+00 0.000000000000000e+00 0.000000000000000e+00
0.000000000000000e+00 0.000000000000000e+00 0.000000000000000e+00
0.000000000000000e+00 0.000000000000000e+00 0.000000000000000e+00
0.000000000000000e+00 0.000000000000000e+00 0.000000000000000e+00
0.000000000000000e+00 0.000000000000000e+00 0.000000000000000e+00
0.000000000000000e+00 0.000000000000000e+00 0.000000000000000e+00
0.000000000000000e+00 0.000000000000000e+00 0.000000000000000e+00
0.000000000000000e+00 0.000000000000000e+00 0.000000000000000e+00
0.000000000000000e+00 0.000000000000000e+00 0.000000000000000e+00
0.000000000000000e+00 0.000000000000000e+00 0.000000000000000e+00
0.000000000000000e+00 0.000000000000000e+00 0.000000000000000e+00
0.000000000000000e+00 0.000000000000000e+00 0.000000000000000e+00
0.000000000000000e+00 0.000000000000000e+00 0.000000000000000e+00
0.000000000000000e+00 0.000000000000000e+00 0.000000000000000e+00
0.000000000000000e+00 0.000000000000000e+00 0.000000000000000e+00
0.000000000000000e+00 0.000000000000000e+00 0.000000000000000e+00
0.000000000000000e+00 0.000000000000000e+00 0.000000000000000e+00
0.000000000000000e+00 0.000000000000000e+00 0.000000000000000e+00
0.000000000000000e+00 0.000000000000000e+00 0.000000000000000e+00
0.000000000000000e+00 0.000000000000000e+00 0.000000000000000e+00
0.000000000000000e+00 0.000000000000000e+00 0.000000000000000e+00
0.000000000000000e+00 0.000000000000000e+00 0.000000000000000e+00
0.000000000000000e+00 0.000000000000000e+00 0.000000000000000e+00
0.000000000000000e+00 0.000000000000000e+00 0.000000000000000e+00
0.000000000000000e+00 0.000000000000000e+00 0.000000000000000e+00
0.000000000000000e+00 0.000000000000000e+00 0.000000000000000e+00
0.000000000000000e+00 0.000000000000000e+00 0.000000000000000e+00
0.000000000000000e+00 0.000000000000000e+00 0.000000000000000e+00
0.000000000000000e+00 0.000000000000000e+00 0.000000000000000e+00
0.000000000000000e+00 0.000000000000000e+00 0.000000000000000e+00
0.000000000000000e+00 0.000000000000000e+00 0.000000000000000e+00
0.000000000000000e+00 0.000000000000000e+00 0.000000000000000e+00
0.000000000000000e+00 0.000000000000000e+00 0.000000000000000e+00
0.000000000000000e+00 0.000000000000000e+00 0.000000000000000e+00
0.000000000000000e+00 0.000000000000000e+00 0.000000000000000e+00
0.000000000000000e+00 0.000000000000000e+00 0.000000000000000e+00
0.000000000000000e+00 0.000000000000000e+00 0.000000000000000e+00
0.000000000000000e+00 0.000000000000000e+00 0.000000000000000e+00
0.000000000000000e+00 0.000000000000000e+00 0.000000000000000e+00
0.000000000000000e+00 0.000000000000000e+00 0.000000000000000e+00
0.000000000000000e+00 0.000000000000000e+00 0.000000000000000e+00
0.000000000000000e+00 0.000000000000000e+00 0.000000000000000e+00
0.000000000000000e+00 0.000000000000000e+00 0.000000000000000e+00
0.000000000000000e+00 0.000000000000000e+00 0.000000000000000e+00
0.000000000000000e+00 0.000000000000000e+00 0.000000000000000e+00
0.000000000000000e+00 0.000000000000000e+00 0.000000000000000e+00
0.000000000000000e+00 0.000000000000000e+00 0.000000000000000e+00
0.000000000000000e+00 0.000000000000000e+00 0.000000000000000e+00
0.000000000000000e+00 0.000000000000000e+00 0.000000000000000e+00
0.000000000000000e+00 0.000000000000000e+00 0.000000000000000e+00
0.000000000000000e+00 0.000000000000000e+00 0.000000000000000e+00
0.000000000000000e+00 0.000000000000000e+00 0.000000000000000e+00
0.000000000000000e+00 0.000000000000000e+00 0.000000000000000e+00
0.000000000000000e+00 0.000000000000000e+00 0.000000000000000e+00
0.000000000000000e+00 0.000000000000000e+00 0.000000000000000e+00
0.000000000000000e+00 0.000000000000000e+00 0.000000000000000e+00
0.000000000000000e+00 0.000000000000000e+00 0.000000000000000e+00
0.000000000000000e+00 0.000000000000000e+00 0.000000000000000e+00
0.000000000000000e+00 0.000000000000000e+00 0.000000000000000e+00
0.000000000000000e+00 0.000000000000000e+00 0.000000000000000e+00
0.000000000000000e+00 0.000000000000000e+00 0.000000000000000e+00
0.000000000000000e+00 0.000000000000000e+00 0.000000000000000e+00
0.000000000000000e+00 0.000000000000000e+00 0.000000000000000e+00
0.000000000000000e+00 0.000000000000000e+00 0.000000000000000e+00
0.000000000000000e+00 0.000000000000000e+00 0.000000000000000e+00
0.000000000000000e+00 0.000000000000000e+00 0.000000000000000e+00
0.000000000000000e+00 0.000000000000000e+00 0.000000000000000e+00
0.000000000000000e+00 0.000000000000000e+00 0.000000000000000e+00
0.000000000000000e+00 0.000000000000000e+00 0.000000000000000e+00
0.000000000000000e+00 0.000000000000000e+00 0.000000000000000e+00
0.000000000000000e+00 0.000000000000000e+00 0.000000000000000e+00
0.000000000000000e+00 0.000000000000000e+00 0.000000000000000e+00
0.000000000000000e+00 0.000000000000000e+00 0.000000000000000e+00
0.000000000000000e+00 0.000000000000000e+00 0.000000000000000e+00
0.000000000000000e+00 0.000000000000000e+00 0.000000000000000e+00
0.000000000000000e+00 0.000000000000000e+00 0.000000000000000e+00
0.000000000000000e+00 0.000000000000000e+00 0.000000000000000e+00
0.000000000000000e+00 0.000000000000000e+00 0.000000000000000e+00
0.000000000000000e+00 0.000000000000000e+00 0.000000000000000e+00
0.000000000000000e+00 0.000000000000000e+00 0.000000000000000e+00
0.000000000000000e+00 0.000000000000000e+00 0.000000000000000e+00
0.000000000000000e+00 0.000000000000000e+00 0.000000000000000e+00
0.000000000000000e+00 0.000000000000000e+00 0.000000000000000e+00
0.000000000000000e+00 0.000000000000000e+00 0.000000000000000e+00
0.000000000000000e+00 0.000000000000000e+00 0.000000000000000e+00
0.000000000000000e+00 0.000000000000000e+00 0.000000000000000e+00
0.000000000000000e+00 0.000000000000000e+00 0.000000000000000e+00
0.000000000000000e+00 0.000000000000000e+00 0.000000000000000e+00
0.000000000000000e+00 0.000000000000000e+00 0.000000000000000e+00
0.000000000000000e+00 0.000000000000000e+00 0.000000000000000e+00
0.000000000000000e+00 0.000000000000000e+00 0.000000000000000e+00
0.000000000000000e+00 0.000000000000000e+00 0.000000000000000e+00
0.000000000000000e+00 0.000000000000000e+00 0.000000000000000e+00
0.000000000000000e+00 0.000000000000000e+00 0.000000000000000e+00
0.000000000000000e+00 0.000000000000000e+00 0.000000000000000e+00
0.000000000000000e+00 0.000000000000000e+00 0.000000000000000e+00
0.000000000000000e+00 0.000000000000000e+00 0.000000000000000e+00
0.000000000000000e+00 0.000000000000000e+00 0.000000000000000e+00
0.000000000000000e+00 0.000000000000000e+00 0.000000000000000e+00
0.000000000000000e+00 0.000000000000000e+00 0.000000000000000e+00
0.000000000000000e+00 0.000000000000000e+00 0.000000000000000e+00
0.000000000000000e+00 0.000000000000000e+00 0.000000000000000e+00
0.000000000000000e+00 0.000000000000000e+00 0.000000000000000e+00
0.000000000000000e+00 0.000000000000000e+00 0.000000000000000e+00
0.000000000000000e+00 0.000000000000000e+00 0.000000000000000e+00
0.000000000000000e+00 0.000000000000000e+00 0.000000000000000e+00
0.000000000000000e+00 0.000000000000000e+00 0.000000000000000e+00
0.000000000000000e+00 0.000000000000000e+00 0.000000000000000e+00
0.000000000000000e+00 0.000000000000000e+00 0.000000000000000e+00
0.000000000000000e+00 0.000000000000000e+00 0.000000000000000e+00
0.000000000000000e+00 0.000000000000000e+00 0.000000000000000e+00
0.000000000000000e+00 0.000000000000000e+00 0.000000000000000e+00
0.000000000000000e+00 0.000000000000000e+00 0.000000000000000e+00
0.000000000000000e+00 0.000000000000000e+00 0.000000000000000e+00
0.000000000000000e+00 0.000000000000000e+00 0.000000000000000e+00
0.000000000000000e+00 0.000000000000000e+00 0.000000000000000e+00
0.000000000000000e+00 0.000000000000000e+00 0.000000000000000e+00
0.000000000000000e+00 0.000000000000000e+00 0.000000000000000e+00
0.000000000000000e+00 0.000000000000000e+00 0.000000000000000e+00
0.000000000000000e+00 0.000000000000000e+00 0.000000000000000e+00
0.000000000000000e+00 0.000000000000000e+00 0.000000000000000e+00
0.000000000000000e+00 0.000000000000000e+00 0.000000000000000e+00
0.000000000000000e+00 0.000000000000000e+00 0.000000000000000e+00
0.000000000000000e+00 0.000000000000000e+00 0.000000000000000e+00
0.000000000000000e+00 0.000000000000000e+00 0.000000000000000e+00
0.000000000000000e+00 0.000000000000000e+00 0.000000000000000e+00
0.000000000000000e+00 0.000000000000000e+00 0.000000000000000e+00
0.000000000000000e+00 0.000000000000000e+00 0.000000000000000e+00
0.000000000000000e+00 0.000000000000000e+00 0.000000000000000e+00
0.000000000000000e+00 0.000000000000000e+00 0.000000000000000e+00
0.000000000000000e+00 0.000000000000000e+00 0.000000000000000e+00
0.000000000000000e+00 0.000000000000000e+00 0.000000000000000e+00
0.000000000000000e+00 0.000000000000000e+00 0.000000000000000e+00
0.000000000000000e+00 0.000000000000000e+00 0.000000000000000e+00
0.000000000000000e+00 0.000000000000000e+00 0.000000000000000e+00
0.000000000000000e+00 0.000000000000000e+00 0.000000000000000e+00
0.000000000000000e+00 0.000000000000000e+00 0.000000000000000e+00
0.000000000000000e+00 0.000000000000000e+00 0.000000000000000e+00
0.000000000000000e+00 0.000000000000000e+00 0.000000000000000e+00
0.000000000000000e+00 0.000000000000000e+00 0.000000000000000e+00
0.000000000000000e+00 0.000000000000000e+00 0.000000000000000e+00
0.000000000000000e+00 0.000000000000000e+00 0.000000000000000e+00
0.000000000000000e+00 0.000000000000000e+00 0.000000000000000e+00
0.000000000000000e+00 0.000000000000000e+00 0.000000000000000e+00
0.000000000000000e+00 0.000000000000000e+00 0.000000000000000e+00
0.000000000000000e+00 0.000000000000000e+00 0.000000000000000e+00
0.000000000000000e+00 0.000000000000000e+00 0.000000000000000e+00
0.000000000000000e+00 0.000000000000000e+00 0.000000000000000e+00
0.000000000000000e+00 0.000000000000000e+00 0.000000000000000e+00
0.000000000000000e+00 0.000000000000000e+00 0.000000000000000e+00
0.000000000000000e+00 0.000000000000000e+00 0.000000000000000e+00
0.000000000000000e+00 0.000000000000000e+00 0.000000000000000e+00
0.000000000000000e+00 0.000000000000000e+00 0.000000000000000e+00
0.000000000000000e+00 0.000000000000000e+00 0.000000000000000e+00
0.000000000000000e+00 0.000000000000000e+00 0.000000000000000e+00
0.000000000000000e+00 0.000000000000000e+00 0.000000000000000e+00
0.000000000000000e+00 0.000000000000000e+00 0.000000000000000e+00
0.000000000000000e+00 0.000000000000000e+00 0.000000000000000e+00
0.000000000000000e+00 0.000000000000000e+00 0.000000000000000e+00
0.000000000000000e+00 0.000000000000000e+00 0.000000000000000e+00
0.000000000000000e+00 0.000000000000000e+00 0.000000000000000e+00
0.000000000000000e+00 0.000000000000000e+00 0.000000000000000e+00
0.000000000000000e+00 0.000000000000000e+00 0.000000000000000e+00
0.000000000000000e+00 0.000000000000000e+00 0.000000000000000e+00
0.000000000000000e+00 0.000000000000000e+00 0.000000000000000e+00
0.000000000000000e+00 0.000000000000000e+00 0.000000000000000e+00
0.000000000000000e+00 0.000000000000000e+00 0.000000000000000e+00
0.000000000000000e+00 0.000000000000000e+00 0.000000000000000e+00
0.000000000000000e+00 0.000000000000000e+00 0.000000000000000e+00
0.000000000000000e+00 0.000000000000000e+00 0.000000000000000e+00
0.000000000000000e+00 0.000000000000000e+00 0.000000000000000e+00
0.000000000000000e+00 0.000000000000000e+00 0.000000000000000e+00
0.000000000000000e+00 0.000000000000000e+00 0.000000000000000e+00
0.000000000000000e+00 0.000000000000000e+00 0.000000000000000e+00
0.000000000000000e+00 0.000000000000000e+00 0.000000000000000e+00
0.000000000000000e+00 0.000000000000000e+00 0.000000000000000e+00
0.000000000000000e+00 0.000000000000000e+00 0.000000000000000e+00
0.000000000000000e+00 0.000000000000000e+00 0.000000000000000e+00
0.000000000000000e+00 0.000000000000000e+00 0.000000000000000e+00
0.000000000000000e+00 0.000000000000000e+00 0.000000000000000e+00
0.000000000000000e+00 0.000000000000000e+00 0.000000000000000e+00
0.000000000000000e+00 0.000000000000000e+00 0.000000000000000e+00
0.000000000000000e+00 0.000000000000000e+00 0.000000000000000e+00
0.000000000000000e+00 0.000000000000000e+00 0.000000000000000e+00
0.000000000000000e+00 0.000000000000000e+00 0.000000000000000e+00
0.000000000000000e+00 0.000000000000000e+00 0.000000000000000e+00
0.000000000000000e+00 0.000000000000000e+00 0.000000000000000e+00
0.000000000000000e+00 0.000000000000000e+00 0.000000000000000e+00
0.000000000000000e+00 0.000000000000000e+00 0.000000000000000e+00
0.000000000000000e+00 0.000000000000000e+00 0.000000000000000e+00
0.000000000000000e+00 0.000000000000000e+00 0.000000000000000e+00
0.000000000000000e+00 0.000000000000000e+00 0.000000000000000e+00
0.000000000000000e+00 0.000000000000000e+00 0.000000000000000e+00
0.000000000000000e+00 0.000000000000000e+00 0.000000000000000e+00
0.000000000000000e+00 0.000000000000000e+00 0.000000000000000e+00
0.000000000000000e+00 0.000000000000000e+00 0.000000000000000e+00
0.000000000000000e+00 0.000000000000000e+00 0.000000000000000e+00
0.000000000000000e+00 0.000000000000000e+00 0.000000000000000e+00
0.000000000000000e+00 0.000000000000000e+00 0.000000000000000e+00
0.000000000000000e+00 0.000000000000000e+00 0.000000000000000e+00
0.000000000000000e+00 0.000000000000000e+00 0.000000000000000e+00
0.000000000000000e+00 0.000000000000000e+00 0.000000000000000e+00
0.000000000000000e+00 0.000000000000000e+00 0.000000000000000e+00
0.000000000000000e+00 0.000000000000000e+00 0.000000000000000e+00
0.000000000000000e+00 0.000000000000000e+00 0.000000000000000e+00
0.000000000000000e+00 0.000000000000000e+00 0.000000000000000e+00
0.000000000000000e+00 0.000000000000000e+00 0.000000000000000e+00
0.000000000000000e+00 0.000000000000000e+00 0.000000000000000e+00
0.000000000000000e+00 0.000000000000000e+00 0.000000000000000e+00
0.000000000000000e+00 0.000000000000000e+00 0.000000000000000e+00
0.000000000000000e+00 0.000000000000000e+00 0.000000000000000e+00
0.000000000000000e+00 0.000000000000000e+00 0.000000000000000e+00
0.000000000000000e+00 0.000000000000000e+00 0.000000000000000e+00
0.000000000000000e+00 0.000000000000000e+00 0.000000000000000e+00
0.000000000000000e+00 0.000000000000000e+00 0.000000000000000e+00
0.000000000000000e+00 0.000000000000000e+00 0.000000000000000e+00
0.000000000000000e+00 0.000000000000000e+00 0.000000000000000e+00
0.000000000000000e+00 0.000000000000000e+00 0.000000000000000e+00
0.000000000000000e+00 0.000000000000000e+00 0.000000000000000e+00
0.000000000000000e+00 0.000000000000000e+00 0.000000000000000e+00
0.000000000000000e+00 0.000000000000000e+00 0.000000000000000e+00
0.000000000000000e+00 0.000000000000000e+00 0.000000000000000e+00
0.000000000000000e+00 0.000000000000000e+00 0.000000000000000e+00
0.000000000000000e+00 0.000000000000000e+00 0.000000000000000e+00
0.000000000000000e+00 0.000000000000000e+00 0.000000000000000e+00
0.000000000000000e+00 0.000000000000000e+00 0.000000000000000e+00
0.000000000000000e+00 0.000000000000000e+00 0.000000000000000e+00
0.000000000000000e+00 0.000000000000000e+00 0.000000000000000e+00
0.000000000000000e+00 0.000000000000000e+00 0.000000000000000e+00
0.000000000000000e+00 0.000000000000000e+00 0.000000000000000e+00
0.000000000000000e+00 0.000000000000000e+00 0.000000000000000e+00
0.000000000000000e+00 0.000000000000000e+00 0.000000000000000e+00
0.000000000000000e+00 0.000000000000000e+00 0.000000000000000e+00
0.000000000000000e+00 0.000000000000000e+00 0.000000000000000e+00
0.000000000000000e+00 0.000000000000000e+00 0.000000000000000e+00
0.000000000000000e+00 0.000000000000000e+00 0.000000000000000e+00
0.000000000000000e+00 0.000000000000000e+00 0.000000000000000e+00
0.000000000000000e+00 0.000000000000000e+00 0.000000000000000e+00
0.000000000000000e+00 0.000000000000000e+00 0.000000000000000e+00
0.000000000000000e+00 0.000000000000000e+00 0.000000000000000e+00
0.000000000000000e+00 0.000000000000000e+00 0.000000000000000e+00
0.000000000000000e+00 0.000000000000000e+00 0.000000000000000e+00
0.000000000000000e+00 0.000000000000000e+00 0.000000000000000e+00
0.000000000000000e+00 0.000000000000000e+00 0.000000000000000e+00
0.000000000000000e+00 0.000000000000000e+00 0.000000000000000e+00
0.000000000000000e+00 0.000000000000000e+00 0.000000000000000e+00
0.000000000000000e+00 0.000000000000000e+00 0.000000000000000e+00
0.000000000000000e+00 0.000000000000000e+00 0.000000000000000e+00
0.000000000000000e+00 0.000000000000000e+00 0.000000000000000e+00
0.000000000000000e+00 0.000000000000000e+00 0.000000000000000e+00
0.000000000000000e+00 0.000000000000000e+00 0.000000000000000e+00
0.000000000000000e+00 0.000000000000000e+00 0.000000000000000e+00
0.000000000000000e+00 0.000000000000000e+00 0.000000000000000e+00
0.000000000000000e+00 0.000000000000000e+00 0.000000000000000e+00
0.000000000000000e+00 0.000000000000000e+00 0.000000000000000e+00
0.000000000000000e+00 0.000000000000000e+00 0.000000000000000e+00
0.000000000000000e+00 0.000000000000000e+00 0.000000000000000e+00
0.000000000000000e+00 0.000000000000000e+00 0.000000000000000e+00
0.000000000000000e+00 0.000000000000000e+00 0.000000000000000e+00
0.000000000000000e+00 0.000000000000000e+00 0.000000000000000e+00
0.000000000000000e+00 0.000000000000000e+00 0.000000000000000e+00
0.000000000000000e+00 0.000000000000000e+00 0.000000000000000e+00
0.000000000000000e+00 0.000000000000000e+00 0.000000000000000e+00
0.000000000000000e+00 0.000000000000000e+00 0.000000000000000e+00
0.000000000000000e+00 0.000000000000000e+00 0.000000000000000e+00
0.000000000000000e+00 0.000000000000000e+00 0.000000000000000e+00
0.000000000000000e+00 0.000000000000000e+00 0.000000000000000e+00
0.000000000000000e+00 0.000000000000000e+00 0.000000000000000e+00
0.000000000000000e+00 0.000000000000000e+00 0.000000000000000e+00
0.000000000000000e+00 0.000000000000000e+00 0.000000000000000e+00
0.000000000000000e+00 0.000000000000000e+00 0.000000000000000e+00
0.000000000000000e+00 0.000000000000000e+00 0.000000000000000e+00
0.000000000000000e+00 0.000000000000000e+00 0.000000000000000e+00
0.000000000000000e+00 0.000000000000000e+00 0.000000000000000e+00
0.000000000000000e+00 0.000000000000000e+00 0.000000000000000e+00
0.000000000000000e+00 0.000000000000000e+00 0.000000000000000e+00
0.000000000000000e+00 0.000000000000000e+00 0.000000000000000e+00
0.000000000000000e+00 0.000000000000000e+00 0.000000000000000e+00
0.000000000000000e+00 0.000000000000000e+00 0.000000000000000e+00
0.000000000000000e+00 0.000000000000000e+00 0.000000000000000e+00
0.000000000000000e+00 0.000000000000000e+00 0.000000000000000e+00
0.000000000000000e+00 0.000000000000000e+00 0.000000000000000e+00
0.000000000000000e+00 0.000000000000000e+00 0.000000000000000e+00
0.000000000000000e+00 0.000000000000000e+00 0.000000000000000e+00
0.000000000000000e+00 0.000000000000000e+00 0.000000000000000e+00
0.000000000000000e+00 0.000000000000000e+00 0.000000000000000e+00
0.000000000000000e+00 0.000000000000000e+00 0.000000000000000e+00
0.000000000000000e+00 0.000000000000000e+00 0.000000000000000e+00
0.000000000000000e+00 0.000000000000000e+00 0.000000000000000e+00
0.000000000000000e+00 0.000000000000000e+00 0.000000000000000e+00
0.000000000000000e+00 0.000000000000000e+00 0.000000000000000e+00
0.000000000000000e+00 0.000000000000000e+00 0.000000000000000e+00
0.000000000000000e+00 0.000000000000000e+00 0.000000000000000e+00
0.000000000000000e+00 0.000000000000000e+00 0.000000000000000e+00
0.000000000000000e+00 0.000000000000000e+00 0.000000000000000e+00
0.000000000000000e+00 0.000000000000000e+00 0.000000000000000e+00
0.000000000000000e+00 0.000000000000000e+00 0.000000000000000e+00
0.000000000000000e+00 0.000000000000000e+00 0.000000000000000e+00
0.000000000000000e+00 0.000000000000000e+00 0.000000000000000e+00
0.000000000000000e+00 0.000000000000000e+00 0.000000000000000e+00
0.000000000000000e+00 0.000000000000000e+00 0.000000000000000e+00
0.000000000000000e+00 0.000000000000000e+00 0.000000000000000e+00
0.000000000000000e+00 0.000000000000000e+00 0.000000000000000e+00
0.000000000000000e+00 0.000000000000000e+00 0.000000000000000e+00
0.000000000000000e+00 0.000000000000000e+00 0.000000000000000e+00
0.000000000000000e+00 0.000000000000000e+00 0.000000000000000e+00
0.000000000000000e+00 0.000000000000000e+00 0.000000000000000e+00
0.000000000000000e+00 0.000000000000000e+00 0.000000000000000e+00
0.000000000000000e+00 0.000000000000000e+00 0.000000000000000e+00
0.000000000000000e+00 0.000000000000000e+00 0.000000000000000e+00
0.000000000000000e+00 0.000000000000000e+00 0.000000000000000e+00
0.000000000000000e+00 0.000000000000000e+00 0.000000000000000e+00
0.000000000000000e+00 0.000000000000000e+00 0.000000000000000e+00
0.000000000000000e+00 0.000000000000000e+00 0.000000000000000e+00
0.000000000000000e+00 0.000000000000000e+00 0.000000000000000e+00
0.000000000000000e+00 0.000000000000000e+00 0.000000000000000e+00
0.000000000000000e+00 0.000000000000000e+00 0.000000000000000e+00
0.000000000000000e+00 0.000000000000000e+00 0.000000000000000e+00
0.000000000000000e+00 0.000000000000000e+00 0.000000000000000e+00
0.000000000000000e+00 0.000000000000000e+00 0.000000000000000e+00
0.000000000000000e+00 0.000000000000000e+00 0.000000000000000e+00
0.000000000000000e+00 0.000000000000000e+00 0.000000000000000e+00
0.000000000000000e+00 0.000000000000000e+00 0.000000000000000e+00
0.000000000000000e+00 0.000000000000000e+00 0.000000000000000e+00
0.000000000000000e+00 0.000000000000000e+00 0.000000000000000e+00
0.000000000000000e+00 0.000000000000000e+00 0.000000000000000e+00
0.000000000000000e+00 0.000000000000000e+00 0.000000000000000e+00
0.000000000000000e+00 0.000000000000000e+00 0.000000000000000e+00
0.000000000000000e+00 0.000000000000000e+00 0.000000000000000e+00
0.000000000000000e+00 0.000000000000000e+00 0.000000000000000e+00
0.000000000000000e+00 0.000000000000000e+00 0.000000000000000e+00
0.000000000000000e+00 0.000000000000000e+00 0.000000000000000e+00
0.000000000000000e+00 0.000000000000000e+00 0.000000000000000e+00
0.000000000000000e+00 0.000000000000000e+00 0.000000000000000e+00
0.000000000000000e+00 0.000000000000000e+00 0.000000000000000e+00
0.000000000000000e+00 0.000000000000000e+00 0.000000000000000e+00
0.000000000000000e+00 0.000000000000000e+00 0.000000000000000e+00
0.000000000000000e+00 0.000000000000000e+00 0.000000000000000e+00
0.000000000000000e+00 0.000000000000000e+00 0.000000000000000e+00
0.000000000000000e+00 0.000000000000000e+00 0.000000000000000e+00
0.000000000000000e+00 0.000000000000000e+00 0.000000000000000e+00
0.000000000000000e+00 0.000000000000000e+00 0.000000000000000e+00
0.000000000000000e+00 0.000000000000000e+00 0.000000000000000e+00
0.000000000000000e+00 0.000000000000000e+00 0.000000000000000e+00
0.000000000000000e+00 0.000000000000000e+00 0.000000000000000e+00
0.000000000000000e+00 0.000000000000000e+00 0.000000000000000e+00
0.000000000000000e+00 0.000000000000000e+00 0.000000000000000e+00
0.000000000000000e+00 0.000000000000000e+00 0.000000000000000e+00
0.000000000000000e+00 0.000000000000000e+00 0.000000000000000e+00
0.000000000000000e+00 0.000000000000000e+00 0.000000000000000e+00
0.000000000000000e+00 0.000000000000000e+00 0.000000000000000e+00
0.000000000000000e+00 0.000000000000000e+00 0.000000000000000e+00
0.000000000000000e+00 0.000000000000000e+00 0.000000000000000e+00
0.000000000000000e+00 0.000000000000000e+00 0.000000000000000e+00
0.000000000000000e+00 0.000000000000000e+00 0.000000000000000e+00
0.000000000000000e+00 0.000000000000000e+00 0.000000000000000e+00
0.000000000000000e+00 0.000000000000000e+00 0.000000000000000e+00
0.000000000000000e+00 0.000000000000000e+00 0.000000000000000e+00
0.000000000000000e+00 0.000000000000000e+00 0.000000000000000e+00
0.000000000000000e+00 0.000000000000000e+00 0.000000000000000e+00
0.000000000000000e+00 0.000000000000000e+00 0.000000000000000e+00
0.000000000000000e+00 0.000000000000000e+00 0.000000000000000e+00
0.000000000000000e+00 0.000000000000000e+00 0.000000000000000e+00
0.000000000000000e+00 0.000000000000000e+00 0.000000000000000e+00
0.000000000000000e+00 0.000000000000000e+00 0.000000000000000e+00
0.000000000000000e+00 0.000000000000000e+00 0.000000000000000e+00
0.000000000000000e+00 0.000000000000000e+00 0.000000000000000e+00
0.000000000000000e+00 0.000000000000000e+00 0.000000000000000e+00
0.000000000000000e+00 0.000000000000000e+00 0.000000000000000e+00
0.000000000000000e+00 0.000000000000000e+00 0.000000000000000e+00
0.000000000000000e+00 0.000000000000000e+00 0.000000000000000e+00
0.000000000000000e+00 0.000000000000000e+00 0.000000000000000e+00
0.000000000000000e+00 0.000000000000000e+00 0.000000000000000e+00
0.000000000000000e+00 0.000000000000000e+00 0.000000000000000e+00
0.000000000000000e+00 0.000000000000000e+00 0.000000000000000e+00
0.000000000000000e+00 0.000000000000000e+00 0.000000000000000e+00
0.000000000000000e+00 0.000000000000000e+00 0.000000000000000e+00
0.000000000000000e+00 0.000000000000000e+00 0.000000000000000e+00
0.000000000000000e+00 0.000000000000000e+00 0.000000000000000e+00
0.000000000000000e+00 0.000000000000000e+00 0.000000000000000e+00
0.000000000000000e+00 0.000000000000000e+00 0.000000000000000e+00
0.000000000000000e+00 0.000000000000000e+00 0.000000000000000e+00
0.000000000000000e+00 0.000000000000000e+00 0.000000000000000e+00
0.000000000000000e+00 0.000000000000000e+00 0.000000000000000e+00
0.000000000000000e+00 0.000000000000000e+00 0.000000000000000e+00
0.000000000000000e+00 0.000000000000000e+00 0.000000000000000e+00
0.000000000000000e+00 0.000000000000000e+00 0.000000000000000e+00
0.000000000000000e+00 0.000000000000000e+00 0.000000000000000e+00
0.000000000000000e+00 0.000000000000000e+00 0.000000000000000e+00
0.000000000000000e+00 0.000000000000000e+00 0.000000000000000e+00
0.000000000000000e+00 0.000000000000000e+00 0.000000000000000e+00
0.000000000000000e+00 0.000000000000000e+00 0.000000000000000e+00
0.000000000000000e+00 0.000000000000000e+00 0.000000000000000e+00
0.000000000000000e+00 0.000000000000000e+00 0.000000000000000e+00
0.000000000000000e+00 0.000000000000000e+00 0.000000000000000e+00
0.000000000000000e+00 0.000000000000000e+00 0.000000000000000e+00
0.000000000000000e+00 0.000000000000000e+00 0.000000000000000e+00
0.000000000000000e+00 0.000000000000000e+00 0.000000000000000e+00
0.000000000000000e+00 0.000000000000000e+00 0.000000000000000e+00
0.000000000000000e+00 0.000000000000000e+00 0.000000000000000e+00
0.000000000000000e+00 0.000000000000000e+00 0.000000000000000e+00
0.000000000000000e+00 0.000000000000000e+00 0.000000000000000e+00
0.000000000000000e+00 0.000000000000000e+00 0.000000000000000e+00
0.000000000000000e+00 0.000000000000000e+00 0.000000000000000e+00
0.000000000000000e+00 0.000000000000000e+00 0.000000000000000e+00
0.000000000000000e+00 0.000000000000000e+00 0.000000000000000e+00
0.000000000000000e+00 0.000000000000000e+00 0.000000000000000e+00
0.000000000000000e+00 0.000000000000000e+00 0.000000000000000e+00
0.000000000000000e+00 0.000000000000000e+00 0.000000000000000e+00
0.000000000000000e+00 0.000000000000000e+00 0.000000000000000e+00
0.000000000000000e+00 0.000000000000000e+00 0.000000000000000e+00
0.000000000000000e+00 0.000000000000000e+00 0.000000000000000e+00
0.000000000000000e+00 0.000000000000000e+00 0.000000000000000e+00
0.000000000000000e+00 0.000000000000000e+00 0.000000000000000e+00
0.000000000000000e+00 0.000000000000000e+00 0.000000000000000e+00
0.000000000000000e+00 0.000000000000000e+00 0.000000000000000e+00
0.000000000000000e+00 0.000000000000000e+00 0.000000000000000e+00
0.000000000000000e+00 0.000000000000000e+00 0.000000000000000e+00
0.000000000000000e+00 0.000000000000000e+00 0.000000000000000e+00
0.000000000000000e+00 0.000000000000000e+00 0.000000000000000e+00
0.000000000000000e+00 0.000000000000000e+00 0.000000000000000e+00
0.000000000000000e+00 0.000000000000000e+00 0.000000000000000e+00
0.000000000000000e+00 0.000000000000000e+00 0.000000000000000e+00
0.000000000000000e+00 0.000000000000000e+00 0.000000000000000e+00
0.000000000000000e+00 0.000000000000000e+00 0.000000000000000e+00
0.000000000000000e+00 0.000000000000000e+00 0.000000000000000e+00
0.000000000000000e+00 0.000000000000000e+00 0.000000000000000e+00
0.000000000000000e+00 0.000000000000000e+00 0.000000000000000e+00
0.000000000000000e+00 0.000000000000000e+00 0.000000000000000e+00
0.000000000000000e+00 0.000000000000000e+00 0.000000000000000e+00
0.000000000000000e+00 0.000000000000000e+00 0.000000000000000e+00
0.000000000000000e+00 0.000000000000000e+00 0.000000000000000e+00
0.000000000000000e+00 0.000000000000000e+00 0.000000000000000e+00
0.000000000000000e+00 0.000000000000000e+00 0.000000000000000e+00
0.000000000000000e+00 0.000000000000000e+00 0.000000000000000e+00
0.000000000000000e+00 0.000000000000000e+00 0.000000000000000e+00
0.000000000000000e+00 0.000000000000000e+00 0.000000000000000e+00
0.000000000000000e+00 0.000000000000000e+00 0.000000000000000e+00
0.000000000000000e+00 0.000000000000000e+00 0.000000000000000e+00
0.000000000000000e+00 0.000000000000000e+00 0.000000000000000e+00
0.000000000000000e+00 0.000000000000000e+00 0.000000000000000e+00
0.000000000000000e+00 0.000000000000000e+00 0.000000000000000e+00
0.000000000000000e+00 0.000000000000000e+00 0.000000000000000e+00
0.000000000000000e+00 0.000000000000000e+00 0.000000000000000e+00
0.000000000000000e+00 0.000000000000000e+00 0.000000000000000e+00
0.000000000000000e+00 0.000000000000000e+00 0.000000000000000e+00
0.000000000000000e+00 0.000000000000000e+00 0.000000000000000e+00
0.000000000000000e+00 0.000000000000000e+00 0.000000000000000e+00
0.000000000000000e+00 0.000000000000000e+00 0.000000000000000e+00
0.000000000000000e+00 0.000000000000000e+00 0.000000000000000e+00
0.000000000000000e+00 0.000000000000000e+00 0.000000000000000e+00
0.000000000000000e+00 0.000000000000000e+00 0.000000000000000e+00
0.000000000000000e+00 0.000000000000000e+00 0.000000000000000e+00
0.000000000000000e+00 0.000000000000000e+00 0.000000000000000e+00
0.000000000000000e+00 0.000000000000000e+00 0.000000000000000e+00
0.000000000000000e+00 0.000000000000000e+00 0.000000000000000e+00
0.000000000000000e+00 0.000000000000000e+00 0.000000000000000e+00
0.000000000000000e+00 0.000000000000000e+00 0.000000000000000e+00
0.000000000000000e+00 0.000000000000000e+00 0.000000000000000e+00
0.000000000000000e+00 0.000000000000000e+00 0.000000000000000e+00
0.000000000000000e+00 0.000000000000000e+00 0.000000000000000e+00
0.000000000000000e+00 0.000000000000000e+00 0.000000000000000e+00
0.000000000000000e+00 0.000000000000000e+00 0.000000000000000e+00
0.000000000000000e+00 0.000000000000000e+00 0.000000000000000e+00
0.000000000000000e+00 0.000000000000000e+00 0.000000000000000e+00
0.000000000000000e+00 0.000000000000000e+00 0.000000000000000e+00
0.000000000000000e+00 0.000000000000000e+00 0.000000000000000e+00
0.000000000000000e+00 0.000000000000000e+00 0.000000000000000e+00
0.000000000000000e+00 0.000000000000000e+00 0.000000000000000e+00
0.000000000000000e+00 0.000000000000000e+00 0.000000000000000e+00
0.000000000000000e+00 0.000000000000000e+00 0.000000000000000e+00
0.000000000000000e+00 0.000000000000000e+00 0.000000000000000e+00
0.000000000000000e+00 0.000000000000000e+00 0.000000000000000e+00
0.000000000000000e+00 0.000000000000000e+00 0.000000000000000e+00
0.000000000000000e+00 0.000000000000000e+00 0.000000000000000e+00
0.000000000000000e+00 0.000000000000000e+00 0.000000000000000e+00
0.000000000000000e+00 0.000000000000000e+00 0.000000000000000e+00
0.000000000000000e+00 0.000000000000000e+00 0.000000000000000e+00
0.000000000000000e+00 0.000000000000000e+00 0.000000000000000e+00
0.000000000000000e+00 0.000000000000000e+00 0.000000000000000e+00
0.000000000000000e+00 0.000000000000000e+00 0.000000000000000e+00
0.000000000000000e+00 0.000000000000000e+00 0.000000000000000e+00
0.000000000000000e+00 0.000000000000000e+00 0.000000000000000e+00
0.000000000000000e+00 0.000000000000000e+00 0.000000000000000e+00
0.000000000000000e+00 0.000000000000000e+00 0.000000000000000e+00
0.000000000000000e+00 0.000000000000000e+00 0.000000000000000e+00
0.000000000000000e+00 0.000000000000000e+00 0.000000000000000e+00
0.000000000000000e+00 0.000000000000000e+00 0.000000000000000e+00
0.000000000000000e+00 0.000000000000000e+00 0.000000000000000e+00
0.000000000000000e+00 0.000000000000000e+00 0.000000000000000e+00
0.000000000000000e+00 0.000000000000000e+00 0.000000000000000e+00
0.000000000000000e+00 0.000000000000000e+00 0.000000000000000e+00
0.000000000000000e+00 0.000000000000000e+00 0.000000000000000e+00
0.000000000000000e+00 0.000000000000000e+00 0.000000000000000e+00
0.000000000000000e+00 0.000000000000000e+00 0.000000000000000e+00
0.000000000000000e+00 0.000000000000000e+00 0.000000000000000e+00
0.000000000000000e+00 0.000000000000000e+00 0.000000000000000e+00
0.000000000000000e+00 0.000000000000000e+00 0.000000000000000e+00
0.000000000000000e+00 0.000000000000000e+00 0.000000000000000e+00
0.000000000000000e+00 0.000000000000000e+00 0.000000000000000e+00
0.000000000000000e+00 0.000000000000000e+00 0.000000000000000e+00
0.000000000000000e+00 0.000000000000000e+00 0.000000000000000e+00
0.000000000000000e+00 0.000000000000000e+00 0.000000000000000e+00
0.000000000000000e+00 0.000000000000000e+00 0.000000000000000e+00
0.000000000000000e+00 0.000000000000000e+00 0.000000000000000e+00
0.000000000000000e+00 0.000000000000000e+00 0.000000000000000e+00
0.000000000000000e+00 0.000000000000000e+00 0.000000000000000e+00
0.000000000000000e+00 0.000000000000000e+00 0.000000000000000e+00
0.000000000000000e+00 0.000000000000000e+00 0.000000000000000e+00
0.000000000000000e+00 0.000000000000000e+00 0.000000000000000e+00
0.000000000000000e+00 0.000000000000000e+00 0.000000000000000e+00
0.000000000000000e+00 0.000000000000000e+00 0.000000000000000e+00
0.000000000000000e+00 0.000000000000000e+00 0.000000000000000e+00
0.000000000000000e+00 0.000000000000000e+00 0.000000000000000e+00
0.000000000000000e+00 0.000000000000000e+00 0.000000000000000e+00
0.000000000000000e+00 0.000000000000000e+00 0.000000000000000e+00
0.000000000000000e+00 0.000000000000000e+00 0.000000000000000e+00
0.000000000000000e+00 0.000000000000000e+00 0.000000000000000e+00
0.000000000000000e+00 0.000000000000000e+00 0.000000000000000e+00
0.000000000000000e+00 0.000000000000000e+00 0.000000000000000e+00
0.000000000000000e+00 0.000000000000000e+00 0.000000000000000e+00
0.000000000000000e+00 0.000000000000000e+00 0.000000000000000e+00
0.000000000000000e+00 0.000000000000000e+00 0.000000000000000e+00
0.000000000000000e+00 0.000000000000000e+00 0.000000000000000e+00
0.000000000000000e+00 0.000000000000000e+00 0.000000000000000e+00
0.000000000000000e+00 0.000000000000000e+00 0.000000000000000e+00
0.000000000000000e+00 0.000000000000000e+00 0.000000000000000e+00
0.000000000000000e+00 0.000000000000000e+00 0.000000000000000e+00
0.000000000000000e+00 0.000000000000000e+00 0.000000000000000e+00
0.000000000000000e+00 0.000000000000000e+00 0.000000000000000e+00
0.000000000000000e+00 0.000000000000000e+00 0.000000000000000e+00
0.000000000000000e+00 0.000000000000000e+00 0.000000000000000e+00
0.000000000000000e+00 0.000000000000000e+00 0.000000000000000e+00
0.000000000000000e+00 0.000000000000000e+00 0.000000000000000e+00
0.000000000000000e+00 0.000000000000000e+00 0.000000000000000e+00
0.000000000000000e+00 0.000000000000000e+00 0.000000000000000e+00
0.000000000000000e+00 0.000000000000000e+00 0.000000000000000e+00
0.000000000000000e+00 0.000000000000000e+00 0.000000000000000e+00
0.000000000000000e+00 0.000000000000000e+00 0.000000000000000e+00
0.000000000000000e+00 0.000000000000000e+00 0.000000000000000e+00
0.000000000000000e+00 0.000000000000000e+00 0.000000000000000e+00
0.000000000000000e+00 0.000000000000000e+00 0.000000000000000e+00
0.000000000000000e+00 0.000000000000000e+00 0.000000000000000e+00
0.000000000000000e+00 0.000000000000000e+00 0.000000000000000e+00
0.000000000000000e+00 0.000000000000000e+00 0.000000000000000e+00
0.000000000000000e+00 0.000000000000000e+00 0.000000000000000e+00
0.000000000000000e+00 0.000000000000000e+00 0.000000000000000e+00
0.000000000000000e+00 0.000000000000000e+00 0.000000000000000e+00
0.000000000000000e+00 0.000000000000000e+00 0.000000000000000e+00
0.000000000000000e+00 0.000000000000000e+00 0.000000000000000e+00
0.000000000000000e+00 0.000000000000000e+00 0.000000000000000e+00
0.000000000000000e+00 0.000000000000000e+00 0.000000000000000e+00
0.000000000000000e+00 0.000000000000000e+00 0.000000000000000e+00
0.000000000000000e+00 0.000000000000000e+00 0.000000000000000e+00
0.000000000000000e+00 0.000000000000000e+00 0.000000000000000e+00
0.000000000000000e+00 0.000000000000000e+00 0.000000000000000e+00
0.000000000000000e+00 0.000000000000000e+00 0.000000000000000e+00
0.000000000000000e+00 0.000000000000000e+00 0.000000000000000e+00
0.000000000000000e+00 0.000000000000000e+00 0.000000000000000e+00
0.000000000000000e+00 0.000000000000000e+00 0.000000000000000e+00
0.000000000000000e+00 0.000000000000000e+00 0.000000000000000e+00
0.000000000000000e+00 0.000000000000000e+00 0.000000000000000e+00
0.000000000000000e+00 0.000000000000000e+00 0.000000000000000e+00
0.000000000000000e+00 0.000000000000000e+00 0.000000000000000e+00
0.000000000000000e+00 0.000000000000000e+00 0.000000000000000e+00
0.000000000000000e+00 0.000000000000000e+00 0.000000000000000e+00
0.000000000000000e+00 0.000000000000000e+00 0.000000000000000e+00
0.000000000000000e+00 0.000000000000000e+00 0.000000000000000e+00
0.000000000000000e+00 0.000000000000000e+00 0.000000000000000e+00
0.000000000000000e+00 0.000000000000000e+00 0.000000000000000e+00
0.000000000000000e+00 0.000000000000000e+00 0.000000000000000e+00
0.000000000000000e+00 0.000000000000000e+00 0.000000000000000e+00
0.000000000000000e+00 0.000000000000000e+00 0.000000000000000e+00
0.000000000000000e+00 0.000000000000000e+00 0.000000000000000e+00
0.000000000000000e+00 0.000000000000000e+00 0.000000000000000e+00
0.000000000000000e+00 0.000000000000000e+00 0.000000000000000e+00
0.000000000000000e+00 0.000000000000000e+00 0.000000000000000e+00
0.000000000000000e+00 0.000000000000000e+00 0.000000000000000e+00
0.000000000000000e+00 0.000000000000000e+00 0.000000000000000e+00
0.000000000000000e+00 0.000000000000000e+00 0.000000000000000e+00
0.000000000000000e+00 0.000000000000000e+00 0.000000000000000e+00
0.000000000000000e+00 0.000000000000000e+00 0.000000000000000e+00
0.000000000000000e+00 0.000000000000000e+00 0.000000000000000e+00
0.000000000000000e+00 0.000000000000000e+00 0.000000000000000e+00
0.000000000000000e+00 0.000000000000000e+00 0.000000000000000e+00
0.000000000000000e+00 0.000000000000000e+00 0.000000000000000e+00
0.000000000000000e+00 0.000000000000000e+00 0.000000000000000e+00
0.000000000000000e+00 0.000000000000000e+00 0.000000000000000e+00
0.000000000000000e+00 0.000000000000000e+00 0.000000000000000e+00
0.000000000000000e+00 0.000000000000000e+00 0.000000000000000e+00
0.000000000000000e+00 0.000000000000000e+00 0.000000000000000e+00
0.000000000000000e+00 0.000000000000000e+00 0.000000000000000e+00
0.000000000000000e+00 0.000000000000000e+00 0.000000000000000e+00
0.000000000000000e+00 0.000000000000000e+00 0.000000000000000e+00
0.000000000000000e+00 0.000000000000000e+00 0.000000000000000e+00
0.000000000000000e+00 0.000000000000000e+00 0.000000000000000e+00
0.000000000000000e+00 0.000000000000000e+00 0.000000000000000e+00
0.000000000000000e+00 0.000000000000000e+00 0.000000000000000e+00
0.000000000000000e+00 0.000000000000000e+00 0.000000000000000e+00
0.000000000000000e+00 0.000000000000000e+00 0.000000000000000e+00
0.000000000000000e+00 0.000000000000000e+00 0.000000000000000e+00
0.000000000000000e+00 0.000000000000000e+00 0.000000000000000e+00
0.000000000000000e+00 0.000000000000000e+00 0.000000000000000e+00
0.000000000000000e+00 0.000000000000000e+00 0.000000000000000e+00
0.000000000000000e+00 0.000000000000000e+00 0.000000000000000e+00
0.000000000000000e+00 0.000000000000000e+00 0.000000000000000e+00
0.000000000000000e+00 0.000000000000000e+00 0.000000000000000e+00
0.000000000000000e+00 0.000000000000000e+00 0.000000000000000e+00
0.000000000000000e+00 0.000000000000000e+00 0.000000000000000e+00
0.000000000000000e+00 0.000000000000000e+00 0.000000000000000e+00
0.000000000000000e+00 0.000000000000000e+00 0.000000000000000e+00
0.000000000000000e+00 0.000000000000000e+00 0.000000000000000e+00
0.000000000000000e+00 0.000000000000000e+00 0.000000000000000e+00
0.000000000000000e+00 0.000000000000000e+00 0.000000000000000e+00
0.000000000000000e+00 0.000000000000000e+00 0.000000000000000e+00
0.000000000000000e+00 0.000000000000000e+00 0.000000000000000e+00
0.000000000000000e+00 0.000000000000000e+00 0.000000000000000e+00
0.000000000000000e+00 0.000000000000000e+00 0.000000000000000e+00
0.000000000000000e+00 0.000000000000000e+00 0.000000000000000e+00
0.000000000000000e+00 0.000000000000000e+00 0.000000000000000e+00
0.000000000000000e+00 0.000000000000000e+00 0.000000000000000e+00
0.000000000000000e+00 0.000000000000000e+00 0.000000000000000e+00
0.000000000000000e+00 0.000000000000000e+00 0.000000000000000e+00
0.000000000000000e+00 0.000000000000000e+00 0.000000000000000e+00
0.000000000000000e+00 0.000000000000000e+00 0.000000000000000e+00
0.000000000000000e+00 0.000000000000000e+00 0.000000000000000e+00
0.000000000000000e+00 0.000000000000000e+00 0.000000000000000e+00
0.000000000000000e+00 0.000000000000000e+00 0.000000000000000e+00
0.000000000000000e+00 0.000000000000000e+00 0.000000000000000e+00
0.000000000000000e+00 0.000000000000000e+00 0.000000000000000e+00
0.000000000000000e+00 0.000000000000000e+00 0.000000000000000e+00
0.000000000000000e+00 0.000000000000000e+00 0.000000000000000e+00
0.000000000000000e+00 0.000000000000000e+00 0.000000000000000e+00
0.000000000000000e+00 0.000000000000000e+00 0.000000000000000e+00
0.000000000000000e+00 0.000000000000000e+00 0.000000000000000e+00
0.000000000000000e+00 0.000000000000000e+00 0.000000000000000e+00
0.000000000000000e+00 0.000000000000000e+00 0.000000000000000e+00
0.000000000000000e+00 0.000000000000000e+00 0.000000000000000e+00
0.000000000000000e+00 0.000000000000000e+00 0.000000000000000e+00
0.000000000000000e+00 0.000000000000000e+00 0.000000000000000e+00
0.000000000000000e+00 0.000000000000000e+00 0.000000000000000e+00
0.000000000000000e+00 0.000000000000000e+00 0.000000000000000e+00
0.000000000000000e+00 0.000000000000000e+00 0.000000000000000e+00
0.000000000000000e+00 0.000000000000000e+00 0.000000000000000e+00
0.000000000000000e+00 0.000000000000000e+00 0.000000000000000e+00
0.000000000000000e+00 0.000000000000000e+00 0.000000000000000e+00
0.000000000000000e+00 0.000000000000000e+00 0.000000000000000e+00
0.000000000000000e+00 0.000000000000000e+00 0.000000000000000e+00
0.000000000000000e+00 0.000000000000000e+00 0.000000000000000e+00
0.000000000000000e+00 0.000000000000000e+00 0.000000000000000e+00
0.000000000000000e+00 0.000000000000000e+00 0.000000000000000e+00
0.000000000000000e+00 0.000000000000000e+00 0.000000000000000e+00
0.000000000000000e+00 0.000000000000000e+00 0.000000000000000e+00
0.000000000000000e+00 0.000000000000000e+00 0.000000000000000e+00
0.000000000000000e+00 0.000000000000000e+00 0.000000000000000e+00
0.000000000000000e+00 0.000000000000000e+00 0.000000000000000e+00
0.000000000000000e+00 0.000000000000000e+00 0.000000000000000e+00
0.000000000000000e+00 0.000000000000000e+00 0.000000000000000e+00
0.000000000000000e+00 0.000000000000000e+00 0.000000000000000e+00
0.000000000000000e+00 0.000000000000000e+00 0.000000000000000e+00
0.000000000000000e+00 0.000000000000000e+00 0.000000000000000e+00
0.000000000000000e+00 0.000000000000000e+00 0.000000000000000e+00
0.000000000000000e+00 0.000000000000000e+00 0.000000000000000e+00
0.000000000000000e+00 0.000000000000000e+00 0.000000000000000e+00
0.000000000000000e+00 0.000000000000000e+00 0.000000000000000e+00
0.000000000000000e+00 0.000000000000000e+00 0.000000000000000e+00
0.000000000000000e+00 0.000000000000000e+00 0.000000000000000e+00
0.000000000000000e+00 0.000000000000000e+00 0.000000000000000e+00
0.000000000000000e+00 0.000000000000000e+00 0.000000000000000e+00
0.000000000000000e+00 0.000000000000000e+00 0.000000000000000e+00
0.000000000000000e+00 0.000000000000000e+00 0.000000000000000e+00
0.000000000000000e+00 0.000000000000000e+00 0.000000000000000e+00
0.000000000000000e+00 0.000000000000000e+00 0.000000000000000e+00
0.000000000000000e+00 0.000000000000000e+00 0.000000000000000e+00
0.000000000000000e+00 0.000000000000000e+00 0.000000000000000e+00
0.000000000000000e+00 0.000000000000000e+00 0.000000000000000e+00
0.000000000000000e+00 0.000000000000000e+00 0.000000000000000e+00
0.000000000000000e+00 0.000000000000000e+00 0.000000000000000e+00
0.000000000000000e+00 0.000000000000000e+00 0.000000000000000e+00
0.000000000000000e+00 0.000000000000000e+00 0.000000000000000e+00
0.000000000000000e+00 0.000000000000000e+00 0.000000000000000e+00
0.000000000000000e+00 0.000000000000000e+00 0.000000000000000e+00
0.000000000000000e+00 0.000000000000000e+00 0.000000000000000e+00
0.000000000000000e+00 0.000000000000000e+00 0.000000000000000e+00
0.000000000000000e+00 0.000000000000000e+00 0.000000000000000e+00
0.000000000000000e+00 0.000000000000000e+00 0.000000000000000e+00
0.000000000000000e+00 0.000000000000000e+00 0.000000000000000e+00
0.000000000000000e+00 0.000000000000000e+00 0.000000000000000e+00
0.000000000000000e+00 0.000000000000000e+00 0.000000000000000e+00
0.000000000000000e+00 0.000000000000000e+00 0.000000000000000e+00
0.000000000000000e+00 0.000000000000000e+00 0.000000000000000e+00
0.000000000000000e+00 0.000000000000000e+00 0.000000000000000e+00
0.000000000000000e+00 0.000000000000000e+00 0.000000000000000e+00
0.000000000000000e+00 0.000000000000000e+00 0.000000000000000e+00
0.000000000000000e+00 0.000000000000000e+00 0.000000000000000e+00
0.000000000000000e+00 0.000000000000000e+00 0.000000000000000e+00
0.000000000000000e+00 0.000000000000000e+00 0.000000000000000e+00
0.000000000000000e+00 0.000000000000000e+00 0.000000000000000e+00
0.000000000000000e+00 0.000000000000000e+00 0.000000000000000e+00
0.000000000000000e+00 0.000000000000000e+00 0.000000000000000e+00
0.000000000000000e+00 0.000000000000000e+00 0.000000000000000e+00
0.000000000000000e+00 0.000000000000000e+00 0.000000000000000e+00
0.000000000000000e+00 0.000000000000000e+00 0.000000000000000e+00
0.000000000000000e+00 0.000000000000000e+00 0.000000000000000e+00
0.000000000000000e+00 0.000000000000000e+00 0.000000000000000e+00
0.000000000000000e+00 0.000000000000000e+00 0.000000000000000e+00
0.000000000000000e+00 0.000000000000000e+00 0.000000000000000e+00
0.000000000000000e+00 0.000000000000000e+00 0.000000000000000e+00
0.000000000000000e+00 0.000000000000000e+00 0.000000000000000e+00
0.000000000000000e+00 0.000000000000000e+00 0.000000000000000e+00
0.000000000000000e+00 0.000000000000000e+00 0.000000000000000e+00
0.000000000000000e+00 0.000000000000000e+00 0.000000000000000e+00
0.000000000000000e+00 0.000000000000000e+00 0.000000000000000e+00
0.000000000000000e+00 0.000000000000000e+00 0.000000000000000e+00
0.000000000000000e+00 0.000000000000000e+00 0.000000000000000e+00
0.000000000000000e+00 0.000000000000000e+00 0.000000000000000e+00
0.000000000000000e+00 0.000000000000000e+00 0.000000000000000e+00
0.000000000000000e+00 0.000000000000000e+00 0.000000000000000e+00
0.000000000000000e+00 0.000000000000000e+00 0.000000000000000e+00
0.000000000000000e+00 0.000000000000000e+00 0.000000000000000e+00
0.000000000000000e+00 0.000000000000000e+00 0.000000000000000e+00
0.000000000000000e+00 0.000000000000000e+00 0.000000000000000e+00
0.000000000000000e+00 0.000000000000000e+00 0.000000000000000e+00
0.000000000000000e+00 0.000000000000000e+00 0.000000000000000e+00
0.000000000000000e+00 0.000000000000000e+00 0.000000000000000e+00
0.000000000000000e+00 0.000000000000000e+00 0.000000000000000e+00
0.000000000000000e+00 0.000000000000000e+00 0.000000000000000e+00
0.000000000000000e+00 0.000000000000000e+00 0.000000000000000e+00
0.000000000000000e+00 0.000000000000000e+00 0.000000000000000e+00
0.000000000000000e+00 0.000000000000000e+00 0.000000000000000e+00
0.000000000000000e+00 0.000000000000000e+00 0.000000000000000e+00
0.000000000000000e+00 0.000000000000000e+00 0.000000000000000e+00
0.000000000000000e+00 0.000000000000000e+00 0.000000000000000e+00
0.000000000000000e+00 0.000000000000000e+00 0.000000000000000e+00
0.000000000000000e+00 0.000000000000000e+00 0.000000000000000e+00
0.000000000000000e+00 0.000000000000000e+00 0.000000000000000e+00
0.000000000000000e+00 0.000000000000000e+00 0.000000000000000e+00
0.000000000000000e+00 0.000000000000000e+00 0.000000000000000e+00
0.000000000000000e+00 0.000000000000000e+00 0.000000000000000e+00
0.000000000000000e+00 0.000000000000000e+00 0.000000000000000e+00
0.000000000000000e+00 0.000000000000000e+00 0.000000000000000e+00
0.000000000000000e+00 0.000000000000000e+00 0.000000000000000e+00
0.000000000000000e+00 0.000000000000000e+00 0.000000000000000e+00
0.000000000000000e+00 0.000000000000000e+00 0.000000000000000e+00
0.000000000000000e+00 0.000000000000000e+00 0.000000000000000e+00
0.000000000000000e+00 0.000000000000000e+00 0.000000000000000e+00
0.000000000000000e+00 0.000000000000000e+00 0.000000000000000e+00
0.000000000000000e+00 0.000000000000000e+00 0.000000000000000e+00
0.000000000000000e+00 0.000000000000000e+00 0.000000000000000e+00
0.000000000000000e+00 0.000000000000000e+00 0.000000000000000e+00
0.000000000000000e+00 0.000000000000000e+00 0.000000000000000e+00
0.000000000000000e+00 0.000000000000000e+00 0.000000000000000e+00
0.000000000000000e+00 0.000000000000000e+00 0.000000000000000e+00
0.000000000000000e+00 0.000000000000000e+00 0.000000000000000e+00
0.000000000000000e+00 0.000000000000000e+00 0.000000000000000e+00
0.000000000000000e+00 0.000000000000000e+00 0.000000000000000e+00
0.000000000000000e+00 0.000000000000000e+00 0.000000000000000e+00
0.000000000000000e+00 0.000000000000000e+00 0.000000000000000e+00
0.000000000000000e+00 0.000000000000000e+00 0.000000000000000e+00
0.000000000000000e+00 0.000000000000000e+00 0.000000000000000e+00
0.000000000000000e+00 0.000000000000000e+00 0.000000000000000e+00
0.000000000000000e+00 0.000000000000000e+00 0.000000000000000e+00
0.000000000000000e+00 0.000000000000000e+00 0.000000000000000e+00
0.000000000000000e+00 0.000000000000000e+00 0.000000000000000e+00
0.000000000000000e+00 0.000000000000000e+00 0.000000000000000e+00
0.000000000000000e+00 0.000000000000000e+00 0.000000000000000e+00
0.000000000000000e+00 0.000000000000000e+00 0.000000000000000e+00
0.000000000000000e+00 0.000000000000000e+00 0.000000000000000e+00
0.000000000000000e+00 0.000000000000000e+00 0.000000000000000e+00
0.000000000000000e+00 0.000000000000000e+00 0.000000000000000e+00
0.000000000000000e+00 0.000000000000000e+00 0.000000000000000e+00
0.000000000000000e+00 0.000000000000000e+00 0.000000000000000e+00
0.000000000000000e+00 0.000000000000000e+00 0.000000000000000e+00
0.000000000000000e+00 0.000000000000000e+00 0.000000000000000e+00
0.000000000000000e+00 0.000000000000000e+00 0.000000000000000e+00
0.000000000000000e+00 0.000000000000000e+00 0.000000000000000e+00
0.000000000000000e+00 0.000000000000000e+00 0.000000000000000e+00
0.000000000000000e+00 0.000000000000000e+00 0.000000000000000e+00
0.000000000000000e+00 0.000000000000000e+00 0.000000000000000e+00
0.000000000000000e+00 0.000000000000000e+00 0.000000000000000e+00
0.000000000000000e+00 0.000000000000000e+00 0.000000000000000e+00
0.000000000000000e+00 0.000000000000000e+00 0.000000000000000e+00
0.000000000000000e+00 0.000000000000000e+00 0.000000000000000e+00
0.000000000000000e+00 0.000000000000000e+00 0.000000000000000e+00
0.000000000000000e+00 0.000000000000000e+00 0.000000000000000e+00
0.000000000000000e+00 0.000000000000000e+00 0.000000000000000e+00
0.000000000000000e+00 0.000000000000000e+00 0.000000000000000e+00
0.000000000000000e+00 0.000000000000000e+00 0.000000000000000e+00
0.000000000000000e+00 0.000000000000000e+00 0.000000000000000e+00
0.000000000000000e+00 0.000000000000000e+00 0.000000000000000e+00
0.000000000000000e+00 0.000000000000000e+00 0.000000000000000e+00
0.000000000000000e+00 0.000000000000000e+00 0.000000000000000e+00
0.000000000000000e+00 0.000000000000000e+00 0.000000000000000e+00
0.000000000000000e+00 0.000000000000000e+00 0.000000000000000e+00
0.000000000000000e+00 0.000000000000000e+00 0.000000000000000e+00
0.000000000000000e+00 0.000000000000000e+00 0.000000000000000e+00
0.000000000000000e+00 0.000000000000000e+00 0.000000000000000e+00
0.000000000000000e+00 0.000000000000000e+00 0.000000000000000e+00
0.000000000000000e+00 0.000000000000000e+00 0.000000000000000e+00
0.000000000000000e+00 0.000000000000000e+00 0.000000000000000e+00
0.000000000000000e+00 0.000000000000000e+00 0.000000000000000e+00
0.000000000000000e+00 0.000000000000000e+00 0.000000000000000e+00
0.000000000000000e+00 0.000000000000000e+00 0.000000000000000e+00
0.000000000000000e+00 0.000000000000000e+00 0.000000000000000e+00
0.000000000000000e+00 0.000000000000000e+00 0.000000000000000e+00
0.000000000000000e+00 0.000000000000000e+00 0.000000000000000e+00
0.000000000000000e+00 0.000000000000000e+00 0.000000000000000e+00
0.000000000000000e+00 0.000000000000000e+00 0.000000000000000e+00
0.000000000000000e+00 0.000000000000000e+00 0.000000000000000e+00
0.000000000000000e+00 0.000000000000000e+00 0.000000000000000e+00
0.000000000000000e+00 0.000000000000000e+00 0.000000000000000e+00
0.000000000000000e+00 0.000000000000000e+00 0.000000000000000e+00
0.000000000000000e+00 0.000000000000000e+00 0.000000000000000e+00
0.000000000000000e+00 0.000000000000000e+00 0.000000000000000e+00
0.000000000000000e+00 0.000000000000000e+00 0.000000000000000e+00
0.000000000000000e+00 0.000000000000000e+00 0.000000000000000e+00
0.000000000000000e+00 0.000000000000000e+00 0.000000000000000e+00
0.000000000000000e+00 0.000000000000000e+00 0.000000000000000e+00
0.000000000000000e+00 0.000000000000000e+00 0.000000000000000e+00
0.000000000000000e+00 0.000000000000000e+00 0.000000000000000e+00
0.000000000000000e+00 0.000000000000000e+00 0.000000000000000e+00
0.000000000000000e+00 0.000000000000000e+00 0.000000000000000e+00
0.000000000000000e+00 0.000000000000000e+00 0.000000000000000e+00
0.000000000000000e+00 0.000000000000000e+00 0.000000000000000e+00
0.000000000000000e+00 0.000000000000000e+00 0.000000000000000e+00
0.000000000000000e+00 0.000000000000000e+00 0.000000000000000e+00
0.000000000000000e+00 0.000000000000000e+00 0.000000000000000e+00
0.000000000000000e+00 0.000000000000000e+00 0.000000000000000e+00
0.000000000000000e+00 0.000000000000000e+00 0.000000000000000e+00
0.000000000000000e+00 0.000000000000000e+00 0.000000000000000e+00
0.000000000000000e+00 0.000000000000000e+00 0.000000000000000e+00
0.000000000000000e+00 0.000000000000000e+00 0.000000000000000e+00
0.000000000000000e+00 0.000000000000000e+00 0.000000000000000e+00
0.000000000000000e+00 0.000000000000000e+00 0.000000000000000e+00
0.000000000000000e+00 0.000000000000000e+00 0.000000000000000e+00
0.000000000000000e+00 0.000000000000000e+00 0.000000000000000e+00
0.000000000000000e+00 0.000000000000000e+00 0.000000000000000e+00
0.000000000000000e+00 0.000000000000000e+00 0.000000000000000e+00
0.000000000000000e+00 0.000000000000000e+00 0.000000000000000e+00
0.000000000000000e+00 0.000000000000000e+00 0.000000000000000e+00
0.000000000000000e+00 0.000000000000000e+00 0.000000000000000e+00
0.000000000000000e+00 0.000000000000000e+00 0.000000000000000e+00
0.000000000000000e+00 0.000000000000000e+00 0.000000000000000e+00
0.000000000000000e+00 0.000000000000000e+00 0.000000000000000e+00
0.000000000000000e+00 0.000000000000000e+00 0.000000000000000e+00
0.000000000000000e+00 0.000000000000000e+00 0.000000000000000e+00
0.000000000000000e+00 0.000000000000000e+00 0.000000000000000e+00
0.000000000000000e+00 0.000000000000000e+00 0.000000000000000e+00
0.000000000000000e+00 0.000000000000000e+00 0.000000000000000e+00
0.000000000000000e+00 0.000000000000000e+00 0.000000000000000e+00
0.000000000000000e+00 0.000000000000000e+00 0.000000000000000e+00
0.000000000000000e+00 0.000000000000000e+00 0.000000000000000e+00
0.000000000000000e+00 0.000000000000000e+00 0.000000000000000e+00
0.000000000000000e+00 0.000000000000000e+00 0.000000000000000e+00
0.000000000000000e+00 0.000000000000000e+00 0.000000000000000e+00
0.000000000000000e+00 0.000000000000000e+00 0.000000000000000e+00
0.000000000000000e+00 0.000000000000000e+00 0.000000000000000e+00
0.000000000000000e+00 0.000000000000000e+00 0.000000000000000e+00
0.000000000000000e+00 0.000000000000000e+00 0.000000000000000e+00
0.000000000000000e+00 0.000000000000000e+00 0.000000000000000e+00
0.000000000000000e+00 0.000000000000000e+00 0.000000000000000e+00
0.000000000000000e+00 0.000000000000000e+00 0.000000000000000e+00
0.000000000000000e+00 0.000000000000000e+00 0.000000000000000e+00
0.000000000000000e+00 0.000000000000000e+00 0.000000000000000e+00
0.000000000000000e+00 0.000000000000000e+00 0.000000000000000e+00
0.000000000000000e+00 0.000000000000000e+00 0.000000000000000e+00
0.000000000000000e+00 0.000000000000000e+00 0.000000000000000e+00
0.000000000000000e+00 0.000000000000000e+00 0.000000000000000e+00
0.000000000000000e+00 0.000000000000000e+00 0.000000000000000e+00
0.000000000000000e+00 0.000000000000000e+00 0.000000000000000e+00
0.000000000000000e+00 0.000000000000000e+00 0.000000000000000e+00
0.000000000000000e+00 0.000000000000000e+00 0.000000000000000e+00
0.000000000000000e+00 0.000000000000000e+00 0.000000000000000e+00
0.000000000000000e+00 0.000000000000000e+00 0.000000000000000e+00
0.000000000000000e+00 0.000000000000000e+00 0.000000000000000e+00
0.000000000000000e+00 0.000000000000000e+00 0.000000000000000e+00
0.000000000000000e+00 0.000000000000000e+00 0.000000000000000e+00
0.000000000000000e+00 0.000000000000000e+00 0.000000000000000e+00
0.000000000000000e+00 0.000000000000000e+00 0.000000000000000e+00
0.000000000000000e+00 0.000000000000000e+00 0.000000000000000e+00
0.000000000000000e+00 0.000000000000000e+00 0.000000000000000e+00
0.000000000000000e+00 0.000000000000000e+00 0.000000000000000e+00
0.000000000000000e+00 0.000000000000000e+00 0.000000000000000e+00
0.000000000000000e+00 0.000000000000000e+00 0.000000000000000e+00
0.000000000000000e+00 0.000000000000000e+00 0.000000000000000e+00
0.000000000000000e+00 0.000000000000000e+00 0.000000000000000e+00
0.000000000000000e+00 0.000000000000000e+00 0.000000000000000e+00
0.000000000000000e+00 0.000000000000000e+00 0.000000000000000e+00
0.000000000000000e+00 0.000000000000000e+00 0.000000000000000e+00
0.000000000000000e+00 0.000000000000000e+00 0.000000000000000e+00
0.000000000000000e+00 0.000000000000000e+00 0.000000000000000e+00
0.000000000000000e+00 0.000000000000000e+00 0.000000000000000e+00
0.000000000000000e+00 0.000000000000000e+00 0.000000000000000e+00
0.000000000000000e+00 0.000000000000000e+00 0.000000000000000e+00
0.000000000000000e+00 0.000000000000000e+00 0.000000000000000e+00
0.000000000000000e+00 0.000000000000000e+00 0.000000000000000e+00
0.000000000000000e+00 0.000000000000000e+00 0.000000000000000e+00
0.000000000000000e+00 0.000000000000000e+00 0.000000000000000e+00
0.000000000000000e+00 0.000000000000000e+00 0.000000000000000e+00
0.000000000000000e+00 0.000000000000000e+00 0.000000000000000e+00
0.000000000000000e+00 0.000000000000000e+00 0.000000000000000e+00
0.000000000000000e+00 0.000000000000000e+00 0.000000000000000e+00
0.000000000000000e+00 0.000000000000000e+00 0.000000000000000e+00
0.000000000000000e+00 0.000000000000000e+00 0.000000000000000e+00
0.000000000000000e+00 0.000000000000000e+00 0.000000000000000e+00
0.000000000000000e+00 0.000000000000000e+00 0.000000000000000e+00
0.000000000000000e+00 0.000000000000000e+00 0.000000000000000e+00
0.000000000000000e+00 0.000000000000000e+00 0.000000000000000e+00
0.000000000000000e+00 0.000000000000000e+00 0.000000000000000e+00
0.000000000000000e+00 0.000000000000000e+00 0.000000000000000e+00
0.000000000000000e+00 0.000000000000000e+00 0.000000000000000e+00
0.000000000000000e+00 0.000000000000000e+00 0.000000000000000e+00
0.000000000000000e+00 0.000000000000000e+00 0.000000000000000e+00
0.000000000000000e+00 0.000000000000000e+00 0.000000000000000e+00
0.000000000000000e+00 0.000000000000000e+00 0.000000000000000e+00
0.000000000000000e+00 0.000000000000000e+00 0.000000000000000e+00
0.000000000000000e+00 0.000000000000000e+00 0.000000000000000e+00
0.000000000000000e+00 0.000000000000000e+00 0.000000000000000e+00
0.000000000000000e+00 0.000000000000000e+00 0.000000000000000e+00
0.000000000000000e+00 0.000000000000000e+00 0.000000000000000e+00
0.000000000000000e+00 0.000000000000000e+00 0.000000000000000e+00
0.000000000000000e+00 0.000000000000000e+00 0.000000000000000e+00
0.000000000000000e+00 0.000000000000000e+00 0.000000000000000e+00
0.000000000000000e+00 0.000000000000000e+00 0.000000000000000e+00
0.000000000000000e+00 0.000000000000000e+00 0.000000000000000e+00
0.000000000000000e+00 0.000000000000000e+00 0.000000000000000e+00
0.000000000000000e+00 0.000000000000000e+00 0.000000000000000e+00
0.000000000000000e+00 0.000000000000000e+00 0.000000000000000e+00
0.000000000000000e+00 0.000000000000000e+00 0.000000000000000e+00
0.000000000000000e+00 0.000000000000000e+00 0.000000000000000e+00
0.000000000000000e+00 0.000000000000000e+00 0.000000000000000e+00
0.000000000000000e+00 0.000000000000000e+00 0.000000000000000e+00
0.000000000000000e+00 0.000000000000000e+00 0.000000000000000e+00
0.000000000000000e+00 0.000000000000000e+00 0.000000000000000e+00
0.000000000000000e+00 0.000000000000000e+00 0.000000000000000e+00
0.000000000000000e+00 0.000000000000000e+00 0.000000000000000e+00
0.000000000000000e+00 0.000000000000000e+00 0.000000000000000e+00
0.000000000000000e+00 0.000000000000000e+00 0.000000000000000e+00
0.000000000000000e+00 0.000000000000000e+00 0.000000000000000e+00
0.000000000000000e+00 0.000000000000000e+00 0.000000000000000e+00
0.000000000000000e+00 0.000000000000000e+00 0.000000000000000e+00
0.000000000000000e+00 0.000000000000000e+00 0.000000000000000e+00
0.000000000000000e+00 0.000000000000000e+00 0.000000000000000e+00
0.000000000000000e+00 0.000000000000000e+00 0.000000000000000e+00
0.000000000000000e+00 0.000000000000000e+00 0.000000000000000e+00
0.000000000000000e+00 0.000000000000000e+00 0.000000000000000e+00
0.000000000000000e+00 0.000000000000000e+00 0.000000000000000e+00
0.000000000000000e+00 0.000000000000000e+00 0.000000000000000e+00
0.000000000000000e+00 0.000000000000000e+00 0.000000000000000e+00
0.000000000000000e+00 0.000000000000000e+00 0.000000000000000e+00
0.000000000000000e+00 0.000000000000000e+00 0.000000000000000e+00
0.000000000000000e+00 0.000000000000000e+00 0.000000000000000e+00
0.000000000000000e+00 0.000000000000000e+00 0.000000000000000e+00
0.000000000000000e+00 0.000000000000000e+00 0.000000000000000e+00
0.000000000000000e+00 0.000000000000000e+00 0.000000000000000e+00
0.000000000000000e+00 0.000000000000000e+00 0.000000000000000e+00
0.000000000000000e+00 0.000000000000000e+00 0.000000000000000e+00
0.000000000000000e+00 0.000000000000000e+00 0.000000000000000e+00
0.000000000000000e+00 0.000000000000000e+00 0.000000000000000e+00
0.000000000000000e+00 0.000000000000000e+00 0.000000000000000e+00
0.000000000000000e+00 0.000000000000000e+00 0.000000000000000e+00
0.000000000000000e+00 0.000000000000000e+00 0.000000000000000e+00
0.000000000000000e+00 0.000000000000000e+00 0.000000000000000e+00
0.000000000000000e+00 0.000000000000000e+00 0.000000000000000e+00
0.000000000000000e+00 0.000000000000000e+00 0.000000000000000e+00
0.000000000000000e+00 0.000000000000000e+00 0.000000000000000e+00
0.000000000000000e+00 0.000000000000000e+00 0.000000000000000e+00
0.000000000000000e+00 0.000000000000000e+00 0.000000000000000e+00
0.000000000000000e+00 0.000000000000000e+00 0.000000000000000e+00
0.000000000000000e+00 0.000000000000000e+00 0.000000000000000e+00
0.000000000000000e+00 0.000000000000000e+00 0.000000000000000e+00
0.000000000000000e+00 0.000000000000000e+00 0.000000000000000e+00
0.000000000000000e+00 0.000000000000000e+00 0.000000000000000e+00
0.000000000000000e+00 0.000000000000000e+00 0.000000000000000e+00
0.000000000000000e+00 0.000000000000000e+00 0.000000000000000e+00
0.000000000000000e+00 0.000000000000000e+00 0.000000000000000e+00
0.000000000000000e+00 0.000000000000000e+00 0.000000000000000e+00
0.000000000000000e+00 0.000000000000000e+00 0.000000000000000e+00
0.000000000000000e+00 0.000000000000000e+00 0.000000000000000e+00
0.000000000000000e+00 0.000000000000000e+00 0.000000000000000e+00
0.000000000000000e+00 0.000000000000000e+00 0.000000000000000e+00
0.000000000000000e+00 0.000000000000000e+00 0.000000000000000e+00
0.000000000000000e+00 0.000000000000000e+00 0.000000000000000e+00
0.000000000000000e+00 0.000000000000000e+00 0.000000000000000e+00
0.000000000000000e+00 0.000000000000000e+00 0.000000000000000e+00
0.000000000000000e+00 0.000000000000000e+00 0.000000000000000e+00
0.000000000000000e+00 0.000000000000000e+00 0.000000000000000e+00
0.000000000000000e+00 0.000000000000000e+00 0.000000000000000e+00
0.000000000000000e+00 0.000000000000000e+00 0.000000000000000e+00
0.000000000000000e+00 0.000000000000000e+00 0.000000000000000e+00
0.000000000000000e+00 0.000000000000000e+00 0.000000000000000e+00
0.000000000000000e+00 0.000000000000000e+00 0.000000000000000e+00
0.000000000000000e+00 0.000000000000000e+00 0.000000000000000e+00
0.000000000000000e+00 0.000000000000000e+00 0.000000000000000e+00
0.000000000000000e+00 0.000000000000000e+00 0.000000000000000e+00
0.000000000000000e+00 0.000000000000000e+00 0.000000000000000e+00
0.000000000000000e+00 0.000000000000000e+00 0.000000000000000e+00
0.000000000000000e+00 0.000000000000000e+00 0.000000000000000e+00
0.000000000000000e+00 0.000000000000000e+00 0.000000000000000e+00
0.000000000000000e+00 0.000000000000000e+00 0.000000000000000e+00
0.000000000000000e+00 0.000000000000000e+00 0.000000000000000e+00
0.000000000000000e+00 0.000000000000000e+00 0.000000000000000e+00
0.000000000000000e+00 0.000000000000000e+00 0.000000000000000e+00
0.000000000000000e+00 0.000000000000000e+00 0.000000000000000e+00
0.000000000000000e+00 0.000000000000000e+00 0.000000000000000e+00
0.000000000000000e+00 0.000000000000000e+00 0.000000000000000e+00
0.000000000000000e+00 0.000000000000000e+00 0.000000000000000e+00
0.000000000000000e+00 0.000000000000000e+00 0.000000000000000e+00
0.000000000000000e+00 0.000000000000000e+00 0.000000000000000e+00
0.000000000000000e+00 0.000000000000000e+00 0.000000000000000e+00
0.000000000000000e+00 0.000000000000000e+00 0.000000000000000e+00
0.000000000000000e+00 0.000000000000000e+00 0.000000000000000e+00
0.000000000000000e+00 0.000000000000000e+00 0.000000000000000e+00
0.000000000000000e+00 0.000000000000000e+00 0.000000000000000e+00
0.000000000000000e+00 0.000000000000000e+00 0.000000000000000e+00
0.000000000000000e+00 0.000000000000000e+00 0.000000000000000e+00
0.000000000000000e+00 0.000000000000000e+00 0.000000000000000e+00
0.000000000000000e+00 0.000000000000000e+00 0.000000000000000e+00
0.000000000000000e+00 0.000000000000000e+00 0.000000000000000e+00
0.000000000000000e+00 0.000000000000000e+00 0.000000000000000e+00
0.000000000000000e+00 0.000000000000000e+00 0.000000000000000e+00
0.000000000000000e+00 0.000000000000000e+00 0.000000000000000e+00
0.000000000000000e+00 0.000000000000000e+00 0.000000000000000e+00
0.000000000000000e+00 0.000000000000000e+00 0.000000000000000e+00
0.000000000000000e+00 0.000000000000000e+00 0.000000000000000e+00
0.000000000000000e+00 0.000000000000000e+00 0.000000000000000e+00
0.000000000000000e+00 0.000000000000000e+00 0.000000000000000e+00
0.000000000000000e+00 0.000000000000000e+00 0.000000000000000e+00
0.000000000000000e+00 0.000000000000000e+00 0.000000000000000e+00
0.000000000000000e+00 0.000000000000000e+00 0.000000000000000e+00
0.000000000000000e+00 0.000000000000000e+00 0.000000000000000e+00
0.000000000000000e+00 0.000000000000000e+00 0.000000000000000e+00
0.000000000000000e+00 0.000000000000000e+00 0.000000000000000e+00
0.000000000000000e+00 0.000000000000000e+00 0.000000000000000e+00
0.000000000000000e+00 0.000000000000000e+00 0.000000000000000e+00
0.000000000000000e+00 0.000000000000000e+00 0.000000000000000e+00
0.000000000000000e+00 0.000000000000000e+00 0.000000000000000e+00
0.000000000000000e+00 0.000000000000000e+00 0.000000000000000e+00
0.000000000000000e+00 0.000000000000000e+00 0.000000000000000e+00
0.000000000000000e+00 0.000000000000000e+00 0.000000000000000e+00
0.000000000000000e+00 0.000000000000000e+00 0.000000000000000e+00
0.000000000000000e+00 0.000000000000000e+00 0.000000000000000e+00
0.000000000000000e+00 0.000000000000000e+00 0.000000000000000e+00
0.000000000000000e+00 0.000000000000000e+00 0.000000000000000e+00
0.000000000000000e+00 0.000000000000000e+00 0.000000000000000e+00
0.000000000000000e+00 0.000000000000000e+00 0.000000000000000e+00
0.000000000000000e+00 0.000000000000000e+00 0.000000000000000e+00
0.000000000000000e+00 0.000000000000000e+00 0.000000000000000e+00
0.000000000000000e+00 0.000000000000000e+00 0.000000000000000e+00
0.000000000000000e+00 0.000000000000000e+00 0.000000000000000e+00
0.000000000000000e+00 0.000000000000000e+00 0.000000000000000e+00
0.000000000000000e+00 0.000000000000000e+00 0.000000000000000e+00
0.000000000000000e+00 0.000000000000000e+00 0.000000000000000e+00
0.000000000000000e+00 0.000000000000000e+00 0.000000000000000e+00
0.000000000000000e+00 0.000000000000000e+00 0.000000000000000e+00
0.000000000000000e+00 0.000000000000000e+00 0.000000000000000e+00
0.000000000000000e+00 0.000000000000000e+00 0.000000000000000e+00
0.000000000000000e+00 0.000000000000000e+00 0.000000000000000e+00
0.000000000000000e+00 0.000000000000000e+00 0.000000000000000e+00
0.000000000000000e+00 0.000000000000000e+00 0.000000000000000e+00
0.000000000000000e+00 0.000000000000000e+00 0.000000000000000e+00
0.000000000000000e+00 0.000000000000000e+00 0.000000000000000e+00
0.000000000000000e+00 0.000000000000000e+00 0.000000000000000e+00
0.000000000000000e+00 0.000000000000000e+00 0.000000000000000e+00
0.000000000000000e+00 0.000000000000000e+00 0.000000000000000e+00
0.000000000000000e+00 0.000000000000000e+00 0.000000000000000e+00
0.000000000000000e+00 0.000000000000000e+00 0.000000000000000e+00
0.000000000000000e+00 0.000000000000000e+00 0.000000000000000e+00
0.000000000000000e+00 0.000000000000000e+00 0.000000000000000e+00
0.000000000000000e+00 0.000000000000000e+00 0.000000000000000e+00
0.000000000000000e+00 0.000000000000000e+00 0.000000000000000e+00
0.000000000000000e+00 0.000000000000000e+00 0.000000000000000e+00
0.000000000000000e+00 0.000000000000000e+00 0.000000000000000e+00
0.000000000000000e+00 0.000000000000000e+00 0.000000000000000e+00
0.000000000000000e+00 0.000000000000000e+00 0.000000000000000e+00
0.000000000000000e+00 0.000000000000000e+00 0.000000000000000e+00
0.000000000000000e+00 0.000000000000000e+00 0.000000000000000e+00
0.000000000000000e+00 0.000000000000000e+00 0.000000000000000e+00
0.000000000000000e+00 0.000000000000000e+00 0.000000000000000e+00
0.000000000000000e+00 0.000000000000000e+00 0.000000000000000e+00
0.000000000000000e+00 0.000000000000000e+00 0.000000000000000e+00
0.000000000000000e+00 0.000000000000000e+00 0.000000000000000e+00
0.000000000000000e+00 0.000000000000000e+00 0.000000000000000e+00
0.000000000000000e+00 0.000000000000000e+00 0.000000000000000e+00
0.000000000000000e+00 0.000000000000000e+00 0.000000000000000e+00
0.000000000000000e+00 0.000000000000000e+00 0.000000000000000e+00
0.000000000000000e+00 0.000000000000000e+00 0.000000000000000e+00
0.000000000000000e+00 0.000000000000000e+00 0.000000000000000e+00
0.000000000000000e+00 0.000000000000000e+00 0.000000000000000e+00
0.000000000000000e+00 0.000000000000000e+00 0.000000000000000e+00
0.000000000000000e+00 0.000000000000000e+00 0.000000000000000e+00
0.000000000000000e+00 0.000000000000000e+00 0.000000000000000e+00
0.000000000000000e+00 0.000000000000000e+00 0.000000000000000e+00
0.000000000000000e+00 0.000000000000000e+00 0.000000000000000e+00
0.000000000000000e+00 0.000000000000000e+00 0.000000000000000e+00
0.000000000000000e+00 0.000000000000000e+00 0.000000000000000e+00
0.000000000000000e+00 0.000000000000000e+00 0.000000000000000e+00
0.000000000000000e+00 0.000000000000000e+00 0.000000000000000e+00
0.000000000000000e+00 0.000000000000000e+00 0.000000000000000e+00
0.000000000000000e+00 0.000000000000000e+00 0.000000000000000e+00
0.000000000000000e+00 0.000000000000000e+00 0.000000000000000e+00
0.000000000000000e+00 0.000000000000000e+00 0.000000000000000e+00
0.000000000000000e+00 0.000000000000000e+00 0.000000000000000e+00
0.000000000000000e+00 0.000000000000000e+00 0.000000000000000e+00
0.000000000000000e+00 0.000000000000000e+00 0.000000000000000e+00
0.000000000000000e+00 0.000000000000000e+00 0.000000000000000e+00
0.000000000000000e+00 0.000000000000000e+00 0.000000000000000e+00
0.000000000000000e+00 0.000000000000000e+00 0.000000000000000e+00
0.000000000000000e+00 0.000000000000000e+00 0.000000000000000e+00
0.000000000000000e+00 0.000000000000000e+00 0.000000000000000e+00
0.000000000000000e+00 0.000000000000000e+00 0.000000000000000e+00
0.000000000000000e+00 0.000000000000000e+00 0.000000000000000e+00
0.000000000000000e+00 0.000000000000000e+00 0.000000000000000e+00
0.000000000000000e+00 0.000000000000000e+00 0.000000000000000e+00
0.000000000000000e+00 0.000000000000000e+00 0.000000000000000e+00
0.000000000000000e+00 0.000000000000000e+00 0.000000000000000e+00
0.000000000000000e+00 0.000000000000000e+00 0.000000000000000e+00
0.000000000000000e+00 0.000000000000000e+00 0.000000000000000e+00
0.000000000000000e+00 0.000000000000000e+00 0.000000000000000e+00
0.000000000000000e+00 0.000000000000000e+00 0.000000000000000e+00
0.000000000000000e+00 0.000000000000000e+00 0.000000000000000e+00
0.000000000000000e+00 0.000000000000000e+00 0.000000000000000e+00
0.000000000000000e+00 0.000000000000000e+00 0.000000000000000e+00
0.000000000000000e+00 0.000000000000000e+00 0.000000000000000e+00
0.000000000000000e+00 0.000000000000000e+00 0.000000000000000e+00
0.000000000000000e+00 0.000000000000000e+00 0.000000000000000e+00
0.000000000000000e+00 0.000000000000000e+00 0.000000000000000e+00
0.000000000000000e+00 0.000000000000000e+00 0.000000000000000e+00
0.000000000000000e+00 0.000000000000000e+00 0.000000000000000e+00
0.000000000000000e+00 0.000000000000000e+00 0.000000000000000e+00
0.000000000000000e+00 0.000000000000000e+00 0.000000000000000e+00
0.000000000000000e+00 0.000000000000000e+00 0.000000000000000e+00
0.000000000000000e+00 0.000000000000000e+00 0.000000000000000e+00
0.000000000000000e+00 0.000000000000000e+00 0.000000000000000e+00
0.000000000000000e+00 0.000000000000000e+00 0.000000000000000e+00
0.000000000000000e+00 0.000000000000000e+00 0.000000000000000e+00
0.000000000000000e+00 0.000000000000000e+00 0.000000000000000e+00
0.000000000000000e+00 0.000000000000000e+00 0.000000000000000e+00
0.000000000000000e+00 0.000000000000000e+00 0.000000000000000e+00
0.000000000000000e+00 0.000000000000000e+00 0.000000000000000e+00
0.000000000000000e+00 0.000000000000000e+00 0.000000000000000e+00
0.000000000000000e+00 0.000000000000000e+00 0.000000000000000e+00
0.000000000000000e+00 0.000000000000000e+00 0.000000000000000e+00
0.000000000000000e+00 0.000000000000000e+00 0.000000000000000e+00
0.000000000000000e+00 0.000000000000000e+00 0.000000000000000e+00
0.000000000000000e+00 0.000000000000000e+00 0.000000000000000e+00
0.000000000000000e+00 0.000000000000000e+00 0.000000000000000e+00
0.000000000000000e+00 0.000000000000000e+00 0.000000000000000e+00
0.000000000000000e+00 0.000000000000000e+00 0.000000000000000e+00
0.000000000000000e+00 0.000000000000000e+00 0.000000000000000e+00
0.000000000000000e+00 0.000000000000000e+00 0.000000000000000e+00
0.000000000000000e+00 0.000000000000000e+00 0.000000000000000e+00
0.000000000000000e+00 0.000000000000000e+00 0.000000000000000e+00
0.000000000000000e+00 0.000000000000000e+00 0.000000000000000e+00
0.000000000000000e+00 0.000000000000000e+00 0.000000000000000e+00
0.000000000000000e+00 0.000000000000000e+00 0.000000000000000e+00
0.000000000000000e+00 0.000000000000000e+00 0.000000000000000e+00
0.000000000000000e+00 0.000000000000000e+00 0.000000000000000e+00
0.000000000000000e+00 0.000000000000000e+00 0.000000000000000e+00
0.000000000000000e+00 0.000000000000000e+00 0.000000000000000e+00
0.000000000000000e+00 0.000000000000000e+00 0.000000000000000e+00
0.000000000000000e+00 0.000000000000000e+00 0.000000000000000e+00
0.000000000000000e+00 0.000000000000000e+00 0.000000000000000e+00
0.000000000000000e+00 0.000000000000000e+00 0.000000000000000e+00
0.000000000000000e+00 0.000000000000000e+00 0.000000000000000e+00
0.000000000000000e+00 0.000000000000000e+00 0.000000000000000e+00
0.000000000000000e+00 0.000000000000000e+00 0.000000000000000e+00
0.000000000000000e+00 0.000000000000000e+00 0.000000000000000e+00
0.000000000000000e+00 0.000000000000000e+00 0.000000000000000e+00
0.000000000000000e+00 0.000000000000000e+00 0.000000000000000e+00
0.000000000000000e+00 0.000000000000000e+00 0.000000000000000e+00
0.000000000000000e+00 0.000000000000000e+00 0.000000000000000e+00
0.000000000000000e+00 0.000000000000000e+00 0.000000000000000e+00
0.000000000000000e+00 0.000000000000000e+00 0.000000000000000e+00
0.000000000000000e+00 0.000000000000000e+00 0.000000000000000e+00
0.000000000000000e+00 0.000000000000000e+00 0.000000000000000e+00
0.000000000000000e+00 0.000000000000000e+00 0.000000000000000e+00
0.000000000000000e+00 0.000000000000000e+00 0.000000000000000e+00
0.000000000000000e+00 0.000000000000000e+00 0.000000000000000e+00
0.000000000000000e+00 0.000000000000000e+00 0.000000000000000e+00
0.000000000000000e+00 0.000000000000000e+00 0.000000000000000e+00
0.000000000000000e+00 0.000000000000000e+00 0.000000000000000e+00
0.000000000000000e+00 0.000000000000000e+00 0.000000000000000e+00
0.000000000000000e+00 0.000000000000000e+00 0.000000000000000e+00
0.000000000000000e+00 0.000000000000000e+00 0.000000000000000e+00
0.000000000000000e+00 0.000000000000000e+00 0.000000000000000e+00
0.000000000000000e+00 0.000000000000000e+00 0.000000000000000e+00
0.000000000000000e+00 0.000000000000000e+00 0.000000000000000e+00
0.000000000000000e+00 0.000000000000000e+00 0.000000000000000e+00
0.000000000000000e+00 0.000000000000000e+00 0.000000000000000e+00
0.000000000000000e+00 0.000000000000000e+00 0.000000000000000e+00
0.000000000000000e+00 0.000000000000000e+00 0.000000000000000e+00
0.000000000000000e+00 0.000000000000000e+00 0.000000000000000e+00
0.000000000000000e+00 0.000000000000000e+00 0.000000000000000e+00
0.000000000000000e+00 0.000000000000000e+00 0.000000000000000e+00
0.000000000000000e+00 0.000000000000000e+00 0.000000000000000e+00
0.000000000000000e+00 0.000000000000000e+00 0.000000000000000e+00
0.000000000000000e+00 0.000000000000000e+00 0.000000000000000e+00
0.000000000000000e+00 0.000000000000000e+00 0.000000000000000e+00
0.000000000000000e+00 0.000000000000000e+00 0.000000000000000e+00
0.000000000000000e+00 0.000000000000000e+00 0.000000000000000e+00
0.000000000000000e+00 0.000000000000000e+00 0.000000000000000e+00
0.000000000000000e+00 0.000000000000000e+00 0.000000000000000e+00
0.000000000000000e+00 0.000000000000000e+00 0.000000000000000e+00
0.000000000000000e+00 0.000000000000000e+00 0.000000000000000e+00
0.000000000000000e+00 0.000000000000000e+00 0.000000000000000e+00
0.000000000000000e+00 0.000000000000000e+00 0.000000000000000e+00
0.000000000000000e+00 0.000000000000000e+00 0.000000000000000e+00
0.000000000000000e+00 0.000000000000000e+00 0.000000000000000e+00
0.000000000000000e+00 0.000000000000000e+00 0.000000000000000e+00
0.000000000000000e+00 0.000000000000000e+00 0.000000000000000e+00
0.000000000000000e+00 0.000000000000000e+00 0.000000000000000e+00
0.000000000000000e+00 0.000000000000000e+00 0.000000000000000e+00
0.000000000000000e+00 0.000000000000000e+00 0.000000000000000e+00
0.000000000000000e+00 0.000000000000000e+00 0.000000000000000e+00
0.000000000000000e+00 0.000000000000000e+00 0.000000000000000e+00
0.000000000000000e+00 0.000000000000000e+00 0.000000000000000e+00
0.000000000000000e+00 0.000000000000000e+00 0.000000000000000e+00
0.000000000000000e+00 0.000000000000000e+00 0.000000000000000e+00
0.000000000000000e+00 0.000000000000000e+00 0.000000000000000e+00
0.000000000000000e+00 0.000000000000000e+00 0.000000000000000e+00
0.000000000000000e+00 0.000000000000000e+00 0.000000000000000e+00
0.000000000000000e+00 0.000000000000000e+00 0.000000000000000e+00
0.000000000000000e+00 0.000000000000000e+00 0.000000000000000e+00
0.000000000000000e+00 0.000000000000000e+00 0.000000000000000e+00
0.000000000000000e+00 0.000000000000000e+00 0.000000000000000e+00
0.000000000000000e+00 0.000000000000000e+00 0.000000000000000e+00
0.000000000000000e+00 0.000000000000000e+00 0.000000000000000e+00
0.000000000000000e+00 0.000000000000000e+00 0.000000000000000e+00
0.000000000000000e+00 0.000000000000000e+00 0.000000000000000e+00
0.000000000000000e+00 0.000000000000000e+00 0.000000000000000e+00
0.000000000000000e+00 0.000000000000000e+00 0.000000000000000e+00
0.000000000000000e+00 0.000000000000000e+00 0.000000000000000e+00
0.000000000000000e+00 0.000000000000000e+00 0.000000000000000e+00
0.000000000000000e+00 0.000000000000000e+00 0.000000000000000e+00
0.000000000000000e+00 0.000000000000000e+00 0.000000000000000e+00
0.000000000000000e+00 0.000000000000000e+00 0.000000000000000e+00
0.000000000000000e+00 0.000000000000000e+00 0.000000000000000e+00
0.000000000000000e+00 0.000000000000000e+00 0.000000000000000e+00
0.000000000000000e+00 0.000000000000000e+00 0.000000000000000e+00
0.000000000000000e+00 0.000000000000000e+00 0.000000000000000e+00
0.000000000000000e+00 0.000000000000000e+00 0.000000000000000e+00
0.000000000000000e+00 0.000000000000000e+00 0.000000000000000e+00
0.000000000000000e+00 0.000000000000000e+00 0.000000000000000e+00
0.000000000000000e+00 0.000000000000000e+00 0.000000000000000e+00
0.000000000000000e+00 0.000000000000000e+00 0.000000000000000e+00
0.000000000000000e+00 0.000000000000000e+00 0.000000000000000e+00
0.000000000000000e+00 0.000000000000000e+00 0.000000000000000e+00
0.000000000000000e+00 0.000000000000000e+00 0.000000000000000e+00
0.000000000000000e+00 0.000000000000000e+00 0.000000000000000e+00
0.000000000000000e+00 0.000000000000000e+00 0.000000000000000e+00
0.000000000000000e+00 0.000000000000000e+00 0.000000000000000e+00
0.000000000000000e+00 0.000000000000000e+00 0.000000000000000e+00
0.000000000000000e+00 0.000000000000000e+00 0.000000000000000e+00
0.000000000000000e+00 0.000000000000000e+00 0.000000000000000e+00
0.000000000000000e+00 0.000000000000000e+00 0.000000000000000e+00
0.000000000000000e+00 0.000000000000000e+00 0.000000000000000e+00
0.000000000000000e+00 0.000000000000000e+00 0.000000000000000e+00
0.000000000000000e+00 0.000000000000000e+00 0.000000000000000e+00
0.000000000000000e+00 0.000000000000000e+00 0.000000000000000e+00
0.000000000000000e+00 0.000000000000000e+00 0.000000000000000e+00
0.000000000000000e+00 0.000000000000000e+00 0.000000000000000e+00
0.000000000000000e+00 0.000000000000000e+00 0.000000000000000e+00
0.000000000000000e+00 0.000000000000000e+00 0.000000000000000e+00
0.000000000000000e+00 0.000000000000000e+00 0.000000000000000e+00
0.000000000000000e+00 0.000000000000000e+00 0.000000000000000e+00
0.000000000000000e+00 0.000000000000000e+00 0.000000000000000e+00
0.000000000000000e+00 0.000000000000000e+00 0.000000000000000e+00
0.000000000000000e+00 0.000000000000000e+00 0.000000000000000e+00
0.000000000000000e+00 0.000000000000000e+00 0.000000000000000e+00
0.000000000000000e+00 0.000000000000000e+00 0.000000000000000e+00
0.000000000000000e+00 0.000000000000000e+00 0.000000000000000e+00
0.000000000000000e+00 0.000000000000000e+00 0.000000000000000e+00
0.000000000000000e+00 0.000000000000000e+00 0.000000000000000e+00
0.000000000000000e+00 0.000000000000000e+00 0.000000000000000e+00
0.000000000000000e+00 0.000000000000000e+00 0.000000000000000e+00
0.000000000000000e+00 0.000000000000000e+00 0.000000000000000e+00
0.000000000000000e+00 0.000000000000000e+00 0.000000000000000e+00
0.000000000000000e+00 0.000000000000000e+00 0.000000000000000e+00
0.000000000000000e+00 0.000000000000000e+00 0.000000000000000e+00
0.000000000000000e+00 0.000000000000000e+00 0.000000000000000e+00
0.000000000000000e+00 0.000000000000000e+00 0.000000000000000e+00
0.000000000000000e+00 0.000000000000000e+00 0.000000000000000e+00
0.000000000000000e+00 0.000000000000000e+00 0.000000000000000e+00
0.000000000000000e+00 0.000000000000000e+00 0.000000000000000e+00
0.000000000000000e+00 0.000000000000000e+00 0.000000000000000e+00
0.000000000000000e+00 0.000000000000000e+00 0.000000000000000e+00
0.000000000000000e+00 0.000000000000000e+00 0.000000000000000e+00
0.000000000000000e+00 0.000000000000000e+00 0.000000000000000e+00
0.000000000000000e+00 0.000000000000000e+00 0.000000000000000e+00
0.000000000000000e+00 0.000000000000000e+00 0.000000000000000e+00
0.000000000000000e+00 0.000000000000000e+00 0.000000000000000e+00
0.000000000000000e+00 0.000000000000000e+00 0.000000000000000e+00
0.000000000000000e+00 0.000000000000000e+00 0.000000000000000e+00
0.000000000000000e+00 0.000000000000000e+00 0.000000000000000e+00
0.000000000000000e+00 0.000000000000000e+00 0.000000000000000e+00
0.000000000000000e+00 0.000000000000000e+00 0.000000000000000e+00
0.000000000000000e+00 0.000000000000000e+00 0.000000000000000e+00
0.000000000000000e+00 0.000000000000000e+00 0.000000000000000e+00
0.000000000000000e+00 0.000000000000000e+00 0.000000000000000e+00
0.000000000000000e+00 0.000000000000000e+00 0.000000000000000e+00
0.000000000000000e+00 0.000000000000000e+00 0.000000000000000e+00
0.000000000000000e+00 0.000000000000000e+00 0.000000000000000e+00
0.000000000000000e+00 0.000000000000000e+00 0.000000000000000e+00
0.000000000000000e+00 0.000000000000000e+00 0.000000000000000e+00
0.000000000000000e+00 0.000000000000000e+00 0.000000000000000e+00
0.000000000000000e+00 0.000000000000000e+00 0.000000000000000e+00
0.000000000000000e+00 0.000000000000000e+00 0.000000000000000e+00
0.000000000000000e+00 0.000000000000000e+00 0.000000000000000e+00
0.000000000000000e+00 0.000000000000000e+00 0.000000000000000e+00
0.000000000000000e+00 0.000000000000000e+00 0.000000000000000e+00
0.000000000000000e+00 0.000000000000000e+00 0.000000000000000e+00
0.000000000000000e+00 0.000000000000000e+00 0.000000000000000e+00
0.000000000000000e+00 0.000000000000000e+00 0.000000000000000e+00
0.000000000000000e+00 0.000000000000000e+00 0.000000000000000e+00
0.000000000000000e+00 0.000000000000000e+00 0.000000000000000e+00
0.000000000000000e+00 0.000000000000000e+00 0.000000000000000e+00
0.000000000000000e+00 0.000000000000000e+00 0.000000000000000e+00
0.000000000000000e+00 0.000000000000000e+00 0.000000000000000e+00
0.000000000000000e+00 0.000000000000000e+00 0.000000000000000e+00
0.000000000000000e+00 0.000000000000000e+00 0.000000000000000e+00
0.000000000000000e+00 0.000000000000000e+00 0.000000000000000e+00
0.000000000000000e+00 0.000000000000000e+00 0.000000000000000e+00
0.000000000000000e+00 0.000000000000000e+00 0.000000000000000e+00
0.000000000000000e+00 0.000000000000000e+00 0.000000000000000e+00
0.000000000000000e+00 0.000000000000000e+00 0.000000000000000e+00
0.000000000000000e+00 0.000000000000000e+00 0.000000000000000e+00
0.000000000000000e+00 0.000000000000000e+00 0.000000000000000e+00
0.000000000000000e+00 0.000000000000000e+00 0.000000000000000e+00
0.000000000000000e+00 0.000000000000000e+00 0.000000000000000e+00
0.000000000000000e+00 0.000000000000000e+00 0.000000000000000e+00
0.000000000000000e+00 0.000000000000000e+00 0.000000000000000e+00
0.000000000000000e+00 0.000000000000000e+00 0.000000000000000e+00
0.000000000000000e+00 0.000000000000000e+00 0.000000000000000e+00
0.000000000000000e+00 0.000000000000000e+00 0.000000000000000e+00
0.000000000000000e+00 0.000000000000000e+00 0.000000000000000e+00
0.000000000000000e+00 0.000000000000000e+00 0.000000000000000e+00
0.000000000000000e+00 0.000000000000000e+00 0.000000000000000e+00
0.000000000000000e+00 0.000000000000000e+00 0.000000000000000e+00
0.000000000000000e+00 0.000000000000000e+00 0.000000000000000e+00
0.000000000000000e+00 0.000000000000000e+00 0.000000000000000e+00
0.000000000000000e+00 0.000000000000000e+00 0.000000000000000e+00
0.000000000000000e+00 0.000000000000000e+00 0.000000000000000e+00
0.000000000000000e+00 0.000000000000000e+00 0.000000000000000e+00
0.000000000000000e+00 0.000000000000000e+00 0.000000000000000e+00
0.000000000000000e+00 0.000000000000000e+00 0.000000000000000e+00
0.000000000000000e+00 0.000000000000000e+00 0.000000000000000e+00
0.000000000000000e+00 0.000000000000000e+00 0.000000000000000e+00
0.000000000000000e+00 0.000000000000000e+00 0.000000000000000e+00
0.000000000000000e+00 0.000000000000000e+00 0.000000000000000e+00
0.000000000000000e+00 0.000000000000000e+00 0.000000000000000e+00
0.000000000000000e+00 0.000000000000000e+00 0.000000000000000e+00
0.000000000000000e+00 0.000000000000000e+00 0.000000000000000e+00
0.000000000000000e+00 0.000000000000000e+00 0.000000000000000e+00
0.000000000000000e+00 0.000000000000000e+00 0.000000000000000e+00
0.000000000000000e+00 0.000000000000000e+00 0.000000000000000e+00
0.000000000000000e+00 0.000000000000000e+00 0.000000000000000e+00
0.000000000000000e+00 0.000000000000000e+00 0.000000000000000e+00
0.000000000000000e+00 0.000000000000000e+00 0.000000000000000e+00
0.000000000000000e+00 0.000000000000000e+00 0.000000000000000e+00
0.000000000000000e+00 0.000000000000000e+00 0.000000000000000e+00
0.000000000000000e+00 0.000000000000000e+00 0.000000000000000e+00
0.000000000000000e+00 0.000000000000000e+00 0.000000000000000e+00
0.000000000000000e+00 0.000000000000000e+00 0.000000000000000e+00
0.000000000000000e+00 0.000000000000000e+00 0.000000000000000e+00
0.000000000000000e+00 0.000000000000000e+00 0.000000000000000e+00
0.000000000000000e+00 0.000000000000000e+00 0.000000000000000e+00
0.000000000000000e+00 0.000000000000000e+00 0.000000000000000e+00
0.000000000000000e+00 0.000000000000000e+00 0.000000000000000e+00
0.000000000000000e+00 0.000000000000000e+00 0.000000000000000e+00
0.000000000000000e+00 0.000000000000000e+00 0.000000000000000e+00
0.000000000000000e+00 0.000000000000000e+00 0.000000000000000e+00
0.000000000000000e+00 0.000000000000000e+00 0.000000000000000e+00
0.000000000000000e+00 0.000000000000000e+00 0.000000000000000e+00
0.000000000000000e+00 0.000000000000000e+00 0.000000000000000e+00
0.000000000000000e+00 0.000000000000000e+00 0.000000000000000e+00
0.000000000000000e+00 0.000000000000000e+00 0.000000000000000e+00
0.000000000000000e+00 0.000000000000000e+00 0.000000000000000e+00
0.000000000000000e+00 0.000000000000000e+00 0.000000000000000e+00
0.000000000000000e+00 0.000000000000000e+00 0.000000000000000e+00
0.000000000000000e+00 0.000000000000000e+00 0.000000000000000e+00
0.000000000000000e+00 0.000000000000000e+00 0.000000000000000e+00
0.000000000000000e+00 0.000000000000000e+00 0.000000000000000e+00
0.000000000000000e+00 0.000000000000000e+00 0.000000000000000e+00
0.000000000000000e+00 0.000000000000000e+00 0.000000000000000e+00
0.000000000000000e+00 0.000000000000000e+00 0.000000000000000e+00
0.000000000000000e+00 0.000000000000000e+00 0.000000000000000e+00
0.000000000000000e+00 0.000000000000000e+00 0.000000000000000e+00
0.000000000000000e+00 0.000000000000000e+00 0.000000000000000e+00
0.000000000000000e+00 0.000000000000000e+00 0.000000000000000e+00
0.000000000000000e+00 0.000000000000000e+00 0.000000000000000e+00
0.000000000000000e+00 0.000000000000000e+00 0.000000000000000e+00
0.000000000000000e+00 0.000000000000000e+00 0.000000000000000e+00
0.000000000000000e+00 0.000000000000000e+00 0.000000000000000e+00
0.000000000000000e+00 0.000000000000000e+00 0.000000000000000e+00
0.000000000000000e+00 0.000000000000000e+00 0.000000000000000e+00
0.000000000000000e+00 0.000000000000000e+00 0.000000000000000e+00
0.000000000000000e+00 0.000000000000000e+00 0.000000000000000e+00
0.000000000000000e+00 0.000000000000000e+00 0.000000000000000e+00
0.000000000000000e+00 0.000000000000000e+00 0.000000000000000e+00
0.000000000000000e+00 0.000000000000000e+00 0.000000000000000e+00
0.000000000000000e+00 0.000000000000000e+00 0.000000000000000e+00
0.000000000000000e+00 0.000000000000000e+00 0.000000000000000e+00
0.000000000000000e+00 0.000000000000000e+00 0.000000000000000e+00
0.000000000000000e+00 0.000000000000000e+00 0.000000000000000e+00
0.000000000000000e+00 0.000000000000000e+00 0.000000000000000e+00
0.000000000000000e+00 0.000000000000000e+00 0.000000000000000e+00
0.000000000000000e+00 0.000000000000000e+00 0.000000000000000e+00
0.000000000000000e+00 0.000000000000000e+00 0.000000000000000e+00
0.000000000000000e+00 0.000000000000000e+00 0.000000000000000e+00
0.000000000000000e+00 0.000000000000000e+00 0.000000000000000e+00
0.000000000000000e+00 0.000000000000000e+00 0.000000000000000e+00
0.000000000000000e+00 0.000000000000000e+00 0.000000000000000e+00
0.000000000000000e+00 0.000000000000000e+00 0.000000000000000e+00
0.000000000000000e+00 0.000000000000000e+00 0.000000000000000e+00
0.000000000000000e+00 0.000000000000000e+00 0.000000000000000e+00
0.000000000000000e+00 0.000000000000000e+00 0.000000000000000e+00
0.000000000000000e+00 0.000000000000000e+00 0.000000000000000e+00
0.000000000000000e+00 0.000000000000000e+00 0.000000000000000e+00
0.000000000000000e+00 0.000000000000000e+00 0.000000000000000e+00
0.000000000000000e+00 0.000000000000000e+00 0.000000000000000e+00
0.000000000000000e+00 0.000000000000000e+00 0.000000000000000e+00
0.000000000000000e+00 0.000000000000000e+00 0.000000000000000e+00
0.000000000000000e+00 0.000000000000000e+00 0.000000000000000e+00
0.000000000000000e+00 0.000000000000000e+00 0.000000000000000e+00
0.000000000000000e+00 0.000000000000000e+00 0.000000000000000e+00
0.000000000000000e+00 0.000000000000000e+00 0.000000000000000e+00
0.000000000000000e+00 0.000000000000000e+00 0.000000000000000e+00
0.000000000000000e+00 0.000000000000000e+00 0.000000000000000e+00
0.000000000000000e+00 0.000000000000000e+00 0.000000000000000e+00
0.000000000000000e+00 0.000000000000000e+00 0.000000000000000e+00
0.000000000000000e+00 0.000000000000000e+00 0.000000000000000e+00
0.000000000000000e+00 0.000000000000000e+00 0.000000000000000e+00
0.000000000000000e+00 0.000000000000000e+00 0.000000000000000e+00
0.000000000000000e+00 0.000000000000000e+00 0.000000000000000e+00
0.000000000000000e+00 0.000000000000000e+00 0.000000000000000e+00
0.000000000000000e+00 0.000000000000000e+00 0.000000000000000e+00
0.000000000000000e+00 0.000000000000000e+00 0.000000000000000e+00
0.000000000000000e+00 0.000000000000000e+00 0.000000000000000e+00
0.000000000000000e+00 0.000000000000000e+00 0.000000000000000e+00
0.000000000000000e+00 0.000000000000000e+00 0.000000000000000e+00
0.000000000000000e+00 0.000000000000000e+00 0.000000000000000e+00
0.000000000000000e+00 0.000000000000000e+00 0.000000000000000e+00
0.000000000000000e+00 0.000000000000000e+00 0.000000000000000e+00
0.000000000000000e+00 0.000000000000000e+00 0.000000000000000e+00
0.000000000000000e+00 0.000000000000000e+00 0.000000000000000e+00
0.000000000000000e+00 0.000000000000000e+00 0.000000000000000e+00
0.000000000000000e+00 0.000000000000000e+00 0.000000000000000e+00
0.000000000000000e+00 0.000000000000000e+00 0.000000000000000e+00
0.000000000000000e+00 0.000000000000000e+00 0.000000000000000e+00
0.000000000000000e+00 0.000000000000000e+00 0.000000000000000e+00
0.000000000000000e+00 0.000000000000000e+00 0.000000000000000e+00
0.000000000000000e+00 0.000000000000000e+00 0.000000000000000e+00
0.000000000000000e+00 0.000000000000000e+00 0.000000000000000e+00
0.000000000000000e+00 0.000000000000000e+00 0.000000000000000e+00
0.000000000000000e+00 0.000000000000000e+00 0.000000000000000e+00
0.000000000000000e+00 0.000000000000000e+00 0.000000000000000e+00
0.000000000000000e+00 0.000000000000000e+00 0.000000000000000e+00
0.000000000000000e+00 0.000000000000000e+00 0.000000000000000e+00
0.000000000000000e+00 0.000000000000000e+00 0.000000000000000e+00
0.000000000000000e+00 0.000000000000000e+00 0.000000000000000e+00
0.000000000000000e+00 0.000000000000000e+00 0.000000000000000e+00
0.000000000000000e+00 0.000000000000000e+00 0.000000000000000e+00
0.000000000000000e+00 0.000000000000000e+00 0.000000000000000e+00
0.000000000000000e+00 0.000000000000000e+00 0.000000000000000e+00
0.000000000000000e+00 0.000000000000000e+00 0.000000000000000e+00
0.000000000000000e+00 0.000000000000000e+00 0.000000000000000e+00
0.000000000000000e+00 0.000000000000000e+00 0.000000000000000e+00
0.000000000000000e+00 0.000000000000000e+00 0.000000000000000e+00
0.000000000000000e+00 0.000000000000000e+00 0.000000000000000e+00
0.000000000000000e+00 0.000000000000000e+00 0.000000000000000e+00
0.000000000000000e+00 0.000000000000000e+00 0.000000000000000e+00
0.000000000000000e+00 0.000000000000000e+00 0.000000000000000e+00
0.000000000000000e+00 0.000000000000000e+00 0.000000000000000e+00
0.000000000000000e+00 0.000000000000000e+00 0.000000000000000e+00
0.000000000000000e+00 0.000000000000000e+00 0.000000000000000e+00
0.000000000000000e+00 0.000000000000000e+00 0.000000000000000e+00
0.000000000000000e+00 0.000000000000000e+00 0.000000000000000e+00
0.000000000000000e+00 0.000000000000000e+00 0.000000000000000e+00
0.000000000000000e+00 0.000000000000000e+00 0.000000000000000e+00
0.000000000000000e+00 0.000000000000000e+00 0.000000000000000e+00
0.000000000000000e+00 0.000000000000000e+00 0.000000000000000e+00
0.000000000000000e+00 0.000000000000000e+00 0.000000000000000e+00
0.000000000000000e+00 0.000000000000000e+00 0.000000000000000e+00
0.000000000000000e+00 0.000000000000000e+00 0.000000000000000e+00
0.000000000000000e+00 0.000000000000000e+00 0.000000000000000e+00
0.000000000000000e+00 0.000000000000000e+00 0.000000000000000e+00
0.000000000000000e+00 0.000000000000000e+00 0.000000000000000e+00
0.000000000000000e+00 0.000000000000000e+00 0.000000000000000e+00
0.000000000000000e+00 0.000000000000000e+00 0.000000000000000e+00
0.000000000000000e+00 0.000000000000000e+00 0.000000000000000e+00
0.000000000000000e+00 0.000000000000000e+00 0.000000000000000e+00
0.000000000000000e+00 0.000000000000000e+00 0.000000000000000e+00
0.000000000000000e+00 0.000000000000000e+00 0.000000000000000e+00
0.000000000000000e+00 0.000000000000000e+00 0.000000000000000e+00
0.000000000000000e+00 0.000000000000000e+00 0.000000000000000e+00
0.000000000000000e+00 0.000000000000000e+00 0.000000000000000e+00
0.000000000000000e+00 0.000000000000000e+00 0.000000000000000e+00
0.000000000000000e+00 0.000000000000000e+00 0.000000000000000e+00
0.000000000000000e+00 0.000000000000000e+00 0.000000000000000e+00
0.000000000000000e+00 0.000000000000000e+00 0.000000000000000e+00
0.000000000000000e+00 0.000000000000000e+00 0.000000000000000e+00
0.000000000000000e+00 0.000000000000000e+00 0.000000000000000e+00
0.000000000000000e+00 0.000000000000000e+00 0.000000000000000e+00
0.000000000000000e+00 0.000000000000000e+00 0.000000000000000e+00
0.000000000000000e+00 0.000000000000000e+00 0.000000000000000e+00
0.000000000000000e+00 0.000000000000000e+00 0.000000000000000e+00
0.000000000000000e+00 0.000000000000000e+00 0.000000000000000e+00
0.000000000000000e+00 0.000000000000000e+00 0.000000000000000e+00
0.000000000000000e+00 0.000000000000000e+00 0.000000000000000e+00
0.000000000000000e+00 0.000000000000000e+00 0.000000000000000e+00
0.000000000000000e+00 0.000000000000000e+00 0.000000000000000e+00
0.000000000000000e+00 0.000000000000000e+00 0.000000000000000e+00
0.000000000000000e+00 0.000000000000000e+00 0.000000000000000e+00
0.000000000000000e+00 0.000000000000000e+00 0.000000000000000e+00
0.000000000000000e+00 0.000000000000000e+00 0.000000000000000e+00
0.000000000000000e+00 0.000000000000000e+00 0.000000000000000e+00
0.000000000000000e+00 0.000000000000000e+00 0.000000000000000e+00
0.000000000000000e+00 0.000000000000000e+00 0.000000000000000e+00
0.000000000000000e+00 0.000000000000000e+00 0.000000000000000e+00
0.000000000000000e+00 0.000000000000000e+00 0.000000000000000e+00
0.000000000000000e+00 0.000000000000000e+00 0.000000000000000e+00
0.000000000000000e+00 0.000000000000000e+00 0.000000000000000e+00
0.000000000000000e+00 0.000000000000000e+00 0.000000000000000e+00
0.000000000000000e+00 0.000000000000000e+00 0.000000000000000e+00
0.000000000000000e+00 0.000000000000000e+00 0.000000000000000e+00
0.000000000000000e+00 0.000000000000000e+00 0.000000000000000e+00
0.000000000000000e+00 0.000000000000000e+00 0.000000000000000e+00
0.000000000000000e+00 0.000000000000000e+00 0.000000000000000e+00
0.000000000000000e+00 0.000000000000000e+00 0.000000000000000e+00
0.000000000000000e+00 0.000000000000000e+00 0.000000000000000e+00
0.000000000000000e+00 0.000000000000000e+00 0.000000000000000e+00
0.000000000000000e+00 0.000000000000000e+00 0.000000000000000e+00
0.000000000000000e+00 0.000000000000000e+00 0.000000000000000e+00
0.000000000000000e+00 0.000000000000000e+00 0.000000000000000e+00
0.000000000000000e+00 0.000000000000000e+00 0.000000000000000e+00
0.000000000000000e+00 0.000000000000000e+00 0.000000000000000e+00
0.000000000000000e+00 0.000000000000000e+00 0.000000000000000e+00
0.000000000000000e+00 0.000000000000000e+00 0.000000000000000e+00
0.000000000000000e+00 0.000000000000000e+00 0.000000000000000e+00
0.000000000000000e+00 0.000000000000000e+00 0.000000000000000e+00
0.000000000000000e+00 0.000000000000000e+00 0.000000000000000e+00
0.000000000000000e+00 0.000000000000000e+00 0.000000000000000e+00
0.000000000000000e+00 0.000000000000000e+00 0.000000000000000e+00
0.000000000000000e+00 0.000000000000000e+00 0.000000000000000e+00
0.000000000000000e+00 0.000000000000000e+00 0.000000000000000e+00
0.000000000000000e+00 0.000000000000000e+00 0.000000000000000e+00
0.000000000000000e+00 0.000000000000000e+00 0.000000000000000e+00
0.000000000000000e+00 0.000000000000000e+00 0.000000000000000e+00
0.000000000000000e+00 0.000000000000000e+00 0.000000000000000e+00
0.000000000000000e+00 0.000000000000000e+00 0.000000000000000e+00
0.000000000000000e+00 0.000000000000000e+00 0.000000000000000e+00
0.000000000000000e+00 0.000000000000000e+00 0.000000000000000e+00
0.000000000000000e+00 0.000000000000000e+00 0.000000000000000e+00
0.000000000000000e+00 0.000000000000000e+00 0.000000000000000e+00
0.000000000000000e+00 0.000000000000000e+00 0.000000000000000e+00
0.000000000000000e+00 0.000000000000000e+00 0.000000000000000e+00
0.000000000000000e+00 0.000000000000000e+00 0.000000000000000e+00
0.000000000000000e+00 0.000000000000000e+00 0.000000000000000e+00
0.000000000000000e+00 0.000000000000000e+00 0.000000000000000e+00
0.000000000000000e+00 0.000000000000000e+00 0.000000000000000e+00
0.000000000000000e+00 0.000000000000000e+00 0.000000000000000e+00
0.000000000000000e+00 0.000000000000000e+00 0.000000000000000e+00
0.000000000000000e+00 0.000000000000000e+00 0.000000000000000e+00
0.000000000000000e+00 0.000000000000000e+00 0.000000000000000e+00
0.000000000000000e+00 0.000000000000000e+00 0.000000000000000e+00
0.000000000000000e+00 0.000000000000000e+00 0.000000000000000e+00
0.000000000000000e+00 0.000000000000000e+00 0.000000000000000e+00
0.000000000000000e+00 0.000000000000000e+00 0.000000000000000e+00
0.000000000000000e+00 0.000000000000000e+00 0.000000000000000e+00
0.000000000000000e+00 0.000000000000000e+00 0.000000000000000e+00
0.000000000000000e+00 0.000000000000000e+00 0.000000000000000e+00
0.000000000000000e+00 0.000000000000000e+00 0.000000000000000e+00
0.000000000000000e+00 0.000000000000000e+00 0.000000000000000e+00
0.000000000000000e+00 0.000000000000000e+00 0.000000000000000e+00
0.000000000000000e+00 0.000000000000000e+00 0.000000000000000e+00
0.000000000000000e+00 0.000000000000000e+00 0.000000000000000e+00
0.000000000000000e+00 0.000000000000000e+00 0.000000000000000e+00
0.000000000000000e+00 0.000000000000000e+00 0.000000000000000e+00
0.000000000000000e+00 0.000000000000000e+00 0.000000000000000e+00
0.000000000000000e+00 0.000000000000000e+00 0.000000000000000e+00
0.000000000000000e+00 0.000000000000000e+00 0.000000000000000e+00
0.000000000000000e+00 0.000000000000000e+00 0.000000000000000e+00
0.000000000000000e+00 0.000000000000000e+00 0.000000000000000e+00
0.000000000000000e+00 0.000000000000000e+00 0.000000000000000e+00
0.000000000000000e+00 0.000000000000000e+00 0.000000000000000e+00
0.000000000000000e+00 0.000000000000000e+00 0.000000000000000e+00
0.000000000000000e+00 0.000000000000000e+00 0.000000000000000e+00
0.000000000000000e+00 0.000000000000000e+00 0.000000000000000e+00
0.000000000000000e+00 0.000000000000000e+00 0.000000000000000e+00
0.000000000000000e+00 0.000000000000000e+00 0.000000000000000e+00
0.000000000000000e+00 0.000000000000000e+00 0.000000000000000e+00
0.000000000000000e+00 0.000000000000000e+00 0.000000000000000e+00
0.000000000000000e+00 0.000000000000000e+00 0.000000000000000e+00
0.000000000000000e+00 0.000000000000000e+00 0.000000000000000e+00
0.000000000000000e+00 0.000000000000000e+00 0.000000000000000e+00
0.000000000000000e+00 0.000000000000000e+00 0.000000000000000e+00
0.000000000000000e+00 0.000000000000000e+00 0.000000000000000e+00
0.000000000000000e+00 0.000000000000000e+00 0.000000000000000e+00
0.000000000000000e+00 0.000000000000000e+00 0.000000000000000e+00
0.000000000000000e+00 0.000000000000000e+00 0.000000000000000e+00
0.000000000000000e+00 0.000000000000000e+00 0.000000000000000e+00
0.000000000000000e+00 0.000000000000000e+00 0.000000000000000e+00
0.000000000000000e+00 0.000000000000000e+00 0.000000000000000e+00
0.000000000000000e+00 0.000000000000000e+00 0.000000000000000e+00
0.000000000000000e+00 0.000000000000000e+00 0.000000000000000e+00
0.000000000000000e+00 0.000000000000000e+00 0.000000000000000e+00
0.000000000000000e+00 0.000000000000000e+00 0.000000000000000e+00
0.000000000000000e+00 0.000000000000000e+00 0.000000000000000e+00
0.000000000000000e+00 0.000000000000000e+00 0.000000000000000e+00
0.000000000000000e+00 0.000000000000000e+00 0.000000000000000e+00
0.000000000000000e+00 0.000000000000000e+00 0.000000000000000e+00
0.000000000000000e+00 0.000000000000000e+00 0.000000000000000e+00
0.000000000000000e+00 0.000000000000000e+00 0.000000000000000e+00
0.000000000000000e+00 0.000000000000000e+00 0.000000000000000e+00
0.000000000000000e+00 0.000000000000000e+00 0.000000000000000e+00
0.000000000000000e+00 0.000000000000000e+00 0.000000000000000e+00
0.000000000000000e+00 0.000000000000000e+00 0.000000000000000e+00
0.000000000000000e+00 0.000000000000000e+00 0.000000000000000e+00
0.000000000000000e+00 0.000000000000000e+00 0.000000000000000e+00
0.000000000000000e+00 0.000000000000000e+00 0.000000000000000e+00
0.000000000000000e+00 0.000000000000000e+00 0.000000000000000e+00
0.000000000000000e+00 0.000000000000000e+00 0.000000000000000e+00
0.000000000000000e+00 0.000000000000000e+00 0.000000000000000e+00
0.000000000000000e+00 0.000000000000000e+00 0.000000000000000e+00
0.000000000000000e+00 0.000000000000000e+00 0.000000000000000e+00
0.000000000000000e+00 0.000000000000000e+00 0.000000000000000e+00
0.000000000000000e+00 0.000000000000000e+00 0.000000000000000e+00
0.000000000000000e+00 0.000000000000000e+00 0.000000000000000e+00
0.000000000000000e+00 0.000000000000000e+00 0.000000000000000e+00
0.000000000000000e+00 0.000000000000000e+00 0.000000000000000e+00
0.000000000000000e+00 0.000000000000000e+00 0.000000000000000e+00
0.000000000000000e+00 0.000000000000000e+00 0.000000000000000e+00
0.000000000000000e+00 0.000000000000000e+00 0.000000000000000e+00
0.000000000000000e+00 0.000000000000000e+00 0.000000000000000e+00
0.000000000000000e+00 0.000000000000000e+00 0.000000000000000e+00
0.000000000000000e+00 0.000000000000000e+00 0.000000000000000e+00
0.000000000000000e+00 0.000000000000000e+00 0.000000000000000e+00
0.000000000000000e+00 0.000000000000000e+00 0.000000000000000e+00
0.000000000000000e+00 0.000000000000000e+00 0.000000000000000e+00
0.000000000000000e+00 0.000000000000000e+00 0.000000000000000e+00
0.000000000000000e+00 0.000000000000000e+00 0.000000000000000e+00
0.000000000000000e+00 0.000000000000000e+00 0.000000000000000e+00
0.000000000000000e+00 0.000000000000000e+00 0.000000000000000e+00
0.000000000000000e+00 0.000000000000000e+00 0.000000000000000e+00
0.000000000000000e+00 0.000000000000000e+00 0.000000000000000e+00
0.000000000000000e+00 0.000000000000000e+00 0.000000000000000e+00
0.000000000000000e+00 0.000000000000000e+00 0.000000000000000e+00
0.000000000000000e+00 0.000000000000000e+00 0.000000000000000e+00
0.000000000000000e+00 0.000000000000000e+00 0.000000000000000e+00
0.000000000000000e+00 0.000000000000000e+00 0.000000000000000e+00
0.000000000000000e+00 0.000000000000000e+00 0.000000000000000e+00
0.000000000000000e+00 0.000000000000000e+00 0.000000000000000e+00
0.000000000000000e+00 0.000000000000000e+00 0.000000000000000e+00
0.000000000000000e+00 0.000000000000000e+00 0.000000000000000e+00
0.000000000000000e+00 0.000000000000000e+00 0.000000000000000e+00
0.000000000000000e+00 0.000000000000000e+00 0.000000000000000e+00
0.000000000000000e+00 0.000000000000000e+00 0.000000000000000e+00
0.000000000000000e+00 0.000000000000000e+00 0.000000000000000e+00
0.000000000000000e+00 0.000000000000000e+00 0.000000000000000e+00
0.000000000000000e+00 0.000000000000000e+00 0.000000000000000e+00
0.000000000000000e+00 0.000000000000000e+00 0.000000000000000e+00
0.000000000000000e+00 0.000000000000000e+00 0.000000000000000e+00
0.000000000000000e+00 0.000000000000000e+00 0.000000000000000e+00
0.000000000000000e+00 0.000000000000000e+00 0.000000000000000e+00
0.000000000000000e+00 0.000000000000000e+00 0.000000000000000e+00
0.000000000000000e+00 0.000000000000000e+00 0.000000000000000e+00
0.000000000000000e+00 0.000000000000000e+00 0.000000000000000e+00
0.000000000000000e+00 0.000000000000000e+00 0.000000000000000e+00
0.000000000000000e+00 0.000000000000000e+00 0.000000000000000e+00
0.000000000000000e+00 0.000000000000000e+00 0.000000000000000e+00
0.000000000000000e+00 0.000000000000000e+00 0.000000000000000e+00
0.000000000000000e+00 0.000000000000000e+00 0.000000000000000e+00
0.000000000000000e+00 0.000000000000000e+00 0.000000000000000e+00
0.000000000000000e+00 0.000000000000000e+00 0.000000000000000e+00
0.000000000000000e+00 0.000000000000000e+00 0.000000000000000e+00
0.000000000000000e+00 0.000000000000000e+00 0.000000000000000e+00
0.000000000000000e+00 0.000000000000000e+00 0.000000000000000e+00
0.000000000000000e+00 0.000000000000000e+00 0.000000000000000e+00
0.000000000000000e+00 0.000000000000000e+00 0.000000000000000e+00
0.000000000000000e+00 0.000000000000000e+00 0.000000000000000e+00
0.000000000000000e+00 0.000000000000000e+00 0.000000000000000e+00
0.000000000000000e+00 0.000000000000000e+00 0.000000000000000e+00
0.000000000000000e+00 0.000000000000000e+00 0.000000000000000e+00
0.000000000000000e+00 0.000000000000000e+00 0.000000000000000e+00
0.000000000000000e+00 0.000000000000000e+00 0.000000000000000e+00
0.000000000000000e+00 0.000000000000000e+00 0.000000000000000e+00
0.000000000000000e+00 0.000000000000000e+00 0.000000000000000e+00
0.000000000000000e+00 0.000000000000000e+00 0.000000000000000e+00
0.000000000000000e+00 0.000000000000000e+00 0.000000000000000e+00
0.000000000000000e+00 0.000000000000000e+00 0.000000000000000e+00
0.000000000000000e+00 0.000000000000000e+00 0.000000000000000e+00
0.000000000000000e+00 0.000000000000000e+00 0.000000000000000e+00
0.000000000000000e+00 0.000000000000000e+00 0.000000000000000e+00
0.000000000000000e+00 0.000000000000000e+00 0.000000000000000e+00
0.000000000000000e+00 0.000000000000000e+00 0.000000000000000e+00
0.000000000000000e+00 0.000000000000000e+00 0.000000000000000e+00
0.000000000000000e+00 0.000000000000000e+00 0.000000000000000e+00
0.000000000000000e+00 0.000000000000000e+00 0.000000000000000e+00
0.000000000000000e+00 0.000000000000000e+00 0.000000000000000e+00
0.000000000000000e+00 0.000000000000000e+00 0.000000000000000e+00
0.000000000000000e+00 0.000000000000000e+00 0.000000000000000e+00
0.000000000000000e+00 0.000000000000000e+00 0.000000000000000e+00
0.000000000000000e+00 0.000000000000000e+00 0.000000000000000e+00
0.000000000000000e+00 0.000000000000000e+00 0.000000000000000e+00
0.000000000000000e+00 0.000000000000000e+00 0.000000000000000e+00
0.000000000000000e+00 0.000000000000000e+00 0.000000000000000e+00
0.000000000000000e+00 0.000000000000000e+00 0.000000000000000e+00
0.000000000000000e+00 0.000000000000000e+00 0.000000000000000e+00
0.000000000000000e+00 0.000000000000000e+00 0.000000000000000e+00
0.000000000000000e+00 0.000000000000000e+00 0.000000000000000e+00
0.000000000000000e+00 0.000000000000000e+00 0.000000000000000e+00
0.000000000000000e+00 0.000000000000000e+00 0.000000000000000e+00
0.000000000000000e+00 0.000000000000000e+00 0.000000000000000e+00
0.000000000000000e+00 0.000000000000000e+00 0.000000000000000e+00
0.000000000000000e+00 0.000000000000000e+00 0.000000000000000e+00
0.000000000000000e+00 0.000000000000000e+00 0.000000000000000e+00
0.000000000000000e+00 0.000000000000000e+00 0.000000000000000e+00
0.000000000000000e+00 0.000000000000000e+00 0.000000000000000e+00
0.000000000000000e+00 0.000000000000000e+00 0.000000000000000e+00
0.000000000000000e+00 0.000000000000000e+00 0.000000000000000e+00
0.000000000000000e+00 0.000000000000000e+00 0.000000000000000e+00
0.000000000000000e+00 0.000000000000000e+00 0.000000000000000e+00
0.000000000000000e+00 0.000000000000000e+00 0.000000000000000e+00
0.000000000000000e+00 0.000000000000000e+00 0.000000000000000e+00
0.000000000000000e+00 0.000000000000000e+00 0.000000000000000e+00
0.000000000000000e+00 0.000000000000000e+00 0.000000000000000e+00
0.000000000000000e+00 0.000000000000000e+00 0.000000000000000e+00
0.000000000000000e+00 0.000000000000000e+00 0.000000000000000e+00
0.000000000000000e+00 0.000000000000000e+00 0.000000000000000e+00
0.000000000000000e+00 0.000000000000000e+00 0.000000000000000e+00
0.000000000000000e+00 0.000000000000000e+00 0.000000000000000e+00
0.000000000000000e+00 0.000000000000000e+00 0.000000000000000e+00
0.000000000000000e+00 0.000000000000000e+00 0.000000000000000e+00
0.000000000000000e+00 0.000000000000000e+00 0.000000000000000e+00
0.000000000000000e+00 0.000000000000000e+00 0.000000000000000e+00
0.000000000000000e+00 0.000000000000000e+00 0.000000000000000e+00
0.000000000000000e+00 0.000000000000000e+00 0.000000000000000e+00
0.000000000000000e+00 0.000000000000000e+00 0.000000000000000e+00
0.000000000000000e+00 0.000000000000000e+00 0.000000000000000e+00
0.000000000000000e+00 0.000000000000000e+00 0.000000000000000e+00
0.000000000000000e+00 0.000000000000000e+00 0.000000000000000e+00
0.000000000000000e+00 0.000000000000000e+00 0.000000000000000e+00
0.000000000000000e+00 0.000000000000000e+00 0.000000000000000e+00
0.000000000000000e+00 0.000000000000000e+00 0.000000000000000e+00
0.000000000000000e+00 0.000000000000000e+00 0.000000000000000e+00
0.000000000000000e+00 0.000000000000000e+00 0.000000000000000e+00
0.000000000000000e+00 0.000000000000000e+00 0.000000000000000e+00
0.000000000000000e+00 0.000000000000000e+00 0.000000000000000e+00
0.000000000000000e+00 0.000000000000000e+00 0.000000000000000e+00
0.000000000000000e+00 0.000000000000000e+00 0.000000000000000e+00
0.000000000000000e+00 0.000000000000000e+00 0.000000000000000e+00
0.000000000000000e+00 0.000000000000000e+00 0.000000000000000e+00
0.000000000000000e+00 0.000000000000000e+00 0.000000000000000e+00
0.000000000000000e+00 0.000000000000000e+00 0.000000000000000e+00
0.000000000000000e+00 0.000000000000000e+00 0.000000000000000e+00
0.000000000000000e+00 0.000000000000000e+00 0.000000000000000e+00
0.000000000000000e+00 0.000000000000000e+00 0.000000000000000e+00
0.000000000000000e+00 0.000000000000000e+00 0.000000000000000e+00
0.000000000000000e+00 0.000000000000000e+00 0.000000000000000e+00
0.000000000000000e+00 0.000000000000000e+00 0.000000000000000e+00
0.000000000000000e+00 0.000000000000000e+00 0.000000000000000e+00
0.000000000000000e+00 0.000000000000000e+00 0.000000000000000e+00
0.000000000000000e+00 0.000000000000000e+00 0.000000000000000e+00
0.000000000000000e+00 0.000000000000000e+00 0.000000000000000e+00
0.000000000000000e+00 0.000000000000000e+00 0.000000000000000e+00
0.000000000000000e+00 0.000000000000000e+00 0.000000000000000e+00
0.000000000000000e+00 0.000000000000000e+00 0.000000000000000e+00
0.000000000000000e+00 0.000000000000000e+00 0.000000000000000e+00
0.000000000000000e+00 0.000000000000000e+00 0.000000000000000e+00
0.000000000000000e+00 0.000000000000000e+00 0.000000000000000e+00
0.000000000000000e+00 0.000000000000000e+00 0.000000000000000e+00
0.000000000000000e+00 0.000000000000000e+00 0.000000000000000e+00
0.000000000000000e+00 0.000000000000000e+00 0.000000000000000e+00
0.000000000000000e+00 0.000000000000000e+00 0.000000000000000e+00
0.000000000000000e+00 0.000000000000000e+00 0.000000000000000e+00
0.000000000000000e+00 0.000000000000000e+00 0.000000000000000e+00
0.000000000000000e+00 0.000000000000000e+00 0.000000000000000e+00
0.000000000000000e+00 0.000000000000000e+00 0.000000000000000e+00
0.000000000000000e+00 0.000000000000000e+00 0.000000000000000e+00
0.000000000000000e+00 0.000000000000000e+00 0.000000000000000e+00
0.000000000000000e+00 0.000000000000000e+00 0.000000000000000e+00
0.000000000000000e+00 0.000000000000000e+00 0.000000000000000e+00
0.000000000000000e+00 0.000000000000000e+00 0.000000000000000e+00
0.000000000000000e+00 0.000000000000000e+00 0.000000000000000e+00
0.000000000000000e+00 0.000000000000000e+00 0.000000000000000e+00
0.000000000000000e+00 0.000000000000000e+00 0.000000000000000e+00
0.000000000000000e+00 0.000000000000000e+00 0.000000000000000e+00
0.000000000000000e+00 0.000000000000000e+00 0.000000000000000e+00
0.000000000000000e+00 0.000000000000000e+00 0.000000000000000e+00
0.000000000000000e+00 0.000000000000000e+00 0.000000000000000e+00
0.000000000000000e+00 0.000000000000000e+00 0.000000000000000e+00
0.000000000000000e+00 0.000000000000000e+00 0.000000000000000e+00
0.000000000000000e+00 0.000000000000000e+00 0.000000000000000e+00
0.000000000000000e+00 0.000000000000000e+00 0.000000000000000e+00
0.000000000000000e+00 0.000000000000000e+00 0.000000000000000e+00
0.000000000000000e+00 0.000000000000000e+00 0.000000000000000e+00
0.000000000000000e+00 0.000000000000000e+00 0.000000000000000e+00
0.000000000000000e+00 0.000000000000000e+00 0.000000000000000e+00
0.000000000000000e+00 0.000000000000000e+00 0.000000000000000e+00
0.000000000000000e+00 0.000000000000000e+00 0.000000000000000e+00
0.000000000000000e+00 0.000000000000000e+00 0.000000000000000e+00
0.000000000000000e+00 0.000000000000000e+00 0.000000000000000e+00
0.000000000000000e+00 0.000000000000000e+00 0.000000000000000e+00
0.000000000000000e+00 0.000000000000000e+00 0.000000000000000e+00
0.000000000000000e+00 0.000000000000000e+00 0.000000000000000e+00
0.000000000000000e+00 0.000000000000000e+00 0.000000000000000e+00
0.000000000000000e+00 0.000000000000000e+00 0.000000000000000e+00
0.000000000000000e+00 0.000000000000000e+00 0.000000000000000e+00
0.000000000000000e+00 0.000000000000000e+00 0.000000000000000e+00
0.000000000000000e+00 0.000000000000000e+00 0.000000000000000e+00
0.000000000000000e+00 0.000000000000000e+00 0.000000000000000e+00
0.000000000000000e+00 0.000000000000000e+00 0.000000000000000e+00
0.000000000000000e+00 0.000000000000000e+00 0.000000000000000e+00
0.000000000000000e+00 0.000000000000000e+00 0.000000000000000e+00
0.000000000000000e+00 0.000000000000000e+00 0.000000000000000e+00
0.000000000000000e+00 0.000000000000000e+00 0.000000000000000e+00
0.000000000000000e+00 0.000000000000000e+00 0.000000000000000e+00
0.000000000000000e+00 0.000000000000000e+00 0.000000000000000e+00
0.000000000000000e+00 0.000000000000000e+00 0.000000000000000e+00
0.000000000000000e+00 0.000000000000000e+00 0.000000000000000e+00
0.000000000000000e+00 0.000000000000000e+00 0.000000000000000e+00
0.000000000000000e+00 0.000000000000000e+00 0.000000000000000e+00
0.000000000000000e+00 0.000000000000000e+00 0.000000000000000e+00
0.000000000000000e+00 0.000000000000000e+00 0.000000000000000e+00
0.000000000000000e+00 0.000000000000000e+00 0.000000000000000e+00
0.000000000000000e+00 0.000000000000000e+00 0.000000000000000e+00
0.000000000000000e+00 0.000000000000000e+00 0.000000000000000e+00
0.000000000000000e+00 0.000000000000000e+00 0.000000000000000e+00
0.000000000000000e+00 0.000000000000000e+00 0.000000000000000e+00
0.000000000000000e+00 0.000000000000000e+00 0.000000000000000e+00
0.000000000000000e+00 0.000000000000000e+00 0.000000000000000e+00
0.000000000000000e+00 0.000000000000000e+00 0.000000000000000e+00
0.000000000000000e+00 0.000000000000000e+00 0.000000000000000e+00
0.000000000000000e+00 0.000000000000000e+00 0.000000000000000e+00
0.000000000000000e+00 0.000000000000000e+00 0.000000000000000e+00
0.000000000000000e+00 0.000000000000000e+00 0.000000000000000e+00
0.000000000000000e+00 0.000000000000000e+00 0.000000000000000e+00
0.000000000000000e+00 0.000000000000000e+00 0.000000000000000e+00
0.000000000000000e+00 0.000000000000000e+00 0.000000000000000e+00
0.000000000000000e+00 0.000000000000000e+00 0.000000000000000e+00
0.000000000000000e+00 0.000000000000000e+00 0.000000000000000e+00
0.000000000000000e+00 0.000000000000000e+00 0.000000000000000e+00
0.000000000000000e+00 0.000000000000000e+00 0.000000000000000e+00
0.000000000000000e+00 0.000000000000000e+00 0.000000000000000e+00
0.000000000000000e+00 0.000000000000000e+00 0.000000000000000e+00
0.000000000000000e+00 0.000000000000000e+00 0.000000000000000e+00
0.000000000000000e+00 0.000000000000000e+00 0.000000000000000e+00
0.000000000000000e+00 0.000000000000000e+00 0.000000000000000e+00
0.000000000000000e+00 0.000000000000000e+00 0.000000000000000e+00
0.000000000000000e+00 0.000000000000000e+00 0.000000000000000e+00
0.000000000000000e+00 0.000000000000000e+00 0.000000000000000e+00
0.000000000000000e+00 0.000000000000000e+00 0.000000000000000e+00
0.000000000000000e+00 0.000000000000000e+00 0.000000000000000e+00
0.000000000000000e+00 0.000000000000000e+00 0.000000000000000e+00
0.000000000000000e+00 0.000000000000000e+00 0.000000000000000e+00
0.000000000000000e+00 0.000000000000000e+00 0.000000000000000e+00
0.000000000000000e+00 0.000000000000000e+00 0.000000000000000e+00
0.000000000000000e+00 0.000000000000000e+00 0.000000000000000e+00
0.000000000000000e+00 0.000000000000000e+00 0.000000000000000e+00
0.000000000000000e+00 0.000000000000000e+00 0.000000000000000e+00
0.000000000000000e+00 0.000000000000000e+00 0.000000000000000e+00
0.000000000000000e+00 0.000000000000000e+00 0.000000000000000e+00
0.000000000000000e+00 0.000000000000000e+00 0.000000000000000e+00
0.000000000000000e+00 0.000000000000000e+00 0.000000000000000e+00
0.000000000000000e+00 0.000000000000000e+00 0.000000000000000e+00
0.000000000000000e+00 0.000000000000000e+00 0.000000000000000e+00
0.000000000000000e+00 0.000000000000000e+00 0.000000000000000e+00
0.000000000000000e+00 0.000000000000000e+00 0.000000000000000e+00
0.000000000000000e+00 0.000000000000000e+00 0.000000000000000e+00
0.000000000000000e+00 0.000000000000000e+00 0.000000000000000e+00
0.000000000000000e+00 0.000000000000000e+00 0.000000000000000e+00
0.000000000000000e+00 0.000000000000000e+00 0.000000000000000e+00
0.000000000000000e+00 0.000000000000000e+00 0.000000000000000e+00
0.000000000000000e+00 0.000000000000000e+00 0.000000000000000e+00
0.000000000000000e+00 0.000000000000000e+00 0.000000000000000e+00
0.000000000000000e+00 0.000000000000000e+00 0.000000000000000e+00
0.000000000000000e+00 0.000000000000000e+00 0.000000000000000e+00
0.000000000000000e+00 0.000000000000000e+00 0.000000000000000e+00
0.000000000000000e+00 0.000000000000000e+00 0.000000000000000e+00
0.000000000000000e+00 0.000000000000000e+00 0.000000000000000e+00
0.000000000000000e+00 0.000000000000000e+00 0.000000000000000e+00
0.000000000000000e+00 0.000000000000000e+00 0.000000000000000e+00
0.000000000000000e+00 0.000000000000000e+00 0.000000000000000e+00
0.000000000000000e+00 0.000000000000000e+00 0.000000000000000e+00
0.000000000000000e+00 0.000000000000000e+00 0.000000000000000e+00
0.000000000000000e+00 0.000000000000000e+00 0.000000000000000e+00
0.000000000000000e+00 0.000000000000000e+00 0.000000000000000e+00
0.000000000000000e+00 0.000000000000000e+00 0.000000000000000e+00
0.000000000000000e+00 0.000000000000000e+00 0.000000000000000e+00
0.000000000000000e+00 0.000000000000000e+00 0.000000000000000e+00
0.000000000000000e+00 0.000000000000000e+00 0.000000000000000e+00
0.000000000000000e+00 0.000000000000000e+00 0.000000000000000e+00
0.000000000000000e+00 0.000000000000000e+00 0.000000000000000e+00
0.000000000000000e+00 0.000000000000000e+00 0.000000000000000e+00
0.000000000000000e+00 0.000000000000000e+00 0.000000000000000e+00
0.000000000000000e+00 0.000000000000000e+00 0.000000000000000e+00
0.000000000000000e+00 0.000000000000000e+00 0.000000000000000e+00
0.000000000000000e+00 0.000000000000000e+00 0.000000000000000e+00
0.000000000000000e+00 0.000000000000000e+00 0.000000000000000e+00
0.000000000000000e+00 0.000000000000000e+00 0.000000000000000e+00
0.000000000000000e+00 0.000000000000000e+00 0.000000000000000e+00
0.000000000000000e+00 0.000000000000000e+00 0.000000000000000e+00
0.000000000000000e+00 0.000000000000000e+00 0.000000000000000e+00
0.000000000000000e+00 0.000000000000000e+00 0.000000000000000e+00
0.000000000000000e+00 0.000000000000000e+00 0.000000000000000e+00
0.000000000000000e+00 0.000000000000000e+00 0.000000000000000e+00
0.000000000000000e+00 0.000000000000000e+00 0.000000000000000e+00
0.000000000000000e+00 0.000000000000000e+00 0.000000000000000e+00
0.000000000000000e+00 0.000000000000000e+00 0.000000000000000e+00
0.000000000000000e+00 0.000000000000000e+00 0.000000000000000e+00
0.000000000000000e+00 0.000000000000000e+00 0.000000000000000e+00
0.000000000000000e+00 0.000000000000000e+00 0.000000000000000e+00
0.000000000000000e+00 0.000000000000000e+00 0.000000000000000e+00
0.000000000000000e+00 0.000000000000000e+00 0.000000000000000e+00
0.000000000000000e+00 0.000000000000000e+00 0.000000000000000e+00
0.000000000000000e+00 0.000000000000000e+00 0.000000000000000e+00
0.000000000000000e+00 0.000000000000000e+00 0.000000000000000e+00
0.000000000000000e+00 0.000000000000000e+00 0.000000000000000e+00
0.000000000000000e+00 0.000000000000000e+00 0.000000000000000e+00
0.000000000000000e+00 0.000000000000000e+00 0.000000000000000e+00
0.000000000000000e+00 0.000000000000000e+00 0.000000000000000e+00
0.000000000000000e+00 0.000000000000000e+00 0.000000000000000e+00
0.000000000000000e+00 0.000000000000000e+00 0.000000000000000e+00
0.000000000000000e+00 0.000000000000000e+00 0.000000000000000e+00
0.000000000000000e+00 0.000000000000000e+00 0.000000000000000e+00
0.000000000000000e+00 0.000000000000000e+00 0.000000000000000e+00
0.000000000000000e+00 0.000000000000000e+00 0.000000000000000e+00
0.000000000000000e+00 0.000000000000000e+00 0.000000000000000e+00
0.000000000000000e+00 0.000000000000000e+00 0.000000000000000e+00
0.000000000000000e+00 0.000000000000000e+00 0.000000000000000e+00
0.000000000000000e+00 0.000000000000000e+00 0.000000000000000e+00
0.000000000000000e+00 0.000000000000000e+00 0.000000000000000e+00
0.000000000000000e+00 0.000000000000000e+00 0.000000000000000e+00
0.000000000000000e+00 0.000000000000000e+00 0.000000000000000e+00
0.000000000000000e+00 0.000000000000000e+00 0.000000000000000e+00
0.000000000000000e+00 0.000000000000000e+00 0.000000000000000e+00
0.000000000000000e+00 0.000000000000000e+00 0.000000000000000e+00
0.000000000000000e+00 0.000000000000000e+00 0.000000000000000e+00
0.000000000000000e+00 0.000000000000000e+00 0.000000000000000e+00
0.000000000000000e+00 0.000000000000000e+00 0.000000000000000e+00
0.000000000000000e+00 0.000000000000000e+00 0.000000000000000e+00
0.000000000000000e+00 0.000000000000000e+00 0.000000000000000e+00
0.000000000000000e+00 0.000000000000000e+00 0.000000000000000e+00
0.000000000000000e+00 0.000000000000000e+00 0.000000000000000e+00
0.000000000000000e+00 0.000000000000000e+00 0.000000000000000e+00
0.000000000000000e+00 0.000000000000000e+00 0.000000000000000e+00
0.000000000000000e+00 0.000000000000000e+00 0.000000000000000e+00
0.000000000000000e+00 0.000000000000000e+00 0.000000000000000e+00
0.000000000000000e+00 0.000000000000000e+00 0.000000000000000e+00
0.000000000000000e+00 0.000000000000000e+00 0.000000000000000e+00
0.000000000000000e+00 0.000000000000000e+00 0.000000000000000e+00
0.000000000000000e+00 0.000000000000000e+00 0.000000000000000e+00
0.000000000000000e+00 0.000000000000000e+00 0.000000000000000e+00
0.000000000000000e+00 0.000000000000000e+00 0.000000000000000e+00
0.000000000000000e+00 0.000000000000000e+00 0.000000000000000e+00
0.000000000000000e+00 0.000000000000000e+00 0.000000000000000e+00
0.000000000000000e+00 0.000000000000000e+00 0.000000000000000e+00
0.000000000000000e+00 0.000000000000000e+00 0.000000000000000e+00
0.000000000000000e+00 0.000000000000000e+00 0.000000000000000e+00
0.000000000000000e+00 0.000000000000000e+00 0.000000000000000e+00
0.000000000000000e+00 0.000000000000000e+00 0.000000000000000e+00
0.000000000000000e+00 0.000000000000000e+00 0.000000000000000e+00
0.000000000000000e+00 0.000000000000000e+00 0.000000000000000e+00
0.000000000000000e+00 0.000000000000000e+00 0.000000000000000e+00
0.000000000000000e+00 0.000000000000000e+00 0.000000000000000e+00
0.000000000000000e+00 0.000000000000000e+00 0.000000000000000e+00
0.000000000000000e+00 0.000000000000000e+00 0.000000000000000e+00
0.000000000000000e+00 0.000000000000000e+00 0.000000000000000e+00
0.000000000000000e+00 0.000000000000000e+00 0.000000000000000e+00
0.000000000000000e+00 0.000000000000000e+00 0.000000000000000e+00
0.000000000000000e+00 0.000000000000000e+00 0.000000000000000e+00
0.000000000000000e+00 0.000000000000000e+00 0.000000000000000e+00
0.000000000000000e+00 0.000000000000000e+00 0.000000000000000e+00
0.000000000000000e+00 0.000000000000000e+00 0.000000000000000e+00
0.000000000000000e+00 0.000000000000000e+00 0.000000000000000e+00
0.000000000000000e+00 0.000000000000000e+00 0.000000000000000e+00
0.000000000000000e+00 0.000000000000000e+00 0.000000000000000e+00
0.000000000000000e+00 0.000000000000000e+00 0.000000000000000e+00
0.000000000000000e+00 0.000000000000000e+00 0.000000000000000e+00
0.000000000000000e+00 0.000000000000000e+00 0.000000000000000e+00
0.000000000000000e+00 0.000000000000000e+00 0.000000000000000e+00
0.000000000000000e+00 0.000000000000000e+00 0.000000000000000e+00
0.000000000000000e+00 0.000000000000000e+00 0.000000000000000e+00
0.000000000000000e+00 0.000000000000000e+00 0.000000000000000e+00
0.000000000000000e+00 0.000000000000000e+00 0.000000000000000e+00
0.000000000000000e+00 0.000000000000000e+00 0.000000000000000e+00
0.000000000000000e+00 0.000000000000000e+00 0.000000000000000e+00
0.000000000000000e+00 0.000000000000000e+00 0.000000000000000e+00
0.000000000000000e+00 0.000000000000000e+00 0.000000000000000e+00
0.000000000000000e+00 0.000000000000000e+00 0.000000000000000e+00
0.000000000000000e+00 0.000000000000000e+00 0.000000000000000e+00
0.000000000000000e+00 0.000000000000000e+00 0.000000000000000e+00
0.000000000000000e+00 0.000000000000000e+00 0.000000000000000e+00
0.000000000000000e+00 0.000000000000000e+00 0.000000000000000e+00
0.000000000000000e+00 0.000000000000000e+00 0.000000000000000e+00
0.000000000000000e+00 0.000000000000000e+00 0.000000000000000e+00
0.000000000000000e+00 0.000000000000000e+00 0.000000000000000e+00
0.000000000000000e+00 0.000000000000000e+00 0.000000000000000e+00
0.000000000000000e+00 0.000000000000000e+00 0.000000000000000e+00
0.000000000000000e+00 0.000000000000000e+00 0.000000000000000e+00
0.000000000000000e+00 0.000000000000000e+00 0.000000000000000e+00
0.000000000000000e+00 0.000000000000000e+00 0.000000000000000e+00
0.000000000000000e+00 0.000000000000000e+00 0.000000000000000e+00
0.000000000000000e+00 0.000000000000000e+00 0.000000000000000e+00
0.000000000000000e+00 0.000000000000000e+00 0.000000000000000e+00
0.000000000000000e+00 0.000000000000000e+00 0.000000000000000e+00
0.000000000000000e+00 0.000000000000000e+00 0.000000000000000e+00
0.000000000000000e+00 0.000000000000000e+00 0.000000000000000e+00
0.000000000000000e+00 0.000000000000000e+00 0.000000000000000e+00
0.000000000000000e+00 0.000000000000000e+00 0.000000000000000e+00
0.000000000000000e+00 0.000000000000000e+00 0.000000000000000e+00
0.000000000000000e+00 0.000000000000000e+00 0.000000000000000e+00
0.000000000000000e+00 0.000000000000000e+00 0.000000000000000e+00
0.000000000000000e+00 0.000000000000000e+00 0.000000000000000e+00
0.000000000000000e+00 0.000000000000000e+00 0.000000000000000e+00
0.000000000000000e+00 0.000000000000000e+00 0.000000000000000e+00
0.000000000000000e+00 0.000000000000000e+00 0.000000000000000e+00
0.000000000000000e+00 0.000000000000000e+00 0.000000000000000e+00
0.000000000000000e+00 0.000000000000000e+00 0.000000000000000e+00
0.000000000000000e+00 0.000000000000000e+00 0.000000000000000e+00
0.000000000000000e+00 0.000000000000000e+00 0.000000000000000e+00
0.000000000000000e+00 0.000000000000000e+00 0.000000000000000e+00
0.000000000000000e+00 0.000000000000000e+00 0.000000000000000e+00
0.000000000000000e+00 0.000000000000000e+00 0.000000000000000e+00
0.000000000000000e+00 0.000000000000000e+00 0.000000000000000e+00
0.000000000000000e+00 0.000000000000000e+00 0.000000000000000e+00
0.000000000000000e+00 0.000000000000000e+00 0.000000000000000e+00
0.000000000000000e+00 0.000000000000000e+00 0.000000000000000e+00
0.000000000000000e+00 0.000000000000000e+00 0.000000000000000e+00
0.000000000000000e+00 0.000000000000000e+00 0.000000000000000e+00
0.000000000000000e+00 0.000000000000000e+00 0.000000000000000e+00
0.000000000000000e+00 0.000000000000000e+00 0.000000000000000e+00
0.000000000000000e+00 0.000000000000000e+00 0.000000000000000e+00
0.000000000000000e+00 0.000000000000000e+00 0.000000000000000e+00
0.000000000000000e+00 0.000000000000000e+00 0.000000000000000e+00
0.000000000000000e+00 0.000000000000000e+00 0.000000000000000e+00
0.000000000000000e+00 0.000000000000000e+00 0.000000000000000e+00
0.000000000000000e+00 0.000000000000000e+00 0.000000000000000e+00
0.000000000000000e+00 0.000000000000000e+00 0.000000000000000e+00
0.000000000000000e+00 0.000000000000000e+00 0.000000000000000e+00
0.000000000000000e+00 0.000000000000000e+00 0.000000000000000e+00
0.000000000000000e+00 0.000000000000000e+00 0.000000000000000e+00
0.000000000000000e+00 0.000000000000000e+00 0.000000000000000e+00
0.000000000000000e+00 0.000000000000000e+00 0.000000000000000e+00
0.000000000000000e+00 0.000000000000000e+00 0.000000000000000e+00
0.000000000000000e+00 0.000000000000000e+00 0.000000000000000e+00
0.000000000000000e+00 0.000000000000000e+00 0.000000000000000e+00
0.000000000000000e+00 0.000000000000000e+00 0.000000000000000e+00
0.000000000000000e+00 0.000000000000000e+00 0.000000000000000e+00
0.000000000000000e+00 0.000000000000000e+00 0.000000000000000e+00
0.000000000000000e+00 0.000000000000000e+00 0.000000000000000e+00
0.000000000000000e+00 0.000000000000000e+00 0.000000000000000e+00
0.000000000000000e+00 0.000000000000000e+00 0.000000000000000e+00
0.000000000000000e+00 0.000000000000000e+00 0.000000000000000e+00
0.000000000000000e+00 0.000000000000000e+00 0.000000000000000e+00
0.000000000000000e+00 0.000000000000000e+00 0.000000000000000e+00
0.000000000000000e+00 0.000000000000000e+00 0.000000000000000e+00
0.000000000000000e+00 0.000000000000000e+00 0.000000000000000e+00
0.000000000000000e+00 0.000000000000000e+00 0.000000000000000e+00
0.000000000000000e+00 0.000000000000000e+00 0.000000000000000e+00
0.000000000000000e+00 0.000000000000000e+00 0.000000000000000e+00
0.000000000000000e+00 0.000000000000000e+00 0.000000000000000e+00
0.000000000000000e+00 0.000000000000000e+00 0.000000000000000e+00
0.000000000000000e+00 0.000000000000000e+00 0.000000000000000e+00
0.000000000000000e+00 0.000000000000000e+00 0.000000000000000e+00
0.000000000000000e+00 0.000000000000000e+00 0.000000000000000e+00
0.000000000000000e+00 0.000000000000000e+00 0.000000000000000e+00
0.000000000000000e+00 0.000000000000000e+00 0.000000000000000e+00
0.000000000000000e+00 0.000000000000000e+00 0.000000000000000e+00
0.000000000000000e+00 0.000000000000000e+00 0.000000000000000e+00
0.000000000000000e+00 0.000000000000000e+00 0.000000000000000e+00
0.000000000000000e+00 0.000000000000000e+00 0.000000000000000e+00
0.000000000000000e+00 0.000000000000000e+00 0.000000000000000e+00
0.000000000000000e+00 0.000000000000000e+00 0.000000000000000e+00
0.000000000000000e+00 0.000000000000000e+00 0.000000000000000e+00
0.000000000000000e+00 0.000000000000000e+00 0.000000000000000e+00
0.000000000000000e+00 0.000000000000000e+00 0.000000000000000e+00
0.000000000000000e+00 0.000000000000000e+00 0.000000000000000e+00
0.000000000000000e+00 0.000000000000000e+00 0.000000000000000e+00
0.000000000000000e+00 0.000000000000000e+00 0.000000000000000e+00
0.000000000000000e+00 0.000000000000000e+00 0.000000000000000e+00
0.000000000000000e+00 0.000000000000000e+00 0.000000000000000e+00
0.000000000000000e+00 0.000000000000000e+00 0.000000000000000e+00
0.000000000000000e+00 0.000000000000000e+00 0.000000000000000e+00
0.000000000000000e+00 0.000000000000000e+00 0.000000000000000e+00
0.000000000000000e+00 0.000000000000000e+00 0.000000000000000e+00
0.000000000000000e+00 0.000000000000000e+00 0.000000000000000e+00
0.000000000000000e+00 0.000000000000000e+00 0.000000000000000e+00
0.000000000000000e+00 0.000000000000000e+00 0.000000000000000e+00
0.000000000000000e+00 0.000000000000000e+00 0.000000000000000e+00
0.000000000000000e+00 0.000000000000000e+00 0.000000000000000e+00
0.000000000000000e+00 0.000000000000000e+00 0.000000000000000e+00
0.000000000000000e+00 0.000000000000000e+00 0.000000000000000e+00
0.000000000000000e+00 0.000000000000000e+00 0.000000000000000e+00
0.000000000000000e+00 0.000000000000000e+00 0.000000000000000e+00
0.000000000000000e+00 0.000000000000000e+00 0.000000000000000e+00
0.000000000000000e+00 0.000000000000000e+00 0.000000000000000e+00
0.000000000000000e+00 0.000000000000000e+00 0.000000000000000e+00
0.000000000000000e+00 0.000000000000000e+00 0.000000000000000e+00
0.000000000000000e+00 0.000000000000000e+00 0.000000000000000e+00
0.000000000000000e+00 0.000000000000000e+00 0.000000000000000e+00
0.000000000000000e+00 0.000000000000000e+00 0.000000000000000e+00
0.000000000000000e+00 0.000000000000000e+00 0.000000000000000e+00
0.000000000000000e+00 0.000000000000000e+00 0.000000000000000e+00
0.000000000000000e+00 0.000000000000000e+00 0.000000000000000e+00
0.000000000000000e+00 0.000000000000000e+00 0.000000000000000e+00
0.000000000000000e+00 0.000000000000000e+00 0.000000000000000e+00
0.000000000000000e+00 0.000000000000000e+00 0.000000000000000e+00
0.000000000000000e+00 0.000000000000000e+00 0.000000000000000e+00
0.000000000000000e+00 0.000000000000000e+00 0.000000000000000e+00
0.000000000000000e+00 0.000000000000000e+00 0.000000000000000e+00
0.000000000000000e+00 0.000000000000000e+00 0.000000000000000e+00
0.000000000000000e+00 0.000000000000000e+00 0.000000000000000e+00
0.000000000000000e+00 0.000000000000000e+00 0.000000000000000e+00
0.000000000000000e+00 0.000000000000000e+00 0.000000000000000e+00
0.000000000000000e+00 0.000000000000000e+00 0.000000000000000e+00
0.000000000000000e+00 0.000000000000000e+00 0.000000000000000e+00
0.000000000000000e+00 0.000000000000000e+00 0.000000000000000e+00
0.000000000000000e+00 0.000000000000000e+00 0.000000000000000e+00
0.000000000000000e+00 0.000000000000000e+00 0.000000000000000e+00
0.000000000000000e+00 0.000000000000000e+00 0.000000000000000e+00
0.000000000000000e+00 0.000000000000000e+00 0.000000000000000e+00
0.000000000000000e+00 0.000000000000000e+00 0.000000000000000e+00
0.000000000000000e+00 0.000000000000000e+00 0.000000000000000e+00
0.000000000000000e+00 0.000000000000000e+00 0.000000000000000e+00
0.000000000000000e+00 0.000000000000000e+00 0.000000000000000e+00
0.000000000000000e+00 0.000000000000000e+00 0.000000000000000e+00
0.000000000000000e+00 0.000000000000000e+00 0.000000000000000e+00
0.000000000000000e+00 0.000000000000000e+00 0.000000000000000e+00
0.000000000000000e+00 0.000000000000000e+00 0.000000000000000e+00
0.000000000000000e+00 0.000000000000000e+00 0.000000000000000e+00
0.000000000000000e+00 0.000000000000000e+00 0.000000000000000e+00
0.000000000000000e+00 0.000000000000000e+00 0.000000000000000e+00
0.000000000000000e+00 0.000000000000000e+00 0.000000000000000e+00
0.000000000000000e+00 0.000000000000000e+00 0.000000000000000e+00
0.000000000000000e+00 0.000000000000000e+00 0.000000000000000e+00
0.000000000000000e+00 0.000000000000000e+00 0.000000000000000e+00
0.000000000000000e+00 0.000000000000000e+00 0.000000000000000e+00
0.000000000000000e+00 0.000000000000000e+00 0.000000000000000e+00
0.000000000000000e+00 0.000000000000000e+00 0.000000000000000e+00
0.000000000000000e+00 0.000000000000000e+00 0.000000000000000e+00
0.000000000000000e+00 0.000000000000000e+00 0.000000000000000e+00
0.000000000000000e+00 0.000000000000000e+00 0.000000000000000e+00
0.000000000000000e+00 0.000000000000000e+00 0.000000000000000e+00
0.000000000000000e+00 0.000000000000000e+00 0.000000000000000e+00
0.000000000000000e+00 0.000000000000000e+00 0.000000000000000e+00
0.000000000000000e+00 0.000000000000000e+00 0.000000000000000e+00
0.000000000000000e+00 0.000000000000000e+00 0.000000000000000e+00
0.000000000000000e+00 0.000000000000000e+00 0.000000000000000e+00
0.000000000000000e+00 0.000000000000000e+00 0.000000000000000e+00
0.000000000000000e+00 0.000000000000000e+00 0.000000000000000e+00
0.000000000000000e+00 0.000000000000000e+00 0.000000000000000e+00
0.000000000000000e+00 0.000000000000000e+00 0.000000000000000e+00
0.000000000000000e+00 0.000000000000000e+00 0.000000000000000e+00
0.000000000000000e+00 0.000000000000000e+00 0.000000000000000e+00
0.000000000000000e+00 0.000000000000000e+00 0.000000000000000e+00
0.000000000000000e+00 0.000000000000000e+00 0.000000000000000e+00
0.000000000000000e+00 0.000000000000000e+00 0.000000000000000e+00
0.000000000000000e+00 0.000000000000000e+00 0.000000000000000e+00
0.000000000000000e+00 0.000000000000000e+00 0.000000000000000e+00
0.000000000000000e+00 0.000000000000000e+00 0.000000000000000e+00
0.000000000000000e+00 0.000000000000000e+00 0.000000000000000e+00
0.000000000000000e+00 0.000000000000000e+00 0.000000000000000e+00
0.000000000000000e+00 0.000000000000000e+00 0.000000000000000e+00
0.000000000000000e+00 0.000000000000000e+00 0.000000000000000e+00
0.000000000000000e+00 0.000000000000000e+00 0.000000000000000e+00
0.000000000000000e+00 0.000000000000000e+00 0.000000000000000e+00
0.000000000000000e+00 0.000000000000000e+00 0.000000000000000e+00
0.000000000000000e+00 0.000000000000000e+00 0.000000000000000e+00
0.000000000000000e+00 0.000000000000000e+00 0.000000000000000e+00
0.000000000000000e+00 0.000000000000000e+00 0.000000000000000e+00
0.000000000000000e+00 0.000000000000000e+00 0.000000000000000e+00
0.000000000000000e+00 0.000000000000000e+00 0.000000000000000e+00
0.000000000000000e+00 0.000000000000000e+00 0.000000000000000e+00
0.000000000000000e+00 0.000000000000000e+00 0.000000000000000e+00
0.000000000000000e+00 0.000000000000000e+00 0.000000000000000e+00
0.000000000000000e+00 0.000000000000000e+00 0.000000000000000e+00
0.000000000000000e+00 0.000000000000000e+00 0.000000000000000e+00
0.000000000000000e+00 0.000000000000000e+00 0.000000000000000e+00
0.000000000000000e+00 0.000000000000000e+00 0.000000000000000e+00
0.000000000000000e+00 0.000000000000000e+00 0.000000000000000e+00
0.000000000000000e+00 0.000000000000000e+00 0.000000000000000e+00
0.000000000000000e+00 0.000000000000000e+00 0.000000000000000e+00
0.000000000000000e+00 0.000000000000000e+00 0.000000000000000e+00
0.000000000000000e+00 0.000000000000000e+00 0.000000000000000e+00
0.000000000000000e+00 0.000000000000000e+00 0.000000000000000e+00
0.000000000000000e+00 0.000000000000000e+00 0.000000000000000e+00
0.000000000000000e+00 0.000000000000000e+00 0.000000000000000e+00
0.000000000000000e+00 0.000000000000000e+00 0.000000000000000e+00
0.000000000000000e+00 0.000000000000000e+00 0.000000000000000e+00
0.000000000000000e+00 0.000000000000000e+00 0.000000000000000e+00
0.000000000000000e+00 0.000000000000000e+00 0.000000000000000e+00
0.000000000000000e+00 0.000000000000000e+00 0.000000000000000e+00
0.000000000000000e+00 0.000000000000000e+00 0.000000000000000e+00
0.000000000000000e+00 0.000000000000000e+00 0.000000000000000e+00
0.000000000000000e+00 0.000000000000000e+00 0.000000000000000e+00
0.000000000000000e+00 0.000000000000000e+00 0.000000000000000e+00
0.000000000000000e+00 0.000000000000000e+00 0.000000000000000e+00
0.000000000000000e+00 0.000000000000000e+00 0.000000000000000e+00
0.000000000000000e+00 0.000000000000000e+00 0.000000000000000e+00
0.000000000000000e+00 0.000000000000000e+00 0.000000000000000e+00
0.000000000000000e+00 0.000000000000000e+00 0.000000000000000e+00
0.000000000000000e+00 0.000000000000000e+00 0.000000000000000e+00
0.000000000000000e+00 0.000000000000000e+00 0.000000000000000e+00
0.000000000000000e+00 0.000000000000000e+00 0.000000000000000e+00
0.000000000000000e+00 0.000000000000000e+00 0.000000000000000e+00
0.000000000000000e+00 0.000000000000000e+00 0.000000000000000e+00
0.000000000000000e+00 0.000000000000000e+00 0.000000000000000e+00
0.000000000000000e+00 0.000000000000000e+00 0.000000000000000e+00
0.000000000000000e+00 0.000000000000000e+00 0.000000000000000e+00
0.000000000000000e+00 0.000000000000000e+00 0.000000000000000e+00
0.000000000000000e+00 0.000000000000000e+00 0.000000000000000e+00
0.000000000000000e+00 0.000000000000000e+00 0.000000000000000e+00
0.000000000000000e+00 0.000000000000000e+00 0.000000000000000e+00
0.000000000000000e+00 0.000000000000000e+00 0.000000000000000e+00
0.000000000000000e+00 0.000000000000000e+00 0.000000000000000e+00
0.000000000000000e+00 0.000000000000000e+00 0.000000000000000e+00
0.000000000000000e+00 0.000000000000000e+00 0.000000000000000e+00
0.000000000000000e+00 0.000000000000000e+00 0.000000000000000e+00
0.000000000000000e+00 0.000000000000000e+00 0.000000000000000e+00
0.000000000000000e+00 0.000000000000000e+00 0.000000000000000e+00
0.000000000000000e+00 0.000000000000000e+00 0.000000000000000e+00
0.000000000000000e+00 0.000000000000000e+00 0.000000000000000e+00
0.000000000000000e+00 0.000000000000000e+00 0.000000000000000e+00
0.000000000000000e+00 0.000000000000000e+00 0.000000000000000e+00
0.000000000000000e+00 0.000000000000000e+00 0.000000000000000e+00
0.000000000000000e+00 0.000000000000000e+00 0.000000000000000e+00
0.000000000000000e+00 0.000000000000000e+00 0.000000000000000e+00
0.000000000000000e+00 0.000000000000000e+00 0.000000000000000e+00
0.000000000000000e+00 0.000000000000000e+00 0.000000000000000e+00
0.000000000000000e+00 0.000000000000000e+00 0.000000000000000e+00
0.000000000000000e+00 0.000000000000000e+00 0.000000000000000e+00
0.000000000000000e+00 0.000000000000000e+00 0.000000000000000e+00
0.000000000000000e+00 0.000000000000000e+00 0.000000000000000e+00
0.000000000000000e+00 0.000000000000000e+00 0.000000000000000e+00
0.000000000000000e+00 0.000000000000000e+00 0.000000000000000e+00
0.000000000000000e+00 0.000000000000000e+00 0.000000000000000e+00
0.000000000000000e+00 0.000000000000000e+00 0.000000000000000e+00
0.000000000000000e+00 0.000000000000000e+00 0.000000000000000e+00
0.000000000000000e+00 0.000000000000000e+00 0.000000000000000e+00
0.000000000000000e+00 0.000000000000000e+00 0.000000000000000e+00
0.000000000000000e+00 0.000000000000000e+00 0.000000000000000e+00
0.000000000000000e+00 0.000000000000000e+00 0.000000000000000e+00
0.000000000000000e+00 0.000000000000000e+00 0.000000000000000e+00
0.000000000000000e+00 0.000000000000000e+00 0.000000000000000e+00
0.000000000000000e+00 0.000000000000000e+00 0.000000000000000e+00
0.000000000000000e+00 0.000000000000000e+00 0.000000000000000e+00
0.000000000000000e+00 0.000000000000000e+00 0.000000000000000e+00
0.000000000000000e+00 0.000000000000000e+00 0.000000000000000e+00
0.000000000000000e+00 0.000000000000000e+00 0.000000000000000e+00
0.000000000000000e+00 0.000000000000000e+00 0.000000000000000e+00
0.000000000000000e+00 0.000000000000000e+00 0.000000000000000e+00
0.000000000000000e+00 0.000000000000000e+00 0.000000000000000e+00
0.000000000000000e+00 0.000000000000000e+00 0.000000000000000e+00
0.000000000000000e+00 0.000000000000000e+00 0.000000000000000e+00
0.000000000000000e+00 0.000000000000000e+00 0.000000000000000e+00
0.000000000000000e+00 0.000000000000000e+00 0.000000000000000e+00
0.000000000000000e+00 0.000000000000000e+00 0.000000000000000e+00
0.000000000000000e+00 0.000000000000000e+00 0.000000000000000e+00
0.000000000000000e+00 0.000000000000000e+00 0.000000000000000e+00
0.000000000000000e+00 0.000000000000000e+00 0.000000000000000e+00
0.000000000000000e+00 0.000000000000000e+00 0.000000000000000e+00
0.000000000000000e+00 0.000000000000000e+00 0.000000000000000e+00
0.000000000000000e+00 0.000000000000000e+00 0.000000000000000e+00
0.000000000000000e+00 0.000000000000000e+00 0.000000000000000e+00
0.000000000000000e+00 0.000000000000000e+00 0.000000000000000e+00
0.000000000000000e+00 0.000000000000000e+00 0.000000000000000e+00
0.000000000000000e+00 0.000000000000000e+00 0.000000000000000e+00
0.000000000000000e+00 0.000000000000000e+00 0.000000000000000e+00
0.000000000000000e+00 0.000000000000000e+00 0.000000000000000e+00
-1.095826018400554e-01  9.573576863628405e-03  1.851788090136141e-18
-1.095360840542100e-01 -1.009189229376500e-02  2.053015802337507e-18
-9.182665976071630e-02  6.056289752967223e-02  1.011903173900279e-18
-8.423772308292274e-02  7.073899921404567e-02  7.722932451877762e-19
-7.272425204478752e-02 -8.252989255128190e-02  2.142179478976426e-18
-1.053876652024473e-01 -3.151888359661253e-02  2.199344292280024e-18
 3.811277455714362e-02  1.031863189359726e-01 -1.738464228231917e-18
-1.095519044094654e-01  9.918681377042720e-03  1.847695969232850e-18
-1.049238642825267e-01 -3.303002730882684e-02  2.206616854355923e-18
-9.212197945669806e-02 -6.011273493178982e-02  2.257057025691052e-18
-4.592981129988340e-02  9.995225076984025e-02 -2.095972877184749e-19
-7.882157037806842e-02 -7.672783095549575e-02  2.191074456688310e-18
-1.050159402519142e-01  3.273610076057203e-02  1.532532381106367e-18
-1.078709310573665e-01 -2.153746115067422e-02  2.140981480648741e-18
-1.034261120756597e-01 -3.745716674967571e-02  2.225449816752620e-18
-1.099983023460757e-01  6.111309035139382e-04  1.951271852945807e-18
-1.057569787340146e-01  3.025659348064676e-02  1.571196081405094e-18
-9.703477352982691e-02  5.180977442544147e-02  1.194522931020918e-18
 2.551511318048511e-02 -1.069999018662492e-01  6.453132470917954e-19
-1.090354313959387e-01  1.453529154511478e-02  1.791070723491517e-18
-1.069700286685353e-01  2.564006565226900e-02  1.640216898352097e-18
-1.091885135848622e-01 -1.333673502504578e-02  2.080169951543617e-18
-1.043171980795121e-01 -3.489874188047152e-02  2.215020868988649e-18
-2.698293950823210e-02  1.066392093720458e-01 -6.154855423542569e-19
-9.485163783862961e-02 -5.570607506663321e-02  2.260357723351097e-18
-1.009952728287365e-01 -4.358847171270189e-02  2.245187063910717e-18
-1.093469852129591e-01 -1.196815879059254e-02  2.068928519553053e-18
-9.609630508070155e-02 -5.353036661406931e-02  2.260153447639245e-18
-9.837556828668843e-02  4.921633432378954e-02  1.245030627998900e-18
-9.267277199312615e-02  5.926008210515729e-02  1.040346705566473e-18
-5.532244600633558e-02 -9.507590108895109e-02  1.961399263014506e-18
-1.099209253194952e-01 -4.170153103410026e-03  1.999020792726363e-18
-1.083686679865387e-01  1.887410392106747e-02  1.734625152280769e-18
-1.012826385392437e-01  4.291651349456115e-02  1.361493781297374e-18
-1.052172874287457e-01  3.208305512473256e-02  1.542825400969114e-18
-1.093558794362176e-01 -1.188661569713366e-02  2.068248977202341e-18
-1.016774276043336e-01 -4.197261864317520e-02  2.240724518550025e-18
-1.099808801134199e-01  2.050855791490947e-03  1.936169153320675e-18
-9.742285386653118e-02  5.107629141294855e-02  1.208965555031486e-18
-1.091308978225299e-01  1.380025870947614e-02  1.800321857798934e-18
-1.074568369273172e-01 -2.351655156641550e-02  2.153946616729871e-18
-1.034589060428394e-01 -3.736649248215380e-02  2.225101779357229e-18
-1.089642032820824e-01 -1.505996026226307e-02  2.093883595452529e-18
-8.254455127122369e-02 -7.270761346263713e-02  2.216023068305447e-18
-6.942645235631832e-02  8.532272682712261e-02  3.588665117119723e-19
-9.500860832140046e-02  5.543793236431748e-02  1.121186899423832e-18
-6.110462216204426e-02 -9.146707139967772e-02  2.027220570862201e-18
-1.099260423246201e-01  4.033016097878115e-03  1.914827272370203e-18
-1.085554935330441e-01  1.776808441552304e-02  1.749313884368580e-18
-1.026423575947219e-01  3.955434776857230e-02  1.420236635276960e-18
-1.050422692558119e-01  3.265151864139604e-02  1.533869987685365e-18
-1.093362201665704e-01 -1.206610789306915e-02  2.069743334157389e-18
-1.026056078230357e-01 -3.964958061903451e-02  2.233374220910595e-18
-1.099879221595154e-01  1.630024242853992e-03  1.940618366217165e-18
-1.007570069786708e-01  4.413644236569146e-02  1.339605214695414e-18
-1.091438243905345e-01  1.369764933877710e-02  1.801606175504823e-18
-1.073552455044855e-01 -2.397605602828737e-02  2.156859917598830e-18
-1.035290919551528e-01 -3.717159021270733e-02  2.224348271371498e-18
-1.089710078681882e-01 -1.501064436295772e-02  2.093497988228780e-18
-8.577433113845934e-02 -6.886772914616723e-02  2.234047437232367e-18
-7.001434718531513e-02  8.484097587966608e-02  3.742786174390620e-19
-9.755178275057366e-02  5.082961422423749e-02  1.213794516818191e-18
-6.085566788482669e-02 -9.163289631072240e-02  2.024493923257232e-18
-1.099111630279996e-01  4.419982107704507e-03  1.910586542360905e-18
-1.086026635828703e-01  1.747745584190783e-02  1.753139434688545e-18
-1.026653353898507e-01  3.949466937815014e-02  1.421258726332316e-18
-1.049605790474220e-01  3.291317131529259e-02  1.529727826810116e-18
-1.093163376642695e-01 -1.224493036612844e-02  2.071226837261826e-18
-1.015228014992665e-01 -4.234525682695115e-02  2.241801484535150e-18
-1.099825437761630e-01  1.959608257872697e-03  1.937136295443981e-18
-9.764903330342546e-02  5.064253444394768e-02  1.217447383192584e-18
-1.091378435706969e-01  1.374522101452068e-02  1.801010957994799e-18
-1.073436393556304e-01 -2.402796474710832e-02  2.157186715564569e-18
-1.037109299053546e-01 -3.666119226329856e-02  2.222340141082322e-18
-1.090877654830549e-01 -1.413716456415263e-02  2.086601141636402e-18
-7.289473511748552e-02 -8.237935173422740e-02  2.143666676406601e-18
-6.994731378792797e-02  8.489625017545277e-02  3.725177548625911e-19
-9.144786952744045e-02  6.113335553437384e-02  9.993009010945828e-19
-6.161437882712311e-02 -9.112446609856042e-02  2.032772153766781e-18
-1.099247548950442e-01  4.067955415731224e-03  1.914445372226712e-18
-1.085385845463371e-01  1.787108459712352e-02  1.747954679331441e-18
-1.025516059999639e-01  3.978904506051992e-02  1.416210172979882e-18
-1.050722218264032e-01  3.255500269487081e-02  1.535394695696818e-18
-1.093599953412340e-01 -1.184868849135703e-02  2.067932536380250e-18
-1.026763037249729e-01 -3.946614566152924e-02  2.232747611263006e-18
-1.099892698510996e-01  1.536397611924165e-03  1.941604329617410e-18
-1.006994959839543e-01  4.426749946154059e-02  1.337235173892286e-18
-1.091378881660601e-01  1.374486692014396e-02  1.801015389813573e-18
-1.073334891400637e-01 -2.407326544155864e-02  2.157471528549972e-18
-1.035747846313210e-01 -3.704408169431928e-02  2.223851323341874e-18
-1.089958226558590e-01 -1.482938446370833e-02  2.092077217357289e-18
-8.301905845785539e-02 -7.216533747424117e-02  2.218895800916830e-18
-7.000375818314618e-02  8.484971325959516e-02  3.740004001097160e-19
-9.665714673442012e-02  5.251091301016109e-02  1.180598667492737e-18
-6.070495994444953e-02 -9.173280677131111e-02  2.022838439375214e-18
-1.099002866241463e-01  4.682627460135918e-03  1.907694398195815e-18
-1.086319292958357e-01  1.729462163403634e-02  1.755538808027605e-18
-1.026613127611102e-01  3.950512450512535e-02  1.421079716223890e-18
-1.049554432438122e-01  3.292954499374138e-02  1.529468195460700e-18
-1.093165595799789e-01 -1.224294905636826e-02  2.071210429278554e-18
-1.015703547501642e-01 -4.223106718904611e-02  2.241474494310804e-18
-1.099799071734029e-01  2.102383915844275e-03  1.935622405933474e-18
-9.757011147738566e-02  5.079442239351160e-02  1.214482281651628e-18
-1.091444912582335e-01  1.369233464319782e-02  1.801672649777396e-18
-1.073446040114339e-01 -2.402365479331504e-02  2.157159599555732e-18
-1.036086044138796e-01 -3.694938553491969e-02  2.223480218076781e-18
-1.090225265981643e-01 -1.463177002800739e-02  2.090522029325081e-18
-8.290692701260166e-02 -7.229413152758020e-02  2.218223600204169e-18
-7.031664096389029e-02  8.459060233592899e-02  3.822307930262199e-19
-9.694060244578726e-02  5.198576341122399e-02  1.191038821351954e-18
-6.095669440422533e-02 -9.156572179210852e-02  2.025601616902552e-18
-1.099062821640093e-01  4.539729164290574e-03  1.909269324058357e-18
-1.086074867507677e-01  1.744745888895461e-02  1.753533476509120e-18
-1.026676182903473e-01  3.948873452755183e-02  1.421360331703731e-18
-1.049681407000266e-01  3.288904738631628e-02  1.530110260044777e-18
-1.093299636809978e-01 -1.212266643571519e-02  2.070213111013205e-18
-1.026031492817520e-01 -3.965594227182662e-02  2.233395831907228e-18
-1.099889970896516e-01  1.555801790893979e-03  1.941400104612150e-18
-1.007022513251171e-01  4.426123109508915e-02  1.337348613663137e-18
-1.091349286543478e-01  1.376834585599706e-02  1.800721484235753e-18
-1.073022658835322e-01 -2.421205766265417e-02  2.158341913108052e-18
-1.036047654406180e-01 -3.696014851153141e-02  2.223522484643101e-18
-1.090309720938423e-01 -1.456870358926016e-02  2.090024342246931e-18
-8.326240904115836e-02 -7.188442975125246e-02  2.220340290017834e-18
-7.043254525261684e-02  8.449412150699004e-02  3.852847535683660e-19
-9.707538028837492e-02  5.173364999560072e-02  1.196027727589557e-18
-6.108383784074165e-02 -9.148095296096290e-02  2.026993317071616e-18
-1.099145226590732e-01  4.335632436911272e-03  1.911512993228949e-18
-1.086117997716697e-01  1.742058983957386e-02  1.753886301582458e-18
-1.026467325776783e-01  3.954299294598883e-02  1.420431159994499e-18
-1.049260528334621e-01  3.302307430857167e-02  1.527984178317018e-18
-1.093208322369116e-01 -1.220473838428914e-02  2.070893865530514e-18
-1.015300090863958e-01 -4.232797248766246e-02  2.241752161838351e-18
-1.099835475459413e-01  1.902437701894723e-03  1.937741565418770e-18
-9.767174793298421e-02  5.059871199660652e-02  1.218301876847559e-18
-1.091344635319108e-01  1.377203215222641e-02  1.800675331472538e-18
-1.073413845399150e-01 -2.403803579858445e-02  2.157250064824662e-18
-1.036974948566483e-01 -3.669917656372326e-02  2.222491323252938e-18
-1.090603447391309e-01 -1.434716715529066e-02  2.088270857125625e-18
-8.203486149623102e-02 -7.328220451988407e-02  2.212856245160173e-18
-7.080135005453092e-02  8.418532431757747e-02  3.950208538887341e-19
-9.728531235747453e-02  5.133778335211342e-02  1.203831105130008e-18
-6.126012850918732e-02 -9.136299390364667e-02  2.028918633340960e-18
-1.099027024621679e-01  4.625580127088868e-03  1.908323531538517e-18
-1.086288911249214e-01  1.731369437670365e-02  1.755288774649799e-18
-1.026357198100534e-01  3.957156831706478e-02  1.419941573100921e-18
-1.049258260323096e-01  3.302379492786114e-02  1.527972738018551e-18
-1.093186225951798e-01 -1.222451446449205e-02  2.071057734360138e-18
-1.015331505796101e-01 -4.232043635618787e-02  2.241730637444168e-18
-1.099821640540244e-01  1.980805390137475e-03  1.936911745001868e-18
-9.767108891069047e-02  5.059998410078720e-02  1.218277078351396e-18
-1.091396788537474e-01  1.373064090641124e-02  1.801193424360175e-18
-1.073395098164229e-01 -2.404640580980807e-02  2.157302700708607e-18
-1.036787925889887e-01 -3.675197909350438e-02  2.222701020902913e-18
-1.090452091245168e-01 -1.446175532189417e-02  2.089178852594394e-18
-8.384121830758701e-02 -7.120849747536788e-02  2.223695932754794e-18
-7.079426524925388e-02  8.419128225545812e-02  3.948335556803925e-19
-9.798824996259144e-02  4.998302581145558e-02  1.230260359892925e-18
-6.111071833027695e-02 -9.146299855765432e-02  2.027287212475431e-18
-1.099127670217592e-01  4.379913882760669e-03  1.911026773798828e-18
-1.086211435301893e-01  1.736223425121136e-02  1.754652167382460e-18
-1.026231065714013e-01  3.960426741696819e-02  1.419381134100633e-18
-1.049541417676175e-01  3.293369286646704e-02  1.529402416253905e-18
-1.093234300990840e-01 -1.218144619372466e-02  2.070700778790051e-18
-1.025810510401900e-01 -3.971307048680394e-02  2.233589538994739e-18
-1.099877618326937e-01  1.640806824272866e-03  1.940504725903050e-18
-1.007307223675460e-01  4.419639771873148e-02  1.338521429214610e-18
-1.091403919738294e-01  1.372497139519076e-02  1.801264367350894e-18
-1.072788476013591e-01 -2.431560933483482e-02  2.158989112656734e-18
-1.036958251745125e-01 -3.670389409009422e-02  2.222510080137383e-18
-1.090680199943009e-01 -1.428870233865607e-02  2.087806742694428e-18
-8.219898719774671e-02 -7.309806087485907e-02  2.213885048736362e-18
-7.081842847082477e-02  8.417095810861729e-02  3.954723922567883e-19
-9.731948238048721e-02  5.127297874313486e-02  1.205105045264588e-18
-6.113042216725346e-02 -9.144983042987720e-02  2.027502568028710e-18
-1.099075002449563e-01  4.510143002706857e-03  1.909594988324253e-18
-1.086353485911035e-01  1.727313047740203e-02  1.755820472292872e-18
-1.026350960930989e-01  3.957318599708996e-02  1.419913852239117e-18
-1.049284381084307e-01  3.301549448554656e-02  1.528104507058392e-18
-1.093146828325803e-01 -1.225969482541420e-02  2.071349087013618e-18
-1.015468426759507e-01 -4.228757196323338e-02  2.241636634932162e-18
-1.099813650735253e-01  2.024681842628853e-03  1.936446711580542e-18
-9.759248796762018e-02  5.075141665303384e-02  1.215322366347647e-18
-1.091417996353975e-01  1.371377308936804e-02  1.801404476891921e-18
-1.073258567140737e-01 -2.410727028491695e-02  2.157685087837711e-18
-1.036556605942664e-01 -3.681717027103221e-02  2.222959175130993e-18
-1.090606827295611e-01 -1.434459767863628e-02  2.088250471629294e-18
-8.283849771268734e-02 -7.237253136864162e-02  2.217811349073252e-18
-7.080817041802474e-02  8.417958779925148e-02  3.952011710346168e-19
-9.746308810502499e-02  5.099947506624019e-02  1.210470831355866e-18
-6.049272226559473e-02 -9.187290434560970e-02  2.020500868396196e-18
-1.099217591879920e-01  4.148114875098806e-03  1.913568450720951e-18
-1.086367161059777e-01  1.726452761326326e-02  1.755933200155140e-18
-1.026756259100035e-01  3.946790903999024e-02  1.421716811166738e-18
-1.050785847575027e-01  3.253445904514551e-02  1.535719010183717e-18
-1.092662903035371e-01 -1.268376140200857e-02  2.074845014257825e-18
-1.010941147288139e-01 -4.335873576567163e-02  2.244585620026255e-18
-1.099934939462771e-01  1.196365115777999e-03  1.945173212803583e-18
-1.015070524145301e-01  4.238299553020954e-02  1.370969197170532e-18
-1.099929078305999e-01 -1.249090456727927e-03  1.970288949819294e-18
-1.033350445394043e-01 -3.770767256195043e-02  2.226403017535182e-18
-1.006398308259342e-01  4.440297795561988e-02  1.334781368922945e-18
-1.099911746995248e-01 -1.393372964629124e-03  1.971740557039430e-18
-1.024864784196876e-01 -3.995649810895396e-02  2.234407636789883e-18
-1.099440861103510e-01  3.506840367005261e-03  1.920554647550792e-18
-9.666888625079384e-02  5.248929825241527e-02  1.181029669973824e-18
-1.090799932353247e-01  1.419700939569490e-02  1.795339480775724e-18
-1.073623261722456e-01 -2.394432957683844e-02  2.156659948764424e-18
-1.056837038108178e-01 -3.051155107213110e-02  2.194262676689702e-18
-1.086783887605658e-01 -1.700022989277638e-02  2.108732750719219e-18
-7.623771159139130e-02  7.929572076289972e-02  5.420062924349265e-19
-6.714566010906424e-02  8.712898672954909e-02  2.997184287098168e-19
-1.092275563506521e-01 -1.301310622661062e-02  2.077539595793923e-18
-9.140218734601757e-02 -6.120163517720286e-02  2.255435520937641e-18
-1.031209850704362e-01  3.828919479569658e-02  1.441753369337170e-18
-7.832021294357026e-02  7.723952514402022e-02  6.001935511213260e-19
-1.043399005988885e-01  3.483080738389493e-02  1.498979099463937e-18
-8.058141470769836e-02  7.487747060168273e-02  6.647035861286465e-19
-6.610338412778836e-02 -8.792236693159471e-02  2.079758952062074e-18
-9.713412930175759e-02  5.162325953278582e-02  1.198207458264782e-18
-8.654869353655957e-02 -6.789199987564529e-02  2.237802875999428e-18
-9.440376047023542e-02  5.646175704915970e-02  1.099903483713232e-18
-1.097064040694864e-01 -8.031494639386707e-03  2.034877012759306e-18
-1.096697928412441e-01  8.516838507246705e-03  1.864197360736441e-18
-1.078602460782557e-01  2.159090817770436e-02  1.697663001155718e-18
-3.947665349356126e-02 -1.026722641658847e-01  1.757454354777918e-18
-5.311333794409961e-02  9.632742772666460e-02 -4.451412228995162e-20
-1.084629945061082e-01  1.832426868303023e-02  1.741953162544646e-18
-8.843616563269451e-02 -6.541440673266515e-02  2.245936323903074e-18
-1.084744198725703e-01 -1.825651207950857e-02  2.118010724151677e-18
-9.527975065571963e-02  5.497062047115555e-02  1.130813660634499e-18
-1.016800959825103e-01 -4.196615399327665e-02  2.240705583593352e-18
-8.674656875811293e-02  6.763898882075269e-02  8.487926272830799e-19
-1.064299763732980e-01 -2.779676472503859e-02  2.179650043613145e-18
-1.522756052232742e-02 -1.089409078378677e-01  1.390320856500086e-18
-7.517258803760776e-02  8.030617664742880e-02  5.126690811262117e-19
-1.070737083352141e-01  2.520359068357969e-02  1.646546623438622e-18
-1.087518099908104e-01  1.652403775481684e-02  1.765589697421412e-18
-1.095368758708967e-01 -1.008329432495628e-02  2.052941552653846e-18
-1.096777554595439e-01 -8.413676803658213e-03  2.038293959474104e-18
-1.082252731370288e-01 -1.967969142073715e-02  2.128199511530446e-18
-1.082979424601006e-01 -1.927577907397408e-02  2.125342696184445e-18
-1.032650083643165e-01 -3.789905074691944e-02  2.227122981585650e-18
-1.024351082152459e-01  4.008801073800975e-02  1.411065192206721e-18
-6.090087608109648e-02  9.160285635587384e-02  1.426176627026789e-19
-8.382225545186900e-02 -7.123081840721431e-02  2.223587805583743e-18
-8.630020545994731e-02 -6.820758416459866e-02  2.236623248195043e-18
-9.592003734891545e-02  5.384557953056675e-02  1.153767713070840e-18
-1.049960196819656e-01  3.279993675213744e-02  1.531521979178475e-18
-7.266308935218299e-02  8.258374807307185e-02  4.446083395588596e-19
-8.524585992857490e-02 -6.952081245956292e-02  2.231352855467819e-18
-9.329969533193117e-02 -5.826806029866410e-02  2.259062522783417e-18
-8.617090580118363e-02 -6.837086362920590e-02  2.235999843717200e-18
-8.265029828104679e-02  7.258738316025669e-02  7.250516537073282e-19
-1.099841439618819e-01  1.867639411652159e-03  1.938109719142882e-18
-9.923604164088604e-02  4.745743397454460e-02  1.278415839876846e-18
-1.096572155433667e-01 -8.677273723673003e-03  2.040636789760751e-18
-1.033277910778019e-01  3.772754419495174e-02  1.451204484816409e-18
-8.623118053079645e-02 -6.829482780024503e-02  2.236291263908033e-18
-1.092063002145859e-01  1.319029921729086e-02  1.807930845510140e-18
-1.003035014288390e-01 -4.515758630745037e-02  2.248998249121267e-18
-1.093151402750738e-01 -1.225561531057739e-02  2.071315312215470e-18
-6.769810867367823e-02 -8.670043876478811e-02  2.095584109590148e-18
-9.969461523906885e-02  4.648638179439167e-02  1.296553912458445e-18
-1.081735368572304e-01  1.996211220781351e-02  1.719973671169913e-18
-9.116466954982683e-02  6.155487816469793e-02  9.899300277803400e-19
-1.099794403267987e-01  2.126665324884451e-03  1.935364615184130e-18
-1.084248841245838e-01  1.854843666109102e-02  1.738971698304961e-18
-1.083241188506635e-01  1.912812785473932e-02  1.731222343628899e-18
-9.861161803992087e-02 -4.874165351676813e-02  2.255714154650393e-18
 3.305692798885249e-03 -1.099503178491055e-01  1.070870827559948e-18
-9.156714072465644e-02  6.095456290968619e-02  1.003260503589287e-18
-9.892021807229452e-02  4.811226929307755e-02  1.266067187730815e-18
-1.093317886566422e-01  1.210619631177641e-02  1.821302825555100e-18
-5.926544794413784e-02 -9.266934056083827e-02  2.006843150689011e-18
-9.092771714204315e-02  6.190436378266493e-02  9.821223392702994e-19
-1.018034360376372e-01 -4.166605826005915e-02  2.239817192357076e-18
-1.085762932188807e-01  1.764053714736553e-02  1.750994541434844e-18
 2.824191802699375e-02 -1.063127182709410e-01  5.897259403899978e-19
-1.083729556700758e-01 -1.884946894031033e-02  2.122297463977850e-18
-1.019721329669282e-01  4.125147389094162e-02  1.390871834162601e-18
-1.059561332455559e-01  2.955161294498049e-02  1.581983692402747e-18
-5.888062914140845e-02 -9.291432350241730e-02  2.002511951795377e-18
-1.067764748963167e-01 -2.643453061274549e-02  2.171819937505598e-18
-9.068701737446985e-02 -6.225644448346317e-02  2.253546000648056e-18
-1.082506455226613e-01  1.953964544015721e-02  1.725686604417358e-18
-8.290404793102316e-02  7.229743312629118e-02  7.325465626806251e-19
-8.767101380525852e-02  6.643638565092248e-02  8.776005403136230e-19
-8.070558705889626e-02 -7.474361656676001e-02  2.204215698824247e-18
-1.087354016880152e-01  1.663166918099058e-02  1.764191818296129e-18
-1.042868777259088e-01  3.498924312101168e-02  1.496407624547596e-18
-1.038804148495040e-01  3.617816206905598e-02  1.476958422524645e-18
-6.833987157130088e-02 -8.619548685179537e-02  2.101816848404446e-18
-7.045831042832339e-02  8.447263753184192e-02  3.859640156440115e-19
-4.953750872171518e-02  9.821423129896159e-02 -1.275364899892771e-19
-7.382841016723943e-02 -8.154364384903205e-02  2.151695942713312e-18
-1.066113260866519e-01 -2.709289851687155e-02  2.175645408489620e-18
-7.784303209237692e-02  7.772041144168695e-02  5.867606166561492e-19
-1.079427291514525e-01 -2.117468354748423e-02  2.138531805290832e-18
 2.143990679421204e-02  1.078903628534793e-01 -1.490083000681544e-18
-1.099880140852424e-01 -1.623809589959442e-03  1.974051962752383e-18
 9.396625704349255e-03 -1.095979170667595e-01  9.588546209579843e-19
-1.069044545116611e-01  2.591211310495760e-02  1.636254739261528e-18
-1.094897917350274e-01 -1.058232043647588e-02  2.057230946305991e-18
-1.099699934718233e-01  2.569150794924238e-03  1.930650119668903e-18
-1.086148903835444e-01 -1.740130992111082e-02  2.111723672946735e-18
-9.141960945372908e-02  6.117560794407825e-02  9.983638512124340e-19
-1.072565534982234e-01 -2.441376111300086e-02  2.159600836362983e-18
-7.026751311888214e-02  8.463141615314997e-02  3.809371572770333e-19
-1.094141781868531e-01 -1.133744290814659e-02  2.063643922103114e-18
-1.079783242403923e-02  1.094687481199191e-01 -9.325913119558287e-19
-8.945095299596148e-02 -6.401973920685879e-02  2.249665973329814e-18
-9.211444386544165e-02 -6.012428154548154e-02  2.257041558116992e-18
-6.649411542044882e-02  8.762723671582914e-02  2.830040761762305e-19
-9.211444386559998e-02 -6.012428154523898e-02  2.257041558117318e-18
-1.082650024798195e-01 -1.945993931245937e-02  2.126648669493392e-18
-1.099915872017669e-01  1.360420830490655e-03  1.943453667138663e-18
-9.010306950462425e-02  6.309862808211265e-02  9.551761190524087e-19
-1.017796108306908e-01 -4.172422340982594e-02  2.239990820163845e-18
-1.084079154203037e-01  1.864735568986126e-02  1.737653362885139e-18
-4.191846378414363e-02 -1.016997659484886e-01  1.790917215692661e-18
-8.645318097592480e-02  6.801358319588764e-02  8.397226206083529e-19
-8.854992225548830e-02  6.526033457274724e-02  9.053252621878926e-19
-2.201883774393959e-02 -1.077737017291602e-01  1.499187116833056e-18
-1.099492117721386e-01  3.342279265013300e-03  1.922336670359033e-18
-8.133482132008903e-02 -7.405840155464548e-02  2.208373337749536e-18
-9.041018042492928e-02  6.265779501013155e-02  9.651709238869422e-19
-2.303838547766347e-02  1.075603681407912e-01 -6.951481582807789e-19
-9.958040611778989e-02  4.673053303158400e-02  1.292012859642734e-18
-1.032836903655112e-01 -3.784810833424994e-02  2.226932035297352e-18
-1.004456827479461e-01  4.484043730048674e-02  1.326831536434916e-18
-6.516266271631507e-02 -8.862182229970046e-02  2.070204342226915e-18
-1.099982966924867e-01 -6.121476550667446e-04  1.963840495140697e-18
-1.043419581073605e-01  3.482464326194517e-02  1.499079049395266e-18
-1.072184265466772e-01 -2.458066331193509e-02  2.160637181243992e-18
-1.094745774873414e-01  1.073856992192267e-02  1.837895787458214e-18
-1.044980919190517e-01 -3.435329365981298e-02  2.212635808319735e-18
-1.085084690960745e-01  1.805303670926798e-02  1.745549247116729e-18
-1.074369129809168e-01 -2.360740835269380e-02  2.154525566810865e-18
-7.777073766032698e-02  7.779275264295848e-02  5.847307714383281e-19
-1.052617430689680e-01 -3.193689787819887e-02  2.201398302600050e-18
-8.325158286774399e-02  7.189696759958016e-02  7.428459992435186e-19
-6.074012285190167e-02  9.170952772714409e-02  1.386608576466247e-19
-6.893663247957069e-02 -8.571896349336314e-02  2.107540816208721e-18
-7.930793916567243e-02 -7.622500105145247e-02  2.194563574825113e-18
-4.436336079030671e-02  1.006573008747453e-01 -2.447182767695294e-19
-6.906374544944034e-02  8.561658171461199e-02  3.493924574317541e-19
-5.991883549999147e-02 -9.224821490047860e-02  2.014144048457045e-18
-7.005708161121373e-02 -8.480569153140409e-02  2.118097007382904e-18
-9.406441131512142e-02  5.702531476405532e-02  1.088074009911523e-18
-9.720070136501868e-02  5.149780242057313e-02  1.200681213793544e-18
-8.335876166834111e-02  7.177267483604491e-02  7.460304368409586e-19
-4.456214844293845e-02 -1.005694532457518e-01  1.826351185286829e-18
-9.709551475445964e-02  5.169585103822585e-02  1.196774414986541e-18
-7.882865734856648e-02 -7.672054992387778e-02  2.191125767827084e-18
-9.905830069356519e-02  4.782732549184771e-02  1.271452226732930e-18
-1.015449797446484e-01 -4.229204521726134e-02  2.241649442907583e-18
-4.330472292332048e-02  1.011172634743166e-01 -2.682839490208266e-19
-6.878588541981476e-02 -8.583997883860438e-02  2.106101481173697e-18
-7.071403076017568e-02 -8.425868414382490e-02  2.124167898930779e-18
-1.095928461426294e-01 -9.455584294896874e-03  2.047488117873352e-18
-5.919685689051124e-02 -9.271317130960552e-02  2.006072836092480e-18
-5.972528359100772e-02  9.237364613337308e-02  1.137770070861751e-19
-1.096956997963228e-01  8.176395672603086e-03  1.868156332357805e-18
-6.688570235657870e-02 -8.732870559138671e-02  2.087581583515933e-18
-1.081089715316448e-01  2.030887181430646e-02  1.715261825195957e-18
-1.089473525656974e-01 -1.518138231273921e-02  2.094831284313674e-18
-6.293864447296647e-02  9.021489362575036e-02  1.931429948189290e-19
-1.098178472514326e-01 -6.327750394962719e-03  2.019354923926446e-18
-4.319836083960547e-02 -1.011627481871225e-01  1.808176848096257e-18
-9.023282913763210e-02  6.291292828837984e-02  9.593933444258479e-19
-5.028516571361864e-02  9.783354286313992e-02 -1.103196065959818e-19
-1.076408125854640e-01 -2.265955573132289e-02  2.148415362137237e-18
-3.302011493711122e-02 -1.049269841820487e-01  1.665718978618611e-18
-2.940839159197129e-02 -1.059959739988893e-01  1.612427535506858e-18
-8.233051456373831e-02  7.294988945618766e-02  7.156361005034912e-19
-1.062505067534883e-01  2.847507356666289e-02  1.598283471154039e-18
-7.361114027733870e-02  8.173983133742013e-02  4.701509745360577e-19
-9.860122418438984e-02 -4.876267619132106e-02  2.255745183937072e-18
-1.097622639033952e-01 -7.228099529015574e-03  2.027616512227169e-18
-1.097622639033952e-01 -7.228099529015574e-03  2.027616512227169e-18
-9.854485320187438e-02  4.887649647244523e-02  1.251534965464168e-18
-1.087270799885726e-01  1.668598445278124e-02  1.763485654041604e-18
-7.526837896667608e-02 -8.021640186226729e-02  2.163684975891346e-18
-1.357638863753497e-03 -1.099916215750797e-01  1.154284757899889e-18
-9.088350361095439e-02  6.196925666326467e-02  9.806687559703333e-19
-1.016176469451732e-01  4.211714412595002e-02  1.375668885367801e-18
-7.764909042575094e-02 -7.791417557834697e-02  2.182398037386783e-18
-1.058168460586110e-01  3.004654872374089e-02  1.574419625432564e-18
-1.069679057910296e-01  2.564892065334029e-02  1.640088137295384e-18
-1.099737019363137e-01 -2.405178251765068e-03  1.981825540141180e-18
-1.013393997393170e-01  4.278231013485422e-02  1.363882805328631e-18
-1.099613172606506e-01  2.916968683836461e-03  1.926922013685457e-18
-1.092073341413226e-01  1.318173621893005e-02  1.808037227167196e-18
-1.057820426187665e-01 -3.016884915606492e-02  2.192491595386164e-18
-1.047070549991760e-01 -3.371101649905325e-02  2.209755391084876e-18
-1.088163897483868e-01 -1.609326946667765e-02  2.101869954005687e-18
-8.538245146716214e-02 -6.935298826624289e-02  2.232059332208638e-18
-6.978028508267012e-02  8.503359226671076e-02  3.681341397182597e-19
-9.531453248666295e-02  5.491028953528472e-02  1.132052523254973e-18
-6.215546979153719e-02 -9.075625364124079e-02  2.038618263677306e-18
-1.099576867524259e-01  3.050757947676413e-03  1.925482768376835e-18
-1.085398253331623e-01  1.786354714625680e-02  1.748054205182574e-18
-1.026451341845248e-01  3.954714184667241e-02  1.420360086234354e-18
-1.051422363805450e-01  3.232816309191620e-02  1.538971382720163e-18
-1.092763580682980e-01 -1.259672843753706e-02  2.074129950047656e-18
-1.011182814589618e-01 -4.330234583467868e-02  2.244436309760254e-18
-1.099962050772555e-01  9.137114436584549e-04  1.948125624414322e-18
-1.010745242316407e-01  4.340438401068951e-02  1.352777446622055e-18
-1.099961152299585e-01 -9.244643409179568e-04  1.967010613904254e-18
-1.035428001260682e-01 -3.713338850755508e-02  2.224199715981784e-18
-1.005698529073286e-01  4.456124646145145e-02  1.331909876985684e-18
-1.099830202527187e-01 -1.932681062670966e-03  1.977136633723689e-18
-1.024075259194807e-01 -4.015841922997977e-02  2.235077249037113e-18
-1.099681334441932e-01  2.647569980199884e-03  1.929811289617245e-18
-9.678695868180813e-02  5.227126006828120e-02  1.185371172860549e-18
-1.091312064604489e-01  1.379781781611851e-02  1.800352429671403e-18
-1.075441391412569e-01 -2.311402466828091e-02  2.151364446112972e-18
-1.032413650301521e-01 -3.796341063064296e-02  2.227363494676556e-18
-1.088779307042435e-01 -1.567150935812754e-02  2.098631716821916e-18
-8.342267633614846e-02 -7.169837566440498e-02  2.221280799551710e-18
-6.851665438294050e-02  8.605502932524405e-02  3.351514293857934e-19
-9.328149866385434e-02  5.829718695636415e-02  1.061073120649080e-18
-6.071149715837263e-02 -9.172848037980810e-02  2.022910324793808e-18
-1.099586804507979e-01  3.014729427201331e-03  1.925870632384441e-18
-1.085094235938613e-01  1.804729872662115e-02  1.745625189230662e-18
-1.025347191373392e-01  3.983254161394810e-02  1.415462739830676e-18
-1.050615719413056e-01  3.258935564293637e-02  1.534852204225934e-18
-1.093489739400771e-01 -1.194997482224385e-02  2.068777077655292e-18
-1.026236256691936e-01 -3.960292229759253e-02  2.233215472672258e-18
-1.099895498053623e-01  1.516223470879515e-03  1.941816593708003e-18
-1.007508140591887e-01  4.415057719227124e-02  1.339349774097721e-18
-1.091405681518487e-01  1.372357036239452e-02  1.801281897751927e-18
-1.074178075196894e-01 -2.369418974480640e-02  2.155077209617261e-18
-1.033697375156734e-01 -3.761246290713628e-02  2.226042175814905e-18
-1.088900602078759e-01 -1.558700702268038e-02  2.097979345008216e-18
-8.230880921020424e-02 -7.297437856123287e-02  2.214568671606227e-18
-6.866304824687045e-02  8.593826741008842e-02  3.389563690813034e-19
-9.385212091918971e-02  5.737403070178804e-02  1.080713119505105e-18
-6.088020181749543e-02 -9.161659798672379e-02  2.024763074495836e-18
-1.099514885576480e-01  3.266521690932433e-03  1.923155570026137e-18
-1.085132520251407e-01  1.802426517027064e-02  1.745929982156065e-18
-1.025642524017401e-01  3.975643506744642e-02  1.416770286617214e-18
-1.050495020865552e-01  3.262824100938885e-02  1.534237873748850e-18
-1.093512555306226e-01 -1.192907850072276e-02  2.068602979168036e-18
-1.026283187450539e-01 -3.959075891623631e-02  2.233174017230470e-18
-1.099901380853120e-01  1.472930403627271e-03  1.942271883390314e-18
-1.007873956953480e-01  4.406700431104063e-02  1.340859468944333e-18
-1.091433122190723e-01  1.370172973934369e-02  1.801555136169185e-18
-1.074559013744927e-01 -2.352082608658154e-02  2.153973886593286e-18
-1.032882047988583e-01 -3.783578662363252e-02  2.226885773923304e-18
-1.088383990412350e-01 -1.594374153518546e-02  2.100725290448701e-18
-8.462901804254275e-02 -7.027040134476892e-02  2.228077171801499e-18
-6.837689507109636e-02  8.616611991053216e-02  3.315228303127864e-19
-9.472585596197272e-02  5.591969431489699e-02  1.111205054876746e-18
-6.058691525210769e-02 -9.181081472372329e-02  2.021539196639160e-18
-1.099619089334808e-01  2.894578329361912e-03  1.927162595967693e-18
-1.085151031075714e-01  1.801311737465486e-02  1.746077463926246e-18
-1.025724527874629e-01  3.973527311046970e-02  1.417133653683327e-18
-1.050362697210402e-01  3.267081332150795e-02  1.533564972978655e-18
-1.093465630597915e-01 -1.197201516082311e-02  2.068960629637083e-18
-1.026137093164495e-01 -3.962860911411272e-02  2.233302922054981e-18
-1.099915043116110e-01  1.367106165875895e-03  1.943383502616972e-18
-1.007299307203523e-01  4.419820196651614e-02  1.338488802917932e-18
-1.091305091144129e-01  1.380333222192984e-02  1.800283361050383e-18
-1.074083534146367e-01 -2.373700943161195e-02  2.155348919267340e-18
-1.033792543089443e-01 -3.758629774966584e-02  2.225942701015249e-18
-1.088902654592677e-01 -1.558557307929835e-02  2.097968264454224e-18
-8.145905250018015e-02 -7.392173405550509e-02  2.209179970881305e-18
-6.855015442556865e-02  8.602834607401576e-02  3.360217633177664e-19
-9.336267270008147e-02  5.816709848614923e-02  1.063854321225670e-18
-6.085845546840481e-02 -9.163104494656880e-02  2.024524509538025e-18
-1.099507811058419e-01  3.290248351595351e-03  1.922899197258276e-18
-1.085176940633467e-01  1.799750191481607e-02  1.746284016252066e-18
-1.025619384595317e-01  3.976240409511425e-02  1.416667777664535e-18
-1.050713042221450e-01  3.255796414177940e-02  1.535347938043307e-18
-1.093439859875623e-01 -1.199552951526924e-02  2.069156369012563e-18
-1.026227666392288e-01 -3.960514824249885e-02  2.233223055984638e-18
-1.099883462232921e-01  1.601154291489592e-03  1.940922541200551e-18
-1.007406753216247e-01  4.417370638448764e-02  1.338931699120996e-18
-1.091471625515214e-01  1.367102435634185e-02  1.801939144083914e-18
-1.074141263592789e-01 -2.371087215757350e-02  2.155183104707647e-18
-1.034080307581000e-01 -3.750705499944994e-02  2.225640621781925e-18
-1.088926648993260e-01 -1.556879992558899e-02  2.097838627291062e-18
-8.124606677782774e-02 -7.415575927150017e-02  2.207794159973150e-18
-6.862973131077671e-02  8.596487643340464e-02  3.380900564133598e-19
-9.328472653137299e-02  5.829202171795804e-02  1.061183635350153e-18
-6.096632096863045e-02 -9.155931251134346e-02  2.025707080067572e-18
-1.099559942994195e-01  3.111160173626998e-03  1.924832038227517e-18
-1.084982645363383e-01  1.811426489269357e-02  1.744738547461537e-18
-1.025346863878142e-01  3.983262591585596e-02  1.415461290842336e-18
-1.050816722255494e-01  3.252448558059177e-02  1.535876429085690e-18
-1.093538757083948e-01 -1.190503538646010e-02  2.068402574092082e-18
-1.026129438287333e-01 -3.963059119923820e-02  2.233309664492596e-18
-1.099899083012692e-01  1.489990563163716e-03  1.942092507167408e-18
-1.008171849625268e-01  4.399880925924678e-02  1.342090283871572e-18
-1.091426827603049e-01  1.370674286194096e-02  1.801492426186010e-18
-1.074109458161489e-01 -2.372527594950693e-02  2.155274496878389e-18
-1.034127405774951e-01 -3.749406734740352e-02  2.225590995229402e-18
-1.089149136556858e-01 -1.541238409119224e-02  2.096627454572742e-18
-8.218318522673643e-02 -7.311582637150359e-02  2.213786367837287e-18
-6.897935881580589e-02  8.568458471253879e-02  3.471919905260578e-19
-9.418315667568249e-02  5.682898027066625e-02  1.092204490844159e-18
-6.120395364741116e-02 -9.140063488797805e-02  2.028305682107963e-18
-1.099452307738976e-01  3.470767937263637e-03  1.920945649315519e-18
-1.085028975291378e-01  1.808649296523124e-02  1.745106343560764e-18
-1.025785665419341e-01  3.971948748664731e-02  1.417404646787200e-18
-1.050563737670873e-01  3.260610879743210e-02  1.534587563938611e-18
-1.093332798863224e-01 -1.209272133553983e-02  2.069964451816567e-18
-1.015362904500012e-01 -4.231290254346680e-02  2.241709107994262e-18
-1.099822590162091e-01  1.975525674705994e-03  1.936967682125309e-18
-9.772563207286765e-02  5.049456243951844e-02  1.220330908256635e-18
-1.091406055232840e-01  1.372327315223413e-02  1.801285616547626e-18
-1.074150291796727e-01 -2.370678186363515e-02  2.155157145189148e-18
-1.035655178861513e-01 -3.706998118387986e-02  2.223952518404495e-18
-1.089603846390497e-01 -1.508756373011475e-02  2.094099253749344e-18
-7.916478345569980e-02 -7.637366732331299e-02  2.193543440140994e-18
-6.923281779550849e-02  8.547992126864565e-02  3.538054379442988e-19
-9.367041206595471e-02  5.767021677949696e-02  1.074436189359106e-18
-6.131653380505546e-02 -9.132514813638914e-02  2.029533581353321e-18
-1.099106709672896e-01  4.432201204832534e-03  1.910452238769479e-18
-1.085537908467917e-01  1.777848398460676e-02  1.749176731241213e-18
-1.026127111776527e-01  3.963119358247432e-02  1.418919479099732e-18
-1.051028070499283e-01  3.245612346269151e-02  1.536954944423463e-18
-1.093360952955697e-01 -1.206723934949573e-02  2.069752737232739e-18
-1.027012870821400e-01 -3.940108668135676e-02  2.232523762517819e-18
-1.099861634926800e-01  1.744660471670708e-03  1.939409223035987e-18
-1.006178032405086e-01  4.445287022290254e-02  1.333876736842948e-18
-1.091758618597674e-01  1.343991023693680e-02  1.804824496127654e-18
-1.077342446771208e-01 -2.221109010945234e-02  2.145470276308133e-18
-1.094811136788686e-01 -1.067172655358915e-02  2.057995125319735e-18
-1.051779326246744e-01 -3.221183771223542e-02  2.202731702688065e-18
-2.354880593640172e-03 -1.099747904630403e-01  1.171858930474274e-18
-9.849623343217284e-02  4.897440147337022e-02  1.249663780348154e-18
-8.187937592623057e-02  7.345589015137552e-02  7.024085769839404e-19
-7.072786156586199e-02  8.424707471669381e-02  3.930785756538640e-19
-5.056292838346936e-02 -9.769027727101651e-02  1.903559735099993e-18
-1.030304562075379e-01 -3.853213066606295e-02  2.229453512361178e-18
-9.931372096633788e-02 -4.729465961205671e-02  2.253341577005320e-18
-1.092149740805154e-01 -1.311828634358455e-02  2.078396366781140e-18
-1.099239186529848e-01  4.090489942771303e-03  1.914198956222573e-18
-1.099838442419904e-01 -1.885207085052787e-03  1.976663519721582e-18
-1.095877456034806e-01 -9.514515938646174e-03  2.048002848926397e-18
-1.092698701150538e-01 -1.265288445530096e-02  2.074591471863211e-18
-6.156193561410651e-02 -9.115990392406374e-02  2.032202975018119e-18
-9.459577412239670e-02  5.613946489043536e-02  1.106632030546972e-18
-1.071264544152172e-01  2.497844599698535e-02  1.649798582716201e-18
-1.006350251655975e-01  4.441386844128185e-02  1.334583950680879e-18
-8.521716280705774e-02  6.955598581801098e-02  8.018785762860279e-19
-6.998068814839603e-03 -1.097771699073296e-01  1.252459524045889e-18
-5.449288104460541e-02 -9.555378545854903e-02  1.951546253275487e-18
-1.099223367043002e-01  4.132782775126940e-03  1.913736260070038e-18
-1.000325850615690e-01  4.575458365999953e-02  1.310087448584348e-18
-1.066931448119102e-01  2.676887838787209e-02  1.623691279051540e-18
-1.077402770590377e-01  2.218181009840539e-02  1.689456706777098e-18
-1.096457427902668e-01  8.821059345145639e-03  1.860643602796692e-18
-1.076686350472817e-01  2.252698441991684e-02  1.684635210958658e-18
 5.683388135983443e-02 -9.418019924366369e-02 -4.375937845393325e-20
-1.098500262245442e-01 -5.742102268933068e-03  2.013910265391719e-18
-8.730986869054547e-02  6.691028941231418e-02  8.663043432152193e-19
-1.093369540762346e-01 -1.205945576430764e-02  2.069688046748809e-18
-1.097731268826773e-01  7.061204882989299e-03  1.880992419964172e-18
-1.030422519115316e-01 -3.850057559310490e-02  2.229339214072586e-18
-1.072979533584318e-01 -2.423116186012813e-02  2.158461455268759e-18
-8.634070483936805e-02 -6.815631069711042e-02  2.236817166708989e-18
-5.201965650838100e-02  9.692241916476282e-02 -7.009080891206619e-20
-1.054702698043448e-01 -3.124135380227053e-02  2.197962821886910e-18
-5.319962153727314e-02  9.627980197471755e-02 -4.248926552645311e-20
-1.019266238046598e-01 -4.136379286022109e-02  2.238903798435983e-18
-1.097782909152860e-01  6.980461569177014e-03  1.881913928302007e-18
-1.087982117583555e-01 -1.621570591075097e-02  2.102804444974778e-18
-1.075466603542052e-01 -2.310229093958287e-02  2.151288754304955e-18
-1.083298889825002e-01  1.909542230585904e-02  1.731661067641549e-18
-1.014794024447924e-01 -4.244915640443035e-02  2.242096677007366e-18
-5.809978463106975e-02  9.340457711388257e-02  7.425687281177987e-20
-1.094149528377243e-01  1.132996449767119e-02  1.830758331266366e-18
-1.001866304446295e-01 -4.541628650771848e-02  2.249576441127864e-18
-1.095922028634629e-01  9.463037119948633e-03  1.853094707510569e-18
-4.293517481058724e-02  1.012747291479185e-01 -2.764784010933364e-19
-1.085676730127968e-01 -1.769351227389171e-02  2.113885656537417e-18
-8.647122805955969e-02 -6.799063698680531e-02  2.237437745917175e-18
-9.449447363153141e-02 -5.630980778780668e-02  2.260204694636099e-18
-9.812612717095835e-02  4.971180107810254e-02  1.235500784888706e-18
-1.098643651566381e-01  5.460885342946807e-03  1.899058815805809e-18
-1.009084616898372e-01 -4.378906666498587e-02  2.245703196406232e-18
-4.628449761341112e-02 -9.978850274793216e-02  1.848978460599765e-18
-1.095573126078385e-01  9.858765346039654e-03  1.848407830026807e-18
-5.598695007395270e-02  9.468612053208567e-02  2.348906851368047e-20
-8.499795128475106e-02  6.982369424052991e-02  7.952268389710542e-19
-3.463531887440013e-02 -1.044049552773648e-01  1.689099802010232e-18
-1.099372939770344e-01  3.713676481203824e-03  1.918308607500736e-18
-9.126066847031813e-02 -6.141246119763157e-02  2.255083184507578e-18
-9.895645070961936e-02  4.803770251536381e-02  1.267478137284892e-18
 1.718166318336037e-02 -1.086498525091198e-01  8.105695737651604e-19
-1.096162014952621e-01 -9.180869770889478e-03  2.045081162294489e-18
-1.090263409647404e-01  1.460332071277266e-02  1.790209973440254e-18
-4.685379419533200e-02 -9.952246967143347e-02  1.856376379137787e-18
-1.003500071718647e-01  4.505414587589718e-02  1.322933097454469e-18
-8.505987580428141e-02  6.974824390735686e-02  7.971040844267396e-19
-1.098366128322615e-01  5.993202944653511e-03  1.893095560107604e-18
-1.075764614703402e-01 -2.296312124952386e-02  2.150389182705651e-18
-1.088206964849502e-01 -1.606412202799364e-02  2.101647118176048e-18
-9.978742212655384e-02 -4.628682734144648e-02  2.251416543738722e-18
-1.074245792134172e-01 -2.366346933186663e-02  2.154882078901606e-18
-9.739168269429238e-02  5.113570320210925e-02  1.207800392288157e-18
-1.097647749628391e-01  7.189866296199048e-03  1.879521838306408e-18
-1.097647749628391e-01  7.189866296199048e-03  1.879521838306408e-18
-1.097645089859282e-01 -7.193925707013249e-03  2.027305342542175e-18
-1.096154370767972e-01  9.189992081750323e-03  1.856313626629649e-18
 1.018452909761253e-01 -4.156364644720542e-02 -1.385407070021425e-18
 1.099900111723971e-01 -1.482377244794562e-03 -1.942172561962381e-18
 1.068763101453747e-01  2.602795285283886e-02 -2.169419186065429e-18
 1.097623856862457e-01 -7.226249958573116e-03 -1.879105489365647e-18
 1.005435125315909e-01  4.462064642976114e-02 -2.247752670802011e-18
 1.085373667094992e-01  1.787847945904874e-02 -2.115246790353761e-18
 1.058884789560656e-01 -2.979312042017041e-02 -1.578298302045503e-18
 8.564361909395839e-02 -6.903021446069027e-02 -8.148699843056498e-19
 9.574245237378820e-02  5.416071282260624e-02 -2.260332794934877e-18
 1.036762803967094e-01 -3.675906531867786e-02 -1.467357036572471e-18
 1.070083799388185e-01  2.547953341153234e-02 -2.166134715044009e-18
 3.657841184602895e-02  1.037401551320520e-01 -1.716848879255381e-18
 9.148064328426189e-02 -6.108430161913576e-02 -1.000388160350358e-18
 1.074477384325954e-01  2.355808790459225e-02 -2.154211468949019e-18
 4.005615611384442e-02 -1.024475688212427e-01  3.397644746039367e-19
 1.064134327204617e-01  2.786003116738587e-02 -2.180005669289164e-18
 1.034974524001233e-01 -3.725959402199821e-02 -1.459031828460633e-18
 1.010840010394513e-01 -4.338230899636546e-02 -1.353172910474347e-18
 5.814523273336572e-02  9.337629201452935e-02 -1.994171254143652e-18
 1.059665930259747e-01 -2.951408413736360e-02 -1.582555431537299e-18
 1.086921736520752e-01  1.691187117935395e-02 -2.108070215624624e-18
 8.640985207063806e-02  6.806862320577947e-02 -2.237146767052177e-18
 1.083019936887051e-01 -1.925300400071641e-02 -1.729545542944023e-18
 1.029120279360912e-01 -3.884732302335791e-02 -1.432300163091233e-18
 1.064025776257982e-01  2.790146007982219e-02 -2.180238156956546e-18
 1.095886414006932e-01  9.504192545934931e-03 -2.047912721596428e-18
 2.573782830667943e-02  1.069465483036073e-01 -1.556872289103195e-18
 8.670757116381998e-02 -6.768897327387252e-02 -8.475850464767393e-19
 1.099997452175772e-01  2.367531795650389e-04 -1.960009231506858e-18
 6.961095905026507e-02  8.517226297394150e-02 -2.113924112663705e-18
 6.380736641058757e-02 -8.960256688145130e-02 -2.148943728047886e-19
 8.044359751952621e-02 -7.502551311464924e-02 -6.607298818297163e-19
 1.099145850161542e-01 -4.334051306402519e-03 -1.911530348489185e-18
 1.099707891274263e-01  2.534864629733268e-03 -1.983106183654770e-18
 1.080049999768247e-01 -2.085473519386003e-02 -1.707802979427835e-18
 1.067822922642438e-01  2.641102154013623e-02 -2.171681917326183e-18
 1.088351400245559e-01 -1.596597306258639e-02 -1.772806566755280e-18
 9.967005317825989e-02 -4.653902125574592e-02 -1.295575949944660e-18
 1.043342509158391e-01  3.484772712574880e-02 -2.214800186479877e-18
 1.050372810829112e-01  3.266756162785101e-02 -2.204911038408624e-18
 1.046324752471662e-01  3.394179022460474e-02 -2.210799271632451e-18
 1.090176501460373e-01  1.466805906165310e-02 -2.090808103680579e-18
 1.062027786391482e-01  2.865257072801695e-02 -2.184399884713405e-18
 9.832800034979032e-02 -4.931130040073532e-02 -1.243208357878555e-18
 1.059016588328310e-01  2.974623768570748e-02 -2.190278129263581e-18
 6.694693026924137e-02  8.728177660614647e-02 -2.088189028981680e-18
 6.609214557188423e-02 -8.793081538178060e-02 -2.727313827228400e-19
 1.067068486734746e-01  2.671419933623512e-02 -2.173454350355155e-18
 8.513755168263959e-02 -6.965340834076819e-02 -7.994608203329106e-19
 1.098577077460615e-01 -5.593214530203434e-03 -1.897580704915704e-18
 1.095065789659664e-01  1.040716883549525e-02 -2.055730076032583e-18
 1.066630120652080e-01 -2.688869385405719e-02 -1.621923970490819e-18
 1.069424552509297e-01  2.575482993348673e-02 -2.167790078340931e-18
 1.087544222285322e-01 -1.650683633341236e-02 -1.765812923663809e-18
 9.956375946540549e-02 -4.676598979081709e-02 -1.291352307286016e-18
 1.043002500144540e-01  3.494936118046117e-02 -2.215239352873405e-18
 1.054909555436106e-01  3.117143401410805e-02 -2.197612548868481e-18
 1.009682406360001e-01  4.365105248296661e-02 -2.245348988476471e-18
 1.074353530425694e-01  2.361450648686908e-02 -2.154570736597314e-18
 5.578020884641396e-03  1.098584802507773e-01 -1.228023511474726e-18
 9.401516636410612e-02 -5.710646630224445e-02 -1.086363834691844e-18
 1.099427453364102e-01 -3.548626198007313e-03 -1.920101452645236e-18
 6.743693250097244e-02  8.690374062639200e-02 -2.093025020828852e-18
 6.600620660527762e-02 -8.799534470403150e-02 -2.705389809558968e-19
 1.065816968720344e-01  2.720922438949134e-02 -2.176313327355797e-18
 8.514413780838560e-02 -6.964535732456659e-02 -7.996607495635439e-19
 1.098671861309641e-01 -5.403833052936868e-03 -1.899695209963305e-18
 1.094852352492591e-01  1.062935851377263e-02 -2.057633157363207e-18
 1.067888537634755e-01 -2.638447861684916e-02 -1.629344102016217e-18
 1.070308247033237e-01  2.538508545044332e-02 -2.165563727911521e-18
 1.087221311118985e-01 -1.671819985785198e-02 -1.763066581293788e-18
 9.957378747350082e-02 -4.674463443200751e-02 -1.291750186205890e-18
 1.042521574475386e-01  3.509255857776060e-02 -2.215854789515982e-18
 1.055250518476565e-01  3.105581157447582e-02 -2.197031354705629e-18
 1.009229437026729e-01  4.375567888156974e-02 -2.245617873753639e-18
 1.074394392145313e-01  2.359590857049045e-02 -2.154452368066840e-18
 6.341995898580999e-03  1.098170254925087e-01 -1.241193425568284e-18
 9.420747098046368e-02 -5.678866446276943e-02 -1.093051423181452e-18
 1.099469255367977e-01 -3.416659919539071e-03 -1.921531749869137e-18
 6.648479436726017e-02  8.763430902302513e-02 -2.083586911868735e-18
 6.781532197916795e-02 -8.660878768844245e-02 -3.169807166638218e-19
 8.196823687076175e-02 -7.335671846735384e-02 -7.050089165161278e-19
 1.099296862751624e-01 -3.932438867203275e-03 -1.915925515325113e-18
 1.099512422655189e-01  3.274801409108553e-03 -1.990360905540969e-18
 1.084467222382886e-01 -1.842032670099542e-02 -1.740676616889076e-18
 1.073091566875941e-01  2.418149894024969e-02 -2.158150563414387e-18
 1.086191487503447e-01 -1.737470934290444e-02 -1.754488490860364e-18
 9.968215700545388e-02 -4.651309035895131e-02 -1.296057782532155e-18
 1.042559868830694e-01  3.508118012606154e-02 -2.215806029431428e-18
 1.054992370986713e-01  3.114339370714546e-02 -2.197471825051584e-18
 1.009238405876095e-01  4.375361014872614e-02 -2.245612579412473e-18
 1.074238795462516e-01  2.366664537344378e-02 -2.154902260163243e-18
 6.495631967554845e-03  1.098080450847843e-01 -1.243835292252367e-18
 9.397647205918838e-02 -5.717012068649596e-02 -1.085021197705231e-18
 1.099480844864486e-01 -3.379159327507891e-03 -1.921937679720845e-18
 6.714050875580051e-02  8.713295635987683e-02 -2.090104915090501e-18
 6.647133478734941e-02 -8.764451866253839e-02 -2.824211019121042e-19
 1.066084445411621e-01  2.710423495533284e-02 -2.175710605737382e-18
 8.493592281919110e-02 -6.989913457870806e-02 -7.933478463667224e-19
 1.098785414804067e-01 -5.167796642523587e-03 -1.902322480323496e-18
 1.095088121329086e-01  1.038364412136963e-02 -2.055528110010354e-18
 1.066794641536374e-01 -2.682334669448833e-02 -1.622888173354994e-18
 1.069704809132734e-01  2.563817881954434e-02 -2.167090280612818e-18
 1.087609236025818e-01 -1.646394536899634e-02 -1.766369312448453e-18
 9.954105584693659e-02 -4.681429483477210e-02 -1.290451952534711e-18
 1.042915332974916e-01  3.497536393603527e-02 -2.215351397364850e-18
 1.053887512243705e-01  3.151525210699829e-02 -2.199326307099032e-18
 1.010701695353925e-01  4.341452326223273e-02 -2.244732683007621e-18
 1.073988092126852e-01  2.378015516554017e-02 -2.155622375551378e-18
 7.446872663176871e-03  1.097476381866068e-01 -1.260143096177264e-18
 9.383605721421569e-02 -5.740029935889161e-02 -1.080157345804524e-18
 1.099535174380435e-01 -3.197499492067055e-03 -1.923900854392463e-18
 6.701306428732112e-02  8.723101062594250e-02 -2.088844360716157e-18
 6.728227727791800e-02 -8.702353224442966e-02 -3.032332007184268e-19
 8.203185521013512e-02 -7.328556973090511e-02 -7.068721081726849e-19
 1.099235439715349e-01 -4.100546395052132e-03 -1.914088961925271e-18
 1.099584960386522e-01  3.021448149088588e-03 -1.987886882375789e-18
 1.082097835534081e-01 -1.976468424550485e-02 -1.722647224957800e-18
 1.070545400116390e-01  2.528488605662102e-02 -2.164956257739689e-18
 1.087361631629157e-01 -1.662669000756601e-02 -1.764256528848450e-18
 9.963016687314206e-02 -4.662434824026807e-02 -1.293989421797873e-18
 1.043001237356982e-01  3.494973803504083e-02 -2.215240977636221e-18
 1.054482350145705e-01  3.131564676502518e-02 -2.198334019722620e-18
 1.010088859646959e-01  4.355691628399542e-02 -2.245105105336679e-18
 1.074168805203056e-01  2.369839191351029e-02 -2.155103888314364e-18
 6.143763760831484e-03  1.098282940177577e-01 -1.237781428220578e-18
 9.402347908188051e-02 -5.709277871446711e-02 -1.086652404412511e-18
 1.099436077144501e-01 -3.521806742432891e-03 -1.920392359854422e-18
 6.729584859099959e-02  8.701303788753265e-02 -2.091637254013551e-18
 6.618370352318148e-02 -8.786192228693580e-02 -2.750686172030893e-19
 1.065849099725489e-01  2.719663519892791e-02 -2.176241158952432e-18
 8.509519187481786e-02 -6.970515274918963e-02 -7.981753220248500e-19
 1.098757172823520e-01 -5.227499563710421e-03 -1.901658794523459e-18
 1.094742607709922e-01  1.074179820350018e-02 -2.058593130397437e-18
 1.069972482785384e-01 -2.552623867358293e-02 -1.641870834636738e-18
 1.072235607929392e-01  2.455825748873110e-02 -2.160498339586548e-18
 1.086635708374180e-01 -1.709468844002036e-02 -1.758156147941954e-18
 9.961400408158476e-02 -4.665887044104190e-02 -1.293347082570414e-18
 1.043039482040282e-01  3.493832264221228e-02 -2.215191749597717e-18
 1.054194131282555e-01  3.141253469069508e-02 -2.198816588115296e-18
 1.010744560708597e-01  4.340454273437037e-02 -2.244706420721279e-18
 1.074115213629119e-01  2.372267013859619e-02 -2.155257965659082e-18
 5.747174013688272e-03  1.098497609958999e-01 -1.230944206002861e-18
 9.400543114208113e-02 -5.712249045508584e-02 -1.086025942453987e-18
 1.099441266206475e-01 -3.505570085299758e-03 -1.920568420162909e-18
 6.746623100993859e-02  8.688099719336520e-02 -2.093312742232120e-18
 6.595291759074974e-02 -8.803529213484611e-02 -2.691801940370765e-19
 1.065708843270258e-01  2.725154332795869e-02 -2.176555716939189e-18
 8.501984749728496e-02 -6.979703096506568e-02 -7.958904636612308e-19
 1.098829803966629e-01 -5.072535770847812e-03 -1.903380246984121e-18
 1.094975091158390e-01  1.050216632065441e-02 -2.056544731880794e-18
 1.069601740258984e-01 -2.568114429595102e-02 -1.639619455090195e-18
 1.071749788770919e-01  2.476941466193390e-02 -2.161803329690729e-18
 1.086709905278939e-01 -1.704745780714258e-02 -1.758773467779780e-18
 9.960537348675431e-02 -4.667729182979780e-02 -1.293004217762957e-18
 1.042666761362345e-01  3.504939724876188e-02 -2.215669699923662e-18
 1.054181026384608e-01  3.141693231534316e-02 -2.198838450381920e-18
 1.010448040239964e-01  4.347352734425960e-02 -2.244887518983578e-18
 1.073997029504958e-01  2.377611839946156e-02 -2.155596804376788e-18
 6.330205588447739e-03  1.098177057546182e-01 -1.240990592381528e-18
 9.398309888537854e-02 -5.715922606107512e-02 -1.085251068300542e-18
 1.099471664299866e-01 -3.408899238282597e-03 -1.921615775031456e-18
 6.722751889996594e-02  8.706584119248291e-02 -2.090963780431433e-18
 6.635866925752494e-02 -8.772985246978558e-02 -2.795393105464394e-19
 1.066141559845714e-01  2.708176035078592e-02 -2.175581329288371e-18
 8.494814404835319e-02 -6.988428165718072e-02 -7.937179460907225e-19
 1.098873330488111e-01 -4.977352249899951e-03 -1.904435683721416e-18
 1.095137928732480e-01  1.033098110129244e-02 -2.055075654825614e-18
 1.068226294546515e-01 -2.624739675461440e-02 -1.631353647066334e-18
 1.070508128561776e-01  2.530066139118823e-02 -2.165052014394292e-18
 1.087124138011187e-01 -1.678127186879067e-02 -1.762245608157099e-18
 9.958452267191588e-02 -4.672175985776434e-02 -1.292176259807763e-18
 1.042691458712635e-01  3.504204930190447e-02 -2.215638154319848e-18
 1.054295984234498e-01  3.137833291094394e-02 -2.198646436730326e-18
 1.010253507543825e-01  4.351871442211865e-02 -2.245005605655925e-18
 1.073982260709999e-01  2.378278866748654e-02 -2.155639056125313e-18
 6.484380221013712e-03  1.098087100969192e-01 -1.243641886759206e-18
 9.394209059919248e-02 -5.722659883177619e-02 -1.083829046187056e-18
 1.099491559166451e-01 -3.344116208685356e-03 -1.922316802414977e-18
 6.735874942073665e-02  8.696435405655779e-02 -2.092256440631727e-18
 6.617022171982165e-02 -8.787207609673035e-02 -2.747243657235733e-19
 1.065610950785329e-01  2.728979691503415e-02 -2.176774547295983e-18
 8.467308190910607e-02 -7.021729986273853e-02 -7.854012461307208e-19
 1.098943097370699e-01 -4.820859613478293e-03 -1.906167747201003e-18
 1.094390129312666e-01  1.109515428599283e-02 -2.061596458427814e-18
 1.069027487584145e-01 -2.591914944390003e-02 -1.636152087521279e-18
 1.072560691553508e-01  2.441588887062181e-02 -2.159614078840421e-18
 1.087189013584604e-01 -1.673919016587359e-02 -1.762793436189026e-18
 9.961374735709434e-02 -4.665941852913408e-02 -1.293336882445833e-18
 1.042478067728568e-01  3.510548081210443e-02 -2.215910135333952e-18
 1.050769067518362e-01  3.253987811080187e-02 -2.204304322700449e-18
 1.048366856588384e-01  3.330569530980926e-02 -2.207897795324744e-18
 1.090712475115403e-01  1.426404452728068e-02 -2.087610830159222e-18
 1.057084433138325e-01  3.042572944345273e-02 -2.193821159598073e-18
 9.836396867899930e-02 -4.923951325629425e-02 -1.244586044032317e-18
 1.059304225782273e-01  2.964364303519561e-02 -2.189735891659245e-18
 6.649725302396536e-02  8.762485572180220e-02 -2.083711499290077e-18
 6.759188850412542e-02 -8.678327378271576e-02 -3.112116702214998e-19
 8.116363614810666e-02 -7.424597071368709e-02 -6.815533431028671e-19
 1.099212841428790e-01 -4.160684124082712e-03 -1.913430852259248e-18
 1.099917429011216e-01  1.347773561652421e-03 -1.971282151563997e-18
 1.076275070660540e-01 -2.272266979794476e-02 -1.681892693301150e-18
 1.061050008485623e-01  2.901256270870481e-02 -2.186358599123120e-18
 1.086296840656714e-01 -1.730871860630799e-02 -1.755354010209559e-18
 9.979939886996664e-02 -4.626099853216783e-02 -1.300734393304757e-18
 1.056710405671817e-01  3.055537899370509e-02 -2.194487635136676e-18
 1.059386872273759e-01  2.961409374841883e-02 -2.189579362762055e-18
 1.011676899899107e-01 -4.318678619792456e-02 -1.356671180901698e-18
 4.867267615992509e-02 -9.864568209217768e-02  1.473602172024984e-19
 6.700046155614053e-02  8.724069091464180e-02 -2.088719541531529e-18
 9.930182923115331e-02  4.731962289945670e-02 -2.253386438102322e-18
 1.096659177949338e-01  8.566590581716289e-03 -2.039654427632228e-18
 1.060319582472057e-01 -2.927838503508626e-02 -1.586140406272708e-18
 1.041050151418216e-01  3.552669168837737e-02 -2.217696776671480e-18
 1.092985028116413e-01 -1.240311586390953e-02 -1.817659723702744e-18
 9.857862460515421e-02 -4.880834734915746e-02 -1.252836175354673e-18
 1.039745845060999e-01  3.590662580616309e-02 -2.219279292966552e-18
 1.052398384204768e-01  3.200900512718043e-02 -2.201749359040121e-18
 1.012731629723545e-01  4.293886889025895e-02 -2.243458017477314e-18
 1.073320368185176e-01  2.407973987376728e-02 -2.157512205194636e-18
 5.983378217148277e-03  1.098371484749604e-01 -1.235018152487119e-18
 9.406276180681349e-02 -5.702803557264263e-02 -1.088016699623736e-18
 1.099480098426897e-01 -3.381587146850128e-03 -1.921911406384333e-18
 6.729628922674194e-02  8.701269709824322e-02 -2.091641594166046e-18
 6.680411037257004e-02 -8.739113706394605e-02 -2.909466442794300e-19
 8.159654071881722e-02 -7.376994335582976e-02 -6.941484045007652e-19
 1.098651093640843e-01 -5.445892435379292e-03 -1.899226106543798e-18
 1.093526873557300e-01 -1.191594595824769e-02 -1.823629496104228e-18
 1.095380968327466e-01 -1.007002195924872e-02 -1.845895277430412e-18
 9.536368533640938e-02  5.482488047463689e-02 -2.260416265046519e-18
 4.589829220220265e-02  9.996672832958552e-02 -1.843936677732045e-18
 9.384027046753354e-02 -5.739341110772282e-02 -1.080303099951520e-18
 1.087218488249396e-01  1.672003552887658e-02 -2.106627279103333e-18
-6.183491352024061e-02 -9.097496067569527e-02  2.035160717785221e-18
 1.019437888576284e-01 -4.132147036773026e-02 -1.389648228556252e-18
 1.098840217078473e-01 -5.049928049909682e-03 -1.903631064478669e-18
 1.017821077238892e-01  4.171813211641365e-02 -2.239972669529695e-18
-6.104582310299437e-03 -1.098304788062799e-01  1.237106595479430e-18
 9.647429472476826e-02 -5.284610162877174e-02 -1.173900656575439e-18
 1.359903430840507e-02  1.091561554191001e-01 -1.363550880650817e-18
 1.094049801945134e-01 -1.142586139588901e-02 -1.829595550392043e-18
 1.040166349476212e-01  3.578462874158732e-02 -2.218774155212540e-18
 9.142595503882278e-02  6.116612416394452e-02 -2.255493632621148e-18
 9.873985974706719e-02 -4.848133761695757e-02 -1.259065453238309e-18
 8.987217037279308e-02  6.342706829488161e-02 -2.251072560676657e-18
 8.781290199947565e-02 -6.624873011937971e-02 -8.820537023967888e-19
 1.067320179412780e-01 -2.661346174744361e-02 -1.625979922280163e-18
 4.790654235075950e-02 -9.902001413853069e-02  1.648406080062231e-19
 1.038200852936466e-01  3.635092694306244e-02 -2.221094827967342e-18
 7.107567192858573e-02  8.395384958356571e-02 -2.127471670534862e-18
 9.861758604808103e-02 -4.872957748687403e-02 -1.254338872426567e-18
 1.073061912350446e-01  2.419465483589218e-02 -2.158232961697515e-18
-1.755086993618687e-03  1.099859976071716e-01 -1.098832304046916e-18
 1.097048725060996e-01 -8.052387746523636e-03 -1.869593708061815e-18
 8.169085918283198e-02 -7.366548395259916e-02 -6.969001964961210e-19
 9.261505156992623e-02 -5.935025040132378e-02 -1.038393055296673e-18
 1.055496349564896e-01  3.097215782847127e-02 -2.196609328599927e-18
 3.360370113181226e-02  1.047415451014723e-01 -1.674199271891928e-18
 8.883606729599104e-02  6.487027938418390e-02 -2.247462340181687e-18
 1.093080123143493e-01  1.231902771674654e-02 -2.071840001089310e-18
 1.093939061748403e-01 -1.153140458964830e-02 -1.828314057027344e-18
 1.014850187005118e-01 -4.243572762845828e-02 -1.370035277793370e-18
 8.733148180480298e-02  6.688207746307892e-02 -2.241356941063317e-18
 1.098666467706468e-01 -5.414787841997337e-03 -1.899573054925053e-18
 7.844389337579080e-02 -7.711391308997029e-02 -6.036852101681414e-19
 1.074007018806338e-01  2.377160565774095e-02 -2.155568214748334e-18
 1.098701490321300e-01  5.343252909742404e-03 -2.010170342480961e-18
 9.640131498759970e-02 -5.297911351336022e-02 -1.171235246304414e-18
 4.183210609224286e-02  1.017353178590762e-01 -1.789745660520397e-18
 5.488572502503578e-02  9.532867977936167e-02 -1.956224501429322e-18
 1.056100184585354e-01  3.076563019324884e-02 -2.195561928620564e-18
 7.330373899507996e-02 -8.201561954494474e-02 -4.618467783904050e-19
 8.606060668015549e-02  6.850964879375387e-02 -2.235462906437995e-18
 1.053273639106411e-01 -3.171981102773631e-02 -1.548516544408852e-18
-4.393793657538281e-02 -1.008437292522324e-01  1.818060676846758e-18
 1.099530347248318e-01 -3.214055817789602e-03 -1.923722153702697e-18
 1.031212313483961e-01  3.828853150997719e-02 -2.228566071437093e-18
 1.095371153656809e-01  1.008069230586082e-02 -2.052919079948244e-18
 8.563127091203000e-02 -6.904553165839525e-02 -8.144928550366711e-19
 5.424488870955720e-02  9.569478590230336e-02 -1.948581662195481e-18
 8.408618697585606e-02  7.091906062449851e-02 -2.225081583917306e-18
 9.105331615240214e-02  6.171947518936487e-02 -2.254547559907110e-18
 4.582894282772004e-02 -9.999853998580925e-02  2.118679673794222e-19
 1.062855935938411e-01 -2.834382815367007e-02 -1.600256382272006e-18
 1.083700585246171e-01  1.886611818501582e-02 -2.122416970759726e-18
 1.068620308954234e-01  2.608651668785057e-02 -2.169766791909815e-18
 1.000571328195845e-01  4.570087714611117e-02 -2.250195941845664e-18
 1.022794253406159e-01 -4.048356644359920e-02 -1.404230438566585e-18
 1.039471781956380e-01 -3.598588813916088e-02 -1.480122100689348e-18
 4.952420733354525e-02 -9.822093915242286e-02  1.278421248157744e-19
 3.856341031050035e-02  1.030187525901179e-01 -1.744762145669094e-18
 1.069948879588078e-01  2.553613029967728e-02 -2.166476121631558e-18
-1.012892437778359e-03  1.099953364870958e-01 -1.112136495088480e-18
 1.055850001152937e-01 -3.085138166522446e-02 -1.562024284214459e-18
 1.099811056406097e-01  2.038725599238240e-03 -1.978192130007655e-18
 1.094118374384368e-01 -1.136001005039235e-02 -1.830394181880342e-18
 1.005477826987303e-01 -4.461102323830787e-02 -1.331005672997661e-18
 9.611484587072311e-02  5.349706910894341e-02 -2.260141283344798e-18
 1.026063082360434e-01 -3.964776803516159e-02 -1.418635234635753e-18
 9.693648938678058e-02  5.199343252148782e-02 -2.259314090097026e-18
 1.066263791713587e-01 -2.703359511433072e-02 -1.619783236636652e-18
 3.324423077360338e-02 -1.048561925699733e-01  4.857385456261889e-19
 1.099992321476744e-01  4.110072042892263e-04 -1.961790497618455e-18
 1.095923490893056e-01  9.461343513883426e-03 -2.047538446099477e-18
 1.091284893424937e-01 -1.381929136479798e-02 -1.800083442404338e-18
 1.091284893424937e-01 -1.381929136479798e-02 -1.800083442404338e-18
 8.146152289884394e-02 -7.391901167494769e-02 -6.902139785125813e-19
 1.099992615491977e-01  4.030615723950055e-04 -1.961709382372343e-18
 5.110849501519136e-03 -1.098812050233012e-01  1.038035801589296e-18
 1.099992615491977e-01  4.030615723933021e-04 -1.961709382372325e-18
 1.005441408549845e-01  4.461923060444863e-02 -2.247749305475534e-18
 1.072948963232688e-01 -2.424469473882740e-02 -1.660335235021456e-18
 3.294984747939365e-02  1.049490712254502e-01 -1.664695421737829e-18
 9.725670605665857e-02 -5.139195585895368e-02 -1.202765419055697e-18
 3.321209105910786e-02  1.048663769159660e-01 -1.668512705064840e-18
 1.083419014668228e-01  1.902714867112724e-02 -2.123570412076340e-18
 1.044057596016308e-01  3.463289421931705e-02 -2.213865438771261e-18
 1.082633767757770e-01  1.946898171723593e-02 -2.126712645574979e-18
 2.188545597942246e-02 -1.078008664926804e-01  7.181369471655438e-19
 1.074436057290314e-01 -2.357692914576402e-02 -1.669842745172559e-18
 1.040636665127719e-01  3.564762701665448e-02 -2.218203495060808e-18
 1.086486284764748e-01 -1.718940168187561e-02 -1.756917086651630e-18
 1.083857928539156e-01  1.877551350637385e-02 -2.121766051759226e-18
-3.779575808217590e-02 -1.033028589681503e-01  1.734019948403886e-18
 1.099594002875164e-01  2.988358815415792e-03 -1.987562993679876e-18
 7.812540066495373e-02 -7.743656611020645e-02 -5.947021098946390e-19
 7.836145726604293e-02  7.719768141040280e-02 -2.187713737757949e-18
 1.085697081526655e-01 -1.768102009627707e-02 -1.750461404732828e-18
 1.097926169979187e-01 -6.751388949561903e-03 -1.884522515982230e-18
 1.099427818807157e-01 -3.547493809621744e-03 -1.920113737874041e-18
 1.065672312623902e-01  2.726582514922601e-02 -2.176637446821808e-18
 1.023485414575942e-01  4.030851103058826e-02 -2.235569688905817e-18
 1.061005952887107e-01 -2.902866995542752e-02 -1.589927616028655e-18
 1.099995827517489e-01 -3.029759744468736e-04 -1.954460819244361e-18
 1.564311718819068e-02  1.088820135956186e-01 -1.397111066118543e-18
 1.099926449224728e-01  1.272031036862147e-03 -1.970519977182788e-18
 6.705198439859043e-02 -8.720109740256204e-02 -2.973104467320435e-19
 8.819159975144367e-02 -6.574375813171232e-02 -8.939814843514706e-19
 8.404984364518890e-02 -7.096212921847282e-02 -7.666571267438652e-19
 3.655945278145195e-02  1.037468380834843e-01 -1.716580144984283e-18
 1.099607825281479e-01 -2.937057336399553e-03 -1.926706093875267e-18
 1.007088885994766e-01  4.424612702890646e-02 -2.246847684406173e-18
 1.093236501645844e-01 -1.217947103496277e-02 -1.820405120218862e-18
 9.974355565766066e-02  4.638127968013683e-02 -2.251606351067155e-18
 1.090303500903263e-01  1.457335785537486e-02 -2.090061093845978e-18
 5.428308750860709e-02 -9.567312271757852e-02  1.697428718371579e-20
 3.408620687657074e-02 -1.045855176435415e-01  4.679734899878182e-19
 9.607662329814573e-02 -5.356568356351034e-02 -1.159430176203169e-18
 9.718197205659808e-02  5.153313795210333e-02 -2.258953387540202e-18
 9.883781798417232e-02  4.828131870742085e-02 -2.255009879539854e-18
 6.912340963233035e-02 -8.556841847785310e-02 -3.509491124976642e-19
 9.031431584954848e-02 -6.279589439308852e-02 -9.620459784243149e-19
 8.674145996882901e-02  6.764554029997807e-02 -2.238701101993532e-18
 9.465440808427884e-02  5.604054808988519e-02 -2.260284373417675e-18
-2.226358956083420e-02 -1.077234077620395e-01  1.503026015123428e-18
 6.715984302547057e-02 -8.711805487265012e-02 -3.000831514836683e-19
 1.040579306044543e-01  3.566436706740363e-02 -2.218273415670520e-18
 1.019850017790449e-01  4.121964837462991e-02 -2.238461671900060e-18
-2.874511013374042e-02  1.061777690639574e-01 -5.793844825426035e-19
 1.056775515428465e-01 -3.053285279676547e-02 -1.566944115678075e-18
 4.909423756299357e-02  9.843655742714839e-02 -1.885090387533787e-18
 8.405925346843517e-02 -7.095098241976146e-02 -7.669391150804218e-19
 1.099845410143360e-01  1.844108962550826e-03 -1.976253651337681e-18
 1.035218525310649e-01 -3.719174704872532e-02 -1.460163160899780e-18
 7.484265869226536e-02 -8.061374845442310e-02 -5.036374062870619e-19
 1.043226088539634e-01  3.488256415321127e-02 -2.214950939903523e-18
 1.059818711302180e-01  2.945917500097042e-02 -2.188756137972276e-18
 9.610085008313192e-02 -5.352220673047153e-02 -1.160308029406335e-18
 1.099060164430712e-01  4.546157676024997e-03 -2.002618781878343e-18
 7.036790980362283e-02  8.454795840154350e-02 -2.120980451553881e-18
 5.559207273009577e-02 -9.491849898503281e-02 -1.407415096542408e-20
 1.095721427210715e-01 -9.692550722749474e-03 -1.850379544455069e-18
 8.921227305009978e-02 -6.435192566842408e-02 -9.264461561515393e-19
-1.580821354641797e-02 -1.088581663655546e-01  1.399804131121373e-18
 1.065445922003226e-01  2.735415640934451e-02 -2.177142129316958e-18
 1.096349678273882e-01  8.953984000849917e-03 -2.043083962693929e-18
 1.015995791734705e-01  4.216071052263760e-02 -2.241271688594913e-18
 6.956380712639729e-02 -8.521077829759173e-02 -3.624611341614544e-19
 1.085486873792629e-01  1.780961729625254e-02 -2.114740721468916e-18
 9.804279023292277e-02  4.987595897166312e-02 -2.257245761790763e-18
-7.881742452179286e-03 -1.097172645298699e-01  1.267570044514934e-18
 9.557519319380083e-02  5.445532523057377e-02 -2.260383253780622e-18
 1.098499414767200e-01 -5.743723318642705e-03 -1.895896071763162e-18
 1.006006674624140e-01 -4.449163636141883e-02 -1.333173477240835e-18
 8.998886843747617e-02 -6.326139073196645e-02 -9.514714477383184e-19
 1.068934188091701e-01  2.595760033761419e-02 -2.169000808608745e-18
 1.038609113442757e-01 -3.623411506766003e-02 -1.476036437649955e-18
 7.035327629047888e-02 -8.456013549655338e-02 -3.831957980699146e-19
 8.466606590626133e-02  7.022575940462683e-02 -2.228277803010845e-18
 1.073263033501523e-01  2.410528176958323e-02 -2.157672604986814e-18
 1.063082714535789e-01 -2.825865213615291e-02 -1.601535114475145e-18
 1.085581857985676e-01 -1.775162798516240e-02 -1.749530880288827e-18
 9.685719449603332e-02 -5.214099993630256e-02 -1.187959478491292e-18
 1.091434633659059e-01  1.370052570141313e-02 -2.083106046204354e-18
 1.084129758265081e-01 -1.861791267679899e-02 -1.738045935113224e-18
 3.896367691532674e-02  1.028680313860334e-01 -1.750336761738009e-18
 1.085039296664036e-01  1.808029996842055e-02 -2.116725370704894e-18
 4.201386789549850e-02  1.016603900467608e-01 -1.792210472570251e-18
 1.063504775414611e-01  2.809939370703760e-02 -2.181344669924540e-18
 1.043191658649380e-01 -3.489285934462062e-02 -1.497972538785251e-18
 1.034732804709524e-01 -3.732666913320225e-02 -1.457912487746566e-18
 6.032725840177547e-02 -9.198163889453882e-02 -1.285175988793214e-19
 1.032165755233887e-01  3.803075777873111e-02 -2.227614303315018e-18
 8.063196204554990e-02 -7.482303586920894e-02 -6.661624334023459e-19
 9.336560082283661e-02  5.816239836002857e-02 -2.259149751573480e-18
 1.027528654169804e-01  3.926638064043906e-02 -2.232057604875596e-18
 1.054098834668444e-01 -3.144449820725739e-02 -1.552813817561515e-18
 9.798652708723238e-02 -4.998640324511262e-02 -1.230194997366890e-18
 1.008879255659910e-01  4.383636019323445e-02 -2.245823655408378e-18
 1.049833889696557e-01  3.284034166152805e-02 -2.205727216048384e-18
 1.002460777886602e-01  4.528491899065099e-02 -2.249284624010448e-18
 1.074967189669232e-01  2.333356833718888e-02 -2.152776278989955e-18
 4.982227206299953e-03  1.098871121290605e-01 -1.217714834428431e-18
 9.404997970938175e-02 -5.704911319788253e-02 -1.087572662010459e-18
 1.099352389443212e-01 -3.774021496352205e-03 -1.917652012633245e-18
 6.708242541449144e-02  8.717768177985191e-02 -2.089530790190365e-18
 6.745349356613742e-02 -8.689088678177352e-02 -3.076430827439560e-19
 8.239667533968542e-02 -7.287515278177055e-02 -7.175814026108375e-19
 1.099208703257191e-01 -4.171602430286860e-03 -1.913311306259331e-18
 1.099351878664507e-01  3.775509074035977e-03 -1.995219787723504e-18
 1.081080954522608e-01 -2.031353483972664e-02 -1.715198323426044e-18
 1.067066204443417e-01  2.671511095517141e-02 -2.173459655298898e-18
 1.084114693944549e-01 -1.862668257460531e-02 -1.737929018843793e-18
 9.979842220686989e-02 -4.626310544072090e-02 -1.300695364699943e-18
 1.055002995832505e-01  3.113979428070012e-02 -2.197453750432891e-18
 1.061502507234864e-01  2.884656429006575e-02 -2.185458301174368e-18
 1.013771031847452e-01 -4.269289109289114e-02 -1.365472531287110e-18
 4.884769024422606e-02 -9.855913533409305e-02  1.433563963086516e-19
 6.722128532969598e-02  8.707065406107577e-02 -2.090902297089222e-18
 9.964650342777959e-02  4.658942320545990e-02 -2.252017789978427e-18
 1.093939063492312e-01  1.153140293526999e-02 -2.065276029390064e-18
 1.049747912320407e-01 -3.286781413159968e-02 -1.530446778173790e-18
 1.045282764776581e-01  3.426133997102562e-02 -2.212228187797438e-18
 1.092478119393641e-01 -1.284194636576735e-02 -1.812248795172310e-18
 9.875705018072718e-02 -4.844631089774804e-02 -1.259731264326451e-18
 1.039762525645767e-01  3.590179525632783e-02 -2.219259345912123e-18
 1.057017900828331e-01  3.044883533543783e-02 -2.193940162062614e-18
 1.007359864096001e-01  4.418439817497568e-02 -2.246695680710948e-18
 1.074666302094263e-01  2.347175731449093e-02 -2.153660655200798e-18
 4.538934009103449e-03  1.099063150053760e-01 -1.210023205783337e-18
 9.414515519190543e-02 -5.689191290413757e-02 -1.090881599163246e-18
 1.099426397239675e-01 -3.551896750443690e-03 -1.920065969407654e-18
 6.678239134787881e-02  8.740773538914443e-02 -2.086555043344979e-18
 6.762803433770448e-02 -8.675510919604783e-02 -3.121443093429730e-19
 8.222204776740639e-02 -7.307212095549345e-02 -7.124499202267331e-19
 1.099228828577952e-01 -4.118230716139380e-03 -1.913895496642708e-18
 1.099105606023299e-01  4.434937212801767e-03 -2.001556900756419e-18
 1.081879440952755e-01 -1.988388172458957e-02 -1.721033854952727e-18
 1.070789213294448e-01  2.518143377416149e-02 -2.164327217752121e-18
 1.087360908814826e-01 -1.662716271087403e-02 -1.764250385659357e-18
 9.964466654062118e-02 -4.659335177907181e-02 -1.294565938055156e-18
 1.042859900861921e-01  3.499188865640979e-02 -2.215422534806481e-18
 1.058167840179794e-01  3.004676721533006e-02 -2.191855512434030e-18
 1.005741599306384e-01  4.455152471292411e-02 -2.247587877295049e-18
 1.075231553269569e-01  2.321144262072093e-02 -2.151991948179265e-18
 6.296946257446563e-03  1.098196178641629e-01 -1.240418349144152e-18
 9.395053938132551e-02 -5.721272716763226e-02 -1.084121928653087e-18
 1.099452962657990e-01 -3.468692696911427e-03 -1.920968137162771e-18
 6.672601711080281e-02  8.745077838720917e-02 -2.085994047719412e-18
 6.752325251178150e-02 -8.683668792756966e-02 -3.094413999312241e-19
 8.196571602959901e-02 -7.335953513862438e-02 -7.049351148665788e-19
 1.099234477895678e-01 -4.103123938426939e-03 -1.914060766930609e-18
 1.098782713282140e-01  5.173537467084066e-03 -2.008571123907859e-18
 1.084688158959569e-01 -1.828977796827884e-02 -1.742411140685588e-18
 1.074056006347281e-01  2.374946214745144e-02 -2.155427877396766e-18
 1.086074076749845e-01 -1.744795111523570e-02 -1.753527011815007e-18
 9.970676501592389e-02 -4.646031650838448e-02 -1.297037943575308e-18
 1.042259608453495e-01  3.517028697442751e-02 -2.216187220770836e-18
 1.059200828376240e-01  2.968056690278669e-02 -2.189931262967630e-18
 1.003786726581508e-01  4.499024422458419e-02 -2.248616631703510e-18
 1.075581578414718e-01  2.304870238753083e-02 -2.150942762900417e-18
 6.828791019720199e-03  1.097878299867927e-01 -1.249556552203858e-18
 9.388105643865990e-02 -5.732667129671040e-02 -1.081714662272467e-18
 1.099510167532169e-01 -3.282364229293686e-03 -1.922984397376977e-18
 6.681674062594248e-02  8.738148071602730e-02 -2.086896572492718e-18
 6.744722447927516e-02 -8.689575311856267e-02 -3.074815170224977e-19
 8.196730906189971e-02 -7.335775518069605e-02 -7.049817531977139e-19
 1.099239871111420e-01 -4.088649849207173e-03 -1.914219080810058e-18
 1.099201337394442e-01  4.190966320865745e-03 -1.999220553863635e-18
 1.082945593717027e-01 -1.929477676700842e-02 -1.728984040406193e-18
 1.071956187498115e-01  2.467993761833653e-02 -2.161251296727397e-18
 1.086981072284891e-01 -1.687369209579839e-02 -1.761041421372783e-18
 9.969805891934100e-02 -4.647899576922401e-02 -1.296691085582123e-18
 1.042750868845545e-01  3.502436659268141e-02 -2.215562198324415e-18
 1.058538085605950e-01  2.991606948141486e-02 -2.191171536597123e-18
 1.004882485141095e-01  4.474496519795827e-02 -2.248046511871391e-18
 1.075309633167943e-01  2.317524386413608e-02 -2.151758971598192e-18
 7.269590635988122e-03  1.097595237416101e-01 -1.257110270793760e-18
 9.381917712853340e-02 -5.742788523813856e-02 -1.079573509656412e-18
 1.099548860234831e-01 -3.150085643718210e-03 -1.924412370070555e-18
 6.682202132359286e-02  8.737744254800109e-02 -2.086949058096932e-18
 6.750973948237020e-02 -8.684719382353372e-02 -3.090929751893864e-19
 8.198968757374048e-02 -7.333274256128951e-02 -7.056370010880070e-19
 1.099222594176626e-01 -4.134837906861729e-03 -1.913713768930126e-18
 1.099257605483079e-01  4.040689034805386e-03 -1.997776645116441e-18
 1.082054649262645e-01 -1.978831372529934e-02 -1.722327585515362e-18
 1.070863495145569e-01  2.514982599633812e-02 -2.164134652731917e-18
 1.087414667191700e-01 -1.659196841135981e-02 -1.764707663745961e-18
 9.968130857351903e-02 -4.651490858929870e-02 -1.296024002017520e-18
 1.042845426992845e-01  3.499620199394551e-02 -2.215441094806222e-18
 1.059254260823733e-01  2.966149202699670e-02 -2.189830364962213e-18
 1.004119746692978e-01  4.491586961211184e-02 -2.248445108590966e-18
 1.075579505952819e-01  2.304966949313686e-02 -2.150949011366034e-18
 6.903501777321600e-03  1.097831574660268e-01 -1.250838110800117e-18
 9.387968613024511e-02 -5.732891532278096e-02 -1.081667219446979e-18
 1.099533279196391e-01 -3.204009893280618e-03 -1.923830589678961e-18
 6.664251022295446e-02  8.751443213083966e-02 -2.085161962131744e-18
 6.773446256727519e-02 -8.667204036321238e-02 -3.148918287212208e-19
 8.199725574801678e-02 -7.332428008370930e-02 -7.058586346598601e-19
 1.099217704922226e-01 -4.147815311109305e-03 -1.913571729804387e-18
 1.099199842544130e-01  4.194885160468727e-03 -1.999258158252511e-18
 1.081306398168228e-01 -2.019318530604989e-02 -1.716836075024295e-18
 1.070003120240769e-01  2.551339308579128e-02 -2.166339032730184e-18
 1.087549804623139e-01 -1.650315802025933e-02 -1.765860651431260e-18
 9.963046743255216e-02 -4.662370597851576e-02 -1.294001369617286e-18
 1.042458333304290e-01  3.511134052189328e-02 -2.215935221961357e-18
 1.058351189899059e-01  2.998212114564911e-02 -2.191517590248309e-18
 1.005025068376361e-01  4.471293011368001e-02 -2.247971106892963e-18
 1.075166625881584e-01  2.324149878781576e-02 -2.152185218345875e-18
 7.036731616040774e-03  1.097746983970520e-01 -1.253122180841650e-18
 9.389480735032783e-02 -5.730414603363999e-02 -1.082190815043544e-18
 1.099516823141905e-01 -3.259993294356902e-03 -1.923226095058166e-18
 6.670667665033284e-02  8.746553201271835e-02 -2.085801449297747e-18
 6.763634793977111e-02 -8.674862787024443e-02 -3.123588530767220e-19
 8.199258533891726e-02 -7.332950258552347e-02 -7.057218598499134e-19
 1.099236632527873e-01 -4.097347567360632e-03 -1.914123951469929e-18
 1.099132669778436e-01  4.367349568927552e-03 -2.000910625448820e-18
 1.083794332010359e-01 -1.881218910765349e-02 -1.735452884329904e-18
 1.072716662190243e-01  2.434727144043386e-02 -2.159186628024915e-18
 1.086499553271611e-01 -1.718101299125995e-02 -1.757026890291019e-18
 9.965210675210877e-02 -4.657743681082335e-02 -1.294861866010883e-18
 1.042223885355363e-01  3.518087162006684e-02 -2.216232400645350e-18
 1.058332386606366e-01  2.998875780356142e-02 -2.191552316795163e-18
 1.005137076781933e-01  4.468774517451784e-02 -2.247911673110601e-18
 1.075183686075576e-01  2.323360522969512e-02 -2.152134475553913e-18
 7.136036687080179e-03  1.097682876809170e-01 -1.254823565256716e-18
 9.387096482482966e-02 -5.734319456444256e-02 -1.081365299393130e-18
 1.099543822053608e-01 -3.167622742274396e-03 -1.924223216709152e-18
 6.674631528335541e-02  8.743528690462928e-02 -2.086196108556626e-18
 6.767516409864277e-02 -8.671834963963332e-02 -3.133607307457460e-19
 8.199447984325205e-02 -7.332738421104673e-02 -7.057773403426002e-19
 1.099243493681978e-01 -4.078898868361641e-03 -1.914325715392417e-18
 1.098835927524636e-01  5.059253285878180e-03 -2.007491596554293e-18
 1.088227019838518e-01 -1.605053061221661e-02 -1.771716418879211e-18
 1.077476711204751e-01  2.214586571154674e-02 -2.145039058888946e-18
 1.084162235207108e-01 -1.859899130348723e-02 -1.738298141942737e-18
 9.969276858660329e-02 -4.649034191676676e-02 -1.296480360256249e-18
 1.040552815563640e-01  3.567209525982110e-02 -2.218305677069513e-18
 1.060773403277214e-01  2.911353412069195e-02 -2.186903791738230e-18
 1.001939402947080e-01  4.540015779951006e-02 -2.249540812011773e-18
 1.075969164007291e-01  2.286708510183232e-02 -2.149766466061105e-18
 4.607651863869895e-03  1.099034555612393e-01 -1.211216742228781e-18
 9.407601397907848e-02 -5.700617154140557e-02 -1.088477182815337e-18
 1.099391027092924e-01 -3.659739809821848e-03 -1.918894975753598e-18
 6.714685960242836e-02  8.712806233086846e-02 -2.090167651611608e-18
 6.709836530319629e-02 -8.716541386145507e-02 -2.985024856767126e-19
 1.063876470502344e-01  2.795833605768933e-02 -2.180556829565718e-18
 9.125755819634644e-02 -6.141708290077254e-02 -9.929988883264948e-19
 1.075949776679735e-01 -2.287620555573460e-02 -1.679736269723702e-18
 1.091301386272979e-01 -1.380626101399877e-02 -1.800246675515676e-18
 7.535995725092906e-02 -8.013037403593017e-02 -5.178098477484328e-19
 8.393763280641152e-02  7.109482258825855e-02 -2.224243775598545e-18
 1.065727355380535e-01 -2.724430288952234e-02 -1.616663638347567e-18
 1.070887191916405e-01  2.513973392647356e-02 -2.164073131610576e-18
 6.015244434836033e-02  9.209605550140212e-02 -2.016738014022144e-18
 4.999936697101356e-02 -9.797991275000119e-02  1.169096335492195e-19
 1.018488813183760e-01 -4.155484778212136e-02 -1.385561367531927e-18
 9.857503342172795e-02  4.881559982121645e-02 -2.255822859145564e-18
 9.763901394734359e-02 -5.066184911144050e-02 -1.217070625607566e-18
 9.056087332203502e-02 -6.243979678978982e-02 -9.700925362654178e-19
 1.011562355190562e-01 -4.321360914819725e-02 -1.356191738859414e-18
 1.077832496462337e-01  2.197205260547114e-02 -2.143886354670833e-18
 1.096121921559022e-01  9.228614781076401e-03 -2.045500373953339e-18
 1.092219187548121e-01 -1.306033933392027e-02 -1.809544086654854e-18
 8.225741662369657e-02  7.303230388256650e-02 -2.214249240860114e-18
 9.694822741349157e-02  5.197154222631700e-02 -2.259298067453212e-18
 7.197311033388050e-02 -8.318576434022222e-02 -4.261438414417481e-19
 1.047009584751322e-01  3.372994655181918e-02 -2.209841395582740e-18
 1.058890585007368e-01  2.979106056902748e-02 -2.190514430166985e-18
 6.412375667972670e-02  8.937641651621044e-02 -2.059468951505959e-18
 5.335561009906811e-02 -9.619344505191688e-02  3.882597698864570e-20
 9.496297510393131e-02 -5.551606397620461e-02 -1.119572027956540e-18
 1.089380096797160e-01 -1.524828013324862e-02 -1.782011289107823e-18
 1.059017146936834e-01 -2.974603881086713e-02 -1.579017594216757e-18
 6.614811526978694e-02 -8.788871853801777e-02 -2.741599600371733e-19
 1.063976738628053e-01  2.792015394986271e-02 -2.180342961368384e-18
 8.218712038101673e-02 -7.311140296476458e-02 -7.114247373478059e-19
 4.189805814117489e-02  1.017081743224145e-01 -1.790640465922867e-18
 1.014650395295811e-01 -4.248347623795009e-02 -1.369189124997818e-18
 4.294260174258039e-02  1.012715801969045e-01 -1.804743519249149e-18
 1.057208207764419e-01 -3.038269333609815e-02 -1.569256977213028e-18
 1.079356000078446e-01 -2.121099363411568e-02 -1.702907498141445e-18
 2.231790365154103e-02  1.077121681919014e-01 -1.503877116655594e-18
 1.096173917402882e-01 -9.166647590920562e-03 -1.856588268360967e-18
 1.099433531011487e-01  3.529746290610388e-03 -1.992839974493701e-18
 9.990562971135865e-02  4.603113242118652e-02 -2.250893016294426e-18
 1.098642103110570e-01  5.463999700563126e-03 -2.011305285267327e-18
 1.089064454153788e-01 -1.547210867939599e-02 -1.779149808371578e-18
 9.657654446012684e-02 -5.265900739798532e-02 -1.177642637839382e-18
 9.891639280996982e-02 -4.812013334835714e-02 -1.265918312313597e-18
 1.059238461574977e-01 -2.966713358588397e-02 -1.580222172537387e-18
 1.067981407304319e-01 -2.634686198625533e-02 -1.629895871885406e-18
 1.099026436712252e-01 -4.626976774916840e-03 -1.908308135234494e-18
 8.801997658947258e-02  6.597335614616422e-02 -2.244272745604022e-18
 1.099511064973436e-01 -3.279356645703311e-03 -1.923016896309586e-18
 1.082634967202507e-01  1.946831471658955e-02 -2.126707926940624e-18
 1.082964858193668e-01  1.928396118995336e-02 -2.125400841794399e-18
 1.054953120034045e-01 -3.115668700783613e-02 -1.557291275792914e-18
 9.611210759152951e-02 -5.350198850803757e-02 -1.160716105087518e-18
 1.027948489629435e-01  3.915634082349307e-02 -2.231674133011000e-18
 1.063564577332076e-01 -2.807675014036248e-02 -1.604261623726759e-18
 2.420572140795172e-02  1.073036954215490e-01 -1.533276176172576e-18
 1.070255955430720e-01 -2.540712299042691e-02 -1.643599178396057e-18
 8.190047299312064e-02  7.343236700190894e-02 -2.212007506395979e-18
 3.507239628553094e-02 -1.042589421526547e-01  4.470676285527486e-19
 1.056313435939741e-01  3.069233211295142e-02 -2.195188323695281e-18
 1.055964858471659e-01 -3.081204596792025e-02 -1.562632846514066e-18
 9.975387505571780e-02  4.635908121790343e-02 -2.251561915929626e-18
 1.051675905733194e-01  3.224558718650637e-02 -2.202894417135673e-18
 1.096607850554628e-01 -8.632046166437594e-03 -1.862853339597053e-18
 6.325849217962587e-02 -8.999090602477640e-02 -2.011364575187974e-19
 5.890315963941217e-02  9.290004189715872e-02 -2.002766170576772e-18
 1.088653926073540e-01  1.575837213821892e-02 -2.099301069942456e-18
 9.487011046077019e-02  5.567460948368819e-02 -2.260363168262818e-18
 9.966423654372104e-02 -4.655147639073492e-02 -1.295344464007291e-18
 1.073234679207691e-01  2.411790275831647e-02 -2.157751821213105e-18
 1.091894994172517e-01 -1.332866148605880e-02 -1.806210233232333e-18
 8.710556088924887e-02  6.717604678878714e-02 -2.240356836913800e-18
 7.847585181468289e-02  7.708138998461236e-02 -2.188554673051110e-18
 7.315010067247425e-02 -8.215267963740958e-02 -4.577043585131521e-19
 1.052697340632355e-01 -3.191054826002913e-02 -1.545531196758479e-18
-3.797356187258652e-02  1.032376316984693e-01 -3.849443323916800e-19
 1.095017368267630e-01  1.045799368532451e-02 -2.056166111258326e-18
 1.049348564363700e-01 -3.299508909941577e-02 -1.528428386789930e-18
 9.230640790639849e-02 -5.982914891102451e-02 -1.027979864923685e-18
 4.614529982680991e-02  9.985294839860151e-02 -1.847163425595429e-18
 7.913556815336692e-02 -7.640393872729195e-02 -6.232891165577589e-19
 1.051300044867211e-01  3.236791863283722e-02 -2.203482439061877e-18
 1.078469942841591e-01 -2.165700403732030e-02 -1.696748058725643e-18
 1.031660560889911e-01 -3.816758927471180e-02 -1.443804914427318e-18
 1.099775418474921e-01 -2.222676130946115e-03 -1.934344353325983e-18
 1.056479430345341e-01  3.063514538192690e-02 -2.194896157653605e-18
 1.065098693786759e-01  2.748904736322009e-02 -2.177910150835915e-18
 9.615399449980995e-02  5.342667256839494e-02 -2.260114681016490e-18
 8.723495512471321e-02 -6.700792941428080e-02 -8.639679514007162e-19
 5.887973048685591e-02  9.291489298166992e-02 -2.002501810358105e-18
 1.063807332645522e-01 -2.798463131963988e-02 -1.605640123182726e-18
 1.295858129041544e-02  1.092340385179440e-01 -1.352953475783592e-18
 9.986537475285640e-02 -4.611840115909828e-02 -1.303373649046399e-18
 1.007086815316554e-01 -4.424659833428511e-02 -1.337613393160313e-18
 1.084850378437599e-01 -1.819331096963811e-02 -1.743690992964310e-18
 9.612913538401978e-02  5.347138795955051e-02 -2.260131717798276e-18
 1.070700568130332e-01  2.521909859717053e-02 -2.164556455482460e-18
 8.242486552450885e-02 -7.284326697277237e-02 -7.184106956804927e-19
 5.779676094753702e-02 -9.359238443363449e-02 -6.693455291816635e-20
 1.071261349151562e-01 -2.497981621509072e-02 -1.649778818338230e-18
 1.055187509130415e-01  3.107721360983745e-02 -2.197139120196722e-18
 1.059238295511377e-01  2.966719287734357e-02 -2.189860526950821e-18
 1.072389646696846e-01  2.449090558909761e-02 -2.160080453645932e-18
 1.098231389959162e-01 -6.235233843539237e-03 -1.890368997554528e-18
 1.019339264001074e-01 -4.134579360294654e-02 -1.389222801954390e-18
 1.099152180631701e-01  4.317966897247524e-03 -2.000437958327347e-18
 9.922080445747772e-02  4.748928260998404e-02 -2.253687697498056e-18
 1.095782023797274e-01  9.623801911276039e-03 -2.048955889544439e-18
 1.089920836774933e-01 -1.485684002869590e-02 -1.786995505275337e-18
 1.074311988807045e-01 -2.363339812753311e-02 -1.669041752233049e-18
 1.063677693154966e-01 -2.803386614160186e-02 -1.604903544335270e-18
 3.439072505782715e-02 -1.044857790802026e-01  4.615294482037888e-19
 9.646467163635428e-02  5.286366546211400e-02 -2.259858857757766e-18
 8.176722259913102e-02  7.358071288336449e-02 -2.211160356730244e-18
 5.248221089039198e-02 -9.667273421216753e-02  5.929367974483757e-20
 1.078257681027504e-01 -2.176243858238009e-02 -1.695287011858838e-18
 1.055894269564700e-01  3.083622731470622e-02 -2.195920838055935e-18
 1.063722495121283e-01  2.801686159671508e-02 -2.180884140661104e-18
 1.070615667602509e-01  2.525511676552515e-02 -2.164775438461370e-18
 1.097973943145266e-01 -6.673245218057564e-03 -1.885410432483678e-18
 1.018210284985299e-01 -4.162304836868051e-02 -1.384364957127148e-18
 1.099210423886405e-01  4.167066137544011e-03 -1.998991158658582e-18
 9.926243942070553e-02  4.740219531045712e-02 -2.253533850966367e-18
 1.095803830550179e-01  9.598940020414587e-03 -2.048739250365450e-18
 1.089235045128826e-01 -1.535155251536449e-02 -1.780692066151300e-18
 1.074544943666753e-01 -2.352725314187987e-02 -1.670546924361906e-18
 1.064075531174810e-01 -2.788247907827467e-02 -1.607166991628509e-18
 3.312336663956331e-02 -1.048944354218136e-01  4.882823984735127e-19
 9.623529646602978e-02  5.328008740697893e-02 -2.260055437202521e-18
 8.175544183360653e-02  7.359380225665570e-02 -2.211085192510702e-18
 5.259439982609271e-02 -9.661174414600467e-02  5.667049303636205e-20
 1.078492846888919e-01 -2.164559521228996e-02 -1.696906040742643e-18
 1.056259473691570e-01  3.071089777860698e-02 -2.195283046908045e-18
 1.063995807113288e-01  2.791288635117116e-02 -2.180302224075985e-18
 1.070478155730095e-01  2.531333998205089e-02 -2.165128942080371e-18
 1.097981989455108e-01 -6.659993117264289e-03 -1.885560912373381e-18
 1.018394426404037e-01 -4.157797400898569e-02 -1.385155781418612e-18
 1.099215374637357e-01  4.153986231141583e-03 -1.998865577823720e-18
 9.927368768722147e-02  4.737863371795330e-02 -2.253491940482713e-18
 1.095803938901753e-01  9.598816326714112e-03 -2.048738172282164e-18
 1.089109772927389e-01 -1.544017568360111e-02 -1.779558558466468e-18
 1.075047493239011e-01 -2.329654207828167e-02 -1.673811743639753e-18
 1.071815228918913e-01 -2.474108224340528e-02 -1.653217418287235e-18
 2.487368151549951e-02 -1.071508281249635e-01  6.582790011786898e-19
 1.004495107182180e-01  4.483186139868125e-02 -2.248249953480907e-18
 8.571140955588387e-02  6.894602433747359e-02 -2.233732127263122e-18
 5.299082231925421e-02 -9.639487927234101e-02  4.738747410460767e-20
 1.079259316217783e-01 -2.126013366776436e-02 -1.702230541683957e-18
 1.057352097652659e-01  3.033258010613646e-02 -2.193340424927079e-18
 1.065024152656672e-01  2.751791312180766e-02 -2.178074081186717e-18
 1.070767710226311e-01  2.519057576489654e-02 -2.164382881111170e-18
 1.098121624940650e-01 -6.425649257235877e-03 -1.888217208407589e-18
 1.019182503967244e-01 -4.138442020942836e-02 -1.388546954425518e-18
 1.099226729989744e-01  4.123828410651816e-03 -1.998575925377751e-18
 9.927211062210274e-02  4.738193804217965e-02 -2.253497825458794e-18
 1.095828556151298e-01  9.570671618730439e-03 -2.048492804963818e-18
 1.089314438669234e-01 -1.529511481052944e-02 -1.781413233341834e-18
 1.074398857898048e-01 -2.359387508387848e-02 -1.669602431058567e-18
 1.062923081312054e-01 -2.831863754033475e-02 -1.600634699874783e-18
 3.486464237611057e-02 -1.043285996838157e-01  4.514805630168058e-19
 9.572569839853470e-02  5.419031893348414e-02 -2.260338829994592e-18
 8.104546591911670e-02  7.437494506857306e-02 -2.206476282848005e-18
 5.208460465472511e-02 -9.688753252075807e-02  6.857653158109256e-20
 1.078320824765134e-01 -2.173112948694514e-02 -1.695721073253902e-18
 1.055795871334983e-01  3.086990088613848e-02 -2.196091710382605e-18
 1.063261262420966e-01  2.819139724011022e-02 -2.181856612385134e-18
 1.070025548743497e-01  2.550398498983538e-02 -2.166282282157902e-18
 1.097961596615518e-01 -6.693528484663404e-03 -1.885180057165200e-18
 1.018265012946173e-01 -4.160965794256514e-02 -1.384599933825687e-18
 1.099228356104591e-01  4.119491638049868e-03 -1.998534260480030e-18
 9.925740029009050e-02  4.741274604631857e-02 -2.253552578604376e-18
 1.095797336564167e-01  9.606350596804989e-03 -2.048803834523074e-18
 1.089150182757682e-01 -1.541164475288229e-02 -1.779923617528396e-18
 1.074379987461958e-01 -2.360246651120125e-02 -1.669480575071878e-18
 1.061516202551367e-01 -2.884152418318424e-02 -1.592758520996075e-18
 3.713338441195448e-02 -1.035428015948669e-01  4.030318023295571e-19
 9.409041455090662e-02  5.698239982344116e-02 -2.259924620149929e-18
 8.042321652192426e-02  7.504736000864823e-02 -2.202311431819145e-18
 5.257470664058066e-02 -9.662246230383933e-02  5.713108194158192e-20
 1.078924822304362e-01 -2.142923886084103e-02 -1.699897775437370e-18
 1.055868600374088e-01  3.084501560123786e-02 -2.195965453120886e-18
 1.063657897133953e-01  2.804137619029672e-02 -2.181021059380723e-18
 1.070176034981392e-01  2.544076534845253e-02 -2.165900531519567e-18
 1.097949655247808e-01 -6.713087621367122e-03 -1.884957843052589e-18
 1.018024692817023e-01 -4.166842027420789e-02 -1.383568493878490e-18
 1.099216145692445e-01  4.151945386250496e-03 -1.998845981068349e-18
 9.927426287510203e-02  4.737742849295531e-02 -2.253489793388127e-18
 1.095813083397708e-01  9.588371214343661e-03 -2.048647126268314e-18
 1.089117705220448e-01 -1.543457941614918e-02 -1.779630174543268e-18
 1.074332601985152e-01 -2.362402597183838e-02 -1.669174731337445e-18
 1.061104321207784e-01 -2.899269209890042e-02 -1.590472333595185e-18
 3.792805493848520e-02 -1.032543589810290e-01  3.859260493184056e-19
 9.393222077601597e-02  5.724279780099636e-02 -2.259784867849616e-18
 8.027158788000596e-02  7.520952186540240e-02 -2.201279173436396e-18
 5.227964935493231e-02 -9.678242745108893e-02  6.402556207398455e-20
 1.078563596304601e-01 -2.161031437218858e-02 -1.697394445582664e-18
 1.055775050224443e-01  3.087702111985106e-02 -2.196127814547585e-18
 1.063298717062700e-01  2.817726713022617e-02 -2.181778085641857e-18
 1.070151882018736e-01  2.545092324685940e-02 -2.165961917157507e-18
 1.097911089968774e-01 -6.775867858492843e-03 -1.884244167408114e-18
 1.018281897153938e-01 -4.160552582633376e-02 -1.384672437280624e-18
 1.099210834810754e-01  4.165982038658004e-03 -1.998980751225246e-18
 9.923679122227169e-02  4.745586652783014e-02 -2.253628862942245e-18
 1.095836486961314e-01  9.561586606982152e-03 -2.048413573590874e-18
 1.088988694045318e-01 -1.552534194195686e-02 -1.778468031786876e-18
 1.074295030591192e-01 -2.364110556785898e-02 -1.668932381915634e-18
 1.060685892974032e-01 -2.914540039969877e-02 -1.588158668325160e-18
 3.890887143230152e-02 -1.028887735560328e-01  3.647149924155877e-19
 9.345188327035467e-02  5.802366339024076e-02 -2.259259799232374e-18
 7.975283035298933e-02  7.575939579146120e-02 -2.197697019283519e-18
 5.208370567050781e-02 -9.688801578950756e-02  6.859749548843011e-20
 1.078802158432607e-01 -2.149090574199791e-02 -1.699045875643637e-18
 1.055472368425960e-01  3.098032916049995e-02 -2.196650608770800e-18
 1.062994700627096e-01  2.829174198219439e-02 -2.182413239648836e-18
 1.069658747771708e-01  2.565738944543191e-02 -2.167205691128798e-18
 1.097910699354690e-01 -6.776500750750395e-03 -1.884236969525723e-18
 1.018421093606619e-01 -4.157144165134212e-02 -1.385270356488356e-18
 1.099229977836316e-01  4.115161996771877e-03 -1.998492661053788e-18
 9.925297332633894e-02  4.742201267218638e-02 -2.253569006718235e-18
 1.095816841722530e-01  9.584075019142534e-03 -2.048609672810639e-18
 1.089123888647270e-01 -1.543021554543132e-02 -1.779686015875239e-18
 1.074386808917033e-01 -2.359936118310623e-02 -1.669524620782975e-18
 1.061728906950934e-01 -2.876312363857090e-02 -1.593942590962626e-18
 3.674584833083441e-02 -1.036809656130154e-01  4.113480542582929e-19
 9.467446819458519e-02  5.600665203413280e-02 -2.260293097349757e-18
 8.052310184042374e-02  7.494017660772299e-02 -2.202987739701526e-18
 5.212588843322590e-02 -9.686532793031184e-02  6.761369339705577e-20
 1.078522912118877e-01 -2.163060980060777e-02 -1.697113515066924e-18
 1.055772575336260e-01  3.087786734342846e-02 -2.196132104828700e-18
 1.063224317007652e-01  2.820532781649742e-02 -2.181933995226931e-18
 1.069873050523930e-01  2.556788136757096e-02 -2.166667405455040e-18
 1.097943475974448e-01 -6.723186420992689e-03 -1.884843084801007e-18
 1.018510759248359e-01 -4.154946850386014e-02 -1.385655693301697e-18
 1.099224916130206e-01  4.128660507402455e-03 -1.998622345437087e-18
 9.927883498941314e-02  4.736784693380983e-02 -2.253472712576595e-18
 1.095798392126660e-01  9.605146439604306e-03 -2.048793340744638e-18
 1.089054350891934e-01 -1.547921858600884e-02 -1.779058776704328e-18
 1.074278762780239e-01 -2.364849674701449e-02 -1.668827489724730e-18
 1.059854469899525e-01 -2.944630751622253e-02 -1.583587340477018e-18
 4.013904521601403e-02 -1.024151211938293e-01  3.379559765727524e-19
 9.284272574820225e-02  5.899345960056987e-02 -2.258383418258143e-18
 7.960885142160401e-02  7.591067629347628e-02 -2.196689094657550e-18
 5.208213045750401e-02 -9.688886255399792e-02  6.863422848034747e-20
 1.078895575770867e-01 -2.144395872548842e-02 -1.699694486480418e-18
 1.055458608386341e-01  3.098501669890872e-02 -2.196674283893243e-18
 1.062945317249431e-01  2.831029009697743e-02 -2.182515931179014e-18
 1.069417360690158e-01  2.575781602824552e-02 -2.167807960679785e-18
 1.097900010428066e-01 -6.793796510087811e-03 -1.884040239661639e-18
 1.018455235051939e-01 -4.156307666611023e-02 -1.385417062447339e-18
 1.099237204984880e-01  4.095811491053032e-03 -1.998306703209967e-18
 9.925257924929506e-02  4.742283745583309e-02 -2.253570467999516e-18
 1.095759541527232e-01  9.649366379212427e-03 -2.049178545284323e-18
 1.088927818068851e-01 -1.556798221858186e-02 -1.777921582372874e-18
 1.083135794915231e-01 -1.918771736641620e-02 -1.730422522575880e-18
 1.046370623744787e-01 -3.392764621425135e-02 -1.513547100653391e-18
 4.067476897654512e-02 -1.022035379461232e-01  3.262481922116393e-19
 9.238020353445238e-02  5.971514041625552e-02 -2.257567291963136e-18
 7.971599972088408e-02  7.579814897805864e-02 -2.197439749166400e-18
 5.316562215078927e-02 -9.629858057790605e-02  4.328726849090133e-20
 1.082624559697967e-01 -1.947410145264235e-02 -1.726570226073599e-18
 1.056094836187791e-01  3.076746609285198e-02 -2.195571273710612e-18
 1.064154914452610e-01  2.785216653087428e-02 -2.179961500469545e-18
 1.068510001170439e-01  2.613166228902101e-02 -2.170034340702484e-18
 1.097939369362408e-01 -6.729889452342945e-03 -1.884766905382922e-18
 1.017883952971597e-01 -4.170278866969352e-02 -1.382964907756939e-18
 1.099296250878710e-01  3.934148960079375e-03 -1.996750758642912e-18
 9.909185549765034e-02  4.775776558877872e-02 -2.254151462016959e-18
 1.090489566443456e-01  1.443346994937822e-02 -2.088954922252618e-18
 1.092341022367574e-01 -1.295804416297390e-02 -1.810811951969615e-18
 1.097986345844989e-01  6.652807180405271e-03 -2.022352851987238e-18
 1.087243920429459e-01  1.670348990156719e-02 -2.106502538391365e-18
 5.372871567697319e-02  9.598554636872650e-02 -1.942383205534691e-18
 9.323602449780825e-02 -5.836988723514942e-02 -1.059516884666158e-18
 1.099962886806984e-01 -9.035908766873817e-04 -1.948231097386428e-18
 7.849639684657923e-02 -7.706046769975065e-02 -6.051687040285512e-19
 1.096896472614319e-01 -8.257195871638628e-03 -1.867218427587011e-18
 1.096546333990043e-01  8.709843519256945e-03 -2.040925480239676e-18
 1.082423031253469e-01 -1.958580644549751e-02 -1.725063853945079e-18
 1.088567561145837e-01 -1.581792174117706e-02 -1.774712424406596e-18
 1.040826110136640e-01 -3.559227563079213e-02 -1.486576514771538e-18
 3.498077941072485e-02 -1.042897169994155e-01  4.490142604953310e-19
 9.300568012015617e-02  5.873621936579813e-02 -2.258640335721825e-18
 8.186337204917134e-02  7.347372534953513e-02 -2.211772192840345e-18
 5.474751520140980e-02 -9.540812113898565e-02  5.986447448350808e-21
 1.085068897374100e-01 -1.806252694153027e-02 -1.745423631856403e-18
 1.059989405224126e-01  2.939769732693368e-02 -2.188428247399843e-18
 1.055839964012369e-01  3.085481654367053e-02 -2.196015192422431e-18
 1.050642310853267e-01  3.258078185754636e-02 -2.204499015233468e-18
 1.095582369876020e-01  9.848487608175291e-03 -2.050909145489730e-18
 9.740909953417747e-02 -5.110251782388677e-02 -1.208451313435408e-18
 9.861343191071427e-02 -4.873798361433185e-02 -1.254178574690969e-18
 1.098138857626050e-01 -6.396131152306462e-03 -1.888551163831911e-18
 1.026373712763038e-01  3.956728468684871e-02 -2.233093928642871e-18
 9.477025069088681e-02  5.584442303387536e-02 -2.260330817080458e-18
 9.868798236000034e-02  4.858685149000941e-02 -2.255482614227075e-18
 9.482282332506445e-02  5.575510897364995e-02 -2.260348740292987e-18
 7.434591825253380e-02 -8.107209408413926e-02 -4.900879827871369e-19
 9.613344083607410e-02 -5.346364702315960e-02 -1.161489700450159e-18
 1.099794236877327e-01 -2.127525631843515e-03 -1.935355479730624e-18
 1.085769682825376e-01 -1.763638167461747e-02 -1.751049250970787e-18
 1.099315004555146e-01 -3.881392481979801e-03 -1.916482283892988e-18
 7.955515509055719e-02  7.596694872454308e-02 -2.196311683182314e-18
 1.020900588415601e-01 -4.095875835186861e-02 -1.395978011597530e-18
 9.244080014963377e-02  5.962129206663869e-02 -2.257681423312661e-18
 9.964714299560545e-02 -4.658805525897517e-02 -1.294664429345542e-18
 2.281923054909668e-02 -1.076070755905351e-01  6.995281837307233e-19
 9.093113119565160e-02  6.189934878073563e-02 -2.254221268662637e-18
 1.087677869661189e-01  1.641854191129477e-02 -2.104347065725984e-18
 1.043080262972749e-01  3.492614565002791e-02 -2.215139209960428e-18
 1.094901994286548e-01  1.057810139265823e-02 -2.057194852557838e-18
 1.094040238618251e-01 -1.143501477223171e-02 -1.829484483694340e-18
 1.067251141503407e-01  2.664113378962520e-02 -2.173028684355045e-18
 1.042952909635184e-01 -3.496415711603804e-02 -1.496815097734607e-18
 7.951567920279365e-02 -7.600826771423208e-02 -6.341190220183911e-19
 1.048049680096772e-01 -3.340536903688551e-02 -1.521901389985890e-18
 1.019639946514905e-01 -4.127158580319851e-02 -1.390520360539298e-18
 1.014521569112714e-01  4.251423124144105e-02 -2.242280430549167e-18
 7.416009282202643e-02  8.124211120243240e-02 -2.154500492795025e-18
 4.927729141631572e-02 -9.834504842985974e-02  1.335114658351498e-19
 9.097649603474219e-02 -6.183265455437362e-02 -9.837272041222271e-19
 6.368775939672805e-02  8.968762067880069e-02 -2.054907369497644e-18
 1.061789275258859e-01  2.874083070220192e-02 -2.184882264874686e-18
 9.503671809756646e-02  5.538973021457724e-02 -2.260401118894777e-18
-2.335343325186476e-02 -1.074924051054337e-01  1.520047615237972e-18
 1.031062068841513e-01 -3.832897209634706e-02 -1.441081676569945e-18
 9.785037291595532e-02 -5.025240810357685e-02 -1.225038868189689e-18
 9.342636985504467e-02  5.806473469937119e-02 -2.259227750354711e-18
 1.099615593791415e-01  2.907827179787016e-03 -1.986773983989559e-18
 1.051093306533631e-01  3.243499051336311e-02 -2.203803662743735e-18
 7.903511558475272e-02  7.650784603231710e-02 -2.192614483195780e-18
 1.067361736040064e-01 -2.659679011413557e-02 -1.626225172231380e-18
 1.064428755404532e-01 -2.774732864042166e-02 -1.609184217932055e-18
 1.020595903324125e-01 -4.103461978841891e-02 -1.394656339430835e-18
 7.797536199148460e-02 -7.758764671194057e-02 -5.904796944280973e-19
 3.926737182674029e-02  1.027524866357038e-01 -1.754554194611488e-18
 9.776980573566138e-02  5.040897823216619e-02 -2.257864256305295e-18
 1.045637342265947e-01 -3.415297182662173e-02 -1.509926999980068e-18
 9.954805285486416e-02 -4.679941423570536e-02 -1.290729365386828e-18
 7.405333117369975e-02 -8.133943780281687e-02 -4.821341871177091e-19
 9.946913811055676e-02  4.696690923983554e-02 -2.252739894462753e-18
 1.022753485564993e-01 -4.049386469141399e-02 -1.404052076575028e-18
 1.019913600543745e-01  4.120391333670768e-02 -2.238413153195413e-18
 8.797878902200018e-02  6.602827184034384e-02 -2.244104002518934e-18
 1.077332772941454e-01  2.221578185576083e-02 -2.145501266563092e-18
 1.099781877754088e-01  2.190482512341899e-03 -1.979699450269039e-18
 1.070538236127090e-01 -2.528791905038760e-02 -1.645326307747424e-18
-1.461933178774215e-03 -1.099902848045261e-01  1.156127064810616e-18
 1.028936872169888e-01  3.889587549975511e-02 -2.230756891058478e-18
 1.089526884296710e-01  1.514304077611194e-02 -2.094532297017474e-18
 1.004550883716650e-01  4.481936211327566e-02 -2.248220788860354e-18
 9.685686437077839e-02 -5.214161317278741e-02 -1.187947302736484e-18
 1.596171440138458e-02  1.088357646794866e-01 -1.402305692751496e-18
 8.306454346983368e-02 -7.211297815336762e-02 -7.372979800793334e-19
 9.658994787610185e-02 -5.263441810537942e-02 -1.178133813663769e-18
 1.009818400488841e-01  4.361958253286635e-02 -2.245267663945563e-18
 9.180656897077021e-02  6.059334859384471e-02 -2.256382050643115e-18
 4.471059791147308e-02 -1.005035443872431e-01  2.369589859451979e-19
 8.707865237999853e-02 -6.721092396094061e-02 -8.591006623890480e-19
 9.247993914255363e-02 -5.956056460603394e-02 -1.033827666431388e-18
 1.064561649749150e-01  2.769629828756261e-02 -2.179083844869335e-18
 8.836967589636982e-02  6.550420125435097e-02 -2.245675665823884e-18
 8.038157077240109e-02  7.509196415170825e-02 -2.202028587396063e-18
 7.578937341894114e-02 -7.972434306260705e-02 -5.296236414357927e-19
 1.098402120530770e-01  5.926872373777121e-03 -2.015634056209265e-18
 1.080062838413017e-01  2.084808506295286e-02 -2.136307156022820e-18
 7.966875895483126e-02  7.584780053895405e-02 -2.197109195134871e-18
 6.174717765608812e-02 -9.103453219250074e-02 -1.635179330574368e-19
 7.547623921096158e-02  8.002085549761180e-02 -2.165374929022656e-18
 8.040095662570593e-02  7.507120735455984e-02 -2.202160313229556e-18
 7.187512424768558e-02 -8.327044202104203e-02 -4.235300297464345e-19
 1.078713766045074e-01 -2.153522949607207e-02 -1.698433160374637e-18
 1.046328680047963e-01  3.394057944541978e-02 -2.210793820906691e-18
 1.099582716449498e-01  3.029603415530225e-03 -1.987966681422301e-18
-5.072569930243657e-03 -1.098829788197551e-01  1.219280122714111e-18
 1.057382798247278e-01  3.032187625638508e-02 -2.193285082129509e-18
 1.095189638425411e-01 -1.027601862863863e-02 -1.843438242101774e-18
 1.099060277285600e-01  4.545884834546106e-03 -2.002616179369998e-18
 1.098618791995697e-01 -5.510671351034547e-03 -1.898503042087154e-18
 9.045042613218129e-02  6.259968380516620e-02 -2.252862236616737e-18
 1.072648499352921e-01 -2.437728385934783e-02 -1.658438218659276e-18
 7.029361068127433e-02  8.460974114952366e-02 -2.120293005336077e-18
 1.094162149951013e-01 -1.131776904454829e-02 -1.830906096713022e-18
 1.080768074464375e-02  1.094677762490945e-01 -1.317077205161872e-18
 8.946522496317745e-02 -6.399979314254077e-02 -9.345657709604830e-19
 9.212178649479714e-02 -6.011303064234058e-02 -1.021777525016700e-18
 6.649266604647756e-02  8.762833652438902e-02 -2.083665632536240e-18
 9.212178649494779e-02 -6.011303064210973e-02 -1.021777525021753e-18
 1.082708659081285e-01 -1.942728996808402e-02 -1.727200861956515e-18
 1.099917121308306e-01  1.350282388407470e-03 -1.971307381253487e-18
 9.010420056710831e-02  6.309701292582932e-02 -2.251810615742809e-18
 1.017700646666205e-01 -4.174750217380495e-02 -1.382179277309320e-18
 1.084079775437388e-01  1.864699452663101e-02 -2.120840368947902e-18
 4.137386525694287e-02 -1.019225356518386e-01  3.109197434960658e-19
 8.655915271517844e-02  6.787866440370184e-02 -2.237851992429289e-18
 8.866237371982617e-02  6.510747642449242e-02 -2.246808369226896e-18
 2.193172930254298e-02 -1.077914618594625e-01  7.172168289939166e-19
 1.099591037721298e-01  2.999249511117880e-03 -1.987669614776937e-18
 8.317365452492187e-02 -7.198710435188306e-02 -7.405330490409026e-19
 9.059809281817664e-02  6.238578025246625e-02 -2.253292360138285e-18
 3.019648629936799e-02  1.057741566507247e-01 -1.624173528225895e-18
 7.976114190781890e-02  7.575064515606940e-02 -2.197755023716297e-18
 1.003217598828539e-01 -4.511700892132554e-02 -1.321784508296508e-18
 1.029001826227162e-01  3.887868845796651e-02 -2.230695893940582e-18
 8.042616242298511e-02 -7.504420296006602e-02 -6.602275721172611e-19
 1.093301755507679e-01  1.212075550608299e-02 -2.070197247380706e-18
 9.613950802521400e-02 -5.345273610087489e-02 -1.161709779080958e-18
 2.209042150907670e-02  1.077590519518026e-01 -1.500310514181373e-18
 1.086092299127094e-01  1.743660453666949e-02 -2.111985577469510e-18
 8.893449450521131e-02 -6.473527390150209e-02 -9.175639917635970e-19
 1.096856707886348e-01  8.309851000299878e-03 -2.037368049784465e-18
 8.713476082638889e-02 -6.713816690771326e-02 -8.608467314124934e-19
 1.099748017163654e-01  2.354354995764039e-03 -1.981322921546292e-18
 1.049217031628845e-01 -3.303689158198041e-02 -1.527764803275759e-18
 1.022175684586918e-02  1.095240415935419e-01 -1.307228096442457e-18
 1.062222164688472e-01  2.858042561693802e-02 -2.184004539271103e-18
 7.370456374397050e-02  8.165560166523148e-02 -2.150642273772251e-18
 1.007018414294707e-01 -4.426216366959156e-02 -1.337331737216934e-18
 1.065607982477633e-01  2.729095595246636e-02 -2.176781173526936e-18
 1.098974821527537e-01 -4.747990784020486e-03 -1.906972904873805e-18
 2.176687032967673e-02  1.078248735498957e-01 -1.495228828007434e-18
 8.233435468748129e-02 -7.294555530116963e-02 -7.157489719544984e-19
 8.806378185383841e-02 -6.591487180901992e-02 -8.899486815232541e-19
 3.992350610107206e-02  1.024993349275869e-01 -1.763629844850400e-18
 6.572771144307837e-02  8.820355972666516e-02 -2.075962562339097e-18
 6.374884969633639e-02 -8.964420874989010e-02 -2.134251430025178e-19
 6.985453459532538e-02 -8.497260733007111e-02 -3.700820964338717e-19
 8.438607384660014e-02  7.056196242137909e-02 -2.226749374186731e-18
 9.228912282304282e-02  5.985580847798544e-02 -2.257391715292184e-18
 9.493157753751634e-02  5.556973624409689e-02 -2.260379513774750e-18
 8.532692503183777e-02 -6.942129258816131e-02 -8.052158500116114e-19
 1.004290596499012e-01  4.487765566333153e-02 -2.248356521758825e-18
 7.137114122483143e-02 -8.370280879555429e-02 -4.101186391404211e-19
 1.098906989388628e-01 -4.902477611186854e-03 -1.905264893462823e-18
 1.093413019764616e-01 -1.201997013690896e-02 -1.822358069052444e-18
 1.098864720435899e-01 -4.996324830643855e-03 -1.904225424731512e-18
 9.636662913466075e-02 -5.304217934081064e-02 -1.169969991709543e-18
-6.643333078229511e-03  1.097992082194206e-01 -1.009920940956378e-18
 1.069323894374366e-01 -2.579659065071146e-02 -1.637938825839060e-18
 1.099852158158290e-01 -1.803413969524260e-03 -1.938788687149019e-18
-1.257378912853012e-02 -1.092789999357206e-01  1.346567602500594e-18
 9.937653584681694e-02  4.716252880292022e-02 -2.253101846667219e-18
 9.548231518232179e-02  5.461801431234677e-02 -2.260401949992371e-18
 1.096079407197146e-01 -9.278972528438055e-03 -1.855265978247724e-18
 6.416937055136188e-02  8.934367287638212e-02 -2.059944275757495e-18
 8.886376823074364e-02 -6.483232755217606e-02 -9.153081423402338e-19
 1.086054477007966e-01 -1.746014689827931e-02 -1.753366824495999e-18
 5.826181204743426e-02  9.330359723477658e-02 -1.995499009644319e-18
 1.097158958492474e-01 -7.900771987410633e-03 -1.871347678449462e-18
 1.031657101289621e-01 -3.816852438314762e-02 -1.443789149756445e-18
 3.049700854275271e-02 -1.056879012467521e-01  5.431741467473676e-19
 7.560881746105191e-02  7.989559889093575e-02 -2.166447350996626e-18
 1.082770238633060e-01  1.939293952202768e-02 -2.126174205844585e-18
 1.077652214181290e-01  2.206030490953377e-02 -2.144472281211563e-18
 1.099892571079978e-01 -1.537309607953201e-03 -1.941594732410819e-18
 4.866224527338297e-02 -9.865082810069606e-02  1.475987206390555e-19
 1.094983823645164e-01  1.049305768373144e-02 -2.056466684447183e-18
 9.287920027256721e-02 -5.893601748276107e-02 -1.047349989307391e-18
 9.337193732676294e-02 -5.815222540751999e-02 -1.064172011788664e-18
 9.077530940724635e-02  6.212763637881820e-02 -2.253793806206941e-18
 9.653349951034366e-02  5.273787512107828e-02 -2.259791281818163e-18
 1.091020464016533e-01 -1.402652740244232e-02 -1.797483583725940e-18
 8.312061065430948e-02 -7.204834546646198e-02 -7.389598398851851e-19
 1.086457474523057e-01  1.720760182389688e-02 -2.110282530962732e-18
 1.098819040586404e-01  5.095798313091832e-03 -2.007837031112219e-18
 7.717248346245280e-03 -1.097289573356201e-01  9.900875354386261e-19
 7.418704494953030e-02  8.121750034109851e-02 -2.154727270393835e-18
 9.285244529356246e-02  5.897816039014744e-02 -2.258399195332396e-18
 1.075879869098443e-01  2.290906092984038e-02 -2.150038841503490e-18
 1.076197813229587e-01 -2.275923258808426e-02 -1.681379535100703e-18
 7.802501495234065e-02 -7.753771367332792e-02 -5.918763719272246e-19
 1.094014923916770e-01  1.145920863209261e-02 -2.064669261825325e-18
 9.056790510753761e-02  6.242959686264223e-02 -2.253205333570493e-18
 1.094891598461489e-01  1.058885622644947e-02 -2.057286853957368e-18
 1.092859057957554e-01 -1.251362435113258e-02 -1.816300110217147e-18
 1.073336810892404e-01 -2.407240959757036e-02 -1.662795623436210e-18
 1.069154852155026e-01 -2.586656183441477e-02 -1.636919066551641e-18
 3.255349330332131e-02 -1.050726894761459e-01  5.002554699151178e-19
 1.002941028383285e-01  4.517845654573378e-02 -2.249045424108889e-18
 8.569443719163904e-02  6.896711850155980e-02 -2.233646818669095e-18
 5.181342590408002e-02 -9.703282380762900e-02  7.489529611496843e-20
 1.073124770959303e-01 -2.416675939250866e-02 -1.661448863213811e-18
 1.056718322223154e-01  3.055264104425015e-02 -2.194473592148068e-18
 1.063485476731686e-01  2.810669684982104e-02 -2.181385362755323e-18
 1.072309934485966e-01  2.452578325002053e-02 -2.160296951554179e-18
 1.097903009159477e-01 -6.788948724627917e-03 -1.884095385496424e-18
 1.015254665568798e-01 -4.233886678228223e-02 -1.371750305653068e-18
 1.099179991731567e-01  4.246581892521861e-03 -1.999753996505563e-18
 1.017511032624537e-01  4.179369551587241e-02 -2.240197294634403e-18
 1.099682502518198e-01 -2.642713861376453e-03 -1.929863263205116e-18
 1.083128401083979e-01 -1.919189067425612e-02 -1.730366485149187e-18
 1.022201456692224e-01  4.063301390941745e-02 -2.236618881893043e-18
 1.098696089882462e-01 -5.354345970319235e-03 -1.900246789395380e-18
 1.021296996322144e-01 -4.085981464756830e-02 -1.397700077370733e-18
 1.099325238854453e-01  3.852296999968002e-03 -1.995961347047893e-18
 9.885268302897549e-02  4.825087624046705e-02 -2.254961635454722e-18
 1.095795013207924e-01  9.609000483215476e-03 -2.048826926453736e-18
 1.090647802069126e-01 -1.431341043978741e-02 -1.793872768345498e-18
 1.074086600294848e-01 -2.373562197774743e-02 -1.667590333564332e-18
 1.068086395656426e-01 -2.630426798328755e-02 -1.630520349088753e-18
 3.117268124724031e-02 -1.054905869917213e-01  5.291224127076258e-19
 1.001608709553348e-01  4.547306817742489e-02 -2.249701431317909e-18
 8.601161567398899e-02  6.857114531018116e-02 -2.235222907411037e-18
 5.233857751428348e-02 -9.675057262766612e-02  6.264956844755645e-20
 1.075101479803255e-01 -2.327161535537387e-02 -1.674163932193287e-18
 1.057149309433208e-01  3.040318035418132e-02 -2.193704931002717e-18
 1.063970577948403e-01  2.792250154626868e-02 -2.180356118404331e-18
 1.071601085242254e-01  2.483366950485172e-02 -2.162198889192501e-18
 1.098050664590062e-01 -6.545791008976789e-03 -1.886856513144189e-18
 1.018042257152598e-01 -4.166412877423922e-02 -1.383643845311995e-18
 1.099201231330439e-01  4.191244494948277e-03 -1.999223223247734e-18
 9.920096821362387e-02  4.753070487042613e-02 -2.253760286555667e-18
 1.095933436758691e-01  9.449815974017405e-03 -2.047437704669263e-18
 1.089939978372358e-01 -1.484279068964425e-02 -1.787173921886281e-18
 1.074467773108914e-01 -2.356247112472886e-02 -1.670047738168907e-18
 1.067655629936686e-01 -2.647856791151932e-02 -1.627962881662486e-18
 2.997989952760098e-02 -1.058357483287897e-01  5.538957935612672e-19
 9.984665063556487e-02  4.615892499679143e-02 -2.251156435578834e-18
 8.593234961787090e-02  6.867045426638707e-02 -2.234832636839350e-18
 5.277029348574221e-02 -9.651578174282480e-02  5.255427671707487e-20
 1.075780897916218e-01 -2.295549164765844e-02 -1.678621094027292e-18
 1.057366526623359e-01  3.032754991364307e-02 -2.193314419601044e-18
 1.064354002524788e-01  2.777598914700605e-02 -2.179533106495894e-18
 1.071519771130917e-01  2.486873138612923e-02 -2.162414429125024e-18
 1.098054082133858e-01 -6.540055587812594e-03 -1.886921524439980e-18
 1.017792498049079e-01 -4.172510406398175e-02 -1.382572870243416e-18
 1.099215755759139e-01  4.152977595484306e-03 -1.998855892710424e-18
 9.918503990119884e-02  4.756393444404655e-02 -2.253818245033680e-18
 1.095910052877203e-01  9.476896117760703e-03 -2.047674328902344e-18
 1.090025838483028e-01 -1.477960467650163e-02 -1.787975933526349e-18
 1.074562309283484e-01 -2.351932045517963e-02 -1.670659334022450e-18
 1.069743303286726e-01 -2.562211253452797e-02 -1.640477913288378e-18
 2.835269167609668e-02 -1.062832295083291e-01  5.874516048452066e-19
 1.008941252668293e-01  4.382208902644087e-02 -2.245787355425572e-18
 8.711730925734920e-02  6.716081020773453e-02 -2.240409362802806e-18
 5.278264769758077e-02 -9.650902601328556e-02  5.226500611391865e-20
 1.076365771144232e-01 -2.267966637961819e-02 -1.682495950132419e-18
 1.057535045047083e-01  3.026873444616756e-02 -2.193010010675334e-18
 1.064474062904540e-01  2.772994219314168e-02 -2.179273652539570e-18
 1.071585075972260e-01  2.484057667477201e-02 -2.162241367448646e-18
 1.098076331642825e-01 -6.502591703184281e-03 -1.887346047900202e-18
 1.018334077532698e-01 -4.159275255806288e-02 -1.384896539180248e-18
 1.099201051182801e-01  4.191716925821597e-03 -1.999227756709127e-18
 9.925804061977797e-02  4.741140550882734e-02 -2.253550200499234e-18
 1.095938104337899e-01  9.444401230489849e-03 -2.047390376660509e-18
 1.090019525985774e-01 -1.478425952482716e-02 -1.787916872808931e-18
 1.082848793289537e-01 -1.934902862455627e-02 -1.728254354370549e-18
 1.052410004517304e-01 -3.200518432877465e-02 -1.544047496639275e-18
 3.164498405436274e-02 -1.053498694076034e-01  5.192713988135689e-19
 9.880927672452831e-02  4.833970245228611e-02 -2.255101825548586e-18
 8.480222564558984e-02  7.006127693351319e-02 -2.229010930350503e-18
 5.274272256288900e-02 -9.653085111327928e-02  5.319976648418277e-20
 1.075998418698720e-01 -2.285331550516257e-02 -1.680058020953043e-18
 1.057073019692800e-01  3.042969454949264e-02 -2.193841588034466e-18
 1.064156795154911e-01  2.785144795618782e-02 -2.179957464309764e-18
 1.071356694748238e-01  2.493889183947972e-02 -2.162845088420480e-18
 1.098034152490535e-01 -6.573431344730957e-03 -1.886543133484516e-18
 1.017579177963037e-01 -4.177710097362741e-02 -1.381658992346945e-18
 1.099219512847328e-01  4.143021331926488e-03 -1.998760281905786e-18
 9.919227163887454e-02  4.754885116508805e-02 -2.253791967219973e-18
 1.095917975316823e-01  9.467730127897865e-03 -2.047594250612573e-18
 1.090026799292402e-01 -1.477889604278996e-02 -1.787984924355198e-18
 1.074513573675615e-01 -2.354157598523383e-02 -1.670343935708347e-18
 1.067866668407602e-01 -2.639332841913756e-02 -1.629214254614209e-18
 2.965597877184155e-02 -1.059269697625872e-01  5.605976168907971e-19
 9.997916664467123e-02  4.587119179874254e-02 -2.250558361947001e-18
 8.622812196672255e-02  6.829868946101368e-02 -2.236276510273519e-18
 5.307423066390193e-02 -9.634898047947833e-02  4.543152969558301e-20
 1.076031729603026e-01 -2.283762616550085e-02 -1.680278503946259e-18
 1.057585344776285e-01  3.025115510429689e-02 -2.192918903691771e-18
 1.064549681828336e-01  2.770089798529716e-02 -2.179109806749946e-18
 1.071813705615548e-01  2.474174214857641e-02 -2.161632752317909e-18
 1.098059776503537e-01 -6.530487902904883e-03 -1.887029962736834e-18
 1.017742477946646e-01 -4.173730328890656e-02 -1.382358510900048e-18
 1.099199043374896e-01  4.196978727263346e-03 -1.999278246673812e-18
 9.921177436888128e-02  4.750814484462811e-02 -2.253720798908859e-18
 1.095944115433773e-01  9.437423295625585e-03 -2.047329378376799e-18
 1.089990961956334e-01 -1.480530406763120e-02 -1.787649814678871e-18
 1.074435257551087e-01 -2.357729359598503e-02 -1.669837577347580e-18
 1.066928736238417e-01 -2.676995924328061e-02 -1.623675347539698e-18
 3.069707283550776e-02 -1.056299660102733e-01  5.390185005038611e-19
 9.949489837584956e-02  4.691231391840889e-02 -2.252637382016856e-18
 8.535838748260857e-02  6.938260362921546e-02 -2.231935371995075e-18
 5.270873134710283e-02 -9.654941553307769e-02  5.399542338479273e-20
 1.076423641839673e-01 -2.265218384364111e-02 -1.682881311011565e-18
 1.057104961698780e-01  3.041859627790491e-02 -2.193784401935410e-18
 1.064245282998020e-01  2.781761629192197e-02 -2.179767330921534e-18
 1.071302437123047e-01  2.496218904948353e-02 -2.162987900873948e-18
 1.098035570210285e-01 -6.571062739748190e-03 -1.886569993041674e-18
 1.018077548458385e-01 -4.165550447719504e-02 -1.383795261919509e-18
 1.099219911770529e-01  4.141962780116926e-03 -1.998750115601906e-18
 9.920878454831936e-02  4.751438801505407e-02 -2.253731737793735e-18
 1.095898328916760e-01  9.490443971411359e-03 -2.047792663990962e-18
 1.089956893281657e-01 -1.483036438790193e-02 -1.787331699721341e-18
 1.074587265178359e-01 -2.350791558528579e-02 -1.670820926909323e-18
 1.067463614926010e-01 -2.655587144288292e-02 -1.626826902344011e-18
 2.978607289460943e-02 -1.058904616172626e-01  5.579073288634133e-19
 9.968631218982706e-02  4.650418434928515e-02 -2.251850436102319e-18
 8.558524423766806e-02  6.910257570292641e-02 -2.233095373339420e-18
 5.294067281970343e-02 -9.642243080008447e-02  4.856302620848319e-20
 1.077241655272220e-01 -2.225992276409882e-02 -1.688367403586006e-18
 1.057129422955256e-01  3.041009423238986e-02 -2.193740578230036e-18
 1.064418270620555e-01  2.775135044806718e-02 -2.179394325557426e-18
 1.071763526094255e-01  2.476346989700863e-02 -2.161766696596209e-18
 1.097968068678192e-01 -6.682903682590345e-03 -1.885300740954358e-18
 1.018430703758093e-01 -4.156908726960357e-02 -1.385311649316327e-18
 1.099292504954506e-01  3.944602072255059e-03 -1.996851494254250e-18
 9.915370593997654e-02  4.762922000588107e-02 -2.253931405248698e-18
 1.096559502545295e-01  8.693248746937056e-03 -2.040778409997369e-18
 1.091473807117981e-01 -1.366928248862330e-02 -1.801960923564305e-18
 1.070066310936373e-01 -2.548687705448017e-02 -1.642442239360977e-18
 1.088467120758721e-01 -1.588688988670115e-02 -1.773825056115656e-18
 3.883573580463626e-02  1.029164011443874e-01 -1.748556878755327e-18
 1.013231095785558e-01 -4.282087651288721e-02 -1.363196646962054e-18
 1.060745204247402e-01  2.912380669935398e-02 -2.186959155214996e-18
 1.099997259021358e-01  2.455635456657407e-04 -1.960099411076669e-18
 1.010854268608313e-01 -4.337898657603124e-02 -1.353232421328579e-18
 7.785220638317220e-02  7.771122159168474e-02 -2.183927449649011e-18
 1.071471590059024e-01 -2.488948205495313e-02 -1.651081117791095e-18
 9.379656484912273e-02  5.746481029729652e-02 -2.259651806562988e-18
 1.086653777487020e-01 -1.708319872658108e-02 -1.758306356715319e-18
 9.931895475242926e-02  4.728366765475028e-02 -2.253321780103643e-18
 7.961992999563272e-02 -7.589905630171240e-02 -6.370963968220624e-19
 8.616466132469155e-02 -6.837873308859391e-02 -8.308362867569312e-19
 7.853355906104530e-02  7.702259474469342e-02 -2.188977542604289e-18
 1.061093408496266e-01  2.899668574954238e-02 -2.186272704631253e-18
 9.806656154650305e-02  4.982920334950079e-02 -2.257188403638636e-18
 6.792274788182617e-02 -8.652456483670889e-02 -3.197578479496854e-19
 1.099918914650336e-01  1.335594228886091e-03 -1.971159657216253e-18
 1.047311849167023e-01  3.363597636376066e-02 -2.209413801620269e-18
 1.065329648234115e-01  2.739940521131321e-02 -2.177400121277818e-18
 1.076988787630721e-01  2.238194614364588e-02 -2.146596381365869e-18
 1.097005155757845e-01  8.111527748028070e-03 -2.035594531107377e-18
 1.076130899638102e-01  2.279085054228671e-02 -2.149271011503165e-18
-5.540591331826855e-02 -9.502728434175352e-02  1.962385143977387e-18
 1.094991542389306e-01 -1.048499980728939e-02 -1.840938500882031e-18
 8.846616953628021e-02  6.537382387147091e-02 -2.246053305001156e-18
 1.096552979636229e-01 -8.701472778159232e-03 -1.862042357037787e-18
 1.096962972594165e-01 -8.168376067107118e-03 -1.868249363459415e-18
 1.056192129493307e-01 -3.073405043211659e-02 -1.563838678203791e-18
 1.098411374657433e-01 -5.909697135356752e-03 -1.894034073212838e-18
 1.097273093675281e-01  7.740644608993513e-03 -2.032260669069919e-18
 7.111174181076581e-02 -8.392329936697521e-02 -4.032368566208798e-19
 8.738971884929127e-02  6.680596559770539e-02 -2.241611316970200e-18
 1.032420132778611e-01  3.796164767675274e-02 -2.227356917307004e-18
 1.085145503328421e-01  1.801644709872156e-02 -2.116258313092724e-18
 9.948090540179320e-02 -4.694197972433020e-02 -1.288069587757402e-18
 8.029080210827239e-02 -7.518900914901200e-02 -6.563308428658528e-19
 9.619614745218968e-03  1.095785700406495e-01 -1.297072519485692e-18
 8.065595564273514e-02 -7.479717119889698e-02 -6.668551781764157e-19
 1.098550950122727e-01 -5.644297993950830e-03 -1.897009344168509e-18
 1.019803534607031e-01 -4.123114730431379e-02 -1.391226975948618e-18
 5.818943019985415e-02  9.334875581932664e-02 -1.994674876377865e-18
 1.094321631136562e-01  1.116251209477992e-02 -2.062166634768798e-18
 9.953508567459760e-02 -4.682698708811496e-02 -1.290215297904094e-18
 1.096499878788033e-01  8.768133106782955e-03 -2.041441712003210e-18
 4.430871094924057e-02  1.006813693491334e-01 -1.822990860081611e-18
 1.094558654211479e-01  1.092764956006269e-02 -2.060175318378379e-18
 8.047979135787249e-02 -7.498668670499634e-02 -6.617729216113193e-19
 1.052137049052166e-01  3.209480176162432e-02 -2.202165811214324e-18
 1.073451182916029e-01  2.402135672608296e-02 -2.157145139978808e-18
 7.981411632853062e-02 -7.569482700089714e-02 -6.426505561250273e-19
 3.750216759250381e-02 -1.034098033353885e-01  3.951023569295083e-19
 1.099916655186772e-01  1.354074011048767e-03 -1.971345509279868e-18
 5.601872795840109e-02  9.466732339050586e-02 -1.969592443479772e-18
 6.966477735129556e-02  8.512824911035340e-02 -2.114429647067947e-18
 6.447095243269330e-02 -8.912629405748540e-02 -2.315972078721541e-19
 1.080025996761270e-01  2.086716231781940e-02 -2.136437603772436e-18
 2.402772456662055e-03 -1.099737545258934e-01  1.087180175432301e-18
 3.770721480246751e-02 -1.033352115778574e-01  3.906868940274615e-19
 9.411545816390200e-02  5.694102681370242e-02 -2.259945208470851e-18
 1.055130448513799e-01  3.109658126210429e-02 -2.197236569614344e-18
 8.983005463985000e-03 -1.096325937521957e-01  9.665717768651560e-19
 1.097726890219008e-01 -7.068008552699546e-03 -1.880914722474661e-18
 1.086081209901007e-01  1.744351039784197e-02 -2.112036798083762e-18
 4.325636811377754e-02 -1.011379583420851e-01  2.693571127848140e-19
 1.013007141173146e-01  4.287383023852729e-02 -2.243280074446217e-18
 8.410775084895200e-02  7.089348522347157e-02 -2.225202560806627e-18
 1.098129055179281e-01  6.412938617401309e-03 -2.020142257923129e-18
 1.072825944290438e-01 -2.429907266899837e-02 -1.659557594660934e-18
 1.087440630871434e-01 -1.657494323668509e-02 -1.764928796696130e-18
 1.000263589191847e-01 -4.576819333740853e-02 -1.309836812462438e-18
 1.074928612012802e-01 -2.335133381120401e-02 -1.673037215165542e-18
 9.740748501197621e-02  5.110559522832690e-02 -2.258573813410006e-18
 1.097535445247722e-01  7.359311397734268e-03 -2.028809494769281e-18
 1.097535445247722e-01  7.359311397734268e-03 -2.028809494769281e-18
 1.099138695116291e-01 -4.352159117097398e-03 -1.911331564055836e-18
 1.091751515018073e-01 -1.344567940110824e-02 -1.804752578394319e-18
 1.098729935813966e-01  5.284437667559905e-03 -2.009616659380734e-18
 9.191995233472601e-02 -6.042120788913161e-02 -1.015019236122949e-18
-1.059253560271929e-01  2.966174220291844e-02  1.580304436971086e-18
-1.084060400896317e-01  1.865825479741188e-02  1.737508004768105e-18
-9.329410648134367e-02  5.827700829527600e-02  1.061504820212802e-18
-7.460565187622098e-02 -8.083314114967999e-02  2.158227728921604e-18
-1.023328123530593e-01  4.034842643664701e-02  1.406569038614277e-18
-1.097771009717258e-01  6.999150108654774e-03  1.881700733882816e-18
-1.091549045766235e-01 -1.360907075696856e-02  2.082369989865446e-18
-9.124667703792765e-02 -6.143324775344449e-02  2.255047764588419e-18
-9.584733340318248e-02  5.397488934216680e-02  1.151145248292486e-18
-8.740947555026482e-02 -6.678011368684258e-02  2.241697292037817e-18
-1.082287589384122e-01  1.966051216654927e-02  1.724055244837134e-18
 8.332756826854709e-02  7.180888779566631e-02 -2.220723710042542e-18
-1.049308731355333e-01  3.300775458910495e-02  1.528227365894542e-18
-1.038905382455956e-01  3.614908108154900e-02  1.477437377016062e-18
-1.055094476251381e-01  3.110878431951658e-02  1.558035018764049e-18
-3.445613797658221e-02 -1.044642262008324e-01  1.686520051406047e-18
-1.098820068973621e-01 -5.093580293665885e-03  2.007816071906084e-18
-8.877685737427576e-02 -6.495128632096102e-02  2.247240945844492e-18
-4.782075475044792e-03  1.098960042683579e-01 -1.044038784433076e-18
-1.099957919022543e-01 -9.621661997363560e-04  1.967392232805431e-18
-4.621683931381450e-02  9.981985656091182e-02 -2.031289794294583e-19
-9.098496178851040e-02  6.182019676726428e-02  9.840058615458376e-19
-1.066831145473988e-01 -2.680882448871148e-02  2.174004212337624e-18
-1.092694766439854e-01  1.265628199549542e-02  1.814541978391619e-18
-1.949227139261604e-02  1.082591860118879e-01 -7.654355881471398e-19
-9.162118247311116e-02 -6.087330221229029e-02  2.255959298510628e-18
-1.091859132674245e-01 -1.335800673597730e-02  2.080342234895458e-18
-5.999221296076725e-02  9.220051184277621e-02  1.203062255670635e-19
-7.883233659987074e-02 -7.671676939369021e-02  2.191152400918494e-18
-1.097024386049976e-01 -8.085478595400514e-03  2.035361108125763e-18
 1.907999172644141e-03  1.099834512058845e-01 -1.163995128514717e-18
-8.563347150263528e-02 -6.904280236496280e-02  2.233339485713446e-18
-1.084373917719438e-01 -1.847517430764702e-02  2.119598439892690e-18
-1.099281981779177e-01 -3.973819995473982e-03  1.997132970555538e-18
-1.097798512939365e-01  6.955878800061495e-03  1.882194276123825e-18
-1.098993076688704e-01  4.705547141717393e-03  1.907441485116757e-18
-1.030682926256018e-01 -3.843080867277295e-02  2.229085809879871e-18
-9.545301756440988e-02 -5.466920008421944e-02  2.260406479145827e-18
-9.938211868432108e-02  4.715076336408027e-02  1.284166384229622e-18
-9.954228388745003e-02  4.681168356799691e-02  1.290500636798024e-18
-1.037655877249885e-01  3.650620226876070e-02  1.471544442988811e-18
-8.856397450203660e-02  6.524126317295352e-02  9.057712903821314e-19
-2.722519120422556e-02 -1.065776194324743e-01  1.579551075926146e-18
-1.082162517734776e-01 -1.972923850784087e-02  2.128548043925929e-18
-4.593510569888257e-02  9.994981773086158e-02 -2.094780689812445e-19
-8.703150458166731e-02 -6.727196451904160e-02  2.240024436417018e-18
-1.095309237618775e-01 -1.014774555602131e-02  2.053497840759817e-18
-5.418921462457602e-02  9.572632353940894e-02 -1.919148624864690e-20
-8.023517694997438e-02 -7.524836463210521e-02  2.201030292821358e-18
-1.093689303764518e-01 -1.176592828087965e-02  2.067241214891813e-18
-2.595900160225680e-04  1.099996936951351e-01 -1.125587178985034e-18
-8.449165370205307e-02 -7.043550563950192e-02  2.227328996159076e-18
-1.082371534542581e-01 -1.961424513253938e-02  2.127738499110431e-18
-1.098556015098898e-01 -5.634431373285896e-03  2.012903204905872e-18
-1.097516727704798e-01  7.387172942437173e-03  1.877261415050287e-18
-1.099176066448897e-01  4.256729902080537e-03  1.912378571317612e-18
-1.029414219159792e-01 -3.876936488925663e-02  2.230306536401842e-18
-9.526689961419380e-02 -5.499288897574930e-02  2.260420073985743e-18
-9.913570183304785e-02  4.766668251587255e-02  1.274480220558584e-18
-9.904976521845810e-02  4.784499984500260e-02  1.271118730213836e-18
-1.024162468625286e-01  4.013617294403601e-02  1.410234682765514e-18
-8.783748657083155e-02  6.621613060968563e-02  8.828261622892404e-19
-3.015481562561888e-02 -1.057860439499696e-01  1.623554086561375e-18
-1.081819310347350e-01 -1.991657092965035e-02  2.129862038022320e-18
-4.596392438173752e-02  9.993656815915725e-02 -2.088290716076006e-19
-8.670383908697003e-02 -6.769375368215873e-02  2.238526968512400e-18
-1.094042630598600e-01 -1.143272602352247e-02  2.064446469987931e-18
-5.391590463544748e-02  9.588052579821045e-02 -2.563973571305424e-20
-8.016169039094215e-02 -7.532664464627836e-02  2.200526810554174e-18
-1.092346638514249e-01 -1.295330896976430e-02  2.077051687156848e-18
-6.863319238692187e-04  1.099978588359348e-01 -1.117973945186999e-18
-8.437928207356082e-02 -7.057008400696733e-02  2.226711952825555e-18
-1.081827774128070e-01 -1.991197306273375e-02  2.129829858917412e-18
-1.098744411979677e-01 -5.254252699889398e-03  2.009332281866918e-18
-1.097593154725864e-01  7.272734491868329e-03  1.878573239558193e-18
-1.099331626459053e-01  3.834025387097611e-03  1.916998544246525e-18
-1.029326758341655e-01 -3.879257977524264e-02  2.230389413963465e-18
-9.540299209652479e-02 -5.475645257894625e-02  2.260412703959253e-18
-9.921014212077729e-02  4.751155333574292e-02  1.277398870246150e-18
-9.908127177747895e-02  4.777971936875851e-02  1.272350160192872e-18
-1.025214955707448e-01  3.986656426051430e-02  1.414877840355477e-18
-8.797686643789701e-02  6.603083349290985e-02  8.872104538437158e-19
-2.975772542148407e-02 -1.058984314224697e-01  1.617642133165236e-18
-1.081475389419607e-01 -2.010248295104496e-02  2.131160168190329e-18
-4.540115758950041e-02  1.001934872610656e-01 -2.214839284087253e-19
-8.697360344068737e-02 -6.734680619407296e-02  2.239762987569401e-18
-1.093920347109529e-01 -1.154914463489134e-02  2.065425010872886e-18
-5.382613709283276e-02  9.593094894591385e-02 -2.775533573784723e-20
-8.013958168943069e-02 -7.535016553825896e-02  2.200375028459197e-18
-1.092817372927306e-01 -1.254997586780836e-02  2.073745314092917e-18
-2.281448693624305e-03  1.099763383271980e-01 -1.089365824135565e-18
-8.392165859578243e-02 -7.111367813953162e-02  2.224153229405320e-18
-1.081717117035103e-01 -1.997200007842495e-02  2.130249687200949e-18
-1.098421065742617e-01 -5.891657095290692e-03  2.015305947279870e-18
-1.097838127631878e-01  6.893072985055332e-03  1.882910082128191e-18
-1.099265506910857e-01  4.019135872315682e-03  1.914978933633222e-18
-1.030314323861893e-01 -3.852952037658994e-02  2.229444064848618e-18
-9.542422921963943e-02 -5.471943418784290e-02  2.260410293376773e-18
-9.928553769734742e-02  4.735379609016125e-02  1.280361522855965e-18
-9.905797066632786e-02  4.782800902681292e-02  1.271439330431111e-18
-1.025145954599889e-01  3.988430415181884e-02  1.414572773715067e-18
-8.790474841162747e-02  6.612681155695049e-02  8.849408877988245e-19
-2.990849394449992e-02 -1.058559492422215e-01  1.619888749906020e-18
-1.081626514751376e-01 -2.002100961160207e-02  2.130592004779257e-18
-4.590104877590837e-02  9.996546264221277e-02 -2.102448983309233e-19
-8.667998238220477e-02 -6.772429884628287e-02  2.238416250458985e-18
-1.093960289705181e-01 -1.151124864997360e-02  2.065106726007875e-18
-5.399876198992316e-02  9.583388598797189e-02 -2.368598314703875e-20
-8.008107001426876e-02 -7.541234796351159e-02  2.199972645234809e-18
-1.092216685645713e-01 -1.306243147239089e-02  2.077941614599348e-18
-7.773897427824785e-04  1.099972529892805e-01 -1.116347237827453e-18
-8.433930742806936e-02 -7.061785342640746e-02  2.226491369757033e-18
-1.081462400125845e-01 -2.010946968819523e-02  2.131208838378796e-18
-1.098580306464266e-01 -5.586868755283041e-03  2.012457745666285e-18
-1.097496626441467e-01  7.416977113079002e-03  1.876919415428084e-18
-1.099248576460082e-01  4.065177917975098e-03  1.914475738583142e-18
-1.029730978219555e-01 -3.868515380543226e-02  2.230005008638265e-18
-9.533954450988814e-02 -5.486685021620093e-02  2.260417874090515e-18
-9.915005860685601e-02  4.763681221762205e-02  1.275042622937377e-18
-9.909037519583003e-02  4.776083692262521e-02  1.272706176655947e-18
-1.024261076775273e-01  4.011100180787738e-02  1.410668792010898e-18
-8.796076629767838e-02  6.605227923641377e-02  8.867035854197043e-19
-2.987516441752398e-02 -1.058653604869216e-01  1.619392308337041e-18
-1.081657206150218e-01 -2.000442160706005e-02  2.130476188063778e-18
-4.604565776772743e-02  9.989893593395924e-02 -2.069878710656012e-19
-8.660800315972725e-02 -6.781632391013713e-02  2.238080818436097e-18
-1.094075531980652e-01 -1.140119744643068e-02  2.064181077245726e-18
-5.420615490387400e-02  9.571673192570448e-02 -1.879146342498878e-20
-8.000531456492666e-02 -7.549271250502988e-02  2.199450203119353e-18
-1.092715725771603e-01 -1.263817338519975e-02  2.074470618305988e-18
 4.637580276969830e-04  1.099990223978909e-01 -1.138453122928482e-18
-8.467820612585959e-02 -7.021112025389141e-02  2.228343440744153e-18
-1.082470695752164e-01 -1.955944601409318e-02  2.127351927276181e-18
-1.098837288502508e-01 -5.056296467231163e-03  2.007463638339290e-18
-1.097776897520579e-01  6.989909348545001e-03  1.881806157384372e-18
-1.099213017593010e-01  4.160218689042382e-03  1.913435947940453e-18
-1.029363083018446e-01 -3.878293997607149e-02  2.230355012624159e-18
-9.532670947730769e-02 -5.488914701677317e-02  2.260418550901653e-18
-9.910858565031862e-02  4.772303689407686e-02  1.273418634977451e-18
-9.912004465976555e-02  4.769923213895645e-02  1.273867146930634e-18
-1.024960668928308e-01  3.993189541582405e-02  1.413754052811708e-18
-8.803981711786676e-02  6.594687711978889e-02  8.891933575189315e-19
-2.964850182517332e-02 -1.059290627709066e-01  1.616013094959958e-18
-1.081715108975151e-01 -1.997308764684923e-02  2.130257287989211e-18
-4.611158543583354e-02  9.986852201066056e-02 -2.055021175568995e-19
-8.655853033110018e-02 -6.787945806295136e-02  2.237849070922685e-18
-1.094094789984315e-01 -1.138270202068646e-02  2.064025315379761e-18
-5.428226709416754e-02  9.567358820028349e-02 -1.699367010299055e-20
-7.995722264358913e-02 -7.554364663638817e-02  2.199117679709822e-18
-1.092368451110717e-01 -1.293490124352251e-02  2.076901372574032e-18
 1.690177015266924e-03  1.099870142410322e-01 -1.160155332288310e-18
-8.500166059539795e-02 -6.981917856881972e-02  2.230072640427155e-18
-1.082836964531577e-01 -1.935564730099087e-02  2.125909788516396e-18
-1.099119765037884e-01 -4.399706925538789e-03  2.001220120008352e-18
-1.097786018143096e-01  6.975570492455957e-03  1.881969715157506e-18
-1.099347282212687e-01  3.788869345299913e-03  1.917490367453175e-18
-1.029359098964040e-01 -3.878399739324664e-02  2.230358787101453e-18
-9.547806415537202e-02 -5.462544521688242e-02  2.260402647741660e-18
-9.920957135906283e-02  4.751274514013043e-02  1.277376467503479e-18
-9.913806645214868e-02  4.766176434133877e-02  1.274572834232805e-18
-1.026041668987829e-01  3.965330925668947e-02  1.418540192946693e-18
-8.810011669170606e-02  6.586629972078088e-02  8.910943638666755e-19
-2.946343610305610e-02 -1.059806866037444e-01  1.613250045809443e-18
-1.081460713833018e-01 -2.011037653446016e-02  2.131215154935504e-18
-4.589864106811915e-02  9.996656815205740e-02 -2.102991050751031e-19
-8.663835623024679e-02 -6.777754222248562e-02  2.238222519780106e-18
-1.094035979592694e-01 -1.143908884336971e-02  2.064500009392061e-18
-5.433736288395886e-02  9.564230755694327e-02 -1.569177755606118e-20
-7.987030122916186e-02 -7.563554046586107e-02  2.198514985171904e-18
-1.092469205399624e-01 -1.284952732730315e-02  2.076203490874298e-18
 6.469299968516548e-04  1.099980976270914e-01 -1.141703384931002e-18
-8.470618253778359e-02 -7.017736558090257e-02  2.228494497362962e-18
-1.082396498184313e-01 -1.960046446345945e-02  2.127641333519991e-18
-1.098571376147708e-01 -5.604401403296749e-03  2.012621994691955e-18
-1.097657661910890e-01  7.174717589085696e-03  1.879695125857993e-18
-1.099181891995578e-01  4.241660416650731e-03  1.912543772061305e-18
-1.030669638167995e-01 -3.843437224134807e-02  2.229098776514741e-18
-9.531360714722557e-02 -5.491189572928908e-02  2.260419114065961e-18
-9.914975863876305e-02  4.763743655860376e-02  1.275030869770567e-18
-9.904781464469230e-02  4.784903775532642e-02  1.271042529365225e-18
-1.023270388635711e-01  4.036306625385590e-02  1.406315873678374e-18
-8.789074318852902e-02  6.614542510081864e-02  8.845004007462764e-19
-3.001548113551265e-02 -1.058256627298108e-01  1.621481531676236e-18
-1.082022398536004e-01 -1.980594079219422e-02  2.129086773205672e-18
-4.625237322825888e-02  9.980339658926350e-02 -2.023274908062837e-19
-8.651983125259674e-02 -6.792877740709126e-02  2.237667113003512e-18
-1.094049036218765e-01 -1.142659457090648e-02  2.064394871104859e-18
-5.433355889892807e-02  9.564446861882123e-02 -1.578167813298537e-20
-7.991698338987864e-02 -7.558621412573742e-02  2.198838939680435e-18
-1.092435819447980e-01 -1.287788041061758e-02  2.076435394222118e-18
 1.907355172364185e-03  1.099834623761519e-01 -1.163983782531984e-18
-8.504910624556510e-02 -6.976137560878903e-02  2.230323087950949e-18
-1.083072094344238e-01 -1.922364129211237e-02  2.124971916278112e-18
-1.099142621901413e-01 -4.342230670617451e-03  2.000670248883631e-18
-1.097903326320860e-01  6.788435794487952e-03  1.884101220093793e-18
-1.099338780616456e-01  3.813457004765495e-03  1.917222608579561e-18
-1.029434032304053e-01 -3.876410364424980e-02  2.230287738874267e-18
-9.556325528987805e-02 -5.447627225133491e-02  2.260386027569135e-18
-9.921340000597524e-02  4.750474985992784e-02  1.277526751441885e-18
-9.909251607060998e-02  4.775639495183724e-02  1.272789915712589e-18
-1.025000829881185e-01  3.992158548240277e-02  1.413931454838523e-18
-8.796503052210994e-02  6.604660025500354e-02  8.868378218509936e-19
-2.977782920989276e-02 -1.058927801483483e-01  1.617941839271983e-18
-1.081707780776307e-01 -1.997705609142502e-02  2.130285020911622e-18
-4.593650248289146e-02  9.994917578269102e-02 -2.094466157594114e-19
-8.667507905815719e-02 -6.773057411732285e-02  2.238393466088971e-18
-1.094013938809669e-01 -1.146014907850270e-02  2.064677171454957e-18
-5.417975876476610e-02  9.573167574106135e-02 -1.941475648099850e-20
-7.998563414166873e-02 -7.551356388725856e-02  2.199314206889508e-18
-1.092636451855212e-01 -1.270652748678804e-02  2.075031854478362e-18
 3.350690859981218e-04  1.099994896747597e-01 -1.136167750805303e-18
-8.462300214999713e-02 -7.027764585642822e-02  2.228044546543209e-18
-1.082411984743297e-01 -1.959191039283137e-02  2.127581003730753e-18
-1.098771639700998e-01 -5.197002779274410e-03  2.008792514707789e-18
-1.097957901614166e-01  6.699586765626146e-03  1.885111234833446e-18
-1.099123369592531e-01  4.390692901532475e-03  1.910908369821363e-18
-1.029360185369850e-01 -3.878370905101052e-02  2.230357757878455e-18
-9.541397213834969e-02 -5.473731744232804e-02  2.260411500323491e-18
-9.910638086485338e-02  4.772761540105046e-02  1.273332355694220e-18
-9.932557083585591e-02  4.726976812013500e-02  1.281937317176038e-18
-1.032521492967733e-01  3.793406998460360e-02  1.447736371630470e-18
-8.809877265789842e-02  6.586809740816787e-02  8.910519745969950e-19
-2.921114353593486e-02 -1.060505025604452e-01  1.609477532225009e-18
-1.081974850002218e-01 -1.983189954660773e-02  2.129268871689531e-18
-4.611667629854201e-02  9.986617128525284e-02 -2.053873667327889e-19
-8.700322450348393e-02 -6.730853531311122e-02  2.239896910315985e-18
-1.095420733728513e-01 -1.002667248776178e-02  2.052452279592855e-18
-5.422738993183644e-02  9.570470302540275e-02 -1.828996819149414e-20
-8.050598537523780e-02 -7.495856401213914e-02  2.202872055687040e-18
-1.095489996045742e-01 -9.950712820545743e-03  2.051795082161606e-18
 7.131103617957116e-03  1.097686082684386e-01 -1.254739069327617e-18
-8.627236847294179e-02 -6.824279037428733e-02  2.236489586821261e-18
-1.084029159611970e-01 -1.867639716619938e-02  2.121052393489324e-18
-1.099349572225488e-01 -3.782218988414612e-03  1.995284625072869e-18
-1.098887853097212e-01  4.945185856362754e-03  1.904792026445092e-18
-1.098138500962228e-01  6.396743471820378e-03  1.888544237745529e-18
-1.024112020848911e-01 -4.014904341983219e-02  2.235046337742377e-18
-9.782926239906044e-02 -5.029349280429575e-02  2.257735787734145e-18
-1.017168488968759e-01  4.187699428672122e-02  1.379901754789219e-18
-1.085024812903477e-01  1.808898985122513e-02  1.745073281498446e-18
-1.079406400789146e-01 -2.118533028664343e-02  2.138604019130291e-18
-1.099548754743317e-01 -3.150453844156876e-03  1.989147936767683e-18
-1.094500848387250e-01  1.098539616016974e-02  1.834923861627130e-18
-1.088923905497956e-01  1.557071868446478e-02  1.777886503293392e-18
-1.075205434528810e-01  2.322353839528128e-02  1.674842905327545e-18
-1.098803705000180e-01  5.128759965014410e-03  1.902756117589711e-18
-1.094737039419804e-01  1.074747157351829e-02  1.837788780440083e-18
-1.039454634061793e-01 -3.599084101927323e-02  2.219626328978285e-18
-9.640320563557142e-02 -5.297567312631044e-02  2.259915835014968e-18
-9.914715866267447e-02  4.764284761764784e-02  1.274929003428712e-18
-1.005381491464241e-01  4.463272976428096e-02  1.330611205774044e-18
-1.059500435469565e-01  2.957343862992597e-02  1.581651067967949e-18
-8.929041296002006e-02  6.424346000511684e-02  9.289511943452346e-19
-2.321264744633729e-02 -1.075228952294906e-01  1.517855438841716e-18
-1.083007031738551e-01 -1.926026199324685e-02  2.125232394011243e-18
-4.926398970449362e-02  9.835171233077497e-02 -1.338166548249793e-19
-8.798238315160836e-02 -6.602348260250704e-02  2.244118756663565e-18
-1.099962603180420e-01 -9.070369592734729e-04  1.966834135904242e-18
-5.011062042608182e-02  9.792306020806905e-02 -1.143456063929066e-19
-6.697358515458346e-02 -8.726132529100003e-02  2.088453254627690e-18
-1.038533632154297e-01 -3.625574366695573e-02  2.220709074696182e-18
-7.464248883496075e-02 -8.079912660742519e-02  2.158533799477937e-18
-1.085036265404666e-01  1.808211900101623e-02  1.745164258080330e-18
-1.091113459277584e-01 -1.395400264558573e-02  2.085138861601890e-18
-1.722460515498025e-02 -1.086430530556602e-01  1.422800298214164e-18
-1.096676576175592e-01  8.544288892457714e-03  1.863877319147879e-18
-9.090310888865380e-02  6.194049397912090e-02  9.813131814039321e-19
-1.032808360304059e-01 -3.785589661942228e-02  2.226961260800262e-18
-9.878603463800531e-02  4.838718177884282e-02  1.260854607534459e-18
-8.854847841912068e-02 -6.526229362854542e-02  2.246372157022586e-18
-8.889201087322274e-02  6.479359847172261e-02  9.162086810846835e-19
-1.045853064489282e-01  3.408685487081105e-02  1.510990231111324e-18
-1.098588406438281e-01 -5.570918451562056e-03  2.012308276959801e-18
-1.038210847456937e-01  3.634807233165797e-02  1.474156806331144e-18
 1.414789992281945e-03 -1.099909013022336e-01  1.104938678792050e-18
-9.504102501215730e-02 -5.538233982632418e-02  2.260401832022812e-18
-1.955408585656789e-02  1.082480379790504e-01 -7.642209840385103e-19
-1.076393507682189e-01 -2.266649876351233e-02  2.148460684489182e-18
-1.094954049700275e-01  1.052408145396327e-02  1.840470228447282e-18
-4.485374179112991e-02  1.004397423699136e-01 -2.337560273078940e-19
-1.084489133832750e-01 -1.840742203533370e-02  2.119107350724250e-18
-9.964283826762692e-02 -4.659726152867261e-02  2.252033100005121e-18
-9.079310241570634e-02  6.210163084598515e-02  9.776998622267533e-19
-1.084875692781666e-01 -1.817820981601274e-02  2.117440206196996e-18
-6.810757642843181e-02 -8.637915276873981e-02  2.099569979821435e-18
-4.587050585358732e-02 -9.997948135860669e-02  1.843573219254060e-18
-8.417620053432848e-02  7.081219713866019e-02  7.704462959640910e-19
-9.078744906348245e-02  6.210989528686673e-02  9.775143399525427e-19
-1.972754301358121e-03 -1.099823087613023e-01  1.165135785069832e-18
-7.157822491609235e-02 -8.352579073472616e-02  2.132017051244174e-18
-6.167864940697227e-02  9.108097610001642e-02  1.618211968429871e-19
-1.045495844540987e-01  3.419626281445457e-02  1.509230388726438e-18
-3.017270819829555e-02  1.057809419507147e-01 -5.499014176506210e-19
-1.081851187971362e-01 -1.989924799708498e-02  2.129740781217566e-18
-1.005040490537254e-01 -4.470946347034738e-02  2.247962933966983e-18
-1.748130682941817e-02 -1.086020437723697e-01  1.426947255227319e-18
-1.099314117983123e-01 -3.883902680277094e-03  1.996266293014550e-18
-4.258415487097426e-02  1.014228265920688e-01 -2.842468670695622e-19
-7.257063595513349e-02  8.266500346015505e-02  4.421281514914413e-19
-1.083491291066430e-01 -1.898594800982962e-02  2.123275714720574e-18
-7.287926027754402e-02 -8.239304231182365e-02  2.143531948882190e-18
-1.060414880816455e-01  2.924385072848995e-02  1.586664828499113e-18
-2.424244996385062e-02  1.072954035350544e-01 -6.709979794190989e-19
-4.368862113330513e-02  1.009519904879072e-01 -2.597539025473867e-19
-1.091203256884657e-01 -1.388360621895943e-02  2.084575369444549e-18
-5.814697696503324e-02 -9.337520586230508e-02  1.994191135007234e-18
-8.225037693533942e-02 -7.304023202314290e-02  2.214205419972910e-18
-1.024507144710636e-01  4.004810987260905e-02  1.411752891041960e-18
-1.097968943812984e-01  6.681465724073318e-03  1.885317072862504e-18
 3.150561359727511e-02  1.053916330258676e-01 -1.643540718790221e-18
-1.015684155247129e-01 -4.223573093719617e-02  2.241487901798742e-18
-9.356263456060820e-02 -5.784490828135216e-02  2.259394106744153e-18
-6.632240610281361e-02  8.775727006199224e-02  2.786122586521996e-19
-8.972137586783767e-02 -6.364019729999401e-02  2.250578815690628e-18
-7.361710322633895e-02  8.173446098533052e-02  4.703122707432054e-19
-9.916057606980397e-02  4.761491524201829e-02  1.275454777206003e-18
-1.075678664934510e-01 -2.300334971361897e-02  2.150649557694174e-18
-3.496445566195346e-02 -1.042951908779271e-01  1.693829394423364e-18
-1.028263180995933e-01 -3.907362673314584e-02  2.231384306604777e-18
-1.099431159871986e-01 -3.537124117889476e-03  1.992911559263260e-18
-1.005919134117128e-01  4.451142500718715e-02  1.332814367319776e-18
-3.298840402391322e-02 -1.049369582175652e-01  1.665257124683757e-18
-8.188017818734983e-02 -7.345499588188542e-02  2.211878839640100e-18
-5.336339802703405e-02  9.618912491029484e-02 -3.864299363493311e-20
-6.515598655640115e-02  8.862673082012013e-02  2.489210380286878e-19
-5.861540158619744e-02 -9.308187093569169e-02  1.999513400087213e-18
-9.432773803522412e-02 -5.658867233959542e-02  2.260102667776494e-18
-1.060093128701337e-01  2.936027221948181e-02  1.584896043702941e-18
-1.099567809770782e-01 -3.083231609663980e-03  1.988491163422524e-18
-1.073555625110676e-01 -2.397463655474697e-02  2.156850974534124e-18
-1.085975832573395e-01 -1.750899513579215e-02  2.112522098453117e-18
-5.458174954515947e-02  9.550305029992211e-02 -9.911807677326190e-21
-1.098101177397569e-01  6.460498586077047e-03  1.887822755371527e-18
 1.348738838020951e-02  1.091700066624591e-01 -1.361706324676244e-18
-1.052286521787845e-01 -3.204576041594838e-02  2.201927933765718e-18
-1.081863844874603e-01  1.989236565950303e-02  1.720918930522023e-18
-6.406766822816116e-02 -8.941663093522499e-02  2.058883979152247e-18
-8.540646757288355e-02  6.932341088493810e-02  8.076371033542897e-19
-6.937519903783933e-02 -8.536440568796891e-02  2.111702678604538e-18
-1.099997803292549e-01 -2.198352010694639e-04  1.959836030277822e-18
-8.187961726437712e-02 -7.345562113711297e-02  2.211875281617032e-18
-7.454277503184810e-02  8.089112862700859e-02  4.954506383267365e-19
-6.434921899111683e-02  8.921422540846974e-02  2.285273533819802e-19
-1.085701834454339e-01 -1.767810132974635e-02  2.113771990828009e-18
-1.091129951321149e-01 -1.394110086395758e-02  2.085035650041276e-18
-1.096920185517800e-01 -8.225634688940666e-03  2.036615723795686e-18
-1.096920185517800e-01 -8.225634688940666e-03  2.036615723795686e-18
-1.098341399066149e-01 -6.038353332996873e-03  2.016671421477986e-18
-8.364972827744296e-02 -7.143334626846150e-02  2.222598378918696e-18
-1.083348740192447e-01 -1.906712016100875e-02  2.123856042802077e-18
-1.085777122443135e-01  1.763180092307655e-02  1.751109556216047e-18
-8.736751201800000e-03 -1.096524928053978e-01  1.282120439166556e-18
-1.085777122443291e-01  1.763180092298127e-02  1.751109556217301e-18
-9.994839012343738e-02  4.593821189089903e-02  1.306702385863338e-18
-1.071634575444094e-01 -2.481921366859799e-02  2.162109960535417e-18
-3.213539218654834e-02  1.052013144833119e-01 -5.090176532399971e-19
-9.787940244440180e-02 -5.019584222947949e-02  2.257624765467634e-18
-3.426964623836273e-02  1.045255535584358e-01 -4.640928585391161e-19
-1.065550183150327e-01  2.731351445499117e-02  1.615637215537436e-18
-1.083962815322696e-01  1.871486441246374e-02  1.736752696369418e-18
-2.111331481204672e-02 -1.079547494909204e-01  1.484932456095775e-18
-1.075237196895091e-01 -2.320882815076680e-02  2.151975128955061e-18
-1.039550751016518e-01  3.596306939917503e-02  1.480497089815592e-18
-1.084130800122338e-01 -1.861730598827174e-02  2.120626134514574e-18
-1.083009432068500e-01  1.925891223580941e-02  1.729466143397065e-18
 3.657926058726871e-02 -1.037398558649888e-01  4.149177578139782e-19
-1.094018903007243e-01  1.145540914276980e-02  1.829236969680960e-18
-7.684767033643537e-02 -7.870473660373001e-02  2.176258538276495e-18
-7.969573661521201e-02  7.581945373951675e-02  6.392633534521079e-19
-1.086964191925478e-01 -1.688456261553399e-02  2.107865184508769e-18
-1.095117204612412e-01 -1.035292623459337e-02  2.055264252054516e-18
-1.097068724851382e-01  8.025093739613708e-03  1.869909736080336e-18
-1.050321041140040e-01  3.268420268853118e-02  1.533353270150342e-18
-8.337975363392927e-02  7.174828697568485e-02  7.466545903145088e-19
-7.279464682601548e-02 -8.246780822524409e-02  2.142794344181736e-18
-1.099786683036641e-01 -2.166222092164283e-03  1.979458734838329e-18
-1.076443454076692e-01 -2.264276709579404e-02  2.148305735791253e-18
-9.646210604269033e-02  5.286834684202570e-02  1.173455182953541e-18
-1.061099473497810e-01  2.899446625524687e-02  1.590445477705073e-18
-7.648371580225778e-02 -7.905846708025287e-02  2.173415985346215e-18
-8.803016714552127e-02  6.595975797659927e-02  8.888892786256591e-19
-1.043252939561914e-01 -3.487453284209285e-02  2.214916205696382e-18
-1.092475898086669e-01  1.284383591444617e-02  1.812225427665329e-18
-9.325893938281693e-02  5.833326859684821e-02  1.060300925584791e-18
-2.995250354677423e-03 -1.099592127805250e-01  1.183095019203715e-18
-1.010900091873352e-01 -4.336830688999107e-02  2.244610896843840e-18
-9.750276397232913e-02  5.092358017418105e-02  1.211956703187091e-18
-1.097231652100287e-01 -7.799167666662555e-03  2.032788222001681e-18
-6.773039058569937e-02 -8.667522247510284e-02  2.095899516505663e-18
-3.948657929205347e-02 -1.026684472260701e-01  1.757591778531997e-18
-9.273628583026899e-02 -5.916063970586032e-02  2.258206907802492e-18
-9.806724746325865e-02  4.982785340529881e-02  1.233260554752487e-18
-9.255546581093498e-02  5.944313037282614e-02  1.036378347672412e-18
-5.406268861602203e-02 -9.579783765621752e-02  1.946398013530592e-18
-7.859974537532760e-02 -7.695505199097478e-02  2.189461429758730e-18
-8.575061329267855e-02  6.889725916122832e-02  8.181401411022836e-19
-8.087249407029302e-02  7.456299150953095e-02  6.731148490286370e-19
-8.480948891278428e-02 -7.005248454089462e-02  2.229049850214038e-18
-9.298235117072147e-02 -5.877314327790028e-02  2.258604549022302e-18
-4.570235566395339e-02  1.000564574965828e-01 -2.147158183407047e-19
-8.219585545960818e-02 -7.310158237181438e-02  2.213865497822473e-18
-9.269980557783837e-02  5.921778487777914e-02  1.041262389099191e-18
-1.051569696081993e-01  3.228020667251404e-02  1.539726312868860e-18
-9.289994110701301e-02  5.890331860187064e-02  1.048055066319497e-18
-8.578336063503614e-02 -6.885648145352248e-02  2.234092561938766e-18
-9.567184837549235e-02  5.428533345588624e-02  1.144832582405637e-18
-9.734348881592041e-02  5.122738706146102e-02  1.206000706386078e-18
-9.238685535752678e-02  5.970484869043204e-02  1.030688662889575e-18
-1.927505248474086e-02 -1.082980717820518e-01  1.455745897044882e-18
-9.410566489033916e-02  5.695721056676799e-02  1.089507912378386e-18
-1.044158899401818e-01 -3.460233992087563e-02  2.213731785912698e-18
-5.823668099031108e-02 -9.331928518389278e-02  1.995212960483586e-18
-9.767985261568220e-02  5.058306429012152e-02  1.218606883843554e-18
-1.082298751703195e-01 -1.965436645168220e-02  2.128021205345157e-18
-1.088167635780351e-01  1.609074157402272e-02  1.771197584839052e-18
-9.930041759070139e-02 -4.732258516091759e-02  2.253391752437018e-18
-3.370702637647736e-02 -1.047083395573410e-01  1.675696892968233e-18
-1.078495355665647e-01  2.164434517550149e-02  1.696923349083987e-18
-1.090728631237697e-01 -1.425168516293332e-02  2.087512593927150e-18
-9.307752511371259e-02 -5.862230222966482e-02  2.258748445891044e-18
-7.779689748456375e-02  7.776659142444296e-02  5.854651137318128e-19
-1.032496813419378e-01  3.794078679716942e-02  1.447623438621202e-18
-1.052446560748194e-01  3.199316126444746e-02  1.544236085431055e-18
-1.095583731382005e-01  9.846972900886031e-03  1.848547866519741e-18
-1.096506589964633e-01  8.759736391084664e-03  1.861361163626319e-18
-1.076882767765452e-01  2.243290094700526e-02  1.685951432466732e-18
-9.186796228277875e-03 -1.096157049653929e-01  1.289751545553791e-18
-9.647241093168112e-02  5.284954048077263e-02  1.173831799275309e-18
-1.071299955255664e-01  2.496325416871942e-02  1.650017691515529e-18
-1.026563525160157e-01  3.951801219833151e-02  1.420859026379678e-18
-1.087651469495931e-01 -1.643602169119339e-02  2.104479681871335e-18
-9.927257754093287e-02  4.738095976633905e-02  1.279851784508194e-18
-9.082240693243178e-02  6.205876569026923e-02  9.786617949608689e-19
-1.293776766215150e-02 -1.092365056559397e-01  1.352608421387907e-18
-8.605196464737243e-02 -6.852050335722390e-02  2.235420637852531e-18
-8.642457694598323e-03  1.096599650054524e-01 -9.729134603254932e-19
-1.099709724481508e-01  2.526899049826007e-03  1.931101663052449e-18
-1.093273764378943e-01 -1.214597716146835e-02  2.070406577174996e-18
-1.052238438848702e-01 -3.206154516071281e-02  2.202004546958280e-18
-1.052238438848702e-01 -3.206154516071281e-02  2.202004546958280e-18
 4.398464973949608e-02  1.008233633008432e-01 -1.818682740571476e-18
-1.099419983121664e-01 -3.571695273614111e-03  1.993246874969208e-18
-1.046011736579128e-01 -3.403813257784767e-02  2.211232105194944e-18
-3.969580171619483e-02 -1.025877347742337e-01  1.760485850017043e-18
-1.075671620369958e-01  2.300664363410389e-02  1.677901053519953e-18
-7.324107168895699e-02  8.207158715324706e-02  4.601564920818058e-19
-9.741368727596275e-02 -5.109377194238945e-02  2.258562710128028e-18
-1.011730113450761e-01 -4.317431847023266e-02  2.244094858706831e-18
-1.017930311659238e-01  4.169147162254189e-02  1.383163687119784e-18
-1.078298299379256e-01  2.174230382360634e-02  1.695566174392931e-18
-1.090656590628550e-01  1.430671217244037e-02  1.793957230899031e-18
-9.953076854940165e-02  4.683616243849828e-02  1.290044196119534e-18
-1.048357024630551e-01  3.330878996718058e-02  1.523440661101933e-18
-8.354584047676029e-02  7.155482191321341e-02  7.515980870348066e-19
-3.177973724726100e-02 -1.053092982622856e-01  1.647573116342308e-18
-1.087968539920973e-01 -1.622481313982465e-02  2.102873855374948e-18
-4.737524060897233e-02  9.927530698638981e-02 -1.769187975321366e-19
-8.688193712475602e-02 -6.746502057696198e-02  2.239346285974140e-18
-1.096482821869260e-01 -8.789437607504865e-03  2.041630253187231e-18
-5.387858497609570e-02  9.590150197454474e-02 -2.651940615950863e-20
-8.082016402937647e-02 -7.461970977070767e-02  2.204981635368663e-18
-1.095549804541498e-01 -9.884647575448550e-03  2.051222722120263e-18
-6.102207279701125e-04  1.099983073990829e-01 -1.119333043530140e-18
-8.445960806256073e-02 -7.047392855459804e-02  2.227153487273552e-18
-1.081547057374672e-01 -2.006388862712936e-02  2.130891167207212e-18
-1.098853565084927e-01 -5.020799239308642e-03  2.007127883337470e-18
-1.099024094203420e-01  4.632537490781441e-03  1.908246832125141e-18
-1.097809605101892e-01  6.938350629671160e-03  1.882394111533437e-18
-1.026425855773056e-01 -3.955375615545852e-02  2.233047722603535e-18
-9.748216579699430e-02 -5.096299982857444e-02  2.258437731130247e-18
-1.016040872809381e-01  4.214984516943658e-02  1.375091583625714e-18
-1.086774221872361e-01  1.700640781403336e-02  1.759309700596641e-18
-1.093261706355882e-01 -1.215682582577441e-02  2.070496584569361e-18
-7.619266501760523e-02  7.933900552385920e-02  5.407598997261638e-19
-9.292594475716187e-02 -5.886228666123039e-02  2.258516645489477e-18
-1.097132589646362e-01  7.937304791845160e-03  1.870925390648174e-18
-1.075789856848646e-01  2.295129275260235e-02  1.678680179637570e-18
-1.097776149708269e-01  6.991083701175793e-03  1.881792760516490e-18
-1.094492555256887e-01  1.099365566463098e-02  1.834824239604512e-18
-1.040917947589690e-01 -3.556540824813668e-02  2.217859302775682e-18
-9.574775981839842e-02 -5.415132952899909e-02  2.260330837309534e-18
-9.903545749416146e-02  4.787460870777012e-02  1.270559886884225e-18
-9.925313159798924e-02  4.742168141253746e-02  1.279087320635874e-18
-1.029720464541169e-01  3.868795224680602e-02  1.435005741046401e-18
-8.722326970012553e-02  6.702313945809404e-02  8.636037176564931e-19
-3.083548861180295e-02 -1.055896426836995e-01  1.633649522622696e-18
-1.083071568068094e-01 -1.922393779705788e-02  2.124974026187541e-18
-4.688236151243252e-02  9.950901556651816e-02 -1.880914397436963e-19
-8.650474209271643e-02 -6.794799184282478e-02  2.237596004751547e-18
-1.094964758042092e-01 -1.051293424587963e-02  2.056636979387773e-18
-5.411428452789638e-02  9.576870162027801e-02 -2.096037608509863e-20
-8.021354078190038e-02 -7.527142801375809e-02  2.200882219270140e-18
-1.093147118191846e-01 -1.225943636096687e-02  2.071346947236512e-18
-2.585527043205292e-03  1.099696096651653e-01 -1.083885252628931e-18
-8.389797500318880e-02 -7.114161785034319e-02  2.224018822003195e-18
-1.080945593974581e-01 -2.038544158632255e-02  2.133124631186303e-18
-1.098455181581762e-01 -5.827704570561075e-03  2.014709571525642e-18
-1.097583718697717e-01  7.286961266321204e-03  1.878410272081213e-18
-1.099133919005581e-01  4.364204499597487e-03  1.911199302467667e-18
-1.032126611936506e-01 -3.804137969796394e-02  2.227653779509623e-18
-9.535142174175927e-02 -5.484620653997069e-02  2.260417137325328e-18
-9.933422016990029e-02  4.725158942551807e-02  1.282278021876046e-18
-9.878443319870790e-02  4.839045109946779e-02  1.260792516930125e-18
-1.020070517536882e-01  4.116505061967417e-02  1.392381223342799e-18
-8.710391035918051e-02  6.717818693697983e-02  8.598865192861706e-19
-3.199792175545547e-02 -1.052432088228581e-01  1.650776924943820e-18
-1.082220216492563e-01 -1.969756406634745e-02  2.128325282368044e-18
-4.643727174208998e-02  9.971749993432076e-02 -1.981544442719933e-19
-8.650757163899431e-02 -6.794438938664649e-02  2.237609345974203e-18
-1.094140251697002e-01 -1.133891953248537e-02  2.063656370759018e-18
-5.380987205039073e-02  9.594007332663730e-02 -2.813854126705443e-20
-8.024309443124036e-02 -7.523992155829914e-02  2.201084444328570e-18
-1.092347713801261e-01 -1.295240215294249e-02  2.077044283544927e-18
-4.157115826804353e-03  1.099214191502389e-01 -1.055421815531193e-18
-8.344013254356680e-02 -7.167805997034213e-02  2.221382717208854e-18
-1.079946022348641e-01 -2.090851233668864e-02  2.136720136188069e-18
-1.098031650569687e-01 -6.577609252003912e-03  2.021660845751918e-18
-1.097365516096941e-01  7.608497934081125e-03  1.874718282068837e-18
-1.099174201619005e-01  4.261542555485567e-03  1.912325804364936e-18
-1.031499375499992e-01 -3.821112905203443e-02  2.228281650399359e-18
-9.522559890105596e-02 -5.506437427171194e-02  2.260419563977632e-18
-9.928534949138508e-02  4.735419069494782e-02  1.280354119085531e-18
-9.884531563091141e-02  4.826596707645528e-02  1.263155020549344e-18
-1.021109554692080e-01  4.090663483061628e-02  1.396885442258805e-18
-8.734047664957964e-02  6.687033077998188e-02  8.672596087881133e-19
-3.146930701465191e-02 -1.054024796483344e-01  1.643006044949960e-18
-1.081861941459284e-01 -1.989340082086124e-02  2.129699840720460e-18
-4.629084094307300e-02  9.978556030199499e-02 -2.014596505629454e-19
-8.652616634123719e-02 -6.792070772811866e-02  2.237696940442677e-18
-1.094097858394047e-01 -1.137975230730296e-02  2.064000468747423e-18
-5.386081445089751e-02  9.591148349747260e-02 -2.693821037494192e-20
-8.019605951169748e-02 -7.529005272143352e-02  2.200762481320007e-18
-1.092305679462395e-01 -1.298780297594329e-02  2.077333209021103e-18
-3.921200064643137e-03  1.099300877378573e-01 -1.059709284518089e-18
-8.350304342355759e-02 -7.160476058896800e-02  2.221749166845056e-18
-1.079880872179276e-01 -2.094213501563811e-02  2.136949654502339e-18
-1.098087606519784e-01 -6.483524047652259e-03  2.020793734743536e-18
-1.097315071094507e-01  7.680907985943040e-03  1.873884522191332e-18
-1.099170318206885e-01  4.271547229016487e-03  1.912216098983721e-18
-1.031467913198475e-01 -3.821962114437796e-02  2.228312912644746e-18
-9.528481731322527e-02 -5.496183757467762e-02  2.260419898947090e-18
-9.927046268405021e-02  4.738539055969210e-02  1.279768623315153e-18
-9.878474373184688e-02  4.838981717090188e-02  1.260804556623477e-18
-1.019191136083146e-01  4.138229429714383e-02  1.388584159281882e-18
-8.718310402201605e-02  6.707537829253214e-02  8.623521864562050e-19
-3.186551498768077e-02 -1.052833745401896e-01  1.648833276725283e-18
-1.082149196807992e-01 -1.973654373182250e-02  2.128599396270371e-18
-4.639284415754541e-02  9.973817729923513e-02 -1.991575385471049e-19
-8.649668618230597e-02 -6.795824658920831e-02  2.237558004010189e-18
-1.094025737839879e-01 -1.144887983337435e-02  2.064582381836757e-18
-5.387707705880782e-02  9.590234912450919e-02 -2.655494550449515e-20
-8.017042486081312e-02 -7.531734845065034e-02  2.200586735831346e-18
-1.092338365643244e-01 -1.296028354004765e-02  2.077108625772070e-18
-3.171969015674020e-03  1.099542569096967e-01 -1.073291074210320e-18
-8.373106135987043e-02 -7.133799382902194e-02  2.223066086461683e-18
-1.080694997327190e-01 -2.051787580427877e-02  2.134039378039952e-18
-1.098666296659516e-01 -5.415134887020462e-03  2.010846272365626e-18
-1.097531661216262e-01  7.364952564591421e-03  1.877516297325606e-18
-1.099458297223439e-01  3.451742554903268e-03  1.921151787209948e-18
-1.037566889629766e-01 -3.653148635684161e-02  2.221821797025689e-18
-9.544835289040186e-02 -5.467734385016597e-02  2.260407139944332e-18
-9.986093327519645e-02  4.612801757507826e-02  1.303195802472629e-18
-9.842065993175853e-02  4.912609997340635e-02  1.246760212780808e-18
-1.016207577340666e-01  4.210963782264227e-02  1.375801370106504e-18
-8.606542762219642e-02  6.850359237447656e-02  8.277874208461528e-19
-3.474505856822104e-02 -1.043684861684352e-01  1.690678043917954e-18
-1.081817629830945e-01 -1.991748372334020e-02  2.129868425966490e-18
-4.660299775132012e-02  9.964015556285739e-02 -1.944104669328183e-19
-8.631556757349455e-02 -6.818814262366631e-02  2.236696880559686e-18
-1.094025683853572e-01 -1.144893142119385e-02  2.064582815807790e-18
-5.408197201175925e-02  9.578695267790521e-02 -2.172293884055496e-20
-8.002671324664770e-02 -7.547002826910018e-02  2.199597945902208e-18
-1.092305288111971e-01 -1.298813210689682e-02  2.077335894267326e-18
-3.827518641545283e-03  1.099333893821554e-01 -1.061410380385132e-18
-8.353592401692343e-02 -7.156639853058665e-02  2.221940160011365e-18
-1.080205796966719e-01 -2.077388654043660e-02  2.135799204957194e-18
-1.098100131275806e-01 -6.462276450333247e-03  2.020597712697078e-18
-1.097377033892350e-01  7.591867679052003e-03  1.874909649188789e-18
-1.099238952496235e-01  4.091118813939948e-03  1.914192078309035e-18
-1.033932207672342e-01 -3.754786144879531e-02  2.225796331771677e-18
-9.533110103725333e-02 -5.488151943072419e-02  2.260418333273560e-18
-9.949795129373848e-02  4.690583853156034e-02  1.288744277364290e-18
-9.859963901583926e-02  4.876588137157119e-02  1.253646474352731e-18
-1.017360030670618e-01  4.183043963358225e-02  1.380720958244625e-18
-8.667931108295046e-02  6.772515802997488e-02  8.467103394037591e-19
-3.312475045505188e-02 -1.048939984331349e-01  1.667242175886821e-18
-1.082279839575608e-01 -1.966477786505470e-02  2.128094522448427e-18
-4.672434969262535e-02  9.958330756608372e-02 -1.916667718678611e-19
-8.631190708849373e-02 -6.819277597185196e-02  2.236679343832156e-18
-1.094073528541746e-01 -1.140311981179281e-02  2.064197263492968e-18
-5.409282803881731e-02  9.578082247904800e-02 -2.146675732318726e-20
-8.004824195917772e-02 -7.544719318334452e-02  2.199746452811252e-18
-1.092358769498661e-01 -1.294307486626294e-02  2.076968123994926e-18
-3.631446287786215e-03  1.099400409216719e-01 -1.064968063956062e-18
-8.358851635753001e-02 -7.150496439511662e-02  2.222244890022186e-18
-1.080071703781168e-01 -2.084349171593847e-02  2.136275738031003e-18
-1.098039064279732e-01 -6.565221485743120e-03  2.021546759535075e-18
-1.097384653584215e-01  7.580845650618060e-03  1.875036456677541e-18
-1.099103745234000e-01  4.439546387403718e-03  1.910371494114229e-18
-1.030737118958394e-01 -3.841627150067353e-02  2.229032888095707e-18
-9.526904647799460e-02 -5.498916968980051e-02  2.260420065675937e-18
-9.915688658272484e-02  4.762259803098330e-02  1.275310180516772e-18
-9.883703233350884e-02  4.828292699811075e-02  1.262833352357436e-18
-1.019463616604378e-01  4.131512246380467e-02  1.389759237058019e-18
-8.730030162413510e-02  6.692277143345908e-02  8.660058376235352e-19
-3.152760168340051e-02 -1.053850574421858e-01  1.643864461277552e-18
-1.082414605536712e-01 -1.959046240413953e-02  2.127570790187459e-18
-4.622429586782877e-02  9.981640381983009e-02 -2.029608054959419e-19
-8.665973674781653e-02 -6.775020314950425e-02  2.238322112550487e-18
-1.093980884801265e-01 -1.149165944911298e-02  2.064942105515380e-18
-5.373090103731060e-02  9.598432306225164e-02 -2.999857460362172e-20
-8.026688547920041e-02 -7.521454045242110e-02  2.201247052763341e-18
-1.092550403941097e-01 -1.278030314512961e-02  2.075636740039899e-18
-4.119543024219618e-03  1.099228336846879e-01 -1.056105002199255e-18
-8.341531965252037e-02 -7.170693444338426e-02  2.221237816936031e-18
-1.080178702812817e-01 -2.078797007637282e-02  2.135895690894016e-18
-1.097331792142975e-01 -7.656982403194827e-03  2.031505531222495e-18
-1.097298946649872e-01  7.703909190196099e-03  1.873619497800690e-18
-1.098926165287805e-01  4.859303700981129e-03  1.905742615506307e-18
-1.033772082064374e-01 -3.759192497655394e-02  2.225964105892523e-18
-9.495330962322847e-02 -5.553259395702013e-02  2.260384638655987e-18
-9.923844749585235e-02  4.745240287501694e-02  1.278510347655771e-18
-9.864805521533790e-02  4.866786621818961e-02  1.255515168470633e-18
-1.018107863812239e-01  4.164809451147506e-02  1.383925346413783e-18
-8.663654339194482e-02  6.777985946500351e-02  8.453871999537151e-19
-3.339414924967953e-02 -1.048085435252780e-01  1.671158430652832e-18
-1.082524221546265e-01 -1.952980024620081e-02  2.127142583315939e-18
-4.672299261761981e-02  9.958394429251034e-02 -1.916974647690915e-19
-8.651493676770999e-02 -6.793501097430618e-02  2.237644057445256e-18
-1.094466373738502e-01 -1.101968999368338e-02  2.060956776288897e-18
-5.412378322417165e-02  9.576333374263263e-02 -2.073618246161565e-20
-8.031374232216820e-02 -7.516450488234676e-02  2.201566828870799e-18
-1.098372552119443e-01 -5.981418519563006e-03  2.016141877527153e-18
 2.284421901223700e-02  1.076017734878051e-01 -1.512109260829520e-18
-1.016336516625428e-01 -4.207850816909823e-02  2.241033449860243e-18
-1.073668589305346e-01 -2.392399639254797e-02  2.156531698522926e-18
-9.652904383522280e-02 -5.274603014689924e-02  2.259795777692287e-18
-6.648387860320019e-02 -8.763500377061040e-02  2.083577753033983e-18
-7.883752778019343e-02  7.671143469853232e-02  6.148257232017202e-19
-1.095999582051459e-01 -9.372788348737830e-03  2.046763987240028e-18
-1.093412865842024e-01  1.202011015387492e-02  1.822356356505368e-18
-4.644303388551878e-02  9.971481636902575e-02 -1.980243273978008e-19
-9.157305163839331e-02 -6.094568248557169e-02  2.255846433908566e-18
-1.096656837974986e-01 -8.569585592490592e-03  2.039681036016450e-18
-6.926717877125640e-02 -8.545207981711607e-02  2.110681148936936e-18
-8.061558494454890e-02  7.484068054239074e-02  6.656896907475829e-19
-1.085447096873667e-01 -1.783384419818852e-02  2.114918856313309e-18
-9.330658404394761e-02 -5.825702853776277e-02  2.259071768295165e-18
-1.047770247362408e-01 -3.349291100249649e-02  2.208759631273243e-18
-1.080140989041766e-01  2.080755723093687e-02  1.708449642124285e-18
-8.654066957800509e-03 -1.096590494445847e-01  1.280716341501054e-18
-1.099870954456222e-01 -1.684884398276765e-03  1.974663135933274e-18
-1.047043527065426e-01  3.371940871818328e-02  1.516884177004645e-18
-1.048139979576445e-01  3.337702551359015e-02  1.522353308086749e-18
-6.485677221971339e-02  8.884592898518298e-02  2.413439804739617e-19
-5.320356928039286e-02 -9.627762053471411e-02  1.936038554943567e-18
-9.483849448573523e-02 -5.572844842339632e-02  2.260353699821520e-18
-1.074173903318857e-01 -2.369608099005529e-02  2.155089217120551e-18
-1.057791844609168e-01 -3.017886901100349e-02  2.192543681427461e-18
-6.600323942080362e-02 -8.799757034123180e-02  2.078749445259120e-18
-1.063585356395081e-01  2.806887772283491e-02  1.604379488778263e-18
-8.222161665853721e-02 -7.307260604396508e-02  2.214026227844106e-18
-4.188772727986275e-02  1.017124294436418e-01 -2.996161908777607e-19
-1.018208134325444e-01 -4.162357447330712e-02  2.239689938352227e-18
-4.266481352251284e-02  1.013889229013168e-01 -2.824631020460778e-19
-1.057251801684833e-01 -3.036752012169770e-02  2.193520932255777e-18
-1.079406424947470e-01 -2.118531797781613e-02  2.138603935654180e-18
-2.233669795421038e-02  1.077082723123082e-01 -7.091551863967789e-19
-1.096182425573238e-01 -9.156467585466430e-03  2.044866761837939e-18
-1.099463995910395e-01  3.433542917661952e-03  1.921348923364397e-18
-1.000889798568234e-01  4.563108711416329e-02  1.312359943381747e-18
-1.098617778901734e-01  5.512690705106466e-03  1.898480491036086e-18
-1.089350894649184e-01 -1.526912843846050e-02  2.095514607373480e-18
-9.647600320107345e-02 -5.284298256482534e-02  2.259848007212587e-18
-9.890093123338776e-02 -4.815190340130573e-02  2.254803359836403e-18
-1.040895143843295e-01 -3.557208168261208e-02  2.217887287903808e-18
-1.068494781610638e-01 -2.613788470225374e-02  2.170071188715904e-18
-1.088006108000043e-01 -1.619960152429510e-02  2.102681672062029e-18
-1.090340219885541e-01 -1.454586020142723e-02  2.089843911249742e-18
-1.099233277424028e-01  4.106338762969161e-03  1.914025599393794e-18
-1.050517693434747e-01 -3.262094048008669e-02  2.204689858930428e-18
-1.099897357579014e-01  1.502673586304043e-03  1.941959123096975e-18
-1.094220742152791e-01 -1.126098017163289e-02  2.062998814506728e-18
-1.021549362781081e-01  4.079667871304773e-02  1.398797892379490e-18
-1.077564205151830e-01 -2.210325400829046e-02  2.144756945033086e-18
 4.492983596363743e-02  1.004057261329283e-01 -1.831212386704341e-18
-1.098140954950361e-01 -6.392529280891371e-03  2.019953736466711e-18
-7.129651873291146e-02  8.376637998963288e-02  4.081374719582170e-19
-1.099667851406077e-01 -2.702992016150891e-03  1.984762375752770e-18
-1.031971653636921e-01 -3.808339613136864e-02  2.227809716321281e-18
-1.026886620633154e-01  3.943397879552827e-02  1.422297426000967e-18
-1.040060936068743e-01  3.581525502684660e-02  1.482923763952036e-18
-1.081720286859103e-01 -1.997028317211741e-02  2.130237687692260e-18
-6.513617387388784e-02 -8.864129315996364e-02  2.069932997694885e-18
-6.085463018710777e-02  9.163358546292030e-02  1.414789314431556e-19
-1.099527045216138e-01 -3.225332290270157e-03  1.989878650907073e-18
-9.807547655171199e-02  4.981165425033131e-02  1.233573441630127e-18
-1.044436802402901e-01 -3.451836696403807e-02  2.213363555826068e-18
-8.274401456848217e-02 -7.248053568435309e-02  2.217239613927597e-18

TENSORS stress double
0.000000000000000e+00 0.000000000000000e+00 0.000000000000000e+00
0.000000000000000e+00 0.000000000000000e+00 0.000000000000000e+00
0.000000000000000e+00 0.000000000000000e+00 0.000000000000000e+00

0.000000000000000e+00 0.000000000000000e+00 0.000000000000000e+00
0.000000000000000e+00 0.000000000000000e+00 0.000000000000000e+00
0.000000000000000e+00 0.000000000000000e+00 0.000000000000000e+00

0.000000000000000e+00 0.000000000000000e+00 0.000000000000000e+00
0.000000000000000e+00 0.000000000000000e+00 0.000000000000000e+00
0.000000000000000e+00 0.000000000000000e+00 0.000000000000000e+00

0.000000000000000e+00 0.000000000000000e+00 0.000000000000000e+00
0.000000000000000e+00 0.000000000000000e+00 0.000000000000000e+00
0.000000000000000e+00 0.000000000000000e+00 0.000000000000000e+00

0.000000000000000e+00 0.000000000000000e+00 0.000000000000000e+00
0.000000000000000e+00 0.000000000000000e+00 0.000000000000000e+00
0.000000000000000e+00 0.000000000000000e+00 0.000000000000000e+00

0.000000000000000e+00 0.000000000000000e+00 0.000000000000000e+00
0.000000000000000e+00 0.000000000000000e+00 0.000000000000000e+00
0.000000000000000e+00 0.000000000000000e+00 0.000000000000000e+00

0.000000000000000e+00 0.000000000000000e+00 0.000000000000000e+00
0.000000000000000e+00 0.000000000000000e+00 0.000000000000000e+00
0.000000000000000e+00 0.000000000000000e+00 0.000000000000000e+00

0.000000000000000e+00 0.000000000000000e+00 0.000000000000000e+00
0.000000000000000e+00 0.000000000000000e+00 0.000000000000000e+00
0.000000000000000e+00 0.000000000000000e+00 0.000000000000000e+00

0.000000000000000e+00 0.000000000000000e+00 0.000000000000000e+00
0.000000000000000e+00 0.000000000000000e+00 0.000000000000000e+00
0.000000000000000e+00 0.000000000000000e+00 0.000000000000000e+00

0.000000000000000e+00 0.000000000000000e+00 0.000000000000000e+00
0.000000000000000e+00 0.000000000000000e+00 0.000000000000000e+00
0.000000000000000e+00 0.000000000000000e+00 0.000000000000000e+00

0.000000000000000e+00 0.000000000000000e+00 0.000000000000000e+00
0.000000000000000e+00 0.000000000000000e+00 0.000000000000000e+00
0.000000000000000e+00 0.000000000000000e+00 0.000000000000000e+00

0.000000000000000e+00 0.000000000000000e+00 0.000000000000000e+00
0.000000000000000e+00 0.000000000000000e+00 0.000000000000000e+00
0.000000000000000e+00 0.000000000000000e+00 0.000000000000000e+00

0.000000000000000e+00 0.000000000000000e+00 0.000000000000000e+00
0.000000000000000e+00 0.000000000000000e+00 0.000000000000000e+00
0.000000000000000e+00 0.000000000000000e+00 0.000000000000000e+00

0.000000000000000e+00 0.000000000000000e+00 0.000000000000000e+00
0.000000000000000e+00 0.000000000000000e+00 0.000000000000000e+00
0.000000000000000e+00 0.000000000000000e+00 0.000000000000000e+00

0.000000000000000e+00 0.000000000000000e+00 0.000000000000000e+00
0.000000000000000e+00 0.000000000000000e+00 0.000000000000000e+00
0.000000000000000e+00 0.000000000000000e+00 0.000000000000000e+00

0.000000000000000e+00 0.000000000000000e+00 0.000000000000000e+00
0.000000000000000e+00 0.000000000000000e+00 0.000000000000000e+00
0.000000000000000e+00 0.000000000000000e+00 0.000000000000000e+00

0.000000000000000e+00 0.000000000000000e+00 0.000000000000000e+00
0.000000000000000e+00 0.000000000000000e+00 0.000000000000000e+00
0.000000000000000e+00 0.000000000000000e+00 0.000000000000000e+00

0.000000000000000e+00 0.000000000000000e+00 0.000000000000000e+00
0.000000000000000e+00 0.000000000000000e+00 0.000000000000000e+00
0.000000000000000e+00 0.000000000000000e+00 0.000000000000000e+00

0.000000000000000e+00 0.000000000000000e+00 0.000000000000000e+00
0.000000000000000e+00 0.000000000000000e+00 0.000000000000000e+00
0.000000000000000e+00 0.000000000000000e+00 0.000000000000000e+00

0.000000000000000e+00 0.000000000000000e+00 0.000000000000000e+00
0.000000000000000e+00 0.000000000000000e+00 0.000000000000000e+00
0.000000000000000e+00 0.000000000000000e+00 0.000000000000000e+00

0.000000000000000e+00 0.000000000000000e+00 0.000000000000000e+00
0.000000000000000e+00 0.000000000000000e+00 0.000000000000000e+00
0.000000000000000e+00 0.000000000000000e+00 0.000000000000000e+00

0.000000000000000e+00 0.000000000000000e+00 0.000000000000000e+00
0.000000000000000e+00 0.000000000000000e+00 0.000000000000000e+00
0.000000000000000e+00 0.000000000000000e+00 0.000000000000000e+00

0.000000000000000e+00 0.000000000000000e+00 0.000000000000000e+00
0.000000000000000e+00 0.000000000000000e+00 0.000000000000000e+00
0.000000000000000e+00 0.000000000000000e+00 0.000000000000000e+00

0.000000000000000e+00 0.000000000000000e+00 0.000000000000000e+00
0.000000000000000e+00 0.000000000000000e+00 0.000000000000000e+00
0.000000000000000e+00 0.000000000000000e+00 0.000000000000000e+00

0.000000000000000e+00 0.000000000000000e+00 0.000000000000000e+00
0.000000000000000e+00 0.000000000000000e+00 0.000000000000000e+00
0.000000000000000e+00 0.000000000000000e+00 0.000000000000000e+00

0.000000000000000e+00 0.000000000000000e+00 0.000000000000000e+00
0.000000000000000e+00 0.000000000000000e+00 0.000000000000000e+00
0.000000000000000e+00 0.000000000000000e+00 0.000000000000000e+00

0.000000000000000e+00 0.000000000000000e+00 0.000000000000000e+00
0.000000000000000e+00 0.000000000000000e+00 0.000000000000000e+00
0.000000000000000e+00 0.000000000000000e+00 0.000000000000000e+00

0.000000000000000e+00 0.000000000000000e+00 0.000000000000000e+00
0.000000000000000e+00 0.000000000000000e+00 0.000000000000000e+00
0.000000000000000e+00 0.000000000000000e+00 0.000000000000000e+00

0.000000000000000e+00 0.000000000000000e+00 0.000000000000000e+00
0.000000000000000e+00 0.000000000000000e+00 0.000000000000000e+00
0.000000000000000e+00 0.000000000000000e+00 0.000000000000000e+00

0.000000000000000e+00 0.000000000000000e+00 0.000000000000000e+00
0.000000000000000e+00 0.000000000000000e+00 0.000000000000000e+00
0.000000000000000e+00 0.000000000000000e+00 0.000000000000000e+00

0.000000000000000e+00 0.000000000000000e+00 0.000000000000000e+00
0.000000000000000e+00 0.000000000000000e+00 0.000000000000000e+00
0.000000000000000e+00 0.000000000000000e+00 0.000000000000000e+00

0.000000000000000e+00 0.000000000000000e+00 0.000000000000000e+00
0.000000000000000e+00 0.000000000000000e+00 0.000000000000000e+00
0.000000000000000e+00 0.000000000000000e+00 0.000000000000000e+00

0.000000000000000e+00 0.000000000000000e+00 0.000000000000000e+00
0.000000000000000e+00 0.000000000000000e+00 0.000000000000000e+00
0.000000000000000e+00 0.000000000000000e+00 0.000000000000000e+00

0.000000000000000e+00 0.000000000000000e+00 0.000000000000000e+00
0.000000000000000e+00 0.000000000000000e+00 0.000000000000000e+00
0.000000000000000e+00 0.000000000000000e+00 0.000000000000000e+00

0.000000000000000e+00 0.000000000000000e+00 0.000000000000000e+00
0.000000000000000e+00 0.000000000000000e+00 0.000000000000000e+00
0.000000000000000e+00 0.000000000000000e+00 0.000000000000000e+00

0.000000000000000e+00 0.000000000000000e+00 0.000000000000000e+00
0.000000000000000e+00 0.000000000000000e+00 0.000000000000000e+00
0.000000000000000e+00 0.000000000000000e+00 0.000000000000000e+00

0.000000000000000e+00 0.000000000000000e+00 0.000000000000000e+00
0.000000000000000e+00 0.000000000000000e+00 0.000000000000000e+00
0.000000000000000e+00 0.000000000000000e+00 0.000000000000000e+00

0.000000000000000e+00 0.000000000000000e+00 0.000000000000000e+00
0.000000000000000e+00 0.000000000000000e+00 0.000000000000000e+00
0.000000000000000e+00 0.000000000000000e+00 0.000000000000000e+00

0.000000000000000e+00 0.000000000000000e+00 0.000000000000000e+00
0.000000000000000e+00 0.000000000000000e+00 0.000000000000000e+00
0.000000000000000e+00 0.000000000000000e+00 0.000000000000000e+00

0.000000000000000e+00 0.000000000000000e+00 0.000000000000000e+00
0.000000000000000e+00 0.000000000000000e+00 0.000000000000000e+00
0.000000000000000e+00 0.000000000000000e+00 0.000000000000000e+00

0.000000000000000e+00 0.000000000000000e+00 0.000000000000000e+00
0.000000000000000e+00 0.000000000000000e+00 0.000000000000000e+00
0.000000000000000e+00 0.000000000000000e+00 0.000000000000000e+00

0.000000000000000e+00 0.000000000000000e+00 0.000000000000000e+00
0.000000000000000e+00 0.000000000000000e+00 0.000000000000000e+00
0.000000000000000e+00 0.000000000000000e+00 0.000000000000000e+00

0.000000000000000e+00 0.000000000000000e+00 0.000000000000000e+00
0.000000000000000e+00 0.000000000000000e+00 0.000000000000000e+00
0.000000000000000e+00 0.000000000000000e+00 0.000000000000000e+00

0.000000000000000e+00 0.000000000000000e+00 0.000000000000000e+00
0.000000000000000e+00 0.000000000000000e+00 0.000000000000000e+00
0.000000000000000e+00 0.000000000000000e+00 0.000000000000000e+00

0.000000000000000e+00 0.000000000000000e+00 0.000000000000000e+00
0.000000000000000e+00 0.000000000000000e+00 0.000000000000000e+00
0.000000000000000e+00 0.000000000000000e+00 0.000000000000000e+00

0.000000000000000e+00 0.000000000000000e+00 0.000000000000000e+00
0.000000000000000e+00 0.000000000000000e+00 0.000000000000000e+00
0.000000000000000e+00 0.000000000000000e+00 0.000000000000000e+00

0.000000000000000e+00 0.000000000000000e+00 0.000000000000000e+00
0.000000000000000e+00 0.000000000000000e+00 0.000000000000000e+00
0.000000000000000e+00 0.000000000000000e+00 0.000000000000000e+00

0.000000000000000e+00 0.000000000000000e+00 0.000000000000000e+00
0.000000000000000e+00 0.000000000000000e+00 0.000000000000000e+00
0.000000000000000e+00 0.000000000000000e+00 0.000000000000000e+00

0.000000000000000e+00 0.000000000000000e+00 0.000000000000000e+00
0.000000000000000e+00 0.000000000000000e+00 0.000000000000000e+00
0.000000000000000e+00 0.000000000000000e+00 0.000000000000000e+00

0.000000000000000e+00 0.000000000000000e+00 0.000000000000000e+00
0.000000000000000e+00 0.000000000000000e+00 0.000000000000000e+00
0.000000000000000e+00 0.000000000000000e+00 0.000000000000000e+00

0.000000000000000e+00 0.000000000000000e+00 0.000000000000000e+00
0.000000000000000e+00 0.000000000000000e+00 0.000000000000000e+00
0.000000000000000e+00 0.000000000000000e+00 0.000000000000000e+00

0.000000000000000e+00 0.000000000000000e+00 0.000000000000000e+00
0.000000000000000e+00 0.000000000000000e+00 0.000000000000000e+00
0.000000000000000e+00 0.000000000000000e+00 0.000000000000000e+00

0.000000000000000e+00 0.000000000000000e+00 0.000000000000000e+00
0.000000000000000e+00 0.000000000000000e+00 0.000000000000000e+00
0.000000000000000e+00 0.000000000000000e+00 0.000000000000000e+00

0.000000000000000e+00 0.000000000000000e+00 0.000000000000000e+00
0.000000000000000e+00 0.000000000000000e+00 0.000000000000000e+00
0.000000000000000e+00 0.000000000000000e+00 0.000000000000000e+00

0.000000000000000e+00 0.000000000000000e+00 0.000000000000000e+00
0.000000000000000e+00 0.000000000000000e+00 0.000000000000000e+00
0.000000000000000e+00 0.000000000000000e+00 0.000000000000000e+00

0.000000000000000e+00 0.000000000000000e+00 0.000000000000000e+00
0.000000000000000e+00 0.000000000000000e+00 0.000000000000000e+00
0.000000000000000e+00 0.000000000000000e+00 0.000000000000000e+00

0.000000000000000e+00 0.000000000000000e+00 0.000000000000000e+00
0.000000000000000e+00 0.000000000000000e+00 0.000000000000000e+00
0.000000000000000e+00 0.000000000000000e+00 0.000000000000000e+00

0.000000000000000e+00 0.000000000000000e+00 0.000000000000000e+00
0.000000000000000e+00 0.000000000000000e+00 0.000000000000000e+00
0.000000000000000e+00 0.000000000000000e+00 0.000000000000000e+00

0.000000000000000e+00 0.000000000000000e+00 0.000000000000000e+00
0.000000000000000e+00 0.000000000000000e+00 0.000000000000000e+00
0.000000000000000e+00 0.000000000000000e+00 0.000000000000000e+00

0.000000000000000e+00 0.000000000000000e+00 0.000000000000000e+00
0.000000000000000e+00 0.000000000000000e+00 0.000000000000000e+00
0.000000000000000e+00 0.000000000000000e+00 0.000000000000000e+00

0.000000000000000e+00 0.000000000000000e+00 0.000000000000000e+00
0.000000000000000e+00 0.000000000000000e+00 0.000000000000000e+00
0.000000000000000e+00 0.000000000000000e+00 0.000000000000000e+00

0.000000000000000e+00 0.000000000000000e+00 0.000000000000000e+00
0.000000000000000e+00 0.000000000000000e+00 0.000000000000000e+00
0.000000000000000e+00 0.000000000000000e+00 0.000000000000000e+00

0.000000000000000e+00 0.000000000000000e+00 0.000000000000000e+00
0.000000000000000e+00 0.000000000000000e+00 0.000000000000000e+00
0.000000000000000e+00 0.000000000000000e+00 0.000000000000000e+00

0.000000000000000e+00 0.000000000000000e+00 0.000000000000000e+00
0.000000000000000e+00 0.000000000000000e+00 0.000000000000000e+00
0.000000000000000e+00 0.000000000000000e+00 0.000000000000000e+00

0.000000000000000e+00 0.000000000000000e+00 0.000000000000000e+00
0.000000000000000e+00 0.000000000000000e+00 0.000000000000000e+00
0.000000000000000e+00 0.000000000000000e+00 0.000000000000000e+00

0.000000000000000e+00 0.000000000000000e+00 0.000000000000000e+00
0.000000000000000e+00 0.000000000000000e+00 0.000000000000000e+00
0.000000000000000e+00 0.000000000000000e+00 0.000000000000000e+00

0.000000000000000e+00 0.000000000000000e+00 0.000000000000000e+00
0.000000000000000e+00 0.000000000000000e+00 0.000000000000000e+00
0.000000000000000e+00 0.000000000000000e+00 0.000000000000000e+00

0.000000000000000e+00 0.000000000000000e+00 0.000000000000000e+00
0.000000000000000e+00 0.000000000000000e+00 0.000000000000000e+00
0.000000000000000e+00 0.000000000000000e+00 0.000000000000000e+00

0.000000000000000e+00 0.000000000000000e+00 0.000000000000000e+00
0.000000000000000e+00 0.000000000000000e+00 0.000000000000000e+00
0.000000000000000e+00 0.000000000000000e+00 0.000000000000000e+00

0.000000000000000e+00 0.000000000000000e+00 0.000000000000000e+00
0.000000000000000e+00 0.000000000000000e+00 0.000000000000000e+00
0.000000000000000e+00 0.000000000000000e+00 0.000000000000000e+00

0.000000000000000e+00 0.000000000000000e+00 0.000000000000000e+00
0.000000000000000e+00 0.000000000000000e+00 0.000000000000000e+00
0.000000000000000e+00 0.000000000000000e+00 0.000000000000000e+00

0.000000000000000e+00 0.000000000000000e+00 0.000000000000000e+00
0.000000000000000e+00 0.000000000000000e+00 0.000000000000000e+00
0.000000000000000e+00 0.000000000000000e+00 0.000000000000000e+00

0.000000000000000e+00 0.000000000000000e+00 0.000000000000000e+00
0.000000000000000e+00 0.000000000000000e+00 0.000000000000000e+00
0.000000000000000e+00 0.000000000000000e+00 0.000000000000000e+00

0.000000000000000e+00 0.000000000000000e+00 0.000000000000000e+00
0.000000000000000e+00 0.000000000000000e+00 0.000000000000000e+00
0.000000000000000e+00 0.000000000000000e+00 0.000000000000000e+00

0.000000000000000e+00 0.000000000000000e+00 0.000000000000000e+00
0.000000000000000e+00 0.000000000000000e+00 0.000000000000000e+00
0.000000000000000e+00 0.000000000000000e+00 0.000000000000000e+00

0.000000000000000e+00 0.000000000000000e+00 0.000000000000000e+00
0.000000000000000e+00 0.000000000000000e+00 0.000000000000000e+00
0.000000000000000e+00 0.000000000000000e+00 0.000000000000000e+00

0.000000000000000e+00 0.000000000000000e+00 0.000000000000000e+00
0.000000000000000e+00 0.000000000000000e+00 0.000000000000000e+00
0.000000000000000e+00 0.000000000000000e+00 0.000000000000000e+00

0.000000000000000e+00 0.000000000000000e+00 0.000000000000000e+00
0.000000000000000e+00 0.000000000000000e+00 0.000000000000000e+00
0.000000000000000e+00 0.000000000000000e+00 0.000000000000000e+00

0.000000000000000e+00 0.000000000000000e+00 0.000000000000000e+00
0.000000000000000e+00 0.000000000000000e+00 0.000000000000000e+00
0.000000000000000e+00 0.000000000000000e+00 0.000000000000000e+00

0.000000000000000e+00 0.000000000000000e+00 0.000000000000000e+00
0.000000000000000e+00 0.000000000000000e+00 0.000000000000000e+00
0.000000000000000e+00 0.000000000000000e+00 0.000000000000000e+00

0.000000000000000e+00 0.000000000000000e+00 0.000000000000000e+00
0.000000000000000e+00 0.000000000000000e+00 0.000000000000000e+00
0.000000000000000e+00 0.000000000000000e+00 0.000000000000000e+00

0.000000000000000e+00 0.000000000000000e+00 0.000000000000000e+00
0.000000000000000e+00 0.000000000000000e+00 0.000000000000000e+00
0.000000000000000e+00 0.000000000000000e+00 0.000000000000000e+00

0.000000000000000e+00 0.000000000000000e+00 0.000000000000000e+00
0.000000000000000e+00 0.000000000000000e+00 0.000000000000000e+00
0.000000000000000e+00 0.000000000000000e+00 0.000000000000000e+00

0.000000000000000e+00 0.000000000000000e+00 0.000000000000000e+00
0.000000000000000e+00 0.000000000000000e+00 0.000000000000000e+00
0.000000000000000e+00 0.000000000000000e+00 0.000000000000000e+00

0.000000000000000e+00 0.000000000000000e+00 0.000000000000000e+00
0.000000000000000e+00 0.000000000000000e+00 0.000000000000000e+00
0.000000000000000e+00 0.000000000000000e+00 0.000000000000000e+00

0.000000000000000e+00 0.000000000000000e+00 0.000000000000000e+00
0.000000000000000e+00 0.000000000000000e+00 0.000000000000000e+00
0.000000000000000e+00 0.000000000000000e+00 0.000000000000000e+00

0.000000000000000e+00 0.000000000000000e+00 0.000000000000000e+00
0.000000000000000e+00 0.000000000000000e+00 0.000000000000000e+00
0.000000000000000e+00 0.000000000000000e+00 0.000000000000000e+00

0.000000000000000e+00 0.000000000000000e+00 0.000000000000000e+00
0.000000000000000e+00 0.000000000000000e+00 0.000000000000000e+00
0.000000000000000e+00 0.000000000000000e+00 0.000000000000000e+00

0.000000000000000e+00 0.000000000000000e+00 0.000000000000000e+00
0.000000000000000e+00 0.000000000000000e+00 0.000000000000000e+00
0.000000000000000e+00 0.000000000000000e+00 0.000000000000000e+00

0.000000000000000e+00 0.000000000000000e+00 0.000000000000000e+00
0.000000000000000e+00 0.000000000000000e+00 0.000000000000000e+00
0.000000000000000e+00 0.000000000000000e+00 0.000000000000000e+00

0.000000000000000e+00 0.000000000000000e+00 0.000000000000000e+00
0.000000000000000e+00 0.000000000000000e+00 0.000000000000000e+00
0.000000000000000e+00 0.000000000000000e+00 0.000000000000000e+00

0.000000000000000e+00 0.000000000000000e+00 0.000000000000000e+00
0.000000000000000e+00 0.000000000000000e+00 0.000000000000000e+00
0.000000000000000e+00 0.000000000000000e+00 0.000000000000000e+00

0.000000000000000e+00 0.000000000000000e+00 0.000000000000000e+00
0.000000000000000e+00 0.000000000000000e+00 0.000000000000000e+00
0.000000000000000e+00 0.000000000000000e+00 0.000000000000000e+00

0.000000000000000e+00 0.000000000000000e+00 0.000000000000000e+00
0.000000000000000e+00 0.000000000000000e+00 0.000000000000000e+00
0.000000000000000e+00 0.000000000000000e+00 0.000000000000000e+00

0.000000000000000e+00 0.000000000000000e+00 0.000000000000000e+00
0.000000000000000e+00 0.000000000000000e+00 0.000000000000000e+00
0.000000000000000e+00 0.000000000000000e+00 0.000000000000000e+00

0.000000000000000e+00 0.000000000000000e+00 0.000000000000000e+00
0.000000000000000e+00 0.000000000000000e+00 0.000000000000000e+00
0.000000000000000e+00 0.000000000000000e+00 0.000000000000000e+00

0.000000000000000e+00 0.000000000000000e+00 0.000000000000000e+00
0.000000000000000e+00 0.000000000000000e+00 0.000000000000000e+00
0.000000000000000e+00 0.000000000000000e+00 0.000000000000000e+00

0.000000000000000e+00 0.000000000000000e+00 0.000000000000000e+00
0.000000000000000e+00 0.000000000000000e+00 0.000000000000000e+00
0.000000000000000e+00 0.000000000000000e+00 0.000000000000000e+00

0.000000000000000e+00 0.000000000000000e+00 0.000000000000000e+00
0.000000000000000e+00 0.000000000000000e+00 0.000000000000000e+00
0.000000000000000e+00 0.000000000000000e+00 0.000000000000000e+00

0.000000000000000e+00 0.000000000000000e+00 0.000000000000000e+00
0.000000000000000e+00 0.000000000000000e+00 0.000000000000000e+00
0.000000000000000e+00 0.000000000000000e+00 0.000000000000000e+00

0.000000000000000e+00 0.000000000000000e+00 0.000000000000000e+00
0.000000000000000e+00 0.000000000000000e+00 0.000000000000000e+00
0.000000000000000e+00 0.000000000000000e+00 0.000000000000000e+00

0.000000000000000e+00 0.000000000000000e+00 0.000000000000000e+00
0.000000000000000e+00 0.000000000000000e+00 0.000000000000000e+00
0.000000000000000e+00 0.000000000000000e+00 0.000000000000000e+00

0.000000000000000e+00 0.000000000000000e+00 0.000000000000000e+00
0.000000000000000e+00 0.000000000000000e+00 0.000000000000000e+00
0.000000000000000e+00 0.000000000000000e+00 0.000000000000000e+00

0.000000000000000e+00 0.000000000000000e+00 0.000000000000000e+00
0.000000000000000e+00 0.000000000000000e+00 0.000000000000000e+00
0.000000000000000e+00 0.000000000000000e+00 0.000000000000000e+00

0.000000000000000e+00 0.000000000000000e+00 0.000000000000000e+00
0.000000000000000e+00 0.000000000000000e+00 0.000000000000000e+00
0.000000000000000e+00 0.000000000000000e+00 0.000000000000000e+00

0.000000000000000e+00 0.000000000000000e+00 0.000000000000000e+00
0.000000000000000e+00 0.000000000000000e+00 0.000000000000000e+00
0.000000000000000e+00 0.000000000000000e+00 0.000000000000000e+00

0.000000000000000e+00 0.000000000000000e+00 0.000000000000000e+00
0.000000000000000e+00 0.000000000000000e+00 0.000000000000000e+00
0.000000000000000e+00 0.000000000000000e+00 0.000000000000000e+00

0.000000000000000e+00 0.000000000000000e+00 0.000000000000000e+00
0.000000000000000e+00 0.000000000000000e+00 0.000000000000000e+00
0.000000000000000e+00 0.000000000000000e+00 0.000000000000000e+00

0.000000000000000e+00 0.000000000000000e+00 0.000000000000000e+00
0.000000000000000e+00 0.000000000000000e+00 0.000000000000000e+00
0.000000000000000e+00 0.000000000000000e+00 0.000000000000000e+00

0.000000000000000e+00 0.000000000000000e+00 0.000000000000000e+00
0.000000000000000e+00 0.000000000000000e+00 0.000000000000000e+00
0.000000000000000e+00 0.000000000000000e+00 0.000000000000000e+00

0.000000000000000e+00 0.000000000000000e+00 0.000000000000000e+00
0.000000000000000e+00 0.000000000000000e+00 0.000000000000000e+00
0.000000000000000e+00 0.000000000000000e+00 0.000000000000000e+00

0.000000000000000e+00 0.000000000000000e+00 0.000000000000000e+00
0.000000000000000e+00 0.000000000000000e+00 0.000000000000000e+00
0.000000000000000e+00 0.000000000000000e+00 0.000000000000000e+00

0.000000000000000e+00 0.000000000000000e+00 0.000000000000000e+00
0.000000000000000e+00 0.000000000000000e+00 0.000000000000000e+00
0.000000000000000e+00 0.000000000000000e+00 0.000000000000000e+00

0.000000000000000e+00 0.000000000000000e+00 0.000000000000000e+00
0.000000000000000e+00 0.000000000000000e+00 0.000000000000000e+00
0.000000000000000e+00 0.000000000000000e+00 0.000000000000000e+00

0.000000000000000e+00 0.000000000000000e+00 0.000000000000000e+00
0.000000000000000e+00 0.000000000000000e+00 0.000000000000000e+00
0.000000000000000e+00 0.000000000000000e+00 0.000000000000000e+00

0.000000000000000e+00 0.000000000000000e+00 0.000000000000000e+00
0.000000000000000e+00 0.000000000000000e+00 0.000000000000000e+00
0.000000000000000e+00 0.000000000000000e+00 0.000000000000000e+00

0.000000000000000e+00 0.000000000000000e+00 0.000000000000000e+00
0.000000000000000e+00 0.000000000000000e+00 0.000000000000000e+00
0.000000000000000e+00 0.000000000000000e+00 0.000000000000000e+00

0.000000000000000e+00 0.000000000000000e+00 0.000000000000000e+00
0.000000000000000e+00 0.000000000000000e+00 0.000000000000000e+00
0.000000000000000e+00 0.000000000000000e+00 0.000000000000000e+00

0.000000000000000e+00 0.000000000000000e+00 0.000000000000000e+00
0.000000000000000e+00 0.000000000000000e+00 0.000000000000000e+00
0.000000000000000e+00 0.000000000000000e+00 0.000000000000000e+00

0.000000000000000e+00 0.000000000000000e+00 0.000000000000000e+00
0.000000000000000e+00 0.000000000000000e+00 0.000000000000000e+00
0.000000000000000e+00 0.000000000000000e+00 0.000000000000000e+00

0.000000000000000e+00 0.000000000000000e+00 0.000000000000000e+00
0.000000000000000e+00 0.000000000000000e+00 0.000000000000000e+00
0.000000000000000e+00 0.000000000000000e+00 0.000000000000000e+00

0.000000000000000e+00 0.000000000000000e+00 0.000000000000000e+00
0.000000000000000e+00 0.000000000000000e+00 0.000000000000000e+00
0.000000000000000e+00 0.000000000000000e+00 0.000000000000000e+00

0.000000000000000e+00 0.000000000000000e+00 0.000000000000000e+00
0.000000000000000e+00 0.000000000000000e+00 0.000000000000000e+00
0.000000000000000e+00 0.000000000000000e+00 0.000000000000000e+00

0.000000000000000e+00 0.000000000000000e+00 0.000000000000000e+00
0.000000000000000e+00 0.000000000000000e+00 0.000000000000000e+00
0.000000000000000e+00 0.000000000000000e+00 0.000000000000000e+00

0.000000000000000e+00 0.000000000000000e+00 0.000000000000000e+00
0.000000000000000e+00 0.000000000000000e+00 0.000000000000000e+00
0.000000000000000e+00 0.000000000000000e+00 0.000000000000000e+00

0.000000000000000e+00 0.000000000000000e+00 0.000000000000000e+00
0.000000000000000e+00 0.000000000000000e+00 0.000000000000000e+00
0.000000000000000e+00 0.000000000000000e+00 0.000000000000000e+00

0.000000000000000e+00 0.000000000000000e+00 0.000000000000000e+00
0.000000000000000e+00 0.000000000000000e+00 0.000000000000000e+00
0.000000000000000e+00 0.000000000000000e+00 0.000000000000000e+00

0.000000000000000e+00 0.000000000000000e+00 0.000000000000000e+00
0.000000000000000e+00 0.000000000000000e+00 0.000000000000000e+00
0.000000000000000e+00 0.000000000000000e+00 0.000000000000000e+00

0.000000000000000e+00 0.000000000000000e+00 0.000000000000000e+00
0.000000000000000e+00 0.000000000000000e+00 0.000000000000000e+00
0.000000000000000e+00 0.000000000000000e+00 0.000000000000000e+00

0.000000000000000e+00 0.000000000000000e+00 0.000000000000000e+00
0.000000000000000e+00 0.000000000000000e+00 0.000000000000000e+00
0.000000000000000e+00 0.000000000000000e+00 0.000000000000000e+00

0.000000000000000e+00 0.000000000000000e+00 0.000000000000000e+00
0.000000000000000e+00 0.000000000000000e+00 0.000000000000000e+00
0.000000000000000e+00 0.000000000000000e+00 0.000000000000000e+00

0.000000000000000e+00 0.000000000000000e+00 0.000000000000000e+00
0.000000000000000e+00 0.000000000000000e+00 0.000000000000000e+00
0.000000000000000e+00 0.000000000000000e+00 0.000000000000000e+00

0.000000000000000e+00 0.000000000000000e+00 0.000000000000000e+00
0.000000000000000e+00 0.000000000000000e+00 0.000000000000000e+00
0.000000000000000e+00 0.000000000000000e+00 0.000000000000000e+00

0.000000000000000e+00 0.000000000000000e+00 0.000000000000000e+00
0.000000000000000e+00 0.000000000000000e+00 0.000000000000000e+00
0.000000000000000e+00 0.000000000000000e+00 0.000000000000000e+00

0.000000000000000e+00 0.000000000000000e+00 0.000000000000000e+00
0.000000000000000e+00 0.000000000000000e+00 0.000000000000000e+00
0.000000000000000e+00 0.000000000000000e+00 0.000000000000000e+00

0.000000000000000e+00 0.000000000000000e+00 0.000000000000000e+00
0.000000000000000e+00 0.000000000000000e+00 0.000000000000000e+00
0.000000000000000e+00 0.000000000000000e+00 0.000000000000000e+00

0.000000000000000e+00 0.000000000000000e+00 0.000000000000000e+00
0.000000000000000e+00 0.000000000000000e+00 0.000000000000000e+00
0.000000000000000e+00 0.000000000000000e+00 0.000000000000000e+00

0.000000000000000e+00 0.000000000000000e+00 0.000000000000000e+00
0.000000000000000e+00 0.000000000000000e+00 0.000000000000000e+00
0.000000000000000e+00 0.000000000000000e+00 0.000000000000000e+00

0.000000000000000e+00 0.000000000000000e+00 0.000000000000000e+00
0.000000000000000e+00 0.000000000000000e+00 0.000000000000000e+00
0.000000000000000e+00 0.000000000000000e+00 0.000000000000000e+00

0.000000000000000e+00 0.000000000000000e+00 0.000000000000000e+00
0.000000000000000e+00 0.000000000000000e+00 0.000000000000000e+00
0.000000000000000e+00 0.000000000000000e+00 0.000000000000000e+00

0.000000000000000e+00 0.000000000000000e+00 0.000000000000000e+00
0.000000000000000e+00 0.000000000000000e+00 0.000000000000000e+00
0.000000000000000e+00 0.000000000000000e+00 0.000000000000000e+00

0.000000000000000e+00 0.000000000000000e+00 0.000000000000000e+00
0.000000000000000e+00 0.000000000000000e+00 0.000000000000000e+00
0.000000000000000e+00 0.000000000000000e+00 0.000000000000000e+00

0.000000000000000e+00 0.000000000000000e+00 0.000000000000000e+00
0.000000000000000e+00 0.000000000000000e+00 0.000000000000000e+00
0.000000000000000e+00 0.000000000000000e+00 0.000000000000000e+00

0.000000000000000e+00 0.000000000000000e+00 0.000000000000000e+00
0.000000000000000e+00 0.000000000000000e+00 0.000000000000000e+00
0.000000000000000e+00 0.000000000000000e+00 0.000000000000000e+00

0.000000000000000e+00 0.000000000000000e+00 0.000000000000000e+00
0.000000000000000e+00 0.000000000000000e+00 0.000000000000000e+00
0.000000000000000e+00 0.000000000000000e+00 0.000000000000000e+00

0.000000000000000e+00 0.000000000000000e+00 0.000000000000000e+00
0.000000000000000e+00 0.000000000000000e+00 0.000000000000000e+00
0.000000000000000e+00 0.000000000000000e+00 0.000000000000000e+00

0.000000000000000e+00 0.000000000000000e+00 0.000000000000000e+00
0.000000000000000e+00 0.000000000000000e+00 0.000000000000000e+00
0.000000000000000e+00 0.000000000000000e+00 0.000000000000000e+00

0.000000000000000e+00 0.000000000000000e+00 0.000000000000000e+00
0.000000000000000e+00 0.000000000000000e+00 0.000000000000000e+00
0.000000000000000e+00 0.000000000000000e+00 0.000000000000000e+00

0.000000000000000e+00 0.000000000000000e+00 0.000000000000000e+00
0.000000000000000e+00 0.000000000000000e+00 0.000000000000000e+00
0.000000000000000e+00 0.000000000000000e+00 0.000000000000000e+00

0.000000000000000e+00 0.000000000000000e+00 0.000000000000000e+00
0.000000000000000e+00 0.000000000000000e+00 0.000000000000000e+00
0.000000000000000e+00 0.000000000000000e+00 0.000000000000000e+00

0.000000000000000e+00 0.000000000000000e+00 0.000000000000000e+00
0.000000000000000e+00 0.000000000000000e+00 0.000000000000000e+00
0.000000000000000e+00 0.000000000000000e+00 0.000000000000000e+00

0.000000000000000e+00 0.000000000000000e+00 0.000000000000000e+00
0.000000000000000e+00 0.000000000000000e+00 0.000000000000000e+00
0.000000000000000e+00 0.000000000000000e+00 0.000000000000000e+00

0.000000000000000e+00 0.000000000000000e+00 0.000000000000000e+00
0.000000000000000e+00 0.000000000000000e+00 0.000000000000000e+00
0.000000000000000e+00 0.000000000000000e+00 0.000000000000000e+00

0.000000000000000e+00 0.000000000000000e+00 0.000000000000000e+00
0.000000000000000e+00 0.000000000000000e+00 0.000000000000000e+00
0.000000000000000e+00 0.000000000000000e+00 0.000000000000000e+00

0.000000000000000e+00 0.000000000000000e+00 0.000000000000000e+00
0.000000000000000e+00 0.000000000000000e+00 0.000000000000000e+00
0.000000000000000e+00 0.000000000000000e+00 0.000000000000000e+00

0.000000000000000e+00 0.000000000000000e+00 0.000000000000000e+00
0.000000000000000e+00 0.000000000000000e+00 0.000000000000000e+00
0.000000000000000e+00 0.000000000000000e+00 0.000000000000000e+00

0.000000000000000e+00 0.000000000000000e+00 0.000000000000000e+00
0.000000000000000e+00 0.000000000000000e+00 0.000000000000000e+00
0.000000000000000e+00 0.000000000000000e+00 0.000000000000000e+00

0.000000000000000e+00 0.000000000000000e+00 0.000000000000000e+00
0.000000000000000e+00 0.000000000000000e+00 0.000000000000000e+00
0.000000000000000e+00 0.000000000000000e+00 0.000000000000000e+00

0.000000000000000e+00 0.000000000000000e+00 0.000000000000000e+00
0.000000000000000e+00 0.000000000000000e+00 0.000000000000000e+00
0.000000000000000e+00 0.000000000000000e+00 0.000000000000000e+00

0.000000000000000e+00 0.000000000000000e+00 0.000000000000000e+00
0.000000000000000e+00 0.000000000000000e+00 0.000000000000000e+00
0.000000000000000e+00 0.000000000000000e+00 0.000000000000000e+00

0.000000000000000e+00 0.000000000000000e+00 0.000000000000000e+00
0.000000000000000e+00 0.000000000000000e+00 0.000000000000000e+00
0.000000000000000e+00 0.000000000000000e+00 0.000000000000000e+00

0.000000000000000e+00 0.000000000000000e+00 0.000000000000000e+00
0.000000000000000e+00 0.000000000000000e+00 0.000000000000000e+00
0.000000000000000e+00 0.000000000000000e+00 0.000000000000000e+00

0.000000000000000e+00 0.000000000000000e+00 0.000000000000000e+00
0.000000000000000e+00 0.000000000000000e+00 0.000000000000000e+00
0.000000000000000e+00 0.000000000000000e+00 0.000000000000000e+00

0.000000000000000e+00 0.000000000000000e+00 0.000000000000000e+00
0.000000000000000e+00 0.000000000000000e+00 0.000000000000000e+00
0.000000000000000e+00 0.000000000000000e+00 0.000000000000000e+00

0.000000000000000e+00 0.000000000000000e+00 0.000000000000000e+00
0.000000000000000e+00 0.000000000000000e+00 0.000000000000000e+00
0.000000000000000e+00 0.000000000000000e+00 0.000000000000000e+00

0.000000000000000e+00 0.000000000000000e+00 0.000000000000000e+00
0.000000000000000e+00 0.000000000000000e+00 0.000000000000000e+00
0.000000000000000e+00 0.000000000000000e+00 0.000000000000000e+00

0.000000000000000e+00 0.000000000000000e+00 0.000000000000000e+00
0.000000000000000e+00 0.000000000000000e+00 0.000000000000000e+00
0.000000000000000e+00 0.000000000000000e+00 0.000000000000000e+00

0.000000000000000e+00 0.000000000000000e+00 0.000000000000000e+00
0.000000000000000e+00 0.000000000000000e+00 0.000000000000000e+00
0.000000000000000e+00 0.000000000000000e+00 0.000000000000000e+00

0.000000000000000e+00 0.000000000000000e+00 0.000000000000000e+00
0.000000000000000e+00 0.000000000000000e+00 0.000000000000000e+00
0.000000000000000e+00 0.000000000000000e+00 0.000000000000000e+00

0.000000000000000e+00 0.000000000000000e+00 0.000000000000000e+00
0.000000000000000e+00 0.000000000000000e+00 0.000000000000000e+00
0.000000000000000e+00 0.000000000000000e+00 0.000000000000000e+00

0.000000000000000e+00 0.000000000000000e+00 0.000000000000000e+00
0.000000000000000e+00 0.000000000000000e+00 0.000000000000000e+00
0.000000000000000e+00 0.000000000000000e+00 0.000000000000000e+00

0.000000000000000e+00 0.000000000000000e+00 0.000000000000000e+00
0.000000000000000e+00 0.000000000000000e+00 0.000000000000000e+00
0.000000000000000e+00 0.000000000000000e+00 0.000000000000000e+00

0.000000000000000e+00 0.000000000000000e+00 0.000000000000000e+00
0.000000000000000e+00 0.000000000000000e+00 0.000000000000000e+00
0.000000000000000e+00 0.000000000000000e+00 0.000000000000000e+00

0.000000000000000e+00 0.000000000000000e+00 0.000000000000000e+00
0.000000000000000e+00 0.000000000000000e+00 0.000000000000000e+00
0.000000000000000e+00 0.000000000000000e+00 0.000000000000000e+00

0.000000000000000e+00 0.000000000000000e+00 0.000000000000000e+00
0.000000000000000e+00 0.000000000000000e+00 0.000000000000000e+00
0.000000000000000e+00 0.000000000000000e+00 0.000000000000000e+00

0.000000000000000e+00 0.000000000000000e+00 0.000000000000000e+00
0.000000000000000e+00 0.000000000000000e+00 0.000000000000000e+00
0.000000000000000e+00 0.000000000000000e+00 0.000000000000000e+00

0.000000000000000e+00 0.000000000000000e+00 0.000000000000000e+00
0.000000000000000e+00 0.000000000000000e+00 0.000000000000000e+00
0.000000000000000e+00 0.000000000000000e+00 0.000000000000000e+00

0.000000000000000e+00 0.000000000000000e+00 0.000000000000000e+00
0.000000000000000e+00 0.000000000000000e+00 0.000000000000000e+00
0.000000000000000e+00 0.000000000000000e+00 0.000000000000000e+00

0.000000000000000e+00 0.000000000000000e+00 0.000000000000000e+00
0.000000000000000e+00 0.000000000000000e+00 0.000000000000000e+00
0.000000000000000e+00 0.000000000000000e+00 0.000000000000000e+00

0.000000000000000e+00 0.000000000000000e+00 0.000000000000000e+00
0.000000000000000e+00 0.000000000000000e+00 0.000000000000000e+00
0.000000000000000e+00 0.000000000000000e+00 0.000000000000000e+00

0.000000000000000e+00 0.000000000000000e+00 0.000000000000000e+00
0.000000000000000e+00 0.000000000000000e+00 0.000000000000000e+00
0.000000000000000e+00 0.000000000000000e+00 0.000000000000000e+00

0.000000000000000e+00 0.000000000000000e+00 0.000000000000000e+00
0.000000000000000e+00 0.000000000000000e+00 0.000000000000000e+00
0.000000000000000e+00 0.000000000000000e+00 0.000000000000000e+00

0.000000000000000e+00 0.000000000000000e+00 0.000000000000000e+00
0.000000000000000e+00 0.000000000000000e+00 0.000000000000000e+00
0.000000000000000e+00 0.000000000000000e+00 0.000000000000000e+00

0.000000000000000e+00 0.000000000000000e+00 0.000000000000000e+00
0.000000000000000e+00 0.000000000000000e+00 0.000000000000000e+00
0.000000000000000e+00 0.000000000000000e+00 0.000000000000000e+00

0.000000000000000e+00 0.000000000000000e+00 0.000000000000000e+00
0.000000000000000e+00 0.000000000000000e+00 0.000000000000000e+00
0.000000000000000e+00 0.000000000000000e+00 0.000000000000000e+00

0.000000000000000e+00 0.000000000000000e+00 0.000000000000000e+00
0.000000000000000e+00 0.000000000000000e+00 0.000000000000000e+00
0.000000000000000e+00 0.000000000000000e+00 0.000000000000000e+00

0.000000000000000e+00 0.000000000000000e+00 0.000000000000000e+00
0.000000000000000e+00 0.000000000000000e+00 0.000000000000000e+00
0.000000000000000e+00 0.000000000000000e+00 0.000000000000000e+00

0.000000000000000e+00 0.000000000000000e+00 0.000000000000000e+00
0.000000000000000e+00 0.000000000000000e+00 0.000000000000000e+00
0.000000000000000e+00 0.000000000000000e+00 0.000000000000000e+00

0.000000000000000e+00 0.000000000000000e+00 0.000000000000000e+00
0.000000000000000e+00 0.000000000000000e+00 0.000000000000000e+00
0.000000000000000e+00 0.000000000000000e+00 0.000000000000000e+00

0.000000000000000e+00 0.000000000000000e+00 0.000000000000000e+00
0.000000000000000e+00 0.000000000000000e+00 0.000000000000000e+00
0.000000000000000e+00 0.000000000000000e+00 0.000000000000000e+00

0.000000000000000e+00 0.000000000000000e+00 0.000000000000000e+00
0.000000000000000e+00 0.000000000000000e+00 0.000000000000000e+00
0.000000000000000e+00 0.000000000000000e+00 0.000000000000000e+00

0.000000000000000e+00 0.000000000000000e+00 0.000000000000000e+00
0.000000000000000e+00 0.000000000000000e+00 0.000000000000000e+00
0.000000000000000e+00 0.000000000000000e+00 0.000000000000000e+00

0.000000000000000e+00 0.000000000000000e+00 0.000000000000000e+00
0.000000000000000e+00 0.000000000000000e+00 0.000000000000000e+00
0.000000000000000e+00 0.000000000000000e+00 0.000000000000000e+00

0.000000000000000e+00 0.000000000000000e+00 0.000000000000000e+00
0.000000000000000e+00 0.000000000000000e+00 0.000000000000000e+00
0.000000000000000e+00 0.000000000000000e+00 0.000000000000000e+00

0.000000000000000e+00 0.000000000000000e+00 0.000000000000000e+00
0.000000000000000e+00 0.000000000000000e+00 0.000000000000000e+00
0.000000000000000e+00 0.000000000000000e+00 0.000000000000000e+00

0.000000000000000e+00 0.000000000000000e+00 0.000000000000000e+00
0.000000000000000e+00 0.000000000000000e+00 0.000000000000000e+00
0.000000000000000e+00 0.000000000000000e+00 0.000000000000000e+00

0.000000000000000e+00 0.000000000000000e+00 0.000000000000000e+00
0.000000000000000e+00 0.000000000000000e+00 0.000000000000000e+00
0.000000000000000e+00 0.000000000000000e+00 0.000000000000000e+00

0.000000000000000e+00 0.000000000000000e+00 0.000000000000000e+00
0.000000000000000e+00 0.000000000000000e+00 0.000000000000000e+00
0.000000000000000e+00 0.000000000000000e+00 0.000000000000000e+00

0.000000000000000e+00 0.000000000000000e+00 0.000000000000000e+00
0.000000000000000e+00 0.000000000000000e+00 0.000000000000000e+00
0.000000000000000e+00 0.000000000000000e+00 0.000000000000000e+00

0.000000000000000e+00 0.000000000000000e+00 0.000000000000000e+00
0.000000000000000e+00 0.000000000000000e+00 0.000000000000000e+00
0.000000000000000e+00 0.000000000000000e+00 0.000000000000000e+00

0.000000000000000e+00 0.000000000000000e+00 0.000000000000000e+00
0.000000000000000e+00 0.000000000000000e+00 0.000000000000000e+00
0.000000000000000e+00 0.000000000000000e+00 0.000000000000000e+00

0.000000000000000e+00 0.000000000000000e+00 0.000000000000000e+00
0.000000000000000e+00 0.000000000000000e+00 0.000000000000000e+00
0.000000000000000e+00 0.000000000000000e+00 0.000000000000000e+00

0.000000000000000e+00 0.000000000000000e+00 0.000000000000000e+00
0.000000000000000e+00 0.000000000000000e+00 0.000000000000000e+00
0.000000000000000e+00 0.000000000000000e+00 0.000000000000000e+00

0.000000000000000e+00 0.000000000000000e+00 0.000000000000000e+00
0.000000000000000e+00 0.000000000000000e+00 0.000000000000000e+00
0.000000000000000e+00 0.000000000000000e+00 0.000000000000000e+00

0.000000000000000e+00 0.000000000000000e+00 0.000000000000000e+00
0.000000000000000e+00 0.000000000000000e+00 0.000000000000000e+00
0.000000000000000e+00 0.000000000000000e+00 0.000000000000000e+00

0.000000000000000e+00 0.000000000000000e+00 0.000000000000000e+00
0.000000000000000e+00 0.000000000000000e+00 0.000000000000000e+00
0.000000000000000e+00 0.000000000000000e+00 0.000000000000000e+00

0.000000000000000e+00 0.000000000000000e+00 0.000000000000000e+00
0.000000000000000e+00 0.000000000000000e+00 0.000000000000000e+00
0.000000000000000e+00 0.000000000000000e+00 0.000000000000000e+00

0.000000000000000e+00 0.000000000000000e+00 0.000000000000000e+00
0.000000000000000e+00 0.000000000000000e+00 0.000000000000000e+00
0.000000000000000e+00 0.000000000000000e+00 0.000000000000000e+00

0.000000000000000e+00 0.000000000000000e+00 0.000000000000000e+00
0.000000000000000e+00 0.000000000000000e+00 0.000000000000000e+00
0.000000000000000e+00 0.000000000000000e+00 0.000000000000000e+00

0.000000000000000e+00 0.000000000000000e+00 0.000000000000000e+00
0.000000000000000e+00 0.000000000000000e+00 0.000000000000000e+00
0.000000000000000e+00 0.000000000000000e+00 0.000000000000000e+00

0.000000000000000e+00 0.000000000000000e+00 0.000000000000000e+00
0.000000000000000e+00 0.000000000000000e+00 0.000000000000000e+00
0.000000000000000e+00 0.000000000000000e+00 0.000000000000000e+00

0.000000000000000e+00 0.000000000000000e+00 0.000000000000000e+00
0.000000000000000e+00 0.000000000000000e+00 0.000000000000000e+00
0.000000000000000e+00 0.000000000000000e+00 0.000000000000000e+00

0.000000000000000e+00 0.000000000000000e+00 0.000000000000000e+00
0.000000000000000e+00 0.000000000000000e+00 0.000000000000000e+00
0.000000000000000e+00 0.000000000000000e+00 0.000000000000000e+00

0.000000000000000e+00 0.000000000000000e+00 0.000000000000000e+00
0.000000000000000e+00 0.000000000000000e+00 0.000000000000000e+00
0.000000000000000e+00 0.000000000000000e+00 0.000000000000000e+00

0.000000000000000e+00 0.000000000000000e+00 0.000000000000000e+00
0.000000000000000e+00 0.000000000000000e+00 0.000000000000000e+00
0.000000000000000e+00 0.000000000000000e+00 0.000000000000000e+00

0.000000000000000e+00 0.000000000000000e+00 0.000000000000000e+00
0.000000000000000e+00 0.000000000000000e+00 0.000000000000000e+00
0.000000000000000e+00 0.000000000000000e+00 0.000000000000000e+00

0.000000000000000e+00 0.000000000000000e+00 0.000000000000000e+00
0.000000000000000e+00 0.000000000000000e+00 0.000000000000000e+00
0.000000000000000e+00 0.000000000000000e+00 0.000000000000000e+00

0.000000000000000e+00 0.000000000000000e+00 0.000000000000000e+00
0.000000000000000e+00 0.000000000000000e+00 0.000000000000000e+00
0.000000000000000e+00 0.000000000000000e+00 0.000000000000000e+00

0.000000000000000e+00 0.000000000000000e+00 0.000000000000000e+00
0.000000000000000e+00 0.000000000000000e+00 0.000000000000000e+00
0.000000000000000e+00 0.000000000000000e+00 0.000000000000000e+00

0.000000000000000e+00 0.000000000000000e+00 0.000000000000000e+00
0.000000000000000e+00 0.000000000000000e+00 0.000000000000000e+00
0.000000000000000e+00 0.000000000000000e+00 0.000000000000000e+00

0.000000000000000e+00 0.000000000000000e+00 0.000000000000000e+00
0.000000000000000e+00 0.000000000000000e+00 0.000000000000000e+00
0.000000000000000e+00 0.000000000000000e+00 0.000000000000000e+00

0.000000000000000e+00 0.000000000000000e+00 0.000000000000000e+00
0.000000000000000e+00 0.000000000000000e+00 0.000000000000000e+00
0.000000000000000e+00 0.000000000000000e+00 0.000000000000000e+00

0.000000000000000e+00 0.000000000000000e+00 0.000000000000000e+00
0.000000000000000e+00 0.000000000000000e+00 0.000000000000000e+00
0.000000000000000e+00 0.000000000000000e+00 0.000000000000000e+00

0.000000000000000e+00 0.000000000000000e+00 0.000000000000000e+00
0.000000000000000e+00 0.000000000000000e+00 0.000000000000000e+00
0.000000000000000e+00 0.000000000000000e+00 0.000000000000000e+00

0.000000000000000e+00 0.000000000000000e+00 0.000000000000000e+00
0.000000000000000e+00 0.000000000000000e+00 0.000000000000000e+00
0.000000000000000e+00 0.000000000000000e+00 0.000000000000000e+00

0.000000000000000e+00 0.000000000000000e+00 0.000000000000000e+00
0.000000000000000e+00 0.000000000000000e+00 0.000000000000000e+00
0.000000000000000e+00 0.000000000000000e+00 0.000000000000000e+00

0.000000000000000e+00 0.000000000000000e+00 0.000000000000000e+00
0.000000000000000e+00 0.000000000000000e+00 0.000000000000000e+00
0.000000000000000e+00 0.000000000000000e+00 0.000000000000000e+00

0.000000000000000e+00 0.000000000000000e+00 0.000000000000000e+00
0.000000000000000e+00 0.000000000000000e+00 0.000000000000000e+00
0.000000000000000e+00 0.000000000000000e+00 0.000000000000000e+00

0.000000000000000e+00 0.000000000000000e+00 0.000000000000000e+00
0.000000000000000e+00 0.000000000000000e+00 0.000000000000000e+00
0.000000000000000e+00 0.000000000000000e+00 0.000000000000000e+00

0.000000000000000e+00 0.000000000000000e+00 0.000000000000000e+00
0.000000000000000e+00 0.000000000000000e+00 0.000000000000000e+00
0.000000000000000e+00 0.000000000000000e+00 0.000000000000000e+00

0.000000000000000e+00 0.000000000000000e+00 0.000000000000000e+00
0.000000000000000e+00 0.000000000000000e+00 0.000000000000000e+00
0.000000000000000e+00 0.000000000000000e+00 0.000000000000000e+00

0.000000000000000e+00 0.000000000000000e+00 0.000000000000000e+00
0.000000000000000e+00 0.000000000000000e+00 0.000000000000000e+00
0.000000000000000e+00 0.000000000000000e+00 0.000000000000000e+00

0.000000000000000e+00 0.000000000000000e+00 0.000000000000000e+00
0.000000000000000e+00 0.000000000000000e+00 0.000000000000000e+00
0.000000000000000e+00 0.000000000000000e+00 0.000000000000000e+00

0.000000000000000e+00 0.000000000000000e+00 0.000000000000000e+00
0.000000000000000e+00 0.000000000000000e+00 0.000000000000000e+00
0.000000000000000e+00 0.000000000000000e+00 0.000000000000000e+00

0.000000000000000e+00 0.000000000000000e+00 0.000000000000000e+00
0.000000000000000e+00 0.000000000000000e+00 0.000000000000000e+00
0.000000000000000e+00 0.000000000000000e+00 0.000000000000000e+00

0.000000000000000e+00 0.000000000000000e+00 0.000000000000000e+00
0.000000000000000e+00 0.000000000000000e+00 0.000000000000000e+00
0.000000000000000e+00 0.000000000000000e+00 0.000000000000000e+00

0.000000000000000e+00 0.000000000000000e+00 0.000000000000000e+00
0.000000000000000e+00 0.000000000000000e+00 0.000000000000000e+00
0.000000000000000e+00 0.000000000000000e+00 0.000000000000000e+00

0.000000000000000e+00 0.000000000000000e+00 0.000000000000000e+00
0.000000000000000e+00 0.000000000000000e+00 0.000000000000000e+00
0.000000000000000e+00 0.000000000000000e+00 0.000000000000000e+00

0.000000000000000e+00 0.000000000000000e+00 0.000000000000000e+00
0.000000000000000e+00 0.000000000000000e+00 0.000000000000000e+00
0.000000000000000e+00 0.000000000000000e+00 0.000000000000000e+00

0.000000000000000e+00 0.000000000000000e+00 0.000000000000000e+00
0.000000000000000e+00 0.000000000000000e+00 0.000000000000000e+00
0.000000000000000e+00 0.000000000000000e+00 0.000000000000000e+00

0.000000000000000e+00 0.000000000000000e+00 0.000000000000000e+00
0.000000000000000e+00 0.000000000000000e+00 0.000000000000000e+00
0.000000000000000e+00 0.000000000000000e+00 0.000000000000000e+00

0.000000000000000e+00 0.000000000000000e+00 0.000000000000000e+00
0.000000000000000e+00 0.000000000000000e+00 0.000000000000000e+00
0.000000000000000e+00 0.000000000000000e+00 0.000000000000000e+00

0.000000000000000e+00 0.000000000000000e+00 0.000000000000000e+00
0.000000000000000e+00 0.000000000000000e+00 0.000000000000000e+00
0.000000000000000e+00 0.000000000000000e+00 0.000000000000000e+00

0.000000000000000e+00 0.000000000000000e+00 0.000000000000000e+00
0.000000000000000e+00 0.000000000000000e+00 0.000000000000000e+00
0.000000000000000e+00 0.000000000000000e+00 0.000000000000000e+00

0.000000000000000e+00 0.000000000000000e+00 0.000000000000000e+00
0.000000000000000e+00 0.000000000000000e+00 0.000000000000000e+00
0.000000000000000e+00 0.000000000000000e+00 0.000000000000000e+00

0.000000000000000e+00 0.000000000000000e+00 0.000000000000000e+00
0.000000000000000e+00 0.000000000000000e+00 0.000000000000000e+00
0.000000000000000e+00 0.000000000000000e+00 0.000000000000000e+00

0.000000000000000e+00 0.000000000000000e+00 0.000000000000000e+00
0.000000000000000e+00 0.000000000000000e+00 0.000000000000000e+00
0.000000000000000e+00 0.000000000000000e+00 0.000000000000000e+00

0.000000000000000e+00 0.000000000000000e+00 0.000000000000000e+00
0.000000000000000e+00 0.000000000000000e+00 0.000000000000000e+00
0.000000000000000e+00 0.000000000000000e+00 0.000000000000000e+00

0.000000000000000e+00 0.000000000000000e+00 0.000000000000000e+00
0.000000000000000e+00 0.000000000000000e+00 0.000000000000000e+00
0.000000000000000e+00 0.000000000000000e+00 0.000000000000000e+00

0.000000000000000e+00 0.000000000000000e+00 0.000000000000000e+00
0.000000000000000e+00 0.000000000000000e+00 0.000000000000000e+00
0.000000000000000e+00 0.000000000000000e+00 0.000000000000000e+00

0.000000000000000e+00 0.000000000000000e+00 0.000000000000000e+00
0.000000000000000e+00 0.000000000000000e+00 0.000000000000000e+00
0.000000000000000e+00 0.000000000000000e+00 0.000000000000000e+00

0.000000000000000e+00 0.000000000000000e+00 0.000000000000000e+00
0.000000000000000e+00 0.000000000000000e+00 0.000000000000000e+00
0.000000000000000e+00 0.000000000000000e+00 0.000000000000000e+00

0.000000000000000e+00 0.000000000000000e+00 0.000000000000000e+00
0.000000000000000e+00 0.000000000000000e+00 0.000000000000000e+00
0.000000000000000e+00 0.000000000000000e+00 0.000000000000000e+00

0.000000000000000e+00 0.000000000000000e+00 0.000000000000000e+00
0.000000000000000e+00 0.000000000000000e+00 0.000000000000000e+00
0.000000000000000e+00 0.000000000000000e+00 0.000000000000000e+00

0.000000000000000e+00 0.000000000000000e+00 0.000000000000000e+00
0.000000000000000e+00 0.000000000000000e+00 0.000000000000000e+00
0.000000000000000e+00 0.000000000000000e+00 0.000000000000000e+00

0.000000000000000e+00 0.000000000000000e+00 0.000000000000000e+00
0.000000000000000e+00 0.000000000000000e+00 0.000000000000000e+00
0.000000000000000e+00 0.000000000000000e+00 0.000000000000000e+00

0.000000000000000e+00 0.000000000000000e+00 0.000000000000000e+00
0.000000000000000e+00 0.000000000000000e+00 0.000000000000000e+00
0.000000000000000e+00 0.000000000000000e+00 0.000000000000000e+00

0.000000000000000e+00 0.000000000000000e+00 0.000000000000000e+00
0.000000000000000e+00 0.000000000000000e+00 0.000000000000000e+00
0.000000000000000e+00 0.000000000000000e+00 0.000000000000000e+00

0.000000000000000e+00 0.000000000000000e+00 0.000000000000000e+00
0.000000000000000e+00 0.000000000000000e+00 0.000000000000000e+00
0.000000000000000e+00 0.000000000000000e+00 0.000000000000000e+00

0.000000000000000e+00 0.000000000000000e+00 0.000000000000000e+00
0.000000000000000e+00 0.000000000000000e+00 0.000000000000000e+00
0.000000000000000e+00 0.000000000000000e+00 0.000000000000000e+00

0.000000000000000e+00 0.000000000000000e+00 0.000000000000000e+00
0.000000000000000e+00 0.000000000000000e+00 0.000000000000000e+00
0.000000000000000e+00 0.000000000000000e+00 0.000000000000000e+00

0.000000000000000e+00 0.000000000000000e+00 0.000000000000000e+00
0.000000000000000e+00 0.000000000000000e+00 0.000000000000000e+00
0.000000000000000e+00 0.000000000000000e+00 0.000000000000000e+00

0.000000000000000e+00 0.000000000000000e+00 0.000000000000000e+00
0.000000000000000e+00 0.000000000000000e+00 0.000000000000000e+00
0.000000000000000e+00 0.000000000000000e+00 0.000000000000000e+00

0.000000000000000e+00 0.000000000000000e+00 0.000000000000000e+00
0.000000000000000e+00 0.000000000000000e+00 0.000000000000000e+00
0.000000000000000e+00 0.000000000000000e+00 0.000000000000000e+00

0.000000000000000e+00 0.000000000000000e+00 0.000000000000000e+00
0.000000000000000e+00 0.000000000000000e+00 0.000000000000000e+00
0.000000000000000e+00 0.000000000000000e+00 0.000000000000000e+00

0.000000000000000e+00 0.000000000000000e+00 0.000000000000000e+00
0.000000000000000e+00 0.000000000000000e+00 0.000000000000000e+00
0.000000000000000e+00 0.000000000000000e+00 0.000000000000000e+00

0.000000000000000e+00 0.000000000000000e+00 0.000000000000000e+00
0.000000000000000e+00 0.000000000000000e+00 0.000000000000000e+00
0.000000000000000e+00 0.000000000000000e+00 0.000000000000000e+00

0.000000000000000e+00 0.000000000000000e+00 0.000000000000000e+00
0.000000000000000e+00 0.000000000000000e+00 0.000000000000000e+00
0.000000000000000e+00 0.000000000000000e+00 0.000000000000000e+00

0.000000000000000e+00 0.000000000000000e+00 0.000000000000000e+00
0.000000000000000e+00 0.000000000000000e+00 0.000000000000000e+00
0.000000000000000e+00 0.000000000000000e+00 0.000000000000000e+00

0.000000000000000e+00 0.000000000000000e+00 0.000000000000000e+00
0.000000000000000e+00 0.000000000000000e+00 0.000000000000000e+00
0.000000000000000e+00 0.000000000000000e+00 0.000000000000000e+00

0.000000000000000e+00 0.000000000000000e+00 0.000000000000000e+00
0.000000000000000e+00 0.000000000000000e+00 0.000000000000000e+00
0.000000000000000e+00 0.000000000000000e+00 0.000000000000000e+00

0.000000000000000e+00 0.000000000000000e+00 0.000000000000000e+00
0.000000000000000e+00 0.000000000000000e+00 0.000000000000000e+00
0.000000000000000e+00 0.000000000000000e+00 0.000000000000000e+00

0.000000000000000e+00 0.000000000000000e+00 0.000000000000000e+00
0.000000000000000e+00 0.000000000000000e+00 0.000000000000000e+00
0.000000000000000e+00 0.000000000000000e+00 0.000000000000000e+00

0.000000000000000e+00 0.000000000000000e+00 0.000000000000000e+00
0.000000000000000e+00 0.000000000000000e+00 0.000000000000000e+00
0.000000000000000e+00 0.000000000000000e+00 0.000000000000000e+00

0.000000000000000e+00 0.000000000000000e+00 0.000000000000000e+00
0.000000000000000e+00 0.000000000000000e+00 0.000000000000000e+00
0.000000000000000e+00 0.000000000000000e+00 0.000000000000000e+00

0.000000000000000e+00 0.000000000000000e+00 0.000000000000000e+00
0.000000000000000e+00 0.000000000000000e+00 0.000000000000000e+00
0.000000000000000e+00 0.000000000000000e+00 0.000000000000000e+00

0.000000000000000e+00 0.000000000000000e+00 0.000000000000000e+00
0.000000000000000e+00 0.000000000000000e+00 0.000000000000000e+00
0.000000000000000e+00 0.000000000000000e+00 0.000000000000000e+00

0.000000000000000e+00 0.000000000000000e+00 0.000000000000000e+00
0.000000000000000e+00 0.000000000000000e+00 0.000000000000000e+00
0.000000000000000e+00 0.000000000000000e+00 0.000000000000000e+00

0.000000000000000e+00 0.000000000000000e+00 0.000000000000000e+00
0.000000000000000e+00 0.000000000000000e+00 0.000000000000000e+00
0.000000000000000e+00 0.000000000000000e+00 0.000000000000000e+00

0.000000000000000e+00 0.000000000000000e+00 0.000000000000000e+00
0.000000000000000e+00 0.000000000000000e+00 0.000000000000000e+00
0.000000000000000e+00 0.000000000000000e+00 0.000000000000000e+00

0.000000000000000e+00 0.000000000000000e+00 0.000000000000000e+00
0.000000000000000e+00 0.000000000000000e+00 0.000000000000000e+00
0.000000000000000e+00 0.000000000000000e+00 0.000000000000000e+00

0.000000000000000e+00 0.000000000000000e+00 0.000000000000000e+00
0.000000000000000e+00 0.000000000000000e+00 0.000000000000000e+00
0.000000000000000e+00 0.000000000000000e+00 0.000000000000000e+00

0.000000000000000e+00 0.000000000000000e+00 0.000000000000000e+00
0.000000000000000e+00 0.000000000000000e+00 0.000000000000000e+00
0.000000000000000e+00 0.000000000000000e+00 0.000000000000000e+00

0.000000000000000e+00 0.000000000000000e+00 0.000000000000000e+00
0.000000000000000e+00 0.000000000000000e+00 0.000000000000000e+00
0.000000000000000e+00 0.000000000000000e+00 0.000000000000000e+00

0.000000000000000e+00 0.000000000000000e+00 0.000000000000000e+00
0.000000000000000e+00 0.000000000000000e+00 0.000000000000000e+00
0.000000000000000e+00 0.000000000000000e+00 0.000000000000000e+00

0.000000000000000e+00 0.000000000000000e+00 0.000000000000000e+00
0.000000000000000e+00 0.000000000000000e+00 0.000000000000000e+00
0.000000000000000e+00 0.000000000000000e+00 0.000000000000000e+00

0.000000000000000e+00 0.000000000000000e+00 0.000000000000000e+00
0.000000000000000e+00 0.000000000000000e+00 0.000000000000000e+00
0.000000000000000e+00 0.000000000000000e+00 0.000000000000000e+00

0.000000000000000e+00 0.000000000000000e+00 0.000000000000000e+00
0.000000000000000e+00 0.000000000000000e+00 0.000000000000000e+00
0.000000000000000e+00 0.000000000000000e+00 0.000000000000000e+00

0.000000000000000e+00 0.000000000000000e+00 0.000000000000000e+00
0.000000000000000e+00 0.000000000000000e+00 0.000000000000000e+00
0.000000000000000e+00 0.000000000000000e+00 0.000000000000000e+00

0.000000000000000e+00 0.000000000000000e+00 0.000000000000000e+00
0.000000000000000e+00 0.000000000000000e+00 0.000000000000000e+00
0.000000000000000e+00 0.000000000000000e+00 0.000000000000000e+00

0.000000000000000e+00 0.000000000000000e+00 0.000000000000000e+00
0.000000000000000e+00 0.000000000000000e+00 0.000000000000000e+00
0.000000000000000e+00 0.000000000000000e+00 0.000000000000000e+00

0.000000000000000e+00 0.000000000000000e+00 0.000000000000000e+00
0.000000000000000e+00 0.000000000000000e+00 0.000000000000000e+00
0.000000000000000e+00 0.000000000000000e+00 0.000000000000000e+00

0.000000000000000e+00 0.000000000000000e+00 0.000000000000000e+00
0.000000000000000e+00 0.000000000000000e+00 0.000000000000000e+00
0.000000000000000e+00 0.000000000000000e+00 0.000000000000000e+00

0.000000000000000e+00 0.000000000000000e+00 0.000000000000000e+00
0.000000000000000e+00 0.000000000000000e+00 0.000000000000000e+00
0.000000000000000e+00 0.000000000000000e+00 0.000000000000000e+00

0.000000000000000e+00 0.000000000000000e+00 0.000000000000000e+00
0.000000000000000e+00 0.000000000000000e+00 0.000000000000000e+00
0.000000000000000e+00 0.000000000000000e+00 0.000000000000000e+00

0.000000000000000e+00 0.000000000000000e+00 0.000000000000000e+00
0.000000000000000e+00 0.000000000000000e+00 0.000000000000000e+00
0.000000000000000e+00 0.000000000000000e+00 0.000000000000000e+00

0.000000000000000e+00 0.000000000000000e+00 0.000000000000000e+00
0.000000000000000e+00 0.000000000000000e+00 0.000000000000000e+00
0.000000000000000e+00 0.000000000000000e+00 0.000000000000000e+00

0.000000000000000e+00 0.000000000000000e+00 0.000000000000000e+00
0.000000000000000e+00 0.000000000000000e+00 0.000000000000000e+00
0.000000000000000e+00 0.000000000000000e+00 0.000000000000000e+00

0.000000000000000e+00 0.000000000000000e+00 0.000000000000000e+00
0.000000000000000e+00 0.000000000000000e+00 0.000000000000000e+00
0.000000000000000e+00 0.000000000000000e+00 0.000000000000000e+00

0.000000000000000e+00 0.000000000000000e+00 0.000000000000000e+00
0.000000000000000e+00 0.000000000000000e+00 0.000000000000000e+00
0.000000000000000e+00 0.000000000000000e+00 0.000000000000000e+00

0.000000000000000e+00 0.000000000000000e+00 0.000000000000000e+00
0.000000000000000e+00 0.000000000000000e+00 0.000000000000000e+00
0.000000000000000e+00 0.000000000000000e+00 0.000000000000000e+00

0.000000000000000e+00 0.000000000000000e+00 0.000000000000000e+00
0.000000000000000e+00 0.000000000000000e+00 0.000000000000000e+00
0.000000000000000e+00 0.000000000000000e+00 0.000000000000000e+00

0.000000000000000e+00 0.000000000000000e+00 0.000000000000000e+00
0.000000000000000e+00 0.000000000000000e+00 0.000000000000000e+00
0.000000000000000e+00 0.000000000000000e+00 0.000000000000000e+00

0.000000000000000e+00 0.000000000000000e+00 0.000000000000000e+00
0.000000000000000e+00 0.000000000000000e+00 0.000000000000000e+00
0.000000000000000e+00 0.000000000000000e+00 0.000000000000000e+00

0.000000000000000e+00 0.000000000000000e+00 0.000000000000000e+00
0.000000000000000e+00 0.000000000000000e+00 0.000000000000000e+00
0.000000000000000e+00 0.000000000000000e+00 0.000000000000000e+00

0.000000000000000e+00 0.000000000000000e+00 0.000000000000000e+00
0.000000000000000e+00 0.000000000000000e+00 0.000000000000000e+00
0.000000000000000e+00 0.000000000000000e+00 0.000000000000000e+00

0.000000000000000e+00 0.000000000000000e+00 0.000000000000000e+00
0.000000000000000e+00 0.000000000000000e+00 0.000000000000000e+00
0.000000000000000e+00 0.000000000000000e+00 0.000000000000000e+00

0.000000000000000e+00 0.000000000000000e+00 0.000000000000000e+00
0.000000000000000e+00 0.000000000000000e+00 0.000000000000000e+00
0.000000000000000e+00 0.000000000000000e+00 0.000000000000000e+00

0.000000000000000e+00 0.000000000000000e+00 0.000000000000000e+00
0.000000000000000e+00 0.000000000000000e+00 0.000000000000000e+00
0.000000000000000e+00 0.000000000000000e+00 0.000000000000000e+00

0.000000000000000e+00 0.000000000000000e+00 0.000000000000000e+00
0.000000000000000e+00 0.000000000000000e+00 0.000000000000000e+00
0.000000000000000e+00 0.000000000000000e+00 0.000000000000000e+00

0.000000000000000e+00 0.000000000000000e+00 0.000000000000000e+00
0.000000000000000e+00 0.000000000000000e+00 0.000000000000000e+00
0.000000000000000e+00 0.000000000000000e+00 0.000000000000000e+00

0.000000000000000e+00 0.000000000000000e+00 0.000000000000000e+00
0.000000000000000e+00 0.000000000000000e+00 0.000000000000000e+00
0.000000000000000e+00 0.000000000000000e+00 0.000000000000000e+00

0.000000000000000e+00 0.000000000000000e+00 0.000000000000000e+00
0.000000000000000e+00 0.000000000000000e+00 0.000000000000000e+00
0.000000000000000e+00 0.000000000000000e+00 0.000000000000000e+00

0.000000000000000e+00 0.000000000000000e+00 0.000000000000000e+00
0.000000000000000e+00 0.000000000000000e+00 0.000000000000000e+00
0.000000000000000e+00 0.000000000000000e+00 0.000000000000000e+00

0.000000000000000e+00 0.000000000000000e+00 0.000000000000000e+00
0.000000000000000e+00 0.000000000000000e+00 0.000000000000000e+00
0.000000000000000e+00 0.000000000000000e+00 0.000000000000000e+00

0.000000000000000e+00 0.000000000000000e+00 0.000000000000000e+00
0.000000000000000e+00 0.000000000000000e+00 0.000000000000000e+00
0.000000000000000e+00 0.000000000000000e+00 0.000000000000000e+00

0.000000000000000e+00 0.000000000000000e+00 0.000000000000000e+00
0.000000000000000e+00 0.000000000000000e+00 0.000000000000000e+00
0.000000000000000e+00 0.000000000000000e+00 0.000000000000000e+00

0.000000000000000e+00 0.000000000000000e+00 0.000000000000000e+00
0.000000000000000e+00 0.000000000000000e+00 0.000000000000000e+00
0.000000000000000e+00 0.000000000000000e+00 0.000000000000000e+00

0.000000000000000e+00 0.000000000000000e+00 0.000000000000000e+00
0.000000000000000e+00 0.000000000000000e+00 0.000000000000000e+00
0.000000000000000e+00 0.000000000000000e+00 0.000000000000000e+00

0.000000000000000e+00 0.000000000000000e+00 0.000000000000000e+00
0.000000000000000e+00 0.000000000000000e+00 0.000000000000000e+00
0.000000000000000e+00 0.000000000000000e+00 0.000000000000000e+00

0.000000000000000e+00 0.000000000000000e+00 0.000000000000000e+00
0.000000000000000e+00 0.000000000000000e+00 0.000000000000000e+00
0.000000000000000e+00 0.000000000000000e+00 0.000000000000000e+00

0.000000000000000e+00 0.000000000000000e+00 0.000000000000000e+00
0.000000000000000e+00 0.000000000000000e+00 0.000000000000000e+00
0.000000000000000e+00 0.000000000000000e+00 0.000000000000000e+00

0.000000000000000e+00 0.000000000000000e+00 0.000000000000000e+00
0.000000000000000e+00 0.000000000000000e+00 0.000000000000000e+00
0.000000000000000e+00 0.000000000000000e+00 0.000000000000000e+00

0.000000000000000e+00 0.000000000000000e+00 0.000000000000000e+00
0.000000000000000e+00 0.000000000000000e+00 0.000000000000000e+00
0.000000000000000e+00 0.000000000000000e+00 0.000000000000000e+00

0.000000000000000e+00 0.000000000000000e+00 0.000000000000000e+00
0.000000000000000e+00 0.000000000000000e+00 0.000000000000000e+00
0.000000000000000e+00 0.000000000000000e+00 0.000000000000000e+00

0.000000000000000e+00 0.000000000000000e+00 0.000000000000000e+00
0.000000000000000e+00 0.000000000000000e+00 0.000000000000000e+00
0.000000000000000e+00 0.000000000000000e+00 0.000000000000000e+00

0.000000000000000e+00 0.000000000000000e+00 0.000000000000000e+00
0.000000000000000e+00 0.000000000000000e+00 0.000000000000000e+00
0.000000000000000e+00 0.000000000000000e+00 0.000000000000000e+00

0.000000000000000e+00 0.000000000000000e+00 0.000000000000000e+00
0.000000000000000e+00 0.000000000000000e+00 0.000000000000000e+00
0.000000000000000e+00 0.000000000000000e+00 0.000000000000000e+00

0.000000000000000e+00 0.000000000000000e+00 0.000000000000000e+00
0.000000000000000e+00 0.000000000000000e+00 0.000000000000000e+00
0.000000000000000e+00 0.000000000000000e+00 0.000000000000000e+00

0.000000000000000e+00 0.000000000000000e+00 0.000000000000000e+00
0.000000000000000e+00 0.000000000000000e+00 0.000000000000000e+00
0.000000000000000e+00 0.000000000000000e+00 0.000000000000000e+00

0.000000000000000e+00 0.000000000000000e+00 0.000000000000000e+00
0.000000000000000e+00 0.000000000000000e+00 0.000000000000000e+00
0.000000000000000e+00 0.000000000000000e+00 0.000000000000000e+00

0.000000000000000e+00 0.000000000000000e+00 0.000000000000000e+00
0.000000000000000e+00 0.000000000000000e+00 0.000000000000000e+00
0.000000000000000e+00 0.000000000000000e+00 0.000000000000000e+00

0.000000000000000e+00 0.000000000000000e+00 0.000000000000000e+00
0.000000000000000e+00 0.000000000000000e+00 0.000000000000000e+00
0.000000000000000e+00 0.000000000000000e+00 0.000000000000000e+00

0.000000000000000e+00 0.000000000000000e+00 0.000000000000000e+00
0.000000000000000e+00 0.000000000000000e+00 0.000000000000000e+00
0.000000000000000e+00 0.000000000000000e+00 0.000000000000000e+00

0.000000000000000e+00 0.000000000000000e+00 0.000000000000000e+00
0.000000000000000e+00 0.000000000000000e+00 0.000000000000000e+00
0.000000000000000e+00 0.000000000000000e+00 0.000000000000000e+00

0.000000000000000e+00 0.000000000000000e+00 0.000000000000000e+00
0.000000000000000e+00 0.000000000000000e+00 0.000000000000000e+00
0.000000000000000e+00 0.000000000000000e+00 0.000000000000000e+00

0.000000000000000e+00 0.000000000000000e+00 0.000000000000000e+00
0.000000000000000e+00 0.000000000000000e+00 0.000000000000000e+00
0.000000000000000e+00 0.000000000000000e+00 0.000000000000000e+00

0.000000000000000e+00 0.000000000000000e+00 0.000000000000000e+00
0.000000000000000e+00 0.000000000000000e+00 0.000000000000000e+00
0.000000000000000e+00 0.000000000000000e+00 0.000000000000000e+00

0.000000000000000e+00 0.000000000000000e+00 0.000000000000000e+00
0.000000000000000e+00 0.000000000000000e+00 0.000000000000000e+00
0.000000000000000e+00 0.000000000000000e+00 0.000000000000000e+00

0.000000000000000e+00 0.000000000000000e+00 0.000000000000000e+00
0.000000000000000e+00 0.000000000000000e+00 0.000000000000000e+00
0.000000000000000e+00 0.000000000000000e+00 0.000000000000000e+00

0.000000000000000e+00 0.000000000000000e+00 0.000000000000000e+00
0.000000000000000e+00 0.000000000000000e+00 0.000000000000000e+00
0.000000000000000e+00 0.000000000000000e+00 0.000000000000000e+00

0.000000000000000e+00 0.000000000000000e+00 0.000000000000000e+00
0.000000000000000e+00 0.000000000000000e+00 0.000000000000000e+00
0.000000000000000e+00 0.000000000000000e+00 0.000000000000000e+00

0.000000000000000e+00 0.000000000000000e+00 0.000000000000000e+00
0.000000000000000e+00 0.000000000000000e+00 0.000000000000000e+00
0.000000000000000e+00 0.000000000000000e+00 0.000000000000000e+00

0.000000000000000e+00 0.000000000000000e+00 0.000000000000000e+00
0.000000000000000e+00 0.000000000000000e+00 0.000000000000000e+00
0.000000000000000e+00 0.000000000000000e+00 0.000000000000000e+00

0.000000000000000e+00 0.000000000000000e+00 0.000000000000000e+00
0.000000000000000e+00 0.000000000000000e+00 0.000000000000000e+00
0.000000000000000e+00 0.000000000000000e+00 0.000000000000000e+00

0.000000000000000e+00 0.000000000000000e+00 0.000000000000000e+00
0.000000000000000e+00 0.000000000000000e+00 0.000000000000000e+00
0.000000000000000e+00 0.000000000000000e+00 0.000000000000000e+00

0.000000000000000e+00 0.000000000000000e+00 0.000000000000000e+00
0.000000000000000e+00 0.000000000000000e+00 0.000000000000000e+00
0.000000000000000e+00 0.000000000000000e+00 0.000000000000000e+00

0.000000000000000e+00 0.000000000000000e+00 0.000000000000000e+00
0.000000000000000e+00 0.000000000000000e+00 0.000000000000000e+00
0.000000000000000e+00 0.000000000000000e+00 0.000000000000000e+00

0.000000000000000e+00 0.000000000000000e+00 0.000000000000000e+00
0.000000000000000e+00 0.000000000000000e+00 0.000000000000000e+00
0.000000000000000e+00 0.000000000000000e+00 0.000000000000000e+00

0.000000000000000e+00 0.000000000000000e+00 0.000000000000000e+00
0.000000000000000e+00 0.000000000000000e+00 0.000000000000000e+00
0.000000000000000e+00 0.000000000000000e+00 0.000000000000000e+00

0.000000000000000e+00 0.000000000000000e+00 0.000000000000000e+00
0.000000000000000e+00 0.000000000000000e+00 0.000000000000000e+00
0.000000000000000e+00 0.000000000000000e+00 0.000000000000000e+00

0.000000000000000e+00 0.000000000000000e+00 0.000000000000000e+00
0.000000000000000e+00 0.000000000000000e+00 0.000000000000000e+00
0.000000000000000e+00 0.000000000000000e+00 0.000000000000000e+00

0.000000000000000e+00 0.000000000000000e+00 0.000000000000000e+00
0.000000000000000e+00 0.000000000000000e+00 0.000000000000000e+00
0.000000000000000e+00 0.000000000000000e+00 0.000000000000000e+00

0.000000000000000e+00 0.000000000000000e+00 0.000000000000000e+00
0.000000000000000e+00 0.000000000000000e+00 0.000000000000000e+00
0.000000000000000e+00 0.000000000000000e+00 0.000000000000000e+00

0.000000000000000e+00 0.000000000000000e+00 0.000000000000000e+00
0.000000000000000e+00 0.000000000000000e+00 0.000000000000000e+00
0.000000000000000e+00 0.000000000000000e+00 0.000000000000000e+00

0.000000000000000e+00 0.000000000000000e+00 0.000000000000000e+00
0.000000000000000e+00 0.000000000000000e+00 0.000000000000000e+00
0.000000000000000e+00 0.000000000000000e+00 0.000000000000000e+00

0.000000000000000e+00 0.000000000000000e+00 0.000000000000000e+00
0.000000000000000e+00 0.000000000000000e+00 0.000000000000000e+00
0.000000000000000e+00 0.000000000000000e+00 0.000000000000000e+00

0.000000000000000e+00 0.000000000000000e+00 0.000000000000000e+00
0.000000000000000e+00 0.000000000000000e+00 0.000000000000000e+00
0.000000000000000e+00 0.000000000000000e+00 0.000000000000000e+00

0.000000000000000e+00 0.000000000000000e+00 0.000000000000000e+00
0.000000000000000e+00 0.000000000000000e+00 0.000000000000000e+00
0.000000000000000e+00 0.000000000000000e+00 0.000000000000000e+00

0.000000000000000e+00 0.000000000000000e+00 0.000000000000000e+00
0.000000000000000e+00 0.000000000000000e+00 0.000000000000000e+00
0.000000000000000e+00 0.000000000000000e+00 0.000000000000000e+00

0.000000000000000e+00 0.000000000000000e+00 0.000000000000000e+00
0.000000000000000e+00 0.000000000000000e+00 0.000000000000000e+00
0.000000000000000e+00 0.000000000000000e+00 0.000000000000000e+00

0.000000000000000e+00 0.000000000000000e+00 0.000000000000000e+00
0.000000000000000e+00 0.000000000000000e+00 0.000000000000000e+00
0.000000000000000e+00 0.000000000000000e+00 0.000000000000000e+00

0.000000000000000e+00 0.000000000000000e+00 0.000000000000000e+00
0.000000000000000e+00 0.000000000000000e+00 0.000000000000000e+00
0.000000000000000e+00 0.000000000000000e+00 0.000000000000000e+00

0.000000000000000e+00 0.000000000000000e+00 0.000000000000000e+00
0.000000000000000e+00 0.000000000000000e+00 0.000000000000000e+00
0.000000000000000e+00 0.000000000000000e+00 0.000000000000000e+00

0.000000000000000e+00 0.000000000000000e+00 0.000000000000000e+00
0.000000000000000e+00 0.000000000000000e+00 0.000000000000000e+00
0.000000000000000e+00 0.000000000000000e+00 0.000000000000000e+00

0.000000000000000e+00 0.000000000000000e+00 0.000000000000000e+00
0.000000000000000e+00 0.000000000000000e+00 0.000000000000000e+00
0.000000000000000e+00 0.000000000000000e+00 0.000000000000000e+00

0.000000000000000e+00 0.000000000000000e+00 0.000000000000000e+00
0.000000000000000e+00 0.000000000000000e+00 0.000000000000000e+00
0.000000000000000e+00 0.000000000000000e+00 0.000000000000000e+00

0.000000000000000e+00 0.000000000000000e+00 0.000000000000000e+00
0.000000000000000e+00 0.000000000000000e+00 0.000000000000000e+00
0.000000000000000e+00 0.000000000000000e+00 0.000000000000000e+00

0.000000000000000e+00 0.000000000000000e+00 0.000000000000000e+00
0.000000000000000e+00 0.000000000000000e+00 0.000000000000000e+00
0.000000000000000e+00 0.000000000000000e+00 0.000000000000000e+00

0.000000000000000e+00 0.000000000000000e+00 0.000000000000000e+00
0.000000000000000e+00 0.000000000000000e+00 0.000000000000000e+00
0.000000000000000e+00 0.000000000000000e+00 0.000000000000000e+00

0.000000000000000e+00 0.000000000000000e+00 0.000000000000000e+00
0.000000000000000e+00 0.000000000000000e+00 0.000000000000000e+00
0.000000000000000e+00 0.000000000000000e+00 0.000000000000000e+00

0.000000000000000e+00 0.000000000000000e+00 0.000000000000000e+00
0.000000000000000e+00 0.000000000000000e+00 0.000000000000000e+00
0.000000000000000e+00 0.000000000000000e+00 0.000000000000000e+00

0.000000000000000e+00 0.000000000000000e+00 0.000000000000000e+00
0.000000000000000e+00 0.000000000000000e+00 0.000000000000000e+00
0.000000000000000e+00 0.000000000000000e+00 0.000000000000000e+00

0.000000000000000e+00 0.000000000000000e+00 0.000000000000000e+00
0.000000000000000e+00 0.000000000000000e+00 0.000000000000000e+00
0.000000000000000e+00 0.000000000000000e+00 0.000000000000000e+00

0.000000000000000e+00 0.000000000000000e+00 0.000000000000000e+00
0.000000000000000e+00 0.000000000000000e+00 0.000000000000000e+00
0.000000000000000e+00 0.000000000000000e+00 0.000000000000000e+00

0.000000000000000e+00 0.000000000000000e+00 0.000000000000000e+00
0.000000000000000e+00 0.000000000000000e+00 0.000000000000000e+00
0.000000000000000e+00 0.000000000000000e+00 0.000000000000000e+00

0.000000000000000e+00 0.000000000000000e+00 0.000000000000000e+00
0.000000000000000e+00 0.000000000000000e+00 0.000000000000000e+00
0.000000000000000e+00 0.000000000000000e+00 0.000000000000000e+00

0.000000000000000e+00 0.000000000000000e+00 0.000000000000000e+00
0.000000000000000e+00 0.000000000000000e+00 0.000000000000000e+00
0.000000000000000e+00 0.000000000000000e+00 0.000000000000000e+00

0.000000000000000e+00 0.000000000000000e+00 0.000000000000000e+00
0.000000000000000e+00 0.000000000000000e+00 0.000000000000000e+00
0.000000000000000e+00 0.000000000000000e+00 0.000000000000000e+00

0.000000000000000e+00 0.000000000000000e+00 0.000000000000000e+00
0.000000000000000e+00 0.000000000000000e+00 0.000000000000000e+00
0.000000000000000e+00 0.000000000000000e+00 0.000000000000000e+00

0.000000000000000e+00 0.000000000000000e+00 0.000000000000000e+00
0.000000000000000e+00 0.000000000000000e+00 0.000000000000000e+00
0.000000000000000e+00 0.000000000000000e+00 0.000000000000000e+00

0.000000000000000e+00 0.000000000000000e+00 0.000000000000000e+00
0.000000000000000e+00 0.000000000000000e+00 0.000000000000000e+00
0.000000000000000e+00 0.000000000000000e+00 0.000000000000000e+00

0.000000000000000e+00 0.000000000000000e+00 0.000000000000000e+00
0.000000000000000e+00 0.000000000000000e+00 0.000000000000000e+00
0.000000000000000e+00 0.000000000000000e+00 0.000000000000000e+00

0.000000000000000e+00 0.000000000000000e+00 0.000000000000000e+00
0.000000000000000e+00 0.000000000000000e+00 0.000000000000000e+00
0.000000000000000e+00 0.000000000000000e+00 0.000000000000000e+00

0.000000000000000e+00 0.000000000000000e+00 0.000000000000000e+00
0.000000000000000e+00 0.000000000000000e+00 0.000000000000000e+00
0.000000000000000e+00 0.000000000000000e+00 0.000000000000000e+00

0.000000000000000e+00 0.000000000000000e+00 0.000000000000000e+00
0.000000000000000e+00 0.000000000000000e+00 0.000000000000000e+00
0.000000000000000e+00 0.000000000000000e+00 0.000000000000000e+00

0.000000000000000e+00 0.000000000000000e+00 0.000000000000000e+00
0.000000000000000e+00 0.000000000000000e+00 0.000000000000000e+00
0.000000000000000e+00 0.000000000000000e+00 0.000000000000000e+00

0.000000000000000e+00 0.000000000000000e+00 0.000000000000000e+00
0.000000000000000e+00 0.000000000000000e+00 0.000000000000000e+00
0.000000000000000e+00 0.000000000000000e+00 0.000000000000000e+00

0.000000000000000e+00 0.000000000000000e+00 0.000000000000000e+00
0.000000000000000e+00 0.000000000000000e+00 0.000000000000000e+00
0.000000000000000e+00 0.000000000000000e+00 0.000000000000000e+00

0.000000000000000e+00 0.000000000000000e+00 0.000000000000000e+00
0.000000000000000e+00 0.000000000000000e+00 0.000000000000000e+00
0.000000000000000e+00 0.000000000000000e+00 0.000000000000000e+00

0.000000000000000e+00 0.000000000000000e+00 0.000000000000000e+00
0.000000000000000e+00 0.000000000000000e+00 0.000000000000000e+00
0.000000000000000e+00 0.000000000000000e+00 0.000000000000000e+00

0.000000000000000e+00 0.000000000000000e+00 0.000000000000000e+00
0.000000000000000e+00 0.000000000000000e+00 0.000000000000000e+00
0.000000000000000e+00 0.000000000000000e+00 0.000000000000000e+00

0.000000000000000e+00 0.000000000000000e+00 0.000000000000000e+00
0.000000000000000e+00 0.000000000000000e+00 0.000000000000000e+00
0.000000000000000e+00 0.000000000000000e+00 0.000000000000000e+00

0.000000000000000e+00 0.000000000000000e+00 0.000000000000000e+00
0.000000000000000e+00 0.000000000000000e+00 0.000000000000000e+00
0.000000000000000e+00 0.000000000000000e+00 0.000000000000000e+00

0.000000000000000e+00 0.000000000000000e+00 0.000000000000000e+00
0.000000000000000e+00 0.000000000000000e+00 0.000000000000000e+00
0.000000000000000e+00 0.000000000000000e+00 0.000000000000000e+00

0.000000000000000e+00 0.000000000000000e+00 0.000000000000000e+00
0.000000000000000e+00 0.000000000000000e+00 0.000000000000000e+00
0.000000000000000e+00 0.000000000000000e+00 0.000000000000000e+00

0.000000000000000e+00 0.000000000000000e+00 0.000000000000000e+00
0.000000000000000e+00 0.000000000000000e+00 0.000000000000000e+00
0.000000000000000e+00 0.000000000000000e+00 0.000000000000000e+00

0.000000000000000e+00 0.000000000000000e+00 0.000000000000000e+00
0.000000000000000e+00 0.000000000000000e+00 0.000000000000000e+00
0.000000000000000e+00 0.000000000000000e+00 0.000000000000000e+00

0.000000000000000e+00 0.000000000000000e+00 0.000000000000000e+00
0.000000000000000e+00 0.000000000000000e+00 0.000000000000000e+00
0.000000000000000e+00 0.000000000000000e+00 0.000000000000000e+00

0.000000000000000e+00 0.000000000000000e+00 0.000000000000000e+00
0.000000000000000e+00 0.000000000000000e+00 0.000000000000000e+00
0.000000000000000e+00 0.000000000000000e+00 0.000000000000000e+00

0.000000000000000e+00 0.000000000000000e+00 0.000000000000000e+00
0.000000000000000e+00 0.000000000000000e+00 0.000000000000000e+00
0.000000000000000e+00 0.000000000000000e+00 0.000000000000000e+00

0.000000000000000e+00 0.000000000000000e+00 0.000000000000000e+00
0.000000000000000e+00 0.000000000000000e+00 0.000000000000000e+00
0.000000000000000e+00 0.000000000000000e+00 0.000000000000000e+00

0.000000000000000e+00 0.000000000000000e+00 0.000000000000000e+00
0.000000000000000e+00 0.000000000000000e+00 0.000000000000000e+00
0.000000000000000e+00 0.000000000000000e+00 0.000000000000000e+00

0.000000000000000e+00 0.000000000000000e+00 0.000000000000000e+00
0.000000000000000e+00 0.000000000000000e+00 0.000000000000000e+00
0.000000000000000e+00 0.000000000000000e+00 0.000000000000000e+00

0.000000000000000e+00 0.000000000000000e+00 0.000000000000000e+00
0.000000000000000e+00 0.000000000000000e+00 0.000000000000000e+00
0.000000000000000e+00 0.000000000000000e+00 0.000000000000000e+00

0.000000000000000e+00 0.000000000000000e+00 0.000000000000000e+00
0.000000000000000e+00 0.000000000000000e+00 0.000000000000000e+00
0.000000000000000e+00 0.000000000000000e+00 0.000000000000000e+00

0.000000000000000e+00 0.000000000000000e+00 0.000000000000000e+00
0.000000000000000e+00 0.000000000000000e+00 0.000000000000000e+00
0.000000000000000e+00 0.000000000000000e+00 0.000000000000000e+00

0.000000000000000e+00 0.000000000000000e+00 0.000000000000000e+00
0.000000000000000e+00 0.000000000000000e+00 0.000000000000000e+00
0.000000000000000e+00 0.000000000000000e+00 0.000000000000000e+00

0.000000000000000e+00 0.000000000000000e+00 0.000000000000000e+00
0.000000000000000e+00 0.000000000000000e+00 0.000000000000000e+00
0.000000000000000e+00 0.000000000000000e+00 0.000000000000000e+00

0.000000000000000e+00 0.000000000000000e+00 0.000000000000000e+00
0.000000000000000e+00 0.000000000000000e+00 0.000000000000000e+00
0.000000000000000e+00 0.000000000000000e+00 0.000000000000000e+00

0.000000000000000e+00 0.000000000000000e+00 0.000000000000000e+00
0.000000000000000e+00 0.000000000000000e+00 0.000000000000000e+00
0.000000000000000e+00 0.000000000000000e+00 0.000000000000000e+00

0.000000000000000e+00 0.000000000000000e+00 0.000000000000000e+00
0.000000000000000e+00 0.000000000000000e+00 0.000000000000000e+00
0.000000000000000e+00 0.000000000000000e+00 0.000000000000000e+00

0.000000000000000e+00 0.000000000000000e+00 0.000000000000000e+00
0.000000000000000e+00 0.000000000000000e+00 0.000000000000000e+00
0.000000000000000e+00 0.000000000000000e+00 0.000000000000000e+00

0.000000000000000e+00 0.000000000000000e+00 0.000000000000000e+00
0.000000000000000e+00 0.000000000000000e+00 0.000000000000000e+00
0.000000000000000e+00 0.000000000000000e+00 0.000000000000000e+00

0.000000000000000e+00 0.000000000000000e+00 0.000000000000000e+00
0.000000000000000e+00 0.000000000000000e+00 0.000000000000000e+00
0.000000000000000e+00 0.000000000000000e+00 0.000000000000000e+00

0.000000000000000e+00 0.000000000000000e+00 0.000000000000000e+00
0.000000000000000e+00 0.000000000000000e+00 0.000000000000000e+00
0.000000000000000e+00 0.000000000000000e+00 0.000000000000000e+00

0.000000000000000e+00 0.000000000000000e+00 0.000000000000000e+00
0.000000000000000e+00 0.000000000000000e+00 0.000000000000000e+00
0.000000000000000e+00 0.000000000000000e+00 0.000000000000000e+00

0.000000000000000e+00 0.000000000000000e+00 0.000000000000000e+00
0.000000000000000e+00 0.000000000000000e+00 0.000000000000000e+00
0.000000000000000e+00 0.000000000000000e+00 0.000000000000000e+00

0.000000000000000e+00 0.000000000000000e+00 0.000000000000000e+00
0.000000000000000e+00 0.000000000000000e+00 0.000000000000000e+00
0.000000000000000e+00 0.000000000000000e+00 0.000000000000000e+00

0.000000000000000e+00 0.000000000000000e+00 0.000000000000000e+00
0.000000000000000e+00 0.000000000000000e+00 0.000000000000000e+00
0.000000000000000e+00 0.000000000000000e+00 0.000000000000000e+00

0.000000000000000e+00 0.000000000000000e+00 0.000000000000000e+00
0.000000000000000e+00 0.000000000000000e+00 0.000000000000000e+00
0.000000000000000e+00 0.000000000000000e+00 0.000000000000000e+00

0.000000000000000e+00 0.000000000000000e+00 0.000000000000000e+00
0.000000000000000e+00 0.000000000000000e+00 0.000000000000000e+00
0.000000000000000e+00 0.000000000000000e+00 0.000000000000000e+00

0.000000000000000e+00 0.000000000000000e+00 0.000000000000000e+00
0.000000000000000e+00 0.000000000000000e+00 0.000000000000000e+00
0.000000000000000e+00 0.000000000000000e+00 0.000000000000000e+00

0.000000000000000e+00 0.000000000000000e+00 0.000000000000000e+00
0.000000000000000e+00 0.000000000000000e+00 0.000000000000000e+00
0.000000000000000e+00 0.000000000000000e+00 0.000000000000000e+00

0.000000000000000e+00 0.000000000000000e+00 0.000000000000000e+00
0.000000000000000e+00 0.000000000000000e+00 0.000000000000000e+00
0.000000000000000e+00 0.000000000000000e+00 0.000000000000000e+00

0.000000000000000e+00 0.000000000000000e+00 0.000000000000000e+00
0.000000000000000e+00 0.000000000000000e+00 0.000000000000000e+00
0.000000000000000e+00 0.000000000000000e+00 0.000000000000000e+00

0.000000000000000e+00 0.000000000000000e+00 0.000000000000000e+00
0.000000000000000e+00 0.000000000000000e+00 0.000000000000000e+00
0.000000000000000e+00 0.000000000000000e+00 0.000000000000000e+00

0.000000000000000e+00 0.000000000000000e+00 0.000000000000000e+00
0.000000000000000e+00 0.000000000000000e+00 0.000000000000000e+00
0.000000000000000e+00 0.000000000000000e+00 0.000000000000000e+00

0.000000000000000e+00 0.000000000000000e+00 0.000000000000000e+00
0.000000000000000e+00 0.000000000000000e+00 0.000000000000000e+00
0.000000000000000e+00 0.000000000000000e+00 0.000000000000000e+00

0.000000000000000e+00 0.000000000000000e+00 0.000000000000000e+00
0.000000000000000e+00 0.000000000000000e+00 0.000000000000000e+00
0.000000000000000e+00 0.000000000000000e+00 0.000000000000000e+00

0.000000000000000e+00 0.000000000000000e+00 0.000000000000000e+00
0.000000000000000e+00 0.000000000000000e+00 0.000000000000000e+00
0.000000000000000e+00 0.000000000000000e+00 0.000000000000000e+00

0.000000000000000e+00 0.000000000000000e+00 0.000000000000000e+00
0.000000000000000e+00 0.000000000000000e+00 0.000000000000000e+00
0.000000000000000e+00 0.000000000000000e+00 0.000000000000000e+00

0.000000000000000e+00 0.000000000000000e+00 0.000000000000000e+00
0.000000000000000e+00 0.000000000000000e+00 0.000000000000000e+00
0.000000000000000e+00 0.000000000000000e+00 0.000000000000000e+00

0.000000000000000e+00 0.000000000000000e+00 0.000000000000000e+00
0.000000000000000e+00 0.000000000000000e+00 0.000000000000000e+00
0.000000000000000e+00 0.000000000000000e+00 0.000000000000000e+00

0.000000000000000e+00 0.000000000000000e+00 0.000000000000000e+00
0.000000000000000e+00 0.000000000000000e+00 0.000000000000000e+00
0.000000000000000e+00 0.000000000000000e+00 0.000000000000000e+00

0.000000000000000e+00 0.000000000000000e+00 0.000000000000000e+00
0.000000000000000e+00 0.000000000000000e+00 0.000000000000000e+00
0.000000000000000e+00 0.000000000000000e+00 0.000000000000000e+00

0.000000000000000e+00 0.000000000000000e+00 0.000000000000000e+00
0.000000000000000e+00 0.000000000000000e+00 0.000000000000000e+00
0.000000000000000e+00 0.000000000000000e+00 0.000000000000000e+00

0.000000000000000e+00 0.000000000000000e+00 0.000000000000000e+00
0.000000000000000e+00 0.000000000000000e+00 0.000000000000000e+00
0.000000000000000e+00 0.000000000000000e+00 0.000000000000000e+00

0.000000000000000e+00 0.000000000000000e+00 0.000000000000000e+00
0.000000000000000e+00 0.000000000000000e+00 0.000000000000000e+00
0.000000000000000e+00 0.000000000000000e+00 0.000000000000000e+00

0.000000000000000e+00 0.000000000000000e+00 0.000000000000000e+00
0.000000000000000e+00 0.000000000000000e+00 0.000000000000000e+00
0.000000000000000e+00 0.000000000000000e+00 0.000000000000000e+00

0.000000000000000e+00 0.000000000000000e+00 0.000000000000000e+00
0.000000000000000e+00 0.000000000000000e+00 0.000000000000000e+00
0.000000000000000e+00 0.000000000000000e+00 0.000000000000000e+00

0.000000000000000e+00 0.000000000000000e+00 0.000000000000000e+00
0.000000000000000e+00 0.000000000000000e+00 0.000000000000000e+00
0.000000000000000e+00 0.000000000000000e+00 0.000000000000000e+00

0.000000000000000e+00 0.000000000000000e+00 0.000000000000000e+00
0.000000000000000e+00 0.000000000000000e+00 0.000000000000000e+00
0.000000000000000e+00 0.000000000000000e+00 0.000000000000000e+00

0.000000000000000e+00 0.000000000000000e+00 0.000000000000000e+00
0.000000000000000e+00 0.000000000000000e+00 0.000000000000000e+00
0.000000000000000e+00 0.000000000000000e+00 0.000000000000000e+00

0.000000000000000e+00 0.000000000000000e+00 0.000000000000000e+00
0.000000000000000e+00 0.000000000000000e+00 0.000000000000000e+00
0.000000000000000e+00 0.000000000000000e+00 0.000000000000000e+00

0.000000000000000e+00 0.000000000000000e+00 0.000000000000000e+00
0.000000000000000e+00 0.000000000000000e+00 0.000000000000000e+00
0.000000000000000e+00 0.000000000000000e+00 0.000000000000000e+00

0.000000000000000e+00 0.000000000000000e+00 0.000000000000000e+00
0.000000000000000e+00 0.000000000000000e+00 0.000000000000000e+00
0.000000000000000e+00 0.000000000000000e+00 0.000000000000000e+00

0.000000000000000e+00 0.000000000000000e+00 0.000000000000000e+00
0.000000000000000e+00 0.000000000000000e+00 0.000000000000000e+00
0.000000000000000e+00 0.000000000000000e+00 0.000000000000000e+00

0.000000000000000e+00 0.000000000000000e+00 0.000000000000000e+00
0.000000000000000e+00 0.000000000000000e+00 0.000000000000000e+00
0.000000000000000e+00 0.000000000000000e+00 0.000000000000000e+00

0.000000000000000e+00 0.000000000000000e+00 0.000000000000000e+00
0.000000000000000e+00 0.000000000000000e+00 0.000000000000000e+00
0.000000000000000e+00 0.000000000000000e+00 0.000000000000000e+00

0.000000000000000e+00 0.000000000000000e+00 0.000000000000000e+00
0.000000000000000e+00 0.000000000000000e+00 0.000000000000000e+00
0.000000000000000e+00 0.000000000000000e+00 0.000000000000000e+00

0.000000000000000e+00 0.000000000000000e+00 0.000000000000000e+00
0.000000000000000e+00 0.000000000000000e+00 0.000000000000000e+00
0.000000000000000e+00 0.000000000000000e+00 0.000000000000000e+00

0.000000000000000e+00 0.000000000000000e+00 0.000000000000000e+00
0.000000000000000e+00 0.000000000000000e+00 0.000000000000000e+00
0.000000000000000e+00 0.000000000000000e+00 0.000000000000000e+00

0.000000000000000e+00 0.000000000000000e+00 0.000000000000000e+00
0.000000000000000e+00 0.000000000000000e+00 0.000000000000000e+00
0.000000000000000e+00 0.000000000000000e+00 0.000000000000000e+00

0.000000000000000e+00 0.000000000000000e+00 0.000000000000000e+00
0.000000000000000e+00 0.000000000000000e+00 0.000000000000000e+00
0.000000000000000e+00 0.000000000000000e+00 0.000000000000000e+00

0.000000000000000e+00 0.000000000000000e+00 0.000000000000000e+00
0.000000000000000e+00 0.000000000000000e+00 0.000000000000000e+00
0.000000000000000e+00 0.000000000000000e+00 0.000000000000000e+00

0.000000000000000e+00 0.000000000000000e+00 0.000000000000000e+00
0.000000000000000e+00 0.000000000000000e+00 0.000000000000000e+00
0.000000000000000e+00 0.000000000000000e+00 0.000000000000000e+00

0.000000000000000e+00 0.000000000000000e+00 0.000000000000000e+00
0.000000000000000e+00 0.000000000000000e+00 0.000000000000000e+00
0.000000000000000e+00 0.000000000000000e+00 0.000000000000000e+00

0.000000000000000e+00 0.000000000000000e+00 0.000000000000000e+00
0.000000000000000e+00 0.000000000000000e+00 0.000000000000000e+00
0.000000000000000e+00 0.000000000000000e+00 0.000000000000000e+00

0.000000000000000e+00 0.000000000000000e+00 0.000000000000000e+00
0.000000000000000e+00 0.000000000000000e+00 0.000000000000000e+00
0.000000000000000e+00 0.000000000000000e+00 0.000000000000000e+00

0.000000000000000e+00 0.000000000000000e+00 0.000000000000000e+00
0.000000000000000e+00 0.000000000000000e+00 0.000000000000000e+00
0.000000000000000e+00 0.000000000000000e+00 0.000000000000000e+00

0.000000000000000e+00 0.000000000000000e+00 0.000000000000000e+00
0.000000000000000e+00 0.000000000000000e+00 0.000000000000000e+00
0.000000000000000e+00 0.000000000000000e+00 0.000000000000000e+00

0.000000000000000e+00 0.000000000000000e+00 0.000000000000000e+00
0.000000000000000e+00 0.000000000000000e+00 0.000000000000000e+00
0.000000000000000e+00 0.000000000000000e+00 0.000000000000000e+00

0.000000000000000e+00 0.000000000000000e+00 0.000000000000000e+00
0.000000000000000e+00 0.000000000000000e+00 0.000000000000000e+00
0.000000000000000e+00 0.000000000000000e+00 0.000000000000000e+00

0.000000000000000e+00 0.000000000000000e+00 0.000000000000000e+00
0.000000000000000e+00 0.000000000000000e+00 0.000000000000000e+00
0.000000000000000e+00 0.000000000000000e+00 0.000000000000000e+00

0.000000000000000e+00 0.000000000000000e+00 0.000000000000000e+00
0.000000000000000e+00 0.000000000000000e+00 0.000000000000000e+00
0.000000000000000e+00 0.000000000000000e+00 0.000000000000000e+00

0.000000000000000e+00 0.000000000000000e+00 0.000000000000000e+00
0.000000000000000e+00 0.000000000000000e+00 0.000000000000000e+00
0.000000000000000e+00 0.000000000000000e+00 0.000000000000000e+00

0.000000000000000e+00 0.000000000000000e+00 0.000000000000000e+00
0.000000000000000e+00 0.000000000000000e+00 0.000000000000000e+00
0.000000000000000e+00 0.000000000000000e+00 0.000000000000000e+00

0.000000000000000e+00 0.000000000000000e+00 0.000000000000000e+00
0.000000000000000e+00 0.000000000000000e+00 0.000000000000000e+00
0.000000000000000e+00 0.000000000000000e+00 0.000000000000000e+00

0.000000000000000e+00 0.000000000000000e+00 0.000000000000000e+00
0.000000000000000e+00 0.000000000000000e+00 0.000000000000000e+00
0.000000000000000e+00 0.000000000000000e+00 0.000000000000000e+00

0.000000000000000e+00 0.000000000000000e+00 0.000000000000000e+00
0.000000000000000e+00 0.000000000000000e+00 0.000000000000000e+00
0.000000000000000e+00 0.000000000000000e+00 0.000000000000000e+00

0.000000000000000e+00 0.000000000000000e+00 0.000000000000000e+00
0.000000000000000e+00 0.000000000000000e+00 0.000000000000000e+00
0.000000000000000e+00 0.000000000000000e+00 0.000000000000000e+00

0.000000000000000e+00 0.000000000000000e+00 0.000000000000000e+00
0.000000000000000e+00 0.000000000000000e+00 0.000000000000000e+00
0.000000000000000e+00 0.000000000000000e+00 0.000000000000000e+00

0.000000000000000e+00 0.000000000000000e+00 0.000000000000000e+00
0.000000000000000e+00 0.000000000000000e+00 0.000000000000000e+00
0.000000000000000e+00 0.000000000000000e+00 0.000000000000000e+00

0.000000000000000e+00 0.000000000000000e+00 0.000000000000000e+00
0.000000000000000e+00 0.000000000000000e+00 0.000000000000000e+00
0.000000000000000e+00 0.000000000000000e+00 0.000000000000000e+00

0.000000000000000e+00 0.000000000000000e+00 0.000000000000000e+00
0.000000000000000e+00 0.000000000000000e+00 0.000000000000000e+00
0.000000000000000e+00 0.000000000000000e+00 0.000000000000000e+00

0.000000000000000e+00 0.000000000000000e+00 0.000000000000000e+00
0.000000000000000e+00 0.000000000000000e+00 0.000000000000000e+00
0.000000000000000e+00 0.000000000000000e+00 0.000000000000000e+00

0.000000000000000e+00 0.000000000000000e+00 0.000000000000000e+00
0.000000000000000e+00 0.000000000000000e+00 0.000000000000000e+00
0.000000000000000e+00 0.000000000000000e+00 0.000000000000000e+00

0.000000000000000e+00 0.000000000000000e+00 0.000000000000000e+00
0.000000000000000e+00 0.000000000000000e+00 0.000000000000000e+00
0.000000000000000e+00 0.000000000000000e+00 0.000000000000000e+00

0.000000000000000e+00 0.000000000000000e+00 0.000000000000000e+00
0.000000000000000e+00 0.000000000000000e+00 0.000000000000000e+00
0.000000000000000e+00 0.000000000000000e+00 0.000000000000000e+00

0.000000000000000e+00 0.000000000000000e+00 0.000000000000000e+00
0.000000000000000e+00 0.000000000000000e+00 0.000000000000000e+00
0.000000000000000e+00 0.000000000000000e+00 0.000000000000000e+00

0.000000000000000e+00 0.000000000000000e+00 0.000000000000000e+00
0.000000000000000e+00 0.000000000000000e+00 0.000000000000000e+00
0.000000000000000e+00 0.000000000000000e+00 0.000000000000000e+00

0.000000000000000e+00 0.000000000000000e+00 0.000000000000000e+00
0.000000000000000e+00 0.000000000000000e+00 0.000000000000000e+00
0.000000000000000e+00 0.000000000000000e+00 0.000000000000000e+00

0.000000000000000e+00 0.000000000000000e+00 0.000000000000000e+00
0.000000000000000e+00 0.000000000000000e+00 0.000000000000000e+00
0.000000000000000e+00 0.000000000000000e+00 0.000000000000000e+00

0.000000000000000e+00 0.000000000000000e+00 0.000000000000000e+00
0.000000000000000e+00 0.000000000000000e+00 0.000000000000000e+00
0.000000000000000e+00 0.000000000000000e+00 0.000000000000000e+00

0.000000000000000e+00 0.000000000000000e+00 0.000000000000000e+00
0.000000000000000e+00 0.000000000000000e+00 0.000000000000000e+00
0.000000000000000e+00 0.000000000000000e+00 0.000000000000000e+00

0.000000000000000e+00 0.000000000000000e+00 0.000000000000000e+00
0.000000000000000e+00 0.000000000000000e+00 0.000000000000000e+00
0.000000000000000e+00 0.000000000000000e+00 0.000000000000000e+00

0.000000000000000e+00 0.000000000000000e+00 0.000000000000000e+00
0.000000000000000e+00 0.000000000000000e+00 0.000000000000000e+00
0.000000000000000e+00 0.000000000000000e+00 0.000000000000000e+00

0.000000000000000e+00 0.000000000000000e+00 0.000000000000000e+00
0.000000000000000e+00 0.000000000000000e+00 0.000000000000000e+00
0.000000000000000e+00 0.000000000000000e+00 0.000000000000000e+00

0.000000000000000e+00 0.000000000000000e+00 0.000000000000000e+00
0.000000000000000e+00 0.000000000000000e+00 0.000000000000000e+00
0.000000000000000e+00 0.000000000000000e+00 0.000000000000000e+00

0.000000000000000e+00 0.000000000000000e+00 0.000000000000000e+00
0.000000000000000e+00 0.000000000000000e+00 0.000000000000000e+00
0.000000000000000e+00 0.000000000000000e+00 0.000000000000000e+00

0.000000000000000e+00 0.000000000000000e+00 0.000000000000000e+00
0.000000000000000e+00 0.000000000000000e+00 0.000000000000000e+00
0.000000000000000e+00 0.000000000000000e+00 0.000000000000000e+00

0.000000000000000e+00 0.000000000000000e+00 0.000000000000000e+00
0.000000000000000e+00 0.000000000000000e+00 0.000000000000000e+00
0.000000000000000e+00 0.000000000000000e+00 0.000000000000000e+00

0.000000000000000e+00 0.000000000000000e+00 0.000000000000000e+00
0.000000000000000e+00 0.000000000000000e+00 0.000000000000000e+00
0.000000000000000e+00 0.000000000000000e+00 0.000000000000000e+00

0.000000000000000e+00 0.000000000000000e+00 0.000000000000000e+00
0.000000000000000e+00 0.000000000000000e+00 0.000000000000000e+00
0.000000000000000e+00 0.000000000000000e+00 0.000000000000000e+00

0.000000000000000e+00 0.000000000000000e+00 0.000000000000000e+00
0.000000000000000e+00 0.000000000000000e+00 0.000000000000000e+00
0.000000000000000e+00 0.000000000000000e+00 0.000000000000000e+00

0.000000000000000e+00 0.000000000000000e+00 0.000000000000000e+00
0.000000000000000e+00 0.000000000000000e+00 0.000000000000000e+00
0.000000000000000e+00 0.000000000000000e+00 0.000000000000000e+00

0.000000000000000e+00 0.000000000000000e+00 0.000000000000000e+00
0.000000000000000e+00 0.000000000000000e+00 0.000000000000000e+00
0.000000000000000e+00 0.000000000000000e+00 0.000000000000000e+00

0.000000000000000e+00 0.000000000000000e+00 0.000000000000000e+00
0.000000000000000e+00 0.000000000000000e+00 0.000000000000000e+00
0.000000000000000e+00 0.000000000000000e+00 0.000000000000000e+00

0.000000000000000e+00 0.000000000000000e+00 0.000000000000000e+00
0.000000000000000e+00 0.000000000000000e+00 0.000000000000000e+00
0.000000000000000e+00 0.000000000000000e+00 0.000000000000000e+00

0.000000000000000e+00 0.000000000000000e+00 0.000000000000000e+00
0.000000000000000e+00 0.000000000000000e+00 0.000000000000000e+00
0.000000000000000e+00 0.000000000000000e+00 0.000000000000000e+00

0.000000000000000e+00 0.000000000000000e+00 0.000000000000000e+00
0.000000000000000e+00 0.000000000000000e+00 0.000000000000000e+00
0.000000000000000e+00 0.000000000000000e+00 0.000000000000000e+00

0.000000000000000e+00 0.000000000000000e+00 0.000000000000000e+00
0.000000000000000e+00 0.000000000000000e+00 0.000000000000000e+00
0.000000000000000e+00 0.000000000000000e+00 0.000000000000000e+00

0.000000000000000e+00 0.000000000000000e+00 0.000000000000000e+00
0.000000000000000e+00 0.000000000000000e+00 0.000000000000000e+00
0.000000000000000e+00 0.000000000000000e+00 0.000000000000000e+00

0.000000000000000e+00 0.000000000000000e+00 0.000000000000000e+00
0.000000000000000e+00 0.000000000000000e+00 0.000000000000000e+00
0.000000000000000e+00 0.000000000000000e+00 0.000000000000000e+00

0.000000000000000e+00 0.000000000000000e+00 0.000000000000000e+00
0.000000000000000e+00 0.000000000000000e+00 0.000000000000000e+00
0.000000000000000e+00 0.000000000000000e+00 0.000000000000000e+00

0.000000000000000e+00 0.000000000000000e+00 0.000000000000000e+00
0.000000000000000e+00 0.000000000000000e+00 0.000000000000000e+00
0.000000000000000e+00 0.000000000000000e+00 0.000000000000000e+00

0.000000000000000e+00 0.000000000000000e+00 0.000000000000000e+00
0.000000000000000e+00 0.000000000000000e+00 0.000000000000000e+00
0.000000000000000e+00 0.000000000000000e+00 0.000000000000000e+00

0.000000000000000e+00 0.000000000000000e+00 0.000000000000000e+00
0.000000000000000e+00 0.000000000000000e+00 0.000000000000000e+00
0.000000000000000e+00 0.000000000000000e+00 0.000000000000000e+00

0.000000000000000e+00 0.000000000000000e+00 0.000000000000000e+00
0.000000000000000e+00 0.000000000000000e+00 0.000000000000000e+00
0.000000000000000e+00 0.000000000000000e+00 0.000000000000000e+00

0.000000000000000e+00 0.000000000000000e+00 0.000000000000000e+00
0.000000000000000e+00 0.000000000000000e+00 0.000000000000000e+00
0.000000000000000e+00 0.000000000000000e+00 0.000000000000000e+00

0.000000000000000e+00 0.000000000000000e+00 0.000000000000000e+00
0.000000000000000e+00 0.000000000000000e+00 0.000000000000000e+00
0.000000000000000e+00 0.000000000000000e+00 0.000000000000000e+00

0.000000000000000e+00 0.000000000000000e+00 0.000000000000000e+00
0.000000000000000e+00 0.000000000000000e+00 0.000000000000000e+00
0.000000000000000e+00 0.000000000000000e+00 0.000000000000000e+00

0.000000000000000e+00 0.000000000000000e+00 0.000000000000000e+00
0.000000000000000e+00 0.000000000000000e+00 0.000000000000000e+00
0.000000000000000e+00 0.000000000000000e+00 0.000000000000000e+00

0.000000000000000e+00 0.000000000000000e+00 0.000000000000000e+00
0.000000000000000e+00 0.000000000000000e+00 0.000000000000000e+00
0.000000000000000e+00 0.000000000000000e+00 0.000000000000000e+00

0.000000000000000e+00 0.000000000000000e+00 0.000000000000000e+00
0.000000000000000e+00 0.000000000000000e+00 0.000000000000000e+00
0.000000000000000e+00 0.000000000000000e+00 0.000000000000000e+00

0.000000000000000e+00 0.000000000000000e+00 0.000000000000000e+00
0.000000000000000e+00 0.000000000000000e+00 0.000000000000000e+00
0.000000000000000e+00 0.000000000000000e+00 0.000000000000000e+00

0.000000000000000e+00 0.000000000000000e+00 0.000000000000000e+00
0.000000000000000e+00 0.000000000000000e+00 0.000000000000000e+00
0.000000000000000e+00 0.000000000000000e+00 0.000000000000000e+00

0.000000000000000e+00 0.000000000000000e+00 0.000000000000000e+00
0.000000000000000e+00 0.000000000000000e+00 0.000000000000000e+00
0.000000000000000e+00 0.000000000000000e+00 0.000000000000000e+00

0.000000000000000e+00 0.000000000000000e+00 0.000000000000000e+00
0.000000000000000e+00 0.000000000000000e+00 0.000000000000000e+00
0.000000000000000e+00 0.000000000000000e+00 0.000000000000000e+00

0.000000000000000e+00 0.000000000000000e+00 0.000000000000000e+00
0.000000000000000e+00 0.000000000000000e+00 0.000000000000000e+00
0.000000000000000e+00 0.000000000000000e+00 0.000000000000000e+00

0.000000000000000e+00 0.000000000000000e+00 0.000000000000000e+00
0.000000000000000e+00 0.000000000000000e+00 0.000000000000000e+00
0.000000000000000e+00 0.000000000000000e+00 0.000000000000000e+00

0.000000000000000e+00 0.000000000000000e+00 0.000000000000000e+00
0.000000000000000e+00 0.000000000000000e+00 0.000000000000000e+00
0.000000000000000e+00 0.000000000000000e+00 0.000000000000000e+00

0.000000000000000e+00 0.000000000000000e+00 0.000000000000000e+00
0.000000000000000e+00 0.000000000000000e+00 0.000000000000000e+00
0.000000000000000e+00 0.000000000000000e+00 0.000000000000000e+00

0.000000000000000e+00 0.000000000000000e+00 0.000000000000000e+00
0.000000000000000e+00 0.000000000000000e+00 0.000000000000000e+00
0.000000000000000e+00 0.000000000000000e+00 0.000000000000000e+00

0.000000000000000e+00 0.000000000000000e+00 0.000000000000000e+00
0.000000000000000e+00 0.000000000000000e+00 0.000000000000000e+00
0.000000000000000e+00 0.000000000000000e+00 0.000000000000000e+00

0.000000000000000e+00 0.000000000000000e+00 0.000000000000000e+00
0.000000000000000e+00 0.000000000000000e+00 0.000000000000000e+00
0.000000000000000e+00 0.000000000000000e+00 0.000000000000000e+00

0.000000000000000e+00 0.000000000000000e+00 0.000000000000000e+00
0.000000000000000e+00 0.000000000000000e+00 0.000000000000000e+00
0.000000000000000e+00 0.000000000000000e+00 0.000000000000000e+00

0.000000000000000e+00 0.000000000000000e+00 0.000000000000000e+00
0.000000000000000e+00 0.000000000000000e+00 0.000000000000000e+00
0.000000000000000e+00 0.000000000000000e+00 0.000000000000000e+00

0.000000000000000e+00 0.000000000000000e+00 0.000000000000000e+00
0.000000000000000e+00 0.000000000000000e+00 0.000000000000000e+00
0.000000000000000e+00 0.000000000000000e+00 0.000000000000000e+00

0.000000000000000e+00 0.000000000000000e+00 0.000000000000000e+00
0.000000000000000e+00 0.000000000000000e+00 0.000000000000000e+00
0.000000000000000e+00 0.000000000000000e+00 0.000000000000000e+00

0.000000000000000e+00 0.000000000000000e+00 0.000000000000000e+00
0.000000000000000e+00 0.000000000000000e+00 0.000000000000000e+00
0.000000000000000e+00 0.000000000000000e+00 0.000000000000000e+00

0.000000000000000e+00 0.000000000000000e+00 0.000000000000000e+00
0.000000000000000e+00 0.000000000000000e+00 0.000000000000000e+00
0.000000000000000e+00 0.000000000000000e+00 0.000000000000000e+00

0.000000000000000e+00 0.000000000000000e+00 0.000000000000000e+00
0.000000000000000e+00 0.000000000000000e+00 0.000000000000000e+00
0.000000000000000e+00 0.000000000000000e+00 0.000000000000000e+00

0.000000000000000e+00 0.000000000000000e+00 0.000000000000000e+00
0.000000000000000e+00 0.000000000000000e+00 0.000000000000000e+00
0.000000000000000e+00 0.000000000000000e+00 0.000000000000000e+00

0.000000000000000e+00 0.000000000000000e+00 0.000000000000000e+00
0.000000000000000e+00 0.000000000000000e+00 0.000000000000000e+00
0.000000000000000e+00 0.000000000000000e+00 0.000000000000000e+00

0.000000000000000e+00 0.000000000000000e+00 0.000000000000000e+00
0.000000000000000e+00 0.000000000000000e+00 0.000000000000000e+00
0.000000000000000e+00 0.000000000000000e+00 0.000000000000000e+00

0.000000000000000e+00 0.000000000000000e+00 0.000000000000000e+00
0.000000000000000e+00 0.000000000000000e+00 0.000000000000000e+00
0.000000000000000e+00 0.000000000000000e+00 0.000000000000000e+00

0.000000000000000e+00 0.000000000000000e+00 0.000000000000000e+00
0.000000000000000e+00 0.000000000000000e+00 0.000000000000000e+00
0.000000000000000e+00 0.000000000000000e+00 0.000000000000000e+00

0.000000000000000e+00 0.000000000000000e+00 0.000000000000000e+00
0.000000000000000e+00 0.000000000000000e+00 0.000000000000000e+00
0.000000000000000e+00 0.000000000000000e+00 0.000000000000000e+00

0.000000000000000e+00 0.000000000000000e+00 0.000000000000000e+00
0.000000000000000e+00 0.000000000000000e+00 0.000000000000000e+00
0.000000000000000e+00 0.000000000000000e+00 0.000000000000000e+00

0.000000000000000e+00 0.000000000000000e+00 0.000000000000000e+00
0.000000000000000e+00 0.000000000000000e+00 0.000000000000000e+00
0.000000000000000e+00 0.000000000000000e+00 0.000000000000000e+00

0.000000000000000e+00 0.000000000000000e+00 0.000000000000000e+00
0.000000000000000e+00 0.000000000000000e+00 0.000000000000000e+00
0.000000000000000e+00 0.000000000000000e+00 0.000000000000000e+00

0.000000000000000e+00 0.000000000000000e+00 0.000000000000000e+00
0.000000000000000e+00 0.000000000000000e+00 0.000000000000000e+00
0.000000000000000e+00 0.000000000000000e+00 0.000000000000000e+00

0.000000000000000e+00 0.000000000000000e+00 0.000000000000000e+00
0.000000000000000e+00 0.000000000000000e+00 0.000000000000000e+00
0.000000000000000e+00 0.000000000000000e+00 0.000000000000000e+00

0.000000000000000e+00 0.000000000000000e+00 0.000000000000000e+00
0.000000000000000e+00 0.000000000000000e+00 0.000000000000000e+00
0.000000000000000e+00 0.000000000000000e+00 0.000000000000000e+00

0.000000000000000e+00 0.000000000000000e+00 0.000000000000000e+00
0.000000000000000e+00 0.000000000000000e+00 0.000000000000000e+00
0.000000000000000e+00 0.000000000000000e+00 0.000000000000000e+00

0.000000000000000e+00 0.000000000000000e+00 0.000000000000000e+00
0.000000000000000e+00 0.000000000000000e+00 0.000000000000000e+00
0.000000000000000e+00 0.000000000000000e+00 0.000000000000000e+00

0.000000000000000e+00 0.000000000000000e+00 0.000000000000000e+00
0.000000000000000e+00 0.000000000000000e+00 0.000000000000000e+00
0.000000000000000e+00 0.000000000000000e+00 0.000000000000000e+00

0.000000000000000e+00 0.000000000000000e+00 0.000000000000000e+00
0.000000000000000e+00 0.000000000000000e+00 0.000000000000000e+00
0.000000000000000e+00 0.000000000000000e+00 0.000000000000000e+00

0.000000000000000e+00 0.000000000000000e+00 0.000000000000000e+00
0.000000000000000e+00 0.000000000000000e+00 0.000000000000000e+00
0.000000000000000e+00 0.000000000000000e+00 0.000000000000000e+00

0.000000000000000e+00 0.000000000000000e+00 0.000000000000000e+00
0.000000000000000e+00 0.000000000000000e+00 0.000000000000000e+00
0.000000000000000e+00 0.000000000000000e+00 0.000000000000000e+00

0.000000000000000e+00 0.000000000000000e+00 0.000000000000000e+00
0.000000000000000e+00 0.000000000000000e+00 0.000000000000000e+00
0.000000000000000e+00 0.000000000000000e+00 0.000000000000000e+00

0.000000000000000e+00 0.000000000000000e+00 0.000000000000000e+00
0.000000000000000e+00 0.000000000000000e+00 0.000000000000000e+00
0.000000000000000e+00 0.000000000000000e+00 0.000000000000000e+00

0.000000000000000e+00 0.000000000000000e+00 0.000000000000000e+00
0.000000000000000e+00 0.000000000000000e+00 0.000000000000000e+00
0.000000000000000e+00 0.000000000000000e+00 0.000000000000000e+00

0.000000000000000e+00 0.000000000000000e+00 0.000000000000000e+00
0.000000000000000e+00 0.000000000000000e+00 0.000000000000000e+00
0.000000000000000e+00 0.000000000000000e+00 0.000000000000000e+00

0.000000000000000e+00 0.000000000000000e+00 0.000000000000000e+00
0.000000000000000e+00 0.000000000000000e+00 0.000000000000000e+00
0.000000000000000e+00 0.000000000000000e+00 0.000000000000000e+00

0.000000000000000e+00 0.000000000000000e+00 0.000000000000000e+00
0.000000000000000e+00 0.000000000000000e+00 0.000000000000000e+00
0.000000000000000e+00 0.000000000000000e+00 0.000000000000000e+00

0.000000000000000e+00 0.000000000000000e+00 0.000000000000000e+00
0.000000000000000e+00 0.000000000000000e+00 0.000000000000000e+00
0.000000000000000e+00 0.000000000000000e+00 0.000000000000000e+00

0.000000000000000e+00 0.000000000000000e+00 0.000000000000000e+00
0.000000000000000e+00 0.000000000000000e+00 0.000000000000000e+00
0.000000000000000e+00 0.000000000000000e+00 0.000000000000000e+00

0.000000000000000e+00 0.000000000000000e+00 0.000000000000000e+00
0.000000000000000e+00 0.000000000000000e+00 0.000000000000000e+00
0.000000000000000e+00 0.000000000000000e+00 0.000000000000000e+00

0.000000000000000e+00 0.000000000000000e+00 0.000000000000000e+00
0.000000000000000e+00 0.000000000000000e+00 0.000000000000000e+00
0.000000000000000e+00 0.000000000000000e+00 0.000000000000000e+00

0.000000000000000e+00 0.000000000000000e+00 0.000000000000000e+00
0.000000000000000e+00 0.000000000000000e+00 0.000000000000000e+00
0.000000000000000e+00 0.000000000000000e+00 0.000000000000000e+00

0.000000000000000e+00 0.000000000000000e+00 0.000000000000000e+00
0.000000000000000e+00 0.000000000000000e+00 0.000000000000000e+00
0.000000000000000e+00 0.000000000000000e+00 0.000000000000000e+00

0.000000000000000e+00 0.000000000000000e+00 0.000000000000000e+00
0.000000000000000e+00 0.000000000000000e+00 0.000000000000000e+00
0.000000000000000e+00 0.000000000000000e+00 0.000000000000000e+00

0.000000000000000e+00 0.000000000000000e+00 0.000000000000000e+00
0.000000000000000e+00 0.000000000000000e+00 0.000000000000000e+00
0.000000000000000e+00 0.000000000000000e+00 0.000000000000000e+00

0.000000000000000e+00 0.000000000000000e+00 0.000000000000000e+00
0.000000000000000e+00 0.000000000000000e+00 0.000000000000000e+00
0.000000000000000e+00 0.000000000000000e+00 0.000000000000000e+00

0.000000000000000e+00 0.000000000000000e+00 0.000000000000000e+00
0.000000000000000e+00 0.000000000000000e+00 0.000000000000000e+00
0.000000000000000e+00 0.000000000000000e+00 0.000000000000000e+00

0.000000000000000e+00 0.000000000000000e+00 0.000000000000000e+00
0.000000000000000e+00 0.000000000000000e+00 0.000000000000000e+00
0.000000000000000e+00 0.000000000000000e+00 0.000000000000000e+00

0.000000000000000e+00 0.000000000000000e+00 0.000000000000000e+00
0.000000000000000e+00 0.000000000000000e+00 0.000000000000000e+00
0.000000000000000e+00 0.000000000000000e+00 0.000000000000000e+00

0.000000000000000e+00 0.000000000000000e+00 0.000000000000000e+00
0.000000000000000e+00 0.000000000000000e+00 0.000000000000000e+00
0.000000000000000e+00 0.000000000000000e+00 0.000000000000000e+00

0.000000000000000e+00 0.000000000000000e+00 0.000000000000000e+00
0.000000000000000e+00 0.000000000000000e+00 0.000000000000000e+00
0.000000000000000e+00 0.000000000000000e+00 0.000000000000000e+00

0.000000000000000e+00 0.000000000000000e+00 0.000000000000000e+00
0.000000000000000e+00 0.000000000000000e+00 0.000000000000000e+00
0.000000000000000e+00 0.000000000000000e+00 0.000000000000000e+00

0.000000000000000e+00 0.000000000000000e+00 0.000000000000000e+00
0.000000000000000e+00 0.000000000000000e+00 0.000000000000000e+00
0.000000000000000e+00 0.000000000000000e+00 0.000000000000000e+00

0.000000000000000e+00 0.000000000000000e+00 0.000000000000000e+00
0.000000000000000e+00 0.000000000000000e+00 0.000000000000000e+00
0.000000000000000e+00 0.000000000000000e+00 0.000000000000000e+00

0.000000000000000e+00 0.000000000000000e+00 0.000000000000000e+00
0.000000000000000e+00 0.000000000000000e+00 0.000000000000000e+00
0.000000000000000e+00 0.000000000000000e+00 0.000000000000000e+00

0.000000000000000e+00 0.000000000000000e+00 0.000000000000000e+00
0.000000000000000e+00 0.000000000000000e+00 0.000000000000000e+00
0.000000000000000e+00 0.000000000000000e+00 0.000000000000000e+00

0.000000000000000e+00 0.000000000000000e+00 0.000000000000000e+00
0.000000000000000e+00 0.000000000000000e+00 0.000000000000000e+00
0.000000000000000e+00 0.000000000000000e+00 0.000000000000000e+00

0.000000000000000e+00 0.000000000000000e+00 0.000000000000000e+00
0.000000000000000e+00 0.000000000000000e+00 0.000000000000000e+00
0.000000000000000e+00 0.000000000000000e+00 0.000000000000000e+00

0.000000000000000e+00 0.000000000000000e+00 0.000000000000000e+00
0.000000000000000e+00 0.000000000000000e+00 0.000000000000000e+00
0.000000000000000e+00 0.000000000000000e+00 0.000000000000000e+00

0.000000000000000e+00 0.000000000000000e+00 0.000000000000000e+00
0.000000000000000e+00 0.000000000000000e+00 0.000000000000000e+00
0.000000000000000e+00 0.000000000000000e+00 0.000000000000000e+00

0.000000000000000e+00 0.000000000000000e+00 0.000000000000000e+00
0.000000000000000e+00 0.000000000000000e+00 0.000000000000000e+00
0.000000000000000e+00 0.000000000000000e+00 0.000000000000000e+00

0.000000000000000e+00 0.000000000000000e+00 0.000000000000000e+00
0.000000000000000e+00 0.000000000000000e+00 0.000000000000000e+00
0.000000000000000e+00 0.000000000000000e+00 0.000000000000000e+00

0.000000000000000e+00 0.000000000000000e+00 0.000000000000000e+00
0.000000000000000e+00 0.000000000000000e+00 0.000000000000000e+00
0.000000000000000e+00 0.000000000000000e+00 0.000000000000000e+00

0.000000000000000e+00 0.000000000000000e+00 0.000000000000000e+00
0.000000000000000e+00 0.000000000000000e+00 0.000000000000000e+00
0.000000000000000e+00 0.000000000000000e+00 0.000000000000000e+00

0.000000000000000e+00 0.000000000000000e+00 0.000000000000000e+00
0.000000000000000e+00 0.000000000000000e+00 0.000000000000000e+00
0.000000000000000e+00 0.000000000000000e+00 0.000000000000000e+00

0.000000000000000e+00 0.000000000000000e+00 0.000000000000000e+00
0.000000000000000e+00 0.000000000000000e+00 0.000000000000000e+00
0.000000000000000e+00 0.000000000000000e+00 0.000000000000000e+00

0.000000000000000e+00 0.000000000000000e+00 0.000000000000000e+00
0.000000000000000e+00 0.000000000000000e+00 0.000000000000000e+00
0.000000000000000e+00 0.000000000000000e+00 0.000000000000000e+00

0.000000000000000e+00 0.000000000000000e+00 0.000000000000000e+00
0.000000000000000e+00 0.000000000000000e+00 0.000000000000000e+00
0.000000000000000e+00 0.000000000000000e+00 0.000000000000000e+00

0.000000000000000e+00 0.000000000000000e+00 0.000000000000000e+00
0.000000000000000e+00 0.000000000000000e+00 0.000000000000000e+00
0.000000000000000e+00 0.000000000000000e+00 0.000000000000000e+00

0.000000000000000e+00 0.000000000000000e+00 0.000000000000000e+00
0.000000000000000e+00 0.000000000000000e+00 0.000000000000000e+00
0.000000000000000e+00 0.000000000000000e+00 0.000000000000000e+00

0.000000000000000e+00 0.000000000000000e+00 0.000000000000000e+00
0.000000000000000e+00 0.000000000000000e+00 0.000000000000000e+00
0.000000000000000e+00 0.000000000000000e+00 0.000000000000000e+00

0.000000000000000e+00 0.000000000000000e+00 0.000000000000000e+00
0.000000000000000e+00 0.000000000000000e+00 0.000000000000000e+00
0.000000000000000e+00 0.000000000000000e+00 0.000000000000000e+00

0.000000000000000e+00 0.000000000000000e+00 0.000000000000000e+00
0.000000000000000e+00 0.000000000000000e+00 0.000000000000000e+00
0.000000000000000e+00 0.000000000000000e+00 0.000000000000000e+00

0.000000000000000e+00 0.000000000000000e+00 0.000000000000000e+00
0.000000000000000e+00 0.000000000000000e+00 0.000000000000000e+00
0.000000000000000e+00 0.000000000000000e+00 0.000000000000000e+00

0.000000000000000e+00 0.000000000000000e+00 0.000000000000000e+00
0.000000000000000e+00 0.000000000000000e+00 0.000000000000000e+00
0.000000000000000e+00 0.000000000000000e+00 0.000000000000000e+00

0.000000000000000e+00 0.000000000000000e+00 0.000000000000000e+00
0.000000000000000e+00 0.000000000000000e+00 0.000000000000000e+00
0.000000000000000e+00 0.000000000000000e+00 0.000000000000000e+00

0.000000000000000e+00 0.000000000000000e+00 0.000000000000000e+00
0.000000000000000e+00 0.000000000000000e+00 0.000000000000000e+00
0.000000000000000e+00 0.000000000000000e+00 0.000000000000000e+00

0.000000000000000e+00 0.000000000000000e+00 0.000000000000000e+00
0.000000000000000e+00 0.000000000000000e+00 0.000000000000000e+00
0.000000000000000e+00 0.000000000000000e+00 0.000000000000000e+00

0.000000000000000e+00 0.000000000000000e+00 0.000000000000000e+00
0.000000000000000e+00 0.000000000000000e+00 0.000000000000000e+00
0.000000000000000e+00 0.000000000000000e+00 0.000000000000000e+00

0.000000000000000e+00 0.000000000000000e+00 0.000000000000000e+00
0.000000000000000e+00 0.000000000000000e+00 0.000000000000000e+00
0.000000000000000e+00 0.000000000000000e+00 0.000000000000000e+00

0.000000000000000e+00 0.000000000000000e+00 0.000000000000000e+00
0.000000000000000e+00 0.000000000000000e+00 0.000000000000000e+00
0.000000000000000e+00 0.000000000000000e+00 0.000000000000000e+00

0.000000000000000e+00 0.000000000000000e+00 0.000000000000000e+00
0.000000000000000e+00 0.000000000000000e+00 0.000000000000000e+00
0.000000000000000e+00 0.000000000000000e+00 0.000000000000000e+00

0.000000000000000e+00 0.000000000000000e+00 0.000000000000000e+00
0.000000000000000e+00 0.000000000000000e+00 0.000000000000000e+00
0.000000000000000e+00 0.000000000000000e+00 0.000000000000000e+00

0.000000000000000e+00 0.000000000000000e+00 0.000000000000000e+00
0.000000000000000e+00 0.000000000000000e+00 0.000000000000000e+00
0.000000000000000e+00 0.000000000000000e+00 0.000000000000000e+00

0.000000000000000e+00 0.000000000000000e+00 0.000000000000000e+00
0.000000000000000e+00 0.000000000000000e+00 0.000000000000000e+00
0.000000000000000e+00 0.000000000000000e+00 0.000000000000000e+00

0.000000000000000e+00 0.000000000000000e+00 0.000000000000000e+00
0.000000000000000e+00 0.000000000000000e+00 0.000000000000000e+00
0.000000000000000e+00 0.000000000000000e+00 0.000000000000000e+00

0.000000000000000e+00 0.000000000000000e+00 0.000000000000000e+00
0.000000000000000e+00 0.000000000000000e+00 0.000000000000000e+00
0.000000000000000e+00 0.000000000000000e+00 0.000000000000000e+00

0.000000000000000e+00 0.000000000000000e+00 0.000000000000000e+00
0.000000000000000e+00 0.000000000000000e+00 0.000000000000000e+00
0.000000000000000e+00 0.000000000000000e+00 0.000000000000000e+00

0.000000000000000e+00 0.000000000000000e+00 0.000000000000000e+00
0.000000000000000e+00 0.000000000000000e+00 0.000000000000000e+00
0.000000000000000e+00 0.000000000000000e+00 0.000000000000000e+00

0.000000000000000e+00 0.000000000000000e+00 0.000000000000000e+00
0.000000000000000e+00 0.000000000000000e+00 0.000000000000000e+00
0.000000000000000e+00 0.000000000000000e+00 0.000000000000000e+00

0.000000000000000e+00 0.000000000000000e+00 0.000000000000000e+00
0.000000000000000e+00 0.000000000000000e+00 0.000000000000000e+00
0.000000000000000e+00 0.000000000000000e+00 0.000000000000000e+00

0.000000000000000e+00 0.000000000000000e+00 0.000000000000000e+00
0.000000000000000e+00 0.000000000000000e+00 0.000000000000000e+00
0.000000000000000e+00 0.000000000000000e+00 0.000000000000000e+00

0.000000000000000e+00 0.000000000000000e+00 0.000000000000000e+00
0.000000000000000e+00 0.000000000000000e+00 0.000000000000000e+00
0.000000000000000e+00 0.000000000000000e+00 0.000000000000000e+00

0.000000000000000e+00 0.000000000000000e+00 0.000000000000000e+00
0.000000000000000e+00 0.000000000000000e+00 0.000000000000000e+00
0.000000000000000e+00 0.000000000000000e+00 0.000000000000000e+00

0.000000000000000e+00 0.000000000000000e+00 0.000000000000000e+00
0.000000000000000e+00 0.000000000000000e+00 0.000000000000000e+00
0.000000000000000e+00 0.000000000000000e+00 0.000000000000000e+00

0.000000000000000e+00 0.000000000000000e+00 0.000000000000000e+00
0.000000000000000e+00 0.000000000000000e+00 0.000000000000000e+00
0.000000000000000e+00 0.000000000000000e+00 0.000000000000000e+00

0.000000000000000e+00 0.000000000000000e+00 0.000000000000000e+00
0.000000000000000e+00 0.000000000000000e+00 0.000000000000000e+00
0.000000000000000e+00 0.000000000000000e+00 0.000000000000000e+00

0.000000000000000e+00 0.000000000000000e+00 0.000000000000000e+00
0.000000000000000e+00 0.000000000000000e+00 0.000000000000000e+00
0.000000000000000e+00 0.000000000000000e+00 0.000000000000000e+00

0.000000000000000e+00 0.000000000000000e+00 0.000000000000000e+00
0.000000000000000e+00 0.000000000000000e+00 0.000000000000000e+00
0.000000000000000e+00 0.000000000000000e+00 0.000000000000000e+00

0.000000000000000e+00 0.000000000000000e+00 0.000000000000000e+00
0.000000000000000e+00 0.000000000000000e+00 0.000000000000000e+00
0.000000000000000e+00 0.000000000000000e+00 0.000000000000000e+00

0.000000000000000e+00 0.000000000000000e+00 0.000000000000000e+00
0.000000000000000e+00 0.000000000000000e+00 0.000000000000000e+00
0.000000000000000e+00 0.000000000000000e+00 0.000000000000000e+00

0.000000000000000e+00 0.000000000000000e+00 0.000000000000000e+00
0.000000000000000e+00 0.000000000000000e+00 0.000000000000000e+00
0.000000000000000e+00 0.000000000000000e+00 0.000000000000000e+00

0.000000000000000e+00 0.000000000000000e+00 0.000000000000000e+00
0.000000000000000e+00 0.000000000000000e+00 0.000000000000000e+00
0.000000000000000e+00 0.000000000000000e+00 0.000000000000000e+00

0.000000000000000e+00 0.000000000000000e+00 0.000000000000000e+00
0.000000000000000e+00 0.000000000000000e+00 0.000000000000000e+00
0.000000000000000e+00 0.000000000000000e+00 0.000000000000000e+00

0.000000000000000e+00 0.000000000000000e+00 0.000000000000000e+00
0.000000000000000e+00 0.000000000000000e+00 0.000000000000000e+00
0.000000000000000e+00 0.000000000000000e+00 0.000000000000000e+00

0.000000000000000e+00 0.000000000000000e+00 0.000000000000000e+00
0.000000000000000e+00 0.000000000000000e+00 0.000000000000000e+00
0.000000000000000e+00 0.000000000000000e+00 0.000000000000000e+00

0.000000000000000e+00 0.000000000000000e+00 0.000000000000000e+00
0.000000000000000e+00 0.000000000000000e+00 0.000000000000000e+00
0.000000000000000e+00 0.000000000000000e+00 0.000000000000000e+00

0.000000000000000e+00 0.000000000000000e+00 0.000000000000000e+00
0.000000000000000e+00 0.000000000000000e+00 0.000000000000000e+00
0.000000000000000e+00 0.000000000000000e+00 0.000000000000000e+00

0.000000000000000e+00 0.000000000000000e+00 0.000000000000000e+00
0.000000000000000e+00 0.000000000000000e+00 0.000000000000000e+00
0.000000000000000e+00 0.000000000000000e+00 0.000000000000000e+00

0.000000000000000e+00 0.000000000000000e+00 0.000000000000000e+00
0.000000000000000e+00 0.000000000000000e+00 0.000000000000000e+00
0.000000000000000e+00 0.000000000000000e+00 0.000000000000000e+00

0.000000000000000e+00 0.000000000000000e+00 0.000000000000000e+00
0.000000000000000e+00 0.000000000000000e+00 0.000000000000000e+00
0.000000000000000e+00 0.000000000000000e+00 0.000000000000000e+00

0.000000000000000e+00 0.000000000000000e+00 0.000000000000000e+00
0.000000000000000e+00 0.000000000000000e+00 0.000000000000000e+00
0.000000000000000e+00 0.000000000000000e+00 0.000000000000000e+00

0.000000000000000e+00 0.000000000000000e+00 0.000000000000000e+00
0.000000000000000e+00 0.000000000000000e+00 0.000000000000000e+00
0.000000000000000e+00 0.000000000000000e+00 0.000000000000000e+00

0.000000000000000e+00 0.000000000000000e+00 0.000000000000000e+00
0.000000000000000e+00 0.000000000000000e+00 0.000000000000000e+00
0.000000000000000e+00 0.000000000000000e+00 0.000000000000000e+00

0.000000000000000e+00 0.000000000000000e+00 0.000000000000000e+00
0.000000000000000e+00 0.000000000000000e+00 0.000000000000000e+00
0.000000000000000e+00 0.000000000000000e+00 0.000000000000000e+00

0.000000000000000e+00 0.000000000000000e+00 0.000000000000000e+00
0.000000000000000e+00 0.000000000000000e+00 0.000000000000000e+00
0.000000000000000e+00 0.000000000000000e+00 0.000000000000000e+00

0.000000000000000e+00 0.000000000000000e+00 0.000000000000000e+00
0.000000000000000e+00 0.000000000000000e+00 0.000000000000000e+00
0.000000000000000e+00 0.000000000000000e+00 0.000000000000000e+00

0.000000000000000e+00 0.000000000000000e+00 0.000000000000000e+00
0.000000000000000e+00 0.000000000000000e+00 0.000000000000000e+00
0.000000000000000e+00 0.000000000000000e+00 0.000000000000000e+00

0.000000000000000e+00 0.000000000000000e+00 0.000000000000000e+00
0.000000000000000e+00 0.000000000000000e+00 0.000000000000000e+00
0.000000000000000e+00 0.000000000000000e+00 0.000000000000000e+00

0.000000000000000e+00 0.000000000000000e+00 0.000000000000000e+00
0.000000000000000e+00 0.000000000000000e+00 0.000000000000000e+00
0.000000000000000e+00 0.000000000000000e+00 0.000000000000000e+00

0.000000000000000e+00 0.000000000000000e+00 0.000000000000000e+00
0.000000000000000e+00 0.000000000000000e+00 0.000000000000000e+00
0.000000000000000e+00 0.000000000000000e+00 0.000000000000000e+00

0.000000000000000e+00 0.000000000000000e+00 0.000000000000000e+00
0.000000000000000e+00 0.000000000000000e+00 0.000000000000000e+00
0.000000000000000e+00 0.000000000000000e+00 0.000000000000000e+00

0.000000000000000e+00 0.000000000000000e+00 0.000000000000000e+00
0.000000000000000e+00 0.000000000000000e+00 0.000000000000000e+00
0.000000000000000e+00 0.000000000000000e+00 0.000000000000000e+00

0.000000000000000e+00 0.000000000000000e+00 0.000000000000000e+00
0.000000000000000e+00 0.000000000000000e+00 0.000000000000000e+00
0.000000000000000e+00 0.000000000000000e+00 0.000000000000000e+00

0.000000000000000e+00 0.000000000000000e+00 0.000000000000000e+00
0.000000000000000e+00 0.000000000000000e+00 0.000000000000000e+00
0.000000000000000e+00 0.000000000000000e+00 0.000000000000000e+00

0.000000000000000e+00 0.000000000000000e+00 0.000000000000000e+00
0.000000000000000e+00 0.000000000000000e+00 0.000000000000000e+00
0.000000000000000e+00 0.000000000000000e+00 0.000000000000000e+00

0.000000000000000e+00 0.000000000000000e+00 0.000000000000000e+00
0.000000000000000e+00 0.000000000000000e+00 0.000000000000000e+00
0.000000000000000e+00 0.000000000000000e+00 0.000000000000000e+00

0.000000000000000e+00 0.000000000000000e+00 0.000000000000000e+00
0.000000000000000e+00 0.000000000000000e+00 0.000000000000000e+00
0.000000000000000e+00 0.000000000000000e+00 0.000000000000000e+00

0.000000000000000e+00 0.000000000000000e+00 0.000000000000000e+00
0.000000000000000e+00 0.000000000000000e+00 0.000000000000000e+00
0.000000000000000e+00 0.000000000000000e+00 0.000000000000000e+00

0.000000000000000e+00 0.000000000000000e+00 0.000000000000000e+00
0.000000000000000e+00 0.000000000000000e+00 0.000000000000000e+00
0.000000000000000e+00 0.000000000000000e+00 0.000000000000000e+00

0.000000000000000e+00 0.000000000000000e+00 0.000000000000000e+00
0.000000000000000e+00 0.000000000000000e+00 0.000000000000000e+00
0.000000000000000e+00 0.000000000000000e+00 0.000000000000000e+00

0.000000000000000e+00 0.000000000000000e+00 0.000000000000000e+00
0.000000000000000e+00 0.000000000000000e+00 0.000000000000000e+00
0.000000000000000e+00 0.000000000000000e+00 0.000000000000000e+00

0.000000000000000e+00 0.000000000000000e+00 0.000000000000000e+00
0.000000000000000e+00 0.000000000000000e+00 0.000000000000000e+00
0.000000000000000e+00 0.000000000000000e+00 0.000000000000000e+00

0.000000000000000e+00 0.000000000000000e+00 0.000000000000000e+00
0.000000000000000e+00 0.000000000000000e+00 0.000000000000000e+00
0.000000000000000e+00 0.000000000000000e+00 0.000000000000000e+00

0.000000000000000e+00 0.000000000000000e+00 0.000000000000000e+00
0.000000000000000e+00 0.000000000000000e+00 0.000000000000000e+00
0.000000000000000e+00 0.000000000000000e+00 0.000000000000000e+00

0.000000000000000e+00 0.000000000000000e+00 0.000000000000000e+00
0.000000000000000e+00 0.000000000000000e+00 0.000000000000000e+00
0.000000000000000e+00 0.000000000000000e+00 0.000000000000000e+00

0.000000000000000e+00 0.000000000000000e+00 0.000000000000000e+00
0.000000000000000e+00 0.000000000000000e+00 0.000000000000000e+00
0.000000000000000e+00 0.000000000000000e+00 0.000000000000000e+00

0.000000000000000e+00 0.000000000000000e+00 0.000000000000000e+00
0.000000000000000e+00 0.000000000000000e+00 0.000000000000000e+00
0.000000000000000e+00 0.000000000000000e+00 0.000000000000000e+00

0.000000000000000e+00 0.000000000000000e+00 0.000000000000000e+00
0.000000000000000e+00 0.000000000000000e+00 0.000000000000000e+00
0.000000000000000e+00 0.000000000000000e+00 0.000000000000000e+00

0.000000000000000e+00 0.000000000000000e+00 0.000000000000000e+00
0.000000000000000e+00 0.000000000000000e+00 0.000000000000000e+00
0.000000000000000e+00 0.000000000000000e+00 0.000000000000000e+00

0.000000000000000e+00 0.000000000000000e+00 0.000000000000000e+00
0.000000000000000e+00 0.000000000000000e+00 0.000000000000000e+00
0.000000000000000e+00 0.000000000000000e+00 0.000000000000000e+00

0.000000000000000e+00 0.000000000000000e+00 0.000000000000000e+00
0.000000000000000e+00 0.000000000000000e+00 0.000000000000000e+00
0.000000000000000e+00 0.000000000000000e+00 0.000000000000000e+00

0.000000000000000e+00 0.000000000000000e+00 0.000000000000000e+00
0.000000000000000e+00 0.000000000000000e+00 0.000000000000000e+00
0.000000000000000e+00 0.000000000000000e+00 0.000000000000000e+00

0.000000000000000e+00 0.000000000000000e+00 0.000000000000000e+00
0.000000000000000e+00 0.000000000000000e+00 0.000000000000000e+00
0.000000000000000e+00 0.000000000000000e+00 0.000000000000000e+00

0.000000000000000e+00 0.000000000000000e+00 0.000000000000000e+00
0.000000000000000e+00 0.000000000000000e+00 0.000000000000000e+00
0.000000000000000e+00 0.000000000000000e+00 0.000000000000000e+00

0.000000000000000e+00 0.000000000000000e+00 0.000000000000000e+00
0.000000000000000e+00 0.000000000000000e+00 0.000000000000000e+00
0.000000000000000e+00 0.000000000000000e+00 0.000000000000000e+00

0.000000000000000e+00 0.000000000000000e+00 0.000000000000000e+00
0.000000000000000e+00 0.000000000000000e+00 0.000000000000000e+00
0.000000000000000e+00 0.000000000000000e+00 0.000000000000000e+00

0.000000000000000e+00 0.000000000000000e+00 0.000000000000000e+00
0.000000000000000e+00 0.000000000000000e+00 0.000000000000000e+00
0.000000000000000e+00 0.000000000000000e+00 0.000000000000000e+00

0.000000000000000e+00 0.000000000000000e+00 0.000000000000000e+00
0.000000000000000e+00 0.000000000000000e+00 0.000000000000000e+00
0.000000000000000e+00 0.000000000000000e+00 0.000000000000000e+00

0.000000000000000e+00 0.000000000000000e+00 0.000000000000000e+00
0.000000000000000e+00 0.000000000000000e+00 0.000000000000000e+00
0.000000000000000e+00 0.000000000000000e+00 0.000000000000000e+00

0.000000000000000e+00 0.000000000000000e+00 0.000000000000000e+00
0.000000000000000e+00 0.000000000000000e+00 0.000000000000000e+00
0.000000000000000e+00 0.000000000000000e+00 0.000000000000000e+00

0.000000000000000e+00 0.000000000000000e+00 0.000000000000000e+00
0.000000000000000e+00 0.000000000000000e+00 0.000000000000000e+00
0.000000000000000e+00 0.000000000000000e+00 0.000000000000000e+00

0.000000000000000e+00 0.000000000000000e+00 0.000000000000000e+00
0.000000000000000e+00 0.000000000000000e+00 0.000000000000000e+00
0.000000000000000e+00 0.000000000000000e+00 0.000000000000000e+00

0.000000000000000e+00 0.000000000000000e+00 0.000000000000000e+00
0.000000000000000e+00 0.000000000000000e+00 0.000000000000000e+00
0.000000000000000e+00 0.000000000000000e+00 0.000000000000000e+00

0.000000000000000e+00 0.000000000000000e+00 0.000000000000000e+00
0.000000000000000e+00 0.000000000000000e+00 0.000000000000000e+00
0.000000000000000e+00 0.000000000000000e+00 0.000000000000000e+00

0.000000000000000e+00 0.000000000000000e+00 0.000000000000000e+00
0.000000000000000e+00 0.000000000000000e+00 0.000000000000000e+00
0.000000000000000e+00 0.000000000000000e+00 0.000000000000000e+00

0.000000000000000e+00 0.000000000000000e+00 0.000000000000000e+00
0.000000000000000e+00 0.000000000000000e+00 0.000000000000000e+00
0.000000000000000e+00 0.000000000000000e+00 0.000000000000000e+00

0.000000000000000e+00 0.000000000000000e+00 0.000000000000000e+00
0.000000000000000e+00 0.000000000000000e+00 0.000000000000000e+00
0.000000000000000e+00 0.000000000000000e+00 0.000000000000000e+00

0.000000000000000e+00 0.000000000000000e+00 0.000000000000000e+00
0.000000000000000e+00 0.000000000000000e+00 0.000000000000000e+00
0.000000000000000e+00 0.000000000000000e+00 0.000000000000000e+00

0.000000000000000e+00 0.000000000000000e+00 0.000000000000000e+00
0.000000000000000e+00 0.000000000000000e+00 0.000000000000000e+00
0.000000000000000e+00 0.000000000000000e+00 0.000000000000000e+00

0.000000000000000e+00 0.000000000000000e+00 0.000000000000000e+00
0.000000000000000e+00 0.000000000000000e+00 0.000000000000000e+00
0.000000000000000e+00 0.000000000000000e+00 0.000000000000000e+00

0.000000000000000e+00 0.000000000000000e+00 0.000000000000000e+00
0.000000000000000e+00 0.000000000000000e+00 0.000000000000000e+00
0.000000000000000e+00 0.000000000000000e+00 0.000000000000000e+00

0.000000000000000e+00 0.000000000000000e+00 0.000000000000000e+00
0.000000000000000e+00 0.000000000000000e+00 0.000000000000000e+00
0.000000000000000e+00 0.000000000000000e+00 0.000000000000000e+00

0.000000000000000e+00 0.000000000000000e+00 0.000000000000000e+00
0.000000000000000e+00 0.000000000000000e+00 0.000000000000000e+00
0.000000000000000e+00 0.000000000000000e+00 0.000000000000000e+00

0.000000000000000e+00 0.000000000000000e+00 0.000000000000000e+00
0.000000000000000e+00 0.000000000000000e+00 0.000000000000000e+00
0.000000000000000e+00 0.000000000000000e+00 0.000000000000000e+00

0.000000000000000e+00 0.000000000000000e+00 0.000000000000000e+00
0.000000000000000e+00 0.000000000000000e+00 0.000000000000000e+00
0.000000000000000e+00 0.000000000000000e+00 0.000000000000000e+00

0.000000000000000e+00 0.000000000000000e+00 0.000000000000000e+00
0.000000000000000e+00 0.000000000000000e+00 0.000000000000000e+00
0.000000000000000e+00 0.000000000000000e+00 0.000000000000000e+00

0.000000000000000e+00 0.000000000000000e+00 0.000000000000000e+00
0.000000000000000e+00 0.000000000000000e+00 0.000000000000000e+00
0.000000000000000e+00 0.000000000000000e+00 0.000000000000000e+00

0.000000000000000e+00 0.000000000000000e+00 0.000000000000000e+00
0.000000000000000e+00 0.000000000000000e+00 0.000000000000000e+00
0.000000000000000e+00 0.000000000000000e+00 0.000000000000000e+00

0.000000000000000e+00 0.000000000000000e+00 0.000000000000000e+00
0.000000000000000e+00 0.000000000000000e+00 0.000000000000000e+00
0.000000000000000e+00 0.000000000000000e+00 0.000000000000000e+00

0.000000000000000e+00 0.000000000000000e+00 0.000000000000000e+00
0.000000000000000e+00 0.000000000000000e+00 0.000000000000000e+00
0.000000000000000e+00 0.000000000000000e+00 0.000000000000000e+00

0.000000000000000e+00 0.000000000000000e+00 0.000000000000000e+00
0.000000000000000e+00 0.000000000000000e+00 0.000000000000000e+00
0.000000000000000e+00 0.000000000000000e+00 0.000000000000000e+00

0.000000000000000e+00 0.000000000000000e+00 0.000000000000000e+00
0.000000000000000e+00 0.000000000000000e+00 0.000000000000000e+00
0.000000000000000e+00 0.000000000000000e+00 0.000000000000000e+00

0.000000000000000e+00 0.000000000000000e+00 0.000000000000000e+00
0.000000000000000e+00 0.000000000000000e+00 0.000000000000000e+00
0.000000000000000e+00 0.000000000000000e+00 0.000000000000000e+00

0.000000000000000e+00 0.000000000000000e+00 0.000000000000000e+00
0.000000000000000e+00 0.000000000000000e+00 0.000000000000000e+00
0.000000000000000e+00 0.000000000000000e+00 0.000000000000000e+00

0.000000000000000e+00 0.000000000000000e+00 0.000000000000000e+00
0.000000000000000e+00 0.000000000000000e+00 0.000000000000000e+00
0.000000000000000e+00 0.000000000000000e+00 0.000000000000000e+00

0.000000000000000e+00 0.000000000000000e+00 0.000000000000000e+00
0.000000000000000e+00 0.000000000000000e+00 0.000000000000000e+00
0.000000000000000e+00 0.000000000000000e+00 0.000000000000000e+00

0.000000000000000e+00 0.000000000000000e+00 0.000000000000000e+00
0.000000000000000e+00 0.000000000000000e+00 0.000000000000000e+00
0.000000000000000e+00 0.000000000000000e+00 0.000000000000000e+00

0.000000000000000e+00 0.000000000000000e+00 0.000000000000000e+00
0.000000000000000e+00 0.000000000000000e+00 0.000000000000000e+00
0.000000000000000e+00 0.000000000000000e+00 0.000000000000000e+00

0.000000000000000e+00 0.000000000000000e+00 0.000000000000000e+00
0.000000000000000e+00 0.000000000000000e+00 0.000000000000000e+00
0.000000000000000e+00 0.000000000000000e+00 0.000000000000000e+00

0.000000000000000e+00 0.000000000000000e+00 0.000000000000000e+00
0.000000000000000e+00 0.000000000000000e+00 0.000000000000000e+00
0.000000000000000e+00 0.000000000000000e+00 0.000000000000000e+00

0.000000000000000e+00 0.000000000000000e+00 0.000000000000000e+00
0.000000000000000e+00 0.000000000000000e+00 0.000000000000000e+00
0.000000000000000e+00 0.000000000000000e+00 0.000000000000000e+00

0.000000000000000e+00 0.000000000000000e+00 0.000000000000000e+00
0.000000000000000e+00 0.000000000000000e+00 0.000000000000000e+00
0.000000000000000e+00 0.000000000000000e+00 0.000000000000000e+00

0.000000000000000e+00 0.000000000000000e+00 0.000000000000000e+00
0.000000000000000e+00 0.000000000000000e+00 0.000000000000000e+00
0.000000000000000e+00 0.000000000000000e+00 0.000000000000000e+00

0.000000000000000e+00 0.000000000000000e+00 0.000000000000000e+00
0.000000000000000e+00 0.000000000000000e+00 0.000000000000000e+00
0.000000000000000e+00 0.000000000000000e+00 0.000000000000000e+00

0.000000000000000e+00 0.000000000000000e+00 0.000000000000000e+00
0.000000000000000e+00 0.000000000000000e+00 0.000000000000000e+00
0.000000000000000e+00 0.000000000000000e+00 0.000000000000000e+00

0.000000000000000e+00 0.000000000000000e+00 0.000000000000000e+00
0.000000000000000e+00 0.000000000000000e+00 0.000000000000000e+00
0.000000000000000e+00 0.000000000000000e+00 0.000000000000000e+00

0.000000000000000e+00 0.000000000000000e+00 0.000000000000000e+00
0.000000000000000e+00 0.000000000000000e+00 0.000000000000000e+00
0.000000000000000e+00 0.000000000000000e+00 0.000000000000000e+00

0.000000000000000e+00 0.000000000000000e+00 0.000000000000000e+00
0.000000000000000e+00 0.000000000000000e+00 0.000000000000000e+00
0.000000000000000e+00 0.000000000000000e+00 0.000000000000000e+00

0.000000000000000e+00 0.000000000000000e+00 0.000000000000000e+00
0.000000000000000e+00 0.000000000000000e+00 0.000000000000000e+00
0.000000000000000e+00 0.000000000000000e+00 0.000000000000000e+00

0.000000000000000e+00 0.000000000000000e+00 0.000000000000000e+00
0.000000000000000e+00 0.000000000000000e+00 0.000000000000000e+00
0.000000000000000e+00 0.000000000000000e+00 0.000000000000000e+00

0.000000000000000e+00 0.000000000000000e+00 0.000000000000000e+00
0.000000000000000e+00 0.000000000000000e+00 0.000000000000000e+00
0.000000000000000e+00 0.000000000000000e+00 0.000000000000000e+00

0.000000000000000e+00 0.000000000000000e+00 0.000000000000000e+00
0.000000000000000e+00 0.000000000000000e+00 0.000000000000000e+00
0.000000000000000e+00 0.000000000000000e+00 0.000000000000000e+00

0.000000000000000e+00 0.000000000000000e+00 0.000000000000000e+00
0.000000000000000e+00 0.000000000000000e+00 0.000000000000000e+00
0.000000000000000e+00 0.000000000000000e+00 0.000000000000000e+00

0.000000000000000e+00 0.000000000000000e+00 0.000000000000000e+00
0.000000000000000e+00 0.000000000000000e+00 0.000000000000000e+00
0.000000000000000e+00 0.000000000000000e+00 0.000000000000000e+00

0.000000000000000e+00 0.000000000000000e+00 0.000000000000000e+00
0.000000000000000e+00 0.000000000000000e+00 0.000000000000000e+00
0.000000000000000e+00 0.000000000000000e+00 0.000000000000000e+00

0.000000000000000e+00 0.000000000000000e+00 0.000000000000000e+00
0.000000000000000e+00 0.000000000000000e+00 0.000000000000000e+00
0.000000000000000e+00 0.000000000000000e+00 0.000000000000000e+00

0.000000000000000e+00 0.000000000000000e+00 0.000000000000000e+00
0.000000000000000e+00 0.000000000000000e+00 0.000000000000000e+00
0.000000000000000e+00 0.000000000000000e+00 0.000000000000000e+00

0.000000000000000e+00 0.000000000000000e+00 0.000000000000000e+00
0.000000000000000e+00 0.000000000000000e+00 0.000000000000000e+00
0.000000000000000e+00 0.000000000000000e+00 0.000000000000000e+00

0.000000000000000e+00 0.000000000000000e+00 0.000000000000000e+00
0.000000000000000e+00 0.000000000000000e+00 0.000000000000000e+00
0.000000000000000e+00 0.000000000000000e+00 0.000000000000000e+00

0.000000000000000e+00 0.000000000000000e+00 0.000000000000000e+00
0.000000000000000e+00 0.000000000000000e+00 0.000000000000000e+00
0.000000000000000e+00 0.000000000000000e+00 0.000000000000000e+00

0.000000000000000e+00 0.000000000000000e+00 0.000000000000000e+00
0.000000000000000e+00 0.000000000000000e+00 0.000000000000000e+00
0.000000000000000e+00 0.000000000000000e+00 0.000000000000000e+00

0.000000000000000e+00 0.000000000000000e+00 0.000000000000000e+00
0.000000000000000e+00 0.000000000000000e+00 0.000000000000000e+00
0.000000000000000e+00 0.000000000000000e+00 0.000000000000000e+00

0.000000000000000e+00 0.000000000000000e+00 0.000000000000000e+00
0.000000000000000e+00 0.000000000000000e+00 0.000000000000000e+00
0.000000000000000e+00 0.000000000000000e+00 0.000000000000000e+00

0.000000000000000e+00 0.000000000000000e+00 0.000000000000000e+00
0.000000000000000e+00 0.000000000000000e+00 0.000000000000000e+00
0.000000000000000e+00 0.000000000000000e+00 0.000000000000000e+00

0.000000000000000e+00 0.000000000000000e+00 0.000000000000000e+00
0.000000000000000e+00 0.000000000000000e+00 0.000000000000000e+00
0.000000000000000e+00 0.000000000000000e+00 0.000000000000000e+00

0.000000000000000e+00 0.000000000000000e+00 0.000000000000000e+00
0.000000000000000e+00 0.000000000000000e+00 0.000000000000000e+00
0.000000000000000e+00 0.000000000000000e+00 0.000000000000000e+00

0.000000000000000e+00 0.000000000000000e+00 0.000000000000000e+00
0.000000000000000e+00 0.000000000000000e+00 0.000000000000000e+00
0.000000000000000e+00 0.000000000000000e+00 0.000000000000000e+00

0.000000000000000e+00 0.000000000000000e+00 0.000000000000000e+00
0.000000000000000e+00 0.000000000000000e+00 0.000000000000000e+00
0.000000000000000e+00 0.000000000000000e+00 0.000000000000000e+00

0.000000000000000e+00 0.000000000000000e+00 0.000000000000000e+00
0.000000000000000e+00 0.000000000000000e+00 0.000000000000000e+00
0.000000000000000e+00 0.000000000000000e+00 0.000000000000000e+00

0.000000000000000e+00 0.000000000000000e+00 0.000000000000000e+00
0.000000000000000e+00 0.000000000000000e+00 0.000000000000000e+00
0.000000000000000e+00 0.000000000000000e+00 0.000000000000000e+00

0.000000000000000e+00 0.000000000000000e+00 0.000000000000000e+00
0.000000000000000e+00 0.000000000000000e+00 0.000000000000000e+00
0.000000000000000e+00 0.000000000000000e+00 0.000000000000000e+00

0.000000000000000e+00 0.000000000000000e+00 0.000000000000000e+00
0.000000000000000e+00 0.000000000000000e+00 0.000000000000000e+00
0.000000000000000e+00 0.000000000000000e+00 0.000000000000000e+00

0.000000000000000e+00 0.000000000000000e+00 0.000000000000000e+00
0.000000000000000e+00 0.000000000000000e+00 0.000000000000000e+00
0.000000000000000e+00 0.000000000000000e+00 0.000000000000000e+00

0.000000000000000e+00 0.000000000000000e+00 0.000000000000000e+00
0.000000000000000e+00 0.000000000000000e+00 0.000000000000000e+00
0.000000000000000e+00 0.000000000000000e+00 0.000000000000000e+00

0.000000000000000e+00 0.000000000000000e+00 0.000000000000000e+00
0.000000000000000e+00 0.000000000000000e+00 0.000000000000000e+00
0.000000000000000e+00 0.000000000000000e+00 0.000000000000000e+00

0.000000000000000e+00 0.000000000000000e+00 0.000000000000000e+00
0.000000000000000e+00 0.000000000000000e+00 0.000000000000000e+00
0.000000000000000e+00 0.000000000000000e+00 0.000000000000000e+00

0.000000000000000e+00 0.000000000000000e+00 0.000000000000000e+00
0.000000000000000e+00 0.000000000000000e+00 0.000000000000000e+00
0.000000000000000e+00 0.000000000000000e+00 0.000000000000000e+00

0.000000000000000e+00 0.000000000000000e+00 0.000000000000000e+00
0.000000000000000e+00 0.000000000000000e+00 0.000000000000000e+00
0.000000000000000e+00 0.000000000000000e+00 0.000000000000000e+00

0.000000000000000e+00 0.000000000000000e+00 0.000000000000000e+00
0.000000000000000e+00 0.000000000000000e+00 0.000000000000000e+00
0.000000000000000e+00 0.000000000000000e+00 0.000000000000000e+00

0.000000000000000e+00 0.000000000000000e+00 0.000000000000000e+00
0.000000000000000e+00 0.000000000000000e+00 0.000000000000000e+00
0.000000000000000e+00 0.000000000000000e+00 0.000000000000000e+00

0.000000000000000e+00 0.000000000000000e+00 0.000000000000000e+00
0.000000000000000e+00 0.000000000000000e+00 0.000000000000000e+00
0.000000000000000e+00 0.000000000000000e+00 0.000000000000000e+00

0.000000000000000e+00 0.000000000000000e+00 0.000000000000000e+00
0.000000000000000e+00 0.000000000000000e+00 0.000000000000000e+00
0.000000000000000e+00 0.000000000000000e+00 0.000000000000000e+00

0.000000000000000e+00 0.000000000000000e+00 0.000000000000000e+00
0.000000000000000e+00 0.000000000000000e+00 0.000000000000000e+00
0.000000000000000e+00 0.000000000000000e+00 0.000000000000000e+00

0.000000000000000e+00 0.000000000000000e+00 0.000000000000000e+00
0.000000000000000e+00 0.000000000000000e+00 0.000000000000000e+00
0.000000000000000e+00 0.000000000000000e+00 0.000000000000000e+00

0.000000000000000e+00 0.000000000000000e+00 0.000000000000000e+00
0.000000000000000e+00 0.000000000000000e+00 0.000000000000000e+00
0.000000000000000e+00 0.000000000000000e+00 0.000000000000000e+00

0.000000000000000e+00 0.000000000000000e+00 0.000000000000000e+00
0.000000000000000e+00 0.000000000000000e+00 0.000000000000000e+00
0.000000000000000e+00 0.000000000000000e+00 0.000000000000000e+00

0.000000000000000e+00 0.000000000000000e+00 0.000000000000000e+00
0.000000000000000e+00 0.000000000000000e+00 0.000000000000000e+00
0.000000000000000e+00 0.000000000000000e+00 0.000000000000000e+00

0.000000000000000e+00 0.000000000000000e+00 0.000000000000000e+00
0.000000000000000e+00 0.000000000000000e+00 0.000000000000000e+00
0.000000000000000e+00 0.000000000000000e+00 0.000000000000000e+00

0.000000000000000e+00 0.000000000000000e+00 0.000000000000000e+00
0.000000000000000e+00 0.000000000000000e+00 0.000000000000000e+00
0.000000000000000e+00 0.000000000000000e+00 0.000000000000000e+00

0.000000000000000e+00 0.000000000000000e+00 0.000000000000000e+00
0.000000000000000e+00 0.000000000000000e+00 0.000000000000000e+00
0.000000000000000e+00 0.000000000000000e+00 0.000000000000000e+00

0.000000000000000e+00 0.000000000000000e+00 0.000000000000000e+00
0.000000000000000e+00 0.000000000000000e+00 0.000000000000000e+00
0.000000000000000e+00 0.000000000000000e+00 0.000000000000000e+00

0.000000000000000e+00 0.000000000000000e+00 0.000000000000000e+00
0.000000000000000e+00 0.000000000000000e+00 0.000000000000000e+00
0.000000000000000e+00 0.000000000000000e+00 0.000000000000000e+00

0.000000000000000e+00 0.000000000000000e+00 0.000000000000000e+00
0.000000000000000e+00 0.000000000000000e+00 0.000000000000000e+00
0.000000000000000e+00 0.000000000000000e+00 0.000000000000000e+00

0.000000000000000e+00 0.000000000000000e+00 0.000000000000000e+00
0.000000000000000e+00 0.000000000000000e+00 0.000000000000000e+00
0.000000000000000e+00 0.000000000000000e+00 0.000000000000000e+00

0.000000000000000e+00 0.000000000000000e+00 0.000000000000000e+00
0.000000000000000e+00 0.000000000000000e+00 0.000000000000000e+00
0.000000000000000e+00 0.000000000000000e+00 0.000000000000000e+00

0.000000000000000e+00 0.000000000000000e+00 0.000000000000000e+00
0.000000000000000e+00 0.000000000000000e+00 0.000000000000000e+00
0.000000000000000e+00 0.000000000000000e+00 0.000000000000000e+00

0.000000000000000e+00 0.000000000000000e+00 0.000000000000000e+00
0.000000000000000e+00 0.000000000000000e+00 0.000000000000000e+00
0.000000000000000e+00 0.000000000000000e+00 0.000000000000000e+00

0.000000000000000e+00 0.000000000000000e+00 0.000000000000000e+00
0.000000000000000e+00 0.000000000000000e+00 0.000000000000000e+00
0.000000000000000e+00 0.000000000000000e+00 0.000000000000000e+00

0.000000000000000e+00 0.000000000000000e+00 0.000000000000000e+00
0.000000000000000e+00 0.000000000000000e+00 0.000000000000000e+00
0.000000000000000e+00 0.000000000000000e+00 0.000000000000000e+00

0.000000000000000e+00 0.000000000000000e+00 0.000000000000000e+00
0.000000000000000e+00 0.000000000000000e+00 0.000000000000000e+00
0.000000000000000e+00 0.000000000000000e+00 0.000000000000000e+00

0.000000000000000e+00 0.000000000000000e+00 0.000000000000000e+00
0.000000000000000e+00 0.000000000000000e+00 0.000000000000000e+00
0.000000000000000e+00 0.000000000000000e+00 0.000000000000000e+00

0.000000000000000e+00 0.000000000000000e+00 0.000000000000000e+00
0.000000000000000e+00 0.000000000000000e+00 0.000000000000000e+00
0.000000000000000e+00 0.000000000000000e+00 0.000000000000000e+00

0.000000000000000e+00 0.000000000000000e+00 0.000000000000000e+00
0.000000000000000e+00 0.000000000000000e+00 0.000000000000000e+00
0.000000000000000e+00 0.000000000000000e+00 0.000000000000000e+00

0.000000000000000e+00 0.000000000000000e+00 0.000000000000000e+00
0.000000000000000e+00 0.000000000000000e+00 0.000000000000000e+00
0.000000000000000e+00 0.000000000000000e+00 0.000000000000000e+00

0.000000000000000e+00 0.000000000000000e+00 0.000000000000000e+00
0.000000000000000e+00 0.000000000000000e+00 0.000000000000000e+00
0.000000000000000e+00 0.000000000000000e+00 0.000000000000000e+00

0.000000000000000e+00 0.000000000000000e+00 0.000000000000000e+00
0.000000000000000e+00 0.000000000000000e+00 0.000000000000000e+00
0.000000000000000e+00 0.000000000000000e+00 0.000000000000000e+00

0.000000000000000e+00 0.000000000000000e+00 0.000000000000000e+00
0.000000000000000e+00 0.000000000000000e+00 0.000000000000000e+00
0.000000000000000e+00 0.000000000000000e+00 0.000000000000000e+00

0.000000000000000e+00 0.000000000000000e+00 0.000000000000000e+00
0.000000000000000e+00 0.000000000000000e+00 0.000000000000000e+00
0.000000000000000e+00 0.000000000000000e+00 0.000000000000000e+00

0.000000000000000e+00 0.000000000000000e+00 0.000000000000000e+00
0.000000000000000e+00 0.000000000000000e+00 0.000000000000000e+00
0.000000000000000e+00 0.000000000000000e+00 0.000000000000000e+00

0.000000000000000e+00 0.000000000000000e+00 0.000000000000000e+00
0.000000000000000e+00 0.000000000000000e+00 0.000000000000000e+00
0.000000000000000e+00 0.000000000000000e+00 0.000000000000000e+00

0.000000000000000e+00 0.000000000000000e+00 0.000000000000000e+00
0.000000000000000e+00 0.000000000000000e+00 0.000000000000000e+00
0.000000000000000e+00 0.000000000000000e+00 0.000000000000000e+00

0.000000000000000e+00 0.000000000000000e+00 0.000000000000000e+00
0.000000000000000e+00 0.000000000000000e+00 0.000000000000000e+00
0.000000000000000e+00 0.000000000000000e+00 0.000000000000000e+00

0.000000000000000e+00 0.000000000000000e+00 0.000000000000000e+00
0.000000000000000e+00 0.000000000000000e+00 0.000000000000000e+00
0.000000000000000e+00 0.000000000000000e+00 0.000000000000000e+00

0.000000000000000e+00 0.000000000000000e+00 0.000000000000000e+00
0.000000000000000e+00 0.000000000000000e+00 0.000000000000000e+00
0.000000000000000e+00 0.000000000000000e+00 0.000000000000000e+00

0.000000000000000e+00 0.000000000000000e+00 0.000000000000000e+00
0.000000000000000e+00 0.000000000000000e+00 0.000000000000000e+00
0.000000000000000e+00 0.000000000000000e+00 0.000000000000000e+00

0.000000000000000e+00 0.000000000000000e+00 0.000000000000000e+00
0.000000000000000e+00 0.000000000000000e+00 0.000000000000000e+00
0.000000000000000e+00 0.000000000000000e+00 0.000000000000000e+00

0.000000000000000e+00 0.000000000000000e+00 0.000000000000000e+00
0.000000000000000e+00 0.000000000000000e+00 0.000000000000000e+00
0.000000000000000e+00 0.000000000000000e+00 0.000000000000000e+00

0.000000000000000e+00 0.000000000000000e+00 0.000000000000000e+00
0.000000000000000e+00 0.000000000000000e+00 0.000000000000000e+00
0.000000000000000e+00 0.000000000000000e+00 0.000000000000000e+00

0.000000000000000e+00 0.000000000000000e+00 0.000000000000000e+00
0.000000000000000e+00 0.000000000000000e+00 0.000000000000000e+00
0.000000000000000e+00 0.000000000000000e+00 0.000000000000000e+00

0.000000000000000e+00 0.000000000000000e+00 0.000000000000000e+00
0.000000000000000e+00 0.000000000000000e+00 0.000000000000000e+00
0.000000000000000e+00 0.000000000000000e+00 0.000000000000000e+00

0.000000000000000e+00 0.000000000000000e+00 0.000000000000000e+00
0.000000000000000e+00 0.000000000000000e+00 0.000000000000000e+00
0.000000000000000e+00 0.000000000000000e+00 0.000000000000000e+00

0.000000000000000e+00 0.000000000000000e+00 0.000000000000000e+00
0.000000000000000e+00 0.000000000000000e+00 0.000000000000000e+00
0.000000000000000e+00 0.000000000000000e+00 0.000000000000000e+00

0.000000000000000e+00 0.000000000000000e+00 0.000000000000000e+00
0.000000000000000e+00 0.000000000000000e+00 0.000000000000000e+00
0.000000000000000e+00 0.000000000000000e+00 0.000000000000000e+00

0.000000000000000e+00 0.000000000000000e+00 0.000000000000000e+00
0.000000000000000e+00 0.000000000000000e+00 0.000000000000000e+00
0.000000000000000e+00 0.000000000000000e+00 0.000000000000000e+00

0.000000000000000e+00 0.000000000000000e+00 0.000000000000000e+00
0.000000000000000e+00 0.000000000000000e+00 0.000000000000000e+00
0.000000000000000e+00 0.000000000000000e+00 0.000000000000000e+00

0.000000000000000e+00 0.000000000000000e+00 0.000000000000000e+00
0.000000000000000e+00 0.000000000000000e+00 0.000000000000000e+00
0.000000000000000e+00 0.000000000000000e+00 0.000000000000000e+00

0.000000000000000e+00 0.000000000000000e+00 0.000000000000000e+00
0.000000000000000e+00 0.000000000000000e+00 0.000000000000000e+00
0.000000000000000e+00 0.000000000000000e+00 0.000000000000000e+00

0.000000000000000e+00 0.000000000000000e+00 0.000000000000000e+00
0.000000000000000e+00 0.000000000000000e+00 0.000000000000000e+00
0.000000000000000e+00 0.000000000000000e+00 0.000000000000000e+00

0.000000000000000e+00 0.000000000000000e+00 0.000000000000000e+00
0.000000000000000e+00 0.000000000000000e+00 0.000000000000000e+00
0.000000000000000e+00 0.000000000000000e+00 0.000000000000000e+00

0.000000000000000e+00 0.000000000000000e+00 0.000000000000000e+00
0.000000000000000e+00 0.000000000000000e+00 0.000000000000000e+00
0.000000000000000e+00 0.000000000000000e+00 0.000000000000000e+00

0.000000000000000e+00 0.000000000000000e+00 0.000000000000000e+00
0.000000000000000e+00 0.000000000000000e+00 0.000000000000000e+00
0.000000000000000e+00 0.000000000000000e+00 0.000000000000000e+00

0.000000000000000e+00 0.000000000000000e+00 0.000000000000000e+00
0.000000000000000e+00 0.000000000000000e+00 0.000000000000000e+00
0.000000000000000e+00 0.000000000000000e+00 0.000000000000000e+00

0.000000000000000e+00 0.000000000000000e+00 0.000000000000000e+00
0.000000000000000e+00 0.000000000000000e+00 0.000000000000000e+00
0.000000000000000e+00 0.000000000000000e+00 0.000000000000000e+00

0.000000000000000e+00 0.000000000000000e+00 0.000000000000000e+00
0.000000000000000e+00 0.000000000000000e+00 0.000000000000000e+00
0.000000000000000e+00 0.000000000000000e+00 0.000000000000000e+00

0.000000000000000e+00 0.000000000000000e+00 0.000000000000000e+00
0.000000000000000e+00 0.000000000000000e+00 0.000000000000000e+00
0.000000000000000e+00 0.000000000000000e+00 0.000000000000000e+00

0.000000000000000e+00 0.000000000000000e+00 0.000000000000000e+00
0.000000000000000e+00 0.000000000000000e+00 0.000000000000000e+00
0.000000000000000e+00 0.000000000000000e+00 0.000000000000000e+00

0.000000000000000e+00 0.000000000000000e+00 0.000000000000000e+00
0.000000000000000e+00 0.000000000000000e+00 0.000000000000000e+00
0.000000000000000e+00 0.000000000000000e+00 0.000000000000000e+00

0.000000000000000e+00 0.000000000000000e+00 0.000000000000000e+00
0.000000000000000e+00 0.000000000000000e+00 0.000000000000000e+00
0.000000000000000e+00 0.000000000000000e+00 0.000000000000000e+00

0.000000000000000e+00 0.000000000000000e+00 0.000000000000000e+00
0.000000000000000e+00 0.000000000000000e+00 0.000000000000000e+00
0.000000000000000e+00 0.000000000000000e+00 0.000000000000000e+00

0.000000000000000e+00 0.000000000000000e+00 0.000000000000000e+00
0.000000000000000e+00 0.000000000000000e+00 0.000000000000000e+00
0.000000000000000e+00 0.000000000000000e+00 0.000000000000000e+00

0.000000000000000e+00 0.000000000000000e+00 0.000000000000000e+00
0.000000000000000e+00 0.000000000000000e+00 0.000000000000000e+00
0.000000000000000e+00 0.000000000000000e+00 0.000000000000000e+00

0.000000000000000e+00 0.000000000000000e+00 0.000000000000000e+00
0.000000000000000e+00 0.000000000000000e+00 0.000000000000000e+00
0.000000000000000e+00 0.000000000000000e+00 0.000000000000000e+00

0.000000000000000e+00 0.000000000000000e+00 0.000000000000000e+00
0.000000000000000e+00 0.000000000000000e+00 0.000000000000000e+00
0.000000000000000e+00 0.000000000000000e+00 0.000000000000000e+00

0.000000000000000e+00 0.000000000000000e+00 0.000000000000000e+00
0.000000000000000e+00 0.000000000000000e+00 0.000000000000000e+00
0.000000000000000e+00 0.000000000000000e+00 0.000000000000000e+00

0.000000000000000e+00 0.000000000000000e+00 0.000000000000000e+00
0.000000000000000e+00 0.000000000000000e+00 0.000000000000000e+00
0.000000000000000e+00 0.000000000000000e+00 0.000000000000000e+00

0.000000000000000e+00 0.000000000000000e+00 0.000000000000000e+00
0.000000000000000e+00 0.000000000000000e+00 0.000000000000000e+00
0.000000000000000e+00 0.000000000000000e+00 0.000000000000000e+00

0.000000000000000e+00 0.000000000000000e+00 0.000000000000000e+00
0.000000000000000e+00 0.000000000000000e+00 0.000000000000000e+00
0.000000000000000e+00 0.000000000000000e+00 0.000000000000000e+00

0.000000000000000e+00 0.000000000000000e+00 0.000000000000000e+00
0.000000000000000e+00 0.000000000000000e+00 0.000000000000000e+00
0.000000000000000e+00 0.000000000000000e+00 0.000000000000000e+00

0.000000000000000e+00 0.000000000000000e+00 0.000000000000000e+00
0.000000000000000e+00 0.000000000000000e+00 0.000000000000000e+00
0.000000000000000e+00 0.000000000000000e+00 0.000000000000000e+00

0.000000000000000e+00 0.000000000000000e+00 0.000000000000000e+00
0.000000000000000e+00 0.000000000000000e+00 0.000000000000000e+00
0.000000000000000e+00 0.000000000000000e+00 0.000000000000000e+00

0.000000000000000e+00 0.000000000000000e+00 0.000000000000000e+00
0.000000000000000e+00 0.000000000000000e+00 0.000000000000000e+00
0.000000000000000e+00 0.000000000000000e+00 0.000000000000000e+00

0.000000000000000e+00 0.000000000000000e+00 0.000000000000000e+00
0.000000000000000e+00 0.000000000000000e+00 0.000000000000000e+00
0.000000000000000e+00 0.000000000000000e+00 0.000000000000000e+00

0.000000000000000e+00 0.000000000000000e+00 0.000000000000000e+00
0.000000000000000e+00 0.000000000000000e+00 0.000000000000000e+00
0.000000000000000e+00 0.000000000000000e+00 0.000000000000000e+00

0.000000000000000e+00 0.000000000000000e+00 0.000000000000000e+00
0.000000000000000e+00 0.000000000000000e+00 0.000000000000000e+00
0.000000000000000e+00 0.000000000000000e+00 0.000000000000000e+00

0.000000000000000e+00 0.000000000000000e+00 0.000000000000000e+00
0.000000000000000e+00 0.000000000000000e+00 0.000000000000000e+00
0.000000000000000e+00 0.000000000000000e+00 0.000000000000000e+00

0.000000000000000e+00 0.000000000000000e+00 0.000000000000000e+00
0.000000000000000e+00 0.000000000000000e+00 0.000000000000000e+00
0.000000000000000e+00 0.000000000000000e+00 0.000000000000000e+00

0.000000000000000e+00 0.000000000000000e+00 0.000000000000000e+00
0.000000000000000e+00 0.000000000000000e+00 0.000000000000000e+00
0.000000000000000e+00 0.000000000000000e+00 0.000000000000000e+00

0.000000000000000e+00 0.000000000000000e+00 0.000000000000000e+00
0.000000000000000e+00 0.000000000000000e+00 0.000000000000000e+00
0.000000000000000e+00 0.000000000000000e+00 0.000000000000000e+00

0.000000000000000e+00 0.000000000000000e+00 0.000000000000000e+00
0.000000000000000e+00 0.000000000000000e+00 0.000000000000000e+00
0.000000000000000e+00 0.000000000000000e+00 0.000000000000000e+00

0.000000000000000e+00 0.000000000000000e+00 0.000000000000000e+00
0.000000000000000e+00 0.000000000000000e+00 0.000000000000000e+00
0.000000000000000e+00 0.000000000000000e+00 0.000000000000000e+00

0.000000000000000e+00 0.000000000000000e+00 0.000000000000000e+00
0.000000000000000e+00 0.000000000000000e+00 0.000000000000000e+00
0.000000000000000e+00 0.000000000000000e+00 0.000000000000000e+00

0.000000000000000e+00 0.000000000000000e+00 0.000000000000000e+00
0.000000000000000e+00 0.000000000000000e+00 0.000000000000000e+00
0.000000000000000e+00 0.000000000000000e+00 0.000000000000000e+00

0.000000000000000e+00 0.000000000000000e+00 0.000000000000000e+00
0.000000000000000e+00 0.000000000000000e+00 0.000000000000000e+00
0.000000000000000e+00 0.000000000000000e+00 0.000000000000000e+00

0.000000000000000e+00 0.000000000000000e+00 0.000000000000000e+00
0.000000000000000e+00 0.000000000000000e+00 0.000000000000000e+00
0.000000000000000e+00 0.000000000000000e+00 0.000000000000000e+00

0.000000000000000e+00 0.000000000000000e+00 0.000000000000000e+00
0.000000000000000e+00 0.000000000000000e+00 0.000000000000000e+00
0.000000000000000e+00 0.000000000000000e+00 0.000000000000000e+00

0.000000000000000e+00 0.000000000000000e+00 0.000000000000000e+00
0.000000000000000e+00 0.000000000000000e+00 0.000000000000000e+00
0.000000000000000e+00 0.000000000000000e+00 0.000000000000000e+00

0.000000000000000e+00 0.000000000000000e+00 0.000000000000000e+00
0.000000000000000e+00 0.000000000000000e+00 0.000000000000000e+00
0.000000000000000e+00 0.000000000000000e+00 0.000000000000000e+00

0.000000000000000e+00 0.000000000000000e+00 0.000000000000000e+00
0.000000000000000e+00 0.000000000000000e+00 0.000000000000000e+00
0.000000000000000e+00 0.000000000000000e+00 0.000000000000000e+00

0.000000000000000e+00 0.000000000000000e+00 0.000000000000000e+00
0.000000000000000e+00 0.000000000000000e+00 0.000000000000000e+00
0.000000000000000e+00 0.000000000000000e+00 0.000000000000000e+00

0.000000000000000e+00 0.000000000000000e+00 0.000000000000000e+00
0.000000000000000e+00 0.000000000000000e+00 0.000000000000000e+00
0.000000000000000e+00 0.000000000000000e+00 0.000000000000000e+00

0.000000000000000e+00 0.000000000000000e+00 0.000000000000000e+00
0.000000000000000e+00 0.000000000000000e+00 0.000000000000000e+00
0.000000000000000e+00 0.000000000000000e+00 0.000000000000000e+00

0.000000000000000e+00 0.000000000000000e+00 0.000000000000000e+00
0.000000000000000e+00 0.000000000000000e+00 0.000000000000000e+00
0.000000000000000e+00 0.000000000000000e+00 0.000000000000000e+00

0.000000000000000e+00 0.000000000000000e+00 0.000000000000000e+00
0.000000000000000e+00 0.000000000000000e+00 0.000000000000000e+00
0.000000000000000e+00 0.000000000000000e+00 0.000000000000000e+00

0.000000000000000e+00 0.000000000000000e+00 0.000000000000000e+00
0.000000000000000e+00 0.000000000000000e+00 0.000000000000000e+00
0.000000000000000e+00 0.000000000000000e+00 0.000000000000000e+00

0.000000000000000e+00 0.000000000000000e+00 0.000000000000000e+00
0.000000000000000e+00 0.000000000000000e+00 0.000000000000000e+00
0.000000000000000e+00 0.000000000000000e+00 0.000000000000000e+00

0.000000000000000e+00 0.000000000000000e+00 0.000000000000000e+00
0.000000000000000e+00 0.000000000000000e+00 0.000000000000000e+00
0.000000000000000e+00 0.000000000000000e+00 0.000000000000000e+00

0.000000000000000e+00 0.000000000000000e+00 0.000000000000000e+00
0.000000000000000e+00 0.000000000000000e+00 0.000000000000000e+00
0.000000000000000e+00 0.000000000000000e+00 0.000000000000000e+00

0.000000000000000e+00 0.000000000000000e+00 0.000000000000000e+00
0.000000000000000e+00 0.000000000000000e+00 0.000000000000000e+00
0.000000000000000e+00 0.000000000000000e+00 0.000000000000000e+00

0.000000000000000e+00 0.000000000000000e+00 0.000000000000000e+00
0.000000000000000e+00 0.000000000000000e+00 0.000000000000000e+00
0.000000000000000e+00 0.000000000000000e+00 0.000000000000000e+00

0.000000000000000e+00 0.000000000000000e+00 0.000000000000000e+00
0.000000000000000e+00 0.000000000000000e+00 0.000000000000000e+00
0.000000000000000e+00 0.000000000000000e+00 0.000000000000000e+00

0.000000000000000e+00 0.000000000000000e+00 0.000000000000000e+00
0.000000000000000e+00 0.000000000000000e+00 0.000000000000000e+00
0.000000000000000e+00 0.000000000000000e+00 0.000000000000000e+00

0.000000000000000e+00 0.000000000000000e+00 0.000000000000000e+00
0.000000000000000e+00 0.000000000000000e+00 0.000000000000000e+00
0.000000000000000e+00 0.000000000000000e+00 0.000000000000000e+00

0.000000000000000e+00 0.000000000000000e+00 0.000000000000000e+00
0.000000000000000e+00 0.000000000000000e+00 0.000000000000000e+00
0.000000000000000e+00 0.000000000000000e+00 0.000000000000000e+00

0.000000000000000e+00 0.000000000000000e+00 0.000000000000000e+00
0.000000000000000e+00 0.000000000000000e+00 0.000000000000000e+00
0.000000000000000e+00 0.000000000000000e+00 0.000000000000000e+00

0.000000000000000e+00 0.000000000000000e+00 0.000000000000000e+00
0.000000000000000e+00 0.000000000000000e+00 0.000000000000000e+00
0.000000000000000e+00 0.000000000000000e+00 0.000000000000000e+00

0.000000000000000e+00 0.000000000000000e+00 0.000000000000000e+00
0.000000000000000e+00 0.000000000000000e+00 0.000000000000000e+00
0.000000000000000e+00 0.000000000000000e+00 0.000000000000000e+00

0.000000000000000e+00 0.000000000000000e+00 0.000000000000000e+00
0.000000000000000e+00 0.000000000000000e+00 0.000000000000000e+00
0.000000000000000e+00 0.000000000000000e+00 0.000000000000000e+00

0.000000000000000e+00 0.000000000000000e+00 0.000000000000000e+00
0.000000000000000e+00 0.000000000000000e+00 0.000000000000000e+00
0.000000000000000e+00 0.000000000000000e+00 0.000000000000000e+00

0.000000000000000e+00 0.000000000000000e+00 0.000000000000000e+00
0.000000000000000e+00 0.000000000000000e+00 0.000000000000000e+00
0.000000000000000e+00 0.000000000000000e+00 0.000000000000000e+00

0.000000000000000e+00 0.000000000000000e+00 0.000000000000000e+00
0.000000000000000e+00 0.000000000000000e+00 0.000000000000000e+00
0.000000000000000e+00 0.000000000000000e+00 0.000000000000000e+00

0.000000000000000e+00 0.000000000000000e+00 0.000000000000000e+00
0.000000000000000e+00 0.000000000000000e+00 0.000000000000000e+00
0.000000000000000e+00 0.000000000000000e+00 0.000000000000000e+00

0.000000000000000e+00 0.000000000000000e+00 0.000000000000000e+00
0.000000000000000e+00 0.000000000000000e+00 0.000000000000000e+00
0.000000000000000e+00 0.000000000000000e+00 0.000000000000000e+00

0.000000000000000e+00 0.000000000000000e+00 0.000000000000000e+00
0.000000000000000e+00 0.000000000000000e+00 0.000000000000000e+00
0.000000000000000e+00 0.000000000000000e+00 0.000000000000000e+00

0.000000000000000e+00 0.000000000000000e+00 0.000000000000000e+00
0.000000000000000e+00 0.000000000000000e+00 0.000000000000000e+00
0.000000000000000e+00 0.000000000000000e+00 0.000000000000000e+00

0.000000000000000e+00 0.000000000000000e+00 0.000000000000000e+00
0.000000000000000e+00 0.000000000000000e+00 0.000000000000000e+00
0.000000000000000e+00 0.000000000000000e+00 0.000000000000000e+00

0.000000000000000e+00 0.000000000000000e+00 0.000000000000000e+00
0.000000000000000e+00 0.000000000000000e+00 0.000000000000000e+00
0.000000000000000e+00 0.000000000000000e+00 0.000000000000000e+00

0.000000000000000e+00 0.000000000000000e+00 0.000000000000000e+00
0.000000000000000e+00 0.000000000000000e+00 0.000000000000000e+00
0.000000000000000e+00 0.000000000000000e+00 0.000000000000000e+00

0.000000000000000e+00 0.000000000000000e+00 0.000000000000000e+00
0.000000000000000e+00 0.000000000000000e+00 0.000000000000000e+00
0.000000000000000e+00 0.000000000000000e+00 0.000000000000000e+00

0.000000000000000e+00 0.000000000000000e+00 0.000000000000000e+00
0.000000000000000e+00 0.000000000000000e+00 0.000000000000000e+00
0.000000000000000e+00 0.000000000000000e+00 0.000000000000000e+00

0.000000000000000e+00 0.000000000000000e+00 0.000000000000000e+00
0.000000000000000e+00 0.000000000000000e+00 0.000000000000000e+00
0.000000000000000e+00 0.000000000000000e+00 0.000000000000000e+00

0.000000000000000e+00 0.000000000000000e+00 0.000000000000000e+00
0.000000000000000e+00 0.000000000000000e+00 0.000000000000000e+00
0.000000000000000e+00 0.000000000000000e+00 0.000000000000000e+00

0.000000000000000e+00 0.000000000000000e+00 0.000000000000000e+00
0.000000000000000e+00 0.000000000000000e+00 0.000000000000000e+00
0.000000000000000e+00 0.000000000000000e+00 0.000000000000000e+00

0.000000000000000e+00 0.000000000000000e+00 0.000000000000000e+00
0.000000000000000e+00 0.000000000000000e+00 0.000000000000000e+00
0.000000000000000e+00 0.000000000000000e+00 0.000000000000000e+00

0.000000000000000e+00 0.000000000000000e+00 0.000000000000000e+00
0.000000000000000e+00 0.000000000000000e+00 0.000000000000000e+00
0.000000000000000e+00 0.000000000000000e+00 0.000000000000000e+00

0.000000000000000e+00 0.000000000000000e+00 0.000000000000000e+00
0.000000000000000e+00 0.000000000000000e+00 0.000000000000000e+00
0.000000000000000e+00 0.000000000000000e+00 0.000000000000000e+00

0.000000000000000e+00 0.000000000000000e+00 0.000000000000000e+00
0.000000000000000e+00 0.000000000000000e+00 0.000000000000000e+00
0.000000000000000e+00 0.000000000000000e+00 0.000000000000000e+00

0.000000000000000e+00 0.000000000000000e+00 0.000000000000000e+00
0.000000000000000e+00 0.000000000000000e+00 0.000000000000000e+00
0.000000000000000e+00 0.000000000000000e+00 0.000000000000000e+00

0.000000000000000e+00 0.000000000000000e+00 0.000000000000000e+00
0.000000000000000e+00 0.000000000000000e+00 0.000000000000000e+00
0.000000000000000e+00 0.000000000000000e+00 0.000000000000000e+00

0.000000000000000e+00 0.000000000000000e+00 0.000000000000000e+00
0.000000000000000e+00 0.000000000000000e+00 0.000000000000000e+00
0.000000000000000e+00 0.000000000000000e+00 0.000000000000000e+00

0.000000000000000e+00 0.000000000000000e+00 0.000000000000000e+00
0.000000000000000e+00 0.000000000000000e+00 0.000000000000000e+00
0.000000000000000e+00 0.000000000000000e+00 0.000000000000000e+00

0.000000000000000e+00 0.000000000000000e+00 0.000000000000000e+00
0.000000000000000e+00 0.000000000000000e+00 0.000000000000000e+00
0.000000000000000e+00 0.000000000000000e+00 0.000000000000000e+00

0.000000000000000e+00 0.000000000000000e+00 0.000000000000000e+00
0.000000000000000e+00 0.000000000000000e+00 0.000000000000000e+00
0.000000000000000e+00 0.000000000000000e+00 0.000000000000000e+00

0.000000000000000e+00 0.000000000000000e+00 0.000000000000000e+00
0.000000000000000e+00 0.000000000000000e+00 0.000000000000000e+00
0.000000000000000e+00 0.000000000000000e+00 0.000000000000000e+00

0.000000000000000e+00 0.000000000000000e+00 0.000000000000000e+00
0.000000000000000e+00 0.000000000000000e+00 0.000000000000000e+00
0.000000000000000e+00 0.000000000000000e+00 0.000000000000000e+00

0.000000000000000e+00 0.000000000000000e+00 0.000000000000000e+00
0.000000000000000e+00 0.000000000000000e+00 0.000000000000000e+00
0.000000000000000e+00 0.000000000000000e+00 0.000000000000000e+00

0.000000000000000e+00 0.000000000000000e+00 0.000000000000000e+00
0.000000000000000e+00 0.000000000000000e+00 0.000000000000000e+00
0.000000000000000e+00 0.000000000000000e+00 0.000000000000000e+00

0.000000000000000e+00 0.000000000000000e+00 0.000000000000000e+00
0.000000000000000e+00 0.000000000000000e+00 0.000000000000000e+00
0.000000000000000e+00 0.000000000000000e+00 0.000000000000000e+00

0.000000000000000e+00 0.000000000000000e+00 0.000000000000000e+00
0.000000000000000e+00 0.000000000000000e+00 0.000000000000000e+00
0.000000000000000e+00 0.000000000000000e+00 0.000000000000000e+00

0.000000000000000e+00 0.000000000000000e+00 0.000000000000000e+00
0.000000000000000e+00 0.000000000000000e+00 0.000000000000000e+00
0.000000000000000e+00 0.000000000000000e+00 0.000000000000000e+00

0.000000000000000e+00 0.000000000000000e+00 0.000000000000000e+00
0.000000000000000e+00 0.000000000000000e+00 0.000000000000000e+00
0.000000000000000e+00 0.000000000000000e+00 0.000000000000000e+00

0.000000000000000e+00 0.000000000000000e+00 0.000000000000000e+00
0.000000000000000e+00 0.000000000000000e+00 0.000000000000000e+00
0.000000000000000e+00 0.000000000000000e+00 0.000000000000000e+00

0.000000000000000e+00 0.000000000000000e+00 0.000000000000000e+00
0.000000000000000e+00 0.000000000000000e+00 0.000000000000000e+00
0.000000000000000e+00 0.000000000000000e+00 0.000000000000000e+00

0.000000000000000e+00 0.000000000000000e+00 0.000000000000000e+00
0.000000000000000e+00 0.000000000000000e+00 0.000000000000000e+00
0.000000000000000e+00 0.000000000000000e+00 0.000000000000000e+00

0.000000000000000e+00 0.000000000000000e+00 0.000000000000000e+00
0.000000000000000e+00 0.000000000000000e+00 0.000000000000000e+00
0.000000000000000e+00 0.000000000000000e+00 0.000000000000000e+00

0.000000000000000e+00 0.000000000000000e+00 0.000000000000000e+00
0.000000000000000e+00 0.000000000000000e+00 0.000000000000000e+00
0.000000000000000e+00 0.000000000000000e+00 0.000000000000000e+00

0.000000000000000e+00 0.000000000000000e+00 0.000000000000000e+00
0.000000000000000e+00 0.000000000000000e+00 0.000000000000000e+00
0.000000000000000e+00 0.000000000000000e+00 0.000000000000000e+00

0.000000000000000e+00 0.000000000000000e+00 0.000000000000000e+00
0.000000000000000e+00 0.000000000000000e+00 0.000000000000000e+00
0.000000000000000e+00 0.000000000000000e+00 0.000000000000000e+00

0.000000000000000e+00 0.000000000000000e+00 0.000000000000000e+00
0.000000000000000e+00 0.000000000000000e+00 0.000000000000000e+00
0.000000000000000e+00 0.000000000000000e+00 0.000000000000000e+00

0.000000000000000e+00 0.000000000000000e+00 0.000000000000000e+00
0.000000000000000e+00 0.000000000000000e+00 0.000000000000000e+00
0.000000000000000e+00 0.000000000000000e+00 0.000000000000000e+00

0.000000000000000e+00 0.000000000000000e+00 0.000000000000000e+00
0.000000000000000e+00 0.000000000000000e+00 0.000000000000000e+00
0.000000000000000e+00 0.000000000000000e+00 0.000000000000000e+00

0.000000000000000e+00 0.000000000000000e+00 0.000000000000000e+00
0.000000000000000e+00 0.000000000000000e+00 0.000000000000000e+00
0.000000000000000e+00 0.000000000000000e+00 0.000000000000000e+00

0.000000000000000e+00 0.000000000000000e+00 0.000000000000000e+00
0.000000000000000e+00 0.000000000000000e+00 0.000000000000000e+00
0.000000000000000e+00 0.000000000000000e+00 0.000000000000000e+00

0.000000000000000e+00 0.000000000000000e+00 0.000000000000000e+00
0.000000000000000e+00 0.000000000000000e+00 0.000000000000000e+00
0.000000000000000e+00 0.000000000000000e+00 0.000000000000000e+00

0.000000000000000e+00 0.000000000000000e+00 0.000000000000000e+00
0.000000000000000e+00 0.000000000000000e+00 0.000000000000000e+00
0.000000000000000e+00 0.000000000000000e+00 0.000000000000000e+00

0.000000000000000e+00 0.000000000000000e+00 0.000000000000000e+00
0.000000000000000e+00 0.000000000000000e+00 0.000000000000000e+00
0.000000000000000e+00 0.000000000000000e+00 0.000000000000000e+00

0.000000000000000e+00 0.000000000000000e+00 0.000000000000000e+00
0.000000000000000e+00 0.000000000000000e+00 0.000000000000000e+00
0.000000000000000e+00 0.000000000000000e+00 0.000000000000000e+00

0.000000000000000e+00 0.000000000000000e+00 0.000000000000000e+00
0.000000000000000e+00 0.000000000000000e+00 0.000000000000000e+00
0.000000000000000e+00 0.000000000000000e+00 0.000000000000000e+00

0.000000000000000e+00 0.000000000000000e+00 0.000000000000000e+00
0.000000000000000e+00 0.000000000000000e+00 0.000000000000000e+00
0.000000000000000e+00 0.000000000000000e+00 0.000000000000000e+00

0.000000000000000e+00 0.000000000000000e+00 0.000000000000000e+00
0.000000000000000e+00 0.000000000000000e+00 0.000000000000000e+00
0.000000000000000e+00 0.000000000000000e+00 0.000000000000000e+00

0.000000000000000e+00 0.000000000000000e+00 0.000000000000000e+00
0.000000000000000e+00 0.000000000000000e+00 0.000000000000000e+00
0.000000000000000e+00 0.000000000000000e+00 0.000000000000000e+00

0.000000000000000e+00 0.000000000000000e+00 0.000000000000000e+00
0.000000000000000e+00 0.000000000000000e+00 0.000000000000000e+00
0.000000000000000e+00 0.000000000000000e+00 0.000000000000000e+00

0.000000000000000e+00 0.000000000000000e+00 0.000000000000000e+00
0.000000000000000e+00 0.000000000000000e+00 0.000000000000000e+00
0.000000000000000e+00 0.000000000000000e+00 0.000000000000000e+00

0.000000000000000e+00 0.000000000000000e+00 0.000000000000000e+00
0.000000000000000e+00 0.000000000000000e+00 0.000000000000000e+00
0.000000000000000e+00 0.000000000000000e+00 0.000000000000000e+00

0.000000000000000e+00 0.000000000000000e+00 0.000000000000000e+00
0.000000000000000e+00 0.000000000000000e+00 0.000000000000000e+00
0.000000000000000e+00 0.000000000000000e+00 0.000000000000000e+00

0.000000000000000e+00 0.000000000000000e+00 0.000000000000000e+00
0.000000000000000e+00 0.000000000000000e+00 0.000000000000000e+00
0.000000000000000e+00 0.000000000000000e+00 0.000000000000000e+00

0.000000000000000e+00 0.000000000000000e+00 0.000000000000000e+00
0.000000000000000e+00 0.000000000000000e+00 0.000000000000000e+00
0.000000000000000e+00 0.000000000000000e+00 0.000000000000000e+00

0.000000000000000e+00 0.000000000000000e+00 0.000000000000000e+00
0.000000000000000e+00 0.000000000000000e+00 0.000000000000000e+00
0.000000000000000e+00 0.000000000000000e+00 0.000000000000000e+00

0.000000000000000e+00 0.000000000000000e+00 0.000000000000000e+00
0.000000000000000e+00 0.000000000000000e+00 0.000000000000000e+00
0.000000000000000e+00 0.000000000000000e+00 0.000000000000000e+00

0.000000000000000e+00 0.000000000000000e+00 0.000000000000000e+00
0.000000000000000e+00 0.000000000000000e+00 0.000000000000000e+00
0.000000000000000e+00 0.000000000000000e+00 0.000000000000000e+00

0.000000000000000e+00 0.000000000000000e+00 0.000000000000000e+00
0.000000000000000e+00 0.000000000000000e+00 0.000000000000000e+00
0.000000000000000e+00 0.000000000000000e+00 0.000000000000000e+00

0.000000000000000e+00 0.000000000000000e+00 0.000000000000000e+00
0.000000000000000e+00 0.000000000000000e+00 0.000000000000000e+00
0.000000000000000e+00 0.000000000000000e+00 0.000000000000000e+00

0.000000000000000e+00 0.000000000000000e+00 0.000000000000000e+00
0.000000000000000e+00 0.000000000000000e+00 0.000000000000000e+00
0.000000000000000e+00 0.000000000000000e+00 0.000000000000000e+00

0.000000000000000e+00 0.000000000000000e+00 0.000000000000000e+00
0.000000000000000e+00 0.000000000000000e+00 0.000000000000000e+00
0.000000000000000e+00 0.000000000000000e+00 0.000000000000000e+00

0.000000000000000e+00 0.000000000000000e+00 0.000000000000000e+00
0.000000000000000e+00 0.000000000000000e+00 0.000000000000000e+00
0.000000000000000e+00 0.000000000000000e+00 0.000000000000000e+00

0.000000000000000e+00 0.000000000000000e+00 0.000000000000000e+00
0.000000000000000e+00 0.000000000000000e+00 0.000000000000000e+00
0.000000000000000e+00 0.000000000000000e+00 0.000000000000000e+00

0.000000000000000e+00 0.000000000000000e+00 0.000000000000000e+00
0.000000000000000e+00 0.000000000000000e+00 0.000000000000000e+00
0.000000000000000e+00 0.000000000000000e+00 0.000000000000000e+00

0.000000000000000e+00 0.000000000000000e+00 0.000000000000000e+00
0.000000000000000e+00 0.000000000000000e+00 0.000000000000000e+00
0.000000000000000e+00 0.000000000000000e+00 0.000000000000000e+00

0.000000000000000e+00 0.000000000000000e+00 0.000000000000000e+00
0.000000000000000e+00 0.000000000000000e+00 0.000000000000000e+00
0.000000000000000e+00 0.000000000000000e+00 0.000000000000000e+00

0.000000000000000e+00 0.000000000000000e+00 0.000000000000000e+00
0.000000000000000e+00 0.000000000000000e+00 0.000000000000000e+00
0.000000000000000e+00 0.000000000000000e+00 0.000000000000000e+00

0.000000000000000e+00 0.000000000000000e+00 0.000000000000000e+00
0.000000000000000e+00 0.000000000000000e+00 0.000000000000000e+00
0.000000000000000e+00 0.000000000000000e+00 0.000000000000000e+00

0.000000000000000e+00 0.000000000000000e+00 0.000000000000000e+00
0.000000000000000e+00 0.000000000000000e+00 0.000000000000000e+00
0.000000000000000e+00 0.000000000000000e+00 0.000000000000000e+00

0.000000000000000e+00 0.000000000000000e+00 0.000000000000000e+00
0.000000000000000e+00 0.000000000000000e+00 0.000000000000000e+00
0.000000000000000e+00 0.000000000000000e+00 0.000000000000000e+00

0.000000000000000e+00 0.000000000000000e+00 0.000000000000000e+00
0.000000000000000e+00 0.000000000000000e+00 0.000000000000000e+00
0.000000000000000e+00 0.000000000000000e+00 0.000000000000000e+00

0.000000000000000e+00 0.000000000000000e+00 0.000000000000000e+00
0.000000000000000e+00 0.000000000000000e+00 0.000000000000000e+00
0.000000000000000e+00 0.000000000000000e+00 0.000000000000000e+00

0.000000000000000e+00 0.000000000000000e+00 0.000000000000000e+00
0.000000000000000e+00 0.000000000000000e+00 0.000000000000000e+00
0.000000000000000e+00 0.000000000000000e+00 0.000000000000000e+00

0.000000000000000e+00 0.000000000000000e+00 0.000000000000000e+00
0.000000000000000e+00 0.000000000000000e+00 0.000000000000000e+00
0.000000000000000e+00 0.000000000000000e+00 0.000000000000000e+00

0.000000000000000e+00 0.000000000000000e+00 0.000000000000000e+00
0.000000000000000e+00 0.000000000000000e+00 0.000000000000000e+00
0.000000000000000e+00 0.000000000000000e+00 0.000000000000000e+00

0.000000000000000e+00 0.000000000000000e+00 0.000000000000000e+00
0.000000000000000e+00 0.000000000000000e+00 0.000000000000000e+00
0.000000000000000e+00 0.000000000000000e+00 0.000000000000000e+00

0.000000000000000e+00 0.000000000000000e+00 0.000000000000000e+00
0.000000000000000e+00 0.000000000000000e+00 0.000000000000000e+00
0.000000000000000e+00 0.000000000000000e+00 0.000000000000000e+00

0.000000000000000e+00 0.000000000000000e+00 0.000000000000000e+00
0.000000000000000e+00 0.000000000000000e+00 0.000000000000000e+00
0.000000000000000e+00 0.000000000000000e+00 0.000000000000000e+00

0.000000000000000e+00 0.000000000000000e+00 0.000000000000000e+00
0.000000000000000e+00 0.000000000000000e+00 0.000000000000000e+00
0.000000000000000e+00 0.000000000000000e+00 0.000000000000000e+00

0.000000000000000e+00 0.000000000000000e+00 0.000000000000000e+00
0.000000000000000e+00 0.000000000000000e+00 0.000000000000000e+00
0.000000000000000e+00 0.000000000000000e+00 0.000000000000000e+00

0.000000000000000e+00 0.000000000000000e+00 0.000000000000000e+00
0.000000000000000e+00 0.000000000000000e+00 0.000000000000000e+00
0.000000000000000e+00 0.000000000000000e+00 0.000000000000000e+00

0.000000000000000e+00 0.000000000000000e+00 0.000000000000000e+00
0.000000000000000e+00 0.000000000000000e+00 0.000000000000000e+00
0.000000000000000e+00 0.000000000000000e+00 0.000000000000000e+00

0.000000000000000e+00 0.000000000000000e+00 0.000000000000000e+00
0.000000000000000e+00 0.000000000000000e+00 0.000000000000000e+00
0.000000000000000e+00 0.000000000000000e+00 0.000000000000000e+00

0.000000000000000e+00 0.000000000000000e+00 0.000000000000000e+00
0.000000000000000e+00 0.000000000000000e+00 0.000000000000000e+00
0.000000000000000e+00 0.000000000000000e+00 0.000000000000000e+00

0.000000000000000e+00 0.000000000000000e+00 0.000000000000000e+00
0.000000000000000e+00 0.000000000000000e+00 0.000000000000000e+00
0.000000000000000e+00 0.000000000000000e+00 0.000000000000000e+00

0.000000000000000e+00 0.000000000000000e+00 0.000000000000000e+00
0.000000000000000e+00 0.000000000000000e+00 0.000000000000000e+00
0.000000000000000e+00 0.000000000000000e+00 0.000000000000000e+00

0.000000000000000e+00 0.000000000000000e+00 0.000000000000000e+00
0.000000000000000e+00 0.000000000000000e+00 0.000000000000000e+00
0.000000000000000e+00 0.000000000000000e+00 0.000000000000000e+00

0.000000000000000e+00 0.000000000000000e+00 0.000000000000000e+00
0.000000000000000e+00 0.000000000000000e+00 0.000000000000000e+00
0.000000000000000e+00 0.000000000000000e+00 0.000000000000000e+00

0.000000000000000e+00 0.000000000000000e+00 0.000000000000000e+00
0.000000000000000e+00 0.000000000000000e+00 0.000000000000000e+00
0.000000000000000e+00 0.000000000000000e+00 0.000000000000000e+00

0.000000000000000e+00 0.000000000000000e+00 0.000000000000000e+00
0.000000000000000e+00 0.000000000000000e+00 0.000000000000000e+00
0.000000000000000e+00 0.000000000000000e+00 0.000000000000000e+00

0.000000000000000e+00 0.000000000000000e+00 0.000000000000000e+00
0.000000000000000e+00 0.000000000000000e+00 0.000000000000000e+00
0.000000000000000e+00 0.000000000000000e+00 0.000000000000000e+00

0.000000000000000e+00 0.000000000000000e+00 0.000000000000000e+00
0.000000000000000e+00 0.000000000000000e+00 0.000000000000000e+00
0.000000000000000e+00 0.000000000000000e+00 0.000000000000000e+00

0.000000000000000e+00 0.000000000000000e+00 0.000000000000000e+00
0.000000000000000e+00 0.000000000000000e+00 0.000000000000000e+00
0.000000000000000e+00 0.000000000000000e+00 0.000000000000000e+00

0.000000000000000e+00 0.000000000000000e+00 0.000000000000000e+00
0.000000000000000e+00 0.000000000000000e+00 0.000000000000000e+00
0.000000000000000e+00 0.000000000000000e+00 0.000000000000000e+00

0.000000000000000e+00 0.000000000000000e+00 0.000000000000000e+00
0.000000000000000e+00 0.000000000000000e+00 0.000000000000000e+00
0.000000000000000e+00 0.000000000000000e+00 0.000000000000000e+00

0.000000000000000e+00 0.000000000000000e+00 0.000000000000000e+00
0.000000000000000e+00 0.000000000000000e+00 0.000000000000000e+00
0.000000000000000e+00 0.000000000000000e+00 0.000000000000000e+00

0.000000000000000e+00 0.000000000000000e+00 0.000000000000000e+00
0.000000000000000e+00 0.000000000000000e+00 0.000000000000000e+00
0.000000000000000e+00 0.000000000000000e+00 0.000000000000000e+00

0.000000000000000e+00 0.000000000000000e+00 0.000000000000000e+00
0.000000000000000e+00 0.000000000000000e+00 0.000000000000000e+00
0.000000000000000e+00 0.000000000000000e+00 0.000000000000000e+00

0.000000000000000e+00 0.000000000000000e+00 0.000000000000000e+00
0.000000000000000e+00 0.000000000000000e+00 0.000000000000000e+00
0.000000000000000e+00 0.000000000000000e+00 0.000000000000000e+00

0.000000000000000e+00 0.000000000000000e+00 0.000000000000000e+00
0.000000000000000e+00 0.000000000000000e+00 0.000000000000000e+00
0.000000000000000e+00 0.000000000000000e+00 0.000000000000000e+00

0.000000000000000e+00 0.000000000000000e+00 0.000000000000000e+00
0.000000000000000e+00 0.000000000000000e+00 0.000000000000000e+00
0.000000000000000e+00 0.000000000000000e+00 0.000000000000000e+00

0.000000000000000e+00 0.000000000000000e+00 0.000000000000000e+00
0.000000000000000e+00 0.000000000000000e+00 0.000000000000000e+00
0.000000000000000e+00 0.000000000000000e+00 0.000000000000000e+00

0.000000000000000e+00 0.000000000000000e+00 0.000000000000000e+00
0.000000000000000e+00 0.000000000000000e+00 0.000000000000000e+00
0.000000000000000e+00 0.000000000000000e+00 0.000000000000000e+00

0.000000000000000e+00 0.000000000000000e+00 0.000000000000000e+00
0.000000000000000e+00 0.000000000000000e+00 0.000000000000000e+00
0.000000000000000e+00 0.000000000000000e+00 0.000000000000000e+00

0.000000000000000e+00 0.000000000000000e+00 0.000000000000000e+00
0.000000000000000e+00 0.000000000000000e+00 0.000000000000000e+00
0.000000000000000e+00 0.000000000000000e+00 0.000000000000000e+00

0.000000000000000e+00 0.000000000000000e+00 0.000000000000000e+00
0.000000000000000e+00 0.000000000000000e+00 0.000000000000000e+00
0.000000000000000e+00 0.000000000000000e+00 0.000000000000000e+00

0.000000000000000e+00 0.000000000000000e+00 0.000000000000000e+00
0.000000000000000e+00 0.000000000000000e+00 0.000000000000000e+00
0.000000000000000e+00 0.000000000000000e+00 0.000000000000000e+00

0.000000000000000e+00 0.000000000000000e+00 0.000000000000000e+00
0.000000000000000e+00 0.000000000000000e+00 0.000000000000000e+00
0.000000000000000e+00 0.000000000000000e+00 0.000000000000000e+00

0.000000000000000e+00 0.000000000000000e+00 0.000000000000000e+00
0.000000000000000e+00 0.000000000000000e+00 0.000000000000000e+00
0.000000000000000e+00 0.000000000000000e+00 0.000000000000000e+00

0.000000000000000e+00 0.000000000000000e+00 0.000000000000000e+00
0.000000000000000e+00 0.000000000000000e+00 0.000000000000000e+00
0.000000000000000e+00 0.000000000000000e+00 0.000000000000000e+00

0.000000000000000e+00 0.000000000000000e+00 0.000000000000000e+00
0.000000000000000e+00 0.000000000000000e+00 0.000000000000000e+00
0.000000000000000e+00 0.000000000000000e+00 0.000000000000000e+00

0.000000000000000e+00 0.000000000000000e+00 0.000000000000000e+00
0.000000000000000e+00 0.000000000000000e+00 0.000000000000000e+00
0.000000000000000e+00 0.000000000000000e+00 0.000000000000000e+00

0.000000000000000e+00 0.000000000000000e+00 0.000000000000000e+00
0.000000000000000e+00 0.000000000000000e+00 0.000000000000000e+00
0.000000000000000e+00 0.000000000000000e+00 0.000000000000000e+00

0.000000000000000e+00 0.000000000000000e+00 0.000000000000000e+00
0.000000000000000e+00 0.000000000000000e+00 0.000000000000000e+00
0.000000000000000e+00 0.000000000000000e+00 0.000000000000000e+00

0.000000000000000e+00 0.000000000000000e+00 0.000000000000000e+00
0.000000000000000e+00 0.000000000000000e+00 0.000000000000000e+00
0.000000000000000e+00 0.000000000000000e+00 0.000000000000000e+00

0.000000000000000e+00 0.000000000000000e+00 0.000000000000000e+00
0.000000000000000e+00 0.000000000000000e+00 0.000000000000000e+00
0.000000000000000e+00 0.000000000000000e+00 0.000000000000000e+00

0.000000000000000e+00 0.000000000000000e+00 0.000000000000000e+00
0.000000000000000e+00 0.000000000000000e+00 0.000000000000000e+00
0.000000000000000e+00 0.000000000000000e+00 0.000000000000000e+00

0.000000000000000e+00 0.000000000000000e+00 0.000000000000000e+00
0.000000000000000e+00 0.000000000000000e+00 0.000000000000000e+00
0.000000000000000e+00 0.000000000000000e+00 0.000000000000000e+00

0.000000000000000e+00 0.000000000000000e+00 0.000000000000000e+00
0.000000000000000e+00 0.000000000000000e+00 0.000000000000000e+00
0.000000000000000e+00 0.000000000000000e+00 0.000000000000000e+00

0.000000000000000e+00 0.000000000000000e+00 0.000000000000000e+00
0.000000000000000e+00 0.000000000000000e+00 0.000000000000000e+00
0.000000000000000e+00 0.000000000000000e+00 0.000000000000000e+00

0.000000000000000e+00 0.000000000000000e+00 0.000000000000000e+00
0.000000000000000e+00 0.000000000000000e+00 0.000000000000000e+00
0.000000000000000e+00 0.000000000000000e+00 0.000000000000000e+00

0.000000000000000e+00 0.000000000000000e+00 0.000000000000000e+00
0.000000000000000e+00 0.000000000000000e+00 0.000000000000000e+00
0.000000000000000e+00 0.000000000000000e+00 0.000000000000000e+00

0.000000000000000e+00 0.000000000000000e+00 0.000000000000000e+00
0.000000000000000e+00 0.000000000000000e+00 0.000000000000000e+00
0.000000000000000e+00 0.000000000000000e+00 0.000000000000000e+00

0.000000000000000e+00 0.000000000000000e+00 0.000000000000000e+00
0.000000000000000e+00 0.000000000000000e+00 0.000000000000000e+00
0.000000000000000e+00 0.000000000000000e+00 0.000000000000000e+00

0.000000000000000e+00 0.000000000000000e+00 0.000000000000000e+00
0.000000000000000e+00 0.000000000000000e+00 0.000000000000000e+00
0.000000000000000e+00 0.000000000000000e+00 0.000000000000000e+00

0.000000000000000e+00 0.000000000000000e+00 0.000000000000000e+00
0.000000000000000e+00 0.000000000000000e+00 0.000000000000000e+00
0.000000000000000e+00 0.000000000000000e+00 0.000000000000000e+00

0.000000000000000e+00 0.000000000000000e+00 0.000000000000000e+00
0.000000000000000e+00 0.000000000000000e+00 0.000000000000000e+00
0.000000000000000e+00 0.000000000000000e+00 0.000000000000000e+00

0.000000000000000e+00 0.000000000000000e+00 0.000000000000000e+00
0.000000000000000e+00 0.000000000000000e+00 0.000000000000000e+00
0.000000000000000e+00 0.000000000000000e+00 0.000000000000000e+00

0.000000000000000e+00 0.000000000000000e+00 0.000000000000000e+00
0.000000000000000e+00 0.000000000000000e+00 0.000000000000000e+00
0.000000000000000e+00 0.000000000000000e+00 0.000000000000000e+00

0.000000000000000e+00 0.000000000000000e+00 0.000000000000000e+00
0.000000000000000e+00 0.000000000000000e+00 0.000000000000000e+00
0.000000000000000e+00 0.000000000000000e+00 0.000000000000000e+00

0.000000000000000e+00 0.000000000000000e+00 0.000000000000000e+00
0.000000000000000e+00 0.000000000000000e+00 0.000000000000000e+00
0.000000000000000e+00 0.000000000000000e+00 0.000000000000000e+00

0.000000000000000e+00 0.000000000000000e+00 0.000000000000000e+00
0.000000000000000e+00 0.000000000000000e+00 0.000000000000000e+00
0.000000000000000e+00 0.000000000000000e+00 0.000000000000000e+00

0.000000000000000e+00 0.000000000000000e+00 0.000000000000000e+00
0.000000000000000e+00 0.000000000000000e+00 0.000000000000000e+00
0.000000000000000e+00 0.000000000000000e+00 0.000000000000000e+00

0.000000000000000e+00 0.000000000000000e+00 0.000000000000000e+00
0.000000000000000e+00 0.000000000000000e+00 0.000000000000000e+00
0.000000000000000e+00 0.000000000000000e+00 0.000000000000000e+00

0.000000000000000e+00 0.000000000000000e+00 0.000000000000000e+00
0.000000000000000e+00 0.000000000000000e+00 0.000000000000000e+00
0.000000000000000e+00 0.000000000000000e+00 0.000000000000000e+00

0.000000000000000e+00 0.000000000000000e+00 0.000000000000000e+00
0.000000000000000e+00 0.000000000000000e+00 0.000000000000000e+00
0.000000000000000e+00 0.000000000000000e+00 0.000000000000000e+00

0.000000000000000e+00 0.000000000000000e+00 0.000000000000000e+00
0.000000000000000e+00 0.000000000000000e+00 0.000000000000000e+00
0.000000000000000e+00 0.000000000000000e+00 0.000000000000000e+00

0.000000000000000e+00 0.000000000000000e+00 0.000000000000000e+00
0.000000000000000e+00 0.000000000000000e+00 0.000000000000000e+00
0.000000000000000e+00 0.000000000000000e+00 0.000000000000000e+00

0.000000000000000e+00 0.000000000000000e+00 0.000000000000000e+00
0.000000000000000e+00 0.000000000000000e+00 0.000000000000000e+00
0.000000000000000e+00 0.000000000000000e+00 0.000000000000000e+00

0.000000000000000e+00 0.000000000000000e+00 0.000000000000000e+00
0.000000000000000e+00 0.000000000000000e+00 0.000000000000000e+00
0.000000000000000e+00 0.000000000000000e+00 0.000000000000000e+00

0.000000000000000e+00 0.000000000000000e+00 0.000000000000000e+00
0.000000000000000e+00 0.000000000000000e+00 0.000000000000000e+00
0.000000000000000e+00 0.000000000000000e+00 0.000000000000000e+00

0.000000000000000e+00 0.000000000000000e+00 0.000000000000000e+00
0.000000000000000e+00 0.000000000000000e+00 0.000000000000000e+00
0.000000000000000e+00 0.000000000000000e+00 0.000000000000000e+00

0.000000000000000e+00 0.000000000000000e+00 0.000000000000000e+00
0.000000000000000e+00 0.000000000000000e+00 0.000000000000000e+00
0.000000000000000e+00 0.000000000000000e+00 0.000000000000000e+00

0.000000000000000e+00 0.000000000000000e+00 0.000000000000000e+00
0.000000000000000e+00 0.000000000000000e+00 0.000000000000000e+00
0.000000000000000e+00 0.000000000000000e+00 0.000000000000000e+00

0.000000000000000e+00 0.000000000000000e+00 0.000000000000000e+00
0.000000000000000e+00 0.000000000000000e+00 0.000000000000000e+00
0.000000000000000e+00 0.000000000000000e+00 0.000000000000000e+00

0.000000000000000e+00 0.000000000000000e+00 0.000000000000000e+00
0.000000000000000e+00 0.000000000000000e+00 0.000000000000000e+00
0.000000000000000e+00 0.000000000000000e+00 0.000000000000000e+00

0.000000000000000e+00 0.000000000000000e+00 0.000000000000000e+00
0.000000000000000e+00 0.000000000000000e+00 0.000000000000000e+00
0.000000000000000e+00 0.000000000000000e+00 0.000000000000000e+00

0.000000000000000e+00 0.000000000000000e+00 0.000000000000000e+00
0.000000000000000e+00 0.000000000000000e+00 0.000000000000000e+00
0.000000000000000e+00 0.000000000000000e+00 0.000000000000000e+00

0.000000000000000e+00 0.000000000000000e+00 0.000000000000000e+00
0.000000000000000e+00 0.000000000000000e+00 0.000000000000000e+00
0.000000000000000e+00 0.000000000000000e+00 0.000000000000000e+00

0.000000000000000e+00 0.000000000000000e+00 0.000000000000000e+00
0.000000000000000e+00 0.000000000000000e+00 0.000000000000000e+00
0.000000000000000e+00 0.000000000000000e+00 0.000000000000000e+00

0.000000000000000e+00 0.000000000000000e+00 0.000000000000000e+00
0.000000000000000e+00 0.000000000000000e+00 0.000000000000000e+00
0.000000000000000e+00 0.000000000000000e+00 0.000000000000000e+00

0.000000000000000e+00 0.000000000000000e+00 0.000000000000000e+00
0.000000000000000e+00 0.000000000000000e+00 0.000000000000000e+00
0.000000000000000e+00 0.000000000000000e+00 0.000000000000000e+00

0.000000000000000e+00 0.000000000000000e+00 0.000000000000000e+00
0.000000000000000e+00 0.000000000000000e+00 0.000000000000000e+00
0.000000000000000e+00 0.000000000000000e+00 0.000000000000000e+00

0.000000000000000e+00 0.000000000000000e+00 0.000000000000000e+00
0.000000000000000e+00 0.000000000000000e+00 0.000000000000000e+00
0.000000000000000e+00 0.000000000000000e+00 0.000000000000000e+00

0.000000000000000e+00 0.000000000000000e+00 0.000000000000000e+00
0.000000000000000e+00 0.000000000000000e+00 0.000000000000000e+00
0.000000000000000e+00 0.000000000000000e+00 0.000000000000000e+00

0.000000000000000e+00 0.000000000000000e+00 0.000000000000000e+00
0.000000000000000e+00 0.000000000000000e+00 0.000000000000000e+00
0.000000000000000e+00 0.000000000000000e+00 0.000000000000000e+00

0.000000000000000e+00 0.000000000000000e+00 0.000000000000000e+00
0.000000000000000e+00 0.000000000000000e+00 0.000000000000000e+00
0.000000000000000e+00 0.000000000000000e+00 0.000000000000000e+00

0.000000000000000e+00 0.000000000000000e+00 0.000000000000000e+00
0.000000000000000e+00 0.000000000000000e+00 0.000000000000000e+00
0.000000000000000e+00 0.000000000000000e+00 0.000000000000000e+00

0.000000000000000e+00 0.000000000000000e+00 0.000000000000000e+00
0.000000000000000e+00 0.000000000000000e+00 0.000000000000000e+00
0.000000000000000e+00 0.000000000000000e+00 0.000000000000000e+00

0.000000000000000e+00 0.000000000000000e+00 0.000000000000000e+00
0.000000000000000e+00 0.000000000000000e+00 0.000000000000000e+00
0.000000000000000e+00 0.000000000000000e+00 0.000000000000000e+00

0.000000000000000e+00 0.000000000000000e+00 0.000000000000000e+00
0.000000000000000e+00 0.000000000000000e+00 0.000000000000000e+00
0.000000000000000e+00 0.000000000000000e+00 0.000000000000000e+00

0.000000000000000e+00 0.000000000000000e+00 0.000000000000000e+00
0.000000000000000e+00 0.000000000000000e+00 0.000000000000000e+00
0.000000000000000e+00 0.000000000000000e+00 0.000000000000000e+00

0.000000000000000e+00 0.000000000000000e+00 0.000000000000000e+00
0.000000000000000e+00 0.000000000000000e+00 0.000000000000000e+00
0.000000000000000e+00 0.000000000000000e+00 0.000000000000000e+00

0.000000000000000e+00 0.000000000000000e+00 0.000000000000000e+00
0.000000000000000e+00 0.000000000000000e+00 0.000000000000000e+00
0.000000000000000e+00 0.000000000000000e+00 0.000000000000000e+00

0.000000000000000e+00 0.000000000000000e+00 0.000000000000000e+00
0.000000000000000e+00 0.000000000000000e+00 0.000000000000000e+00
0.000000000000000e+00 0.000000000000000e+00 0.000000000000000e+00

0.000000000000000e+00 0.000000000000000e+00 0.000000000000000e+00
0.000000000000000e+00 0.000000000000000e+00 0.000000000000000e+00
0.000000000000000e+00 0.000000000000000e+00 0.000000000000000e+00

0.000000000000000e+00 0.000000000000000e+00 0.000000000000000e+00
0.000000000000000e+00 0.000000000000000e+00 0.000000000000000e+00
0.000000000000000e+00 0.000000000000000e+00 0.000000000000000e+00

0.000000000000000e+00 0.000000000000000e+00 0.000000000000000e+00
0.000000000000000e+00 0.000000000000000e+00 0.000000000000000e+00
0.000000000000000e+00 0.000000000000000e+00 0.000000000000000e+00

0.000000000000000e+00 0.000000000000000e+00 0.000000000000000e+00
0.000000000000000e+00 0.000000000000000e+00 0.000000000000000e+00
0.000000000000000e+00 0.000000000000000e+00 0.000000000000000e+00

0.000000000000000e+00 0.000000000000000e+00 0.000000000000000e+00
0.000000000000000e+00 0.000000000000000e+00 0.000000000000000e+00
0.000000000000000e+00 0.000000000000000e+00 0.000000000000000e+00

0.000000000000000e+00 0.000000000000000e+00 0.000000000000000e+00
0.000000000000000e+00 0.000000000000000e+00 0.000000000000000e+00
0.000000000000000e+00 0.000000000000000e+00 0.000000000000000e+00

0.000000000000000e+00 0.000000000000000e+00 0.000000000000000e+00
0.000000000000000e+00 0.000000000000000e+00 0.000000000000000e+00
0.000000000000000e+00 0.000000000000000e+00 0.000000000000000e+00

0.000000000000000e+00 0.000000000000000e+00 0.000000000000000e+00
0.000000000000000e+00 0.000000000000000e+00 0.000000000000000e+00
0.000000000000000e+00 0.000000000000000e+00 0.000000000000000e+00

0.000000000000000e+00 0.000000000000000e+00 0.000000000000000e+00
0.000000000000000e+00 0.000000000000000e+00 0.000000000000000e+00
0.000000000000000e+00 0.000000000000000e+00 0.000000000000000e+00

0.000000000000000e+00 0.000000000000000e+00 0.000000000000000e+00
0.000000000000000e+00 0.000000000000000e+00 0.000000000000000e+00
0.000000000000000e+00 0.000000000000000e+00 0.000000000000000e+00

0.000000000000000e+00 0.000000000000000e+00 0.000000000000000e+00
0.000000000000000e+00 0.000000000000000e+00 0.000000000000000e+00
0.000000000000000e+00 0.000000000000000e+00 0.000000000000000e+00

0.000000000000000e+00 0.000000000000000e+00 0.000000000000000e+00
0.000000000000000e+00 0.000000000000000e+00 0.000000000000000e+00
0.000000000000000e+00 0.000000000000000e+00 0.000000000000000e+00

0.000000000000000e+00 0.000000000000000e+00 0.000000000000000e+00
0.000000000000000e+00 0.000000000000000e+00 0.000000000000000e+00
0.000000000000000e+00 0.000000000000000e+00 0.000000000000000e+00

0.000000000000000e+00 0.000000000000000e+00 0.000000000000000e+00
0.000000000000000e+00 0.000000000000000e+00 0.000000000000000e+00
0.000000000000000e+00 0.000000000000000e+00 0.000000000000000e+00

0.000000000000000e+00 0.000000000000000e+00 0.000000000000000e+00
0.000000000000000e+00 0.000000000000000e+00 0.000000000000000e+00
0.000000000000000e+00 0.000000000000000e+00 0.000000000000000e+00

0.000000000000000e+00 0.000000000000000e+00 0.000000000000000e+00
0.000000000000000e+00 0.000000000000000e+00 0.000000000000000e+00
0.000000000000000e+00 0.000000000000000e+00 0.000000000000000e+00

0.000000000000000e+00 0.000000000000000e+00 0.000000000000000e+00
0.000000000000000e+00 0.000000000000000e+00 0.000000000000000e+00
0.000000000000000e+00 0.000000000000000e+00 0.000000000000000e+00

0.000000000000000e+00 0.000000000000000e+00 0.000000000000000e+00
0.000000000000000e+00 0.000000000000000e+00 0.000000000000000e+00
0.000000000000000e+00 0.000000000000000e+00 0.000000000000000e+00

0.000000000000000e+00 0.000000000000000e+00 0.000000000000000e+00
0.000000000000000e+00 0.000000000000000e+00 0.000000000000000e+00
0.000000000000000e+00 0.000000000000000e+00 0.000000000000000e+00

0.000000000000000e+00 0.000000000000000e+00 0.000000000000000e+00
0.000000000000000e+00 0.000000000000000e+00 0.000000000000000e+00
0.000000000000000e+00 0.000000000000000e+00 0.000000000000000e+00

0.000000000000000e+00 0.000000000000000e+00 0.000000000000000e+00
0.000000000000000e+00 0.000000000000000e+00 0.000000000000000e+00
0.000000000000000e+00 0.000000000000000e+00 0.000000000000000e+00

0.000000000000000e+00 0.000000000000000e+00 0.000000000000000e+00
0.000000000000000e+00 0.000000000000000e+00 0.000000000000000e+00
0.000000000000000e+00 0.000000000000000e+00 0.000000000000000e+00

0.000000000000000e+00 0.000000000000000e+00 0.000000000000000e+00
0.000000000000000e+00 0.000000000000000e+00 0.000000000000000e+00
0.000000000000000e+00 0.000000000000000e+00 0.000000000000000e+00

0.000000000000000e+00 0.000000000000000e+00 0.000000000000000e+00
0.000000000000000e+00 0.000000000000000e+00 0.000000000000000e+00
0.000000000000000e+00 0.000000000000000e+00 0.000000000000000e+00

0.000000000000000e+00 0.000000000000000e+00 0.000000000000000e+00
0.000000000000000e+00 0.000000000000000e+00 0.000000000000000e+00
0.000000000000000e+00 0.000000000000000e+00 0.000000000000000e+00

0.000000000000000e+00 0.000000000000000e+00 0.000000000000000e+00
0.000000000000000e+00 0.000000000000000e+00 0.000000000000000e+00
0.000000000000000e+00 0.000000000000000e+00 0.000000000000000e+00

0.000000000000000e+00 0.000000000000000e+00 0.000000000000000e+00
0.000000000000000e+00 0.000000000000000e+00 0.000000000000000e+00
0.000000000000000e+00 0.000000000000000e+00 0.000000000000000e+00

0.000000000000000e+00 0.000000000000000e+00 0.000000000000000e+00
0.000000000000000e+00 0.000000000000000e+00 0.000000000000000e+00
0.000000000000000e+00 0.000000000000000e+00 0.000000000000000e+00

0.000000000000000e+00 0.000000000000000e+00 0.000000000000000e+00
0.000000000000000e+00 0.000000000000000e+00 0.000000000000000e+00
0.000000000000000e+00 0.000000000000000e+00 0.000000000000000e+00

0.000000000000000e+00 0.000000000000000e+00 0.000000000000000e+00
0.000000000000000e+00 0.000000000000000e+00 0.000000000000000e+00
0.000000000000000e+00 0.000000000000000e+00 0.000000000000000e+00

0.000000000000000e+00 0.000000000000000e+00 0.000000000000000e+00
0.000000000000000e+00 0.000000000000000e+00 0.000000000000000e+00
0.000000000000000e+00 0.000000000000000e+00 0.000000000000000e+00

0.000000000000000e+00 0.000000000000000e+00 0.000000000000000e+00
0.000000000000000e+00 0.000000000000000e+00 0.000000000000000e+00
0.000000000000000e+00 0.000000000000000e+00 0.000000000000000e+00

0.000000000000000e+00 0.000000000000000e+00 0.000000000000000e+00
0.000000000000000e+00 0.000000000000000e+00 0.000000000000000e+00
0.000000000000000e+00 0.000000000000000e+00 0.000000000000000e+00

0.000000000000000e+00 0.000000000000000e+00 0.000000000000000e+00
0.000000000000000e+00 0.000000000000000e+00 0.000000000000000e+00
0.000000000000000e+00 0.000000000000000e+00 0.000000000000000e+00

0.000000000000000e+00 0.000000000000000e+00 0.000000000000000e+00
0.000000000000000e+00 0.000000000000000e+00 0.000000000000000e+00
0.000000000000000e+00 0.000000000000000e+00 0.000000000000000e+00

0.000000000000000e+00 0.000000000000000e+00 0.000000000000000e+00
0.000000000000000e+00 0.000000000000000e+00 0.000000000000000e+00
0.000000000000000e+00 0.000000000000000e+00 0.000000000000000e+00

0.000000000000000e+00 0.000000000000000e+00 0.000000000000000e+00
0.000000000000000e+00 0.000000000000000e+00 0.000000000000000e+00
0.000000000000000e+00 0.000000000000000e+00 0.000000000000000e+00

0.000000000000000e+00 0.000000000000000e+00 0.000000000000000e+00
0.000000000000000e+00 0.000000000000000e+00 0.000000000000000e+00
0.000000000000000e+00 0.000000000000000e+00 0.000000000000000e+00

0.000000000000000e+00 0.000000000000000e+00 0.000000000000000e+00
0.000000000000000e+00 0.000000000000000e+00 0.000000000000000e+00
0.000000000000000e+00 0.000000000000000e+00 0.000000000000000e+00

0.000000000000000e+00 0.000000000000000e+00 0.000000000000000e+00
0.000000000000000e+00 0.000000000000000e+00 0.000000000000000e+00
0.000000000000000e+00 0.000000000000000e+00 0.000000000000000e+00

0.000000000000000e+00 0.000000000000000e+00 0.000000000000000e+00
0.000000000000000e+00 0.000000000000000e+00 0.000000000000000e+00
0.000000000000000e+00 0.000000000000000e+00 0.000000000000000e+00

0.000000000000000e+00 0.000000000000000e+00 0.000000000000000e+00
0.000000000000000e+00 0.000000000000000e+00 0.000000000000000e+00
0.000000000000000e+00 0.000000000000000e+00 0.000000000000000e+00

0.000000000000000e+00 0.000000000000000e+00 0.000000000000000e+00
0.000000000000000e+00 0.000000000000000e+00 0.000000000000000e+00
0.000000000000000e+00 0.000000000000000e+00 0.000000000000000e+00

0.000000000000000e+00 0.000000000000000e+00 0.000000000000000e+00
0.000000000000000e+00 0.000000000000000e+00 0.000000000000000e+00
0.000000000000000e+00 0.000000000000000e+00 0.000000000000000e+00

0.000000000000000e+00 0.000000000000000e+00 0.000000000000000e+00
0.000000000000000e+00 0.000000000000000e+00 0.000000000000000e+00
0.000000000000000e+00 0.000000000000000e+00 0.000000000000000e+00

0.000000000000000e+00 0.000000000000000e+00 0.000000000000000e+00
0.000000000000000e+00 0.000000000000000e+00 0.000000000000000e+00
0.000000000000000e+00 0.000000000000000e+00 0.000000000000000e+00

0.000000000000000e+00 0.000000000000000e+00 0.000000000000000e+00
0.000000000000000e+00 0.000000000000000e+00 0.000000000000000e+00
0.000000000000000e+00 0.000000000000000e+00 0.000000000000000e+00

0.000000000000000e+00 0.000000000000000e+00 0.000000000000000e+00
0.000000000000000e+00 0.000000000000000e+00 0.000000000000000e+00
0.000000000000000e+00 0.000000000000000e+00 0.000000000000000e+00

0.000000000000000e+00 0.000000000000000e+00 0.000000000000000e+00
0.000000000000000e+00 0.000000000000000e+00 0.000000000000000e+00
0.000000000000000e+00 0.000000000000000e+00 0.000000000000000e+00

0.000000000000000e+00 0.000000000000000e+00 0.000000000000000e+00
0.000000000000000e+00 0.000000000000000e+00 0.000000000000000e+00
0.000000000000000e+00 0.000000000000000e+00 0.000000000000000e+00

0.000000000000000e+00 0.000000000000000e+00 0.000000000000000e+00
0.000000000000000e+00 0.000000000000000e+00 0.000000000000000e+00
0.000000000000000e+00 0.000000000000000e+00 0.000000000000000e+00

0.000000000000000e+00 0.000000000000000e+00 0.000000000000000e+00
0.000000000000000e+00 0.000000000000000e+00 0.000000000000000e+00
0.000000000000000e+00 0.000000000000000e+00 0.000000000000000e+00

0.000000000000000e+00 0.000000000000000e+00 0.000000000000000e+00
0.000000000000000e+00 0.000000000000000e+00 0.000000000000000e+00
0.000000000000000e+00 0.000000000000000e+00 0.000000000000000e+00

0.000000000000000e+00 0.000000000000000e+00 0.000000000000000e+00
0.000000000000000e+00 0.000000000000000e+00 0.000000000000000e+00
0.000000000000000e+00 0.000000000000000e+00 0.000000000000000e+00

0.000000000000000e+00 0.000000000000000e+00 0.000000000000000e+00
0.000000000000000e+00 0.000000000000000e+00 0.000000000000000e+00
0.000000000000000e+00 0.000000000000000e+00 0.000000000000000e+00

0.000000000000000e+00 0.000000000000000e+00 0.000000000000000e+00
0.000000000000000e+00 0.000000000000000e+00 0.000000000000000e+00
0.000000000000000e+00 0.000000000000000e+00 0.000000000000000e+00

0.000000000000000e+00 0.000000000000000e+00 0.000000000000000e+00
0.000000000000000e+00 0.000000000000000e+00 0.000000000000000e+00
0.000000000000000e+00 0.000000000000000e+00 0.000000000000000e+00

0.000000000000000e+00 0.000000000000000e+00 0.000000000000000e+00
0.000000000000000e+00 0.000000000000000e+00 0.000000000000000e+00
0.000000000000000e+00 0.000000000000000e+00 0.000000000000000e+00

0.000000000000000e+00 0.000000000000000e+00 0.000000000000000e+00
0.000000000000000e+00 0.000000000000000e+00 0.000000000000000e+00
0.000000000000000e+00 0.000000000000000e+00 0.000000000000000e+00

0.000000000000000e+00 0.000000000000000e+00 0.000000000000000e+00
0.000000000000000e+00 0.000000000000000e+00 0.000000000000000e+00
0.000000000000000e+00 0.000000000000000e+00 0.000000000000000e+00

0.000000000000000e+00 0.000000000000000e+00 0.000000000000000e+00
0.000000000000000e+00 0.000000000000000e+00 0.000000000000000e+00
0.000000000000000e+00 0.000000000000000e+00 0.000000000000000e+00

0.000000000000000e+00 0.000000000000000e+00 0.000000000000000e+00
0.000000000000000e+00 0.000000000000000e+00 0.000000000000000e+00
0.000000000000000e+00 0.000000000000000e+00 0.000000000000000e+00

0.000000000000000e+00 0.000000000000000e+00 0.000000000000000e+00
0.000000000000000e+00 0.000000000000000e+00 0.000000000000000e+00
0.000000000000000e+00 0.000000000000000e+00 0.000000000000000e+00

0.000000000000000e+00 0.000000000000000e+00 0.000000000000000e+00
0.000000000000000e+00 0.000000000000000e+00 0.000000000000000e+00
0.000000000000000e+00 0.000000000000000e+00 0.000000000000000e+00

0.000000000000000e+00 0.000000000000000e+00 0.000000000000000e+00
0.000000000000000e+00 0.000000000000000e+00 0.000000000000000e+00
0.000000000000000e+00 0.000000000000000e+00 0.000000000000000e+00

0.000000000000000e+00 0.000000000000000e+00 0.000000000000000e+00
0.000000000000000e+00 0.000000000000000e+00 0.000000000000000e+00
0.000000000000000e+00 0.000000000000000e+00 0.000000000000000e+00

0.000000000000000e+00 0.000000000000000e+00 0.000000000000000e+00
0.000000000000000e+00 0.000000000000000e+00 0.000000000000000e+00
0.000000000000000e+00 0.000000000000000e+00 0.000000000000000e+00

0.000000000000000e+00 0.000000000000000e+00 0.000000000000000e+00
0.000000000000000e+00 0.000000000000000e+00 0.000000000000000e+00
0.000000000000000e+00 0.000000000000000e+00 0.000000000000000e+00

0.000000000000000e+00 0.000000000000000e+00 0.000000000000000e+00
0.000000000000000e+00 0.000000000000000e+00 0.000000000000000e+00
0.000000000000000e+00 0.000000000000000e+00 0.000000000000000e+00

0.000000000000000e+00 0.000000000000000e+00 0.000000000000000e+00
0.000000000000000e+00 0.000000000000000e+00 0.000000000000000e+00
0.000000000000000e+00 0.000000000000000e+00 0.000000000000000e+00

0.000000000000000e+00 0.000000000000000e+00 0.000000000000000e+00
0.000000000000000e+00 0.000000000000000e+00 0.000000000000000e+00
0.000000000000000e+00 0.000000000000000e+00 0.000000000000000e+00

0.000000000000000e+00 0.000000000000000e+00 0.000000000000000e+00
0.000000000000000e+00 0.000000000000000e+00 0.000000000000000e+00
0.000000000000000e+00 0.000000000000000e+00 0.000000000000000e+00

0.000000000000000e+00 0.000000000000000e+00 0.000000000000000e+00
0.000000000000000e+00 0.000000000000000e+00 0.000000000000000e+00
0.000000000000000e+00 0.000000000000000e+00 0.000000000000000e+00

0.000000000000000e+00 0.000000000000000e+00 0.000000000000000e+00
0.000000000000000e+00 0.000000000000000e+00 0.000000000000000e+00
0.000000000000000e+00 0.000000000000000e+00 0.000000000000000e+00

0.000000000000000e+00 0.000000000000000e+00 0.000000000000000e+00
0.000000000000000e+00 0.000000000000000e+00 0.000000000000000e+00
0.000000000000000e+00 0.000000000000000e+00 0.000000000000000e+00

0.000000000000000e+00 0.000000000000000e+00 0.000000000000000e+00
0.000000000000000e+00 0.000000000000000e+00 0.000000000000000e+00
0.000000000000000e+00 0.000000000000000e+00 0.000000000000000e+00

0.000000000000000e+00 0.000000000000000e+00 0.000000000000000e+00
0.000000000000000e+00 0.000000000000000e+00 0.000000000000000e+00
0.000000000000000e+00 0.000000000000000e+00 0.000000000000000e+00

0.000000000000000e+00 0.000000000000000e+00 0.000000000000000e+00
0.000000000000000e+00 0.000000000000000e+00 0.000000000000000e+00
0.000000000000000e+00 0.000000000000000e+00 0.000000000000000e+00

0.000000000000000e+00 0.000000000000000e+00 0.000000000000000e+00
0.000000000000000e+00 0.000000000000000e+00 0.000000000000000e+00
0.000000000000000e+00 0.000000000000000e+00 0.000000000000000e+00

0.000000000000000e+00 0.000000000000000e+00 0.000000000000000e+00
0.000000000000000e+00 0.000000000000000e+00 0.000000000000000e+00
0.000000000000000e+00 0.000000000000000e+00 0.000000000000000e+00

0.000000000000000e+00 0.000000000000000e+00 0.000000000000000e+00
0.000000000000000e+00 0.000000000000000e+00 0.000000000000000e+00
0.000000000000000e+00 0.000000000000000e+00 0.000000000000000e+00

0.000000000000000e+00 0.000000000000000e+00 0.000000000000000e+00
0.000000000000000e+00 0.000000000000000e+00 0.000000000000000e+00
0.000000000000000e+00 0.000000000000000e+00 0.000000000000000e+00

0.000000000000000e+00 0.000000000000000e+00 0.000000000000000e+00
0.000000000000000e+00 0.000000000000000e+00 0.000000000000000e+00
0.000000000000000e+00 0.000000000000000e+00 0.000000000000000e+00

0.000000000000000e+00 0.000000000000000e+00 0.000000000000000e+00
0.000000000000000e+00 0.000000000000000e+00 0.000000000000000e+00
0.000000000000000e+00 0.000000000000000e+00 0.000000000000000e+00

0.000000000000000e+00 0.000000000000000e+00 0.000000000000000e+00
0.000000000000000e+00 0.000000000000000e+00 0.000000000000000e+00
0.000000000000000e+00 0.000000000000000e+00 0.000000000000000e+00

0.000000000000000e+00 0.000000000000000e+00 0.000000000000000e+00
0.000000000000000e+00 0.000000000000000e+00 0.000000000000000e+00
0.000000000000000e+00 0.000000000000000e+00 0.000000000000000e+00

0.000000000000000e+00 0.000000000000000e+00 0.000000000000000e+00
0.000000000000000e+00 0.000000000000000e+00 0.000000000000000e+00
0.000000000000000e+00 0.000000000000000e+00 0.000000000000000e+00

0.000000000000000e+00 0.000000000000000e+00 0.000000000000000e+00
0.000000000000000e+00 0.000000000000000e+00 0.000000000000000e+00
0.000000000000000e+00 0.000000000000000e+00 0.000000000000000e+00

0.000000000000000e+00 0.000000000000000e+00 0.000000000000000e+00
0.000000000000000e+00 0.000000000000000e+00 0.000000000000000e+00
0.000000000000000e+00 0.000000000000000e+00 0.000000000000000e+00

0.000000000000000e+00 0.000000000000000e+00 0.000000000000000e+00
0.000000000000000e+00 0.000000000000000e+00 0.000000000000000e+00
0.000000000000000e+00 0.000000000000000e+00 0.000000000000000e+00

0.000000000000000e+00 0.000000000000000e+00 0.000000000000000e+00
0.000000000000000e+00 0.000000000000000e+00 0.000000000000000e+00
0.000000000000000e+00 0.000000000000000e+00 0.000000000000000e+00

0.000000000000000e+00 0.000000000000000e+00 0.000000000000000e+00
0.000000000000000e+00 0.000000000000000e+00 0.000000000000000e+00
0.000000000000000e+00 0.000000000000000e+00 0.000000000000000e+00

0.000000000000000e+00 0.000000000000000e+00 0.000000000000000e+00
0.000000000000000e+00 0.000000000000000e+00 0.000000000000000e+00
0.000000000000000e+00 0.000000000000000e+00 0.000000000000000e+00

0.000000000000000e+00 0.000000000000000e+00 0.000000000000000e+00
0.000000000000000e+00 0.000000000000000e+00 0.000000000000000e+00
0.000000000000000e+00 0.000000000000000e+00 0.000000000000000e+00

0.000000000000000e+00 0.000000000000000e+00 0.000000000000000e+00
0.000000000000000e+00 0.000000000000000e+00 0.000000000000000e+00
0.000000000000000e+00 0.000000000000000e+00 0.000000000000000e+00

0.000000000000000e+00 0.000000000000000e+00 0.000000000000000e+00
0.000000000000000e+00 0.000000000000000e+00 0.000000000000000e+00
0.000000000000000e+00 0.000000000000000e+00 0.000000000000000e+00

0.000000000000000e+00 0.000000000000000e+00 0.000000000000000e+00
0.000000000000000e+00 0.000000000000000e+00 0.000000000000000e+00
0.000000000000000e+00 0.000000000000000e+00 0.000000000000000e+00

0.000000000000000e+00 0.000000000000000e+00 0.000000000000000e+00
0.000000000000000e+00 0.000000000000000e+00 0.000000000000000e+00
0.000000000000000e+00 0.000000000000000e+00 0.000000000000000e+00

0.000000000000000e+00 0.000000000000000e+00 0.000000000000000e+00
0.000000000000000e+00 0.000000000000000e+00 0.000000000000000e+00
0.000000000000000e+00 0.000000000000000e+00 0.000000000000000e+00

0.000000000000000e+00 0.000000000000000e+00 0.000000000000000e+00
0.000000000000000e+00 0.000000000000000e+00 0.000000000000000e+00
0.000000000000000e+00 0.000000000000000e+00 0.000000000000000e+00

0.000000000000000e+00 0.000000000000000e+00 0.000000000000000e+00
0.000000000000000e+00 0.000000000000000e+00 0.000000000000000e+00
0.000000000000000e+00 0.000000000000000e+00 0.000000000000000e+00

0.000000000000000e+00 0.000000000000000e+00 0.000000000000000e+00
0.000000000000000e+00 0.000000000000000e+00 0.000000000000000e+00
0.000000000000000e+00 0.000000000000000e+00 0.000000000000000e+00

0.000000000000000e+00 0.000000000000000e+00 0.000000000000000e+00
0.000000000000000e+00 0.000000000000000e+00 0.000000000000000e+00
0.000000000000000e+00 0.000000000000000e+00 0.000000000000000e+00

0.000000000000000e+00 0.000000000000000e+00 0.000000000000000e+00
0.000000000000000e+00 0.000000000000000e+00 0.000000000000000e+00
0.000000000000000e+00 0.000000000000000e+00 0.000000000000000e+00

0.000000000000000e+00 0.000000000000000e+00 0.000000000000000e+00
0.000000000000000e+00 0.000000000000000e+00 0.000000000000000e+00
0.000000000000000e+00 0.000000000000000e+00 0.000000000000000e+00

0.000000000000000e+00 0.000000000000000e+00 0.000000000000000e+00
0.000000000000000e+00 0.000000000000000e+00 0.000000000000000e+00
0.000000000000000e+00 0.000000000000000e+00 0.000000000000000e+00

0.000000000000000e+00 0.000000000000000e+00 0.000000000000000e+00
0.000000000000000e+00 0.000000000000000e+00 0.000000000000000e+00
0.000000000000000e+00 0.000000000000000e+00 0.000000000000000e+00

0.000000000000000e+00 0.000000000000000e+00 0.000000000000000e+00
0.000000000000000e+00 0.000000000000000e+00 0.000000000000000e+00
0.000000000000000e+00 0.000000000000000e+00 0.000000000000000e+00

0.000000000000000e+00 0.000000000000000e+00 0.000000000000000e+00
0.000000000000000e+00 0.000000000000000e+00 0.000000000000000e+00
0.000000000000000e+00 0.000000000000000e+00 0.000000000000000e+00

0.000000000000000e+00 0.000000000000000e+00 0.000000000000000e+00
0.000000000000000e+00 0.000000000000000e+00 0.000000000000000e+00
0.000000000000000e+00 0.000000000000000e+00 0.000000000000000e+00

0.000000000000000e+00 0.000000000000000e+00 0.000000000000000e+00
0.000000000000000e+00 0.000000000000000e+00 0.000000000000000e+00
0.000000000000000e+00 0.000000000000000e+00 0.000000000000000e+00

0.000000000000000e+00 0.000000000000000e+00 0.000000000000000e+00
0.000000000000000e+00 0.000000000000000e+00 0.000000000000000e+00
0.000000000000000e+00 0.000000000000000e+00 0.000000000000000e+00

0.000000000000000e+00 0.000000000000000e+00 0.000000000000000e+00
0.000000000000000e+00 0.000000000000000e+00 0.000000000000000e+00
0.000000000000000e+00 0.000000000000000e+00 0.000000000000000e+00

0.000000000000000e+00 0.000000000000000e+00 0.000000000000000e+00
0.000000000000000e+00 0.000000000000000e+00 0.000000000000000e+00
0.000000000000000e+00 0.000000000000000e+00 0.000000000000000e+00

0.000000000000000e+00 0.000000000000000e+00 0.000000000000000e+00
0.000000000000000e+00 0.000000000000000e+00 0.000000000000000e+00
0.000000000000000e+00 0.000000000000000e+00 0.000000000000000e+00

0.000000000000000e+00 0.000000000000000e+00 0.000000000000000e+00
0.000000000000000e+00 0.000000000000000e+00 0.000000000000000e+00
0.000000000000000e+00 0.000000000000000e+00 0.000000000000000e+00

0.000000000000000e+00 0.000000000000000e+00 0.000000000000000e+00
0.000000000000000e+00 0.000000000000000e+00 0.000000000000000e+00
0.000000000000000e+00 0.000000000000000e+00 0.000000000000000e+00

0.000000000000000e+00 0.000000000000000e+00 0.000000000000000e+00
0.000000000000000e+00 0.000000000000000e+00 0.000000000000000e+00
0.000000000000000e+00 0.000000000000000e+00 0.000000000000000e+00

0.000000000000000e+00 0.000000000000000e+00 0.000000000000000e+00
0.000000000000000e+00 0.000000000000000e+00 0.000000000000000e+00
0.000000000000000e+00 0.000000000000000e+00 0.000000000000000e+00

0.000000000000000e+00 0.000000000000000e+00 0.000000000000000e+00
0.000000000000000e+00 0.000000000000000e+00 0.000000000000000e+00
0.000000000000000e+00 0.000000000000000e+00 0.000000000000000e+00

0.000000000000000e+00 0.000000000000000e+00 0.000000000000000e+00
0.000000000000000e+00 0.000000000000000e+00 0.000000000000000e+00
0.000000000000000e+00 0.000000000000000e+00 0.000000000000000e+00

0.000000000000000e+00 0.000000000000000e+00 0.000000000000000e+00
0.000000000000000e+00 0.000000000000000e+00 0.000000000000000e+00
0.000000000000000e+00 0.000000000000000e+00 0.000000000000000e+00

0.000000000000000e+00 0.000000000000000e+00 0.000000000000000e+00
0.000000000000000e+00 0.000000000000000e+00 0.000000000000000e+00
0.000000000000000e+00 0.000000000000000e+00 0.000000000000000e+00

0.000000000000000e+00 0.000000000000000e+00 0.000000000000000e+00
0.000000000000000e+00 0.000000000000000e+00 0.000000000000000e+00
0.000000000000000e+00 0.000000000000000e+00 0.000000000000000e+00

0.000000000000000e+00 0.000000000000000e+00 0.000000000000000e+00
0.000000000000000e+00 0.000000000000000e+00 0.000000000000000e+00
0.000000000000000e+00 0.000000000000000e+00 0.000000000000000e+00

0.000000000000000e+00 0.000000000000000e+00 0.000000000000000e+00
0.000000000000000e+00 0.000000000000000e+00 0.000000000000000e+00
0.000000000000000e+00 0.000000000000000e+00 0.000000000000000e+00

0.000000000000000e+00 0.000000000000000e+00 0.000000000000000e+00
0.000000000000000e+00 0.000000000000000e+00 0.000000000000000e+00
0.000000000000000e+00 0.000000000000000e+00 0.000000000000000e+00

0.000000000000000e+00 0.000000000000000e+00 0.000000000000000e+00
0.000000000000000e+00 0.000000000000000e+00 0.000000000000000e+00
0.000000000000000e+00 0.000000000000000e+00 0.000000000000000e+00

0.000000000000000e+00 0.000000000000000e+00 0.000000000000000e+00
0.000000000000000e+00 0.000000000000000e+00 0.000000000000000e+00
0.000000000000000e+00 0.000000000000000e+00 0.000000000000000e+00

0.000000000000000e+00 0.000000000000000e+00 0.000000000000000e+00
0.000000000000000e+00 0.000000000000000e+00 0.000000000000000e+00
0.000000000000000e+00 0.000000000000000e+00 0.000000000000000e+00

0.000000000000000e+00 0.000000000000000e+00 0.000000000000000e+00
0.000000000000000e+00 0.000000000000000e+00 0.000000000000000e+00
0.000000000000000e+00 0.000000000000000e+00 0.000000000000000e+00

0.000000000000000e+00 0.000000000000000e+00 0.000000000000000e+00
0.000000000000000e+00 0.000000000000000e+00 0.000000000000000e+00
0.000000000000000e+00 0.000000000000000e+00 0.000000000000000e+00

0.000000000000000e+00 0.000000000000000e+00 0.000000000000000e+00
0.000000000000000e+00 0.000000000000000e+00 0.000000000000000e+00
0.000000000000000e+00 0.000000000000000e+00 0.000000000000000e+00

0.000000000000000e+00 0.000000000000000e+00 0.000000000000000e+00
0.000000000000000e+00 0.000000000000000e+00 0.000000000000000e+00
0.000000000000000e+00 0.000000000000000e+00 0.000000000000000e+00

0.000000000000000e+00 0.000000000000000e+00 0.000000000000000e+00
0.000000000000000e+00 0.000000000000000e+00 0.000000000000000e+00
0.000000000000000e+00 0.000000000000000e+00 0.000000000000000e+00

0.000000000000000e+00 0.000000000000000e+00 0.000000000000000e+00
0.000000000000000e+00 0.000000000000000e+00 0.000000000000000e+00
0.000000000000000e+00 0.000000000000000e+00 0.000000000000000e+00

0.000000000000000e+00 0.000000000000000e+00 0.000000000000000e+00
0.000000000000000e+00 0.000000000000000e+00 0.000000000000000e+00
0.000000000000000e+00 0.000000000000000e+00 0.000000000000000e+00

0.000000000000000e+00 0.000000000000000e+00 0.000000000000000e+00
0.000000000000000e+00 0.000000000000000e+00 0.000000000000000e+00
0.000000000000000e+00 0.000000000000000e+00 0.000000000000000e+00

0.000000000000000e+00 0.000000000000000e+00 0.000000000000000e+00
0.000000000000000e+00 0.000000000000000e+00 0.000000000000000e+00
0.000000000000000e+00 0.000000000000000e+00 0.000000000000000e+00

0.000000000000000e+00 0.000000000000000e+00 0.000000000000000e+00
0.000000000000000e+00 0.000000000000000e+00 0.000000000000000e+00
0.000000000000000e+00 0.000000000000000e+00 0.000000000000000e+00

0.000000000000000e+00 0.000000000000000e+00 0.000000000000000e+00
0.000000000000000e+00 0.000000000000000e+00 0.000000000000000e+00
0.000000000000000e+00 0.000000000000000e+00 0.000000000000000e+00

0.000000000000000e+00 0.000000000000000e+00 0.000000000000000e+00
0.000000000000000e+00 0.000000000000000e+00 0.000000000000000e+00
0.000000000000000e+00 0.000000000000000e+00 0.000000000000000e+00

0.000000000000000e+00 0.000000000000000e+00 0.000000000000000e+00
0.000000000000000e+00 0.000000000000000e+00 0.000000000000000e+00
0.000000000000000e+00 0.000000000000000e+00 0.000000000000000e+00

0.000000000000000e+00 0.000000000000000e+00 0.000000000000000e+00
0.000000000000000e+00 0.000000000000000e+00 0.000000000000000e+00
0.000000000000000e+00 0.000000000000000e+00 0.000000000000000e+00

0.000000000000000e+00 0.000000000000000e+00 0.000000000000000e+00
0.000000000000000e+00 0.000000000000000e+00 0.000000000000000e+00
0.000000000000000e+00 0.000000000000000e+00 0.000000000000000e+00

0.000000000000000e+00 0.000000000000000e+00 0.000000000000000e+00
0.000000000000000e+00 0.000000000000000e+00 0.000000000000000e+00
0.000000000000000e+00 0.000000000000000e+00 0.000000000000000e+00

0.000000000000000e+00 0.000000000000000e+00 0.000000000000000e+00
0.000000000000000e+00 0.000000000000000e+00 0.000000000000000e+00
0.000000000000000e+00 0.000000000000000e+00 0.000000000000000e+00

0.000000000000000e+00 0.000000000000000e+00 0.000000000000000e+00
0.000000000000000e+00 0.000000000000000e+00 0.000000000000000e+00
0.000000000000000e+00 0.000000000000000e+00 0.000000000000000e+00

0.000000000000000e+00 0.000000000000000e+00 0.000000000000000e+00
0.000000000000000e+00 0.000000000000000e+00 0.000000000000000e+00
0.000000000000000e+00 0.000000000000000e+00 0.000000000000000e+00

0.000000000000000e+00 0.000000000000000e+00 0.000000000000000e+00
0.000000000000000e+00 0.000000000000000e+00 0.000000000000000e+00
0.000000000000000e+00 0.000000000000000e+00 0.000000000000000e+00

0.000000000000000e+00 0.000000000000000e+00 0.000000000000000e+00
0.000000000000000e+00 0.000000000000000e+00 0.000000000000000e+00
0.000000000000000e+00 0.000000000000000e+00 0.000000000000000e+00

0.000000000000000e+00 0.000000000000000e+00 0.000000000000000e+00
0.000000000000000e+00 0.000000000000000e+00 0.000000000000000e+00
0.000000000000000e+00 0.000000000000000e+00 0.000000000000000e+00

0.000000000000000e+00 0.000000000000000e+00 0.000000000000000e+00
0.000000000000000e+00 0.000000000000000e+00 0.000000000000000e+00
0.000000000000000e+00 0.000000000000000e+00 0.000000000000000e+00

0.000000000000000e+00 0.000000000000000e+00 0.000000000000000e+00
0.000000000000000e+00 0.000000000000000e+00 0.000000000000000e+00
0.000000000000000e+00 0.000000000000000e+00 0.000000000000000e+00

0.000000000000000e+00 0.000000000000000e+00 0.000000000000000e+00
0.000000000000000e+00 0.000000000000000e+00 0.000000000000000e+00
0.000000000000000e+00 0.000000000000000e+00 0.000000000000000e+00

0.000000000000000e+00 0.000000000000000e+00 0.000000000000000e+00
0.000000000000000e+00 0.000000000000000e+00 0.000000000000000e+00
0.000000000000000e+00 0.000000000000000e+00 0.000000000000000e+00

0.000000000000000e+00 0.000000000000000e+00 0.000000000000000e+00
0.000000000000000e+00 0.000000000000000e+00 0.000000000000000e+00
0.000000000000000e+00 0.000000000000000e+00 0.000000000000000e+00

0.000000000000000e+00 0.000000000000000e+00 0.000000000000000e+00
0.000000000000000e+00 0.000000000000000e+00 0.000000000000000e+00
0.000000000000000e+00 0.000000000000000e+00 0.000000000000000e+00

0.000000000000000e+00 0.000000000000000e+00 0.000000000000000e+00
0.000000000000000e+00 0.000000000000000e+00 0.000000000000000e+00
0.000000000000000e+00 0.000000000000000e+00 0.000000000000000e+00

0.000000000000000e+00 0.000000000000000e+00 0.000000000000000e+00
0.000000000000000e+00 0.000000000000000e+00 0.000000000000000e+00
0.000000000000000e+00 0.000000000000000e+00 0.000000000000000e+00

0.000000000000000e+00 0.000000000000000e+00 0.000000000000000e+00
0.000000000000000e+00 0.000000000000000e+00 0.000000000000000e+00
0.000000000000000e+00 0.000000000000000e+00 0.000000000000000e+00

0.000000000000000e+00 0.000000000000000e+00 0.000000000000000e+00
0.000000000000000e+00 0.000000000000000e+00 0.000000000000000e+00
0.000000000000000e+00 0.000000000000000e+00 0.000000000000000e+00

0.000000000000000e+00 0.000000000000000e+00 0.000000000000000e+00
0.000000000000000e+00 0.000000000000000e+00 0.000000000000000e+00
0.000000000000000e+00 0.000000000000000e+00 0.000000000000000e+00

0.000000000000000e+00 0.000000000000000e+00 0.000000000000000e+00
0.000000000000000e+00 0.000000000000000e+00 0.000000000000000e+00
0.000000000000000e+00 0.000000000000000e+00 0.000000000000000e+00

0.000000000000000e+00 0.000000000000000e+00 0.000000000000000e+00
0.000000000000000e+00 0.000000000000000e+00 0.000000000000000e+00
0.000000000000000e+00 0.000000000000000e+00 0.000000000000000e+00

0.000000000000000e+00 0.000000000000000e+00 0.000000000000000e+00
0.000000000000000e+00 0.000000000000000e+00 0.000000000000000e+00
0.000000000000000e+00 0.000000000000000e+00 0.000000000000000e+00

0.000000000000000e+00 0.000000000000000e+00 0.000000000000000e+00
0.000000000000000e+00 0.000000000000000e+00 0.000000000000000e+00
0.000000000000000e+00 0.000000000000000e+00 0.000000000000000e+00

0.000000000000000e+00 0.000000000000000e+00 0.000000000000000e+00
0.000000000000000e+00 0.000000000000000e+00 0.000000000000000e+00
0.000000000000000e+00 0.000000000000000e+00 0.000000000000000e+00

0.000000000000000e+00 0.000000000000000e+00 0.000000000000000e+00
0.000000000000000e+00 0.000000000000000e+00 0.000000000000000e+00
0.000000000000000e+00 0.000000000000000e+00 0.000000000000000e+00

0.000000000000000e+00 0.000000000000000e+00 0.000000000000000e+00
0.000000000000000e+00 0.000000000000000e+00 0.000000000000000e+00
0.000000000000000e+00 0.000000000000000e+00 0.000000000000000e+00

0.000000000000000e+00 0.000000000000000e+00 0.000000000000000e+00
0.000000000000000e+00 0.000000000000000e+00 0.000000000000000e+00
0.000000000000000e+00 0.000000000000000e+00 0.000000000000000e+00

0.000000000000000e+00 0.000000000000000e+00 0.000000000000000e+00
0.000000000000000e+00 0.000000000000000e+00 0.000000000000000e+00
0.000000000000000e+00 0.000000000000000e+00 0.000000000000000e+00

0.000000000000000e+00 0.000000000000000e+00 0.000000000000000e+00
0.000000000000000e+00 0.000000000000000e+00 0.000000000000000e+00
0.000000000000000e+00 0.000000000000000e+00 0.000000000000000e+00

0.000000000000000e+00 0.000000000000000e+00 0.000000000000000e+00
0.000000000000000e+00 0.000000000000000e+00 0.000000000000000e+00
0.000000000000000e+00 0.000000000000000e+00 0.000000000000000e+00

0.000000000000000e+00 0.000000000000000e+00 0.000000000000000e+00
0.000000000000000e+00 0.000000000000000e+00 0.000000000000000e+00
0.000000000000000e+00 0.000000000000000e+00 0.000000000000000e+00

0.000000000000000e+00 0.000000000000000e+00 0.000000000000000e+00
0.000000000000000e+00 0.000000000000000e+00 0.000000000000000e+00
0.000000000000000e+00 0.000000000000000e+00 0.000000000000000e+00

0.000000000000000e+00 0.000000000000000e+00 0.000000000000000e+00
0.000000000000000e+00 0.000000000000000e+00 0.000000000000000e+00
0.000000000000000e+00 0.000000000000000e+00 0.000000000000000e+00

0.000000000000000e+00 0.000000000000000e+00 0.000000000000000e+00
0.000000000000000e+00 0.000000000000000e+00 0.000000000000000e+00
0.000000000000000e+00 0.000000000000000e+00 0.000000000000000e+00

0.000000000000000e+00 0.000000000000000e+00 0.000000000000000e+00
0.000000000000000e+00 0.000000000000000e+00 0.000000000000000e+00
0.000000000000000e+00 0.000000000000000e+00 0.000000000000000e+00

0.000000000000000e+00 0.000000000000000e+00 0.000000000000000e+00
0.000000000000000e+00 0.000000000000000e+00 0.000000000000000e+00
0.000000000000000e+00 0.000000000000000e+00 0.000000000000000e+00

0.000000000000000e+00 0.000000000000000e+00 0.000000000000000e+00
0.000000000000000e+00 0.000000000000000e+00 0.000000000000000e+00
0.000000000000000e+00 0.000000000000000e+00 0.000000000000000e+00

0.000000000000000e+00 0.000000000000000e+00 0.000000000000000e+00
0.000000000000000e+00 0.000000000000000e+00 0.000000000000000e+00
0.000000000000000e+00 0.000000000000000e+00 0.000000000000000e+00

0.000000000000000e+00 0.000000000000000e+00 0.000000000000000e+00
0.000000000000000e+00 0.000000000000000e+00 0.000000000000000e+00
0.000000000000000e+00 0.000000000000000e+00 0.000000000000000e+00

0.000000000000000e+00 0.000000000000000e+00 0.000000000000000e+00
0.000000000000000e+00 0.000000000000000e+00 0.000000000000000e+00
0.000000000000000e+00 0.000000000000000e+00 0.000000000000000e+00

0.000000000000000e+00 0.000000000000000e+00 0.000000000000000e+00
0.000000000000000e+00 0.000000000000000e+00 0.000000000000000e+00
0.000000000000000e+00 0.000000000000000e+00 0.000000000000000e+00

0.000000000000000e+00 0.000000000000000e+00 0.000000000000000e+00
0.000000000000000e+00 0.000000000000000e+00 0.000000000000000e+00
0.000000000000000e+00 0.000000000000000e+00 0.000000000000000e+00

0.000000000000000e+00 0.000000000000000e+00 0.000000000000000e+00
0.000000000000000e+00 0.000000000000000e+00 0.000000000000000e+00
0.000000000000000e+00 0.000000000000000e+00 0.000000000000000e+00

0.000000000000000e+00 0.000000000000000e+00 0.000000000000000e+00
0.000000000000000e+00 0.000000000000000e+00 0.000000000000000e+00
0.000000000000000e+00 0.000000000000000e+00 0.000000000000000e+00

0.000000000000000e+00 0.000000000000000e+00 0.000000000000000e+00
0.000000000000000e+00 0.000000000000000e+00 0.000000000000000e+00
0.000000000000000e+00 0.000000000000000e+00 0.000000000000000e+00

0.000000000000000e+00 0.000000000000000e+00 0.000000000000000e+00
0.000000000000000e+00 0.000000000000000e+00 0.000000000000000e+00
0.000000000000000e+00 0.000000000000000e+00 0.000000000000000e+00

0.000000000000000e+00 0.000000000000000e+00 0.000000000000000e+00
0.000000000000000e+00 0.000000000000000e+00 0.000000000000000e+00
0.000000000000000e+00 0.000000000000000e+00 0.000000000000000e+00

0.000000000000000e+00 0.000000000000000e+00 0.000000000000000e+00
0.000000000000000e+00 0.000000000000000e+00 0.000000000000000e+00
0.000000000000000e+00 0.000000000000000e+00 0.000000000000000e+00

0.000000000000000e+00 0.000000000000000e+00 0.000000000000000e+00
0.000000000000000e+00 0.000000000000000e+00 0.000000000000000e+00
0.000000000000000e+00 0.000000000000000e+00 0.000000000000000e+00

0.000000000000000e+00 0.000000000000000e+00 0.000000000000000e+00
0.000000000000000e+00 0.000000000000000e+00 0.000000000000000e+00
0.000000000000000e+00 0.000000000000000e+00 0.000000000000000e+00

0.000000000000000e+00 0.000000000000000e+00 0.000000000000000e+00
0.000000000000000e+00 0.000000000000000e+00 0.000000000000000e+00
0.000000000000000e+00 0.000000000000000e+00 0.000000000000000e+00

0.000000000000000e+00 0.000000000000000e+00 0.000000000000000e+00
0.000000000000000e+00 0.000000000000000e+00 0.000000000000000e+00
0.000000000000000e+00 0.000000000000000e+00 0.000000000000000e+00

0.000000000000000e+00 0.000000000000000e+00 0.000000000000000e+00
0.000000000000000e+00 0.000000000000000e+00 0.000000000000000e+00
0.000000000000000e+00 0.000000000000000e+00 0.000000000000000e+00

0.000000000000000e+00 0.000000000000000e+00 0.000000000000000e+00
0.000000000000000e+00 0.000000000000000e+00 0.000000000000000e+00
0.000000000000000e+00 0.000000000000000e+00 0.000000000000000e+00

0.000000000000000e+00 0.000000000000000e+00 0.000000000000000e+00
0.000000000000000e+00 0.000000000000000e+00 0.000000000000000e+00
0.000000000000000e+00 0.000000000000000e+00 0.000000000000000e+00

0.000000000000000e+00 0.000000000000000e+00 0.000000000000000e+00
0.000000000000000e+00 0.000000000000000e+00 0.000000000000000e+00
0.000000000000000e+00 0.000000000000000e+00 0.000000000000000e+00

0.000000000000000e+00 0.000000000000000e+00 0.000000000000000e+00
0.000000000000000e+00 0.000000000000000e+00 0.000000000000000e+00
0.000000000000000e+00 0.000000000000000e+00 0.000000000000000e+00

0.000000000000000e+00 0.000000000000000e+00 0.000000000000000e+00
0.000000000000000e+00 0.000000000000000e+00 0.000000000000000e+00
0.000000000000000e+00 0.000000000000000e+00 0.000000000000000e+00

0.000000000000000e+00 0.000000000000000e+00 0.000000000000000e+00
0.000000000000000e+00 0.000000000000000e+00 0.000000000000000e+00
0.000000000000000e+00 0.000000000000000e+00 0.000000000000000e+00

0.000000000000000e+00 0.000000000000000e+00 0.000000000000000e+00
0.000000000000000e+00 0.000000000000000e+00 0.000000000000000e+00
0.000000000000000e+00 0.000000000000000e+00 0.000000000000000e+00

0.000000000000000e+00 0.000000000000000e+00 0.000000000000000e+00
0.000000000000000e+00 0.000000000000000e+00 0.000000000000000e+00
0.000000000000000e+00 0.000000000000000e+00 0.000000000000000e+00

0.000000000000000e+00 0.000000000000000e+00 0.000000000000000e+00
0.000000000000000e+00 0.000000000000000e+00 0.000000000000000e+00
0.000000000000000e+00 0.000000000000000e+00 0.000000000000000e+00

0.000000000000000e+00 0.000000000000000e+00 0.000000000000000e+00
0.000000000000000e+00 0.000000000000000e+00 0.000000000000000e+00
0.000000000000000e+00 0.000000000000000e+00 0.000000000000000e+00

0.000000000000000e+00 0.000000000000000e+00 0.000000000000000e+00
0.000000000000000e+00 0.000000000000000e+00 0.000000000000000e+00
0.000000000000000e+00 0.000000000000000e+00 0.000000000000000e+00

0.000000000000000e+00 0.000000000000000e+00 0.000000000000000e+00
0.000000000000000e+00 0.000000000000000e+00 0.000000000000000e+00
0.000000000000000e+00 0.000000000000000e+00 0.000000000000000e+00

0.000000000000000e+00 0.000000000000000e+00 0.000000000000000e+00
0.000000000000000e+00 0.000000000000000e+00 0.000000000000000e+00
0.000000000000000e+00 0.000000000000000e+00 0.000000000000000e+00

0.000000000000000e+00 0.000000000000000e+00 0.000000000000000e+00
0.000000000000000e+00 0.000000000000000e+00 0.000000000000000e+00
0.000000000000000e+00 0.000000000000000e+00 0.000000000000000e+00

0.000000000000000e+00 0.000000000000000e+00 0.000000000000000e+00
0.000000000000000e+00 0.000000000000000e+00 0.000000000000000e+00
0.000000000000000e+00 0.000000000000000e+00 0.000000000000000e+00

0.000000000000000e+00 0.000000000000000e+00 0.000000000000000e+00
0.000000000000000e+00 0.000000000000000e+00 0.000000000000000e+00
0.000000000000000e+00 0.000000000000000e+00 0.000000000000000e+00

0.000000000000000e+00 0.000000000000000e+00 0.000000000000000e+00
0.000000000000000e+00 0.000000000000000e+00 0.000000000000000e+00
0.000000000000000e+00 0.000000000000000e+00 0.000000000000000e+00

0.000000000000000e+00 0.000000000000000e+00 0.000000000000000e+00
0.000000000000000e+00 0.000000000000000e+00 0.000000000000000e+00
0.000000000000000e+00 0.000000000000000e+00 0.000000000000000e+00

0.000000000000000e+00 0.000000000000000e+00 0.000000000000000e+00
0.000000000000000e+00 0.000000000000000e+00 0.000000000000000e+00
0.000000000000000e+00 0.000000000000000e+00 0.000000000000000e+00

0.000000000000000e+00 0.000000000000000e+00 0.000000000000000e+00
0.000000000000000e+00 0.000000000000000e+00 0.000000000000000e+00
0.000000000000000e+00 0.000000000000000e+00 0.000000000000000e+00

0.000000000000000e+00 0.000000000000000e+00 0.000000000000000e+00
0.000000000000000e+00 0.000000000000000e+00 0.000000000000000e+00
0.000000000000000e+00 0.000000000000000e+00 0.000000000000000e+00

0.000000000000000e+00 0.000000000000000e+00 0.000000000000000e+00
0.000000000000000e+00 0.000000000000000e+00 0.000000000000000e+00
0.000000000000000e+00 0.000000000000000e+00 0.000000000000000e+00

0.000000000000000e+00 0.000000000000000e+00 0.000000000000000e+00
0.000000000000000e+00 0.000000000000000e+00 0.000000000000000e+00
0.000000000000000e+00 0.000000000000000e+00 0.000000000000000e+00

0.000000000000000e+00 0.000000000000000e+00 0.000000000000000e+00
0.000000000000000e+00 0.000000000000000e+00 0.000000000000000e+00
0.000000000000000e+00 0.000000000000000e+00 0.000000000000000e+00

0.000000000000000e+00 0.000000000000000e+00 0.000000000000000e+00
0.000000000000000e+00 0.000000000000000e+00 0.000000000000000e+00
0.000000000000000e+00 0.000000000000000e+00 0.000000000000000e+00

0.000000000000000e+00 0.000000000000000e+00 0.000000000000000e+00
0.000000000000000e+00 0.000000000000000e+00 0.000000000000000e+00
0.000000000000000e+00 0.000000000000000e+00 0.000000000000000e+00

0.000000000000000e+00 0.000000000000000e+00 0.000000000000000e+00
0.000000000000000e+00 0.000000000000000e+00 0.000000000000000e+00
0.000000000000000e+00 0.000000000000000e+00 0.000000000000000e+00

0.000000000000000e+00 0.000000000000000e+00 0.000000000000000e+00
0.000000000000000e+00 0.000000000000000e+00 0.000000000000000e+00
0.000000000000000e+00 0.000000000000000e+00 0.000000000000000e+00

0.000000000000000e+00 0.000000000000000e+00 0.000000000000000e+00
0.000000000000000e+00 0.000000000000000e+00 0.000000000000000e+00
0.000000000000000e+00 0.000000000000000e+00 0.000000000000000e+00

0.000000000000000e+00 0.000000000000000e+00 0.000000000000000e+00
0.000000000000000e+00 0.000000000000000e+00 0.000000000000000e+00
0.000000000000000e+00 0.000000000000000e+00 0.000000000000000e+00

0.000000000000000e+00 0.000000000000000e+00 0.000000000000000e+00
0.000000000000000e+00 0.000000000000000e+00 0.000000000000000e+00
0.000000000000000e+00 0.000000000000000e+00 0.000000000000000e+00

0.000000000000000e+00 0.000000000000000e+00 0.000000000000000e+00
0.000000000000000e+00 0.000000000000000e+00 0.000000000000000e+00
0.000000000000000e+00 0.000000000000000e+00 0.000000000000000e+00

0.000000000000000e+00 0.000000000000000e+00 0.000000000000000e+00
0.000000000000000e+00 0.000000000000000e+00 0.000000000000000e+00
0.000000000000000e+00 0.000000000000000e+00 0.000000000000000e+00

0.000000000000000e+00 0.000000000000000e+00 0.000000000000000e+00
0.000000000000000e+00 0.000000000000000e+00 0.000000000000000e+00
0.000000000000000e+00 0.000000000000000e+00 0.000000000000000e+00

0.000000000000000e+00 0.000000000000000e+00 0.000000000000000e+00
0.000000000000000e+00 0.000000000000000e+00 0.000000000000000e+00
0.000000000000000e+00 0.000000000000000e+00 0.000000000000000e+00

0.000000000000000e+00 0.000000000000000e+00 0.000000000000000e+00
0.000000000000000e+00 0.000000000000000e+00 0.000000000000000e+00
0.000000000000000e+00 0.000000000000000e+00 0.000000000000000e+00

0.000000000000000e+00 0.000000000000000e+00 0.000000000000000e+00
0.000000000000000e+00 0.000000000000000e+00 0.000000000000000e+00
0.000000000000000e+00 0.000000000000000e+00 0.000000000000000e+00

0.000000000000000e+00 0.000000000000000e+00 0.000000000000000e+00
0.000000000000000e+00 0.000000000000000e+00 0.000000000000000e+00
0.000000000000000e+00 0.000000000000000e+00 0.000000000000000e+00

0.000000000000000e+00 0.000000000000000e+00 0.000000000000000e+00
0.000000000000000e+00 0.000000000000000e+00 0.000000000000000e+00
0.000000000000000e+00 0.000000000000000e+00 0.000000000000000e+00

0.000000000000000e+00 0.000000000000000e+00 0.000000000000000e+00
0.000000000000000e+00 0.000000000000000e+00 0.000000000000000e+00
0.000000000000000e+00 0.000000000000000e+00 0.000000000000000e+00

0.000000000000000e+00 0.000000000000000e+00 0.000000000000000e+00
0.000000000000000e+00 0.000000000000000e+00 0.000000000000000e+00
0.000000000000000e+00 0.000000000000000e+00 0.000000000000000e+00

0.000000000000000e+00 0.000000000000000e+00 0.000000000000000e+00
0.000000000000000e+00 0.000000000000000e+00 0.000000000000000e+00
0.000000000000000e+00 0.000000000000000e+00 0.000000000000000e+00

0.000000000000000e+00 0.000000000000000e+00 0.000000000000000e+00
0.000000000000000e+00 0.000000000000000e+00 0.000000000000000e+00
0.000000000000000e+00 0.000000000000000e+00 0.000000000000000e+00

0.000000000000000e+00 0.000000000000000e+00 0.000000000000000e+00
0.000000000000000e+00 0.000000000000000e+00 0.000000000000000e+00
0.000000000000000e+00 0.000000000000000e+00 0.000000000000000e+00

0.000000000000000e+00 0.000000000000000e+00 0.000000000000000e+00
0.000000000000000e+00 0.000000000000000e+00 0.000000000000000e+00
0.000000000000000e+00 0.000000000000000e+00 0.000000000000000e+00

0.000000000000000e+00 0.000000000000000e+00 0.000000000000000e+00
0.000000000000000e+00 0.000000000000000e+00 0.000000000000000e+00
0.000000000000000e+00 0.000000000000000e+00 0.000000000000000e+00

0.000000000000000e+00 0.000000000000000e+00 0.000000000000000e+00
0.000000000000000e+00 0.000000000000000e+00 0.000000000000000e+00
0.000000000000000e+00 0.000000000000000e+00 0.000000000000000e+00

0.000000000000000e+00 0.000000000000000e+00 0.000000000000000e+00
0.000000000000000e+00 0.000000000000000e+00 0.000000000000000e+00
0.000000000000000e+00 0.000000000000000e+00 0.000000000000000e+00

0.000000000000000e+00 0.000000000000000e+00 0.000000000000000e+00
0.000000000000000e+00 0.000000000000000e+00 0.000000000000000e+00
0.000000000000000e+00 0.000000000000000e+00 0.000000000000000e+00

0.000000000000000e+00 0.000000000000000e+00 0.000000000000000e+00
0.000000000000000e+00 0.000000000000000e+00 0.000000000000000e+00
0.000000000000000e+00 0.000000000000000e+00 0.000000000000000e+00

0.000000000000000e+00 0.000000000000000e+00 0.000000000000000e+00
0.000000000000000e+00 0.000000000000000e+00 0.000000000000000e+00
0.000000000000000e+00 0.000000000000000e+00 0.000000000000000e+00

0.000000000000000e+00 0.000000000000000e+00 0.000000000000000e+00
0.000000000000000e+00 0.000000000000000e+00 0.000000000000000e+00
0.000000000000000e+00 0.000000000000000e+00 0.000000000000000e+00

0.000000000000000e+00 0.000000000000000e+00 0.000000000000000e+00
0.000000000000000e+00 0.000000000000000e+00 0.000000000000000e+00
0.000000000000000e+00 0.000000000000000e+00 0.000000000000000e+00

0.000000000000000e+00 0.000000000000000e+00 0.000000000000000e+00
0.000000000000000e+00 0.000000000000000e+00 0.000000000000000e+00
0.000000000000000e+00 0.000000000000000e+00 0.000000000000000e+00

0.000000000000000e+00 0.000000000000000e+00 0.000000000000000e+00
0.000000000000000e+00 0.000000000000000e+00 0.000000000000000e+00
0.000000000000000e+00 0.000000000000000e+00 0.000000000000000e+00

0.000000000000000e+00 0.000000000000000e+00 0.000000000000000e+00
0.000000000000000e+00 0.000000000000000e+00 0.000000000000000e+00
0.000000000000000e+00 0.000000000000000e+00 0.000000000000000e+00

0.000000000000000e+00 0.000000000000000e+00 0.000000000000000e+00
0.000000000000000e+00 0.000000000000000e+00 0.000000000000000e+00
0.000000000000000e+00 0.000000000000000e+00 0.000000000000000e+00

0.000000000000000e+00 0.000000000000000e+00 0.000000000000000e+00
0.000000000000000e+00 0.000000000000000e+00 0.000000000000000e+00
0.000000000000000e+00 0.000000000000000e+00 0.000000000000000e+00

0.000000000000000e+00 0.000000000000000e+00 0.000000000000000e+00
0.000000000000000e+00 0.000000000000000e+00 0.000000000000000e+00
0.000000000000000e+00 0.000000000000000e+00 0.000000000000000e+00

0.000000000000000e+00 0.000000000000000e+00 0.000000000000000e+00
0.000000000000000e+00 0.000000000000000e+00 0.000000000000000e+00
0.000000000000000e+00 0.000000000000000e+00 0.000000000000000e+00

0.000000000000000e+00 0.000000000000000e+00 0.000000000000000e+00
0.000000000000000e+00 0.000000000000000e+00 0.000000000000000e+00
0.000000000000000e+00 0.000000000000000e+00 0.000000000000000e+00

0.000000000000000e+00 0.000000000000000e+00 0.000000000000000e+00
0.000000000000000e+00 0.000000000000000e+00 0.000000000000000e+00
0.000000000000000e+00 0.000000000000000e+00 0.000000000000000e+00

0.000000000000000e+00 0.000000000000000e+00 0.000000000000000e+00
0.000000000000000e+00 0.000000000000000e+00 0.000000000000000e+00
0.000000000000000e+00 0.000000000000000e+00 0.000000000000000e+00

0.000000000000000e+00 0.000000000000000e+00 0.000000000000000e+00
0.000000000000000e+00 0.000000000000000e+00 0.000000000000000e+00
0.000000000000000e+00 0.000000000000000e+00 0.000000000000000e+00

0.000000000000000e+00 0.000000000000000e+00 0.000000000000000e+00
0.000000000000000e+00 0.000000000000000e+00 0.000000000000000e+00
0.000000000000000e+00 0.000000000000000e+00 0.000000000000000e+00

0.000000000000000e+00 0.000000000000000e+00 0.000000000000000e+00
0.000000000000000e+00 0.000000000000000e+00 0.000000000000000e+00
0.000000000000000e+00 0.000000000000000e+00 0.000000000000000e+00

0.000000000000000e+00 0.000000000000000e+00 0.000000000000000e+00
0.000000000000000e+00 0.000000000000000e+00 0.000000000000000e+00
0.000000000000000e+00 0.000000000000000e+00 0.000000000000000e+00

0.000000000000000e+00 0.000000000000000e+00 0.000000000000000e+00
0.000000000000000e+00 0.000000000000000e+00 0.000000000000000e+00
0.000000000000000e+00 0.000000000000000e+00 0.000000000000000e+00

0.000000000000000e+00 0.000000000000000e+00 0.000000000000000e+00
0.000000000000000e+00 0.000000000000000e+00 0.000000000000000e+00
0.000000000000000e+00 0.000000000000000e+00 0.000000000000000e+00

0.000000000000000e+00 0.000000000000000e+00 0.000000000000000e+00
0.000000000000000e+00 0.000000000000000e+00 0.000000000000000e+00
0.000000000000000e+00 0.000000000000000e+00 0.000000000000000e+00

0.000000000000000e+00 0.000000000000000e+00 0.000000000000000e+00
0.000000000000000e+00 0.000000000000000e+00 0.000000000000000e+00
0.000000000000000e+00 0.000000000000000e+00 0.000000000000000e+00

0.000000000000000e+00 0.000000000000000e+00 0.000000000000000e+00
0.000000000000000e+00 0.000000000000000e+00 0.000000000000000e+00
0.000000000000000e+00 0.000000000000000e+00 0.000000000000000e+00

0.000000000000000e+00 0.000000000000000e+00 0.000000000000000e+00
0.000000000000000e+00 0.000000000000000e+00 0.000000000000000e+00
0.000000000000000e+00 0.000000000000000e+00 0.000000000000000e+00

0.000000000000000e+00 0.000000000000000e+00 0.000000000000000e+00
0.000000000000000e+00 0.000000000000000e+00 0.000000000000000e+00
0.000000000000000e+00 0.000000000000000e+00 0.000000000000000e+00

0.000000000000000e+00 0.000000000000000e+00 0.000000000000000e+00
0.000000000000000e+00 0.000000000000000e+00 0.000000000000000e+00
0.000000000000000e+00 0.000000000000000e+00 0.000000000000000e+00

0.000000000000000e+00 0.000000000000000e+00 0.000000000000000e+00
0.000000000000000e+00 0.000000000000000e+00 0.000000000000000e+00
0.000000000000000e+00 0.000000000000000e+00 0.000000000000000e+00

0.000000000000000e+00 0.000000000000000e+00 0.000000000000000e+00
0.000000000000000e+00 0.000000000000000e+00 0.000000000000000e+00
0.000000000000000e+00 0.000000000000000e+00 0.000000000000000e+00

0.000000000000000e+00 0.000000000000000e+00 0.000000000000000e+00
0.000000000000000e+00 0.000000000000000e+00 0.000000000000000e+00
0.000000000000000e+00 0.000000000000000e+00 0.000000000000000e+00

0.000000000000000e+00 0.000000000000000e+00 0.000000000000000e+00
0.000000000000000e+00 0.000000000000000e+00 0.000000000000000e+00
0.000000000000000e+00 0.000000000000000e+00 0.000000000000000e+00

0.000000000000000e+00 0.000000000000000e+00 0.000000000000000e+00
0.000000000000000e+00 0.000000000000000e+00 0.000000000000000e+00
0.000000000000000e+00 0.000000000000000e+00 0.000000000000000e+00

0.000000000000000e+00 0.000000000000000e+00 0.000000000000000e+00
0.000000000000000e+00 0.000000000000000e+00 0.000000000000000e+00
0.000000000000000e+00 0.000000000000000e+00 0.000000000000000e+00

0.000000000000000e+00 0.000000000000000e+00 0.000000000000000e+00
0.000000000000000e+00 0.000000000000000e+00 0.000000000000000e+00
0.000000000000000e+00 0.000000000000000e+00 0.000000000000000e+00

0.000000000000000e+00 0.000000000000000e+00 0.000000000000000e+00
0.000000000000000e+00 0.000000000000000e+00 0.000000000000000e+00
0.000000000000000e+00 0.000000000000000e+00 0.000000000000000e+00

0.000000000000000e+00 0.000000000000000e+00 0.000000000000000e+00
0.000000000000000e+00 0.000000000000000e+00 0.000000000000000e+00
0.000000000000000e+00 0.000000000000000e+00 0.000000000000000e+00

0.000000000000000e+00 0.000000000000000e+00 0.000000000000000e+00
0.000000000000000e+00 0.000000000000000e+00 0.000000000000000e+00
0.000000000000000e+00 0.000000000000000e+00 0.000000000000000e+00

0.000000000000000e+00 0.000000000000000e+00 0.000000000000000e+00
0.000000000000000e+00 0.000000000000000e+00 0.000000000000000e+00
0.000000000000000e+00 0.000000000000000e+00 0.000000000000000e+00

0.000000000000000e+00 0.000000000000000e+00 0.000000000000000e+00
0.000000000000000e+00 0.000000000000000e+00 0.000000000000000e+00
0.000000000000000e+00 0.000000000000000e+00 0.000000000000000e+00

0.000000000000000e+00 0.000000000000000e+00 0.000000000000000e+00
0.000000000000000e+00 0.000000000000000e+00 0.000000000000000e+00
0.000000000000000e+00 0.000000000000000e+00 0.000000000000000e+00

0.000000000000000e+00 0.000000000000000e+00 0.000000000000000e+00
0.000000000000000e+00 0.000000000000000e+00 0.000000000000000e+00
0.000000000000000e+00 0.000000000000000e+00 0.000000000000000e+00

0.000000000000000e+00 0.000000000000000e+00 0.000000000000000e+00
0.000000000000000e+00 0.000000000000000e+00 0.000000000000000e+00
0.000000000000000e+00 0.000000000000000e+00 0.000000000000000e+00

0.000000000000000e+00 0.000000000000000e+00 0.000000000000000e+00
0.000000000000000e+00 0.000000000000000e+00 0.000000000000000e+00
0.000000000000000e+00 0.000000000000000e+00 0.000000000000000e+00

0.000000000000000e+00 0.000000000000000e+00 0.000000000000000e+00
0.000000000000000e+00 0.000000000000000e+00 0.000000000000000e+00
0.000000000000000e+00 0.000000000000000e+00 0.000000000000000e+00

0.000000000000000e+00 0.000000000000000e+00 0.000000000000000e+00
0.000000000000000e+00 0.000000000000000e+00 0.000000000000000e+00
0.000000000000000e+00 0.000000000000000e+00 0.000000000000000e+00

0.000000000000000e+00 0.000000000000000e+00 0.000000000000000e+00
0.000000000000000e+00 0.000000000000000e+00 0.000000000000000e+00
0.000000000000000e+00 0.000000000000000e+00 0.000000000000000e+00

0.000000000000000e+00 0.000000000000000e+00 0.000000000000000e+00
0.000000000000000e+00 0.000000000000000e+00 0.000000000000000e+00
0.000000000000000e+00 0.000000000000000e+00 0.000000000000000e+00

0.000000000000000e+00 0.000000000000000e+00 0.000000000000000e+00
0.000000000000000e+00 0.000000000000000e+00 0.000000000000000e+00
0.000000000000000e+00 0.000000000000000e+00 0.000000000000000e+00

0.000000000000000e+00 0.000000000000000e+00 0.000000000000000e+00
0.000000000000000e+00 0.000000000000000e+00 0.000000000000000e+00
0.000000000000000e+00 0.000000000000000e+00 0.000000000000000e+00

0.000000000000000e+00 0.000000000000000e+00 0.000000000000000e+00
0.000000000000000e+00 0.000000000000000e+00 0.000000000000000e+00
0.000000000000000e+00 0.000000000000000e+00 0.000000000000000e+00

0.000000000000000e+00 0.000000000000000e+00 0.000000000000000e+00
0.000000000000000e+00 0.000000000000000e+00 0.000000000000000e+00
0.000000000000000e+00 0.000000000000000e+00 0.000000000000000e+00

0.000000000000000e+00 0.000000000000000e+00 0.000000000000000e+00
0.000000000000000e+00 0.000000000000000e+00 0.000000000000000e+00
0.000000000000000e+00 0.000000000000000e+00 0.000000000000000e+00

0.000000000000000e+00 0.000000000000000e+00 0.000000000000000e+00
0.000000000000000e+00 0.000000000000000e+00 0.000000000000000e+00
0.000000000000000e+00 0.000000000000000e+00 0.000000000000000e+00

0.000000000000000e+00 0.000000000000000e+00 0.000000000000000e+00
0.000000000000000e+00 0.000000000000000e+00 0.000000000000000e+00
0.000000000000000e+00 0.000000000000000e+00 0.000000000000000e+00

0.000000000000000e+00 0.000000000000000e+00 0.000000000000000e+00
0.000000000000000e+00 0.000000000000000e+00 0.000000000000000e+00
0.000000000000000e+00 0.000000000000000e+00 0.000000000000000e+00

0.000000000000000e+00 0.000000000000000e+00 0.000000000000000e+00
0.000000000000000e+00 0.000000000000000e+00 0.000000000000000e+00
0.000000000000000e+00 0.000000000000000e+00 0.000000000000000e+00

0.000000000000000e+00 0.000000000000000e+00 0.000000000000000e+00
0.000000000000000e+00 0.000000000000000e+00 0.000000000000000e+00
0.000000000000000e+00 0.000000000000000e+00 0.000000000000000e+00

0.000000000000000e+00 0.000000000000000e+00 0.000000000000000e+00
0.000000000000000e+00 0.000000000000000e+00 0.000000000000000e+00
0.000000000000000e+00 0.000000000000000e+00 0.000000000000000e+00

0.000000000000000e+00 0.000000000000000e+00 0.000000000000000e+00
0.000000000000000e+00 0.000000000000000e+00 0.000000000000000e+00
0.000000000000000e+00 0.000000000000000e+00 0.000000000000000e+00

0.000000000000000e+00 0.000000000000000e+00 0.000000000000000e+00
0.000000000000000e+00 0.000000000000000e+00 0.000000000000000e+00
0.000000000000000e+00 0.000000000000000e+00 0.000000000000000e+00

0.000000000000000e+00 0.000000000000000e+00 0.000000000000000e+00
0.000000000000000e+00 0.000000000000000e+00 0.000000000000000e+00
0.000000000000000e+00 0.000000000000000e+00 0.000000000000000e+00

0.000000000000000e+00 0.000000000000000e+00 0.000000000000000e+00
0.000000000000000e+00 0.000000000000000e+00 0.000000000000000e+00
0.000000000000000e+00 0.000000000000000e+00 0.000000000000000e+00

0.000000000000000e+00 0.000000000000000e+00 0.000000000000000e+00
0.000000000000000e+00 0.000000000000000e+00 0.000000000000000e+00
0.000000000000000e+00 0.000000000000000e+00 0.000000000000000e+00

0.000000000000000e+00 0.000000000000000e+00 0.000000000000000e+00
0.000000000000000e+00 0.000000000000000e+00 0.000000000000000e+00
0.000000000000000e+00 0.000000000000000e+00 0.000000000000000e+00

0.000000000000000e+00 0.000000000000000e+00 0.000000000000000e+00
0.000000000000000e+00 0.000000000000000e+00 0.000000000000000e+00
0.000000000000000e+00 0.000000000000000e+00 0.000000000000000e+00

0.000000000000000e+00 0.000000000000000e+00 0.000000000000000e+00
0.000000000000000e+00 0.000000000000000e+00 0.000000000000000e+00
0.000000000000000e+00 0.000000000000000e+00 0.000000000000000e+00

0.000000000000000e+00 0.000000000000000e+00 0.000000000000000e+00
0.000000000000000e+00 0.000000000000000e+00 0.000000000000000e+00
0.000000000000000e+00 0.000000000000000e+00 0.000000000000000e+00

0.000000000000000e+00 0.000000000000000e+00 0.000000000000000e+00
0.000000000000000e+00 0.000000000000000e+00 0.000000000000000e+00
0.000000000000000e+00 0.000000000000000e+00 0.000000000000000e+00

0.000000000000000e+00 0.000000000000000e+00 0.000000000000000e+00
0.000000000000000e+00 0.000000000000000e+00 0.000000000000000e+00
0.000000000000000e+00 0.000000000000000e+00 0.000000000000000e+00

0.000000000000000e+00 0.000000000000000e+00 0.000000000000000e+00
0.000000000000000e+00 0.000000000000000e+00 0.000000000000000e+00
0.000000000000000e+00 0.000000000000000e+00 0.000000000000000e+00

0.000000000000000e+00 0.000000000000000e+00 0.000000000000000e+00
0.000000000000000e+00 0.000000000000000e+00 0.000000000000000e+00
0.000000000000000e+00 0.000000000000000e+00 0.000000000000000e+00

0.000000000000000e+00 0.000000000000000e+00 0.000000000000000e+00
0.000000000000000e+00 0.000000000000000e+00 0.000000000000000e+00
0.000000000000000e+00 0.000000000000000e+00 0.000000000000000e+00

0.000000000000000e+00 0.000000000000000e+00 0.000000000000000e+00
0.000000000000000e+00 0.000000000000000e+00 0.000000000000000e+00
0.000000000000000e+00 0.000000000000000e+00 0.000000000000000e+00

0.000000000000000e+00 0.000000000000000e+00 0.000000000000000e+00
0.000000000000000e+00 0.000000000000000e+00 0.000000000000000e+00
0.000000000000000e+00 0.000000000000000e+00 0.000000000000000e+00

0.000000000000000e+00 0.000000000000000e+00 0.000000000000000e+00
0.000000000000000e+00 0.000000000000000e+00 0.000000000000000e+00
0.000000000000000e+00 0.000000000000000e+00 0.000000000000000e+00

0.000000000000000e+00 0.000000000000000e+00 0.000000000000000e+00
0.000000000000000e+00 0.000000000000000e+00 0.000000000000000e+00
0.000000000000000e+00 0.000000000000000e+00 0.000000000000000e+00

0.000000000000000e+00 0.000000000000000e+00 0.000000000000000e+00
0.000000000000000e+00 0.000000000000000e+00 0.000000000000000e+00
0.000000000000000e+00 0.000000000000000e+00 0.000000000000000e+00

0.000000000000000e+00 0.000000000000000e+00 0.000000000000000e+00
0.000000000000000e+00 0.000000000000000e+00 0.000000000000000e+00
0.000000000000000e+00 0.000000000000000e+00 0.000000000000000e+00

0.000000000000000e+00 0.000000000000000e+00 0.000000000000000e+00
0.000000000000000e+00 0.000000000000000e+00 0.000000000000000e+00
0.000000000000000e+00 0.000000000000000e+00 0.000000000000000e+00

0.000000000000000e+00 0.000000000000000e+00 0.000000000000000e+00
0.000000000000000e+00 0.000000000000000e+00 0.000000000000000e+00
0.000000000000000e+00 0.000000000000000e+00 0.000000000000000e+00

0.000000000000000e+00 0.000000000000000e+00 0.000000000000000e+00
0.000000000000000e+00 0.000000000000000e+00 0.000000000000000e+00
0.000000000000000e+00 0.000000000000000e+00 0.000000000000000e+00

0.000000000000000e+00 0.000000000000000e+00 0.000000000000000e+00
0.000000000000000e+00 0.000000000000000e+00 0.000000000000000e+00
0.000000000000000e+00 0.000000000000000e+00 0.000000000000000e+00

0.000000000000000e+00 0.000000000000000e+00 0.000000000000000e+00
0.000000000000000e+00 0.000000000000000e+00 0.000000000000000e+00
0.000000000000000e+00 0.000000000000000e+00 0.000000000000000e+00

0.000000000000000e+00 0.000000000000000e+00 0.000000000000000e+00
0.000000000000000e+00 0.000000000000000e+00 0.000000000000000e+00
0.000000000000000e+00 0.000000000000000e+00 0.000000000000000e+00

0.000000000000000e+00 0.000000000000000e+00 0.000000000000000e+00
0.000000000000000e+00 0.000000000000000e+00 0.000000000000000e+00
0.000000000000000e+00 0.000000000000000e+00 0.000000000000000e+00

0.000000000000000e+00 0.000000000000000e+00 0.000000000000000e+00
0.000000000000000e+00 0.000000000000000e+00 0.000000000000000e+00
0.000000000000000e+00 0.000000000000000e+00 0.000000000000000e+00

0.000000000000000e+00 0.000000000000000e+00 0.000000000000000e+00
0.000000000000000e+00 0.000000000000000e+00 0.000000000000000e+00
0.000000000000000e+00 0.000000000000000e+00 0.000000000000000e+00

0.000000000000000e+00 0.000000000000000e+00 0.000000000000000e+00
0.000000000000000e+00 0.000000000000000e+00 0.000000000000000e+00
0.000000000000000e+00 0.000000000000000e+00 0.000000000000000e+00

0.000000000000000e+00 0.000000000000000e+00 0.000000000000000e+00
0.000000000000000e+00 0.000000000000000e+00 0.000000000000000e+00
0.000000000000000e+00 0.000000000000000e+00 0.000000000000000e+00

0.000000000000000e+00 0.000000000000000e+00 0.000000000000000e+00
0.000000000000000e+00 0.000000000000000e+00 0.000000000000000e+00
0.000000000000000e+00 0.000000000000000e+00 0.000000000000000e+00

0.000000000000000e+00 0.000000000000000e+00 0.000000000000000e+00
0.000000000000000e+00 0.000000000000000e+00 0.000000000000000e+00
0.000000000000000e+00 0.000000000000000e+00 0.000000000000000e+00

0.000000000000000e+00 0.000000000000000e+00 0.000000000000000e+00
0.000000000000000e+00 0.000000000000000e+00 0.000000000000000e+00
0.000000000000000e+00 0.000000000000000e+00 0.000000000000000e+00

0.000000000000000e+00 0.000000000000000e+00 0.000000000000000e+00
0.000000000000000e+00 0.000000000000000e+00 0.000000000000000e+00
0.000000000000000e+00 0.000000000000000e+00 0.000000000000000e+00

0.000000000000000e+00 0.000000000000000e+00 0.000000000000000e+00
0.000000000000000e+00 0.000000000000000e+00 0.000000000000000e+00
0.000000000000000e+00 0.000000000000000e+00 0.000000000000000e+00

0.000000000000000e+00 0.000000000000000e+00 0.000000000000000e+00
0.000000000000000e+00 0.000000000000000e+00 0.000000000000000e+00
0.000000000000000e+00 0.000000000000000e+00 0.000000000000000e+00

0.000000000000000e+00 0.000000000000000e+00 0.000000000000000e+00
0.000000000000000e+00 0.000000000000000e+00 0.000000000000000e+00
0.000000000000000e+00 0.000000000000000e+00 0.000000000000000e+00

0.000000000000000e+00 0.000000000000000e+00 0.000000000000000e+00
0.000000000000000e+00 0.000000000000000e+00 0.000000000000000e+00
0.000000000000000e+00 0.000000000000000e+00 0.000000000000000e+00

0.000000000000000e+00 0.000000000000000e+00 0.000000000000000e+00
0.000000000000000e+00 0.000000000000000e+00 0.000000000000000e+00
0.000000000000000e+00 0.000000000000000e+00 0.000000000000000e+00

0.000000000000000e+00 0.000000000000000e+00 0.000000000000000e+00
0.000000000000000e+00 0.000000000000000e+00 0.000000000000000e+00
0.000000000000000e+00 0.000000000000000e+00 0.000000000000000e+00

0.000000000000000e+00 0.000000000000000e+00 0.000000000000000e+00
0.000000000000000e+00 0.000000000000000e+00 0.000000000000000e+00
0.000000000000000e+00 0.000000000000000e+00 0.000000000000000e+00

0.000000000000000e+00 0.000000000000000e+00 0.000000000000000e+00
0.000000000000000e+00 0.000000000000000e+00 0.000000000000000e+00
0.000000000000000e+00 0.000000000000000e+00 0.000000000000000e+00

0.000000000000000e+00 0.000000000000000e+00 0.000000000000000e+00
0.000000000000000e+00 0.000000000000000e+00 0.000000000000000e+00
0.000000000000000e+00 0.000000000000000e+00 0.000000000000000e+00

0.000000000000000e+00 0.000000000000000e+00 0.000000000000000e+00
0.000000000000000e+00 0.000000000000000e+00 0.000000000000000e+00
0.000000000000000e+00 0.000000000000000e+00 0.000000000000000e+00

0.000000000000000e+00 0.000000000000000e+00 0.000000000000000e+00
0.000000000000000e+00 0.000000000000000e+00 0.000000000000000e+00
0.000000000000000e+00 0.000000000000000e+00 0.000000000000000e+00

0.000000000000000e+00 0.000000000000000e+00 0.000000000000000e+00
0.000000000000000e+00 0.000000000000000e+00 0.000000000000000e+00
0.000000000000000e+00 0.000000000000000e+00 0.000000000000000e+00

0.000000000000000e+00 0.000000000000000e+00 0.000000000000000e+00
0.000000000000000e+00 0.000000000000000e+00 0.000000000000000e+00
0.000000000000000e+00 0.000000000000000e+00 0.000000000000000e+00

0.000000000000000e+00 0.000000000000000e+00 0.000000000000000e+00
0.000000000000000e+00 0.000000000000000e+00 0.000000000000000e+00
0.000000000000000e+00 0.000000000000000e+00 0.000000000000000e+00

0.000000000000000e+00 0.000000000000000e+00 0.000000000000000e+00
0.000000000000000e+00 0.000000000000000e+00 0.000000000000000e+00
0.000000000000000e+00 0.000000000000000e+00 0.000000000000000e+00

0.000000000000000e+00 0.000000000000000e+00 0.000000000000000e+00
0.000000000000000e+00 0.000000000000000e+00 0.000000000000000e+00
0.000000000000000e+00 0.000000000000000e+00 0.000000000000000e+00

0.000000000000000e+00 0.000000000000000e+00 0.000000000000000e+00
0.000000000000000e+00 0.000000000000000e+00 0.000000000000000e+00
0.000000000000000e+00 0.000000000000000e+00 0.000000000000000e+00

0.000000000000000e+00 0.000000000000000e+00 0.000000000000000e+00
0.000000000000000e+00 0.000000000000000e+00 0.000000000000000e+00
0.000000000000000e+00 0.000000000000000e+00 0.000000000000000e+00

0.000000000000000e+00 0.000000000000000e+00 0.000000000000000e+00
0.000000000000000e+00 0.000000000000000e+00 0.000000000000000e+00
0.000000000000000e+00 0.000000000000000e+00 0.000000000000000e+00

0.000000000000000e+00 0.000000000000000e+00 0.000000000000000e+00
0.000000000000000e+00 0.000000000000000e+00 0.000000000000000e+00
0.000000000000000e+00 0.000000000000000e+00 0.000000000000000e+00

0.000000000000000e+00 0.000000000000000e+00 0.000000000000000e+00
0.000000000000000e+00 0.000000000000000e+00 0.000000000000000e+00
0.000000000000000e+00 0.000000000000000e+00 0.000000000000000e+00

0.000000000000000e+00 0.000000000000000e+00 0.000000000000000e+00
0.000000000000000e+00 0.000000000000000e+00 0.000000000000000e+00
0.000000000000000e+00 0.000000000000000e+00 0.000000000000000e+00

0.000000000000000e+00 0.000000000000000e+00 0.000000000000000e+00
0.000000000000000e+00 0.000000000000000e+00 0.000000000000000e+00
0.000000000000000e+00 0.000000000000000e+00 0.000000000000000e+00

0.000000000000000e+00 0.000000000000000e+00 0.000000000000000e+00
0.000000000000000e+00 0.000000000000000e+00 0.000000000000000e+00
0.000000000000000e+00 0.000000000000000e+00 0.000000000000000e+00

0.000000000000000e+00 0.000000000000000e+00 0.000000000000000e+00
0.000000000000000e+00 0.000000000000000e+00 0.000000000000000e+00
0.000000000000000e+00 0.000000000000000e+00 0.000000000000000e+00

0.000000000000000e+00 0.000000000000000e+00 0.000000000000000e+00
0.000000000000000e+00 0.000000000000000e+00 0.000000000000000e+00
0.000000000000000e+00 0.000000000000000e+00 0.000000000000000e+00

0.000000000000000e+00 0.000000000000000e+00 0.000000000000000e+00
0.000000000000000e+00 0.000000000000000e+00 0.000000000000000e+00
0.000000000000000e+00 0.000000000000000e+00 0.000000000000000e+00

0.000000000000000e+00 0.000000000000000e+00 0.000000000000000e+00
0.000000000000000e+00 0.000000000000000e+00 0.000000000000000e+00
0.000000000000000e+00 0.000000000000000e+00 0.000000000000000e+00

0.000000000000000e+00 0.000000000000000e+00 0.000000000000000e+00
0.000000000000000e+00 0.000000000000000e+00 0.000000000000000e+00
0.000000000000000e+00 0.000000000000000e+00 0.000000000000000e+00

0.000000000000000e+00 0.000000000000000e+00 0.000000000000000e+00
0.000000000000000e+00 0.000000000000000e+00 0.000000000000000e+00
0.000000000000000e+00 0.000000000000000e+00 0.000000000000000e+00

0.000000000000000e+00 0.000000000000000e+00 0.000000000000000e+00
0.000000000000000e+00 0.000000000000000e+00 0.000000000000000e+00
0.000000000000000e+00 0.000000000000000e+00 0.000000000000000e+00

0.000000000000000e+00 0.000000000000000e+00 0.000000000000000e+00
0.000000000000000e+00 0.000000000000000e+00 0.000000000000000e+00
0.000000000000000e+00 0.000000000000000e+00 0.000000000000000e+00

0.000000000000000e+00 0.000000000000000e+00 0.000000000000000e+00
0.000000000000000e+00 0.000000000000000e+00 0.000000000000000e+00
0.000000000000000e+00 0.000000000000000e+00 0.000000000000000e+00

0.000000000000000e+00 0.000000000000000e+00 0.000000000000000e+00
0.000000000000000e+00 0.000000000000000e+00 0.000000000000000e+00
0.000000000000000e+00 0.000000000000000e+00 0.000000000000000e+00

0.000000000000000e+00 0.000000000000000e+00 0.000000000000000e+00
0.000000000000000e+00 0.000000000000000e+00 0.000000000000000e+00
0.000000000000000e+00 0.000000000000000e+00 0.000000000000000e+00

0.000000000000000e+00 0.000000000000000e+00 0.000000000000000e+00
0.000000000000000e+00 0.000000000000000e+00 0.000000000000000e+00
0.000000000000000e+00 0.000000000000000e+00 0.000000000000000e+00

0.000000000000000e+00 0.000000000000000e+00 0.000000000000000e+00
0.000000000000000e+00 0.000000000000000e+00 0.000000000000000e+00
0.000000000000000e+00 0.000000000000000e+00 0.000000000000000e+00

0.000000000000000e+00 0.000000000000000e+00 0.000000000000000e+00
0.000000000000000e+00 0.000000000000000e+00 0.000000000000000e+00
0.000000000000000e+00 0.000000000000000e+00 0.000000000000000e+00

0.000000000000000e+00 0.000000000000000e+00 0.000000000000000e+00
0.000000000000000e+00 0.000000000000000e+00 0.000000000000000e+00
0.000000000000000e+00 0.000000000000000e+00 0.000000000000000e+00

0.000000000000000e+00 0.000000000000000e+00 0.000000000000000e+00
0.000000000000000e+00 0.000000000000000e+00 0.000000000000000e+00
0.000000000000000e+00 0.000000000000000e+00 0.000000000000000e+00

0.000000000000000e+00 0.000000000000000e+00 0.000000000000000e+00
0.000000000000000e+00 0.000000000000000e+00 0.000000000000000e+00
0.000000000000000e+00 0.000000000000000e+00 0.000000000000000e+00

0.000000000000000e+00 0.000000000000000e+00 0.000000000000000e+00
0.000000000000000e+00 0.000000000000000e+00 0.000000000000000e+00
0.000000000000000e+00 0.000000000000000e+00 0.000000000000000e+00

0.000000000000000e+00 0.000000000000000e+00 0.000000000000000e+00
0.000000000000000e+00 0.000000000000000e+00 0.000000000000000e+00
0.000000000000000e+00 0.000000000000000e+00 0.000000000000000e+00

0.000000000000000e+00 0.000000000000000e+00 0.000000000000000e+00
0.000000000000000e+00 0.000000000000000e+00 0.000000000000000e+00
0.000000000000000e+00 0.000000000000000e+00 0.000000000000000e+00

0.000000000000000e+00 0.000000000000000e+00 0.000000000000000e+00
0.000000000000000e+00 0.000000000000000e+00 0.000000000000000e+00
0.000000000000000e+00 0.000000000000000e+00 0.000000000000000e+00

0.000000000000000e+00 0.000000000000000e+00 0.000000000000000e+00
0.000000000000000e+00 0.000000000000000e+00 0.000000000000000e+00
0.000000000000000e+00 0.000000000000000e+00 0.000000000000000e+00

0.000000000000000e+00 0.000000000000000e+00 0.000000000000000e+00
0.000000000000000e+00 0.000000000000000e+00 0.000000000000000e+00
0.000000000000000e+00 0.000000000000000e+00 0.000000000000000e+00

0.000000000000000e+00 0.000000000000000e+00 0.000000000000000e+00
0.000000000000000e+00 0.000000000000000e+00 0.000000000000000e+00
0.000000000000000e+00 0.000000000000000e+00 0.000000000000000e+00

0.000000000000000e+00 0.000000000000000e+00 0.000000000000000e+00
0.000000000000000e+00 0.000000000000000e+00 0.000000000000000e+00
0.000000000000000e+00 0.000000000000000e+00 0.000000000000000e+00

0.000000000000000e+00 0.000000000000000e+00 0.000000000000000e+00
0.000000000000000e+00 0.000000000000000e+00 0.000000000000000e+00
0.000000000000000e+00 0.000000000000000e+00 0.000000000000000e+00

0.000000000000000e+00 0.000000000000000e+00 0.000000000000000e+00
0.000000000000000e+00 0.000000000000000e+00 0.000000000000000e+00
0.000000000000000e+00 0.000000000000000e+00 0.000000000000000e+00

0.000000000000000e+00 0.000000000000000e+00 0.000000000000000e+00
0.000000000000000e+00 0.000000000000000e+00 0.000000000000000e+00
0.000000000000000e+00 0.000000000000000e+00 0.000000000000000e+00

0.000000000000000e+00 0.000000000000000e+00 0.000000000000000e+00
0.000000000000000e+00 0.000000000000000e+00 0.000000000000000e+00
0.000000000000000e+00 0.000000000000000e+00 0.000000000000000e+00

0.000000000000000e+00 0.000000000000000e+00 0.000000000000000e+00
0.000000000000000e+00 0.000000000000000e+00 0.000000000000000e+00
0.000000000000000e+00 0.000000000000000e+00 0.000000000000000e+00

0.000000000000000e+00 0.000000000000000e+00 0.000000000000000e+00
0.000000000000000e+00 0.000000000000000e+00 0.000000000000000e+00
0.000000000000000e+00 0.000000000000000e+00 0.000000000000000e+00

0.000000000000000e+00 0.000000000000000e+00 0.000000000000000e+00
0.000000000000000e+00 0.000000000000000e+00 0.000000000000000e+00
0.000000000000000e+00 0.000000000000000e+00 0.000000000000000e+00

0.000000000000000e+00 0.000000000000000e+00 0.000000000000000e+00
0.000000000000000e+00 0.000000000000000e+00 0.000000000000000e+00
0.000000000000000e+00 0.000000000000000e+00 0.000000000000000e+00

0.000000000000000e+00 0.000000000000000e+00 0.000000000000000e+00
0.000000000000000e+00 0.000000000000000e+00 0.000000000000000e+00
0.000000000000000e+00 0.000000000000000e+00 0.000000000000000e+00

0.000000000000000e+00 0.000000000000000e+00 0.000000000000000e+00
0.000000000000000e+00 0.000000000000000e+00 0.000000000000000e+00
0.000000000000000e+00 0.000000000000000e+00 0.000000000000000e+00

0.000000000000000e+00 0.000000000000000e+00 0.000000000000000e+00
0.000000000000000e+00 0.000000000000000e+00 0.000000000000000e+00
0.000000000000000e+00 0.000000000000000e+00 0.000000000000000e+00

0.000000000000000e+00 0.000000000000000e+00 0.000000000000000e+00
0.000000000000000e+00 0.000000000000000e+00 0.000000000000000e+00
0.000000000000000e+00 0.000000000000000e+00 0.000000000000000e+00

0.000000000000000e+00 0.000000000000000e+00 0.000000000000000e+00
0.000000000000000e+00 0.000000000000000e+00 0.000000000000000e+00
0.000000000000000e+00 0.000000000000000e+00 0.000000000000000e+00

0.000000000000000e+00 0.000000000000000e+00 0.000000000000000e+00
0.000000000000000e+00 0.000000000000000e+00 0.000000000000000e+00
0.000000000000000e+00 0.000000000000000e+00 0.000000000000000e+00

0.000000000000000e+00 0.000000000000000e+00 0.000000000000000e+00
0.000000000000000e+00 0.000000000000000e+00 0.000000000000000e+00
0.000000000000000e+00 0.000000000000000e+00 0.000000000000000e+00

0.000000000000000e+00 0.000000000000000e+00 0.000000000000000e+00
0.000000000000000e+00 0.000000000000000e+00 0.000000000000000e+00
0.000000000000000e+00 0.000000000000000e+00 0.000000000000000e+00

0.000000000000000e+00 0.000000000000000e+00 0.000000000000000e+00
0.000000000000000e+00 0.000000000000000e+00 0.000000000000000e+00
0.000000000000000e+00 0.000000000000000e+00 0.000000000000000e+00

0.000000000000000e+00 0.000000000000000e+00 0.000000000000000e+00
0.000000000000000e+00 0.000000000000000e+00 0.000000000000000e+00
0.000000000000000e+00 0.000000000000000e+00 0.000000000000000e+00

0.000000000000000e+00 0.000000000000000e+00 0.000000000000000e+00
0.000000000000000e+00 0.000000000000000e+00 0.000000000000000e+00
0.000000000000000e+00 0.000000000000000e+00 0.000000000000000e+00

0.000000000000000e+00 0.000000000000000e+00 0.000000000000000e+00
0.000000000000000e+00 0.000000000000000e+00 0.000000000000000e+00
0.000000000000000e+00 0.000000000000000e+00 0.000000000000000e+00

0.000000000000000e+00 0.000000000000000e+00 0.000000000000000e+00
0.000000000000000e+00 0.000000000000000e+00 0.000000000000000e+00
0.000000000000000e+00 0.000000000000000e+00 0.000000000000000e+00

0.000000000000000e+00 0.000000000000000e+00 0.000000000000000e+00
0.000000000000000e+00 0.000000000000000e+00 0.000000000000000e+00
0.000000000000000e+00 0.000000000000000e+00 0.000000000000000e+00

0.000000000000000e+00 0.000000000000000e+00 0.000000000000000e+00
0.000000000000000e+00 0.000000000000000e+00 0.000000000000000e+00
0.000000000000000e+00 0.000000000000000e+00 0.000000000000000e+00

0.000000000000000e+00 0.000000000000000e+00 0.000000000000000e+00
0.000000000000000e+00 0.000000000000000e+00 0.000000000000000e+00
0.000000000000000e+00 0.000000000000000e+00 0.000000000000000e+00

0.000000000000000e+00 0.000000000000000e+00 0.000000000000000e+00
0.000000000000000e+00 0.000000000000000e+00 0.000000000000000e+00
0.000000000000000e+00 0.000000000000000e+00 0.000000000000000e+00

0.000000000000000e+00 0.000000000000000e+00 0.000000000000000e+00
0.000000000000000e+00 0.000000000000000e+00 0.000000000000000e+00
0.000000000000000e+00 0.000000000000000e+00 0.000000000000000e+00

0.000000000000000e+00 0.000000000000000e+00 0.000000000000000e+00
0.000000000000000e+00 0.000000000000000e+00 0.000000000000000e+00
0.000000000000000e+00 0.000000000000000e+00 0.000000000000000e+00

0.000000000000000e+00 0.000000000000000e+00 0.000000000000000e+00
0.000000000000000e+00 0.000000000000000e+00 0.000000000000000e+00
0.000000000000000e+00 0.000000000000000e+00 0.000000000000000e+00

0.000000000000000e+00 0.000000000000000e+00 0.000000000000000e+00
0.000000000000000e+00 0.000000000000000e+00 0.000000000000000e+00
0.000000000000000e+00 0.000000000000000e+00 0.000000000000000e+00

0.000000000000000e+00 0.000000000000000e+00 0.000000000000000e+00
0.000000000000000e+00 0.000000000000000e+00 0.000000000000000e+00
0.000000000000000e+00 0.000000000000000e+00 0.000000000000000e+00

0.000000000000000e+00 0.000000000000000e+00 0.000000000000000e+00
0.000000000000000e+00 0.000000000000000e+00 0.000000000000000e+00
0.000000000000000e+00 0.000000000000000e+00 0.000000000000000e+00

0.000000000000000e+00 0.000000000000000e+00 0.000000000000000e+00
0.000000000000000e+00 0.000000000000000e+00 0.000000000000000e+00
0.000000000000000e+00 0.000000000000000e+00 0.000000000000000e+00

0.000000000000000e+00 0.000000000000000e+00 0.000000000000000e+00
0.000000000000000e+00 0.000000000000000e+00 0.000000000000000e+00
0.000000000000000e+00 0.000000000000000e+00 0.000000000000000e+00

0.000000000000000e+00 0.000000000000000e+00 0.000000000000000e+00
0.000000000000000e+00 0.000000000000000e+00 0.000000000000000e+00
0.000000000000000e+00 0.000000000000000e+00 0.000000000000000e+00

0.000000000000000e+00 0.000000000000000e+00 0.000000000000000e+00
0.000000000000000e+00 0.000000000000000e+00 0.000000000000000e+00
0.000000000000000e+00 0.000000000000000e+00 0.000000000000000e+00

0.000000000000000e+00 0.000000000000000e+00 0.000000000000000e+00
0.000000000000000e+00 0.000000000000000e+00 0.000000000000000e+00
0.000000000000000e+00 0.000000000000000e+00 0.000000000000000e+00

0.000000000000000e+00 0.000000000000000e+00 0.000000000000000e+00
0.000000000000000e+00 0.000000000000000e+00 0.000000000000000e+00
0.000000000000000e+00 0.000000000000000e+00 0.000000000000000e+00

0.000000000000000e+00 0.000000000000000e+00 0.000000000000000e+00
0.000000000000000e+00 0.000000000000000e+00 0.000000000000000e+00
0.000000000000000e+00 0.000000000000000e+00 0.000000000000000e+00

0.000000000000000e+00 0.000000000000000e+00 0.000000000000000e+00
0.000000000000000e+00 0.000000000000000e+00 0.000000000000000e+00
0.000000000000000e+00 0.000000000000000e+00 0.000000000000000e+00

0.000000000000000e+00 0.000000000000000e+00 0.000000000000000e+00
0.000000000000000e+00 0.000000000000000e+00 0.000000000000000e+00
0.000000000000000e+00 0.000000000000000e+00 0.000000000000000e+00

0.000000000000000e+00 0.000000000000000e+00 0.000000000000000e+00
0.000000000000000e+00 0.000000000000000e+00 0.000000000000000e+00
0.000000000000000e+00 0.000000000000000e+00 0.000000000000000e+00

0.000000000000000e+00 0.000000000000000e+00 0.000000000000000e+00
0.000000000000000e+00 0.000000000000000e+00 0.000000000000000e+00
0.000000000000000e+00 0.000000000000000e+00 0.000000000000000e+00

0.000000000000000e+00 0.000000000000000e+00 0.000000000000000e+00
0.000000000000000e+00 0.000000000000000e+00 0.000000000000000e+00
0.000000000000000e+00 0.000000000000000e+00 0.000000000000000e+00

0.000000000000000e+00 0.000000000000000e+00 0.000000000000000e+00
0.000000000000000e+00 0.000000000000000e+00 0.000000000000000e+00
0.000000000000000e+00 0.000000000000000e+00 0.000000000000000e+00

0.000000000000000e+00 0.000000000000000e+00 0.000000000000000e+00
0.000000000000000e+00 0.000000000000000e+00 0.000000000000000e+00
0.000000000000000e+00 0.000000000000000e+00 0.000000000000000e+00

0.000000000000000e+00 0.000000000000000e+00 0.000000000000000e+00
0.000000000000000e+00 0.000000000000000e+00 0.000000000000000e+00
0.000000000000000e+00 0.000000000000000e+00 0.000000000000000e+00

0.000000000000000e+00 0.000000000000000e+00 0.000000000000000e+00
0.000000000000000e+00 0.000000000000000e+00 0.000000000000000e+00
0.000000000000000e+00 0.000000000000000e+00 0.000000000000000e+00

0.000000000000000e+00 0.000000000000000e+00 0.000000000000000e+00
0.000000000000000e+00 0.000000000000000e+00 0.000000000000000e+00
0.000000000000000e+00 0.000000000000000e+00 0.000000000000000e+00

0.000000000000000e+00 0.000000000000000e+00 0.000000000000000e+00
0.000000000000000e+00 0.000000000000000e+00 0.000000000000000e+00
0.000000000000000e+00 0.000000000000000e+00 0.000000000000000e+00

0.000000000000000e+00 0.000000000000000e+00 0.000000000000000e+00
0.000000000000000e+00 0.000000000000000e+00 0.000000000000000e+00
0.000000000000000e+00 0.000000000000000e+00 0.000000000000000e+00

0.000000000000000e+00 0.000000000000000e+00 0.000000000000000e+00
0.000000000000000e+00 0.000000000000000e+00 0.000000000000000e+00
0.000000000000000e+00 0.000000000000000e+00 0.000000000000000e+00

0.000000000000000e+00 0.000000000000000e+00 0.000000000000000e+00
0.000000000000000e+00 0.000000000000000e+00 0.000000000000000e+00
0.000000000000000e+00 0.000000000000000e+00 0.000000000000000e+00

0.000000000000000e+00 0.000000000000000e+00 0.000000000000000e+00
0.000000000000000e+00 0.000000000000000e+00 0.000000000000000e+00
0.000000000000000e+00 0.000000000000000e+00 0.000000000000000e+00

0.000000000000000e+00 0.000000000000000e+00 0.000000000000000e+00
0.000000000000000e+00 0.000000000000000e+00 0.000000000000000e+00
0.000000000000000e+00 0.000000000000000e+00 0.000000000000000e+00

0.000000000000000e+00 0.000000000000000e+00 0.000000000000000e+00
0.000000000000000e+00 0.000000000000000e+00 0.000000000000000e+00
0.000000000000000e+00 0.000000000000000e+00 0.000000000000000e+00

0.000000000000000e+00 0.000000000000000e+00 0.000000000000000e+00
0.000000000000000e+00 0.000000000000000e+00 0.000000000000000e+00
0.000000000000000e+00 0.000000000000000e+00 0.000000000000000e+00

0.000000000000000e+00 0.000000000000000e+00 0.000000000000000e+00
0.000000000000000e+00 0.000000000000000e+00 0.000000000000000e+00
0.000000000000000e+00 0.000000000000000e+00 0.000000000000000e+00

0.000000000000000e+00 0.000000000000000e+00 0.000000000000000e+00
0.000000000000000e+00 0.000000000000000e+00 0.000000000000000e+00
0.000000000000000e+00 0.000000000000000e+00 0.000000000000000e+00

0.000000000000000e+00 0.000000000000000e+00 0.000000000000000e+00
0.000000000000000e+00 0.000000000000000e+00 0.000000000000000e+00
0.000000000000000e+00 0.000000000000000e+00 0.000000000000000e+00

0.000000000000000e+00 0.000000000000000e+00 0.000000000000000e+00
0.000000000000000e+00 0.000000000000000e+00 0.000000000000000e+00
0.000000000000000e+00 0.000000000000000e+00 0.000000000000000e+00

0.000000000000000e+00 0.000000000000000e+00 0.000000000000000e+00
0.000000000000000e+00 0.000000000000000e+00 0.000000000000000e+00
0.000000000000000e+00 0.000000000000000e+00 0.000000000000000e+00

0.000000000000000e+00 0.000000000000000e+00 0.000000000000000e+00
0.000000000000000e+00 0.000000000000000e+00 0.000000000000000e+00
0.000000000000000e+00 0.000000000000000e+00 0.000000000000000e+00

0.000000000000000e+00 0.000000000000000e+00 0.000000000000000e+00
0.000000000000000e+00 0.000000000000000e+00 0.000000000000000e+00
0.000000000000000e+00 0.000000000000000e+00 0.000000000000000e+00

0.000000000000000e+00 0.000000000000000e+00 0.000000000000000e+00
0.000000000000000e+00 0.000000000000000e+00 0.000000000000000e+00
0.000000000000000e+00 0.000000000000000e+00 0.000000000000000e+00

0.000000000000000e+00 0.000000000000000e+00 0.000000000000000e+00
0.000000000000000e+00 0.000000000000000e+00 0.000000000000000e+00
0.000000000000000e+00 0.000000000000000e+00 0.000000000000000e+00

0.000000000000000e+00 0.000000000000000e+00 0.000000000000000e+00
0.000000000000000e+00 0.000000000000000e+00 0.000000000000000e+00
0.000000000000000e+00 0.000000000000000e+00 0.000000000000000e+00

0.000000000000000e+00 0.000000000000000e+00 0.000000000000000e+00
0.000000000000000e+00 0.000000000000000e+00 0.000000000000000e+00
0.000000000000000e+00 0.000000000000000e+00 0.000000000000000e+00

0.000000000000000e+00 0.000000000000000e+00 0.000000000000000e+00
0.000000000000000e+00 0.000000000000000e+00 0.000000000000000e+00
0.000000000000000e+00 0.000000000000000e+00 0.000000000000000e+00

0.000000000000000e+00 0.000000000000000e+00 0.000000000000000e+00
0.000000000000000e+00 0.000000000000000e+00 0.000000000000000e+00
0.000000000000000e+00 0.000000000000000e+00 0.000000000000000e+00

0.000000000000000e+00 0.000000000000000e+00 0.000000000000000e+00
0.000000000000000e+00 0.000000000000000e+00 0.000000000000000e+00
0.000000000000000e+00 0.000000000000000e+00 0.000000000000000e+00

0.000000000000000e+00 0.000000000000000e+00 0.000000000000000e+00
0.000000000000000e+00 0.000000000000000e+00 0.000000000000000e+00
0.000000000000000e+00 0.000000000000000e+00 0.000000000000000e+00

0.000000000000000e+00 0.000000000000000e+00 0.000000000000000e+00
0.000000000000000e+00 0.000000000000000e+00 0.000000000000000e+00
0.000000000000000e+00 0.000000000000000e+00 0.000000000000000e+00

0.000000000000000e+00 0.000000000000000e+00 0.000000000000000e+00
0.000000000000000e+00 0.000000000000000e+00 0.000000000000000e+00
0.000000000000000e+00 0.000000000000000e+00 0.000000000000000e+00

0.000000000000000e+00 0.000000000000000e+00 0.000000000000000e+00
0.000000000000000e+00 0.000000000000000e+00 0.000000000000000e+00
0.000000000000000e+00 0.000000000000000e+00 0.000000000000000e+00

0.000000000000000e+00 0.000000000000000e+00 0.000000000000000e+00
0.000000000000000e+00 0.000000000000000e+00 0.000000000000000e+00
0.000000000000000e+00 0.000000000000000e+00 0.000000000000000e+00

0.000000000000000e+00 0.000000000000000e+00 0.000000000000000e+00
0.000000000000000e+00 0.000000000000000e+00 0.000000000000000e+00
0.000000000000000e+00 0.000000000000000e+00 0.000000000000000e+00

0.000000000000000e+00 0.000000000000000e+00 0.000000000000000e+00
0.000000000000000e+00 0.000000000000000e+00 0.000000000000000e+00
0.000000000000000e+00 0.000000000000000e+00 0.000000000000000e+00

0.000000000000000e+00 0.000000000000000e+00 0.000000000000000e+00
0.000000000000000e+00 0.000000000000000e+00 0.000000000000000e+00
0.000000000000000e+00 0.000000000000000e+00 0.000000000000000e+00

0.000000000000000e+00 0.000000000000000e+00 0.000000000000000e+00
0.000000000000000e+00 0.000000000000000e+00 0.000000000000000e+00
0.000000000000000e+00 0.000000000000000e+00 0.000000000000000e+00

0.000000000000000e+00 0.000000000000000e+00 0.000000000000000e+00
0.000000000000000e+00 0.000000000000000e+00 0.000000000000000e+00
0.000000000000000e+00 0.000000000000000e+00 0.000000000000000e+00

0.000000000000000e+00 0.000000000000000e+00 0.000000000000000e+00
0.000000000000000e+00 0.000000000000000e+00 0.000000000000000e+00
0.000000000000000e+00 0.000000000000000e+00 0.000000000000000e+00

0.000000000000000e+00 0.000000000000000e+00 0.000000000000000e+00
0.000000000000000e+00 0.000000000000000e+00 0.000000000000000e+00
0.000000000000000e+00 0.000000000000000e+00 0.000000000000000e+00

0.000000000000000e+00 0.000000000000000e+00 0.000000000000000e+00
0.000000000000000e+00 0.000000000000000e+00 0.000000000000000e+00
0.000000000000000e+00 0.000000000000000e+00 0.000000000000000e+00

0.000000000000000e+00 0.000000000000000e+00 0.000000000000000e+00
0.000000000000000e+00 0.000000000000000e+00 0.000000000000000e+00
0.000000000000000e+00 0.000000000000000e+00 0.000000000000000e+00

0.000000000000000e+00 0.000000000000000e+00 0.000000000000000e+00
0.000000000000000e+00 0.000000000000000e+00 0.000000000000000e+00
0.000000000000000e+00 0.000000000000000e+00 0.000000000000000e+00

0.000000000000000e+00 0.000000000000000e+00 0.000000000000000e+00
0.000000000000000e+00 0.000000000000000e+00 0.000000000000000e+00
0.000000000000000e+00 0.000000000000000e+00 0.000000000000000e+00

0.000000000000000e+00 0.000000000000000e+00 0.000000000000000e+00
0.000000000000000e+00 0.000000000000000e+00 0.000000000000000e+00
0.000000000000000e+00 0.000000000000000e+00 0.000000000000000e+00

0.000000000000000e+00 0.000000000000000e+00 0.000000000000000e+00
0.000000000000000e+00 0.000000000000000e+00 0.000000000000000e+00
0.000000000000000e+00 0.000000000000000e+00 0.000000000000000e+00

0.000000000000000e+00 0.000000000000000e+00 0.000000000000000e+00
0.000000000000000e+00 0.000000000000000e+00 0.000000000000000e+00
0.000000000000000e+00 0.000000000000000e+00 0.000000000000000e+00

0.000000000000000e+00 0.000000000000000e+00 0.000000000000000e+00
0.000000000000000e+00 0.000000000000000e+00 0.000000000000000e+00
0.000000000000000e+00 0.000000000000000e+00 0.000000000000000e+00

0.000000000000000e+00 0.000000000000000e+00 0.000000000000000e+00
0.000000000000000e+00 0.000000000000000e+00 0.000000000000000e+00
0.000000000000000e+00 0.000000000000000e+00 0.000000000000000e+00

0.000000000000000e+00 0.000000000000000e+00 0.000000000000000e+00
0.000000000000000e+00 0.000000000000000e+00 0.000000000000000e+00
0.000000000000000e+00 0.000000000000000e+00 0.000000000000000e+00

0.000000000000000e+00 0.000000000000000e+00 0.000000000000000e+00
0.000000000000000e+00 0.000000000000000e+00 0.000000000000000e+00
0.000000000000000e+00 0.000000000000000e+00 0.000000000000000e+00

0.000000000000000e+00 0.000000000000000e+00 0.000000000000000e+00
0.000000000000000e+00 0.000000000000000e+00 0.000000000000000e+00
0.000000000000000e+00 0.000000000000000e+00 0.000000000000000e+00

0.000000000000000e+00 0.000000000000000e+00 0.000000000000000e+00
0.000000000000000e+00 0.000000000000000e+00 0.000000000000000e+00
0.000000000000000e+00 0.000000000000000e+00 0.000000000000000e+00

0.000000000000000e+00 0.000000000000000e+00 0.000000000000000e+00
0.000000000000000e+00 0.000000000000000e+00 0.000000000000000e+00
0.000000000000000e+00 0.000000000000000e+00 0.000000000000000e+00

0.000000000000000e+00 0.000000000000000e+00 0.000000000000000e+00
0.000000000000000e+00 0.000000000000000e+00 0.000000000000000e+00
0.000000000000000e+00 0.000000000000000e+00 0.000000000000000e+00

0.000000000000000e+00 0.000000000000000e+00 0.000000000000000e+00
0.000000000000000e+00 0.000000000000000e+00 0.000000000000000e+00
0.000000000000000e+00 0.000000000000000e+00 0.000000000000000e+00

0.000000000000000e+00 0.000000000000000e+00 0.000000000000000e+00
0.000000000000000e+00 0.000000000000000e+00 0.000000000000000e+00
0.000000000000000e+00 0.000000000000000e+00 0.000000000000000e+00

0.000000000000000e+00 0.000000000000000e+00 0.000000000000000e+00
0.000000000000000e+00 0.000000000000000e+00 0.000000000000000e+00
0.000000000000000e+00 0.000000000000000e+00 0.000000000000000e+00

0.000000000000000e+00 0.000000000000000e+00 0.000000000000000e+00
0.000000000000000e+00 0.000000000000000e+00 0.000000000000000e+00
0.000000000000000e+00 0.000000000000000e+00 0.000000000000000e+00

0.000000000000000e+00 0.000000000000000e+00 0.000000000000000e+00
0.000000000000000e+00 0.000000000000000e+00 0.000000000000000e+00
0.000000000000000e+00 0.000000000000000e+00 0.000000000000000e+00

0.000000000000000e+00 0.000000000000000e+00 0.000000000000000e+00
0.000000000000000e+00 0.000000000000000e+00 0.000000000000000e+00
0.000000000000000e+00 0.000000000000000e+00 0.000000000000000e+00

0.000000000000000e+00 0.000000000000000e+00 0.000000000000000e+00
0.000000000000000e+00 0.000000000000000e+00 0.000000000000000e+00
0.000000000000000e+00 0.000000000000000e+00 0.000000000000000e+00

0.000000000000000e+00 0.000000000000000e+00 0.000000000000000e+00
0.000000000000000e+00 0.000000000000000e+00 0.000000000000000e+00
0.000000000000000e+00 0.000000000000000e+00 0.000000000000000e+00

0.000000000000000e+00 0.000000000000000e+00 0.000000000000000e+00
0.000000000000000e+00 0.000000000000000e+00 0.000000000000000e+00
0.000000000000000e+00 0.000000000000000e+00 0.000000000000000e+00

0.000000000000000e+00 0.000000000000000e+00 0.000000000000000e+00
0.000000000000000e+00 0.000000000000000e+00 0.000000000000000e+00
0.000000000000000e+00 0.000000000000000e+00 0.000000000000000e+00

0.000000000000000e+00 0.000000000000000e+00 0.000000000000000e+00
0.000000000000000e+00 0.000000000000000e+00 0.000000000000000e+00
0.000000000000000e+00 0.000000000000000e+00 0.000000000000000e+00

0.000000000000000e+00 0.000000000000000e+00 0.000000000000000e+00
0.000000000000000e+00 0.000000000000000e+00 0.000000000000000e+00
0.000000000000000e+00 0.000000000000000e+00 0.000000000000000e+00

0.000000000000000e+00 0.000000000000000e+00 0.000000000000000e+00
0.000000000000000e+00 0.000000000000000e+00 0.000000000000000e+00
0.000000000000000e+00 0.000000000000000e+00 0.000000000000000e+00

0.000000000000000e+00 0.000000000000000e+00 0.000000000000000e+00
0.000000000000000e+00 0.000000000000000e+00 0.000000000000000e+00
0.000000000000000e+00 0.000000000000000e+00 0.000000000000000e+00

0.000000000000000e+00 0.000000000000000e+00 0.000000000000000e+00
0.000000000000000e+00 0.000000000000000e+00 0.000000000000000e+00
0.000000000000000e+00 0.000000000000000e+00 0.000000000000000e+00

0.000000000000000e+00 0.000000000000000e+00 0.000000000000000e+00
0.000000000000000e+00 0.000000000000000e+00 0.000000000000000e+00
0.000000000000000e+00 0.000000000000000e+00 0.000000000000000e+00

0.000000000000000e+00 0.000000000000000e+00 0.000000000000000e+00
0.000000000000000e+00 0.000000000000000e+00 0.000000000000000e+00
0.000000000000000e+00 0.000000000000000e+00 0.000000000000000e+00

0.000000000000000e+00 0.000000000000000e+00 0.000000000000000e+00
0.000000000000000e+00 0.000000000000000e+00 0.000000000000000e+00
0.000000000000000e+00 0.000000000000000e+00 0.000000000000000e+00

0.000000000000000e+00 0.000000000000000e+00 0.000000000000000e+00
0.000000000000000e+00 0.000000000000000e+00 0.000000000000000e+00
0.000000000000000e+00 0.000000000000000e+00 0.000000000000000e+00

0.000000000000000e+00 0.000000000000000e+00 0.000000000000000e+00
0.000000000000000e+00 0.000000000000000e+00 0.000000000000000e+00
0.000000000000000e+00 0.000000000000000e+00 0.000000000000000e+00

0.000000000000000e+00 0.000000000000000e+00 0.000000000000000e+00
0.000000000000000e+00 0.000000000000000e+00 0.000000000000000e+00
0.000000000000000e+00 0.000000000000000e+00 0.000000000000000e+00

0.000000000000000e+00 0.000000000000000e+00 0.000000000000000e+00
0.000000000000000e+00 0.000000000000000e+00 0.000000000000000e+00
0.000000000000000e+00 0.000000000000000e+00 0.000000000000000e+00

0.000000000000000e+00 0.000000000000000e+00 0.000000000000000e+00
0.000000000000000e+00 0.000000000000000e+00 0.000000000000000e+00
0.000000000000000e+00 0.000000000000000e+00 0.000000000000000e+00

0.000000000000000e+00 0.000000000000000e+00 0.000000000000000e+00
0.000000000000000e+00 0.000000000000000e+00 0.000000000000000e+00
0.000000000000000e+00 0.000000000000000e+00 0.000000000000000e+00

0.000000000000000e+00 0.000000000000000e+00 0.000000000000000e+00
0.000000000000000e+00 0.000000000000000e+00 0.000000000000000e+00
0.000000000000000e+00 0.000000000000000e+00 0.000000000000000e+00

0.000000000000000e+00 0.000000000000000e+00 0.000000000000000e+00
0.000000000000000e+00 0.000000000000000e+00 0.000000000000000e+00
0.000000000000000e+00 0.000000000000000e+00 0.000000000000000e+00

0.000000000000000e+00 0.000000000000000e+00 0.000000000000000e+00
0.000000000000000e+00 0.000000000000000e+00 0.000000000000000e+00
0.000000000000000e+00 0.000000000000000e+00 0.000000000000000e+00

0.000000000000000e+00 0.000000000000000e+00 0.000000000000000e+00
0.000000000000000e+00 0.000000000000000e+00 0.000000000000000e+00
0.000000000000000e+00 0.000000000000000e+00 0.000000000000000e+00

0.000000000000000e+00 0.000000000000000e+00 0.000000000000000e+00
0.000000000000000e+00 0.000000000000000e+00 0.000000000000000e+00
0.000000000000000e+00 0.000000000000000e+00 0.000000000000000e+00

0.000000000000000e+00 0.000000000000000e+00 0.000000000000000e+00
0.000000000000000e+00 0.000000000000000e+00 0.000000000000000e+00
0.000000000000000e+00 0.000000000000000e+00 0.000000000000000e+00

0.000000000000000e+00 0.000000000000000e+00 0.000000000000000e+00
0.000000000000000e+00 0.000000000000000e+00 0.000000000000000e+00
0.000000000000000e+00 0.000000000000000e+00 0.000000000000000e+00

0.000000000000000e+00 0.000000000000000e+00 0.000000000000000e+00
0.000000000000000e+00 0.000000000000000e+00 0.000000000000000e+00
0.000000000000000e+00 0.000000000000000e+00 0.000000000000000e+00

0.000000000000000e+00 0.000000000000000e+00 0.000000000000000e+00
0.000000000000000e+00 0.000000000000000e+00 0.000000000000000e+00
0.000000000000000e+00 0.000000000000000e+00 0.000000000000000e+00

0.000000000000000e+00 0.000000000000000e+00 0.000000000000000e+00
0.000000000000000e+00 0.000000000000000e+00 0.000000000000000e+00
0.000000000000000e+00 0.000000000000000e+00 0.000000000000000e+00

0.000000000000000e+00 0.000000000000000e+00 0.000000000000000e+00
0.000000000000000e+00 0.000000000000000e+00 0.000000000000000e+00
0.000000000000000e+00 0.000000000000000e+00 0.000000000000000e+00

0.000000000000000e+00 0.000000000000000e+00 0.000000000000000e+00
0.000000000000000e+00 0.000000000000000e+00 0.000000000000000e+00
0.000000000000000e+00 0.000000000000000e+00 0.000000000000000e+00

0.000000000000000e+00 0.000000000000000e+00 0.000000000000000e+00
0.000000000000000e+00 0.000000000000000e+00 0.000000000000000e+00
0.000000000000000e+00 0.000000000000000e+00 0.000000000000000e+00

0.000000000000000e+00 0.000000000000000e+00 0.000000000000000e+00
0.000000000000000e+00 0.000000000000000e+00 0.000000000000000e+00
0.000000000000000e+00 0.000000000000000e+00 0.000000000000000e+00

0.000000000000000e+00 0.000000000000000e+00 0.000000000000000e+00
0.000000000000000e+00 0.000000000000000e+00 0.000000000000000e+00
0.000000000000000e+00 0.000000000000000e+00 0.000000000000000e+00

0.000000000000000e+00 0.000000000000000e+00 0.000000000000000e+00
0.000000000000000e+00 0.000000000000000e+00 0.000000000000000e+00
0.000000000000000e+00 0.000000000000000e+00 0.000000000000000e+00

0.000000000000000e+00 0.000000000000000e+00 0.000000000000000e+00
0.000000000000000e+00 0.000000000000000e+00 0.000000000000000e+00
0.000000000000000e+00 0.000000000000000e+00 0.000000000000000e+00

0.000000000000000e+00 0.000000000000000e+00 0.000000000000000e+00
0.000000000000000e+00 0.000000000000000e+00 0.000000000000000e+00
0.000000000000000e+00 0.000000000000000e+00 0.000000000000000e+00

0.000000000000000e+00 0.000000000000000e+00 0.000000000000000e+00
0.000000000000000e+00 0.000000000000000e+00 0.000000000000000e+00
0.000000000000000e+00 0.000000000000000e+00 0.000000000000000e+00

0.000000000000000e+00 0.000000000000000e+00 0.000000000000000e+00
0.000000000000000e+00 0.000000000000000e+00 0.000000000000000e+00
0.000000000000000e+00 0.000000000000000e+00 0.000000000000000e+00

0.000000000000000e+00 0.000000000000000e+00 0.000000000000000e+00
0.000000000000000e+00 0.000000000000000e+00 0.000000000000000e+00
0.000000000000000e+00 0.000000000000000e+00 0.000000000000000e+00

0.000000000000000e+00 0.000000000000000e+00 0.000000000000000e+00
0.000000000000000e+00 0.000000000000000e+00 0.000000000000000e+00
0.000000000000000e+00 0.000000000000000e+00 0.000000000000000e+00

0.000000000000000e+00 0.000000000000000e+00 0.000000000000000e+00
0.000000000000000e+00 0.000000000000000e+00 0.000000000000000e+00
0.000000000000000e+00 0.000000000000000e+00 0.000000000000000e+00

0.000000000000000e+00 0.000000000000000e+00 0.000000000000000e+00
0.000000000000000e+00 0.000000000000000e+00 0.000000000000000e+00
0.000000000000000e+00 0.000000000000000e+00 0.000000000000000e+00

0.000000000000000e+00 0.000000000000000e+00 0.000000000000000e+00
0.000000000000000e+00 0.000000000000000e+00 0.000000000000000e+00
0.000000000000000e+00 0.000000000000000e+00 0.000000000000000e+00

0.000000000000000e+00 0.000000000000000e+00 0.000000000000000e+00
0.000000000000000e+00 0.000000000000000e+00 0.000000000000000e+00
0.000000000000000e+00 0.000000000000000e+00 0.000000000000000e+00

0.000000000000000e+00 0.000000000000000e+00 0.000000000000000e+00
0.000000000000000e+00 0.000000000000000e+00 0.000000000000000e+00
0.000000000000000e+00 0.000000000000000e+00 0.000000000000000e+00

0.000000000000000e+00 0.000000000000000e+00 0.000000000000000e+00
0.000000000000000e+00 0.000000000000000e+00 0.000000000000000e+00
0.000000000000000e+00 0.000000000000000e+00 0.000000000000000e+00

0.000000000000000e+00 0.000000000000000e+00 0.000000000000000e+00
0.000000000000000e+00 0.000000000000000e+00 0.000000000000000e+00
0.000000000000000e+00 0.000000000000000e+00 0.000000000000000e+00

0.000000000000000e+00 0.000000000000000e+00 0.000000000000000e+00
0.000000000000000e+00 0.000000000000000e+00 0.000000000000000e+00
0.000000000000000e+00 0.000000000000000e+00 0.000000000000000e+00

0.000000000000000e+00 0.000000000000000e+00 0.000000000000000e+00
0.000000000000000e+00 0.000000000000000e+00 0.000000000000000e+00
0.000000000000000e+00 0.000000000000000e+00 0.000000000000000e+00

0.000000000000000e+00 0.000000000000000e+00 0.000000000000000e+00
0.000000000000000e+00 0.000000000000000e+00 0.000000000000000e+00
0.000000000000000e+00 0.000000000000000e+00 0.000000000000000e+00

0.000000000000000e+00 0.000000000000000e+00 0.000000000000000e+00
0.000000000000000e+00 0.000000000000000e+00 0.000000000000000e+00
0.000000000000000e+00 0.000000000000000e+00 0.000000000000000e+00

0.000000000000000e+00 0.000000000000000e+00 0.000000000000000e+00
0.000000000000000e+00 0.000000000000000e+00 0.000000000000000e+00
0.000000000000000e+00 0.000000000000000e+00 0.000000000000000e+00

0.000000000000000e+00 0.000000000000000e+00 0.000000000000000e+00
0.000000000000000e+00 0.000000000000000e+00 0.000000000000000e+00
0.000000000000000e+00 0.000000000000000e+00 0.000000000000000e+00

0.000000000000000e+00 0.000000000000000e+00 0.000000000000000e+00
0.000000000000000e+00 0.000000000000000e+00 0.000000000000000e+00
0.000000000000000e+00 0.000000000000000e+00 0.000000000000000e+00

0.000000000000000e+00 0.000000000000000e+00 0.000000000000000e+00
0.000000000000000e+00 0.000000000000000e+00 0.000000000000000e+00
0.000000000000000e+00 0.000000000000000e+00 0.000000000000000e+00

0.000000000000000e+00 0.000000000000000e+00 0.000000000000000e+00
0.000000000000000e+00 0.000000000000000e+00 0.000000000000000e+00
0.000000000000000e+00 0.000000000000000e+00 0.000000000000000e+00

0.000000000000000e+00 0.000000000000000e+00 0.000000000000000e+00
0.000000000000000e+00 0.000000000000000e+00 0.000000000000000e+00
0.000000000000000e+00 0.000000000000000e+00 0.000000000000000e+00

0.000000000000000e+00 0.000000000000000e+00 0.000000000000000e+00
0.000000000000000e+00 0.000000000000000e+00 0.000000000000000e+00
0.000000000000000e+00 0.000000000000000e+00 0.000000000000000e+00

0.000000000000000e+00 0.000000000000000e+00 0.000000000000000e+00
0.000000000000000e+00 0.000000000000000e+00 0.000000000000000e+00
0.000000000000000e+00 0.000000000000000e+00 0.000000000000000e+00

0.000000000000000e+00 0.000000000000000e+00 0.000000000000000e+00
0.000000000000000e+00 0.000000000000000e+00 0.000000000000000e+00
0.000000000000000e+00 0.000000000000000e+00 0.000000000000000e+00

0.000000000000000e+00 0.000000000000000e+00 0.000000000000000e+00
0.000000000000000e+00 0.000000000000000e+00 0.000000000000000e+00
0.000000000000000e+00 0.000000000000000e+00 0.000000000000000e+00

0.000000000000000e+00 0.000000000000000e+00 0.000000000000000e+00
0.000000000000000e+00 0.000000000000000e+00 0.000000000000000e+00
0.000000000000000e+00 0.000000000000000e+00 0.000000000000000e+00

0.000000000000000e+00 0.000000000000000e+00 0.000000000000000e+00
0.000000000000000e+00 0.000000000000000e+00 0.000000000000000e+00
0.000000000000000e+00 0.000000000000000e+00 0.000000000000000e+00

0.000000000000000e+00 0.000000000000000e+00 0.000000000000000e+00
0.000000000000000e+00 0.000000000000000e+00 0.000000000000000e+00
0.000000000000000e+00 0.000000000000000e+00 0.000000000000000e+00

0.000000000000000e+00 0.000000000000000e+00 0.000000000000000e+00
0.000000000000000e+00 0.000000000000000e+00 0.000000000000000e+00
0.000000000000000e+00 0.000000000000000e+00 0.000000000000000e+00

0.000000000000000e+00 0.000000000000000e+00 0.000000000000000e+00
0.000000000000000e+00 0.000000000000000e+00 0.000000000000000e+00
0.000000000000000e+00 0.000000000000000e+00 0.000000000000000e+00

0.000000000000000e+00 0.000000000000000e+00 0.000000000000000e+00
0.000000000000000e+00 0.000000000000000e+00 0.000000000000000e+00
0.000000000000000e+00 0.000000000000000e+00 0.000000000000000e+00

0.000000000000000e+00 0.000000000000000e+00 0.000000000000000e+00
0.000000000000000e+00 0.000000000000000e+00 0.000000000000000e+00
0.000000000000000e+00 0.000000000000000e+00 0.000000000000000e+00

0.000000000000000e+00 0.000000000000000e+00 0.000000000000000e+00
0.000000000000000e+00 0.000000000000000e+00 0.000000000000000e+00
0.000000000000000e+00 0.000000000000000e+00 0.000000000000000e+00

0.000000000000000e+00 0.000000000000000e+00 0.000000000000000e+00
0.000000000000000e+00 0.000000000000000e+00 0.000000000000000e+00
0.000000000000000e+00 0.000000000000000e+00 0.000000000000000e+00

0.000000000000000e+00 0.000000000000000e+00 0.000000000000000e+00
0.000000000000000e+00 0.000000000000000e+00 0.000000000000000e+00
0.000000000000000e+00 0.000000000000000e+00 0.000000000000000e+00

0.000000000000000e+00 0.000000000000000e+00 0.000000000000000e+00
0.000000000000000e+00 0.000000000000000e+00 0.000000000000000e+00
0.000000000000000e+00 0.000000000000000e+00 0.000000000000000e+00

0.000000000000000e+00 0.000000000000000e+00 0.000000000000000e+00
0.000000000000000e+00 0.000000000000000e+00 0.000000000000000e+00
0.000000000000000e+00 0.000000000000000e+00 0.000000000000000e+00

0.000000000000000e+00 0.000000000000000e+00 0.000000000000000e+00
0.000000000000000e+00 0.000000000000000e+00 0.000000000000000e+00
0.000000000000000e+00 0.000000000000000e+00 0.000000000000000e+00

0.000000000000000e+00 0.000000000000000e+00 0.000000000000000e+00
0.000000000000000e+00 0.000000000000000e+00 0.000000000000000e+00
0.000000000000000e+00 0.000000000000000e+00 0.000000000000000e+00

0.000000000000000e+00 0.000000000000000e+00 0.000000000000000e+00
0.000000000000000e+00 0.000000000000000e+00 0.000000000000000e+00
0.000000000000000e+00 0.000000000000000e+00 0.000000000000000e+00

0.000000000000000e+00 0.000000000000000e+00 0.000000000000000e+00
0.000000000000000e+00 0.000000000000000e+00 0.000000000000000e+00
0.000000000000000e+00 0.000000000000000e+00 0.000000000000000e+00

0.000000000000000e+00 0.000000000000000e+00 0.000000000000000e+00
0.000000000000000e+00 0.000000000000000e+00 0.000000000000000e+00
0.000000000000000e+00 0.000000000000000e+00 0.000000000000000e+00

0.000000000000000e+00 0.000000000000000e+00 0.000000000000000e+00
0.000000000000000e+00 0.000000000000000e+00 0.000000000000000e+00
0.000000000000000e+00 0.000000000000000e+00 0.000000000000000e+00

0.000000000000000e+00 0.000000000000000e+00 0.000000000000000e+00
0.000000000000000e+00 0.000000000000000e+00 0.000000000000000e+00
0.000000000000000e+00 0.000000000000000e+00 0.000000000000000e+00

0.000000000000000e+00 0.000000000000000e+00 0.000000000000000e+00
0.000000000000000e+00 0.000000000000000e+00 0.000000000000000e+00
0.000000000000000e+00 0.000000000000000e+00 0.000000000000000e+00

0.000000000000000e+00 0.000000000000000e+00 0.000000000000000e+00
0.000000000000000e+00 0.000000000000000e+00 0.000000000000000e+00
0.000000000000000e+00 0.000000000000000e+00 0.000000000000000e+00

0.000000000000000e+00 0.000000000000000e+00 0.000000000000000e+00
0.000000000000000e+00 0.000000000000000e+00 0.000000000000000e+00
0.000000000000000e+00 0.000000000000000e+00 0.000000000000000e+00

0.000000000000000e+00 0.000000000000000e+00 0.000000000000000e+00
0.000000000000000e+00 0.000000000000000e+00 0.000000000000000e+00
0.000000000000000e+00 0.000000000000000e+00 0.000000000000000e+00

0.000000000000000e+00 0.000000000000000e+00 0.000000000000000e+00
0.000000000000000e+00 0.000000000000000e+00 0.000000000000000e+00
0.000000000000000e+00 0.000000000000000e+00 0.000000000000000e+00

0.000000000000000e+00 0.000000000000000e+00 0.000000000000000e+00
0.000000000000000e+00 0.000000000000000e+00 0.000000000000000e+00
0.000000000000000e+00 0.000000000000000e+00 0.000000000000000e+00

0.000000000000000e+00 0.000000000000000e+00 0.000000000000000e+00
0.000000000000000e+00 0.000000000000000e+00 0.000000000000000e+00
0.000000000000000e+00 0.000000000000000e+00 0.000000000000000e+00

0.000000000000000e+00 0.000000000000000e+00 0.000000000000000e+00
0.000000000000000e+00 0.000000000000000e+00 0.000000000000000e+00
0.000000000000000e+00 0.000000000000000e+00 0.000000000000000e+00

0.000000000000000e+00 0.000000000000000e+00 0.000000000000000e+00
0.000000000000000e+00 0.000000000000000e+00 0.000000000000000e+00
0.000000000000000e+00 0.000000000000000e+00 0.000000000000000e+00

0.000000000000000e+00 0.000000000000000e+00 0.000000000000000e+00
0.000000000000000e+00 0.000000000000000e+00 0.000000000000000e+00
0.000000000000000e+00 0.000000000000000e+00 0.000000000000000e+00

0.000000000000000e+00 0.000000000000000e+00 0.000000000000000e+00
0.000000000000000e+00 0.000000000000000e+00 0.000000000000000e+00
0.000000000000000e+00 0.000000000000000e+00 0.000000000000000e+00

0.000000000000000e+00 0.000000000000000e+00 0.000000000000000e+00
0.000000000000000e+00 0.000000000000000e+00 0.000000000000000e+00
0.000000000000000e+00 0.000000000000000e+00 0.000000000000000e+00

0.000000000000000e+00 0.000000000000000e+00 0.000000000000000e+00
0.000000000000000e+00 0.000000000000000e+00 0.000000000000000e+00
0.000000000000000e+00 0.000000000000000e+00 0.000000000000000e+00

0.000000000000000e+00 0.000000000000000e+00 0.000000000000000e+00
0.000000000000000e+00 0.000000000000000e+00 0.000000000000000e+00
0.000000000000000e+00 0.000000000000000e+00 0.000000000000000e+00

0.000000000000000e+00 0.000000000000000e+00 0.000000000000000e+00
0.000000000000000e+00 0.000000000000000e+00 0.000000000000000e+00
0.000000000000000e+00 0.000000000000000e+00 0.000000000000000e+00

0.000000000000000e+00 0.000000000000000e+00 0.000000000000000e+00
0.000000000000000e+00 0.000000000000000e+00 0.000000000000000e+00
0.000000000000000e+00 0.000000000000000e+00 0.000000000000000e+00

0.000000000000000e+00 0.000000000000000e+00 0.000000000000000e+00
0.000000000000000e+00 0.000000000000000e+00 0.000000000000000e+00
0.000000000000000e+00 0.000000000000000e+00 0.000000000000000e+00

0.000000000000000e+00 0.000000000000000e+00 0.000000000000000e+00
0.000000000000000e+00 0.000000000000000e+00 0.000000000000000e+00
0.000000000000000e+00 0.000000000000000e+00 0.000000000000000e+00

0.000000000000000e+00 0.000000000000000e+00 0.000000000000000e+00
0.000000000000000e+00 0.000000000000000e+00 0.000000000000000e+00
0.000000000000000e+00 0.000000000000000e+00 0.000000000000000e+00

0.000000000000000e+00 0.000000000000000e+00 0.000000000000000e+00
0.000000000000000e+00 0.000000000000000e+00 0.000000000000000e+00
0.000000000000000e+00 0.000000000000000e+00 0.000000000000000e+00

0.000000000000000e+00 0.000000000000000e+00 0.000000000000000e+00
0.000000000000000e+00 0.000000000000000e+00 0.000000000000000e+00
0.000000000000000e+00 0.000000000000000e+00 0.000000000000000e+00

0.000000000000000e+00 0.000000000000000e+00 0.000000000000000e+00
0.000000000000000e+00 0.000000000000000e+00 0.000000000000000e+00
0.000000000000000e+00 0.000000000000000e+00 0.000000000000000e+00

0.000000000000000e+00 0.000000000000000e+00 0.000000000000000e+00
0.000000000000000e+00 0.000000000000000e+00 0.000000000000000e+00
0.000000000000000e+00 0.000000000000000e+00 0.000000000000000e+00

0.000000000000000e+00 0.000000000000000e+00 0.000000000000000e+00
0.000000000000000e+00 0.000000000000000e+00 0.000000000000000e+00
0.000000000000000e+00 0.000000000000000e+00 0.000000000000000e+00

0.000000000000000e+00 0.000000000000000e+00 0.000000000000000e+00
0.000000000000000e+00 0.000000000000000e+00 0.000000000000000e+00
0.000000000000000e+00 0.000000000000000e+00 0.000000000000000e+00

0.000000000000000e+00 0.000000000000000e+00 0.000000000000000e+00
0.000000000000000e+00 0.000000000000000e+00 0.000000000000000e+00
0.000000000000000e+00 0.000000000000000e+00 0.000000000000000e+00

0.000000000000000e+00 0.000000000000000e+00 0.000000000000000e+00
0.000000000000000e+00 0.000000000000000e+00 0.000000000000000e+00
0.000000000000000e+00 0.000000000000000e+00 0.000000000000000e+00

0.000000000000000e+00 0.000000000000000e+00 0.000000000000000e+00
0.000000000000000e+00 0.000000000000000e+00 0.000000000000000e+00
0.000000000000000e+00 0.000000000000000e+00 0.000000000000000e+00

0.000000000000000e+00 0.000000000000000e+00 0.000000000000000e+00
0.000000000000000e+00 0.000000000000000e+00 0.000000000000000e+00
0.000000000000000e+00 0.000000000000000e+00 0.000000000000000e+00

0.000000000000000e+00 0.000000000000000e+00 0.000000000000000e+00
0.000000000000000e+00 0.000000000000000e+00 0.000000000000000e+00
0.000000000000000e+00 0.000000000000000e+00 0.000000000000000e+00

0.000000000000000e+00 0.000000000000000e+00 0.000000000000000e+00
0.000000000000000e+00 0.000000000000000e+00 0.000000000000000e+00
0.000000000000000e+00 0.000000000000000e+00 0.000000000000000e+00

0.000000000000000e+00 0.000000000000000e+00 0.000000000000000e+00
0.000000000000000e+00 0.000000000000000e+00 0.000000000000000e+00
0.000000000000000e+00 0.000000000000000e+00 0.000000000000000e+00

0.000000000000000e+00 0.000000000000000e+00 0.000000000000000e+00
0.000000000000000e+00 0.000000000000000e+00 0.000000000000000e+00
0.000000000000000e+00 0.000000000000000e+00 0.000000000000000e+00

0.000000000000000e+00 0.000000000000000e+00 0.000000000000000e+00
0.000000000000000e+00 0.000000000000000e+00 0.000000000000000e+00
0.000000000000000e+00 0.000000000000000e+00 0.000000000000000e+00

0.000000000000000e+00 0.000000000000000e+00 0.000000000000000e+00
0.000000000000000e+00 0.000000000000000e+00 0.000000000000000e+00
0.000000000000000e+00 0.000000000000000e+00 0.000000000000000e+00

0.000000000000000e+00 0.000000000000000e+00 0.000000000000000e+00
0.000000000000000e+00 0.000000000000000e+00 0.000000000000000e+00
0.000000000000000e+00 0.000000000000000e+00 0.000000000000000e+00

0.000000000000000e+00 0.000000000000000e+00 0.000000000000000e+00
0.000000000000000e+00 0.000000000000000e+00 0.000000000000000e+00
0.000000000000000e+00 0.000000000000000e+00 0.000000000000000e+00

0.000000000000000e+00 0.000000000000000e+00 0.000000000000000e+00
0.000000000000000e+00 0.000000000000000e+00 0.000000000000000e+00
0.000000000000000e+00 0.000000000000000e+00 0.000000000000000e+00

0.000000000000000e+00 0.000000000000000e+00 0.000000000000000e+00
0.000000000000000e+00 0.000000000000000e+00 0.000000000000000e+00
0.000000000000000e+00 0.000000000000000e+00 0.000000000000000e+00

0.000000000000000e+00 0.000000000000000e+00 0.000000000000000e+00
0.000000000000000e+00 0.000000000000000e+00 0.000000000000000e+00
0.000000000000000e+00 0.000000000000000e+00 0.000000000000000e+00

0.000000000000000e+00 0.000000000000000e+00 0.000000000000000e+00
0.000000000000000e+00 0.000000000000000e+00 0.000000000000000e+00
0.000000000000000e+00 0.000000000000000e+00 0.000000000000000e+00

0.000000000000000e+00 0.000000000000000e+00 0.000000000000000e+00
0.000000000000000e+00 0.000000000000000e+00 0.000000000000000e+00
0.000000000000000e+00 0.000000000000000e+00 0.000000000000000e+00

0.000000000000000e+00 0.000000000000000e+00 0.000000000000000e+00
0.000000000000000e+00 0.000000000000000e+00 0.000000000000000e+00
0.000000000000000e+00 0.000000000000000e+00 0.000000000000000e+00

0.000000000000000e+00 0.000000000000000e+00 0.000000000000000e+00
0.000000000000000e+00 0.000000000000000e+00 0.000000000000000e+00
0.000000000000000e+00 0.000000000000000e+00 0.000000000000000e+00

0.000000000000000e+00 0.000000000000000e+00 0.000000000000000e+00
0.000000000000000e+00 0.000000000000000e+00 0.000000000000000e+00
0.000000000000000e+00 0.000000000000000e+00 0.000000000000000e+00

0.000000000000000e+00 0.000000000000000e+00 0.000000000000000e+00
0.000000000000000e+00 0.000000000000000e+00 0.000000000000000e+00
0.000000000000000e+00 0.000000000000000e+00 0.000000000000000e+00

0.000000000000000e+00 0.000000000000000e+00 0.000000000000000e+00
0.000000000000000e+00 0.000000000000000e+00 0.000000000000000e+00
0.000000000000000e+00 0.000000000000000e+00 0.000000000000000e+00

0.000000000000000e+00 0.000000000000000e+00 0.000000000000000e+00
0.000000000000000e+00 0.000000000000000e+00 0.000000000000000e+00
0.000000000000000e+00 0.000000000000000e+00 0.000000000000000e+00

0.000000000000000e+00 0.000000000000000e+00 0.000000000000000e+00
0.000000000000000e+00 0.000000000000000e+00 0.000000000000000e+00
0.000000000000000e+00 0.000000000000000e+00 0.000000000000000e+00

0.000000000000000e+00 0.000000000000000e+00 0.000000000000000e+00
0.000000000000000e+00 0.000000000000000e+00 0.000000000000000e+00
0.000000000000000e+00 0.000000000000000e+00 0.000000000000000e+00

0.000000000000000e+00 0.000000000000000e+00 0.000000000000000e+00
0.000000000000000e+00 0.000000000000000e+00 0.000000000000000e+00
0.000000000000000e+00 0.000000000000000e+00 0.000000000000000e+00

0.000000000000000e+00 0.000000000000000e+00 0.000000000000000e+00
0.000000000000000e+00 0.000000000000000e+00 0.000000000000000e+00
0.000000000000000e+00 0.000000000000000e+00 0.000000000000000e+00

0.000000000000000e+00 0.000000000000000e+00 0.000000000000000e+00
0.000000000000000e+00 0.000000000000000e+00 0.000000000000000e+00
0.000000000000000e+00 0.000000000000000e+00 0.000000000000000e+00

0.000000000000000e+00 0.000000000000000e+00 0.000000000000000e+00
0.000000000000000e+00 0.000000000000000e+00 0.000000000000000e+00
0.000000000000000e+00 0.000000000000000e+00 0.000000000000000e+00

0.000000000000000e+00 0.000000000000000e+00 0.000000000000000e+00
0.000000000000000e+00 0.000000000000000e+00 0.000000000000000e+00
0.000000000000000e+00 0.000000000000000e+00 0.000000000000000e+00

0.000000000000000e+00 0.000000000000000e+00 0.000000000000000e+00
0.000000000000000e+00 0.000000000000000e+00 0.000000000000000e+00
0.000000000000000e+00 0.000000000000000e+00 0.000000000000000e+00

0.000000000000000e+00 0.000000000000000e+00 0.000000000000000e+00
0.000000000000000e+00 0.000000000000000e+00 0.000000000000000e+00
0.000000000000000e+00 0.000000000000000e+00 0.000000000000000e+00

0.000000000000000e+00 0.000000000000000e+00 0.000000000000000e+00
0.000000000000000e+00 0.000000000000000e+00 0.000000000000000e+00
0.000000000000000e+00 0.000000000000000e+00 0.000000000000000e+00

0.000000000000000e+00 0.000000000000000e+00 0.000000000000000e+00
0.000000000000000e+00 0.000000000000000e+00 0.000000000000000e+00
0.000000000000000e+00 0.000000000000000e+00 0.000000000000000e+00

0.000000000000000e+00 0.000000000000000e+00 0.000000000000000e+00
0.000000000000000e+00 0.000000000000000e+00 0.000000000000000e+00
0.000000000000000e+00 0.000000000000000e+00 0.000000000000000e+00

0.000000000000000e+00 0.000000000000000e+00 0.000000000000000e+00
0.000000000000000e+00 0.000000000000000e+00 0.000000000000000e+00
0.000000000000000e+00 0.000000000000000e+00 0.000000000000000e+00

0.000000000000000e+00 0.000000000000000e+00 0.000000000000000e+00
0.000000000000000e+00 0.000000000000000e+00 0.000000000000000e+00
0.000000000000000e+00 0.000000000000000e+00 0.000000000000000e+00

0.000000000000000e+00 0.000000000000000e+00 0.000000000000000e+00
0.000000000000000e+00 0.000000000000000e+00 0.000000000000000e+00
0.000000000000000e+00 0.000000000000000e+00 0.000000000000000e+00

0.000000000000000e+00 0.000000000000000e+00 0.000000000000000e+00
0.000000000000000e+00 0.000000000000000e+00 0.000000000000000e+00
0.000000000000000e+00 0.000000000000000e+00 0.000000000000000e+00

0.000000000000000e+00 0.000000000000000e+00 0.000000000000000e+00
0.000000000000000e+00 0.000000000000000e+00 0.000000000000000e+00
0.000000000000000e+00 0.000000000000000e+00 0.000000000000000e+00

0.000000000000000e+00 0.000000000000000e+00 0.000000000000000e+00
0.000000000000000e+00 0.000000000000000e+00 0.000000000000000e+00
0.000000000000000e+00 0.000000000000000e+00 0.000000000000000e+00

0.000000000000000e+00 0.000000000000000e+00 0.000000000000000e+00
0.000000000000000e+00 0.000000000000000e+00 0.000000000000000e+00
0.000000000000000e+00 0.000000000000000e+00 0.000000000000000e+00

0.000000000000000e+00 0.000000000000000e+00 0.000000000000000e+00
0.000000000000000e+00 0.000000000000000e+00 0.000000000000000e+00
0.000000000000000e+00 0.000000000000000e+00 0.000000000000000e+00

0.000000000000000e+00 0.000000000000000e+00 0.000000000000000e+00
0.000000000000000e+00 0.000000000000000e+00 0.000000000000000e+00
0.000000000000000e+00 0.000000000000000e+00 0.000000000000000e+00

0.000000000000000e+00 0.000000000000000e+00 0.000000000000000e+00
0.000000000000000e+00 0.000000000000000e+00 0.000000000000000e+00
0.000000000000000e+00 0.000000000000000e+00 0.000000000000000e+00

0.000000000000000e+00 0.000000000000000e+00 0.000000000000000e+00
0.000000000000000e+00 0.000000000000000e+00 0.000000000000000e+00
0.000000000000000e+00 0.000000000000000e+00 0.000000000000000e+00

0.000000000000000e+00 0.000000000000000e+00 0.000000000000000e+00
0.000000000000000e+00 0.000000000000000e+00 0.000000000000000e+00
0.000000000000000e+00 0.000000000000000e+00 0.000000000000000e+00

0.000000000000000e+00 0.000000000000000e+00 0.000000000000000e+00
0.000000000000000e+00 0.000000000000000e+00 0.000000000000000e+00
0.000000000000000e+00 0.000000000000000e+00 0.000000000000000e+00

0.000000000000000e+00 0.000000000000000e+00 0.000000000000000e+00
0.000000000000000e+00 0.000000000000000e+00 0.000000000000000e+00
0.000000000000000e+00 0.000000000000000e+00 0.000000000000000e+00

0.000000000000000e+00 0.000000000000000e+00 0.000000000000000e+00
0.000000000000000e+00 0.000000000000000e+00 0.000000000000000e+00
0.000000000000000e+00 0.000000000000000e+00 0.000000000000000e+00

0.000000000000000e+00 0.000000000000000e+00 0.000000000000000e+00
0.000000000000000e+00 0.000000000000000e+00 0.000000000000000e+00
0.000000000000000e+00 0.000000000000000e+00 0.000000000000000e+00

0.000000000000000e+00 0.000000000000000e+00 0.000000000000000e+00
0.000000000000000e+00 0.000000000000000e+00 0.000000000000000e+00
0.000000000000000e+00 0.000000000000000e+00 0.000000000000000e+00

0.000000000000000e+00 0.000000000000000e+00 0.000000000000000e+00
0.000000000000000e+00 0.000000000000000e+00 0.000000000000000e+00
0.000000000000000e+00 0.000000000000000e+00 0.000000000000000e+00

0.000000000000000e+00 0.000000000000000e+00 0.000000000000000e+00
0.000000000000000e+00 0.000000000000000e+00 0.000000000000000e+00
0.000000000000000e+00 0.000000000000000e+00 0.000000000000000e+00

0.000000000000000e+00 0.000000000000000e+00 0.000000000000000e+00
0.000000000000000e+00 0.000000000000000e+00 0.000000000000000e+00
0.000000000000000e+00 0.000000000000000e+00 0.000000000000000e+00

0.000000000000000e+00 0.000000000000000e+00 0.000000000000000e+00
0.000000000000000e+00 0.000000000000000e+00 0.000000000000000e+00
0.000000000000000e+00 0.000000000000000e+00 0.000000000000000e+00

0.000000000000000e+00 0.000000000000000e+00 0.000000000000000e+00
0.000000000000000e+00 0.000000000000000e+00 0.000000000000000e+00
0.000000000000000e+00 0.000000000000000e+00 0.000000000000000e+00

0.000000000000000e+00 0.000000000000000e+00 0.000000000000000e+00
0.000000000000000e+00 0.000000000000000e+00 0.000000000000000e+00
0.000000000000000e+00 0.000000000000000e+00 0.000000000000000e+00

0.000000000000000e+00 0.000000000000000e+00 0.000000000000000e+00
0.000000000000000e+00 0.000000000000000e+00 0.000000000000000e+00
0.000000000000000e+00 0.000000000000000e+00 0.000000000000000e+00

0.000000000000000e+00 0.000000000000000e+00 0.000000000000000e+00
0.000000000000000e+00 0.000000000000000e+00 0.000000000000000e+00
0.000000000000000e+00 0.000000000000000e+00 0.000000000000000e+00

0.000000000000000e+00 0.000000000000000e+00 0.000000000000000e+00
0.000000000000000e+00 0.000000000000000e+00 0.000000000000000e+00
0.000000000000000e+00 0.000000000000000e+00 0.000000000000000e+00

0.000000000000000e+00 0.000000000000000e+00 0.000000000000000e+00
0.000000000000000e+00 0.000000000000000e+00 0.000000000000000e+00
0.000000000000000e+00 0.000000000000000e+00 0.000000000000000e+00

0.000000000000000e+00 0.000000000000000e+00 0.000000000000000e+00
0.000000000000000e+00 0.000000000000000e+00 0.000000000000000e+00
0.000000000000000e+00 0.000000000000000e+00 0.000000000000000e+00

0.000000000000000e+00 0.000000000000000e+00 0.000000000000000e+00
0.000000000000000e+00 0.000000000000000e+00 0.000000000000000e+00
0.000000000000000e+00 0.000000000000000e+00 0.000000000000000e+00

0.000000000000000e+00 0.000000000000000e+00 0.000000000000000e+00
0.000000000000000e+00 0.000000000000000e+00 0.000000000000000e+00
0.000000000000000e+00 0.000000000000000e+00 0.000000000000000e+00

0.000000000000000e+00 0.000000000000000e+00 0.000000000000000e+00
0.000000000000000e+00 0.000000000000000e+00 0.000000000000000e+00
0.000000000000000e+00 0.000000000000000e+00 0.000000000000000e+00

0.000000000000000e+00 0.000000000000000e+00 0.000000000000000e+00
0.000000000000000e+00 0.000000000000000e+00 0.000000000000000e+00
0.000000000000000e+00 0.000000000000000e+00 0.000000000000000e+00

0.000000000000000e+00 0.000000000000000e+00 0.000000000000000e+00
0.000000000000000e+00 0.000000000000000e+00 0.000000000000000e+00
0.000000000000000e+00 0.000000000000000e+00 0.000000000000000e+00

0.000000000000000e+00 0.000000000000000e+00 0.000000000000000e+00
0.000000000000000e+00 0.000000000000000e+00 0.000000000000000e+00
0.000000000000000e+00 0.000000000000000e+00 0.000000000000000e+00

0.000000000000000e+00 0.000000000000000e+00 0.000000000000000e+00
0.000000000000000e+00 0.000000000000000e+00 0.000000000000000e+00
0.000000000000000e+00 0.000000000000000e+00 0.000000000000000e+00

0.000000000000000e+00 0.000000000000000e+00 0.000000000000000e+00
0.000000000000000e+00 0.000000000000000e+00 0.000000000000000e+00
0.000000000000000e+00 0.000000000000000e+00 0.000000000000000e+00

0.000000000000000e+00 0.000000000000000e+00 0.000000000000000e+00
0.000000000000000e+00 0.000000000000000e+00 0.000000000000000e+00
0.000000000000000e+00 0.000000000000000e+00 0.000000000000000e+00

0.000000000000000e+00 0.000000000000000e+00 0.000000000000000e+00
0.000000000000000e+00 0.000000000000000e+00 0.000000000000000e+00
0.000000000000000e+00 0.000000000000000e+00 0.000000000000000e+00

0.000000000000000e+00 0.000000000000000e+00 0.000000000000000e+00
0.000000000000000e+00 0.000000000000000e+00 0.000000000000000e+00
0.000000000000000e+00 0.000000000000000e+00 0.000000000000000e+00

0.000000000000000e+00 0.000000000000000e+00 0.000000000000000e+00
0.000000000000000e+00 0.000000000000000e+00 0.000000000000000e+00
0.000000000000000e+00 0.000000000000000e+00 0.000000000000000e+00

0.000000000000000e+00 0.000000000000000e+00 0.000000000000000e+00
0.000000000000000e+00 0.000000000000000e+00 0.000000000000000e+00
0.000000000000000e+00 0.000000000000000e+00 0.000000000000000e+00

0.000000000000000e+00 0.000000000000000e+00 0.000000000000000e+00
0.000000000000000e+00 0.000000000000000e+00 0.000000000000000e+00
0.000000000000000e+00 0.000000000000000e+00 0.000000000000000e+00

0.000000000000000e+00 0.000000000000000e+00 0.000000000000000e+00
0.000000000000000e+00 0.000000000000000e+00 0.000000000000000e+00
0.000000000000000e+00 0.000000000000000e+00 0.000000000000000e+00

0.000000000000000e+00 0.000000000000000e+00 0.000000000000000e+00
0.000000000000000e+00 0.000000000000000e+00 0.000000000000000e+00
0.000000000000000e+00 0.000000000000000e+00 0.000000000000000e+00

0.000000000000000e+00 0.000000000000000e+00 0.000000000000000e+00
0.000000000000000e+00 0.000000000000000e+00 0.000000000000000e+00
0.000000000000000e+00 0.000000000000000e+00 0.000000000000000e+00

0.000000000000000e+00 0.000000000000000e+00 0.000000000000000e+00
0.000000000000000e+00 0.000000000000000e+00 0.000000000000000e+00
0.000000000000000e+00 0.000000000000000e+00 0.000000000000000e+00

0.000000000000000e+00 0.000000000000000e+00 0.000000000000000e+00
0.000000000000000e+00 0.000000000000000e+00 0.000000000000000e+00
0.000000000000000e+00 0.000000000000000e+00 0.000000000000000e+00

0.000000000000000e+00 0.000000000000000e+00 0.000000000000000e+00
0.000000000000000e+00 0.000000000000000e+00 0.000000000000000e+00
0.000000000000000e+00 0.000000000000000e+00 0.000000000000000e+00

0.000000000000000e+00 0.000000000000000e+00 0.000000000000000e+00
0.000000000000000e+00 0.000000000000000e+00 0.000000000000000e+00
0.000000000000000e+00 0.000000000000000e+00 0.000000000000000e+00

0.000000000000000e+00 0.000000000000000e+00 0.000000000000000e+00
0.000000000000000e+00 0.000000000000000e+00 0.000000000000000e+00
0.000000000000000e+00 0.000000000000000e+00 0.000000000000000e+00

0.000000000000000e+00 0.000000000000000e+00 0.000000000000000e+00
0.000000000000000e+00 0.000000000000000e+00 0.000000000000000e+00
0.000000000000000e+00 0.000000000000000e+00 0.000000000000000e+00

0.000000000000000e+00 0.000000000000000e+00 0.000000000000000e+00
0.000000000000000e+00 0.000000000000000e+00 0.000000000000000e+00
0.000000000000000e+00 0.000000000000000e+00 0.000000000000000e+00

0.000000000000000e+00 0.000000000000000e+00 0.000000000000000e+00
0.000000000000000e+00 0.000000000000000e+00 0.000000000000000e+00
0.000000000000000e+00 0.000000000000000e+00 0.000000000000000e+00

0.000000000000000e+00 0.000000000000000e+00 0.000000000000000e+00
0.000000000000000e+00 0.000000000000000e+00 0.000000000000000e+00
0.000000000000000e+00 0.000000000000000e+00 0.000000000000000e+00

0.000000000000000e+00 0.000000000000000e+00 0.000000000000000e+00
0.000000000000000e+00 0.000000000000000e+00 0.000000000000000e+00
0.000000000000000e+00 0.000000000000000e+00 0.000000000000000e+00

0.000000000000000e+00 0.000000000000000e+00 0.000000000000000e+00
0.000000000000000e+00 0.000000000000000e+00 0.000000000000000e+00
0.000000000000000e+00 0.000000000000000e+00 0.000000000000000e+00

0.000000000000000e+00 0.000000000000000e+00 0.000000000000000e+00
0.000000000000000e+00 0.000000000000000e+00 0.000000000000000e+00
0.000000000000000e+00 0.000000000000000e+00 0.000000000000000e+00

0.000000000000000e+00 0.000000000000000e+00 0.000000000000000e+00
0.000000000000000e+00 0.000000000000000e+00 0.000000000000000e+00
0.000000000000000e+00 0.000000000000000e+00 0.000000000000000e+00

0.000000000000000e+00 0.000000000000000e+00 0.000000000000000e+00
0.000000000000000e+00 0.000000000000000e+00 0.000000000000000e+00
0.000000000000000e+00 0.000000000000000e+00 0.000000000000000e+00

0.000000000000000e+00 0.000000000000000e+00 0.000000000000000e+00
0.000000000000000e+00 0.000000000000000e+00 0.000000000000000e+00
0.000000000000000e+00 0.000000000000000e+00 0.000000000000000e+00

0.000000000000000e+00 0.000000000000000e+00 0.000000000000000e+00
0.000000000000000e+00 0.000000000000000e+00 0.000000000000000e+00
0.000000000000000e+00 0.000000000000000e+00 0.000000000000000e+00

0.000000000000000e+00 0.000000000000000e+00 0.000000000000000e+00
0.000000000000000e+00 0.000000000000000e+00 0.000000000000000e+00
0.000000000000000e+00 0.000000000000000e+00 0.000000000000000e+00

0.000000000000000e+00 0.000000000000000e+00 0.000000000000000e+00
0.000000000000000e+00 0.000000000000000e+00 0.000000000000000e+00
0.000000000000000e+00 0.000000000000000e+00 0.000000000000000e+00

0.000000000000000e+00 0.000000000000000e+00 0.000000000000000e+00
0.000000000000000e+00 0.000000000000000e+00 0.000000000000000e+00
0.000000000000000e+00 0.000000000000000e+00 0.000000000000000e+00

0.000000000000000e+00 0.000000000000000e+00 0.000000000000000e+00
0.000000000000000e+00 0.000000000000000e+00 0.000000000000000e+00
0.000000000000000e+00 0.000000000000000e+00 0.000000000000000e+00

0.000000000000000e+00 0.000000000000000e+00 0.000000000000000e+00
0.000000000000000e+00 0.000000000000000e+00 0.000000000000000e+00
0.000000000000000e+00 0.000000000000000e+00 0.000000000000000e+00

0.000000000000000e+00 0.000000000000000e+00 0.000000000000000e+00
0.000000000000000e+00 0.000000000000000e+00 0.000000000000000e+00
0.000000000000000e+00 0.000000000000000e+00 0.000000000000000e+00

0.000000000000000e+00 0.000000000000000e+00 0.000000000000000e+00
0.000000000000000e+00 0.000000000000000e+00 0.000000000000000e+00
0.000000000000000e+00 0.000000000000000e+00 0.000000000000000e+00

0.000000000000000e+00 0.000000000000000e+00 0.000000000000000e+00
0.000000000000000e+00 0.000000000000000e+00 0.000000000000000e+00
0.000000000000000e+00 0.000000000000000e+00 0.000000000000000e+00

0.000000000000000e+00 0.000000000000000e+00 0.000000000000000e+00
0.000000000000000e+00 0.000000000000000e+00 0.000000000000000e+00
0.000000000000000e+00 0.000000000000000e+00 0.000000000000000e+00

0.000000000000000e+00 0.000000000000000e+00 0.000000000000000e+00
0.000000000000000e+00 0.000000000000000e+00 0.000000000000000e+00
0.000000000000000e+00 0.000000000000000e+00 0.000000000000000e+00

0.000000000000000e+00 0.000000000000000e+00 0.000000000000000e+00
0.000000000000000e+00 0.000000000000000e+00 0.000000000000000e+00
0.000000000000000e+00 0.000000000000000e+00 0.000000000000000e+00

0.000000000000000e+00 0.000000000000000e+00 0.000000000000000e+00
0.000000000000000e+00 0.000000000000000e+00 0.000000000000000e+00
0.000000000000000e+00 0.000000000000000e+00 0.000000000000000e+00

0.000000000000000e+00 0.000000000000000e+00 0.000000000000000e+00
0.000000000000000e+00 0.000000000000000e+00 0.000000000000000e+00
0.000000000000000e+00 0.000000000000000e+00 0.000000000000000e+00

0.000000000000000e+00 0.000000000000000e+00 0.000000000000000e+00
0.000000000000000e+00 0.000000000000000e+00 0.000000000000000e+00
0.000000000000000e+00 0.000000000000000e+00 0.000000000000000e+00

0.000000000000000e+00 0.000000000000000e+00 0.000000000000000e+00
0.000000000000000e+00 0.000000000000000e+00 0.000000000000000e+00
0.000000000000000e+00 0.000000000000000e+00 0.000000000000000e+00

0.000000000000000e+00 0.000000000000000e+00 0.000000000000000e+00
0.000000000000000e+00 0.000000000000000e+00 0.000000000000000e+00
0.000000000000000e+00 0.000000000000000e+00 0.000000000000000e+00

0.000000000000000e+00 0.000000000000000e+00 0.000000000000000e+00
0.000000000000000e+00 0.000000000000000e+00 0.000000000000000e+00
0.000000000000000e+00 0.000000000000000e+00 0.000000000000000e+00

0.000000000000000e+00 0.000000000000000e+00 0.000000000000000e+00
0.000000000000000e+00 0.000000000000000e+00 0.000000000000000e+00
0.000000000000000e+00 0.000000000000000e+00 0.000000000000000e+00

0.000000000000000e+00 0.000000000000000e+00 0.000000000000000e+00
0.000000000000000e+00 0.000000000000000e+00 0.000000000000000e+00
0.000000000000000e+00 0.000000000000000e+00 0.000000000000000e+00

0.000000000000000e+00 0.000000000000000e+00 0.000000000000000e+00
0.000000000000000e+00 0.000000000000000e+00 0.000000000000000e+00
0.000000000000000e+00 0.000000000000000e+00 0.000000000000000e+00

0.000000000000000e+00 0.000000000000000e+00 0.000000000000000e+00
0.000000000000000e+00 0.000000000000000e+00 0.000000000000000e+00
0.000000000000000e+00 0.000000000000000e+00 0.000000000000000e+00

0.000000000000000e+00 0.000000000000000e+00 0.000000000000000e+00
0.000000000000000e+00 0.000000000000000e+00 0.000000000000000e+00
0.000000000000000e+00 0.000000000000000e+00 0.000000000000000e+00

0.000000000000000e+00 0.000000000000000e+00 0.000000000000000e+00
0.000000000000000e+00 0.000000000000000e+00 0.000000000000000e+00
0.000000000000000e+00 0.000000000000000e+00 0.000000000000000e+00

0.000000000000000e+00 0.000000000000000e+00 0.000000000000000e+00
0.000000000000000e+00 0.000000000000000e+00 0.000000000000000e+00
0.000000000000000e+00 0.000000000000000e+00 0.000000000000000e+00

0.000000000000000e+00 0.000000000000000e+00 0.000000000000000e+00
0.000000000000000e+00 0.000000000000000e+00 0.000000000000000e+00
0.000000000000000e+00 0.000000000000000e+00 0.000000000000000e+00

0.000000000000000e+00 0.000000000000000e+00 0.000000000000000e+00
0.000000000000000e+00 0.000000000000000e+00 0.000000000000000e+00
0.000000000000000e+00 0.000000000000000e+00 0.000000000000000e+00

0.000000000000000e+00 0.000000000000000e+00 0.000000000000000e+00
0.000000000000000e+00 0.000000000000000e+00 0.000000000000000e+00
0.000000000000000e+00 0.000000000000000e+00 0.000000000000000e+00

0.000000000000000e+00 0.000000000000000e+00 0.000000000000000e+00
0.000000000000000e+00 0.000000000000000e+00 0.000000000000000e+00
0.000000000000000e+00 0.000000000000000e+00 0.000000000000000e+00

0.000000000000000e+00 0.000000000000000e+00 0.000000000000000e+00
0.000000000000000e+00 0.000000000000000e+00 0.000000000000000e+00
0.000000000000000e+00 0.000000000000000e+00 0.000000000000000e+00

0.000000000000000e+00 0.000000000000000e+00 0.000000000000000e+00
0.000000000000000e+00 0.000000000000000e+00 0.000000000000000e+00
0.000000000000000e+00 0.000000000000000e+00 0.000000000000000e+00

0.000000000000000e+00 0.000000000000000e+00 0.000000000000000e+00
0.000000000000000e+00 0.000000000000000e+00 0.000000000000000e+00
0.000000000000000e+00 0.000000000000000e+00 0.000000000000000e+00

0.000000000000000e+00 0.000000000000000e+00 0.000000000000000e+00
0.000000000000000e+00 0.000000000000000e+00 0.000000000000000e+00
0.000000000000000e+00 0.000000000000000e+00 0.000000000000000e+00

0.000000000000000e+00 0.000000000000000e+00 0.000000000000000e+00
0.000000000000000e+00 0.000000000000000e+00 0.000000000000000e+00
0.000000000000000e+00 0.000000000000000e+00 0.000000000000000e+00

0.000000000000000e+00 0.000000000000000e+00 0.000000000000000e+00
0.000000000000000e+00 0.000000000000000e+00 0.000000000000000e+00
0.000000000000000e+00 0.000000000000000e+00 0.000000000000000e+00

0.000000000000000e+00 0.000000000000000e+00 0.000000000000000e+00
0.000000000000000e+00 0.000000000000000e+00 0.000000000000000e+00
0.000000000000000e+00 0.000000000000000e+00 0.000000000000000e+00

0.000000000000000e+00 0.000000000000000e+00 0.000000000000000e+00
0.000000000000000e+00 0.000000000000000e+00 0.000000000000000e+00
0.000000000000000e+00 0.000000000000000e+00 0.000000000000000e+00

0.000000000000000e+00 0.000000000000000e+00 0.000000000000000e+00
0.000000000000000e+00 0.000000000000000e+00 0.000000000000000e+00
0.000000000000000e+00 0.000000000000000e+00 0.000000000000000e+00

0.000000000000000e+00 0.000000000000000e+00 0.000000000000000e+00
0.000000000000000e+00 0.000000000000000e+00 0.000000000000000e+00
0.000000000000000e+00 0.000000000000000e+00 0.000000000000000e+00

0.000000000000000e+00 0.000000000000000e+00 0.000000000000000e+00
0.000000000000000e+00 0.000000000000000e+00 0.000000000000000e+00
0.000000000000000e+00 0.000000000000000e+00 0.000000000000000e+00

0.000000000000000e+00 0.000000000000000e+00 0.000000000000000e+00
0.000000000000000e+00 0.000000000000000e+00 0.000000000000000e+00
0.000000000000000e+00 0.000000000000000e+00 0.000000000000000e+00

0.000000000000000e+00 0.000000000000000e+00 0.000000000000000e+00
0.000000000000000e+00 0.000000000000000e+00 0.000000000000000e+00
0.000000000000000e+00 0.000000000000000e+00 0.000000000000000e+00

0.000000000000000e+00 0.000000000000000e+00 0.000000000000000e+00
0.000000000000000e+00 0.000000000000000e+00 0.000000000000000e+00
0.000000000000000e+00 0.000000000000000e+00 0.000000000000000e+00

0.000000000000000e+00 0.000000000000000e+00 0.000000000000000e+00
0.000000000000000e+00 0.000000000000000e+00 0.000000000000000e+00
0.000000000000000e+00 0.000000000000000e+00 0.000000000000000e+00

0.000000000000000e+00 0.000000000000000e+00 0.000000000000000e+00
0.000000000000000e+00 0.000000000000000e+00 0.000000000000000e+00
0.000000000000000e+00 0.000000000000000e+00 0.000000000000000e+00

0.000000000000000e+00 0.000000000000000e+00 0.000000000000000e+00
0.000000000000000e+00 0.000000000000000e+00 0.000000000000000e+00
0.000000000000000e+00 0.000000000000000e+00 0.000000000000000e+00

0.000000000000000e+00 0.000000000000000e+00 0.000000000000000e+00
0.000000000000000e+00 0.000000000000000e+00 0.000000000000000e+00
0.000000000000000e+00 0.000000000000000e+00 0.000000000000000e+00

0.000000000000000e+00 0.000000000000000e+00 0.000000000000000e+00
0.000000000000000e+00 0.000000000000000e+00 0.000000000000000e+00
0.000000000000000e+00 0.000000000000000e+00 0.000000000000000e+00

0.000000000000000e+00 0.000000000000000e+00 0.000000000000000e+00
0.000000000000000e+00 0.000000000000000e+00 0.000000000000000e+00
0.000000000000000e+00 0.000000000000000e+00 0.000000000000000e+00

0.000000000000000e+00 0.000000000000000e+00 0.000000000000000e+00
0.000000000000000e+00 0.000000000000000e+00 0.000000000000000e+00
0.000000000000000e+00 0.000000000000000e+00 0.000000000000000e+00

0.000000000000000e+00 0.000000000000000e+00 0.000000000000000e+00
0.000000000000000e+00 0.000000000000000e+00 0.000000000000000e+00
0.000000000000000e+00 0.000000000000000e+00 0.000000000000000e+00

0.000000000000000e+00 0.000000000000000e+00 0.000000000000000e+00
0.000000000000000e+00 0.000000000000000e+00 0.000000000000000e+00
0.000000000000000e+00 0.000000000000000e+00 0.000000000000000e+00

0.000000000000000e+00 0.000000000000000e+00 0.000000000000000e+00
0.000000000000000e+00 0.000000000000000e+00 0.000000000000000e+00
0.000000000000000e+00 0.000000000000000e+00 0.000000000000000e+00

0.000000000000000e+00 0.000000000000000e+00 0.000000000000000e+00
0.000000000000000e+00 0.000000000000000e+00 0.000000000000000e+00
0.000000000000000e+00 0.000000000000000e+00 0.000000000000000e+00

0.000000000000000e+00 0.000000000000000e+00 0.000000000000000e+00
0.000000000000000e+00 0.000000000000000e+00 0.000000000000000e+00
0.000000000000000e+00 0.000000000000000e+00 0.000000000000000e+00

0.000000000000000e+00 0.000000000000000e+00 0.000000000000000e+00
0.000000000000000e+00 0.000000000000000e+00 0.000000000000000e+00
0.000000000000000e+00 0.000000000000000e+00 0.000000000000000e+00

0.000000000000000e+00 0.000000000000000e+00 0.000000000000000e+00
0.000000000000000e+00 0.000000000000000e+00 0.000000000000000e+00
0.000000000000000e+00 0.000000000000000e+00 0.000000000000000e+00

0.000000000000000e+00 0.000000000000000e+00 0.000000000000000e+00
0.000000000000000e+00 0.000000000000000e+00 0.000000000000000e+00
0.000000000000000e+00 0.000000000000000e+00 0.000000000000000e+00

0.000000000000000e+00 0.000000000000000e+00 0.000000000000000e+00
0.000000000000000e+00 0.000000000000000e+00 0.000000000000000e+00
0.000000000000000e+00 0.000000000000000e+00 0.000000000000000e+00

0.000000000000000e+00 0.000000000000000e+00 0.000000000000000e+00
0.000000000000000e+00 0.000000000000000e+00 0.000000000000000e+00
0.000000000000000e+00 0.000000000000000e+00 0.000000000000000e+00

0.000000000000000e+00 0.000000000000000e+00 0.000000000000000e+00
0.000000000000000e+00 0.000000000000000e+00 0.000000000000000e+00
0.000000000000000e+00 0.000000000000000e+00 0.000000000000000e+00

0.000000000000000e+00 0.000000000000000e+00 0.000000000000000e+00
0.000000000000000e+00 0.000000000000000e+00 0.000000000000000e+00
0.000000000000000e+00 0.000000000000000e+00 0.000000000000000e+00

0.000000000000000e+00 0.000000000000000e+00 0.000000000000000e+00
0.000000000000000e+00 0.000000000000000e+00 0.000000000000000e+00
0.000000000000000e+00 0.000000000000000e+00 0.000000000000000e+00

0.000000000000000e+00 0.000000000000000e+00 0.000000000000000e+00
0.000000000000000e+00 0.000000000000000e+00 0.000000000000000e+00
0.000000000000000e+00 0.000000000000000e+00 0.000000000000000e+00

0.000000000000000e+00 0.000000000000000e+00 0.000000000000000e+00
0.000000000000000e+00 0.000000000000000e+00 0.000000000000000e+00
0.000000000000000e+00 0.000000000000000e+00 0.000000000000000e+00

0.000000000000000e+00 0.000000000000000e+00 0.000000000000000e+00
0.000000000000000e+00 0.000000000000000e+00 0.000000000000000e+00
0.000000000000000e+00 0.000000000000000e+00 0.000000000000000e+00

0.000000000000000e+00 0.000000000000000e+00 0.000000000000000e+00
0.000000000000000e+00 0.000000000000000e+00 0.000000000000000e+00
0.000000000000000e+00 0.000000000000000e+00 0.000000000000000e+00

0.000000000000000e+00 0.000000000000000e+00 0.000000000000000e+00
0.000000000000000e+00 0.000000000000000e+00 0.000000000000000e+00
0.000000000000000e+00 0.000000000000000e+00 0.000000000000000e+00

0.000000000000000e+00 0.000000000000000e+00 0.000000000000000e+00
0.000000000000000e+00 0.000000000000000e+00 0.000000000000000e+00
0.000000000000000e+00 0.000000000000000e+00 0.000000000000000e+00

0.000000000000000e+00 0.000000000000000e+00 0.000000000000000e+00
0.000000000000000e+00 0.000000000000000e+00 0.000000000000000e+00
0.000000000000000e+00 0.000000000000000e+00 0.000000000000000e+00

0.000000000000000e+00 0.000000000000000e+00 0.000000000000000e+00
0.000000000000000e+00 0.000000000000000e+00 0.000000000000000e+00
0.000000000000000e+00 0.000000000000000e+00 0.000000000000000e+00

0.000000000000000e+00 0.000000000000000e+00 0.000000000000000e+00
0.000000000000000e+00 0.000000000000000e+00 0.000000000000000e+00
0.000000000000000e+00 0.000000000000000e+00 0.000000000000000e+00

0.000000000000000e+00 0.000000000000000e+00 0.000000000000000e+00
0.000000000000000e+00 0.000000000000000e+00 0.000000000000000e+00
0.000000000000000e+00 0.000000000000000e+00 0.000000000000000e+00

0.000000000000000e+00 0.000000000000000e+00 0.000000000000000e+00
0.000000000000000e+00 0.000000000000000e+00 0.000000000000000e+00
0.000000000000000e+00 0.000000000000000e+00 0.000000000000000e+00

0.000000000000000e+00 0.000000000000000e+00 0.000000000000000e+00
0.000000000000000e+00 0.000000000000000e+00 0.000000000000000e+00
0.000000000000000e+00 0.000000000000000e+00 0.000000000000000e+00

0.000000000000000e+00 0.000000000000000e+00 0.000000000000000e+00
0.000000000000000e+00 0.000000000000000e+00 0.000000000000000e+00
0.000000000000000e+00 0.000000000000000e+00 0.000000000000000e+00

0.000000000000000e+00 0.000000000000000e+00 0.000000000000000e+00
0.000000000000000e+00 0.000000000000000e+00 0.000000000000000e+00
0.000000000000000e+00 0.000000000000000e+00 0.000000000000000e+00

0.000000000000000e+00 0.000000000000000e+00 0.000000000000000e+00
0.000000000000000e+00 0.000000000000000e+00 0.000000000000000e+00
0.000000000000000e+00 0.000000000000000e+00 0.000000000000000e+00

0.000000000000000e+00 0.000000000000000e+00 0.000000000000000e+00
0.000000000000000e+00 0.000000000000000e+00 0.000000000000000e+00
0.000000000000000e+00 0.000000000000000e+00 0.000000000000000e+00

0.000000000000000e+00 0.000000000000000e+00 0.000000000000000e+00
0.000000000000000e+00 0.000000000000000e+00 0.000000000000000e+00
0.000000000000000e+00 0.000000000000000e+00 0.000000000000000e+00

0.000000000000000e+00 0.000000000000000e+00 0.000000000000000e+00
0.000000000000000e+00 0.000000000000000e+00 0.000000000000000e+00
0.000000000000000e+00 0.000000000000000e+00 0.000000000000000e+00

0.000000000000000e+00 0.000000000000000e+00 0.000000000000000e+00
0.000000000000000e+00 0.000000000000000e+00 0.000000000000000e+00
0.000000000000000e+00 0.000000000000000e+00 0.000000000000000e+00

0.000000000000000e+00 0.000000000000000e+00 0.000000000000000e+00
0.000000000000000e+00 0.000000000000000e+00 0.000000000000000e+00
0.000000000000000e+00 0.000000000000000e+00 0.000000000000000e+00

0.000000000000000e+00 0.000000000000000e+00 0.000000000000000e+00
0.000000000000000e+00 0.000000000000000e+00 0.000000000000000e+00
0.000000000000000e+00 0.000000000000000e+00 0.000000000000000e+00

0.000000000000000e+00 0.000000000000000e+00 0.000000000000000e+00
0.000000000000000e+00 0.000000000000000e+00 0.000000000000000e+00
0.000000000000000e+00 0.000000000000000e+00 0.000000000000000e+00

0.000000000000000e+00 0.000000000000000e+00 0.000000000000000e+00
0.000000000000000e+00 0.000000000000000e+00 0.000000000000000e+00
0.000000000000000e+00 0.000000000000000e+00 0.000000000000000e+00

0.000000000000000e+00 0.000000000000000e+00 0.000000000000000e+00
0.000000000000000e+00 0.000000000000000e+00 0.000000000000000e+00
0.000000000000000e+00 0.000000000000000e+00 0.000000000000000e+00

0.000000000000000e+00 0.000000000000000e+00 0.000000000000000e+00
0.000000000000000e+00 0.000000000000000e+00 0.000000000000000e+00
0.000000000000000e+00 0.000000000000000e+00 0.000000000000000e+00

0.000000000000000e+00 0.000000000000000e+00 0.000000000000000e+00
0.000000000000000e+00 0.000000000000000e+00 0.000000000000000e+00
0.000000000000000e+00 0.000000000000000e+00 0.000000000000000e+00

0.000000000000000e+00 0.000000000000000e+00 0.000000000000000e+00
0.000000000000000e+00 0.000000000000000e+00 0.000000000000000e+00
0.000000000000000e+00 0.000000000000000e+00 0.000000000000000e+00

0.000000000000000e+00 0.000000000000000e+00 0.000000000000000e+00
0.000000000000000e+00 0.000000000000000e+00 0.000000000000000e+00
0.000000000000000e+00 0.000000000000000e+00 0.000000000000000e+00

0.000000000000000e+00 0.000000000000000e+00 0.000000000000000e+00
0.000000000000000e+00 0.000000000000000e+00 0.000000000000000e+00
0.000000000000000e+00 0.000000000000000e+00 0.000000000000000e+00

0.000000000000000e+00 0.000000000000000e+00 0.000000000000000e+00
0.000000000000000e+00 0.000000000000000e+00 0.000000000000000e+00
0.000000000000000e+00 0.000000000000000e+00 0.000000000000000e+00

0.000000000000000e+00 0.000000000000000e+00 0.000000000000000e+00
0.000000000000000e+00 0.000000000000000e+00 0.000000000000000e+00
0.000000000000000e+00 0.000000000000000e+00 0.000000000000000e+00

0.000000000000000e+00 0.000000000000000e+00 0.000000000000000e+00
0.000000000000000e+00 0.000000000000000e+00 0.000000000000000e+00
0.000000000000000e+00 0.000000000000000e+00 0.000000000000000e+00

0.000000000000000e+00 0.000000000000000e+00 0.000000000000000e+00
0.000000000000000e+00 0.000000000000000e+00 0.000000000000000e+00
0.000000000000000e+00 0.000000000000000e+00 0.000000000000000e+00

0.000000000000000e+00 0.000000000000000e+00 0.000000000000000e+00
0.000000000000000e+00 0.000000000000000e+00 0.000000000000000e+00
0.000000000000000e+00 0.000000000000000e+00 0.000000000000000e+00

0.000000000000000e+00 0.000000000000000e+00 0.000000000000000e+00
0.000000000000000e+00 0.000000000000000e+00 0.000000000000000e+00
0.000000000000000e+00 0.000000000000000e+00 0.000000000000000e+00

0.000000000000000e+00 0.000000000000000e+00 0.000000000000000e+00
0.000000000000000e+00 0.000000000000000e+00 0.000000000000000e+00
0.000000000000000e+00 0.000000000000000e+00 0.000000000000000e+00

0.000000000000000e+00 0.000000000000000e+00 0.000000000000000e+00
0.000000000000000e+00 0.000000000000000e+00 0.000000000000000e+00
0.000000000000000e+00 0.000000000000000e+00 0.000000000000000e+00

0.000000000000000e+00 0.000000000000000e+00 0.000000000000000e+00
0.000000000000000e+00 0.000000000000000e+00 0.000000000000000e+00
0.000000000000000e+00 0.000000000000000e+00 0.000000000000000e+00

0.000000000000000e+00 0.000000000000000e+00 0.000000000000000e+00
0.000000000000000e+00 0.000000000000000e+00 0.000000000000000e+00
0.000000000000000e+00 0.000000000000000e+00 0.000000000000000e+00

0.000000000000000e+00 0.000000000000000e+00 0.000000000000000e+00
0.000000000000000e+00 0.000000000000000e+00 0.000000000000000e+00
0.000000000000000e+00 0.000000000000000e+00 0.000000000000000e+00

0.000000000000000e+00 0.000000000000000e+00 0.000000000000000e+00
0.000000000000000e+00 0.000000000000000e+00 0.000000000000000e+00
0.000000000000000e+00 0.000000000000000e+00 0.000000000000000e+00

0.000000000000000e+00 0.000000000000000e+00 0.000000000000000e+00
0.000000000000000e+00 0.000000000000000e+00 0.000000000000000e+00
0.000000000000000e+00 0.000000000000000e+00 0.000000000000000e+00

0.000000000000000e+00 0.000000000000000e+00 0.000000000000000e+00
0.000000000000000e+00 0.000000000000000e+00 0.000000000000000e+00
0.000000000000000e+00 0.000000000000000e+00 0.000000000000000e+00

0.000000000000000e+00 0.000000000000000e+00 0.000000000000000e+00
0.000000000000000e+00 0.000000000000000e+00 0.000000000000000e+00
0.000000000000000e+00 0.000000000000000e+00 0.000000000000000e+00

0.000000000000000e+00 0.000000000000000e+00 0.000000000000000e+00
0.000000000000000e+00 0.000000000000000e+00 0.000000000000000e+00
0.000000000000000e+00 0.000000000000000e+00 0.000000000000000e+00

0.000000000000000e+00 0.000000000000000e+00 0.000000000000000e+00
0.000000000000000e+00 0.000000000000000e+00 0.000000000000000e+00
0.000000000000000e+00 0.000000000000000e+00 0.000000000000000e+00

0.000000000000000e+00 0.000000000000000e+00 0.000000000000000e+00
0.000000000000000e+00 0.000000000000000e+00 0.000000000000000e+00
0.000000000000000e+00 0.000000000000000e+00 0.000000000000000e+00

0.000000000000000e+00 0.000000000000000e+00 0.000000000000000e+00
0.000000000000000e+00 0.000000000000000e+00 0.000000000000000e+00
0.000000000000000e+00 0.000000000000000e+00 0.000000000000000e+00

0.000000000000000e+00 0.000000000000000e+00 0.000000000000000e+00
0.000000000000000e+00 0.000000000000000e+00 0.000000000000000e+00
0.000000000000000e+00 0.000000000000000e+00 0.000000000000000e+00

0.000000000000000e+00 0.000000000000000e+00 0.000000000000000e+00
0.000000000000000e+00 0.000000000000000e+00 0.000000000000000e+00
0.000000000000000e+00 0.000000000000000e+00 0.000000000000000e+00

0.000000000000000e+00 0.000000000000000e+00 0.000000000000000e+00
0.000000000000000e+00 0.000000000000000e+00 0.000000000000000e+00
0.000000000000000e+00 0.000000000000000e+00 0.000000000000000e+00

0.000000000000000e+00 0.000000000000000e+00 0.000000000000000e+00
0.000000000000000e+00 0.000000000000000e+00 0.000000000000000e+00
0.000000000000000e+00 0.000000000000000e+00 0.000000000000000e+00

0.000000000000000e+00 0.000000000000000e+00 0.000000000000000e+00
0.000000000000000e+00 0.000000000000000e+00 0.000000000000000e+00
0.000000000000000e+00 0.000000000000000e+00 0.000000000000000e+00

0.000000000000000e+00 0.000000000000000e+00 0.000000000000000e+00
0.000000000000000e+00 0.000000000000000e+00 0.000000000000000e+00
0.000000000000000e+00 0.000000000000000e+00 0.000000000000000e+00

0.000000000000000e+00 0.000000000000000e+00 0.000000000000000e+00
0.000000000000000e+00 0.000000000000000e+00 0.000000000000000e+00
0.000000000000000e+00 0.000000000000000e+00 0.000000000000000e+00

0.000000000000000e+00 0.000000000000000e+00 0.000000000000000e+00
0.000000000000000e+00 0.000000000000000e+00 0.000000000000000e+00
0.000000000000000e+00 0.000000000000000e+00 0.000000000000000e+00

0.000000000000000e+00 0.000000000000000e+00 0.000000000000000e+00
0.000000000000000e+00 0.000000000000000e+00 0.000000000000000e+00
0.000000000000000e+00 0.000000000000000e+00 0.000000000000000e+00

0.000000000000000e+00 0.000000000000000e+00 0.000000000000000e+00
0.000000000000000e+00 0.000000000000000e+00 0.000000000000000e+00
0.000000000000000e+00 0.000000000000000e+00 0.000000000000000e+00

0.000000000000000e+00 0.000000000000000e+00 0.000000000000000e+00
0.000000000000000e+00 0.000000000000000e+00 0.000000000000000e+00
0.000000000000000e+00 0.000000000000000e+00 0.000000000000000e+00

0.000000000000000e+00 0.000000000000000e+00 0.000000000000000e+00
0.000000000000000e+00 0.000000000000000e+00 0.000000000000000e+00
0.000000000000000e+00 0.000000000000000e+00 0.000000000000000e+00

0.000000000000000e+00 0.000000000000000e+00 0.000000000000000e+00
0.000000000000000e+00 0.000000000000000e+00 0.000000000000000e+00
0.000000000000000e+00 0.000000000000000e+00 0.000000000000000e+00

0.000000000000000e+00 0.000000000000000e+00 0.000000000000000e+00
0.000000000000000e+00 0.000000000000000e+00 0.000000000000000e+00
0.000000000000000e+00 0.000000000000000e+00 0.000000000000000e+00

0.000000000000000e+00 0.000000000000000e+00 0.000000000000000e+00
0.000000000000000e+00 0.000000000000000e+00 0.000000000000000e+00
0.000000000000000e+00 0.000000000000000e+00 0.000000000000000e+00

0.000000000000000e+00 0.000000000000000e+00 0.000000000000000e+00
0.000000000000000e+00 0.000000000000000e+00 0.000000000000000e+00
0.000000000000000e+00 0.000000000000000e+00 0.000000000000000e+00

0.000000000000000e+00 0.000000000000000e+00 0.000000000000000e+00
0.000000000000000e+00 0.000000000000000e+00 0.000000000000000e+00
0.000000000000000e+00 0.000000000000000e+00 0.000000000000000e+00

0.000000000000000e+00 0.000000000000000e+00 0.000000000000000e+00
0.000000000000000e+00 0.000000000000000e+00 0.000000000000000e+00
0.000000000000000e+00 0.000000000000000e+00 0.000000000000000e+00

0.000000000000000e+00 0.000000000000000e+00 0.000000000000000e+00
0.000000000000000e+00 0.000000000000000e+00 0.000000000000000e+00
0.000000000000000e+00 0.000000000000000e+00 0.000000000000000e+00

0.000000000000000e+00 0.000000000000000e+00 0.000000000000000e+00
0.000000000000000e+00 0.000000000000000e+00 0.000000000000000e+00
0.000000000000000e+00 0.000000000000000e+00 0.000000000000000e+00

0.000000000000000e+00 0.000000000000000e+00 0.000000000000000e+00
0.000000000000000e+00 0.000000000000000e+00 0.000000000000000e+00
0.000000000000000e+00 0.000000000000000e+00 0.000000000000000e+00

0.000000000000000e+00 0.000000000000000e+00 0.000000000000000e+00
0.000000000000000e+00 0.000000000000000e+00 0.000000000000000e+00
0.000000000000000e+00 0.000000000000000e+00 0.000000000000000e+00

0.000000000000000e+00 0.000000000000000e+00 0.000000000000000e+00
0.000000000000000e+00 0.000000000000000e+00 0.000000000000000e+00
0.000000000000000e+00 0.000000000000000e+00 0.000000000000000e+00

0.000000000000000e+00 0.000000000000000e+00 0.000000000000000e+00
0.000000000000000e+00 0.000000000000000e+00 0.000000000000000e+00
0.000000000000000e+00 0.000000000000000e+00 0.000000000000000e+00

0.000000000000000e+00 0.000000000000000e+00 0.000000000000000e+00
0.000000000000000e+00 0.000000000000000e+00 0.000000000000000e+00
0.000000000000000e+00 0.000000000000000e+00 0.000000000000000e+00

0.000000000000000e+00 0.000000000000000e+00 0.000000000000000e+00
0.000000000000000e+00 0.000000000000000e+00 0.000000000000000e+00
0.000000000000000e+00 0.000000000000000e+00 0.000000000000000e+00

0.000000000000000e+00 0.000000000000000e+00 0.000000000000000e+00
0.000000000000000e+00 0.000000000000000e+00 0.000000000000000e+00
0.000000000000000e+00 0.000000000000000e+00 0.000000000000000e+00

0.000000000000000e+00 0.000000000000000e+00 0.000000000000000e+00
0.000000000000000e+00 0.000000000000000e+00 0.000000000000000e+00
0.000000000000000e+00 0.000000000000000e+00 0.000000000000000e+00

0.000000000000000e+00 0.000000000000000e+00 0.000000000000000e+00
0.000000000000000e+00 0.000000000000000e+00 0.000000000000000e+00
0.000000000000000e+00 0.000000000000000e+00 0.000000000000000e+00

0.000000000000000e+00 0.000000000000000e+00 0.000000000000000e+00
0.000000000000000e+00 0.000000000000000e+00 0.000000000000000e+00
0.000000000000000e+00 0.000000000000000e+00 0.000000000000000e+00

0.000000000000000e+00 0.000000000000000e+00 0.000000000000000e+00
0.000000000000000e+00 0.000000000000000e+00 0.000000000000000e+00
0.000000000000000e+00 0.000000000000000e+00 0.000000000000000e+00

0.000000000000000e+00 0.000000000000000e+00 0.000000000000000e+00
0.000000000000000e+00 0.000000000000000e+00 0.000000000000000e+00
0.000000000000000e+00 0.000000000000000e+00 0.000000000000000e+00

0.000000000000000e+00 0.000000000000000e+00 0.000000000000000e+00
0.000000000000000e+00 0.000000000000000e+00 0.000000000000000e+00
0.000000000000000e+00 0.000000000000000e+00 0.000000000000000e+00

0.000000000000000e+00 0.000000000000000e+00 0.000000000000000e+00
0.000000000000000e+00 0.000000000000000e+00 0.000000000000000e+00
0.000000000000000e+00 0.000000000000000e+00 0.000000000000000e+00

0.000000000000000e+00 0.000000000000000e+00 0.000000000000000e+00
0.000000000000000e+00 0.000000000000000e+00 0.000000000000000e+00
0.000000000000000e+00 0.000000000000000e+00 0.000000000000000e+00

0.000000000000000e+00 0.000000000000000e+00 0.000000000000000e+00
0.000000000000000e+00 0.000000000000000e+00 0.000000000000000e+00
0.000000000000000e+00 0.000000000000000e+00 0.000000000000000e+00

0.000000000000000e+00 0.000000000000000e+00 0.000000000000000e+00
0.000000000000000e+00 0.000000000000000e+00 0.000000000000000e+00
0.000000000000000e+00 0.000000000000000e+00 0.000000000000000e+00

0.000000000000000e+00 0.000000000000000e+00 0.000000000000000e+00
0.000000000000000e+00 0.000000000000000e+00 0.000000000000000e+00
0.000000000000000e+00 0.000000000000000e+00 0.000000000000000e+00

0.000000000000000e+00 0.000000000000000e+00 0.000000000000000e+00
0.000000000000000e+00 0.000000000000000e+00 0.000000000000000e+00
0.000000000000000e+00 0.000000000000000e+00 0.000000000000000e+00

0.000000000000000e+00 0.000000000000000e+00 0.000000000000000e+00
0.000000000000000e+00 0.000000000000000e+00 0.000000000000000e+00
0.000000000000000e+00 0.000000000000000e+00 0.000000000000000e+00

0.000000000000000e+00 0.000000000000000e+00 0.000000000000000e+00
0.000000000000000e+00 0.000000000000000e+00 0.000000000000000e+00
0.000000000000000e+00 0.000000000000000e+00 0.000000000000000e+00

0.000000000000000e+00 0.000000000000000e+00 0.000000000000000e+00
0.000000000000000e+00 0.000000000000000e+00 0.000000000000000e+00
0.000000000000000e+00 0.000000000000000e+00 0.000000000000000e+00

0.000000000000000e+00 0.000000000000000e+00 0.000000000000000e+00
0.000000000000000e+00 0.000000000000000e+00 0.000000000000000e+00
0.000000000000000e+00 0.000000000000000e+00 0.000000000000000e+00

0.000000000000000e+00 0.000000000000000e+00 0.000000000000000e+00
0.000000000000000e+00 0.000000000000000e+00 0.000000000000000e+00
0.000000000000000e+00 0.000000000000000e+00 0.000000000000000e+00

0.000000000000000e+00 0.000000000000000e+00 0.000000000000000e+00
0.000000000000000e+00 0.000000000000000e+00 0.000000000000000e+00
0.000000000000000e+00 0.000000000000000e+00 0.000000000000000e+00

0.000000000000000e+00 0.000000000000000e+00 0.000000000000000e+00
0.000000000000000e+00 0.000000000000000e+00 0.000000000000000e+00
0.000000000000000e+00 0.000000000000000e+00 0.000000000000000e+00

0.000000000000000e+00 0.000000000000000e+00 0.000000000000000e+00
0.000000000000000e+00 0.000000000000000e+00 0.000000000000000e+00
0.000000000000000e+00 0.000000000000000e+00 0.000000000000000e+00

0.000000000000000e+00 0.000000000000000e+00 0.000000000000000e+00
0.000000000000000e+00 0.000000000000000e+00 0.000000000000000e+00
0.000000000000000e+00 0.000000000000000e+00 0.000000000000000e+00

0.000000000000000e+00 0.000000000000000e+00 0.000000000000000e+00
0.000000000000000e+00 0.000000000000000e+00 0.000000000000000e+00
0.000000000000000e+00 0.000000000000000e+00 0.000000000000000e+00

0.000000000000000e+00 0.000000000000000e+00 0.000000000000000e+00
0.000000000000000e+00 0.000000000000000e+00 0.000000000000000e+00
0.000000000000000e+00 0.000000000000000e+00 0.000000000000000e+00

0.000000000000000e+00 0.000000000000000e+00 0.000000000000000e+00
0.000000000000000e+00 0.000000000000000e+00 0.000000000000000e+00
0.000000000000000e+00 0.000000000000000e+00 0.000000000000000e+00

0.000000000000000e+00 0.000000000000000e+00 0.000000000000000e+00
0.000000000000000e+00 0.000000000000000e+00 0.000000000000000e+00
0.000000000000000e+00 0.000000000000000e+00 0.000000000000000e+00

0.000000000000000e+00 0.000000000000000e+00 0.000000000000000e+00
0.000000000000000e+00 0.000000000000000e+00 0.000000000000000e+00
0.000000000000000e+00 0.000000000000000e+00 0.000000000000000e+00

0.000000000000000e+00 0.000000000000000e+00 0.000000000000000e+00
0.000000000000000e+00 0.000000000000000e+00 0.000000000000000e+00
0.000000000000000e+00 0.000000000000000e+00 0.000000000000000e+00

0.000000000000000e+00 0.000000000000000e+00 0.000000000000000e+00
0.000000000000000e+00 0.000000000000000e+00 0.000000000000000e+00
0.000000000000000e+00 0.000000000000000e+00 0.000000000000000e+00

0.000000000000000e+00 0.000000000000000e+00 0.000000000000000e+00
0.000000000000000e+00 0.000000000000000e+00 0.000000000000000e+00
0.000000000000000e+00 0.000000000000000e+00 0.000000000000000e+00

0.000000000000000e+00 0.000000000000000e+00 0.000000000000000e+00
0.000000000000000e+00 0.000000000000000e+00 0.000000000000000e+00
0.000000000000000e+00 0.000000000000000e+00 0.000000000000000e+00

0.000000000000000e+00 0.000000000000000e+00 0.000000000000000e+00
0.000000000000000e+00 0.000000000000000e+00 0.000000000000000e+00
0.000000000000000e+00 0.000000000000000e+00 0.000000000000000e+00

0.000000000000000e+00 0.000000000000000e+00 0.000000000000000e+00
0.000000000000000e+00 0.000000000000000e+00 0.000000000000000e+00
0.000000000000000e+00 0.000000000000000e+00 0.000000000000000e+00

0.000000000000000e+00 0.000000000000000e+00 0.000000000000000e+00
0.000000000000000e+00 0.000000000000000e+00 0.000000000000000e+00
0.000000000000000e+00 0.000000000000000e+00 0.000000000000000e+00

0.000000000000000e+00 0.000000000000000e+00 0.000000000000000e+00
0.000000000000000e+00 0.000000000000000e+00 0.000000000000000e+00
0.000000000000000e+00 0.000000000000000e+00 0.000000000000000e+00

0.000000000000000e+00 0.000000000000000e+00 0.000000000000000e+00
0.000000000000000e+00 0.000000000000000e+00 0.000000000000000e+00
0.000000000000000e+00 0.000000000000000e+00 0.000000000000000e+00

0.000000000000000e+00 0.000000000000000e+00 0.000000000000000e+00
0.000000000000000e+00 0.000000000000000e+00 0.000000000000000e+00
0.000000000000000e+00 0.000000000000000e+00 0.000000000000000e+00

0.000000000000000e+00 0.000000000000000e+00 0.000000000000000e+00
0.000000000000000e+00 0.000000000000000e+00 0.000000000000000e+00
0.000000000000000e+00 0.000000000000000e+00 0.000000000000000e+00

0.000000000000000e+00 0.000000000000000e+00 0.000000000000000e+00
0.000000000000000e+00 0.000000000000000e+00 0.000000000000000e+00
0.000000000000000e+00 0.000000000000000e+00 0.000000000000000e+00

0.000000000000000e+00 0.000000000000000e+00 0.000000000000000e+00
0.000000000000000e+00 0.000000000000000e+00 0.000000000000000e+00
0.000000000000000e+00 0.000000000000000e+00 0.000000000000000e+00

0.000000000000000e+00 0.000000000000000e+00 0.000000000000000e+00
0.000000000000000e+00 0.000000000000000e+00 0.000000000000000e+00
0.000000000000000e+00 0.000000000000000e+00 0.000000000000000e+00

0.000000000000000e+00 0.000000000000000e+00 0.000000000000000e+00
0.000000000000000e+00 0.000000000000000e+00 0.000000000000000e+00
0.000000000000000e+00 0.000000000000000e+00 0.000000000000000e+00

0.000000000000000e+00 0.000000000000000e+00 0.000000000000000e+00
0.000000000000000e+00 0.000000000000000e+00 0.000000000000000e+00
0.000000000000000e+00 0.000000000000000e+00 0.000000000000000e+00

0.000000000000000e+00 0.000000000000000e+00 0.000000000000000e+00
0.000000000000000e+00 0.000000000000000e+00 0.000000000000000e+00
0.000000000000000e+00 0.000000000000000e+00 0.000000000000000e+00

0.000000000000000e+00 0.000000000000000e+00 0.000000000000000e+00
0.000000000000000e+00 0.000000000000000e+00 0.000000000000000e+00
0.000000000000000e+00 0.000000000000000e+00 0.000000000000000e+00

0.000000000000000e+00 0.000000000000000e+00 0.000000000000000e+00
0.000000000000000e+00 0.000000000000000e+00 0.000000000000000e+00
0.000000000000000e+00 0.000000000000000e+00 0.000000000000000e+00

0.000000000000000e+00 0.000000000000000e+00 0.000000000000000e+00
0.000000000000000e+00 0.000000000000000e+00 0.000000000000000e+00
0.000000000000000e+00 0.000000000000000e+00 0.000000000000000e+00

0.000000000000000e+00 0.000000000000000e+00 0.000000000000000e+00
0.000000000000000e+00 0.000000000000000e+00 0.000000000000000e+00
0.000000000000000e+00 0.000000000000000e+00 0.000000000000000e+00

0.000000000000000e+00 0.000000000000000e+00 0.000000000000000e+00
0.000000000000000e+00 0.000000000000000e+00 0.000000000000000e+00
0.000000000000000e+00 0.000000000000000e+00 0.000000000000000e+00

0.000000000000000e+00 0.000000000000000e+00 0.000000000000000e+00
0.000000000000000e+00 0.000000000000000e+00 0.000000000000000e+00
0.000000000000000e+00 0.000000000000000e+00 0.000000000000000e+00

0.000000000000000e+00 0.000000000000000e+00 0.000000000000000e+00
0.000000000000000e+00 0.000000000000000e+00 0.000000000000000e+00
0.000000000000000e+00 0.000000000000000e+00 0.000000000000000e+00

0.000000000000000e+00 0.000000000000000e+00 0.000000000000000e+00
0.000000000000000e+00 0.000000000000000e+00 0.000000000000000e+00
0.000000000000000e+00 0.000000000000000e+00 0.000000000000000e+00

0.000000000000000e+00 0.000000000000000e+00 0.000000000000000e+00
0.000000000000000e+00 0.000000000000000e+00 0.000000000000000e+00
0.000000000000000e+00 0.000000000000000e+00 0.000000000000000e+00

0.000000000000000e+00 0.000000000000000e+00 0.000000000000000e+00
0.000000000000000e+00 0.000000000000000e+00 0.000000000000000e+00
0.000000000000000e+00 0.000000000000000e+00 0.000000000000000e+00

0.000000000000000e+00 0.000000000000000e+00 0.000000000000000e+00
0.000000000000000e+00 0.000000000000000e+00 0.000000000000000e+00
0.000000000000000e+00 0.000000000000000e+00 0.000000000000000e+00

0.000000000000000e+00 0.000000000000000e+00 0.000000000000000e+00
0.000000000000000e+00 0.000000000000000e+00 0.000000000000000e+00
0.000000000000000e+00 0.000000000000000e+00 0.000000000000000e+00

0.000000000000000e+00 0.000000000000000e+00 0.000000000000000e+00
0.000000000000000e+00 0.000000000000000e+00 0.000000000000000e+00
0.000000000000000e+00 0.000000000000000e+00 0.000000000000000e+00

0.000000000000000e+00 0.000000000000000e+00 0.000000000000000e+00
0.000000000000000e+00 0.000000000000000e+00 0.000000000000000e+00
0.000000000000000e+00 0.000000000000000e+00 0.000000000000000e+00

0.000000000000000e+00 0.000000000000000e+00 0.000000000000000e+00
0.000000000000000e+00 0.000000000000000e+00 0.000000000000000e+00
0.000000000000000e+00 0.000000000000000e+00 0.000000000000000e+00

0.000000000000000e+00 0.000000000000000e+00 0.000000000000000e+00
0.000000000000000e+00 0.000000000000000e+00 0.000000000000000e+00
0.000000000000000e+00 0.000000000000000e+00 0.000000000000000e+00

0.000000000000000e+00 0.000000000000000e+00 0.000000000000000e+00
0.000000000000000e+00 0.000000000000000e+00 0.000000000000000e+00
0.000000000000000e+00 0.000000000000000e+00 0.000000000000000e+00

0.000000000000000e+00 0.000000000000000e+00 0.000000000000000e+00
0.000000000000000e+00 0.000000000000000e+00 0.000000000000000e+00
0.000000000000000e+00 0.000000000000000e+00 0.000000000000000e+00

0.000000000000000e+00 0.000000000000000e+00 0.000000000000000e+00
0.000000000000000e+00 0.000000000000000e+00 0.000000000000000e+00
0.000000000000000e+00 0.000000000000000e+00 0.000000000000000e+00

0.000000000000000e+00 0.000000000000000e+00 0.000000000000000e+00
0.000000000000000e+00 0.000000000000000e+00 0.000000000000000e+00
0.000000000000000e+00 0.000000000000000e+00 0.000000000000000e+00

0.000000000000000e+00 0.000000000000000e+00 0.000000000000000e+00
0.000000000000000e+00 0.000000000000000e+00 0.000000000000000e+00
0.000000000000000e+00 0.000000000000000e+00 0.000000000000000e+00

0.000000000000000e+00 0.000000000000000e+00 0.000000000000000e+00
0.000000000000000e+00 0.000000000000000e+00 0.000000000000000e+00
0.000000000000000e+00 0.000000000000000e+00 0.000000000000000e+00

0.000000000000000e+00 0.000000000000000e+00 0.000000000000000e+00
0.000000000000000e+00 0.000000000000000e+00 0.000000000000000e+00
0.000000000000000e+00 0.000000000000000e+00 0.000000000000000e+00

0.000000000000000e+00 0.000000000000000e+00 0.000000000000000e+00
0.000000000000000e+00 0.000000000000000e+00 0.000000000000000e+00
0.000000000000000e+00 0.000000000000000e+00 0.000000000000000e+00

0.000000000000000e+00 0.000000000000000e+00 0.000000000000000e+00
0.000000000000000e+00 0.000000000000000e+00 0.000000000000000e+00
0.000000000000000e+00 0.000000000000000e+00 0.000000000000000e+00

0.000000000000000e+00 0.000000000000000e+00 0.000000000000000e+00
0.000000000000000e+00 0.000000000000000e+00 0.000000000000000e+00
0.000000000000000e+00 0.000000000000000e+00 0.000000000000000e+00

0.000000000000000e+00 0.000000000000000e+00 0.000000000000000e+00
0.000000000000000e+00 0.000000000000000e+00 0.000000000000000e+00
0.000000000000000e+00 0.000000000000000e+00 0.000000000000000e+00

0.000000000000000e+00 0.000000000000000e+00 0.000000000000000e+00
0.000000000000000e+00 0.000000000000000e+00 0.000000000000000e+00
0.000000000000000e+00 0.000000000000000e+00 0.000000000000000e+00

0.000000000000000e+00 0.000000000000000e+00 0.000000000000000e+00
0.000000000000000e+00 0.000000000000000e+00 0.000000000000000e+00
0.000000000000000e+00 0.000000000000000e+00 0.000000000000000e+00

0.000000000000000e+00 0.000000000000000e+00 0.000000000000000e+00
0.000000000000000e+00 0.000000000000000e+00 0.000000000000000e+00
0.000000000000000e+00 0.000000000000000e+00 0.000000000000000e+00

0.000000000000000e+00 0.000000000000000e+00 0.000000000000000e+00
0.000000000000000e+00 0.000000000000000e+00 0.000000000000000e+00
0.000000000000000e+00 0.000000000000000e+00 0.000000000000000e+00

0.000000000000000e+00 0.000000000000000e+00 0.000000000000000e+00
0.000000000000000e+00 0.000000000000000e+00 0.000000000000000e+00
0.000000000000000e+00 0.000000000000000e+00 0.000000000000000e+00

0.000000000000000e+00 0.000000000000000e+00 0.000000000000000e+00
0.000000000000000e+00 0.000000000000000e+00 0.000000000000000e+00
0.000000000000000e+00 0.000000000000000e+00 0.000000000000000e+00

0.000000000000000e+00 0.000000000000000e+00 0.000000000000000e+00
0.000000000000000e+00 0.000000000000000e+00 0.000000000000000e+00
0.000000000000000e+00 0.000000000000000e+00 0.000000000000000e+00

0.000000000000000e+00 0.000000000000000e+00 0.000000000000000e+00
0.000000000000000e+00 0.000000000000000e+00 0.000000000000000e+00
0.000000000000000e+00 0.000000000000000e+00 0.000000000000000e+00

0.000000000000000e+00 0.000000000000000e+00 0.000000000000000e+00
0.000000000000000e+00 0.000000000000000e+00 0.000000000000000e+00
0.000000000000000e+00 0.000000000000000e+00 0.000000000000000e+00

0.000000000000000e+00 0.000000000000000e+00 0.000000000000000e+00
0.000000000000000e+00 0.000000000000000e+00 0.000000000000000e+00
0.000000000000000e+00 0.000000000000000e+00 0.000000000000000e+00

0.000000000000000e+00 0.000000000000000e+00 0.000000000000000e+00
0.000000000000000e+00 0.000000000000000e+00 0.000000000000000e+00
0.000000000000000e+00 0.000000000000000e+00 0.000000000000000e+00

0.000000000000000e+00 0.000000000000000e+00 0.000000000000000e+00
0.000000000000000e+00 0.000000000000000e+00 0.000000000000000e+00
0.000000000000000e+00 0.000000000000000e+00 0.000000000000000e+00

0.000000000000000e+00 0.000000000000000e+00 0.000000000000000e+00
0.000000000000000e+00 0.000000000000000e+00 0.000000000000000e+00
0.000000000000000e+00 0.000000000000000e+00 0.000000000000000e+00

0.000000000000000e+00 0.000000000000000e+00 0.000000000000000e+00
0.000000000000000e+00 0.000000000000000e+00 0.000000000000000e+00
0.000000000000000e+00 0.000000000000000e+00 0.000000000000000e+00

0.000000000000000e+00 0.000000000000000e+00 0.000000000000000e+00
0.000000000000000e+00 0.000000000000000e+00 0.000000000000000e+00
0.000000000000000e+00 0.000000000000000e+00 0.000000000000000e+00

0.000000000000000e+00 0.000000000000000e+00 0.000000000000000e+00
0.000000000000000e+00 0.000000000000000e+00 0.000000000000000e+00
0.000000000000000e+00 0.000000000000000e+00 0.000000000000000e+00

0.000000000000000e+00 0.000000000000000e+00 0.000000000000000e+00
0.000000000000000e+00 0.000000000000000e+00 0.000000000000000e+00
0.000000000000000e+00 0.000000000000000e+00 0.000000000000000e+00

0.000000000000000e+00 0.000000000000000e+00 0.000000000000000e+00
0.000000000000000e+00 0.000000000000000e+00 0.000000000000000e+00
0.000000000000000e+00 0.000000000000000e+00 0.000000000000000e+00

0.000000000000000e+00 0.000000000000000e+00 0.000000000000000e+00
0.000000000000000e+00 0.000000000000000e+00 0.000000000000000e+00
0.000000000000000e+00 0.000000000000000e+00 0.000000000000000e+00

0.000000000000000e+00 0.000000000000000e+00 0.000000000000000e+00
0.000000000000000e+00 0.000000000000000e+00 0.000000000000000e+00
0.000000000000000e+00 0.000000000000000e+00 0.000000000000000e+00

0.000000000000000e+00 0.000000000000000e+00 0.000000000000000e+00
0.000000000000000e+00 0.000000000000000e+00 0.000000000000000e+00
0.000000000000000e+00 0.000000000000000e+00 0.000000000000000e+00

0.000000000000000e+00 0.000000000000000e+00 0.000000000000000e+00
0.000000000000000e+00 0.000000000000000e+00 0.000000000000000e+00
0.000000000000000e+00 0.000000000000000e+00 0.000000000000000e+00

0.000000000000000e+00 0.000000000000000e+00 0.000000000000000e+00
0.000000000000000e+00 0.000000000000000e+00 0.000000000000000e+00
0.000000000000000e+00 0.000000000000000e+00 0.000000000000000e+00

0.000000000000000e+00 0.000000000000000e+00 0.000000000000000e+00
0.000000000000000e+00 0.000000000000000e+00 0.000000000000000e+00
0.000000000000000e+00 0.000000000000000e+00 0.000000000000000e+00

0.000000000000000e+00 0.000000000000000e+00 0.000000000000000e+00
0.000000000000000e+00 0.000000000000000e+00 0.000000000000000e+00
0.000000000000000e+00 0.000000000000000e+00 0.000000000000000e+00

0.000000000000000e+00 0.000000000000000e+00 0.000000000000000e+00
0.000000000000000e+00 0.000000000000000e+00 0.000000000000000e+00
0.000000000000000e+00 0.000000000000000e+00 0.000000000000000e+00

0.000000000000000e+00 0.000000000000000e+00 0.000000000000000e+00
0.000000000000000e+00 0.000000000000000e+00 0.000000000000000e+00
0.000000000000000e+00 0.000000000000000e+00 0.000000000000000e+00

0.000000000000000e+00 0.000000000000000e+00 0.000000000000000e+00
0.000000000000000e+00 0.000000000000000e+00 0.000000000000000e+00
0.000000000000000e+00 0.000000000000000e+00 0.000000000000000e+00

0.000000000000000e+00 0.000000000000000e+00 0.000000000000000e+00
0.000000000000000e+00 0.000000000000000e+00 0.000000000000000e+00
0.000000000000000e+00 0.000000000000000e+00 0.000000000000000e+00

0.000000000000000e+00 0.000000000000000e+00 0.000000000000000e+00
0.000000000000000e+00 0.000000000000000e+00 0.000000000000000e+00
0.000000000000000e+00 0.000000000000000e+00 0.000000000000000e+00

0.000000000000000e+00 0.000000000000000e+00 0.000000000000000e+00
0.000000000000000e+00 0.000000000000000e+00 0.000000000000000e+00
0.000000000000000e+00 0.000000000000000e+00 0.000000000000000e+00

0.000000000000000e+00 0.000000000000000e+00 0.000000000000000e+00
0.000000000000000e+00 0.000000000000000e+00 0.000000000000000e+00
0.000000000000000e+00 0.000000000000000e+00 0.000000000000000e+00

0.000000000000000e+00 0.000000000000000e+00 0.000000000000000e+00
0.000000000000000e+00 0.000000000000000e+00 0.000000000000000e+00
0.000000000000000e+00 0.000000000000000e+00 0.000000000000000e+00

0.000000000000000e+00 0.000000000000000e+00 0.000000000000000e+00
0.000000000000000e+00 0.000000000000000e+00 0.000000000000000e+00
0.000000000000000e+00 0.000000000000000e+00 0.000000000000000e+00

0.000000000000000e+00 0.000000000000000e+00 0.000000000000000e+00
0.000000000000000e+00 0.000000000000000e+00 0.000000000000000e+00
0.000000000000000e+00 0.000000000000000e+00 0.000000000000000e+00

0.000000000000000e+00 0.000000000000000e+00 0.000000000000000e+00
0.000000000000000e+00 0.000000000000000e+00 0.000000000000000e+00
0.000000000000000e+00 0.000000000000000e+00 0.000000000000000e+00

0.000000000000000e+00 0.000000000000000e+00 0.000000000000000e+00
0.000000000000000e+00 0.000000000000000e+00 0.000000000000000e+00
0.000000000000000e+00 0.000000000000000e+00 0.000000000000000e+00

0.000000000000000e+00 0.000000000000000e+00 0.000000000000000e+00
0.000000000000000e+00 0.000000000000000e+00 0.000000000000000e+00
0.000000000000000e+00 0.000000000000000e+00 0.000000000000000e+00

0.000000000000000e+00 0.000000000000000e+00 0.000000000000000e+00
0.000000000000000e+00 0.000000000000000e+00 0.000000000000000e+00
0.000000000000000e+00 0.000000000000000e+00 0.000000000000000e+00

0.000000000000000e+00 0.000000000000000e+00 0.000000000000000e+00
0.000000000000000e+00 0.000000000000000e+00 0.000000000000000e+00
0.000000000000000e+00 0.000000000000000e+00 0.000000000000000e+00

0.000000000000000e+00 0.000000000000000e+00 0.000000000000000e+00
0.000000000000000e+00 0.000000000000000e+00 0.000000000000000e+00
0.000000000000000e+00 0.000000000000000e+00 0.000000000000000e+00

0.000000000000000e+00 0.000000000000000e+00 0.000000000000000e+00
0.000000000000000e+00 0.000000000000000e+00 0.000000000000000e+00
0.000000000000000e+00 0.000000000000000e+00 0.000000000000000e+00

0.000000000000000e+00 0.000000000000000e+00 0.000000000000000e+00
0.000000000000000e+00 0.000000000000000e+00 0.000000000000000e+00
0.000000000000000e+00 0.000000000000000e+00 0.000000000000000e+00

0.000000000000000e+00 0.000000000000000e+00 0.000000000000000e+00
0.000000000000000e+00 0.000000000000000e+00 0.000000000000000e+00
0.000000000000000e+00 0.000000000000000e+00 0.000000000000000e+00

0.000000000000000e+00 0.000000000000000e+00 0.000000000000000e+00
0.000000000000000e+00 0.000000000000000e+00 0.000000000000000e+00
0.000000000000000e+00 0.000000000000000e+00 0.000000000000000e+00

0.000000000000000e+00 0.000000000000000e+00 0.000000000000000e+00
0.000000000000000e+00 0.000000000000000e+00 0.000000000000000e+00
0.000000000000000e+00 0.000000000000000e+00 0.000000000000000e+00

0.000000000000000e+00 0.000000000000000e+00 0.000000000000000e+00
0.000000000000000e+00 0.000000000000000e+00 0.000000000000000e+00
0.000000000000000e+00 0.000000000000000e+00 0.000000000000000e+00

0.000000000000000e+00 0.000000000000000e+00 0.000000000000000e+00
0.000000000000000e+00 0.000000000000000e+00 0.000000000000000e+00
0.000000000000000e+00 0.000000000000000e+00 0.000000000000000e+00

0.000000000000000e+00 0.000000000000000e+00 0.000000000000000e+00
0.000000000000000e+00 0.000000000000000e+00 0.000000000000000e+00
0.000000000000000e+00 0.000000000000000e+00 0.000000000000000e+00

0.000000000000000e+00 0.000000000000000e+00 0.000000000000000e+00
0.000000000000000e+00 0.000000000000000e+00 0.000000000000000e+00
0.000000000000000e+00 0.000000000000000e+00 0.000000000000000e+00

0.000000000000000e+00 0.000000000000000e+00 0.000000000000000e+00
0.000000000000000e+00 0.000000000000000e+00 0.000000000000000e+00
0.000000000000000e+00 0.000000000000000e+00 0.000000000000000e+00

0.000000000000000e+00 0.000000000000000e+00 0.000000000000000e+00
0.000000000000000e+00 0.000000000000000e+00 0.000000000000000e+00
0.000000000000000e+00 0.000000000000000e+00 0.000000000000000e+00

0.000000000000000e+00 0.000000000000000e+00 0.000000000000000e+00
0.000000000000000e+00 0.000000000000000e+00 0.000000000000000e+00
0.000000000000000e+00 0.000000000000000e+00 0.000000000000000e+00

0.000000000000000e+00 0.000000000000000e+00 0.000000000000000e+00
0.000000000000000e+00 0.000000000000000e+00 0.000000000000000e+00
0.000000000000000e+00 0.000000000000000e+00 0.000000000000000e+00

0.000000000000000e+00 0.000000000000000e+00 0.000000000000000e+00
0.000000000000000e+00 0.000000000000000e+00 0.000000000000000e+00
0.000000000000000e+00 0.000000000000000e+00 0.000000000000000e+00

0.000000000000000e+00 0.000000000000000e+00 0.000000000000000e+00
0.000000000000000e+00 0.000000000000000e+00 0.000000000000000e+00
0.000000000000000e+00 0.000000000000000e+00 0.000000000000000e+00

0.000000000000000e+00 0.000000000000000e+00 0.000000000000000e+00
0.000000000000000e+00 0.000000000000000e+00 0.000000000000000e+00
0.000000000000000e+00 0.000000000000000e+00 0.000000000000000e+00

0.000000000000000e+00 0.000000000000000e+00 0.000000000000000e+00
0.000000000000000e+00 0.000000000000000e+00 0.000000000000000e+00
0.000000000000000e+00 0.000000000000000e+00 0.000000000000000e+00

0.000000000000000e+00 0.000000000000000e+00 0.000000000000000e+00
0.000000000000000e+00 0.000000000000000e+00 0.000000000000000e+00
0.000000000000000e+00 0.000000000000000e+00 0.000000000000000e+00

0.000000000000000e+00 0.000000000000000e+00 0.000000000000000e+00
0.000000000000000e+00 0.000000000000000e+00 0.000000000000000e+00
0.000000000000000e+00 0.000000000000000e+00 0.000000000000000e+00

0.000000000000000e+00 0.000000000000000e+00 0.000000000000000e+00
0.000000000000000e+00 0.000000000000000e+00 0.000000000000000e+00
0.000000000000000e+00 0.000000000000000e+00 0.000000000000000e+00

0.000000000000000e+00 0.000000000000000e+00 0.000000000000000e+00
0.000000000000000e+00 0.000000000000000e+00 0.000000000000000e+00
0.000000000000000e+00 0.000000000000000e+00 0.000000000000000e+00

0.000000000000000e+00 0.000000000000000e+00 0.000000000000000e+00
0.000000000000000e+00 0.000000000000000e+00 0.000000000000000e+00
0.000000000000000e+00 0.000000000000000e+00 0.000000000000000e+00

0.000000000000000e+00 0.000000000000000e+00 0.000000000000000e+00
0.000000000000000e+00 0.000000000000000e+00 0.000000000000000e+00
0.000000000000000e+00 0.000000000000000e+00 0.000000000000000e+00

0.000000000000000e+00 0.000000000000000e+00 0.000000000000000e+00
0.000000000000000e+00 0.000000000000000e+00 0.000000000000000e+00
0.000000000000000e+00 0.000000000000000e+00 0.000000000000000e+00

0.000000000000000e+00 0.000000000000000e+00 0.000000000000000e+00
0.000000000000000e+00 0.000000000000000e+00 0.000000000000000e+00
0.000000000000000e+00 0.000000000000000e+00 0.000000000000000e+00

0.000000000000000e+00 0.000000000000000e+00 0.000000000000000e+00
0.000000000000000e+00 0.000000000000000e+00 0.000000000000000e+00
0.000000000000000e+00 0.000000000000000e+00 0.000000000000000e+00

0.000000000000000e+00 0.000000000000000e+00 0.000000000000000e+00
0.000000000000000e+00 0.000000000000000e+00 0.000000000000000e+00
0.000000000000000e+00 0.000000000000000e+00 0.000000000000000e+00

0.000000000000000e+00 0.000000000000000e+00 0.000000000000000e+00
0.000000000000000e+00 0.000000000000000e+00 0.000000000000000e+00
0.000000000000000e+00 0.000000000000000e+00 0.000000000000000e+00

0.000000000000000e+00 0.000000000000000e+00 0.000000000000000e+00
0.000000000000000e+00 0.000000000000000e+00 0.000000000000000e+00
0.000000000000000e+00 0.000000000000000e+00 0.000000000000000e+00

0.000000000000000e+00 0.000000000000000e+00 0.000000000000000e+00
0.000000000000000e+00 0.000000000000000e+00 0.000000000000000e+00
0.000000000000000e+00 0.000000000000000e+00 0.000000000000000e+00

0.000000000000000e+00 0.000000000000000e+00 0.000000000000000e+00
0.000000000000000e+00 0.000000000000000e+00 0.000000000000000e+00
0.000000000000000e+00 0.000000000000000e+00 0.000000000000000e+00

0.000000000000000e+00 0.000000000000000e+00 0.000000000000000e+00
0.000000000000000e+00 0.000000000000000e+00 0.000000000000000e+00
0.000000000000000e+00 0.000000000000000e+00 0.000000000000000e+00

0.000000000000000e+00 0.000000000000000e+00 0.000000000000000e+00
0.000000000000000e+00 0.000000000000000e+00 0.000000000000000e+00
0.000000000000000e+00 0.000000000000000e+00 0.000000000000000e+00

0.000000000000000e+00 0.000000000000000e+00 0.000000000000000e+00
0.000000000000000e+00 0.000000000000000e+00 0.000000000000000e+00
0.000000000000000e+00 0.000000000000000e+00 0.000000000000000e+00

0.000000000000000e+00 0.000000000000000e+00 0.000000000000000e+00
0.000000000000000e+00 0.000000000000000e+00 0.000000000000000e+00
0.000000000000000e+00 0.000000000000000e+00 0.000000000000000e+00

0.000000000000000e+00 0.000000000000000e+00 0.000000000000000e+00
0.000000000000000e+00 0.000000000000000e+00 0.000000000000000e+00
0.000000000000000e+00 0.000000000000000e+00 0.000000000000000e+00

0.000000000000000e+00 0.000000000000000e+00 0.000000000000000e+00
0.000000000000000e+00 0.000000000000000e+00 0.000000000000000e+00
0.000000000000000e+00 0.000000000000000e+00 0.000000000000000e+00

0.000000000000000e+00 0.000000000000000e+00 0.000000000000000e+00
0.000000000000000e+00 0.000000000000000e+00 0.000000000000000e+00
0.000000000000000e+00 0.000000000000000e+00 0.000000000000000e+00

0.000000000000000e+00 0.000000000000000e+00 0.000000000000000e+00
0.000000000000000e+00 0.000000000000000e+00 0.000000000000000e+00
0.000000000000000e+00 0.000000000000000e+00 0.000000000000000e+00

0.000000000000000e+00 0.000000000000000e+00 0.000000000000000e+00
0.000000000000000e+00 0.000000000000000e+00 0.000000000000000e+00
0.000000000000000e+00 0.000000000000000e+00 0.000000000000000e+00

0.000000000000000e+00 0.000000000000000e+00 0.000000000000000e+00
0.000000000000000e+00 0.000000000000000e+00 0.000000000000000e+00
0.000000000000000e+00 0.000000000000000e+00 0.000000000000000e+00

0.000000000000000e+00 0.000000000000000e+00 0.000000000000000e+00
0.000000000000000e+00 0.000000000000000e+00 0.000000000000000e+00
0.000000000000000e+00 0.000000000000000e+00 0.000000000000000e+00

0.000000000000000e+00 0.000000000000000e+00 0.000000000000000e+00
0.000000000000000e+00 0.000000000000000e+00 0.000000000000000e+00
0.000000000000000e+00 0.000000000000000e+00 0.000000000000000e+00

0.000000000000000e+00 0.000000000000000e+00 0.000000000000000e+00
0.000000000000000e+00 0.000000000000000e+00 0.000000000000000e+00
0.000000000000000e+00 0.000000000000000e+00 0.000000000000000e+00

0.000000000000000e+00 0.000000000000000e+00 0.000000000000000e+00
0.000000000000000e+00 0.000000000000000e+00 0.000000000000000e+00
0.000000000000000e+00 0.000000000000000e+00 0.000000000000000e+00

0.000000000000000e+00 0.000000000000000e+00 0.000000000000000e+00
0.000000000000000e+00 0.000000000000000e+00 0.000000000000000e+00
0.000000000000000e+00 0.000000000000000e+00 0.000000000000000e+00

0.000000000000000e+00 0.000000000000000e+00 0.000000000000000e+00
0.000000000000000e+00 0.000000000000000e+00 0.000000000000000e+00
0.000000000000000e+00 0.000000000000000e+00 0.000000000000000e+00

0.000000000000000e+00 0.000000000000000e+00 0.000000000000000e+00
0.000000000000000e+00 0.000000000000000e+00 0.000000000000000e+00
0.000000000000000e+00 0.000000000000000e+00 0.000000000000000e+00

0.000000000000000e+00 0.000000000000000e+00 0.000000000000000e+00
0.000000000000000e+00 0.000000000000000e+00 0.000000000000000e+00
0.000000000000000e+00 0.000000000000000e+00 0.000000000000000e+00

0.000000000000000e+00 0.000000000000000e+00 0.000000000000000e+00
0.000000000000000e+00 0.000000000000000e+00 0.000000000000000e+00
0.000000000000000e+00 0.000000000000000e+00 0.000000000000000e+00

0.000000000000000e+00 0.000000000000000e+00 0.000000000000000e+00
0.000000000000000e+00 0.000000000000000e+00 0.000000000000000e+00
0.000000000000000e+00 0.000000000000000e+00 0.000000000000000e+00

0.000000000000000e+00 0.000000000000000e+00 0.000000000000000e+00
0.000000000000000e+00 0.000000000000000e+00 0.000000000000000e+00
0.000000000000000e+00 0.000000000000000e+00 0.000000000000000e+00

0.000000000000000e+00 0.000000000000000e+00 0.000000000000000e+00
0.000000000000000e+00 0.000000000000000e+00 0.000000000000000e+00
0.000000000000000e+00 0.000000000000000e+00 0.000000000000000e+00

0.000000000000000e+00 0.000000000000000e+00 0.000000000000000e+00
0.000000000000000e+00 0.000000000000000e+00 0.000000000000000e+00
0.000000000000000e+00 0.000000000000000e+00 0.000000000000000e+00

0.000000000000000e+00 0.000000000000000e+00 0.000000000000000e+00
0.000000000000000e+00 0.000000000000000e+00 0.000000000000000e+00
0.000000000000000e+00 0.000000000000000e+00 0.000000000000000e+00

0.000000000000000e+00 0.000000000000000e+00 0.000000000000000e+00
0.000000000000000e+00 0.000000000000000e+00 0.000000000000000e+00
0.000000000000000e+00 0.000000000000000e+00 0.000000000000000e+00

0.000000000000000e+00 0.000000000000000e+00 0.000000000000000e+00
0.000000000000000e+00 0.000000000000000e+00 0.000000000000000e+00
0.000000000000000e+00 0.000000000000000e+00 0.000000000000000e+00

0.000000000000000e+00 0.000000000000000e+00 0.000000000000000e+00
0.000000000000000e+00 0.000000000000000e+00 0.000000000000000e+00
0.000000000000000e+00 0.000000000000000e+00 0.000000000000000e+00

0.000000000000000e+00 0.000000000000000e+00 0.000000000000000e+00
0.000000000000000e+00 0.000000000000000e+00 0.000000000000000e+00
0.000000000000000e+00 0.000000000000000e+00 0.000000000000000e+00

0.000000000000000e+00 0.000000000000000e+00 0.000000000000000e+00
0.000000000000000e+00 0.000000000000000e+00 0.000000000000000e+00
0.000000000000000e+00 0.000000000000000e+00 0.000000000000000e+00

0.000000000000000e+00 0.000000000000000e+00 0.000000000000000e+00
0.000000000000000e+00 0.000000000000000e+00 0.000000000000000e+00
0.000000000000000e+00 0.000000000000000e+00 0.000000000000000e+00

0.000000000000000e+00 0.000000000000000e+00 0.000000000000000e+00
0.000000000000000e+00 0.000000000000000e+00 0.000000000000000e+00
0.000000000000000e+00 0.000000000000000e+00 0.000000000000000e+00

0.000000000000000e+00 0.000000000000000e+00 0.000000000000000e+00
0.000000000000000e+00 0.000000000000000e+00 0.000000000000000e+00
0.000000000000000e+00 0.000000000000000e+00 0.000000000000000e+00

0.000000000000000e+00 0.000000000000000e+00 0.000000000000000e+00
0.000000000000000e+00 0.000000000000000e+00 0.000000000000000e+00
0.000000000000000e+00 0.000000000000000e+00 0.000000000000000e+00

0.000000000000000e+00 0.000000000000000e+00 0.000000000000000e+00
0.000000000000000e+00 0.000000000000000e+00 0.000000000000000e+00
0.000000000000000e+00 0.000000000000000e+00 0.000000000000000e+00

0.000000000000000e+00 0.000000000000000e+00 0.000000000000000e+00
0.000000000000000e+00 0.000000000000000e+00 0.000000000000000e+00
0.000000000000000e+00 0.000000000000000e+00 0.000000000000000e+00

0.000000000000000e+00 0.000000000000000e+00 0.000000000000000e+00
0.000000000000000e+00 0.000000000000000e+00 0.000000000000000e+00
0.000000000000000e+00 0.000000000000000e+00 0.000000000000000e+00

0.000000000000000e+00 0.000000000000000e+00 0.000000000000000e+00
0.000000000000000e+00 0.000000000000000e+00 0.000000000000000e+00
0.000000000000000e+00 0.000000000000000e+00 0.000000000000000e+00

0.000000000000000e+00 0.000000000000000e+00 0.000000000000000e+00
0.000000000000000e+00 0.000000000000000e+00 0.000000000000000e+00
0.000000000000000e+00 0.000000000000000e+00 0.000000000000000e+00

0.000000000000000e+00 0.000000000000000e+00 0.000000000000000e+00
0.000000000000000e+00 0.000000000000000e+00 0.000000000000000e+00
0.000000000000000e+00 0.000000000000000e+00 0.000000000000000e+00

0.000000000000000e+00 0.000000000000000e+00 0.000000000000000e+00
0.000000000000000e+00 0.000000000000000e+00 0.000000000000000e+00
0.000000000000000e+00 0.000000000000000e+00 0.000000000000000e+00

0.000000000000000e+00 0.000000000000000e+00 0.000000000000000e+00
0.000000000000000e+00 0.000000000000000e+00 0.000000000000000e+00
0.000000000000000e+00 0.000000000000000e+00 0.000000000000000e+00

0.000000000000000e+00 0.000000000000000e+00 0.000000000000000e+00
0.000000000000000e+00 0.000000000000000e+00 0.000000000000000e+00
0.000000000000000e+00 0.000000000000000e+00 0.000000000000000e+00

0.000000000000000e+00 0.000000000000000e+00 0.000000000000000e+00
0.000000000000000e+00 0.000000000000000e+00 0.000000000000000e+00
0.000000000000000e+00 0.000000000000000e+00 0.000000000000000e+00

0.000000000000000e+00 0.000000000000000e+00 0.000000000000000e+00
0.000000000000000e+00 0.000000000000000e+00 0.000000000000000e+00
0.000000000000000e+00 0.000000000000000e+00 0.000000000000000e+00

0.000000000000000e+00 0.000000000000000e+00 0.000000000000000e+00
0.000000000000000e+00 0.000000000000000e+00 0.000000000000000e+00
0.000000000000000e+00 0.000000000000000e+00 0.000000000000000e+00

0.000000000000000e+00 0.000000000000000e+00 0.000000000000000e+00
0.000000000000000e+00 0.000000000000000e+00 0.000000000000000e+00
0.000000000000000e+00 0.000000000000000e+00 0.000000000000000e+00

0.000000000000000e+00 0.000000000000000e+00 0.000000000000000e+00
0.000000000000000e+00 0.000000000000000e+00 0.000000000000000e+00
0.000000000000000e+00 0.000000000000000e+00 0.000000000000000e+00

0.000000000000000e+00 0.000000000000000e+00 0.000000000000000e+00
0.000000000000000e+00 0.000000000000000e+00 0.000000000000000e+00
0.000000000000000e+00 0.000000000000000e+00 0.000000000000000e+00

0.000000000000000e+00 0.000000000000000e+00 0.000000000000000e+00
0.000000000000000e+00 0.000000000000000e+00 0.000000000000000e+00
0.000000000000000e+00 0.000000000000000e+00 0.000000000000000e+00

0.000000000000000e+00 0.000000000000000e+00 0.000000000000000e+00
0.000000000000000e+00 0.000000000000000e+00 0.000000000000000e+00
0.000000000000000e+00 0.000000000000000e+00 0.000000000000000e+00

0.000000000000000e+00 0.000000000000000e+00 0.000000000000000e+00
0.000000000000000e+00 0.000000000000000e+00 0.000000000000000e+00
0.000000000000000e+00 0.000000000000000e+00 0.000000000000000e+00

0.000000000000000e+00 0.000000000000000e+00 0.000000000000000e+00
0.000000000000000e+00 0.000000000000000e+00 0.000000000000000e+00
0.000000000000000e+00 0.000000000000000e+00 0.000000000000000e+00

0.000000000000000e+00 0.000000000000000e+00 0.000000000000000e+00
0.000000000000000e+00 0.000000000000000e+00 0.000000000000000e+00
0.000000000000000e+00 0.000000000000000e+00 0.000000000000000e+00

0.000000000000000e+00 0.000000000000000e+00 0.000000000000000e+00
0.000000000000000e+00 0.000000000000000e+00 0.000000000000000e+00
0.000000000000000e+00 0.000000000000000e+00 0.000000000000000e+00

0.000000000000000e+00 0.000000000000000e+00 0.000000000000000e+00
0.000000000000000e+00 0.000000000000000e+00 0.000000000000000e+00
0.000000000000000e+00 0.000000000000000e+00 0.000000000000000e+00

0.000000000000000e+00 0.000000000000000e+00 0.000000000000000e+00
0.000000000000000e+00 0.000000000000000e+00 0.000000000000000e+00
0.000000000000000e+00 0.000000000000000e+00 0.000000000000000e+00

0.000000000000000e+00 0.000000000000000e+00 0.000000000000000e+00
0.000000000000000e+00 0.000000000000000e+00 0.000000000000000e+00
0.000000000000000e+00 0.000000000000000e+00 0.000000000000000e+00

0.000000000000000e+00 0.000000000000000e+00 0.000000000000000e+00
0.000000000000000e+00 0.000000000000000e+00 0.000000000000000e+00
0.000000000000000e+00 0.000000000000000e+00 0.000000000000000e+00

0.000000000000000e+00 0.000000000000000e+00 0.000000000000000e+00
0.000000000000000e+00 0.000000000000000e+00 0.000000000000000e+00
0.000000000000000e+00 0.000000000000000e+00 0.000000000000000e+00

0.000000000000000e+00 0.000000000000000e+00 0.000000000000000e+00
0.000000000000000e+00 0.000000000000000e+00 0.000000000000000e+00
0.000000000000000e+00 0.000000000000000e+00 0.000000000000000e+00

0.000000000000000e+00 0.000000000000000e+00 0.000000000000000e+00
0.000000000000000e+00 0.000000000000000e+00 0.000000000000000e+00
0.000000000000000e+00 0.000000000000000e+00 0.000000000000000e+00

0.000000000000000e+00 0.000000000000000e+00 0.000000000000000e+00
0.000000000000000e+00 0.000000000000000e+00 0.000000000000000e+00
0.000000000000000e+00 0.000000000000000e+00 0.000000000000000e+00

0.000000000000000e+00 0.000000000000000e+00 0.000000000000000e+00
0.000000000000000e+00 0.000000000000000e+00 0.000000000000000e+00
0.000000000000000e+00 0.000000000000000e+00 0.000000000000000e+00

0.000000000000000e+00 0.000000000000000e+00 0.000000000000000e+00
0.000000000000000e+00 0.000000000000000e+00 0.000000000000000e+00
0.000000000000000e+00 0.000000000000000e+00 0.000000000000000e+00

0.000000000000000e+00 0.000000000000000e+00 0.000000000000000e+00
0.000000000000000e+00 0.000000000000000e+00 0.000000000000000e+00
0.000000000000000e+00 0.000000000000000e+00 0.000000000000000e+00

0.000000000000000e+00 0.000000000000000e+00 0.000000000000000e+00
0.000000000000000e+00 0.000000000000000e+00 0.000000000000000e+00
0.000000000000000e+00 0.000000000000000e+00 0.000000000000000e+00

0.000000000000000e+00 0.000000000000000e+00 0.000000000000000e+00
0.000000000000000e+00 0.000000000000000e+00 0.000000000000000e+00
0.000000000000000e+00 0.000000000000000e+00 0.000000000000000e+00

0.000000000000000e+00 0.000000000000000e+00 0.000000000000000e+00
0.000000000000000e+00 0.000000000000000e+00 0.000000000000000e+00
0.000000000000000e+00 0.000000000000000e+00 0.000000000000000e+00

0.000000000000000e+00 0.000000000000000e+00 0.000000000000000e+00
0.000000000000000e+00 0.000000000000000e+00 0.000000000000000e+00
0.000000000000000e+00 0.000000000000000e+00 0.000000000000000e+00

0.000000000000000e+00 0.000000000000000e+00 0.000000000000000e+00
0.000000000000000e+00 0.000000000000000e+00 0.000000000000000e+00
0.000000000000000e+00 0.000000000000000e+00 0.000000000000000e+00

0.000000000000000e+00 0.000000000000000e+00 0.000000000000000e+00
0.000000000000000e+00 0.000000000000000e+00 0.000000000000000e+00
0.000000000000000e+00 0.000000000000000e+00 0.000000000000000e+00

0.000000000000000e+00 0.000000000000000e+00 0.000000000000000e+00
0.000000000000000e+00 0.000000000000000e+00 0.000000000000000e+00
0.000000000000000e+00 0.000000000000000e+00 0.000000000000000e+00

0.000000000000000e+00 0.000000000000000e+00 0.000000000000000e+00
0.000000000000000e+00 0.000000000000000e+00 0.000000000000000e+00
0.000000000000000e+00 0.000000000000000e+00 0.000000000000000e+00

0.000000000000000e+00 0.000000000000000e+00 0.000000000000000e+00
0.000000000000000e+00 0.000000000000000e+00 0.000000000000000e+00
0.000000000000000e+00 0.000000000000000e+00 0.000000000000000e+00

0.000000000000000e+00 0.000000000000000e+00 0.000000000000000e+00
0.000000000000000e+00 0.000000000000000e+00 0.000000000000000e+00
0.000000000000000e+00 0.000000000000000e+00 0.000000000000000e+00

0.000000000000000e+00 0.000000000000000e+00 0.000000000000000e+00
0.000000000000000e+00 0.000000000000000e+00 0.000000000000000e+00
0.000000000000000e+00 0.000000000000000e+00 0.000000000000000e+00

0.000000000000000e+00 0.000000000000000e+00 0.000000000000000e+00
0.000000000000000e+00 0.000000000000000e+00 0.000000000000000e+00
0.000000000000000e+00 0.000000000000000e+00 0.000000000000000e+00

0.000000000000000e+00 0.000000000000000e+00 0.000000000000000e+00
0.000000000000000e+00 0.000000000000000e+00 0.000000000000000e+00
0.000000000000000e+00 0.000000000000000e+00 0.000000000000000e+00

0.000000000000000e+00 0.000000000000000e+00 0.000000000000000e+00
0.000000000000000e+00 0.000000000000000e+00 0.000000000000000e+00
0.000000000000000e+00 0.000000000000000e+00 0.000000000000000e+00

0.000000000000000e+00 0.000000000000000e+00 0.000000000000000e+00
0.000000000000000e+00 0.000000000000000e+00 0.000000000000000e+00
0.000000000000000e+00 0.000000000000000e+00 0.000000000000000e+00

0.000000000000000e+00 0.000000000000000e+00 0.000000000000000e+00
0.000000000000000e+00 0.000000000000000e+00 0.000000000000000e+00
0.000000000000000e+00 0.000000000000000e+00 0.000000000000000e+00

0.000000000000000e+00 0.000000000000000e+00 0.000000000000000e+00
0.000000000000000e+00 0.000000000000000e+00 0.000000000000000e+00
0.000000000000000e+00 0.000000000000000e+00 0.000000000000000e+00

0.000000000000000e+00 0.000000000000000e+00 0.000000000000000e+00
0.000000000000000e+00 0.000000000000000e+00 0.000000000000000e+00
0.000000000000000e+00 0.000000000000000e+00 0.000000000000000e+00

0.000000000000000e+00 0.000000000000000e+00 0.000000000000000e+00
0.000000000000000e+00 0.000000000000000e+00 0.000000000000000e+00
0.000000000000000e+00 0.000000000000000e+00 0.000000000000000e+00

0.000000000000000e+00 0.000000000000000e+00 0.000000000000000e+00
0.000000000000000e+00 0.000000000000000e+00 0.000000000000000e+00
0.000000000000000e+00 0.000000000000000e+00 0.000000000000000e+00

0.000000000000000e+00 0.000000000000000e+00 0.000000000000000e+00
0.000000000000000e+00 0.000000000000000e+00 0.000000000000000e+00
0.000000000000000e+00 0.000000000000000e+00 0.000000000000000e+00

0.000000000000000e+00 0.000000000000000e+00 0.000000000000000e+00
0.000000000000000e+00 0.000000000000000e+00 0.000000000000000e+00
0.000000000000000e+00 0.000000000000000e+00 0.000000000000000e+00

0.000000000000000e+00 0.000000000000000e+00 0.000000000000000e+00
0.000000000000000e+00 0.000000000000000e+00 0.000000000000000e+00
0.000000000000000e+00 0.000000000000000e+00 0.000000000000000e+00

0.000000000000000e+00 0.000000000000000e+00 0.000000000000000e+00
0.000000000000000e+00 0.000000000000000e+00 0.000000000000000e+00
0.000000000000000e+00 0.000000000000000e+00 0.000000000000000e+00

0.000000000000000e+00 0.000000000000000e+00 0.000000000000000e+00
0.000000000000000e+00 0.000000000000000e+00 0.000000000000000e+00
0.000000000000000e+00 0.000000000000000e+00 0.000000000000000e+00

0.000000000000000e+00 0.000000000000000e+00 0.000000000000000e+00
0.000000000000000e+00 0.000000000000000e+00 0.000000000000000e+00
0.000000000000000e+00 0.000000000000000e+00 0.000000000000000e+00

0.000000000000000e+00 0.000000000000000e+00 0.000000000000000e+00
0.000000000000000e+00 0.000000000000000e+00 0.000000000000000e+00
0.000000000000000e+00 0.000000000000000e+00 0.000000000000000e+00

0.000000000000000e+00 0.000000000000000e+00 0.000000000000000e+00
0.000000000000000e+00 0.000000000000000e+00 0.000000000000000e+00
0.000000000000000e+00 0.000000000000000e+00 0.000000000000000e+00

0.000000000000000e+00 0.000000000000000e+00 0.000000000000000e+00
0.000000000000000e+00 0.000000000000000e+00 0.000000000000000e+00
0.000000000000000e+00 0.000000000000000e+00 0.000000000000000e+00

0.000000000000000e+00 0.000000000000000e+00 0.000000000000000e+00
0.000000000000000e+00 0.000000000000000e+00 0.000000000000000e+00
0.000000000000000e+00 0.000000000000000e+00 0.000000000000000e+00

0.000000000000000e+00 0.000000000000000e+00 0.000000000000000e+00
0.000000000000000e+00 0.000000000000000e+00 0.000000000000000e+00
0.000000000000000e+00 0.000000000000000e+00 0.000000000000000e+00

0.000000000000000e+00 0.000000000000000e+00 0.000000000000000e+00
0.000000000000000e+00 0.000000000000000e+00 0.000000000000000e+00
0.000000000000000e+00 0.000000000000000e+00 0.000000000000000e+00

0.000000000000000e+00 0.000000000000000e+00 0.000000000000000e+00
0.000000000000000e+00 0.000000000000000e+00 0.000000000000000e+00
0.000000000000000e+00 0.000000000000000e+00 0.000000000000000e+00

0.000000000000000e+00 0.000000000000000e+00 0.000000000000000e+00
0.000000000000000e+00 0.000000000000000e+00 0.000000000000000e+00
0.000000000000000e+00 0.000000000000000e+00 0.000000000000000e+00

0.000000000000000e+00 0.000000000000000e+00 0.000000000000000e+00
0.000000000000000e+00 0.000000000000000e+00 0.000000000000000e+00
0.000000000000000e+00 0.000000000000000e+00 0.000000000000000e+00

0.000000000000000e+00 0.000000000000000e+00 0.000000000000000e+00
0.000000000000000e+00 0.000000000000000e+00 0.000000000000000e+00
0.000000000000000e+00 0.000000000000000e+00 0.000000000000000e+00

0.000000000000000e+00 0.000000000000000e+00 0.000000000000000e+00
0.000000000000000e+00 0.000000000000000e+00 0.000000000000000e+00
0.000000000000000e+00 0.000000000000000e+00 0.000000000000000e+00

0.000000000000000e+00 0.000000000000000e+00 0.000000000000000e+00
0.000000000000000e+00 0.000000000000000e+00 0.000000000000000e+00
0.000000000000000e+00 0.000000000000000e+00 0.000000000000000e+00

0.000000000000000e+00 0.000000000000000e+00 0.000000000000000e+00
0.000000000000000e+00 0.000000000000000e+00 0.000000000000000e+00
0.000000000000000e+00 0.000000000000000e+00 0.000000000000000e+00

0.000000000000000e+00 0.000000000000000e+00 0.000000000000000e+00
0.000000000000000e+00 0.000000000000000e+00 0.000000000000000e+00
0.000000000000000e+00 0.000000000000000e+00 0.000000000000000e+00

0.000000000000000e+00 0.000000000000000e+00 0.000000000000000e+00
0.000000000000000e+00 0.000000000000000e+00 0.000000000000000e+00
0.000000000000000e+00 0.000000000000000e+00 0.000000000000000e+00

0.000000000000000e+00 0.000000000000000e+00 0.000000000000000e+00
0.000000000000000e+00 0.000000000000000e+00 0.000000000000000e+00
0.000000000000000e+00 0.000000000000000e+00 0.000000000000000e+00

0.000000000000000e+00 0.000000000000000e+00 0.000000000000000e+00
0.000000000000000e+00 0.000000000000000e+00 0.000000000000000e+00
0.000000000000000e+00 0.000000000000000e+00 0.000000000000000e+00

0.000000000000000e+00 0.000000000000000e+00 0.000000000000000e+00
0.000000000000000e+00 0.000000000000000e+00 0.000000000000000e+00
0.000000000000000e+00 0.000000000000000e+00 0.000000000000000e+00

0.000000000000000e+00 0.000000000000000e+00 0.000000000000000e+00
0.000000000000000e+00 0.000000000000000e+00 0.000000000000000e+00
0.000000000000000e+00 0.000000000000000e+00 0.000000000000000e+00

0.000000000000000e+00 0.000000000000000e+00 0.000000000000000e+00
0.000000000000000e+00 0.000000000000000e+00 0.000000000000000e+00
0.000000000000000e+00 0.000000000000000e+00 0.000000000000000e+00

0.000000000000000e+00 0.000000000000000e+00 0.000000000000000e+00
0.000000000000000e+00 0.000000000000000e+00 0.000000000000000e+00
0.000000000000000e+00 0.000000000000000e+00 0.000000000000000e+00

0.000000000000000e+00 0.000000000000000e+00 0.000000000000000e+00
0.000000000000000e+00 0.000000000000000e+00 0.000000000000000e+00
0.000000000000000e+00 0.000000000000000e+00 0.000000000000000e+00

0.000000000000000e+00 0.000000000000000e+00 0.000000000000000e+00
0.000000000000000e+00 0.000000000000000e+00 0.000000000000000e+00
0.000000000000000e+00 0.000000000000000e+00 0.000000000000000e+00

0.000000000000000e+00 0.000000000000000e+00 0.000000000000000e+00
0.000000000000000e+00 0.000000000000000e+00 0.000000000000000e+00
0.000000000000000e+00 0.000000000000000e+00 0.000000000000000e+00

0.000000000000000e+00 0.000000000000000e+00 0.000000000000000e+00
0.000000000000000e+00 0.000000000000000e+00 0.000000000000000e+00
0.000000000000000e+00 0.000000000000000e+00 0.000000000000000e+00

0.000000000000000e+00 0.000000000000000e+00 0.000000000000000e+00
0.000000000000000e+00 0.000000000000000e+00 0.000000000000000e+00
0.000000000000000e+00 0.000000000000000e+00 0.000000000000000e+00

0.000000000000000e+00 0.000000000000000e+00 0.000000000000000e+00
0.000000000000000e+00 0.000000000000000e+00 0.000000000000000e+00
0.000000000000000e+00 0.000000000000000e+00 0.000000000000000e+00

0.000000000000000e+00 0.000000000000000e+00 0.000000000000000e+00
0.000000000000000e+00 0.000000000000000e+00 0.000000000000000e+00
0.000000000000000e+00 0.000000000000000e+00 0.000000000000000e+00

0.000000000000000e+00 0.000000000000000e+00 0.000000000000000e+00
0.000000000000000e+00 0.000000000000000e+00 0.000000000000000e+00
0.000000000000000e+00 0.000000000000000e+00 0.000000000000000e+00

0.000000000000000e+00 0.000000000000000e+00 0.000000000000000e+00
0.000000000000000e+00 0.000000000000000e+00 0.000000000000000e+00
0.000000000000000e+00 0.000000000000000e+00 0.000000000000000e+00

0.000000000000000e+00 0.000000000000000e+00 0.000000000000000e+00
0.000000000000000e+00 0.000000000000000e+00 0.000000000000000e+00
0.000000000000000e+00 0.000000000000000e+00 0.000000000000000e+00

0.000000000000000e+00 0.000000000000000e+00 0.000000000000000e+00
0.000000000000000e+00 0.000000000000000e+00 0.000000000000000e+00
0.000000000000000e+00 0.000000000000000e+00 0.000000000000000e+00

0.000000000000000e+00 0.000000000000000e+00 0.000000000000000e+00
0.000000000000000e+00 0.000000000000000e+00 0.000000000000000e+00
0.000000000000000e+00 0.000000000000000e+00 0.000000000000000e+00

0.000000000000000e+00 0.000000000000000e+00 0.000000000000000e+00
0.000000000000000e+00 0.000000000000000e+00 0.000000000000000e+00
0.000000000000000e+00 0.000000000000000e+00 0.000000000000000e+00

0.000000000000000e+00 0.000000000000000e+00 0.000000000000000e+00
0.000000000000000e+00 0.000000000000000e+00 0.000000000000000e+00
0.000000000000000e+00 0.000000000000000e+00 0.000000000000000e+00

0.000000000000000e+00 0.000000000000000e+00 0.000000000000000e+00
0.000000000000000e+00 0.000000000000000e+00 0.000000000000000e+00
0.000000000000000e+00 0.000000000000000e+00 0.000000000000000e+00

0.000000000000000e+00 0.000000000000000e+00 0.000000000000000e+00
0.000000000000000e+00 0.000000000000000e+00 0.000000000000000e+00
0.000000000000000e+00 0.000000000000000e+00 0.000000000000000e+00

0.000000000000000e+00 0.000000000000000e+00 0.000000000000000e+00
0.000000000000000e+00 0.000000000000000e+00 0.000000000000000e+00
0.000000000000000e+00 0.000000000000000e+00 0.000000000000000e+00

0.000000000000000e+00 0.000000000000000e+00 0.000000000000000e+00
0.000000000000000e+00 0.000000000000000e+00 0.000000000000000e+00
0.000000000000000e+00 0.000000000000000e+00 0.000000000000000e+00

0.000000000000000e+00 0.000000000000000e+00 0.000000000000000e+00
0.000000000000000e+00 0.000000000000000e+00 0.000000000000000e+00
0.000000000000000e+00 0.000000000000000e+00 0.000000000000000e+00

0.000000000000000e+00 0.000000000000000e+00 0.000000000000000e+00
0.000000000000000e+00 0.000000000000000e+00 0.000000000000000e+00
0.000000000000000e+00 0.000000000000000e+00 0.000000000000000e+00

0.000000000000000e+00 0.000000000000000e+00 0.000000000000000e+00
0.000000000000000e+00 0.000000000000000e+00 0.000000000000000e+00
0.000000000000000e+00 0.000000000000000e+00 0.000000000000000e+00

0.000000000000000e+00 0.000000000000000e+00 0.000000000000000e+00
0.000000000000000e+00 0.000000000000000e+00 0.000000000000000e+00
0.000000000000000e+00 0.000000000000000e+00 0.000000000000000e+00

0.000000000000000e+00 0.000000000000000e+00 0.000000000000000e+00
0.000000000000000e+00 0.000000000000000e+00 0.000000000000000e+00
0.000000000000000e+00 0.000000000000000e+00 0.000000000000000e+00

0.000000000000000e+00 0.000000000000000e+00 0.000000000000000e+00
0.000000000000000e+00 0.000000000000000e+00 0.000000000000000e+00
0.000000000000000e+00 0.000000000000000e+00 0.000000000000000e+00

0.000000000000000e+00 0.000000000000000e+00 0.000000000000000e+00
0.000000000000000e+00 0.000000000000000e+00 0.000000000000000e+00
0.000000000000000e+00 0.000000000000000e+00 0.000000000000000e+00

0.000000000000000e+00 0.000000000000000e+00 0.000000000000000e+00
0.000000000000000e+00 0.000000000000000e+00 0.000000000000000e+00
0.000000000000000e+00 0.000000000000000e+00 0.000000000000000e+00

0.000000000000000e+00 0.000000000000000e+00 0.000000000000000e+00
0.000000000000000e+00 0.000000000000000e+00 0.000000000000000e+00
0.000000000000000e+00 0.000000000000000e+00 0.000000000000000e+00

0.000000000000000e+00 0.000000000000000e+00 0.000000000000000e+00
0.000000000000000e+00 0.000000000000000e+00 0.000000000000000e+00
0.000000000000000e+00 0.000000000000000e+00 0.000000000000000e+00

0.000000000000000e+00 0.000000000000000e+00 0.000000000000000e+00
0.000000000000000e+00 0.000000000000000e+00 0.000000000000000e+00
0.000000000000000e+00 0.000000000000000e+00 0.000000000000000e+00

0.000000000000000e+00 0.000000000000000e+00 0.000000000000000e+00
0.000000000000000e+00 0.000000000000000e+00 0.000000000000000e+00
0.000000000000000e+00 0.000000000000000e+00 0.000000000000000e+00

0.000000000000000e+00 0.000000000000000e+00 0.000000000000000e+00
0.000000000000000e+00 0.000000000000000e+00 0.000000000000000e+00
0.000000000000000e+00 0.000000000000000e+00 0.000000000000000e+00

0.000000000000000e+00 0.000000000000000e+00 0.000000000000000e+00
0.000000000000000e+00 0.000000000000000e+00 0.000000000000000e+00
0.000000000000000e+00 0.000000000000000e+00 0.000000000000000e+00

0.000000000000000e+00 0.000000000000000e+00 0.000000000000000e+00
0.000000000000000e+00 0.000000000000000e+00 0.000000000000000e+00
0.000000000000000e+00 0.000000000000000e+00 0.000000000000000e+00

0.000000000000000e+00 0.000000000000000e+00 0.000000000000000e+00
0.000000000000000e+00 0.000000000000000e+00 0.000000000000000e+00
0.000000000000000e+00 0.000000000000000e+00 0.000000000000000e+00

0.000000000000000e+00 0.000000000000000e+00 0.000000000000000e+00
0.000000000000000e+00 0.000000000000000e+00 0.000000000000000e+00
0.000000000000000e+00 0.000000000000000e+00 0.000000000000000e+00

0.000000000000000e+00 0.000000000000000e+00 0.000000000000000e+00
0.000000000000000e+00 0.000000000000000e+00 0.000000000000000e+00
0.000000000000000e+00 0.000000000000000e+00 0.000000000000000e+00

0.000000000000000e+00 0.000000000000000e+00 0.000000000000000e+00
0.000000000000000e+00 0.000000000000000e+00 0.000000000000000e+00
0.000000000000000e+00 0.000000000000000e+00 0.000000000000000e+00

0.000000000000000e+00 0.000000000000000e+00 0.000000000000000e+00
0.000000000000000e+00 0.000000000000000e+00 0.000000000000000e+00
0.000000000000000e+00 0.000000000000000e+00 0.000000000000000e+00

0.000000000000000e+00 0.000000000000000e+00 0.000000000000000e+00
0.000000000000000e+00 0.000000000000000e+00 0.000000000000000e+00
0.000000000000000e+00 0.000000000000000e+00 0.000000000000000e+00

0.000000000000000e+00 0.000000000000000e+00 0.000000000000000e+00
0.000000000000000e+00 0.000000000000000e+00 0.000000000000000e+00
0.000000000000000e+00 0.000000000000000e+00 0.000000000000000e+00

0.000000000000000e+00 0.000000000000000e+00 0.000000000000000e+00
0.000000000000000e+00 0.000000000000000e+00 0.000000000000000e+00
0.000000000000000e+00 0.000000000000000e+00 0.000000000000000e+00

0.000000000000000e+00 0.000000000000000e+00 0.000000000000000e+00
0.000000000000000e+00 0.000000000000000e+00 0.000000000000000e+00
0.000000000000000e+00 0.000000000000000e+00 0.000000000000000e+00

0.000000000000000e+00 0.000000000000000e+00 0.000000000000000e+00
0.000000000000000e+00 0.000000000000000e+00 0.000000000000000e+00
0.000000000000000e+00 0.000000000000000e+00 0.000000000000000e+00

0.000000000000000e+00 0.000000000000000e+00 0.000000000000000e+00
0.000000000000000e+00 0.000000000000000e+00 0.000000000000000e+00
0.000000000000000e+00 0.000000000000000e+00 0.000000000000000e+00

0.000000000000000e+00 0.000000000000000e+00 0.000000000000000e+00
0.000000000000000e+00 0.000000000000000e+00 0.000000000000000e+00
0.000000000000000e+00 0.000000000000000e+00 0.000000000000000e+00

0.000000000000000e+00 0.000000000000000e+00 0.000000000000000e+00
0.000000000000000e+00 0.000000000000000e+00 0.000000000000000e+00
0.000000000000000e+00 0.000000000000000e+00 0.000000000000000e+00

0.000000000000000e+00 0.000000000000000e+00 0.000000000000000e+00
0.000000000000000e+00 0.000000000000000e+00 0.000000000000000e+00
0.000000000000000e+00 0.000000000000000e+00 0.000000000000000e+00

0.000000000000000e+00 0.000000000000000e+00 0.000000000000000e+00
0.000000000000000e+00 0.000000000000000e+00 0.000000000000000e+00
0.000000000000000e+00 0.000000000000000e+00 0.000000000000000e+00

0.000000000000000e+00 0.000000000000000e+00 0.000000000000000e+00
0.000000000000000e+00 0.000000000000000e+00 0.000000000000000e+00
0.000000000000000e+00 0.000000000000000e+00 0.000000000000000e+00

0.000000000000000e+00 0.000000000000000e+00 0.000000000000000e+00
0.000000000000000e+00 0.000000000000000e+00 0.000000000000000e+00
0.000000000000000e+00 0.000000000000000e+00 0.000000000000000e+00

0.000000000000000e+00 0.000000000000000e+00 0.000000000000000e+00
0.000000000000000e+00 0.000000000000000e+00 0.000000000000000e+00
0.000000000000000e+00 0.000000000000000e+00 0.000000000000000e+00

0.000000000000000e+00 0.000000000000000e+00 0.000000000000000e+00
0.000000000000000e+00 0.000000000000000e+00 0.000000000000000e+00
0.000000000000000e+00 0.000000000000000e+00 0.000000000000000e+00

0.000000000000000e+00 0.000000000000000e+00 0.000000000000000e+00
0.000000000000000e+00 0.000000000000000e+00 0.000000000000000e+00
0.000000000000000e+00 0.000000000000000e+00 0.000000000000000e+00

0.000000000000000e+00 0.000000000000000e+00 0.000000000000000e+00
0.000000000000000e+00 0.000000000000000e+00 0.000000000000000e+00
0.000000000000000e+00 0.000000000000000e+00 0.000000000000000e+00

0.000000000000000e+00 0.000000000000000e+00 0.000000000000000e+00
0.000000000000000e+00 0.000000000000000e+00 0.000000000000000e+00
0.000000000000000e+00 0.000000000000000e+00 0.000000000000000e+00

0.000000000000000e+00 0.000000000000000e+00 0.000000000000000e+00
0.000000000000000e+00 0.000000000000000e+00 0.000000000000000e+00
0.000000000000000e+00 0.000000000000000e+00 0.000000000000000e+00

0.000000000000000e+00 0.000000000000000e+00 0.000000000000000e+00
0.000000000000000e+00 0.000000000000000e+00 0.000000000000000e+00
0.000000000000000e+00 0.000000000000000e+00 0.000000000000000e+00

0.000000000000000e+00 0.000000000000000e+00 0.000000000000000e+00
0.000000000000000e+00 0.000000000000000e+00 0.000000000000000e+00
0.000000000000000e+00 0.000000000000000e+00 0.000000000000000e+00

0.000000000000000e+00 0.000000000000000e+00 0.000000000000000e+00
0.000000000000000e+00 0.000000000000000e+00 0.000000000000000e+00
0.000000000000000e+00 0.000000000000000e+00 0.000000000000000e+00

0.000000000000000e+00 0.000000000000000e+00 0.000000000000000e+00
0.000000000000000e+00 0.000000000000000e+00 0.000000000000000e+00
0.000000000000000e+00 0.000000000000000e+00 0.000000000000000e+00

0.000000000000000e+00 0.000000000000000e+00 0.000000000000000e+00
0.000000000000000e+00 0.000000000000000e+00 0.000000000000000e+00
0.000000000000000e+00 0.000000000000000e+00 0.000000000000000e+00

0.000000000000000e+00 0.000000000000000e+00 0.000000000000000e+00
0.000000000000000e+00 0.000000000000000e+00 0.000000000000000e+00
0.000000000000000e+00 0.000000000000000e+00 0.000000000000000e+00

0.000000000000000e+00 0.000000000000000e+00 0.000000000000000e+00
0.000000000000000e+00 0.000000000000000e+00 0.000000000000000e+00
0.000000000000000e+00 0.000000000000000e+00 0.000000000000000e+00

0.000000000000000e+00 0.000000000000000e+00 0.000000000000000e+00
0.000000000000000e+00 0.000000000000000e+00 0.000000000000000e+00
0.000000000000000e+00 0.000000000000000e+00 0.000000000000000e+00

0.000000000000000e+00 0.000000000000000e+00 0.000000000000000e+00
0.000000000000000e+00 0.000000000000000e+00 0.000000000000000e+00
0.000000000000000e+00 0.000000000000000e+00 0.000000000000000e+00

0.000000000000000e+00 0.000000000000000e+00 0.000000000000000e+00
0.000000000000000e+00 0.000000000000000e+00 0.000000000000000e+00
0.000000000000000e+00 0.000000000000000e+00 0.000000000000000e+00

0.000000000000000e+00 0.000000000000000e+00 0.000000000000000e+00
0.000000000000000e+00 0.000000000000000e+00 0.000000000000000e+00
0.000000000000000e+00 0.000000000000000e+00 0.000000000000000e+00

0.000000000000000e+00 0.000000000000000e+00 0.000000000000000e+00
0.000000000000000e+00 0.000000000000000e+00 0.000000000000000e+00
0.000000000000000e+00 0.000000000000000e+00 0.000000000000000e+00

0.000000000000000e+00 0.000000000000000e+00 0.000000000000000e+00
0.000000000000000e+00 0.000000000000000e+00 0.000000000000000e+00
0.000000000000000e+00 0.000000000000000e+00 0.000000000000000e+00

0.000000000000000e+00 0.000000000000000e+00 0.000000000000000e+00
0.000000000000000e+00 0.000000000000000e+00 0.000000000000000e+00
0.000000000000000e+00 0.000000000000000e+00 0.000000000000000e+00

0.000000000000000e+00 0.000000000000000e+00 0.000000000000000e+00
0.000000000000000e+00 0.000000000000000e+00 0.000000000000000e+00
0.000000000000000e+00 0.000000000000000e+00 0.000000000000000e+00

0.000000000000000e+00 0.000000000000000e+00 0.000000000000000e+00
0.000000000000000e+00 0.000000000000000e+00 0.000000000000000e+00
0.000000000000000e+00 0.000000000000000e+00 0.000000000000000e+00

0.000000000000000e+00 0.000000000000000e+00 0.000000000000000e+00
0.000000000000000e+00 0.000000000000000e+00 0.000000000000000e+00
0.000000000000000e+00 0.000000000000000e+00 0.000000000000000e+00

0.000000000000000e+00 0.000000000000000e+00 0.000000000000000e+00
0.000000000000000e+00 0.000000000000000e+00 0.000000000000000e+00
0.000000000000000e+00 0.000000000000000e+00 0.000000000000000e+00

0.000000000000000e+00 0.000000000000000e+00 0.000000000000000e+00
0.000000000000000e+00 0.000000000000000e+00 0.000000000000000e+00
0.000000000000000e+00 0.000000000000000e+00 0.000000000000000e+00

0.000000000000000e+00 0.000000000000000e+00 0.000000000000000e+00
0.000000000000000e+00 0.000000000000000e+00 0.000000000000000e+00
0.000000000000000e+00 0.000000000000000e+00 0.000000000000000e+00

0.000000000000000e+00 0.000000000000000e+00 0.000000000000000e+00
0.000000000000000e+00 0.000000000000000e+00 0.000000000000000e+00
0.000000000000000e+00 0.000000000000000e+00 0.000000000000000e+00

0.000000000000000e+00 0.000000000000000e+00 0.000000000000000e+00
0.000000000000000e+00 0.000000000000000e+00 0.000000000000000e+00
0.000000000000000e+00 0.000000000000000e+00 0.000000000000000e+00

0.000000000000000e+00 0.000000000000000e+00 0.000000000000000e+00
0.000000000000000e+00 0.000000000000000e+00 0.000000000000000e+00
0.000000000000000e+00 0.000000000000000e+00 0.000000000000000e+00

0.000000000000000e+00 0.000000000000000e+00 0.000000000000000e+00
0.000000000000000e+00 0.000000000000000e+00 0.000000000000000e+00
0.000000000000000e+00 0.000000000000000e+00 0.000000000000000e+00

0.000000000000000e+00 0.000000000000000e+00 0.000000000000000e+00
0.000000000000000e+00 0.000000000000000e+00 0.000000000000000e+00
0.000000000000000e+00 0.000000000000000e+00 0.000000000000000e+00

0.000000000000000e+00 0.000000000000000e+00 0.000000000000000e+00
0.000000000000000e+00 0.000000000000000e+00 0.000000000000000e+00
0.000000000000000e+00 0.000000000000000e+00 0.000000000000000e+00

0.000000000000000e+00 0.000000000000000e+00 0.000000000000000e+00
0.000000000000000e+00 0.000000000000000e+00 0.000000000000000e+00
0.000000000000000e+00 0.000000000000000e+00 0.000000000000000e+00

0.000000000000000e+00 0.000000000000000e+00 0.000000000000000e+00
0.000000000000000e+00 0.000000000000000e+00 0.000000000000000e+00
0.000000000000000e+00 0.000000000000000e+00 0.000000000000000e+00

0.000000000000000e+00 0.000000000000000e+00 0.000000000000000e+00
0.000000000000000e+00 0.000000000000000e+00 0.000000000000000e+00
0.000000000000000e+00 0.000000000000000e+00 0.000000000000000e+00

0.000000000000000e+00 0.000000000000000e+00 0.000000000000000e+00
0.000000000000000e+00 0.000000000000000e+00 0.000000000000000e+00
0.000000000000000e+00 0.000000000000000e+00 0.000000000000000e+00

0.000000000000000e+00 0.000000000000000e+00 0.000000000000000e+00
0.000000000000000e+00 0.000000000000000e+00 0.000000000000000e+00
0.000000000000000e+00 0.000000000000000e+00 0.000000000000000e+00

0.000000000000000e+00 0.000000000000000e+00 0.000000000000000e+00
0.000000000000000e+00 0.000000000000000e+00 0.000000000000000e+00
0.000000000000000e+00 0.000000000000000e+00 0.000000000000000e+00

0.000000000000000e+00 0.000000000000000e+00 0.000000000000000e+00
0.000000000000000e+00 0.000000000000000e+00 0.000000000000000e+00
0.000000000000000e+00 0.000000000000000e+00 0.000000000000000e+00

0.000000000000000e+00 0.000000000000000e+00 0.000000000000000e+00
0.000000000000000e+00 0.000000000000000e+00 0.000000000000000e+00
0.000000000000000e+00 0.000000000000000e+00 0.000000000000000e+00

0.000000000000000e+00 0.000000000000000e+00 0.000000000000000e+00
0.000000000000000e+00 0.000000000000000e+00 0.000000000000000e+00
0.000000000000000e+00 0.000000000000000e+00 0.000000000000000e+00

0.000000000000000e+00 0.000000000000000e+00 0.000000000000000e+00
0.000000000000000e+00 0.000000000000000e+00 0.000000000000000e+00
0.000000000000000e+00 0.000000000000000e+00 0.000000000000000e+00

0.000000000000000e+00 0.000000000000000e+00 0.000000000000000e+00
0.000000000000000e+00 0.000000000000000e+00 0.000000000000000e+00
0.000000000000000e+00 0.000000000000000e+00 0.000000000000000e+00

0.000000000000000e+00 0.000000000000000e+00 0.000000000000000e+00
0.000000000000000e+00 0.000000000000000e+00 0.000000000000000e+00
0.000000000000000e+00 0.000000000000000e+00 0.000000000000000e+00

0.000000000000000e+00 0.000000000000000e+00 0.000000000000000e+00
0.000000000000000e+00 0.000000000000000e+00 0.000000000000000e+00
0.000000000000000e+00 0.000000000000000e+00 0.000000000000000e+00

0.000000000000000e+00 0.000000000000000e+00 0.000000000000000e+00
0.000000000000000e+00 0.000000000000000e+00 0.000000000000000e+00
0.000000000000000e+00 0.000000000000000e+00 0.000000000000000e+00

0.000000000000000e+00 0.000000000000000e+00 0.000000000000000e+00
0.000000000000000e+00 0.000000000000000e+00 0.000000000000000e+00
0.000000000000000e+00 0.000000000000000e+00 0.000000000000000e+00

0.000000000000000e+00 0.000000000000000e+00 0.000000000000000e+00
0.000000000000000e+00 0.000000000000000e+00 0.000000000000000e+00
0.000000000000000e+00 0.000000000000000e+00 0.000000000000000e+00

0.000000000000000e+00 0.000000000000000e+00 0.000000000000000e+00
0.000000000000000e+00 0.000000000000000e+00 0.000000000000000e+00
0.000000000000000e+00 0.000000000000000e+00 0.000000000000000e+00

0.000000000000000e+00 0.000000000000000e+00 0.000000000000000e+00
0.000000000000000e+00 0.000000000000000e+00 0.000000000000000e+00
0.000000000000000e+00 0.000000000000000e+00 0.000000000000000e+00

0.000000000000000e+00 0.000000000000000e+00 0.000000000000000e+00
0.000000000000000e+00 0.000000000000000e+00 0.000000000000000e+00
0.000000000000000e+00 0.000000000000000e+00 0.000000000000000e+00

0.000000000000000e+00 0.000000000000000e+00 0.000000000000000e+00
0.000000000000000e+00 0.000000000000000e+00 0.000000000000000e+00
0.000000000000000e+00 0.000000000000000e+00 0.000000000000000e+00

0.000000000000000e+00 0.000000000000000e+00 0.000000000000000e+00
0.000000000000000e+00 0.000000000000000e+00 0.000000000000000e+00
0.000000000000000e+00 0.000000000000000e+00 0.000000000000000e+00

0.000000000000000e+00 0.000000000000000e+00 0.000000000000000e+00
0.000000000000000e+00 0.000000000000000e+00 0.000000000000000e+00
0.000000000000000e+00 0.000000000000000e+00 0.000000000000000e+00

0.000000000000000e+00 0.000000000000000e+00 0.000000000000000e+00
0.000000000000000e+00 0.000000000000000e+00 0.000000000000000e+00
0.000000000000000e+00 0.000000000000000e+00 0.000000000000000e+00

0.000000000000000e+00 0.000000000000000e+00 0.000000000000000e+00
0.000000000000000e+00 0.000000000000000e+00 0.000000000000000e+00
0.000000000000000e+00 0.000000000000000e+00 0.000000000000000e+00

0.000000000000000e+00 0.000000000000000e+00 0.000000000000000e+00
0.000000000000000e+00 0.000000000000000e+00 0.000000000000000e+00
0.000000000000000e+00 0.000000000000000e+00 0.000000000000000e+00

0.000000000000000e+00 0.000000000000000e+00 0.000000000000000e+00
0.000000000000000e+00 0.000000000000000e+00 0.000000000000000e+00
0.000000000000000e+00 0.000000000000000e+00 0.000000000000000e+00

0.000000000000000e+00 0.000000000000000e+00 0.000000000000000e+00
0.000000000000000e+00 0.000000000000000e+00 0.000000000000000e+00
0.000000000000000e+00 0.000000000000000e+00 0.000000000000000e+00

0.000000000000000e+00 0.000000000000000e+00 0.000000000000000e+00
0.000000000000000e+00 0.000000000000000e+00 0.000000000000000e+00
0.000000000000000e+00 0.000000000000000e+00 0.000000000000000e+00

0.000000000000000e+00 0.000000000000000e+00 0.000000000000000e+00
0.000000000000000e+00 0.000000000000000e+00 0.000000000000000e+00
0.000000000000000e+00 0.000000000000000e+00 0.000000000000000e+00

0.000000000000000e+00 0.000000000000000e+00 0.000000000000000e+00
0.000000000000000e+00 0.000000000000000e+00 0.000000000000000e+00
0.000000000000000e+00 0.000000000000000e+00 0.000000000000000e+00

0.000000000000000e+00 0.000000000000000e+00 0.000000000000000e+00
0.000000000000000e+00 0.000000000000000e+00 0.000000000000000e+00
0.000000000000000e+00 0.000000000000000e+00 0.000000000000000e+00

0.000000000000000e+00 0.000000000000000e+00 0.000000000000000e+00
0.000000000000000e+00 0.000000000000000e+00 0.000000000000000e+00
0.000000000000000e+00 0.000000000000000e+00 0.000000000000000e+00

0.000000000000000e+00 0.000000000000000e+00 0.000000000000000e+00
0.000000000000000e+00 0.000000000000000e+00 0.000000000000000e+00
0.000000000000000e+00 0.000000000000000e+00 0.000000000000000e+00

0.000000000000000e+00 0.000000000000000e+00 0.000000000000000e+00
0.000000000000000e+00 0.000000000000000e+00 0.000000000000000e+00
0.000000000000000e+00 0.000000000000000e+00 0.000000000000000e+00

0.000000000000000e+00 0.000000000000000e+00 0.000000000000000e+00
0.000000000000000e+00 0.000000000000000e+00 0.000000000000000e+00
0.000000000000000e+00 0.000000000000000e+00 0.000000000000000e+00

0.000000000000000e+00 0.000000000000000e+00 0.000000000000000e+00
0.000000000000000e+00 0.000000000000000e+00 0.000000000000000e+00
0.000000000000000e+00 0.000000000000000e+00 0.000000000000000e+00

0.000000000000000e+00 0.000000000000000e+00 0.000000000000000e+00
0.000000000000000e+00 0.000000000000000e+00 0.000000000000000e+00
0.000000000000000e+00 0.000000000000000e+00 0.000000000000000e+00

0.000000000000000e+00 0.000000000000000e+00 0.000000000000000e+00
0.000000000000000e+00 0.000000000000000e+00 0.000000000000000e+00
0.000000000000000e+00 0.000000000000000e+00 0.000000000000000e+00

0.000000000000000e+00 0.000000000000000e+00 0.000000000000000e+00
0.000000000000000e+00 0.000000000000000e+00 0.000000000000000e+00
0.000000000000000e+00 0.000000000000000e+00 0.000000000000000e+00

0.000000000000000e+00 0.000000000000000e+00 0.000000000000000e+00
0.000000000000000e+00 0.000000000000000e+00 0.000000000000000e+00
0.000000000000000e+00 0.000000000000000e+00 0.000000000000000e+00

0.000000000000000e+00 0.000000000000000e+00 0.000000000000000e+00
0.000000000000000e+00 0.000000000000000e+00 0.000000000000000e+00
0.000000000000000e+00 0.000000000000000e+00 0.000000000000000e+00

0.000000000000000e+00 0.000000000000000e+00 0.000000000000000e+00
0.000000000000000e+00 0.000000000000000e+00 0.000000000000000e+00
0.000000000000000e+00 0.000000000000000e+00 0.000000000000000e+00

0.000000000000000e+00 0.000000000000000e+00 0.000000000000000e+00
0.000000000000000e+00 0.000000000000000e+00 0.000000000000000e+00
0.000000000000000e+00 0.000000000000000e+00 0.000000000000000e+00

0.000000000000000e+00 0.000000000000000e+00 0.000000000000000e+00
0.000000000000000e+00 0.000000000000000e+00 0.000000000000000e+00
0.000000000000000e+00 0.000000000000000e+00 0.000000000000000e+00

0.000000000000000e+00 0.000000000000000e+00 0.000000000000000e+00
0.000000000000000e+00 0.000000000000000e+00 0.000000000000000e+00
0.000000000000000e+00 0.000000000000000e+00 0.000000000000000e+00

0.000000000000000e+00 0.000000000000000e+00 0.000000000000000e+00
0.000000000000000e+00 0.000000000000000e+00 0.000000000000000e+00
0.000000000000000e+00 0.000000000000000e+00 0.000000000000000e+00

0.000000000000000e+00 0.000000000000000e+00 0.000000000000000e+00
0.000000000000000e+00 0.000000000000000e+00 0.000000000000000e+00
0.000000000000000e+00 0.000000000000000e+00 0.000000000000000e+00

0.000000000000000e+00 0.000000000000000e+00 0.000000000000000e+00
0.000000000000000e+00 0.000000000000000e+00 0.000000000000000e+00
0.000000000000000e+00 0.000000000000000e+00 0.000000000000000e+00

0.000000000000000e+00 0.000000000000000e+00 0.000000000000000e+00
0.000000000000000e+00 0.000000000000000e+00 0.000000000000000e+00
0.000000000000000e+00 0.000000000000000e+00 0.000000000000000e+00

0.000000000000000e+00 0.000000000000000e+00 0.000000000000000e+00
0.000000000000000e+00 0.000000000000000e+00 0.000000000000000e+00
0.000000000000000e+00 0.000000000000000e+00 0.000000000000000e+00

0.000000000000000e+00 0.000000000000000e+00 0.000000000000000e+00
0.000000000000000e+00 0.000000000000000e+00 0.000000000000000e+00
0.000000000000000e+00 0.000000000000000e+00 0.000000000000000e+00

0.000000000000000e+00 0.000000000000000e+00 0.000000000000000e+00
0.000000000000000e+00 0.000000000000000e+00 0.000000000000000e+00
0.000000000000000e+00 0.000000000000000e+00 0.000000000000000e+00

0.000000000000000e+00 0.000000000000000e+00 0.000000000000000e+00
0.000000000000000e+00 0.000000000000000e+00 0.000000000000000e+00
0.000000000000000e+00 0.000000000000000e+00 0.000000000000000e+00

0.000000000000000e+00 0.000000000000000e+00 0.000000000000000e+00
0.000000000000000e+00 0.000000000000000e+00 0.000000000000000e+00
0.000000000000000e+00 0.000000000000000e+00 0.000000000000000e+00

0.000000000000000e+00 0.000000000000000e+00 0.000000000000000e+00
0.000000000000000e+00 0.000000000000000e+00 0.000000000000000e+00
0.000000000000000e+00 0.000000000000000e+00 0.000000000000000e+00

0.000000000000000e+00 0.000000000000000e+00 0.000000000000000e+00
0.000000000000000e+00 0.000000000000000e+00 0.000000000000000e+00
0.000000000000000e+00 0.000000000000000e+00 0.000000000000000e+00

0.000000000000000e+00 0.000000000000000e+00 0.000000000000000e+00
0.000000000000000e+00 0.000000000000000e+00 0.000000000000000e+00
0.000000000000000e+00 0.000000000000000e+00 0.000000000000000e+00

0.000000000000000e+00 0.000000000000000e+00 0.000000000000000e+00
0.000000000000000e+00 0.000000000000000e+00 0.000000000000000e+00
0.000000000000000e+00 0.000000000000000e+00 0.000000000000000e+00

0.000000000000000e+00 0.000000000000000e+00 0.000000000000000e+00
0.000000000000000e+00 0.000000000000000e+00 0.000000000000000e+00
0.000000000000000e+00 0.000000000000000e+00 0.000000000000000e+00

0.000000000000000e+00 0.000000000000000e+00 0.000000000000000e+00
0.000000000000000e+00 0.000000000000000e+00 0.000000000000000e+00
0.000000000000000e+00 0.000000000000000e+00 0.000000000000000e+00

0.000000000000000e+00 0.000000000000000e+00 0.000000000000000e+00
0.000000000000000e+00 0.000000000000000e+00 0.000000000000000e+00
0.000000000000000e+00 0.000000000000000e+00 0.000000000000000e+00

0.000000000000000e+00 0.000000000000000e+00 0.000000000000000e+00
0.000000000000000e+00 0.000000000000000e+00 0.000000000000000e+00
0.000000000000000e+00 0.000000000000000e+00 0.000000000000000e+00

0.000000000000000e+00 0.000000000000000e+00 0.000000000000000e+00
0.000000000000000e+00 0.000000000000000e+00 0.000000000000000e+00
0.000000000000000e+00 0.000000000000000e+00 0.000000000000000e+00

0.000000000000000e+00 0.000000000000000e+00 0.000000000000000e+00
0.000000000000000e+00 0.000000000000000e+00 0.000000000000000e+00
0.000000000000000e+00 0.000000000000000e+00 0.000000000000000e+00

0.000000000000000e+00 0.000000000000000e+00 0.000000000000000e+00
0.000000000000000e+00 0.000000000000000e+00 0.000000000000000e+00
0.000000000000000e+00 0.000000000000000e+00 0.000000000000000e+00

0.000000000000000e+00 0.000000000000000e+00 0.000000000000000e+00
0.000000000000000e+00 0.000000000000000e+00 0.000000000000000e+00
0.000000000000000e+00 0.000000000000000e+00 0.000000000000000e+00

0.000000000000000e+00 0.000000000000000e+00 0.000000000000000e+00
0.000000000000000e+00 0.000000000000000e+00 0.000000000000000e+00
0.000000000000000e+00 0.000000000000000e+00 0.000000000000000e+00

0.000000000000000e+00 0.000000000000000e+00 0.000000000000000e+00
0.000000000000000e+00 0.000000000000000e+00 0.000000000000000e+00
0.000000000000000e+00 0.000000000000000e+00 0.000000000000000e+00

0.000000000000000e+00 0.000000000000000e+00 0.000000000000000e+00
0.000000000000000e+00 0.000000000000000e+00 0.000000000000000e+00
0.000000000000000e+00 0.000000000000000e+00 0.000000000000000e+00

0.000000000000000e+00 0.000000000000000e+00 0.000000000000000e+00
0.000000000000000e+00 0.000000000000000e+00 0.000000000000000e+00
0.000000000000000e+00 0.000000000000000e+00 0.000000000000000e+00

0.000000000000000e+00 0.000000000000000e+00 0.000000000000000e+00
0.000000000000000e+00 0.000000000000000e+00 0.000000000000000e+00
0.000000000000000e+00 0.000000000000000e+00 0.000000000000000e+00

0.000000000000000e+00 0.000000000000000e+00 0.000000000000000e+00
0.000000000000000e+00 0.000000000000000e+00 0.000000000000000e+00
0.000000000000000e+00 0.000000000000000e+00 0.000000000000000e+00

0.000000000000000e+00 0.000000000000000e+00 0.000000000000000e+00
0.000000000000000e+00 0.000000000000000e+00 0.000000000000000e+00
0.000000000000000e+00 0.000000000000000e+00 0.000000000000000e+00

0.000000000000000e+00 0.000000000000000e+00 0.000000000000000e+00
0.000000000000000e+00 0.000000000000000e+00 0.000000000000000e+00
0.000000000000000e+00 0.000000000000000e+00 0.000000000000000e+00

0.000000000000000e+00 0.000000000000000e+00 0.000000000000000e+00
0.000000000000000e+00 0.000000000000000e+00 0.000000000000000e+00
0.000000000000000e+00 0.000000000000000e+00 0.000000000000000e+00

0.000000000000000e+00 0.000000000000000e+00 0.000000000000000e+00
0.000000000000000e+00 0.000000000000000e+00 0.000000000000000e+00
0.000000000000000e+00 0.000000000000000e+00 0.000000000000000e+00

0.000000000000000e+00 0.000000000000000e+00 0.000000000000000e+00
0.000000000000000e+00 0.000000000000000e+00 0.000000000000000e+00
0.000000000000000e+00 0.000000000000000e+00 0.000000000000000e+00

0.000000000000000e+00 0.000000000000000e+00 0.000000000000000e+00
0.000000000000000e+00 0.000000000000000e+00 0.000000000000000e+00
0.000000000000000e+00 0.000000000000000e+00 0.000000000000000e+00

0.000000000000000e+00 0.000000000000000e+00 0.000000000000000e+00
0.000000000000000e+00 0.000000000000000e+00 0.000000000000000e+00
0.000000000000000e+00 0.000000000000000e+00 0.000000000000000e+00

0.000000000000000e+00 0.000000000000000e+00 0.000000000000000e+00
0.000000000000000e+00 0.000000000000000e+00 0.000000000000000e+00
0.000000000000000e+00 0.000000000000000e+00 0.000000000000000e+00

0.000000000000000e+00 0.000000000000000e+00 0.000000000000000e+00
0.000000000000000e+00 0.000000000000000e+00 0.000000000000000e+00
0.000000000000000e+00 0.000000000000000e+00 0.000000000000000e+00

0.000000000000000e+00 0.000000000000000e+00 0.000000000000000e+00
0.000000000000000e+00 0.000000000000000e+00 0.000000000000000e+00
0.000000000000000e+00 0.000000000000000e+00 0.000000000000000e+00

0.000000000000000e+00 0.000000000000000e+00 0.000000000000000e+00
0.000000000000000e+00 0.000000000000000e+00 0.000000000000000e+00
0.000000000000000e+00 0.000000000000000e+00 0.000000000000000e+00

0.000000000000000e+00 0.000000000000000e+00 0.000000000000000e+00
0.000000000000000e+00 0.000000000000000e+00 0.000000000000000e+00
0.000000000000000e+00 0.000000000000000e+00 0.000000000000000e+00

0.000000000000000e+00 0.000000000000000e+00 0.000000000000000e+00
0.000000000000000e+00 0.000000000000000e+00 0.000000000000000e+00
0.000000000000000e+00 0.000000000000000e+00 0.000000000000000e+00

0.000000000000000e+00 0.000000000000000e+00 0.000000000000000e+00
0.000000000000000e+00 0.000000000000000e+00 0.000000000000000e+00
0.000000000000000e+00 0.000000000000000e+00 0.000000000000000e+00

0.000000000000000e+00 0.000000000000000e+00 0.000000000000000e+00
0.000000000000000e+00 0.000000000000000e+00 0.000000000000000e+00
0.000000000000000e+00 0.000000000000000e+00 0.000000000000000e+00

0.000000000000000e+00 0.000000000000000e+00 0.000000000000000e+00
0.000000000000000e+00 0.000000000000000e+00 0.000000000000000e+00
0.000000000000000e+00 0.000000000000000e+00 0.000000000000000e+00

0.000000000000000e+00 0.000000000000000e+00 0.000000000000000e+00
0.000000000000000e+00 0.000000000000000e+00 0.000000000000000e+00
0.000000000000000e+00 0.000000000000000e+00 0.000000000000000e+00

0.000000000000000e+00 0.000000000000000e+00 0.000000000000000e+00
0.000000000000000e+00 0.000000000000000e+00 0.000000000000000e+00
0.000000000000000e+00 0.000000000000000e+00 0.000000000000000e+00

0.000000000000000e+00 0.000000000000000e+00 0.000000000000000e+00
0.000000000000000e+00 0.000000000000000e+00 0.000000000000000e+00
0.000000000000000e+00 0.000000000000000e+00 0.000000000000000e+00

0.000000000000000e+00 0.000000000000000e+00 0.000000000000000e+00
0.000000000000000e+00 0.000000000000000e+00 0.000000000000000e+00
0.000000000000000e+00 0.000000000000000e+00 0.000000000000000e+00

0.000000000000000e+00 0.000000000000000e+00 0.000000000000000e+00
0.000000000000000e+00 0.000000000000000e+00 0.000000000000000e+00
0.000000000000000e+00 0.000000000000000e+00 0.000000000000000e+00

0.000000000000000e+00 0.000000000000000e+00 0.000000000000000e+00
0.000000000000000e+00 0.000000000000000e+00 0.000000000000000e+00
0.000000000000000e+00 0.000000000000000e+00 0.000000000000000e+00

0.000000000000000e+00 0.000000000000000e+00 0.000000000000000e+00
0.000000000000000e+00 0.000000000000000e+00 0.000000000000000e+00
0.000000000000000e+00 0.000000000000000e+00 0.000000000000000e+00

0.000000000000000e+00 0.000000000000000e+00 0.000000000000000e+00
0.000000000000000e+00 0.000000000000000e+00 0.000000000000000e+00
0.000000000000000e+00 0.000000000000000e+00 0.000000000000000e+00

0.000000000000000e+00 0.000000000000000e+00 0.000000000000000e+00
0.000000000000000e+00 0.000000000000000e+00 0.000000000000000e+00
0.000000000000000e+00 0.000000000000000e+00 0.000000000000000e+00

0.000000000000000e+00 0.000000000000000e+00 0.000000000000000e+00
0.000000000000000e+00 0.000000000000000e+00 0.000000000000000e+00
0.000000000000000e+00 0.000000000000000e+00 0.000000000000000e+00

0.000000000000000e+00 0.000000000000000e+00 0.000000000000000e+00
0.000000000000000e+00 0.000000000000000e+00 0.000000000000000e+00
0.000000000000000e+00 0.000000000000000e+00 0.000000000000000e+00

0.000000000000000e+00 0.000000000000000e+00 0.000000000000000e+00
0.000000000000000e+00 0.000000000000000e+00 0.000000000000000e+00
0.000000000000000e+00 0.000000000000000e+00 0.000000000000000e+00

0.000000000000000e+00 0.000000000000000e+00 0.000000000000000e+00
0.000000000000000e+00 0.000000000000000e+00 0.000000000000000e+00
0.000000000000000e+00 0.000000000000000e+00 0.000000000000000e+00

0.000000000000000e+00 0.000000000000000e+00 0.000000000000000e+00
0.000000000000000e+00 0.000000000000000e+00 0.000000000000000e+00
0.000000000000000e+00 0.000000000000000e+00 0.000000000000000e+00

0.000000000000000e+00 0.000000000000000e+00 0.000000000000000e+00
0.000000000000000e+00 0.000000000000000e+00 0.000000000000000e+00
0.000000000000000e+00 0.000000000000000e+00 0.000000000000000e+00

0.000000000000000e+00 0.000000000000000e+00 0.000000000000000e+00
0.000000000000000e+00 0.000000000000000e+00 0.000000000000000e+00
0.000000000000000e+00 0.000000000000000e+00 0.000000000000000e+00

0.000000000000000e+00 0.000000000000000e+00 0.000000000000000e+00
0.000000000000000e+00 0.000000000000000e+00 0.000000000000000e+00
0.000000000000000e+00 0.000000000000000e+00 0.000000000000000e+00

0.000000000000000e+00 0.000000000000000e+00 0.000000000000000e+00
0.000000000000000e+00 0.000000000000000e+00 0.000000000000000e+00
0.000000000000000e+00 0.000000000000000e+00 0.000000000000000e+00

0.000000000000000e+00 0.000000000000000e+00 0.000000000000000e+00
0.000000000000000e+00 0.000000000000000e+00 0.000000000000000e+00
0.000000000000000e+00 0.000000000000000e+00 0.000000000000000e+00

0.000000000000000e+00 0.000000000000000e+00 0.000000000000000e+00
0.000000000000000e+00 0.000000000000000e+00 0.000000000000000e+00
0.000000000000000e+00 0.000000000000000e+00 0.000000000000000e+00

0.000000000000000e+00 0.000000000000000e+00 0.000000000000000e+00
0.000000000000000e+00 0.000000000000000e+00 0.000000000000000e+00
0.000000000000000e+00 0.000000000000000e+00 0.000000000000000e+00

0.000000000000000e+00 0.000000000000000e+00 0.000000000000000e+00
0.000000000000000e+00 0.000000000000000e+00 0.000000000000000e+00
0.000000000000000e+00 0.000000000000000e+00 0.000000000000000e+00

0.000000000000000e+00 0.000000000000000e+00 0.000000000000000e+00
0.000000000000000e+00 0.000000000000000e+00 0.000000000000000e+00
0.000000000000000e+00 0.000000000000000e+00 0.000000000000000e+00

0.000000000000000e+00 0.000000000000000e+00 0.000000000000000e+00
0.000000000000000e+00 0.000000000000000e+00 0.000000000000000e+00
0.000000000000000e+00 0.000000000000000e+00 0.000000000000000e+00

0.000000000000000e+00 0.000000000000000e+00 0.000000000000000e+00
0.000000000000000e+00 0.000000000000000e+00 0.000000000000000e+00
0.000000000000000e+00 0.000000000000000e+00 0.000000000000000e+00

0.000000000000000e+00 0.000000000000000e+00 0.000000000000000e+00
0.000000000000000e+00 0.000000000000000e+00 0.000000000000000e+00
0.000000000000000e+00 0.000000000000000e+00 0.000000000000000e+00

0.000000000000000e+00 0.000000000000000e+00 0.000000000000000e+00
0.000000000000000e+00 0.000000000000000e+00 0.000000000000000e+00
0.000000000000000e+00 0.000000000000000e+00 0.000000000000000e+00

0.000000000000000e+00 0.000000000000000e+00 0.000000000000000e+00
0.000000000000000e+00 0.000000000000000e+00 0.000000000000000e+00
0.000000000000000e+00 0.000000000000000e+00 0.000000000000000e+00

0.000000000000000e+00 0.000000000000000e+00 0.000000000000000e+00
0.000000000000000e+00 0.000000000000000e+00 0.000000000000000e+00
0.000000000000000e+00 0.000000000000000e+00 0.000000000000000e+00

0.000000000000000e+00 0.000000000000000e+00 0.000000000000000e+00
0.000000000000000e+00 0.000000000000000e+00 0.000000000000000e+00
0.000000000000000e+00 0.000000000000000e+00 0.000000000000000e+00

0.000000000000000e+00 0.000000000000000e+00 0.000000000000000e+00
0.000000000000000e+00 0.000000000000000e+00 0.000000000000000e+00
0.000000000000000e+00 0.000000000000000e+00 0.000000000000000e+00

0.000000000000000e+00 0.000000000000000e+00 0.000000000000000e+00
0.000000000000000e+00 0.000000000000000e+00 0.000000000000000e+00
0.000000000000000e+00 0.000000000000000e+00 0.000000000000000e+00

0.000000000000000e+00 0.000000000000000e+00 0.000000000000000e+00
0.000000000000000e+00 0.000000000000000e+00 0.000000000000000e+00
0.000000000000000e+00 0.000000000000000e+00 0.000000000000000e+00

0.000000000000000e+00 0.000000000000000e+00 0.000000000000000e+00
0.000000000000000e+00 0.000000000000000e+00 0.000000000000000e+00
0.000000000000000e+00 0.000000000000000e+00 0.000000000000000e+00

0.000000000000000e+00 0.000000000000000e+00 0.000000000000000e+00
0.000000000000000e+00 0.000000000000000e+00 0.000000000000000e+00
0.000000000000000e+00 0.000000000000000e+00 0.000000000000000e+00

0.000000000000000e+00 0.000000000000000e+00 0.000000000000000e+00
0.000000000000000e+00 0.000000000000000e+00 0.000000000000000e+00
0.000000000000000e+00 0.000000000000000e+00 0.000000000000000e+00

0.000000000000000e+00 0.000000000000000e+00 0.000000000000000e+00
0.000000000000000e+00 0.000000000000000e+00 0.000000000000000e+00
0.000000000000000e+00 0.000000000000000e+00 0.000000000000000e+00

0.000000000000000e+00 0.000000000000000e+00 0.000000000000000e+00
0.000000000000000e+00 0.000000000000000e+00 0.000000000000000e+00
0.000000000000000e+00 0.000000000000000e+00 0.000000000000000e+00

0.000000000000000e+00 0.000000000000000e+00 0.000000000000000e+00
0.000000000000000e+00 0.000000000000000e+00 0.000000000000000e+00
0.000000000000000e+00 0.000000000000000e+00 0.000000000000000e+00

0.000000000000000e+00 0.000000000000000e+00 0.000000000000000e+00
0.000000000000000e+00 0.000000000000000e+00 0.000000000000000e+00
0.000000000000000e+00 0.000000000000000e+00 0.000000000000000e+00

0.000000000000000e+00 0.000000000000000e+00 0.000000000000000e+00
0.000000000000000e+00 0.000000000000000e+00 0.000000000000000e+00
0.000000000000000e+00 0.000000000000000e+00 0.000000000000000e+00

0.000000000000000e+00 0.000000000000000e+00 0.000000000000000e+00
0.000000000000000e+00 0.000000000000000e+00 0.000000000000000e+00
0.000000000000000e+00 0.000000000000000e+00 0.000000000000000e+00

0.000000000000000e+00 0.000000000000000e+00 0.000000000000000e+00
0.000000000000000e+00 0.000000000000000e+00 0.000000000000000e+00
0.000000000000000e+00 0.000000000000000e+00 0.000000000000000e+00

0.000000000000000e+00 0.000000000000000e+00 0.000000000000000e+00
0.000000000000000e+00 0.000000000000000e+00 0.000000000000000e+00
0.000000000000000e+00 0.000000000000000e+00 0.000000000000000e+00

0.000000000000000e+00 0.000000000000000e+00 0.000000000000000e+00
0.000000000000000e+00 0.000000000000000e+00 0.000000000000000e+00
0.000000000000000e+00 0.000000000000000e+00 0.000000000000000e+00

0.000000000000000e+00 0.000000000000000e+00 0.000000000000000e+00
0.000000000000000e+00 0.000000000000000e+00 0.000000000000000e+00
0.000000000000000e+00 0.000000000000000e+00 0.000000000000000e+00

0.000000000000000e+00 0.000000000000000e+00 0.000000000000000e+00
0.000000000000000e+00 0.000000000000000e+00 0.000000000000000e+00
0.000000000000000e+00 0.000000000000000e+00 0.000000000000000e+00

0.000000000000000e+00 0.000000000000000e+00 0.000000000000000e+00
0.000000000000000e+00 0.000000000000000e+00 0.000000000000000e+00
0.000000000000000e+00 0.000000000000000e+00 0.000000000000000e+00

0.000000000000000e+00 0.000000000000000e+00 0.000000000000000e+00
0.000000000000000e+00 0.000000000000000e+00 0.000000000000000e+00
0.000000000000000e+00 0.000000000000000e+00 0.000000000000000e+00

0.000000000000000e+00 0.000000000000000e+00 0.000000000000000e+00
0.000000000000000e+00 0.000000000000000e+00 0.000000000000000e+00
0.000000000000000e+00 0.000000000000000e+00 0.000000000000000e+00

0.000000000000000e+00 0.000000000000000e+00 0.000000000000000e+00
0.000000000000000e+00 0.000000000000000e+00 0.000000000000000e+00
0.000000000000000e+00 0.000000000000000e+00 0.000000000000000e+00

0.000000000000000e+00 0.000000000000000e+00 0.000000000000000e+00
0.000000000000000e+00 0.000000000000000e+00 0.000000000000000e+00
0.000000000000000e+00 0.000000000000000e+00 0.000000000000000e+00

0.000000000000000e+00 0.000000000000000e+00 0.000000000000000e+00
0.000000000000000e+00 0.000000000000000e+00 0.000000000000000e+00
0.000000000000000e+00 0.000000000000000e+00 0.000000000000000e+00

0.000000000000000e+00 0.000000000000000e+00 0.000000000000000e+00
0.000000000000000e+00 0.000000000000000e+00 0.000000000000000e+00
0.000000000000000e+00 0.000000000000000e+00 0.000000000000000e+00

0.000000000000000e+00 0.000000000000000e+00 0.000000000000000e+00
0.000000000000000e+00 0.000000000000000e+00 0.000000000000000e+00
0.000000000000000e+00 0.000000000000000e+00 0.000000000000000e+00

0.000000000000000e+00 0.000000000000000e+00 0.000000000000000e+00
0.000000000000000e+00 0.000000000000000e+00 0.000000000000000e+00
0.000000000000000e+00 0.000000000000000e+00 0.000000000000000e+00

0.000000000000000e+00 0.000000000000000e+00 0.000000000000000e+00
0.000000000000000e+00 0.000000000000000e+00 0.000000000000000e+00
0.000000000000000e+00 0.000000000000000e+00 0.000000000000000e+00

0.000000000000000e+00 0.000000000000000e+00 0.000000000000000e+00
0.000000000000000e+00 0.000000000000000e+00 0.000000000000000e+00
0.000000000000000e+00 0.000000000000000e+00 0.000000000000000e+00

0.000000000000000e+00 0.000000000000000e+00 0.000000000000000e+00
0.000000000000000e+00 0.000000000000000e+00 0.000000000000000e+00
0.000000000000000e+00 0.000000000000000e+00 0.000000000000000e+00

0.000000000000000e+00 0.000000000000000e+00 0.000000000000000e+00
0.000000000000000e+00 0.000000000000000e+00 0.000000000000000e+00
0.000000000000000e+00 0.000000000000000e+00 0.000000000000000e+00

0.000000000000000e+00 0.000000000000000e+00 0.000000000000000e+00
0.000000000000000e+00 0.000000000000000e+00 0.000000000000000e+00
0.000000000000000e+00 0.000000000000000e+00 0.000000000000000e+00

0.000000000000000e+00 0.000000000000000e+00 0.000000000000000e+00
0.000000000000000e+00 0.000000000000000e+00 0.000000000000000e+00
0.000000000000000e+00 0.000000000000000e+00 0.000000000000000e+00

0.000000000000000e+00 0.000000000000000e+00 0.000000000000000e+00
0.000000000000000e+00 0.000000000000000e+00 0.000000000000000e+00
0.000000000000000e+00 0.000000000000000e+00 0.000000000000000e+00

0.000000000000000e+00 0.000000000000000e+00 0.000000000000000e+00
0.000000000000000e+00 0.000000000000000e+00 0.000000000000000e+00
0.000000000000000e+00 0.000000000000000e+00 0.000000000000000e+00

0.000000000000000e+00 0.000000000000000e+00 0.000000000000000e+00
0.000000000000000e+00 0.000000000000000e+00 0.000000000000000e+00
0.000000000000000e+00 0.000000000000000e+00 0.000000000000000e+00

0.000000000000000e+00 0.000000000000000e+00 0.000000000000000e+00
0.000000000000000e+00 0.000000000000000e+00 0.000000000000000e+00
0.000000000000000e+00 0.000000000000000e+00 0.000000000000000e+00

0.000000000000000e+00 0.000000000000000e+00 0.000000000000000e+00
0.000000000000000e+00 0.000000000000000e+00 0.000000000000000e+00
0.000000000000000e+00 0.000000000000000e+00 0.000000000000000e+00

0.000000000000000e+00 0.000000000000000e+00 0.000000000000000e+00
0.000000000000000e+00 0.000000000000000e+00 0.000000000000000e+00
0.000000000000000e+00 0.000000000000000e+00 0.000000000000000e+00

0.000000000000000e+00 0.000000000000000e+00 0.000000000000000e+00
0.000000000000000e+00 0.000000000000000e+00 0.000000000000000e+00
0.000000000000000e+00 0.000000000000000e+00 0.000000000000000e+00

0.000000000000000e+00 0.000000000000000e+00 0.000000000000000e+00
0.000000000000000e+00 0.000000000000000e+00 0.000000000000000e+00
0.000000000000000e+00 0.000000000000000e+00 0.000000000000000e+00

0.000000000000000e+00 0.000000000000000e+00 0.000000000000000e+00
0.000000000000000e+00 0.000000000000000e+00 0.000000000000000e+00
0.000000000000000e+00 0.000000000000000e+00 0.000000000000000e+00

0.000000000000000e+00 0.000000000000000e+00 0.000000000000000e+00
0.000000000000000e+00 0.000000000000000e+00 0.000000000000000e+00
0.000000000000000e+00 0.000000000000000e+00 0.000000000000000e+00

0.000000000000000e+00 0.000000000000000e+00 0.000000000000000e+00
0.000000000000000e+00 0.000000000000000e+00 0.000000000000000e+00
0.000000000000000e+00 0.000000000000000e+00 0.000000000000000e+00

0.000000000000000e+00 0.000000000000000e+00 0.000000000000000e+00
0.000000000000000e+00 0.000000000000000e+00 0.000000000000000e+00
0.000000000000000e+00 0.000000000000000e+00 0.000000000000000e+00

0.000000000000000e+00 0.000000000000000e+00 0.000000000000000e+00
0.000000000000000e+00 0.000000000000000e+00 0.000000000000000e+00
0.000000000000000e+00 0.000000000000000e+00 0.000000000000000e+00

0.000000000000000e+00 0.000000000000000e+00 0.000000000000000e+00
0.000000000000000e+00 0.000000000000000e+00 0.000000000000000e+00
0.000000000000000e+00 0.000000000000000e+00 0.000000000000000e+00

0.000000000000000e+00 0.000000000000000e+00 0.000000000000000e+00
0.000000000000000e+00 0.000000000000000e+00 0.000000000000000e+00
0.000000000000000e+00 0.000000000000000e+00 0.000000000000000e+00

0.000000000000000e+00 0.000000000000000e+00 0.000000000000000e+00
0.000000000000000e+00 0.000000000000000e+00 0.000000000000000e+00
0.000000000000000e+00 0.000000000000000e+00 0.000000000000000e+00

0.000000000000000e+00 0.000000000000000e+00 0.000000000000000e+00
0.000000000000000e+00 0.000000000000000e+00 0.000000000000000e+00
0.000000000000000e+00 0.000000000000000e+00 0.000000000000000e+00

0.000000000000000e+00 0.000000000000000e+00 0.000000000000000e+00
0.000000000000000e+00 0.000000000000000e+00 0.000000000000000e+00
0.000000000000000e+00 0.000000000000000e+00 0.000000000000000e+00

0.000000000000000e+00 0.000000000000000e+00 0.000000000000000e+00
0.000000000000000e+00 0.000000000000000e+00 0.000000000000000e+00
0.000000000000000e+00 0.000000000000000e+00 0.000000000000000e+00

0.000000000000000e+00 0.000000000000000e+00 0.000000000000000e+00
0.000000000000000e+00 0.000000000000000e+00 0.000000000000000e+00
0.000000000000000e+00 0.000000000000000e+00 0.000000000000000e+00

0.000000000000000e+00 0.000000000000000e+00 0.000000000000000e+00
0.000000000000000e+00 0.000000000000000e+00 0.000000000000000e+00
0.000000000000000e+00 0.000000000000000e+00 0.000000000000000e+00

0.000000000000000e+00 0.000000000000000e+00 0.000000000000000e+00
0.000000000000000e+00 0.000000000000000e+00 0.000000000000000e+00
0.000000000000000e+00 0.000000000000000e+00 0.000000000000000e+00

0.000000000000000e+00 0.000000000000000e+00 0.000000000000000e+00
0.000000000000000e+00 0.000000000000000e+00 0.000000000000000e+00
0.000000000000000e+00 0.000000000000000e+00 0.000000000000000e+00

0.000000000000000e+00 0.000000000000000e+00 0.000000000000000e+00
0.000000000000000e+00 0.000000000000000e+00 0.000000000000000e+00
0.000000000000000e+00 0.000000000000000e+00 0.000000000000000e+00

0.000000000000000e+00 0.000000000000000e+00 0.000000000000000e+00
0.000000000000000e+00 0.000000000000000e+00 0.000000000000000e+00
0.000000000000000e+00 0.000000000000000e+00 0.000000000000000e+00

0.000000000000000e+00 0.000000000000000e+00 0.000000000000000e+00
0.000000000000000e+00 0.000000000000000e+00 0.000000000000000e+00
0.000000000000000e+00 0.000000000000000e+00 0.000000000000000e+00

0.000000000000000e+00 0.000000000000000e+00 0.000000000000000e+00
0.000000000000000e+00 0.000000000000000e+00 0.000000000000000e+00
0.000000000000000e+00 0.000000000000000e+00 0.000000000000000e+00

0.000000000000000e+00 0.000000000000000e+00 0.000000000000000e+00
0.000000000000000e+00 0.000000000000000e+00 0.000000000000000e+00
0.000000000000000e+00 0.000000000000000e+00 0.000000000000000e+00

0.000000000000000e+00 0.000000000000000e+00 0.000000000000000e+00
0.000000000000000e+00 0.000000000000000e+00 0.000000000000000e+00
0.000000000000000e+00 0.000000000000000e+00 0.000000000000000e+00

0.000000000000000e+00 0.000000000000000e+00 0.000000000000000e+00
0.000000000000000e+00 0.000000000000000e+00 0.000000000000000e+00
0.000000000000000e+00 0.000000000000000e+00 0.000000000000000e+00

0.000000000000000e+00 0.000000000000000e+00 0.000000000000000e+00
0.000000000000000e+00 0.000000000000000e+00 0.000000000000000e+00
0.000000000000000e+00 0.000000000000000e+00 0.000000000000000e+00

0.000000000000000e+00 0.000000000000000e+00 0.000000000000000e+00
0.000000000000000e+00 0.000000000000000e+00 0.000000000000000e+00
0.000000000000000e+00 0.000000000000000e+00 0.000000000000000e+00

0.000000000000000e+00 0.000000000000000e+00 0.000000000000000e+00
0.000000000000000e+00 0.000000000000000e+00 0.000000000000000e+00
0.000000000000000e+00 0.000000000000000e+00 0.000000000000000e+00

0.000000000000000e+00 0.000000000000000e+00 0.000000000000000e+00
0.000000000000000e+00 0.000000000000000e+00 0.000000000000000e+00
0.000000000000000e+00 0.000000000000000e+00 0.000000000000000e+00

0.000000000000000e+00 0.000000000000000e+00 0.000000000000000e+00
0.000000000000000e+00 0.000000000000000e+00 0.000000000000000e+00
0.000000000000000e+00 0.000000000000000e+00 0.000000000000000e+00

0.000000000000000e+00 0.000000000000000e+00 0.000000000000000e+00
0.000000000000000e+00 0.000000000000000e+00 0.000000000000000e+00
0.000000000000000e+00 0.000000000000000e+00 0.000000000000000e+00

0.000000000000000e+00 0.000000000000000e+00 0.000000000000000e+00
0.000000000000000e+00 0.000000000000000e+00 0.000000000000000e+00
0.000000000000000e+00 0.000000000000000e+00 0.000000000000000e+00

0.000000000000000e+00 0.000000000000000e+00 0.000000000000000e+00
0.000000000000000e+00 0.000000000000000e+00 0.000000000000000e+00
0.000000000000000e+00 0.000000000000000e+00 0.000000000000000e+00

0.000000000000000e+00 0.000000000000000e+00 0.000000000000000e+00
0.000000000000000e+00 0.000000000000000e+00 0.000000000000000e+00
0.000000000000000e+00 0.000000000000000e+00 0.000000000000000e+00

0.000000000000000e+00 0.000000000000000e+00 0.000000000000000e+00
0.000000000000000e+00 0.000000000000000e+00 0.000000000000000e+00
0.000000000000000e+00 0.000000000000000e+00 0.000000000000000e+00

0.000000000000000e+00 0.000000000000000e+00 0.000000000000000e+00
0.000000000000000e+00 0.000000000000000e+00 0.000000000000000e+00
0.000000000000000e+00 0.000000000000000e+00 0.000000000000000e+00

0.000000000000000e+00 0.000000000000000e+00 0.000000000000000e+00
0.000000000000000e+00 0.000000000000000e+00 0.000000000000000e+00
0.000000000000000e+00 0.000000000000000e+00 0.000000000000000e+00

0.000000000000000e+00 0.000000000000000e+00 0.000000000000000e+00
0.000000000000000e+00 0.000000000000000e+00 0.000000000000000e+00
0.000000000000000e+00 0.000000000000000e+00 0.000000000000000e+00

0.000000000000000e+00 0.000000000000000e+00 0.000000000000000e+00
0.000000000000000e+00 0.000000000000000e+00 0.000000000000000e+00
0.000000000000000e+00 0.000000000000000e+00 0.000000000000000e+00

0.000000000000000e+00 0.000000000000000e+00 0.000000000000000e+00
0.000000000000000e+00 0.000000000000000e+00 0.000000000000000e+00
0.000000000000000e+00 0.000000000000000e+00 0.000000000000000e+00

0.000000000000000e+00 0.000000000000000e+00 0.000000000000000e+00
0.000000000000000e+00 0.000000000000000e+00 0.000000000000000e+00
0.000000000000000e+00 0.000000000000000e+00 0.000000000000000e+00

0.000000000000000e+00 0.000000000000000e+00 0.000000000000000e+00
0.000000000000000e+00 0.000000000000000e+00 0.000000000000000e+00
0.000000000000000e+00 0.000000000000000e+00 0.000000000000000e+00

0.000000000000000e+00 0.000000000000000e+00 0.000000000000000e+00
0.000000000000000e+00 0.000000000000000e+00 0.000000000000000e+00
0.000000000000000e+00 0.000000000000000e+00 0.000000000000000e+00

0.000000000000000e+00 0.000000000000000e+00 0.000000000000000e+00
0.000000000000000e+00 0.000000000000000e+00 0.000000000000000e+00
0.000000000000000e+00 0.000000000000000e+00 0.000000000000000e+00

0.000000000000000e+00 0.000000000000000e+00 0.000000000000000e+00
0.000000000000000e+00 0.000000000000000e+00 0.000000000000000e+00
0.000000000000000e+00 0.000000000000000e+00 0.000000000000000e+00

0.000000000000000e+00 0.000000000000000e+00 0.000000000000000e+00
0.000000000000000e+00 0.000000000000000e+00 0.000000000000000e+00
0.000000000000000e+00 0.000000000000000e+00 0.000000000000000e+00

0.000000000000000e+00 0.000000000000000e+00 0.000000000000000e+00
0.000000000000000e+00 0.000000000000000e+00 0.000000000000000e+00
0.000000000000000e+00 0.000000000000000e+00 0.000000000000000e+00

0.000000000000000e+00 0.000000000000000e+00 0.000000000000000e+00
0.000000000000000e+00 0.000000000000000e+00 0.000000000000000e+00
0.000000000000000e+00 0.000000000000000e+00 0.000000000000000e+00

0.000000000000000e+00 0.000000000000000e+00 0.000000000000000e+00
0.000000000000000e+00 0.000000000000000e+00 0.000000000000000e+00
0.000000000000000e+00 0.000000000000000e+00 0.000000000000000e+00

0.000000000000000e+00 0.000000000000000e+00 0.000000000000000e+00
0.000000000000000e+00 0.000000000000000e+00 0.000000000000000e+00
0.000000000000000e+00 0.000000000000000e+00 0.000000000000000e+00

0.000000000000000e+00 0.000000000000000e+00 0.000000000000000e+00
0.000000000000000e+00 0.000000000000000e+00 0.000000000000000e+00
0.000000000000000e+00 0.000000000000000e+00 0.000000000000000e+00

0.000000000000000e+00 0.000000000000000e+00 0.000000000000000e+00
0.000000000000000e+00 0.000000000000000e+00 0.000000000000000e+00
0.000000000000000e+00 0.000000000000000e+00 0.000000000000000e+00

0.000000000000000e+00 0.000000000000000e+00 0.000000000000000e+00
0.000000000000000e+00 0.000000000000000e+00 0.000000000000000e+00
0.000000000000000e+00 0.000000000000000e+00 0.000000000000000e+00

0.000000000000000e+00 0.000000000000000e+00 0.000000000000000e+00
0.000000000000000e+00 0.000000000000000e+00 0.000000000000000e+00
0.000000000000000e+00 0.000000000000000e+00 0.000000000000000e+00

0.000000000000000e+00 0.000000000000000e+00 0.000000000000000e+00
0.000000000000000e+00 0.000000000000000e+00 0.000000000000000e+00
0.000000000000000e+00 0.000000000000000e+00 0.000000000000000e+00

0.000000000000000e+00 0.000000000000000e+00 0.000000000000000e+00
0.000000000000000e+00 0.000000000000000e+00 0.000000000000000e+00
0.000000000000000e+00 0.000000000000000e+00 0.000000000000000e+00

0.000000000000000e+00 0.000000000000000e+00 0.000000000000000e+00
0.000000000000000e+00 0.000000000000000e+00 0.000000000000000e+00
0.000000000000000e+00 0.000000000000000e+00 0.000000000000000e+00

0.000000000000000e+00 0.000000000000000e+00 0.000000000000000e+00
0.000000000000000e+00 0.000000000000000e+00 0.000000000000000e+00
0.000000000000000e+00 0.000000000000000e+00 0.000000000000000e+00

0.000000000000000e+00 0.000000000000000e+00 0.000000000000000e+00
0.000000000000000e+00 0.000000000000000e+00 0.000000000000000e+00
0.000000000000000e+00 0.000000000000000e+00 0.000000000000000e+00

0.000000000000000e+00 0.000000000000000e+00 0.000000000000000e+00
0.000000000000000e+00 0.000000000000000e+00 0.000000000000000e+00
0.000000000000000e+00 0.000000000000000e+00 0.000000000000000e+00

0.000000000000000e+00 0.000000000000000e+00 0.000000000000000e+00
0.000000000000000e+00 0.000000000000000e+00 0.000000000000000e+00
0.000000000000000e+00 0.000000000000000e+00 0.000000000000000e+00

0.000000000000000e+00 0.000000000000000e+00 0.000000000000000e+00
0.000000000000000e+00 0.000000000000000e+00 0.000000000000000e+00
0.000000000000000e+00 0.000000000000000e+00 0.000000000000000e+00

0.000000000000000e+00 0.000000000000000e+00 0.000000000000000e+00
0.000000000000000e+00 0.000000000000000e+00 0.000000000000000e+00
0.000000000000000e+00 0.000000000000000e+00 0.000000000000000e+00

0.000000000000000e+00 0.000000000000000e+00 0.000000000000000e+00
0.000000000000000e+00 0.000000000000000e+00 0.000000000000000e+00
0.000000000000000e+00 0.000000000000000e+00 0.000000000000000e+00

0.000000000000000e+00 0.000000000000000e+00 0.000000000000000e+00
0.000000000000000e+00 0.000000000000000e+00 0.000000000000000e+00
0.000000000000000e+00 0.000000000000000e+00 0.000000000000000e+00

0.000000000000000e+00 0.000000000000000e+00 0.000000000000000e+00
0.000000000000000e+00 0.000000000000000e+00 0.000000000000000e+00
0.000000000000000e+00 0.000000000000000e+00 0.000000000000000e+00

0.000000000000000e+00 0.000000000000000e+00 0.000000000000000e+00
0.000000000000000e+00 0.000000000000000e+00 0.000000000000000e+00
0.000000000000000e+00 0.000000000000000e+00 0.000000000000000e+00

0.000000000000000e+00 0.000000000000000e+00 0.000000000000000e+00
0.000000000000000e+00 0.000000000000000e+00 0.000000000000000e+00
0.000000000000000e+00 0.000000000000000e+00 0.000000000000000e+00

0.000000000000000e+00 0.000000000000000e+00 0.000000000000000e+00
0.000000000000000e+00 0.000000000000000e+00 0.000000000000000e+00
0.000000000000000e+00 0.000000000000000e+00 0.000000000000000e+00

0.000000000000000e+00 0.000000000000000e+00 0.000000000000000e+00
0.000000000000000e+00 0.000000000000000e+00 0.000000000000000e+00
0.000000000000000e+00 0.000000000000000e+00 0.000000000000000e+00

0.000000000000000e+00 0.000000000000000e+00 0.000000000000000e+00
0.000000000000000e+00 0.000000000000000e+00 0.000000000000000e+00
0.000000000000000e+00 0.000000000000000e+00 0.000000000000000e+00

0.000000000000000e+00 0.000000000000000e+00 0.000000000000000e+00
0.000000000000000e+00 0.000000000000000e+00 0.000000000000000e+00
0.000000000000000e+00 0.000000000000000e+00 0.000000000000000e+00

0.000000000000000e+00 0.000000000000000e+00 0.000000000000000e+00
0.000000000000000e+00 0.000000000000000e+00 0.000000000000000e+00
0.000000000000000e+00 0.000000000000000e+00 0.000000000000000e+00

0.000000000000000e+00 0.000000000000000e+00 0.000000000000000e+00
0.000000000000000e+00 0.000000000000000e+00 0.000000000000000e+00
0.000000000000000e+00 0.000000000000000e+00 0.000000000000000e+00

0.000000000000000e+00 0.000000000000000e+00 0.000000000000000e+00
0.000000000000000e+00 0.000000000000000e+00 0.000000000000000e+00
0.000000000000000e+00 0.000000000000000e+00 0.000000000000000e+00

0.000000000000000e+00 0.000000000000000e+00 0.000000000000000e+00
0.000000000000000e+00 0.000000000000000e+00 0.000000000000000e+00
0.000000000000000e+00 0.000000000000000e+00 0.000000000000000e+00

0.000000000000000e+00 0.000000000000000e+00 0.000000000000000e+00
0.000000000000000e+00 0.000000000000000e+00 0.000000000000000e+00
0.000000000000000e+00 0.000000000000000e+00 0.000000000000000e+00

0.000000000000000e+00 0.000000000000000e+00 0.000000000000000e+00
0.000000000000000e+00 0.000000000000000e+00 0.000000000000000e+00
0.000000000000000e+00 0.000000000000000e+00 0.000000000000000e+00

0.000000000000000e+00 0.000000000000000e+00 0.000000000000000e+00
0.000000000000000e+00 0.000000000000000e+00 0.000000000000000e+00
0.000000000000000e+00 0.000000000000000e+00 0.000000000000000e+00

0.000000000000000e+00 0.000000000000000e+00 0.000000000000000e+00
0.000000000000000e+00 0.000000000000000e+00 0.000000000000000e+00
0.000000000000000e+00 0.000000000000000e+00 0.000000000000000e+00

0.000000000000000e+00 0.000000000000000e+00 0.000000000000000e+00
0.000000000000000e+00 0.000000000000000e+00 0.000000000000000e+00
0.000000000000000e+00 0.000000000000000e+00 0.000000000000000e+00

0.000000000000000e+00 0.000000000000000e+00 0.000000000000000e+00
0.000000000000000e+00 0.000000000000000e+00 0.000000000000000e+00
0.000000000000000e+00 0.000000000000000e+00 0.000000000000000e+00

0.000000000000000e+00 0.000000000000000e+00 0.000000000000000e+00
0.000000000000000e+00 0.000000000000000e+00 0.000000000000000e+00
0.000000000000000e+00 0.000000000000000e+00 0.000000000000000e+00

0.000000000000000e+00 0.000000000000000e+00 0.000000000000000e+00
0.000000000000000e+00 0.000000000000000e+00 0.000000000000000e+00
0.000000000000000e+00 0.000000000000000e+00 0.000000000000000e+00

0.000000000000000e+00 0.000000000000000e+00 0.000000000000000e+00
0.000000000000000e+00 0.000000000000000e+00 0.000000000000000e+00
0.000000000000000e+00 0.000000000000000e+00 0.000000000000000e+00

0.000000000000000e+00 0.000000000000000e+00 0.000000000000000e+00
0.000000000000000e+00 0.000000000000000e+00 0.000000000000000e+00
0.000000000000000e+00 0.000000000000000e+00 0.000000000000000e+00

0.000000000000000e+00 0.000000000000000e+00 0.000000000000000e+00
0.000000000000000e+00 0.000000000000000e+00 0.000000000000000e+00
0.000000000000000e+00 0.000000000000000e+00 0.000000000000000e+00

0.000000000000000e+00 0.000000000000000e+00 0.000000000000000e+00
0.000000000000000e+00 0.000000000000000e+00 0.000000000000000e+00
0.000000000000000e+00 0.000000000000000e+00 0.000000000000000e+00

0.000000000000000e+00 0.000000000000000e+00 0.000000000000000e+00
0.000000000000000e+00 0.000000000000000e+00 0.000000000000000e+00
0.000000000000000e+00 0.000000000000000e+00 0.000000000000000e+00

0.000000000000000e+00 0.000000000000000e+00 0.000000000000000e+00
0.000000000000000e+00 0.000000000000000e+00 0.000000000000000e+00
0.000000000000000e+00 0.000000000000000e+00 0.000000000000000e+00

0.000000000000000e+00 0.000000000000000e+00 0.000000000000000e+00
0.000000000000000e+00 0.000000000000000e+00 0.000000000000000e+00
0.000000000000000e+00 0.000000000000000e+00 0.000000000000000e+00

0.000000000000000e+00 0.000000000000000e+00 0.000000000000000e+00
0.000000000000000e+00 0.000000000000000e+00 0.000000000000000e+00
0.000000000000000e+00 0.000000000000000e+00 0.000000000000000e+00

0.000000000000000e+00 0.000000000000000e+00 0.000000000000000e+00
0.000000000000000e+00 0.000000000000000e+00 0.000000000000000e+00
0.000000000000000e+00 0.000000000000000e+00 0.000000000000000e+00

0.000000000000000e+00 0.000000000000000e+00 0.000000000000000e+00
0.000000000000000e+00 0.000000000000000e+00 0.000000000000000e+00
0.000000000000000e+00 0.000000000000000e+00 0.000000000000000e+00

0.000000000000000e+00 0.000000000000000e+00 0.000000000000000e+00
0.000000000000000e+00 0.000000000000000e+00 0.000000000000000e+00
0.000000000000000e+00 0.000000000000000e+00 0.000000000000000e+00

0.000000000000000e+00 0.000000000000000e+00 0.000000000000000e+00
0.000000000000000e+00 0.000000000000000e+00 0.000000000000000e+00
0.000000000000000e+00 0.000000000000000e+00 0.000000000000000e+00

0.000000000000000e+00 0.000000000000000e+00 0.000000000000000e+00
0.000000000000000e+00 0.000000000000000e+00 0.000000000000000e+00
0.000000000000000e+00 0.000000000000000e+00 0.000000000000000e+00

0.000000000000000e+00 0.000000000000000e+00 0.000000000000000e+00
0.000000000000000e+00 0.000000000000000e+00 0.000000000000000e+00
0.000000000000000e+00 0.000000000000000e+00 0.000000000000000e+00

0.000000000000000e+00 0.000000000000000e+00 0.000000000000000e+00
0.000000000000000e+00 0.000000000000000e+00 0.000000000000000e+00
0.000000000000000e+00 0.000000000000000e+00 0.000000000000000e+00

0.000000000000000e+00 0.000000000000000e+00 0.000000000000000e+00
0.000000000000000e+00 0.000000000000000e+00 0.000000000000000e+00
0.000000000000000e+00 0.000000000000000e+00 0.000000000000000e+00

0.000000000000000e+00 0.000000000000000e+00 0.000000000000000e+00
0.000000000000000e+00 0.000000000000000e+00 0.000000000000000e+00
0.000000000000000e+00 0.000000000000000e+00 0.000000000000000e+00

0.000000000000000e+00 0.000000000000000e+00 0.000000000000000e+00
0.000000000000000e+00 0.000000000000000e+00 0.000000000000000e+00
0.000000000000000e+00 0.000000000000000e+00 0.000000000000000e+00

0.000000000000000e+00 0.000000000000000e+00 0.000000000000000e+00
0.000000000000000e+00 0.000000000000000e+00 0.000000000000000e+00
0.000000000000000e+00 0.000000000000000e+00 0.000000000000000e+00

0.000000000000000e+00 0.000000000000000e+00 0.000000000000000e+00
0.000000000000000e+00 0.000000000000000e+00 0.000000000000000e+00
0.000000000000000e+00 0.000000000000000e+00 0.000000000000000e+00

0.000000000000000e+00 0.000000000000000e+00 0.000000000000000e+00
0.000000000000000e+00 0.000000000000000e+00 0.000000000000000e+00
0.000000000000000e+00 0.000000000000000e+00 0.000000000000000e+00

0.000000000000000e+00 0.000000000000000e+00 0.000000000000000e+00
0.000000000000000e+00 0.000000000000000e+00 0.000000000000000e+00
0.000000000000000e+00 0.000000000000000e+00 0.000000000000000e+00

0.000000000000000e+00 0.000000000000000e+00 0.000000000000000e+00
0.000000000000000e+00 0.000000000000000e+00 0.000000000000000e+00
0.000000000000000e+00 0.000000000000000e+00 0.000000000000000e+00

0.000000000000000e+00 0.000000000000000e+00 0.000000000000000e+00
0.000000000000000e+00 0.000000000000000e+00 0.000000000000000e+00
0.000000000000000e+00 0.000000000000000e+00 0.000000000000000e+00

0.000000000000000e+00 0.000000000000000e+00 0.000000000000000e+00
0.000000000000000e+00 0.000000000000000e+00 0.000000000000000e+00
0.000000000000000e+00 0.000000000000000e+00 0.000000000000000e+00

0.000000000000000e+00 0.000000000000000e+00 0.000000000000000e+00
0.000000000000000e+00 0.000000000000000e+00 0.000000000000000e+00
0.000000000000000e+00 0.000000000000000e+00 0.000000000000000e+00

0.000000000000000e+00 0.000000000000000e+00 0.000000000000000e+00
0.000000000000000e+00 0.000000000000000e+00 0.000000000000000e+00
0.000000000000000e+00 0.000000000000000e+00 0.000000000000000e+00

0.000000000000000e+00 0.000000000000000e+00 0.000000000000000e+00
0.000000000000000e+00 0.000000000000000e+00 0.000000000000000e+00
0.000000000000000e+00 0.000000000000000e+00 0.000000000000000e+00

0.000000000000000e+00 0.000000000000000e+00 0.000000000000000e+00
0.000000000000000e+00 0.000000000000000e+00 0.000000000000000e+00
0.000000000000000e+00 0.000000000000000e+00 0.000000000000000e+00

0.000000000000000e+00 0.000000000000000e+00 0.000000000000000e+00
0.000000000000000e+00 0.000000000000000e+00 0.000000000000000e+00
0.000000000000000e+00 0.000000000000000e+00 0.000000000000000e+00

0.000000000000000e+00 0.000000000000000e+00 0.000000000000000e+00
0.000000000000000e+00 0.000000000000000e+00 0.000000000000000e+00
0.000000000000000e+00 0.000000000000000e+00 0.000000000000000e+00

0.000000000000000e+00 0.000000000000000e+00 0.000000000000000e+00
0.000000000000000e+00 0.000000000000000e+00 0.000000000000000e+00
0.000000000000000e+00 0.000000000000000e+00 0.000000000000000e+00

0.000000000000000e+00 0.000000000000000e+00 0.000000000000000e+00
0.000000000000000e+00 0.000000000000000e+00 0.000000000000000e+00
0.000000000000000e+00 0.000000000000000e+00 0.000000000000000e+00

0.000000000000000e+00 0.000000000000000e+00 0.000000000000000e+00
0.000000000000000e+00 0.000000000000000e+00 0.000000000000000e+00
0.000000000000000e+00 0.000000000000000e+00 0.000000000000000e+00

0.000000000000000e+00 0.000000000000000e+00 0.000000000000000e+00
0.000000000000000e+00 0.000000000000000e+00 0.000000000000000e+00
0.000000000000000e+00 0.000000000000000e+00 0.000000000000000e+00

0.000000000000000e+00 0.000000000000000e+00 0.000000000000000e+00
0.000000000000000e+00 0.000000000000000e+00 0.000000000000000e+00
0.000000000000000e+00 0.000000000000000e+00 0.000000000000000e+00

0.000000000000000e+00 0.000000000000000e+00 0.000000000000000e+00
0.000000000000000e+00 0.000000000000000e+00 0.000000000000000e+00
0.000000000000000e+00 0.000000000000000e+00 0.000000000000000e+00

0.000000000000000e+00 0.000000000000000e+00 0.000000000000000e+00
0.000000000000000e+00 0.000000000000000e+00 0.000000000000000e+00
0.000000000000000e+00 0.000000000000000e+00 0.000000000000000e+00

0.000000000000000e+00 0.000000000000000e+00 0.000000000000000e+00
0.000000000000000e+00 0.000000000000000e+00 0.000000000000000e+00
0.000000000000000e+00 0.000000000000000e+00 0.000000000000000e+00

0.000000000000000e+00 0.000000000000000e+00 0.000000000000000e+00
0.000000000000000e+00 0.000000000000000e+00 0.000000000000000e+00
0.000000000000000e+00 0.000000000000000e+00 0.000000000000000e+00

0.000000000000000e+00 0.000000000000000e+00 0.000000000000000e+00
0.000000000000000e+00 0.000000000000000e+00 0.000000000000000e+00
0.000000000000000e+00 0.000000000000000e+00 0.000000000000000e+00

0.000000000000000e+00 0.000000000000000e+00 0.000000000000000e+00
0.000000000000000e+00 0.000000000000000e+00 0.000000000000000e+00
0.000000000000000e+00 0.000000000000000e+00 0.000000000000000e+00

0.000000000000000e+00 0.000000000000000e+00 0.000000000000000e+00
0.000000000000000e+00 0.000000000000000e+00 0.000000000000000e+00
0.000000000000000e+00 0.000000000000000e+00 0.000000000000000e+00

0.000000000000000e+00 0.000000000000000e+00 0.000000000000000e+00
0.000000000000000e+00 0.000000000000000e+00 0.000000000000000e+00
0.000000000000000e+00 0.000000000000000e+00 0.000000000000000e+00

0.000000000000000e+00 0.000000000000000e+00 0.000000000000000e+00
0.000000000000000e+00 0.000000000000000e+00 0.000000000000000e+00
0.000000000000000e+00 0.000000000000000e+00 0.000000000000000e+00

0.000000000000000e+00 0.000000000000000e+00 0.000000000000000e+00
0.000000000000000e+00 0.000000000000000e+00 0.000000000000000e+00
0.000000000000000e+00 0.000000000000000e+00 0.000000000000000e+00

0.000000000000000e+00 0.000000000000000e+00 0.000000000000000e+00
0.000000000000000e+00 0.000000000000000e+00 0.000000000000000e+00
0.000000000000000e+00 0.000000000000000e+00 0.000000000000000e+00

0.000000000000000e+00 0.000000000000000e+00 0.000000000000000e+00
0.000000000000000e+00 0.000000000000000e+00 0.000000000000000e+00
0.000000000000000e+00 0.000000000000000e+00 0.000000000000000e+00

0.000000000000000e+00 0.000000000000000e+00 0.000000000000000e+00
0.000000000000000e+00 0.000000000000000e+00 0.000000000000000e+00
0.000000000000000e+00 0.000000000000000e+00 0.000000000000000e+00

0.000000000000000e+00 0.000000000000000e+00 0.000000000000000e+00
0.000000000000000e+00 0.000000000000000e+00 0.000000000000000e+00
0.000000000000000e+00 0.000000000000000e+00 0.000000000000000e+00

0.000000000000000e+00 0.000000000000000e+00 0.000000000000000e+00
0.000000000000000e+00 0.000000000000000e+00 0.000000000000000e+00
0.000000000000000e+00 0.000000000000000e+00 0.000000000000000e+00

0.000000000000000e+00 0.000000000000000e+00 0.000000000000000e+00
0.000000000000000e+00 0.000000000000000e+00 0.000000000000000e+00
0.000000000000000e+00 0.000000000000000e+00 0.000000000000000e+00

0.000000000000000e+00 0.000000000000000e+00 0.000000000000000e+00
0.000000000000000e+00 0.000000000000000e+00 0.000000000000000e+00
0.000000000000000e+00 0.000000000000000e+00 0.000000000000000e+00

0.000000000000000e+00 0.000000000000000e+00 0.000000000000000e+00
0.000000000000000e+00 0.000000000000000e+00 0.000000000000000e+00
0.000000000000000e+00 0.000000000000000e+00 0.000000000000000e+00

0.000000000000000e+00 0.000000000000000e+00 0.000000000000000e+00
0.000000000000000e+00 0.000000000000000e+00 0.000000000000000e+00
0.000000000000000e+00 0.000000000000000e+00 0.000000000000000e+00

0.000000000000000e+00 0.000000000000000e+00 0.000000000000000e+00
0.000000000000000e+00 0.000000000000000e+00 0.000000000000000e+00
0.000000000000000e+00 0.000000000000000e+00 0.000000000000000e+00

0.000000000000000e+00 0.000000000000000e+00 0.000000000000000e+00
0.000000000000000e+00 0.000000000000000e+00 0.000000000000000e+00
0.000000000000000e+00 0.000000000000000e+00 0.000000000000000e+00

0.000000000000000e+00 0.000000000000000e+00 0.000000000000000e+00
0.000000000000000e+00 0.000000000000000e+00 0.000000000000000e+00
0.000000000000000e+00 0.000000000000000e+00 0.000000000000000e+00

0.000000000000000e+00 0.000000000000000e+00 0.000000000000000e+00
0.000000000000000e+00 0.000000000000000e+00 0.000000000000000e+00
0.000000000000000e+00 0.000000000000000e+00 0.000000000000000e+00

0.000000000000000e+00 0.000000000000000e+00 0.000000000000000e+00
0.000000000000000e+00 0.000000000000000e+00 0.000000000000000e+00
0.000000000000000e+00 0.000000000000000e+00 0.000000000000000e+00

0.000000000000000e+00 0.000000000000000e+00 0.000000000000000e+00
0.000000000000000e+00 0.000000000000000e+00 0.000000000000000e+00
0.000000000000000e+00 0.000000000000000e+00 0.000000000000000e+00

0.000000000000000e+00 0.000000000000000e+00 0.000000000000000e+00
0.000000000000000e+00 0.000000000000000e+00 0.000000000000000e+00
0.000000000000000e+00 0.000000000000000e+00 0.000000000000000e+00

0.000000000000000e+00 0.000000000000000e+00 0.000000000000000e+00
0.000000000000000e+00 0.000000000000000e+00 0.000000000000000e+00
0.000000000000000e+00 0.000000000000000e+00 0.000000000000000e+00

0.000000000000000e+00 0.000000000000000e+00 0.000000000000000e+00
0.000000000000000e+00 0.000000000000000e+00 0.000000000000000e+00
0.000000000000000e+00 0.000000000000000e+00 0.000000000000000e+00

0.000000000000000e+00 0.000000000000000e+00 0.000000000000000e+00
0.000000000000000e+00 0.000000000000000e+00 0.000000000000000e+00
0.000000000000000e+00 0.000000000000000e+00 0.000000000000000e+00

0.000000000000000e+00 0.000000000000000e+00 0.000000000000000e+00
0.000000000000000e+00 0.000000000000000e+00 0.000000000000000e+00
0.000000000000000e+00 0.000000000000000e+00 0.000000000000000e+00

0.000000000000000e+00 0.000000000000000e+00 0.000000000000000e+00
0.000000000000000e+00 0.000000000000000e+00 0.000000000000000e+00
0.000000000000000e+00 0.000000000000000e+00 0.000000000000000e+00

0.000000000000000e+00 0.000000000000000e+00 0.000000000000000e+00
0.000000000000000e+00 0.000000000000000e+00 0.000000000000000e+00
0.000000000000000e+00 0.000000000000000e+00 0.000000000000000e+00

0.000000000000000e+00 0.000000000000000e+00 0.000000000000000e+00
0.000000000000000e+00 0.000000000000000e+00 0.000000000000000e+00
0.000000000000000e+00 0.000000000000000e+00 0.000000000000000e+00

0.000000000000000e+00 0.000000000000000e+00 0.000000000000000e+00
0.000000000000000e+00 0.000000000000000e+00 0.000000000000000e+00
0.000000000000000e+00 0.000000000000000e+00 0.000000000000000e+00

0.000000000000000e+00 0.000000000000000e+00 0.000000000000000e+00
0.000000000000000e+00 0.000000000000000e+00 0.000000000000000e+00
0.000000000000000e+00 0.000000000000000e+00 0.000000000000000e+00

0.000000000000000e+00 0.000000000000000e+00 0.000000000000000e+00
0.000000000000000e+00 0.000000000000000e+00 0.000000000000000e+00
0.000000000000000e+00 0.000000000000000e+00 0.000000000000000e+00

0.000000000000000e+00 0.000000000000000e+00 0.000000000000000e+00
0.000000000000000e+00 0.000000000000000e+00 0.000000000000000e+00
0.000000000000000e+00 0.000000000000000e+00 0.000000000000000e+00

0.000000000000000e+00 0.000000000000000e+00 0.000000000000000e+00
0.000000000000000e+00 0.000000000000000e+00 0.000000000000000e+00
0.000000000000000e+00 0.000000000000000e+00 0.000000000000000e+00

0.000000000000000e+00 0.000000000000000e+00 0.000000000000000e+00
0.000000000000000e+00 0.000000000000000e+00 0.000000000000000e+00
0.000000000000000e+00 0.000000000000000e+00 0.000000000000000e+00

0.000000000000000e+00 0.000000000000000e+00 0.000000000000000e+00
0.000000000000000e+00 0.000000000000000e+00 0.000000000000000e+00
0.000000000000000e+00 0.000000000000000e+00 0.000000000000000e+00

0.000000000000000e+00 0.000000000000000e+00 0.000000000000000e+00
0.000000000000000e+00 0.000000000000000e+00 0.000000000000000e+00
0.000000000000000e+00 0.000000000000000e+00 0.000000000000000e+00

0.000000000000000e+00 0.000000000000000e+00 0.000000000000000e+00
0.000000000000000e+00 0.000000000000000e+00 0.000000000000000e+00
0.000000000000000e+00 0.000000000000000e+00 0.000000000000000e+00

0.000000000000000e+00 0.000000000000000e+00 0.000000000000000e+00
0.000000000000000e+00 0.000000000000000e+00 0.000000000000000e+00
0.000000000000000e+00 0.000000000000000e+00 0.000000000000000e+00

0.000000000000000e+00 0.000000000000000e+00 0.000000000000000e+00
0.000000000000000e+00 0.000000000000000e+00 0.000000000000000e+00
0.000000000000000e+00 0.000000000000000e+00 0.000000000000000e+00

0.000000000000000e+00 0.000000000000000e+00 0.000000000000000e+00
0.000000000000000e+00 0.000000000000000e+00 0.000000000000000e+00
0.000000000000000e+00 0.000000000000000e+00 0.000000000000000e+00

0.000000000000000e+00 0.000000000000000e+00 0.000000000000000e+00
0.000000000000000e+00 0.000000000000000e+00 0.000000000000000e+00
0.000000000000000e+00 0.000000000000000e+00 0.000000000000000e+00

0.000000000000000e+00 0.000000000000000e+00 0.000000000000000e+00
0.000000000000000e+00 0.000000000000000e+00 0.000000000000000e+00
0.000000000000000e+00 0.000000000000000e+00 0.000000000000000e+00

0.000000000000000e+00 0.000000000000000e+00 0.000000000000000e+00
0.000000000000000e+00 0.000000000000000e+00 0.000000000000000e+00
0.000000000000000e+00 0.000000000000000e+00 0.000000000000000e+00

0.000000000000000e+00 0.000000000000000e+00 0.000000000000000e+00
0.000000000000000e+00 0.000000000000000e+00 0.000000000000000e+00
0.000000000000000e+00 0.000000000000000e+00 0.000000000000000e+00

0.000000000000000e+00 0.000000000000000e+00 0.000000000000000e+00
0.000000000000000e+00 0.000000000000000e+00 0.000000000000000e+00
0.000000000000000e+00 0.000000000000000e+00 0.000000000000000e+00

0.000000000000000e+00 0.000000000000000e+00 0.000000000000000e+00
0.000000000000000e+00 0.000000000000000e+00 0.000000000000000e+00
0.000000000000000e+00 0.000000000000000e+00 0.000000000000000e+00

0.000000000000000e+00 0.000000000000000e+00 0.000000000000000e+00
0.000000000000000e+00 0.000000000000000e+00 0.000000000000000e+00
0.000000000000000e+00 0.000000000000000e+00 0.000000000000000e+00

0.000000000000000e+00 0.000000000000000e+00 0.000000000000000e+00
0.000000000000000e+00 0.000000000000000e+00 0.000000000000000e+00
0.000000000000000e+00 0.000000000000000e+00 0.000000000000000e+00

0.000000000000000e+00 0.000000000000000e+00 0.000000000000000e+00
0.000000000000000e+00 0.000000000000000e+00 0.000000000000000e+00
0.000000000000000e+00 0.000000000000000e+00 0.000000000000000e+00

0.000000000000000e+00 0.000000000000000e+00 0.000000000000000e+00
0.000000000000000e+00 0.000000000000000e+00 0.000000000000000e+00
0.000000000000000e+00 0.000000000000000e+00 0.000000000000000e+00

0.000000000000000e+00 0.000000000000000e+00 0.000000000000000e+00
0.000000000000000e+00 0.000000000000000e+00 0.000000000000000e+00
0.000000000000000e+00 0.000000000000000e+00 0.000000000000000e+00

0.000000000000000e+00 0.000000000000000e+00 0.000000000000000e+00
0.000000000000000e+00 0.000000000000000e+00 0.000000000000000e+00
0.000000000000000e+00 0.000000000000000e+00 0.000000000000000e+00

0.000000000000000e+00 0.000000000000000e+00 0.000000000000000e+00
0.000000000000000e+00 0.000000000000000e+00 0.000000000000000e+00
0.000000000000000e+00 0.000000000000000e+00 0.000000000000000e+00

0.000000000000000e+00 0.000000000000000e+00 0.000000000000000e+00
0.000000000000000e+00 0.000000000000000e+00 0.000000000000000e+00
0.000000000000000e+00 0.000000000000000e+00 0.000000000000000e+00

0.000000000000000e+00 0.000000000000000e+00 0.000000000000000e+00
0.000000000000000e+00 0.000000000000000e+00 0.000000000000000e+00
0.000000000000000e+00 0.000000000000000e+00 0.000000000000000e+00

0.000000000000000e+00 0.000000000000000e+00 0.000000000000000e+00
0.000000000000000e+00 0.000000000000000e+00 0.000000000000000e+00
0.000000000000000e+00 0.000000000000000e+00 0.000000000000000e+00

0.000000000000000e+00 0.000000000000000e+00 0.000000000000000e+00
0.000000000000000e+00 0.000000000000000e+00 0.000000000000000e+00
0.000000000000000e+00 0.000000000000000e+00 0.000000000000000e+00

0.000000000000000e+00 0.000000000000000e+00 0.000000000000000e+00
0.000000000000000e+00 0.000000000000000e+00 0.000000000000000e+00
0.000000000000000e+00 0.000000000000000e+00 0.000000000000000e+00

0.000000000000000e+00 0.000000000000000e+00 0.000000000000000e+00
0.000000000000000e+00 0.000000000000000e+00 0.000000000000000e+00
0.000000000000000e+00 0.000000000000000e+00 0.000000000000000e+00

0.000000000000000e+00 0.000000000000000e+00 0.000000000000000e+00
0.000000000000000e+00 0.000000000000000e+00 0.000000000000000e+00
0.000000000000000e+00 0.000000000000000e+00 0.000000000000000e+00

0.000000000000000e+00 0.000000000000000e+00 0.000000000000000e+00
0.000000000000000e+00 0.000000000000000e+00 0.000000000000000e+00
0.000000000000000e+00 0.000000000000000e+00 0.000000000000000e+00

0.000000000000000e+00 0.000000000000000e+00 0.000000000000000e+00
0.000000000000000e+00 0.000000000000000e+00 0.000000000000000e+00
0.000000000000000e+00 0.000000000000000e+00 0.000000000000000e+00

0.000000000000000e+00 0.000000000000000e+00 0.000000000000000e+00
0.000000000000000e+00 0.000000000000000e+00 0.000000000000000e+00
0.000000000000000e+00 0.000000000000000e+00 0.000000000000000e+00

0.000000000000000e+00 0.000000000000000e+00 0.000000000000000e+00
0.000000000000000e+00 0.000000000000000e+00 0.000000000000000e+00
0.000000000000000e+00 0.000000000000000e+00 0.000000000000000e+00

0.000000000000000e+00 0.000000000000000e+00 0.000000000000000e+00
0.000000000000000e+00 0.000000000000000e+00 0.000000000000000e+00
0.000000000000000e+00 0.000000000000000e+00 0.000000000000000e+00

0.000000000000000e+00 0.000000000000000e+00 0.000000000000000e+00
0.000000000000000e+00 0.000000000000000e+00 0.000000000000000e+00
0.000000000000000e+00 0.000000000000000e+00 0.000000000000000e+00

0.000000000000000e+00 0.000000000000000e+00 0.000000000000000e+00
0.000000000000000e+00 0.000000000000000e+00 0.000000000000000e+00
0.000000000000000e+00 0.000000000000000e+00 0.000000000000000e+00

0.000000000000000e+00 0.000000000000000e+00 0.000000000000000e+00
0.000000000000000e+00 0.000000000000000e+00 0.000000000000000e+00
0.000000000000000e+00 0.000000000000000e+00 0.000000000000000e+00

0.000000000000000e+00 0.000000000000000e+00 0.000000000000000e+00
0.000000000000000e+00 0.000000000000000e+00 0.000000000000000e+00
0.000000000000000e+00 0.000000000000000e+00 0.000000000000000e+00

0.000000000000000e+00 0.000000000000000e+00 0.000000000000000e+00
0.000000000000000e+00 0.000000000000000e+00 0.000000000000000e+00
0.000000000000000e+00 0.000000000000000e+00 0.000000000000000e+00

0.000000000000000e+00 0.000000000000000e+00 0.000000000000000e+00
0.000000000000000e+00 0.000000000000000e+00 0.000000000000000e+00
0.000000000000000e+00 0.000000000000000e+00 0.000000000000000e+00

0.000000000000000e+00 0.000000000000000e+00 0.000000000000000e+00
0.000000000000000e+00 0.000000000000000e+00 0.000000000000000e+00
0.000000000000000e+00 0.000000000000000e+00 0.000000000000000e+00

0.000000000000000e+00 0.000000000000000e+00 0.000000000000000e+00
0.000000000000000e+00 0.000000000000000e+00 0.000000000000000e+00
0.000000000000000e+00 0.000000000000000e+00 0.000000000000000e+00

0.000000000000000e+00 0.000000000000000e+00 0.000000000000000e+00
0.000000000000000e+00 0.000000000000000e+00 0.000000000000000e+00
0.000000000000000e+00 0.000000000000000e+00 0.000000000000000e+00

0.000000000000000e+00 0.000000000000000e+00 0.000000000000000e+00
0.000000000000000e+00 0.000000000000000e+00 0.000000000000000e+00
0.000000000000000e+00 0.000000000000000e+00 0.000000000000000e+00

0.000000000000000e+00 0.000000000000000e+00 0.000000000000000e+00
0.000000000000000e+00 0.000000000000000e+00 0.000000000000000e+00
0.000000000000000e+00 0.000000000000000e+00 0.000000000000000e+00

0.000000000000000e+00 0.000000000000000e+00 0.000000000000000e+00
0.000000000000000e+00 0.000000000000000e+00 0.000000000000000e+00
0.000000000000000e+00 0.000000000000000e+00 0.000000000000000e+00

0.000000000000000e+00 0.000000000000000e+00 0.000000000000000e+00
0.000000000000000e+00 0.000000000000000e+00 0.000000000000000e+00
0.000000000000000e+00 0.000000000000000e+00 0.000000000000000e+00

0.000000000000000e+00 0.000000000000000e+00 0.000000000000000e+00
0.000000000000000e+00 0.000000000000000e+00 0.000000000000000e+00
0.000000000000000e+00 0.000000000000000e+00 0.000000000000000e+00

0.000000000000000e+00 0.000000000000000e+00 0.000000000000000e+00
0.000000000000000e+00 0.000000000000000e+00 0.000000000000000e+00
0.000000000000000e+00 0.000000000000000e+00 0.000000000000000e+00

0.000000000000000e+00 0.000000000000000e+00 0.000000000000000e+00
0.000000000000000e+00 0.000000000000000e+00 0.000000000000000e+00
0.000000000000000e+00 0.000000000000000e+00 0.000000000000000e+00

0.000000000000000e+00 0.000000000000000e+00 0.000000000000000e+00
0.000000000000000e+00 0.000000000000000e+00 0.000000000000000e+00
0.000000000000000e+00 0.000000000000000e+00 0.000000000000000e+00

0.000000000000000e+00 0.000000000000000e+00 0.000000000000000e+00
0.000000000000000e+00 0.000000000000000e+00 0.000000000000000e+00
0.000000000000000e+00 0.000000000000000e+00 0.000000000000000e+00

0.000000000000000e+00 0.000000000000000e+00 0.000000000000000e+00
0.000000000000000e+00 0.000000000000000e+00 0.000000000000000e+00
0.000000000000000e+00 0.000000000000000e+00 0.000000000000000e+00

0.000000000000000e+00 0.000000000000000e+00 0.000000000000000e+00
0.000000000000000e+00 0.000000000000000e+00 0.000000000000000e+00
0.000000000000000e+00 0.000000000000000e+00 0.000000000000000e+00

0.000000000000000e+00 0.000000000000000e+00 0.000000000000000e+00
0.000000000000000e+00 0.000000000000000e+00 0.000000000000000e+00
0.000000000000000e+00 0.000000000000000e+00 0.000000000000000e+00

0.000000000000000e+00 0.000000000000000e+00 0.000000000000000e+00
0.000000000000000e+00 0.000000000000000e+00 0.000000000000000e+00
0.000000000000000e+00 0.000000000000000e+00 0.000000000000000e+00

0.000000000000000e+00 0.000000000000000e+00 0.000000000000000e+00
0.000000000000000e+00 0.000000000000000e+00 0.000000000000000e+00
0.000000000000000e+00 0.000000000000000e+00 0.000000000000000e+00

0.000000000000000e+00 0.000000000000000e+00 0.000000000000000e+00
0.000000000000000e+00 0.000000000000000e+00 0.000000000000000e+00
0.000000000000000e+00 0.000000000000000e+00 0.000000000000000e+00

0.000000000000000e+00 0.000000000000000e+00 0.000000000000000e+00
0.000000000000000e+00 0.000000000000000e+00 0.000000000000000e+00
0.000000000000000e+00 0.000000000000000e+00 0.000000000000000e+00

0.000000000000000e+00 0.000000000000000e+00 0.000000000000000e+00
0.000000000000000e+00 0.000000000000000e+00 0.000000000000000e+00
0.000000000000000e+00 0.000000000000000e+00 0.000000000000000e+00

0.000000000000000e+00 0.000000000000000e+00 0.000000000000000e+00
0.000000000000000e+00 0.000000000000000e+00 0.000000000000000e+00
0.000000000000000e+00 0.000000000000000e+00 0.000000000000000e+00

0.000000000000000e+00 0.000000000000000e+00 0.000000000000000e+00
0.000000000000000e+00 0.000000000000000e+00 0.000000000000000e+00
0.000000000000000e+00 0.000000000000000e+00 0.000000000000000e+00

0.000000000000000e+00 0.000000000000000e+00 0.000000000000000e+00
0.000000000000000e+00 0.000000000000000e+00 0.000000000000000e+00
0.000000000000000e+00 0.000000000000000e+00 0.000000000000000e+00

0.000000000000000e+00 0.000000000000000e+00 0.000000000000000e+00
0.000000000000000e+00 0.000000000000000e+00 0.000000000000000e+00
0.000000000000000e+00 0.000000000000000e+00 0.000000000000000e+00

0.000000000000000e+00 0.000000000000000e+00 0.000000000000000e+00
0.000000000000000e+00 0.000000000000000e+00 0.000000000000000e+00
0.000000000000000e+00 0.000000000000000e+00 0.000000000000000e+00

 5.826366395919491e-17 -6.346061808782400e-18 -9.412366698991687e-01
-6.346061808782400e-18  1.555530557772931e-17  3.033778384073435e-01
-9.412366698991687e-01  3.033778384073435e-01  4.291606758537563e-18

 1.219485418408279e-17 -1.894346948277033e-19 -9.165432499569274e-01
-1.894346948277033e-19  1.139203282681611e-17  4.008371503850179e-01
-9.165432499569274e-01  4.008371503850179e-01  4.036764806286404e-18

-9.619878505191282e-17  1.695115575269080e-17 -1.144091190873302e+00
 1.695115575269080e-17  1.391839117301281e-17  2.864647637861559e-01
-1.144091190873302e+00  2.864647637861559e-01  1.645536908557435e-17

-7.742021809099449e-18  1.496725129943918e-18 -8.255018986709390e-01
 1.496725129943918e-18  1.552785188062247e-18  7.317754242157193e-01
-8.255018986709390e-01  7.317754242157193e-01 -5.161205995521639e-18

 1.399450833936418e-17 -3.872742702752910e-19 -9.509995684445612e-01
-3.872742702752910e-19  6.993592144612374e-18  5.677932729338705e-01
-9.509995684445612e-01  5.677932729338705e-01  1.760772189466812e-18

 2.504772886557914e-17 -5.352024348678323e-19 -1.432739057605208e+00
-5.352024348678323e-19  2.924576632917212e-17  3.130199456007947e-03
-1.432739057605208e+00  3.130199456007947e-03  3.752008387143029e-17

 2.068805576861430e-17 -2.891919049013219e-19 -1.283364442617312e+00
-2.891919049013219e-19  2.224068776354459e-17  1.750161262275413e-01
-1.283364442617312e+00  1.750161262275413e-01  2.673472020789035e-17

 8.670123395231323e-18 -4.101559383208732e-19 -8.145291149586606e-01
-4.101559383208732e-19  4.559662694312152e-18  6.394236381586811e-01
-8.145291149586606e-01  6.394236381586811e-01 -7.094033085354236e-18

 1.131680236360910e-17  6.624913117045166e-19 -9.727905257675606e-01
 6.624913117045166e-19  6.635552435874947e-18  5.420029160359827e-01
-9.727905257675606e-01  5.420029160359827e-01  3.426027548176415e-18

 1.343728826920823e-17 -9.756497737337551e-19 -9.936490355694525e-01
-9.756497737337551e-19  1.682118341432574e-17  3.068444116120627e-01
-9.936490355694525e-01  3.068444116120627e-01  9.895781077110359e-18

 1.333167918039615e-17 -5.783849562572503e-19 -9.908724874822336e-01
-5.783849562572503e-19  1.715702866297495e-17  2.685177192252910e-01
-9.908724874822336e-01  2.685177192252910e-01  1.070635873036379e-17

 4.989837237734003e-18 -4.843273925605488e-19 -6.524525880429827e-01
-4.843273925605488e-19  4.247275358375122e-18  5.902594108543293e-01
-6.524525880429827e-01  5.902594108543293e-01 -1.410420853133065e-17

 7.546314075924795e-18 -3.736000543077288e-19 -7.609265513856623e-01
-3.736000543077288e-19  5.547877672010924e-18  5.529389065520153e-01
-7.609265513856623e-01  5.529389065520153e-01 -6.388597242006509e-18

 9.231186586040498e-18  1.111527750032476e-20 -8.300474283023775e-01
 1.111527750032476e-20  5.920432859553221e-18  5.246255867252038e-01
-8.300474283023775e-01  5.246255867252038e-01 -1.666090592085026e-18

 1.078191776833819e-17 -2.402674939171155e-19 -8.816466766086165e-01
-2.402674939171155e-19  1.093016800687281e-17  3.986544835730133e-01
-8.816466766086165e-01  3.986544835730133e-01  3.695524052039290e-18

 8.774872405620820e-18 -4.377133627489114e-20 -7.994106935579813e-01
-4.377133627489114e-20  1.049408115964537e-17  3.939585497798178e-01
-7.994106935579813e-01  3.939585497798178e-01 -1.778649421478654e-18

 1.105587097032242e-17  3.021514931346180e-19 -9.103544194361819e-01
 3.021514931346180e-19  1.164894259841205e-17  3.711820125923939e-01
-9.103544194361819e-01  3.711820125923939e-01  3.702199682558660e-18

 7.906428977105406e-18 -3.272276668427730e-19 -7.938475359306150e-01
-3.272276668427730e-19  1.884229844679679e-18  6.802308058130562e-01
-7.938475359306150e-01  6.802308058130562e-01 -6.675745037595274e-18

 9.215045720020368e-18 -1.032138643154330e-19 -8.471967853317733e-01
-1.032138643154330e-19  5.729007142152480e-18  5.728642675195162e-01
-8.471967853317733e-01  5.728642675195162e-01 -3.665168075616026e-18

 1.848800231844268e-17 -4.267336220237066e-19 -1.220714580782333e+00
-4.267336220237066e-19  2.220441289997618e-17  1.693874996349938e-01
-1.220714580782333e+00  1.693874996349938e-01  2.418115215659979e-17

 1.300797439775880e-17 -1.347864525765801e-19 -1.018002916436188e+00
-1.347864525765801e-19  1.306246043664391e-17  4.035436610455082e-01
-1.018002916436188e+00  4.035436610455082e-01  7.824803761197523e-18

 2.517396108424968e-18  2.547119564151881e-18 -8.669176789405578e-01
 2.547119564151881e-18  5.722186792275064e-18  5.695644902128335e-01
-8.669176789405578e-01  5.695644902128335e-01 -4.758657849771349e-18

 3.820152418567149e-18  5.809140921180933e-18 -1.222954037841741e+00
 5.809140921180933e-18  1.913510674395852e-17  1.848681098831376e-01
-1.222954037841741e+00  1.848681098831376e-01  2.057438770961160e-17

 5.332057375587250e-17 -1.543775418514861e-17 -1.076077563123554e+00
-1.543775418514861e-17  1.804396489866175e-17  4.549240591470515e-01
-1.076077563123554e+00  4.549240591470515e-01  9.902778752978234e-18

 1.927352110228912e-17 -3.356056683233561e-18 -9.420006331671693e-01
-3.356056683233561e-18  5.412715765055488e-18  6.610836921084466e-01
-9.420006331671693e-01  6.610836921084466e-01 -3.159298436237381e-19

 9.818936122721575e-18  2.082259993761298e-18 -1.158423668955881e+00
 2.082259993761298e-18  1.557348656833392e-17  3.369008867886409e-01
-1.158423668955881e+00  3.369008867886409e-01  1.749712342915594e-17

 1.718921252014511e-17 -2.086199646389611e-18 -1.014061516681841e+00
-2.086199646389611e-18  1.533248590311741e-17  3.653360397478708e-01
-1.014061516681841e+00  3.653360397478708e-01  8.591802132363882e-18

 1.700503195523905e-17 -1.258838382438894e-18 -1.080414213814974e+00
-1.258838382438894e-18  1.767350090627314e-17  2.818440945421982e-01
-1.080414213814974e+00  2.818440945421982e-01  1.467681000619401e-17

 1.001584374911623e-17  2.621713250035777e-19 -8.858351412821835e-01
 2.621713250035777e-19  8.105483630133529e-18  4.768266509538033e-01
-8.858351412821835e-01  4.768266509538033e-01 -1.447403204205144e-21

-3.389344584948956e-18  1.279338661048022e-18 -3.675123678540824e-01
 1.279338661048022e-18 -9.423860074743556e-18  8.786809151658990e-01
-3.675123678540824e-01  8.786809151658990e-01 -3.752232592925203e-17

 6.363251952967321e-18  4.205802150701968e-19 -7.470544203594834e-01
 4.205802150701968e-19  5.073452340855726e-18  5.378699647240786e-01
-7.470544203594834e-01  5.378699647240786e-01 -8.731173362588624e-18

 1.481696810096668e-17 -1.035783681820099e-18 -1.037975353278263e+00
-1.035783681820099e-18  1.984607269731922e-17  2.066112061072987e-01
-1.037975353278263e+00  2.066112061072987e-01  1.484751386837533e-17

 9.978042582776916e-18  1.002739355737619e-19 -8.675027074227171e-01
 1.002739355737619e-19  1.436724562439093e-17  2.985949833547277e-01
-8.675027074227171e-01  2.985949833547277e-01  1.524764394535322e-18

 1.090410081101631e-17 -4.541229805403930e-20 -9.054113014090612e-01
-4.541229805403930e-20  1.092644714335172e-17  4.037740332452573e-01
-9.054113014090612e-01  4.037740332452573e-01  3.520920078165510e-18

 1.051651833387426e-17 -6.897485437084207e-19 -8.815565633149591e-01
-6.897485437084207e-19  6.409772794399301e-18  5.580822175921129e-01
-8.815565633149591e-01  5.580822175921129e-01  1.661327959444239e-18

 1.241752643124299e-17 -2.656699030590393e-20 -9.755061069072546e-01
-2.656699030590393e-20  9.089466465062991e-18  4.684717347796102e-01
-9.755061069072546e-01  4.684717347796102e-01  6.985767993608387e-18

 1.218029025948805e-17 -2.236934926108640e-19 -9.531888043881177e-01
-2.236934926108640e-19  1.363208294634067e-17  3.497826035642539e-01
-9.531888043881177e-01  3.497826035642539e-01  6.703767400759125e-18

 1.297448926054568e-17  6.727730600979467e-20 -9.961377179707428e-01
 6.727730600979467e-20  1.767215333539707e-17  2.347830687834351e-01
-9.961377179707428e-01  2.347830687834351e-01  9.977802216696271e-18

 1.156776304324303e-17  3.589220194312677e-19 -9.679447832477295e-01
 3.589220194312677e-19  1.378297529894787e-17  3.355510868703013e-01
-9.679447832477295e-01  3.355510868703013e-01  7.031333422834970e-18

 1.563784729658489e-17 -1.256961170061408e-18 -1.013478468277934e+00
-1.256961170061408e-18  1.110745521515735e-17  4.471390313582907e-01
-1.013478468277934e+00  4.471390313582907e-01  9.541118827781148e-18

 7.693925245003877e-18  1.944263131003223e-18 -9.620122119009870e-01
 1.944263131003223e-18  7.525107645728597e-18  4.858635930361621e-01
-9.620122119009870e-01  4.858635930361621e-01  4.784993148788710e-18

 1.146148701574445e-17  5.538731189091555e-19 -9.940777908358152e-01
 5.538731189091555e-19  1.240055823802792e-17  3.748518352859213e-01
-9.940777908358152e-01  3.748518352859213e-01  8.837295382175974e-18

 1.749302691380297e-17 -2.696574726451598e-18 -9.237125988134172e-01
-2.696574726451598e-18  1.498710507738205e-17  3.306067460067151e-01
-9.237125988134172e-01  3.306067460067151e-01  5.579178630806200e-18

 3.813505448811667e-17 -8.132552537041892e-18 -1.198243938239227e+00
-8.132552537041892e-18  2.463191625997964e-17  1.305137701983297e-01
-1.198243938239227e+00  1.305137701983297e-01  2.534717482885136e-17

-1.727474565715152e-16  7.517688062007477e-17 -8.340288961440671e-01
 7.517688062007477e-17 -2.385845683327474e-17  4.813831399225785e-01
-8.340288961440671e-01  4.813831399225785e-01 -1.409463007381383e-18

-8.628442079132638e-17  3.377181482928137e-17 -2.411463625285933e-01
 3.377181482928137e-17 -2.662480814324404e-17  9.758845358634083e-01
-2.411463625285933e-01  9.758845358634083e-01 -4.338161718902011e-17

-1.412832803047987e-16  6.081581219952644e-17 -6.877373976120453e-01
 6.081581219952644e-17 -2.241693548780017e-17  5.894630991830199e-01
-6.877373976120453e-01  5.894630991830199e-01 -1.161320000513193e-17

-3.337007208867654e-17  1.932778078567561e-17 -1.040590382941329e+00
 1.932778078567561e-17  1.070932733025792e-17  2.038733274644955e-01
-1.040590382941329e+00  2.038733274644955e-01  1.569065150641898e-17

-1.161212897626874e-18  4.994432212417332e-18 -8.838128155161892e-01
 4.994432212417332e-18  1.227686407813366e-17  2.922178748420917e-01
-8.838128155161892e-01  2.922178748420917e-01  3.349526032269936e-18

 1.162488556731307e-17 -8.186122879507932e-20 -9.231182562717851e-01
-8.186122879507932e-20  1.171653531770864e-17  3.764079591228403e-01
-9.231182562717851e-01  3.764079591228403e-01  5.331438285026316e-18

 1.134477195664031e-17 -7.812216819645323e-19 -8.916539244009788e-01
-7.812216819645323e-19  7.298665114099514e-18  5.251803893807093e-01
-8.916539244009788e-01  5.251803893807093e-01  2.726911976709961e-18

 1.168584841390892e-17  3.274891301120067e-19 -9.755503176824687e-01
 3.274891301120067e-19  9.405763796363605e-18  4.490129137948981e-01
-9.755503176824687e-01  4.490129137948981e-01  7.322944584361471e-18

 1.205964586749262e-17 -1.177855675893078e-19 -9.561419847532630e-01
-1.177855675893078e-19  1.386369702559011e-17  3.371017317671288e-01
-9.561419847532630e-01  3.371017317671288e-01  7.095603785378639e-18

 1.316766190467160e-17  2.228147124230543e-20 -1.001186612301483e+00
 2.228147124230543e-20  1.775245801387152e-17  2.299973244239429e-01
-1.001186612301483e+00  2.299973244239429e-01  1.048688515532079e-17

 1.216869032690808e-17  9.293227955982112e-20 -9.675732106923816e-01
 9.293227955982112e-20  1.398744357439646e-17  3.291214816603339e-01
-9.675732106923816e-01  3.291214816603339e-01  7.111550387261227e-18

 1.339414655945247e-17 -2.748729272392874e-19 -1.016813691024865e+00
-2.748729272392874e-19  1.096232983562666e-17  4.353565873412527e-01
-1.016813691024865e+00  4.353565873412527e-01  9.759955361519844e-18

 1.169699299310818e-17  2.769735306255093e-19 -9.600215500256686e-01
 2.769735306255093e-19  8.239709874411357e-18  4.810838527774621e-01
-9.600215500256686e-01  4.810838527774621e-01  4.685377523262413e-18

 1.279945577632590e-17 -3.149509890345424e-20 -9.922631477845533e-01
-3.149509890345424e-20  1.265139130467936e-17  3.712830990591463e-01
-9.922631477845533e-01  3.712830990591463e-01  8.762820512321403e-18

 1.150895539294845e-17 -2.223504021974033e-19 -9.263465357110466e-01
-2.223504021974033e-19  1.405622452149087e-17  3.254854639789976e-01
-9.263465357110466e-01  3.254854639789976e-01  5.799688756194896e-18

 1.798235043294840e-17  1.022514381188327e-19 -1.193158651949337e+00
 1.022514381188327e-19  2.093516294568018e-17  1.353860397488460e-01
-1.193158651949337e+00  1.353860397488460e-01  2.496734044131405e-17

 8.915933708092551e-18  1.868485154282087e-19 -8.250432295787196e-01
 1.868485154282087e-19  6.641696741735599e-18  4.891758329593340e-01
-8.250432295787196e-01  4.891758329593340e-01 -2.089906817745434e-18

-5.507505738222781e-18  5.127662823889154e-19 -2.478553428658467e-01
 5.127662823889154e-19 -1.276693332280966e-17  9.693972657473092e-01
-2.478553428658467e-01  9.693972657473092e-01 -4.297515332991863e-17

 5.790930240101970e-18  1.850886741284779e-19 -6.947650743501625e-01
 1.850886741284779e-19  2.803854453073767e-18  5.817201996216937e-01
-6.947650743501625e-01  5.817201996216937e-01 -1.110838033575965e-17

 1.477971239793501e-17 -5.626322945170220e-19 -1.042025288595877e+00
-5.626322945170220e-19  1.893613208687942e-17  2.013742872625018e-01
-1.042025288595877e+00  2.013742872625018e-01  1.580118954310979e-17

 1.044970045549873e-17  1.577300754507829e-19 -8.828497798603403e-01
 1.577300754507829e-19  1.420156078199613e-17  2.920430374754274e-01
-8.828497798603403e-01  2.920430374754274e-01  3.278417378144453e-18

 1.143218235642885e-17 -4.022679500688683e-21 -9.252743392850423e-01
-4.022679500688683e-21  1.169498487842629e-17  3.740376279740145e-01
-9.252743392850423e-01  3.740376279740145e-01  5.466945283869103e-18

 1.079594395373020e-17 -5.610358825140159e-19 -8.931014463073614e-01
-5.610358825140159e-19  7.162433316864021e-18  5.240448972922321e-01
-8.931014463073614e-01  5.240448972922321e-01  2.812462622605902e-18

 1.236820126272665e-17  3.657070537875558e-20 -9.754317628923491e-01
 3.657070537875558e-20  9.354588331332183e-18  4.503997325050004e-01
-9.754317628923491e-01  4.503997325050004e-01  7.276859465114216e-18

 1.197160443456188e-17 -1.513168760605614e-19 -9.522001293500751e-01
-1.513168760605614e-19  1.374731669716417e-17  3.375884685532849e-01
-9.522001293500751e-01  3.375884685532849e-01  6.873229351691942e-18

 1.289179168485672e-17  7.312077891899137e-20 -9.952417111626832e-01
 7.312077891899137e-20  1.772742360391410e-17  2.259914939820722e-01
-9.952417111626832e-01  2.259914939820722e-01  1.009159985758338e-17

 1.209178937753612e-17  1.136755066033657e-19 -9.670697724145884e-01
 1.136755066033657e-19  1.389239902545006e-17  3.283387866174742e-01
-9.670697724145884e-01  3.283387866174742e-01  7.073579922714888e-18

 1.321380315320881e-17 -2.973869986259402e-19 -1.013222206782911e+00
-2.973869986259402e-19  1.069157969178679e-17  4.412605335076134e-01
-1.013222206782911e+00  4.412605335076134e-01  9.549810861595855e-18

 1.168494546900769e-17  2.693868063445118e-19 -9.636286413197437e-01
 2.693868063445118e-19  8.243403667252777e-18  4.797905575074617e-01
-9.636286413197437e-01  4.797905575074617e-01  4.904606449728741e-18

 1.281499807785551e-17 -2.883072784467371e-20 -9.971552325101848e-01
-2.883072784467371e-20  1.266997975794388e-17  3.693300314978694e-01
-9.971552325101848e-01  3.693300314978694e-01  9.033061130892817e-18

 1.127516407857332e-17 -1.982499181751784e-19 -9.220786796808143e-01
-1.982499181751784e-19  1.365466582623356e-17  3.333610337861058e-01
-9.220786796808143e-01  3.333610337861058e-01  5.354716248666756e-18

 1.820570884670340e-17  7.431055645531460e-20 -1.205709955199681e+00
 7.431055645531460e-20  2.136293072043482e-17  1.235759888697738e-01
-1.205709955199681e+00  1.235759888697738e-01  2.587236889365026e-17

 9.556988471100667e-18  1.858192272211732e-19 -8.554892084945562e-01
 1.858192272211732e-19  7.699339923106736e-18  4.607542938871181e-01
-8.554892084945562e-01  4.607542938871181e-01  8.551196224476339e-20

-5.721332526156785e-18  5.263234509238208e-19 -2.441584772916210e-01
 5.263234509238208e-19 -1.291790114224691e-17  9.710355069305269e-01
-2.441584772916210e-01  9.710355069305269e-01 -4.330155884562901e-17

 5.460421265788240e-18  2.027479348830111e-19 -6.863690612264821e-01
 2.027479348830111e-19  2.466835245910419e-18  5.879717579652747e-01
-6.863690612264821e-01  5.879717579652747e-01 -1.178626139793658e-17

 1.459738042928699e-17 -5.560787100250746e-19 -1.039420737338485e+00
-5.560787100250746e-19  1.883106501942524e-17  2.017555482946456e-01
-1.039420737338485e+00  2.017555482946456e-01  1.556154899485906e-17

 1.039488745043813e-17  1.687250133055417e-19 -8.850992879949044e-01
 1.687250133055417e-19  1.422621850624544e-17  2.889838508694613e-01
-8.850992879949044e-01  2.889838508694613e-01  3.378592485452176e-18

 1.124419595054280e-17 -6.448763148645290e-21 -9.220415767779236e-01
-6.448763148645290e-21  1.153159632879995e-17  3.762249286374686e-01
-9.220415767779236e-01  3.762249286374686e-01  5.196660444995045e-18

 1.066640033484942e-17 -5.714894642530646e-19 -8.916680107916866e-01
-5.714894642530646e-19  7.054212933864266e-18  5.256426367581636e-01
-8.916680107916866e-01  5.256426367581636e-01  2.668720894759929e-18

 1.227471518239834e-17  6.579241662506019e-21 -9.762631382578072e-01
 6.579241662506019e-21  9.398300651032553e-18  4.489817899787286e-01
-9.762631382578072e-01  4.489817899787286e-01  7.311234417957602e-18

 1.193987798171934e-17 -1.407636733304992e-19 -9.565599091106044e-01
-1.407636733304992e-19  1.371345865777589e-17  3.374069933476542e-01
-9.565599091106044e-01  3.374069933476542e-01  7.052293745989582e-18

 1.293232387059290e-17  4.880249604359582e-20 -1.002104013722497e+00
 4.880249604359582e-20  1.761878086313796e-17  2.293857923837951e-01
-1.002104013722497e+00  2.293857923837951e-01  1.049093100441146e-17

 1.199846833098796e-17  9.368315291368511e-20 -9.683705215720300e-01
 9.368315291368511e-20  1.387206954966292e-17  3.282395634257704e-01
-9.683705215720300e-01  3.282395634257704e-01  7.110529941555454e-18

 1.316472737714848e-17 -2.597430701622497e-19 -1.017138611994719e+00
-2.597430701622497e-19  1.082226676466992e-17  4.349729960967824e-01
-1.017138611994719e+00  4.349729960967824e-01  9.729507127869594e-18

 1.148137833766455e-17  2.851117060010568e-19 -9.606920019597274e-01
 2.851117060010568e-19  8.111334077455656e-18  4.804868911195845e-01
-9.606920019597274e-01  4.804868911195845e-01  4.682694245683007e-18

 1.259379238804970e-17 -2.602522013186167e-20 -9.931146095526449e-01
-2.602522013186167e-20  1.252293951713179e-17  3.706612952440035e-01
-9.931146095526449e-01  3.706612952440035e-01  8.773553774742656e-18

 1.127317001151528e-17 -2.118715386067685e-19 -9.253774469305178e-01
-2.118715386067685e-19  1.383441562455813e-17  3.269241590385749e-01
-9.253774469305178e-01  3.269241590385749e-01  5.672065517417062e-18

 1.782681668832140e-17  1.039457707566013e-19 -1.195459831989141e+00
 1.039457707566013e-19  2.087593413198393e-17  1.330107515708662e-01
-1.195459831989141e+00  1.330107515708662e-01  2.510483087307193e-17

 8.841298175912744e-18  1.917701698487994e-19 -8.308653842505935e-01
 1.917701698487994e-19  6.716833375448501e-18  4.831467298154791e-01
-8.308653842505935e-01  4.831467298154791e-01 -1.701011845830560e-18

-5.740660432043439e-18  5.188304532540590e-19 -2.472316639535476e-01
 5.188304532540590e-19 -1.291834180451282e-17  9.689462551309910e-01
-2.472316639535476e-01  9.689462551309910e-01 -4.306216284171938e-17

 5.496595766848524e-18  1.955036316377568e-19 -6.931855191385010e-01
 1.955036316377568e-19  2.611321656189502e-18  5.823353658574753e-01
-6.931855191385010e-01  5.823353658574753e-01 -1.126014669539450e-17

 1.460094721868956e-17 -5.596214056306435e-19 -1.041704340434437e+00
-5.596214056306435e-19  1.875787598608943e-17  2.015638703723822e-01
-1.041704340434437e+00  2.015638703723822e-01  1.573572059160986e-17

 8.954305679132141e-18  3.135142251298075e-19 -8.826406006588305e-01
 3.135142251298075e-19  1.400993103079352e-17  2.921726509878951e-01
-8.826406006588305e-01  2.921726509878951e-01  3.224494691438049e-18

 8.758825593337208e-18  2.873375187905019e-19 -9.252724363353180e-01
 2.873375187905019e-19  1.150197227758917e-17  3.736189759682911e-01
-9.252724363353180e-01  3.736189759682911e-01  5.425739005414675e-18

-1.388412885757498e-17  2.269506962781355e-18 -8.927637204475927e-01
 2.269506962781355e-18  6.654487921668579e-18  5.241171379577034e-01
-8.927637204475927e-01  5.241171379577034e-01  2.743446918009487e-18

-9.927435694633910e-17  1.286421087008156e-17 -9.749234463490600e-01
 1.286421087008156e-17  7.693512900086176e-18  4.505469339010471e-01
-9.749234463490600e-01  4.505469339010471e-01  7.203212123655060e-18

 2.141562347790114e-17 -1.256816641083933e-18 -9.517344612914991e-01
-1.256816641083933e-18  1.369996439057072e-17  3.374448912183032e-01
-9.517344612914991e-01  3.374448912183032e-01  6.805203462672026e-18

 1.928109349252644e-17 -6.756175783039794e-19 -9.950772518714096e-01
-6.756175783039794e-19  1.764467942499077e-17  2.255666387571534e-01
-9.950772518714096e-01  2.255666387571534e-01  1.004102687051481e-17

 1.311858163718696e-17 -2.941391946400782e-20 -9.663475788343666e-01
-2.941391946400782e-20  1.371012857385207e-17  3.288281018009824e-01
-9.663475788343666e-01  3.288281018009824e-01  6.992270769181400e-18

 1.267559204728985e-17 -2.629174454625657e-19 -1.012558956207976e+00
-2.629174454625657e-19  1.049085552865808e-17  4.415990321287172e-01
-1.012558956207976e+00  4.415990321287172e-01  9.483615248221418e-18

 1.138872222354960e-17  2.781375451441176e-19 -9.615632998305234e-01
 2.781375451441176e-19  8.016143182062871e-18  4.804954786680128e-01
-9.615632998305234e-01  4.804954786680128e-01  4.751751102742524e-18

 1.246684038908063e-17 -2.311870321784746e-20 -9.939503062681404e-01
-2.311870321784746e-20  1.245572250177868e-17  3.698580705876274e-01
-9.939503062681404e-01  3.698580705876274e-01  8.821973376079036e-18

 1.113865380045457e-17 -2.020075017911981e-19 -9.266471860819185e-01
-2.020075017911981e-19  1.377261314662124e-17  3.259608770931767e-01
-9.266471860819185e-01  3.259608770931767e-01  5.735287069652984e-18

 1.765957904050826e-17  1.124355637668908e-19 -1.195027726511319e+00
 1.124355637668908e-19  2.072772791995761e-17  1.342761839910759e-01
-1.195027726511319e+00  1.342761839910759e-01  2.503997531367286e-17

 8.693238366147503e-18  2.024115349709036e-19 -8.316331371497960e-01
 2.024115349709036e-19  6.616533405440339e-18  4.831618986688394e-01
-8.316331371497960e-01  4.831618986688394e-01 -1.684814682205013e-18

-5.812368466307724e-18  5.357540792309865e-19 -2.510073381196991e-01
 5.357540792309865e-19 -1.292044311110370e-17  9.661436411072359e-01
-2.510073381196991e-01  9.661436411072359e-01 -4.285444360600779e-17

 5.415640844051349e-18  2.027685077981899e-19 -6.954502550751460e-01
 2.027685077981899e-19  2.592886628252367e-18  5.802009559076683e-01
-6.954502550751460e-01  5.802009559076683e-01 -1.112896468471211e-17

 1.434731311713084e-17 -5.516706161676722e-19 -1.040943594192995e+00
-5.516706161676722e-19  1.867680824492182e-17  2.012176869980650e-01
-1.040943594192995e+00  2.012176869980650e-01  1.566181773872029e-17

 1.002466245335697e-17  1.721023926186421e-19 -8.820309339007258e-01
 1.721023926186421e-19  1.393143483408981e-17  2.920298886238797e-01
-8.820309339007258e-01  2.920298886238797e-01  3.152879389059646e-18

 1.098627761075629e-17  1.099482084510794e-20 -9.236685158193290e-01
 1.099482084510794e-20  1.140820140780391e-17  3.742998633350362e-01
-9.236685158193290e-01  3.742998633350362e-01  5.280895061401360e-18

 1.033585346593628e-17 -5.502506207995190e-19 -8.912691758704994e-01
-5.502506207995190e-19  6.893961030322210e-18  5.239477986674392e-01
-8.912691758704994e-01  5.239477986674392e-01  2.610854235343513e-18

 1.195116041278334e-17  2.546739712895137e-20 -9.753573493980019e-01
 2.546739712895137e-20  9.205396431502557e-18  4.483488995194757e-01
-9.753573493980019e-01  4.483488995194757e-01  7.212354339910787e-18

 1.161470378227165e-17 -1.313192878922812e-19 -9.558150005566181e-01
-1.313192878922812e-19  1.353945248862283e-17  3.365828169708955e-01
-9.558150005566181e-01  3.365828169708955e-01  6.973460548330848e-18

 1.259061244545194e-17  5.987767534371790e-20 -1.000874407462881e+00
 5.987767534371790e-20  1.740964728677840e-17  2.294269012661987e-01
-1.000874407462881e+00  2.294269012661987e-01  1.036353972400170e-17

 1.165171283921382e-17  1.050795503100251e-19 -9.674172865239052e-01
 1.050795503100251e-19  1.366106374756547e-17  3.283540104693052e-01
-9.674172865239052e-01  3.283540104693052e-01  6.994949651762552e-18

 1.280095809351129e-17 -2.443932659307543e-19 -1.016328980354480e+00
-2.443932659307543e-19  1.060914878932625e-17  4.351956961064455e-01
-1.016328980354480e+00  4.351956961064455e-01  9.618128821219560e-18

 1.113946263604340e-17  2.824175928174208e-19 -9.600068583934575e-01
 2.824175928174208e-19  7.918487313962083e-18  4.803944675877976e-01
-9.600068583934575e-01  4.803944675877976e-01  4.579596469344683e-18

 1.224893771266943e-17 -1.802904551001258e-20 -9.928362787434059e-01
-1.802904551001258e-20  1.235506772732835e-17  3.701073528778073e-01
-9.928362787434059e-01  3.701073528778073e-01  8.699578617745089e-18

 1.091903461054217e-17 -1.876380309974933e-19 -9.265487968096039e-01
-1.876380309974933e-19  1.367722015418565e-17  3.259604374254563e-01
-9.265487968096039e-01  3.259604374254563e-01  5.679100166256113e-18

 1.751930134159418e-17  8.776506841913171e-20 -1.194487505825199e+00
 8.776506841913171e-20  2.060435299999099e-17  1.351813850549154e-01
-1.194487505825199e+00  1.351813850549154e-01  2.494241149204953e-17

 8.550260997273192e-18  2.018404904655307e-19 -8.318265441764396e-01
 2.018404904655307e-19  6.509164524513564e-18  4.836351732520535e-01
-8.318265441764396e-01  4.836351732520535e-01 -1.727456507463878e-18

-6.016097813514098e-18  5.498580639874006e-19 -2.531107561000418e-01
 5.498580639874006e-19 -1.296827913680911e-17  9.650989125705112e-01
-2.531107561000418e-01  9.650989125705112e-01 -4.276628977565515e-17

 5.397581211377447e-18  1.591433724715555e-19 -6.966061987811779e-01
 1.591433724715555e-19  2.542260392504261e-18  5.797024752585479e-01
-6.966061987811779e-01  5.797024752585479e-01 -1.110651565800084e-17

 1.347381945112850e-17 -3.156142339689718e-19 -1.041359167906929e+00
-3.156142339689718e-19  1.852598400557235e-17  2.009112539664730e-01
-1.041359167906929e+00  2.009112539664730e-01  1.564213834574099e-17

 9.659783716612240e-18  2.468443600760484e-19 -8.827251967021175e-01
 2.468443600760484e-19  1.384872100793735e-17  2.910808300172816e-01
-8.827251967021175e-01  2.910808300172816e-01  3.153823545256775e-18

 7.975816884869692e-18  9.703824756351078e-19 -9.244175085643038e-01
 9.703824756351078e-19  1.100796181983379e-17  3.736901471222598e-01
-9.244175085643038e-01  3.736901471222598e-01  5.286186546174422e-18

 2.869813074950125e-17 -6.856315089475331e-18 -8.924497886741487e-01
-6.856315089475331e-18  8.946355069736810e-18  5.243719553305133e-01
-8.924497886741487e-01  5.243719553305133e-01  2.638917397370127e-18

-2.401136132412922e-19  4.004254433271443e-18 -9.750992754826369e-01
 4.004254433271443e-18  7.673270602355214e-18  4.506892761068904e-01
-9.750992754826369e-01  4.506892761068904e-01  7.119870987452163e-18

-1.132409618257451e-16  3.993341700782731e-17 -9.516883268966713e-01
 3.993341700782731e-17  6.047691952717413e-19  3.379764014681615e-01
-9.516883268966713e-01  3.379764014681615e-01  6.698167865688349e-18

-1.314364523855841e-16  5.529850573191523e-17 -9.949542948760247e-01
 5.529850573191523e-17 -4.169001927159329e-18  2.260180913708443e-01
-9.949542948760247e-01  2.260180913708443e-01  9.937512553591574e-18

-1.155312472045804e-16  5.433686974211937e-17 -9.663795027200613e-01
 5.433686974211937e-17 -9.624281889154426e-18  3.284583972568621e-01
-9.663795027200613e-01  3.284583972568621e-01  6.892665543772910e-18

 2.247194736556138e-16 -9.124746448028153e-17 -1.012026567925504e+00
-9.124746448028153e-17  4.927218074992202e-17  4.417336784699575e-01
-1.012026567925504e+00  4.417336784699575e-01  9.342126897540448e-18

-2.863465426908760e-18  6.157289181938616e-18 -9.615257934892556e-01
 6.157289181938616e-18  5.345026331135821e-18  4.804879692070461e-01
-9.615257934892556e-01  4.804879692070461e-01  4.646518117115437e-18

 1.872156444203934e-17 -2.903342867542547e-18 -9.943324185252084e-01
-2.903342867542547e-18  1.354552741407333e-17  3.695609212643895e-01
-9.943324185252084e-01  3.695609212643895e-01  8.739045180543750e-18

 1.470255156569261e-17 -1.878751270368823e-18 -9.281976333856181e-01
-1.878751270368823e-18  1.432685885201539e-17  3.257611949424751e-01
-9.281976333856181e-01  3.257611949424751e-01  5.713899236040732e-18

 1.732916347371573e-17  4.899804614921712e-20 -1.194806134122979e+00
 4.899804614921712e-20  2.051673730845457e-17  1.364016014624916e-01
-1.194806134122979e+00  1.364016014624916e-01  2.489448543661741e-17

 8.633168616996574e-18  7.766046599089317e-20 -8.334030863335574e-01
 7.766046599089317e-20  6.511590877089239e-18  4.828884633722653e-01
-8.334030863335574e-01  4.828884633722653e-01 -1.697870693480179e-18

-6.134149399699296e-18  5.702610214851141e-19 -2.562934256041964e-01
 5.702610214851141e-19 -1.296639006395174e-17  9.623826165808430e-01
-2.562934256041964e-01  9.623826165808430e-01 -4.265411199782783e-17

 5.202678228693296e-18  1.496404800330839e-19 -6.993695552068395e-01
 1.496404800330839e-19  2.588389250827476e-18  5.768767603279706e-01
-6.993695552068395e-01  5.768767603279706e-01 -1.098088432851969e-17

 1.416950287290265e-17 -6.454551119623971e-19 -1.041571937337258e+00
-6.454551119623971e-19  1.860394177570693e-17  2.002201467920677e-01
-1.041571937337258e+00  2.002201467920677e-01  1.559373349373837e-17

 9.668482944127871e-18  1.492655893757477e-19 -8.823037163604986e-01
 1.492655893757477e-19  1.381012890864196e-17  2.912158824656232e-01
-8.823037163604986e-01  2.912158824656232e-01  3.054901959628834e-18

 1.055150435968686e-17  1.508868565507305e-20 -9.242827846059598e-01
 1.508868565507305e-20  1.125692581334363e-17  3.737061188240740e-01
-9.242827846059598e-01  3.737061188240740e-01  5.202301712128439e-18

 9.798356092625219e-18 -5.031954171324842e-19 -8.922451720056668e-01
-5.031954171324842e-19  6.679710161681090e-18  5.247044496273177e-01
-8.922451720056668e-01  5.247044496273177e-01  2.548626361844160e-18

 1.115824245508122e-17  1.857761753590021e-19 -9.750092753998681e-01
 1.857761753590021e-19  8.839237845369342e-18  4.509394107892513e-01
-9.750092753998681e-01  4.509394107892513e-01  7.032999322134438e-18

 1.024376833466602e-17  2.198213077012763e-19 -9.517585767472133e-01
 2.198213077012763e-19  1.314207696141694e-17  3.380235336888476e-01
-9.517585767472133e-01  3.380235336888476e-01  6.619593108572953e-18

 1.221396505024857e-17 -2.077341352148531e-20 -9.951122456962159e-01
-2.077341352148531e-20  1.734237333992937e-17  2.261134395280409e-01
-9.951122456962159e-01  2.261134395280409e-01  9.857685737515740e-18

 1.292941868669187e-17 -6.636715515601362e-19 -9.663696083809602e-01
-6.636715515601362e-19  1.378859026726275e-17  3.290323739724186e-01
-9.663696083809602e-01  3.290323739724186e-01  6.797142578161933e-18

 6.960553260387787e-17 -2.565027240249559e-17 -1.012302704728690e+00
-2.565027240249559e-17  2.144860957577613e-17  4.421156713726840e-01
-1.012302704728690e+00  4.421156713726840e-01  9.259415080556835e-18

 1.808339622323410e-16 -7.505390858937614e-17 -9.616303017255469e-01
-7.505390858937614e-17  4.112676026890445e-17  4.809080094701887e-01
-9.616303017255469e-01  4.809080094701887e-01  4.545812041910004e-18

 2.870771100270116e-16 -1.219992473819150e-16 -9.942082383293662e-01
-1.219992473819150e-16  6.627012969747723e-17  3.700905849333063e-01
-9.942082383293662e-01  3.700905849333063e-01  8.621181676459930e-18

-1.331046677441413e-16  6.349122351755697e-17 -9.291591394614697e-01
 6.349122351755697e-17 -1.466322154807225e-17  3.252011191385066e-01
-9.291591394614697e-01  3.252011191385066e-01  5.673724895769337e-18

 5.110268306099182e-17 -1.507954396204142e-17 -1.193388731146192e+00
-1.507954396204142e-17  2.709247846423040e-17  1.386395018717265e-01
-1.193388731146192e+00  1.386395018717265e-01  2.466467317754523e-17

 4.191756444250524e-17 -1.490184342708691e-17 -8.295807909296650e-01
-1.490184342708691e-17  1.295019163291037e-17  4.875202708340793e-01
-8.295807909296650e-01  4.875202708340793e-01 -2.110224519734718e-18

-1.194724687290377e-17  3.000252491808475e-18 -2.565598989534322e-01
 3.000252491808475e-18 -1.412144997664138e-17  9.632378035984313e-01
-2.565598989534322e-01  9.632378035984313e-01 -4.276143390795880e-17

 5.248464594042674e-18 -2.895880520337976e-21 -6.998990044883051e-01
-2.895880520337976e-21  2.592998661301313e-18  5.773156490582133e-01
-6.998990044883051e-01  5.773156490582133e-01 -1.106365631519705e-17

 1.267276609771377e-17 -1.267397057148918e-19 -1.042081768187396e+00
-1.267397057148918e-19  1.831458608605296e-17  2.008213254899769e-01
-1.042081768187396e+00  2.008213254899769e-01  1.550832352022973e-17

 7.050463758982345e-18  1.156194179620236e-18 -8.818566205483742e-01
 1.156194179620236e-18  1.329075013086225e-17  2.921722958995892e-01
-8.818566205483742e-01  2.921722958995892e-01  2.898593784611608e-18

 9.354843479738485e-18  3.891197989330245e-19 -9.234094866720528e-01
 3.891197989330245e-19  1.101386780779546e-17  3.749551433215635e-01
-9.234094866720528e-01  3.749551433215635e-01  5.010397280824008e-18

 9.486868714674725e-18 -5.315153312662209e-19 -8.910212018374883e-01
-5.315153312662209e-19  6.646808259929034e-18  5.253675712484945e-01
-8.910212018374883e-01  5.253675712484945e-01  2.335834777402078e-18

 1.104862818130944e-17  6.746120222043966e-20 -9.755237494177957e-01
 6.746120222043966e-20  8.970143221136563e-18  4.493290386886653e-01
-9.755237494177957e-01  4.493290386886653e-01  6.953689956474563e-18

 1.069489926740473e-17 -8.908430683190456e-20 -9.560474052766805e-01
-8.908430683190456e-20  1.332605277984523e-17  3.372406838728432e-01
-9.560474052766805e-01  3.372406838728432e-01  6.716113056325266e-18

 1.171759038721425e-17  7.931376427869670e-20 -1.001033056022671e+00
 7.931376427869670e-20  1.720540560232818e-17  2.302586940929917e-01
-1.001033056022671e+00  2.302586940929917e-01  1.009178728663972e-17

 1.071631906089269e-17  1.353368017455914e-19 -9.672368937125267e-01
 1.353368017455914e-19  1.343811109552502e-17  3.297855397257416e-01
-9.672368937125267e-01  3.297855397257416e-01  6.690445793368365e-18

 1.186420230292343e-17 -2.218374673700699e-19 -1.016291984020239e+00
-2.218374673700699e-19  1.040875347197117e-17  4.364093613419976e-01
-1.016291984020239e+00  4.364093613419976e-01  9.312746546389401e-18

 1.018631594493025e-17  3.106257124024538e-19 -9.603508124816366e-01
 3.106257124024538e-19  7.762095899963325e-18  4.809613306569680e-01
-9.603508124816366e-01  4.809613306569680e-01  4.300207380553003e-18

 1.129718624947490e-17  3.687111973048243e-22 -9.933814450408263e-01
 3.687111973048243e-22  1.220985099804026e-17  3.706351188502264e-01
-9.933814450408263e-01  3.706351188502264e-01  8.424989628436115e-18

 9.957139524238151e-18 -1.637818385210896e-19 -9.276880265052647e-01
-1.637818385210896e-19  1.351254819615401e-17  3.271377471599431e-01
-9.276880265052647e-01  3.271377471599431e-01  5.416544488279526e-18

 1.641215459270392e-17  1.519934491908647e-19 -1.194388590601478e+00
 1.519934491908647e-19  2.038008914420379e-17  1.379814948565215e-01
-1.194388590601478e+00  1.379814948565215e-01  2.459294764742236e-17

 7.509560925482131e-18  2.444299775604569e-19 -8.337591306342912e-01
 2.444299775604569e-19  6.382718087211126e-18  4.841374945682004e-01
-8.337591306342912e-01  4.841374945682004e-01 -1.950030387657628e-18

-6.921268794341284e-18  5.835472969912104e-19 -2.568380234932436e-01
 5.835472969912104e-19 -1.302688600116957e-17  9.634892733173289e-01
-2.568380234932436e-01  9.634892733173289e-01 -4.288815682499255e-17

 4.259859711718246e-18  2.464979925684349e-19 -6.993263461710730e-01
 2.464979925684349e-19  2.475528079489905e-18  5.784173865350267e-01
-6.993263461710730e-01  5.784173865350267e-01 -1.126248885498496e-17

 1.312617938188724e-17 -5.189152246475814e-19 -1.041936840158705e+00
-5.189152246475814e-19  1.849290323803216e-17  2.015051618342180e-01
-1.041936840158705e+00  2.015051618342180e-01  1.533739613885671e-17

 8.768002465530973e-18  2.101585972663944e-19 -8.824960137384795e-01
 2.101585972663944e-19  1.374612639828776e-17  2.923776788598742e-01
-8.824960137384795e-01  2.923776788598742e-01  2.780986638820512e-18

 9.712429346751335e-18  5.242334048179197e-20 -9.244752564263891e-01
 5.242334048179197e-20  1.121367749355660e-17  3.749359688290400e-01
-9.244752564263891e-01  3.749359688290400e-01  4.916197423992973e-18

 9.030969194430854e-18 -5.135434905500751e-19 -8.922759418116860e-01
-5.135434905500751e-19  6.662648468101230e-18  5.260568703547066e-01
-8.922759418116860e-01  5.260568703547066e-01  2.246633716029914e-18

 1.057748322144733e-17  8.733632543495252e-20 -9.752150657465669e-01
 8.733632543495252e-20  8.872411371656408e-18  4.524244443270348e-01
-9.752150657465669e-01  4.524244443270348e-01  6.724870054964664e-18

 1.015834813119956e-17 -1.031374235206246e-19 -9.520884615648768e-01
-1.031374235206246e-19  1.329567676440940e-17  3.394272994492560e-01
-9.520884615648768e-01  3.394272994492560e-01  6.307375545266170e-18

 1.103362309557440e-17  1.333727670242616e-19 -9.955246453748530e-01
 1.333727670242616e-19  1.729914718410924e-17  2.275443075989005e-01
-9.955246453748530e-01  2.275443075989005e-01  9.534480280238446e-18

 1.007267515205331e-17  2.131342136549544e-19 -9.669758802718585e-01
 2.131342136549544e-19  1.343916733717357e-17  3.307281753648090e-01
-9.669758802718585e-01  3.307281753648090e-01  6.475005908823504e-18

 1.114478374300819e-17 -1.975398587826356e-19 -1.013227555205402e+00
-1.975398587826356e-19  1.025527478526669e-17  4.439300132227166e-01
-1.013227555205402e+00  4.439300132227166e-01  8.940142223160991e-18

 9.301430983531807e-18  4.659219781651113e-19 -9.628259968906370e-01
 4.659219781651113e-19  7.789497201461466e-18  4.826651492438386e-01
-9.628259968906370e-01  4.826651492438386e-01  4.223249960728052e-18

 8.013992000372083e-18  1.060937137456075e-18 -9.958933941952905e-01
 1.060937137456075e-18  1.193208613464633e-17  3.716066709713764e-01
-9.958933941952905e-01  3.716066709713764e-01  8.322609976880578e-18

 4.948751443307808e-18  1.543700626130845e-18 -9.303752790929994e-01
 1.543700626130845e-18  1.302838803785608e-17  3.277214064486246e-01
-9.303752790929994e-01  3.277214064486246e-01  5.314237752756873e-18

-5.868298661968520e-17  2.827850855986187e-17 -1.195420501890545e+00
 2.827850855986187e-17  9.875316330250526e-18  1.403243189574547e-01
-1.195420501890545e+00  1.403243189574547e-01  2.435537839330291e-17

-3.873964286882099e-17  1.748438531723882e-17 -8.325775876701051e-01
 1.748438531723882e-17 -8.641316723688423e-20  4.882426631416406e-01
-8.325775876701051e-01  4.882426631416406e-01 -2.366203669909164e-18

-1.850992731116933e-17  4.751301896415755e-18 -2.559295063008816e-01
 4.751301896415755e-18 -1.451837427298161e-17  9.666489910858601e-01
-2.559295063008816e-01  9.666489910858601e-01 -4.326966987918457e-17

-2.041702286928829e-17  9.366526490776991e-18 -7.002088400527137e-01
 9.366526490776991e-18 -8.355401226864076e-19  5.803754029285028e-01
-7.002088400527137e-01  5.803754029285028e-01 -1.153517450093574e-17

-1.076524778484086e-18  4.676420344058122e-18 -1.046739422881104e+00
 4.676420344058122e-18  1.677778943198868e-17  2.011754063121196e-01
-1.046739422881104e+00  2.011754063121196e-01  1.534395875601394e-17

 8.474737300274430e-18  1.306537405665309e-19 -8.858451608758349e-01
 1.306537405665309e-19  1.400713948222388e-17  2.928300693315736e-01
-8.858451608758349e-01  2.928300693315736e-01  2.671913709554937e-18

 8.893670193954904e-18  1.733700528982848e-19 -9.289695483032845e-01
 1.733700528982848e-19  1.139690878574909e-17  3.762329790749578e-01
-9.289695483032845e-01  3.762329790749578e-01  4.854165906038916e-18

 8.168331032206157e-18 -3.330933599449656e-19 -8.994447619146149e-01
-3.330933599449656e-19  6.862144327813827e-18  5.268697519682127e-01
-8.994447619146149e-01  5.268697519682127e-01  2.310349658663828e-18

 1.020791432075464e-17  1.287983935212222e-19 -9.865416741715020e-01
 1.287983935212222e-19  9.165869785711427e-18  4.522866770467563e-01
-9.865416741715020e-01  4.522866770467563e-01  7.034446398539821e-18

 9.798995309066658e-18 -7.557392960773902e-20 -9.659509689388376e-01
-7.557392960773902e-20  1.331936287744355e-17  3.470555305624283e-01
-9.659509689388376e-01  3.470555305624283e-01  6.790775698873489e-18

 1.024577045190017e-17  1.373604296858591e-20 -9.905048904999794e-01
 1.373604296858591e-20  1.638138818072793e-17  2.636729461990342e-01
-9.905048904999794e-01  2.636729461990342e-01  8.942291260882432e-18

 8.537241628046442e-18  8.129307467044670e-20 -9.283621759534756e-01
 8.129307467044670e-20  1.146709944140100e-17  3.896816772659848e-01
-9.283621759534756e-01  3.896816772659848e-01  3.486782747379351e-18

 9.041094798527772e-18  5.287985341301657e-20 -9.595063381175784e-01
 5.287985341301657e-20  9.716458955651261e-18  4.452410092269761e-01
-9.595063381175784e-01  4.452410092269761e-01  4.619634277530426e-18

 1.101426177680224e-17  3.775193744120066e-20 -1.046134123618791e+00
 3.775193744120066e-20  1.511184877201489e-17  3.103057263959217e-01
-1.046134123618791e+00  3.103057263959217e-01  1.103099472410035e-17

 1.077385457604368e-17  8.394320121290501e-20 -1.041926646813653e+00
 8.394320121290501e-20  1.467962771070131e-17  3.218059300118091e-01
-1.041926646813653e+00  3.218059300118091e-01  1.041922850831283e-17

 8.460331623295547e-18  6.881311089647402e-20 -9.578757524681962e-01
 6.881311089647402e-20  9.180837392466731e-18  4.664893223039933e-01
-9.578757524681962e-01  4.664893223039933e-01  3.311477649134196e-18

 8.094681607108396e-18 -9.494433684759702e-21 -9.454742120668423e-01
-9.494433684759702e-21  1.183962787218026e-17  3.989401926605394e-01
-9.454742120668423e-01  3.989401926605394e-01  3.049426561823194e-18

 9.587614864148395e-18  1.989259262427812e-19 -1.014816556180554e+00
 1.989259262427812e-19  1.654292090543919e-17  2.730941985433094e-01
-1.014816556180554e+00  2.730941985433094e-01  8.091742351074954e-18

 8.811279750527103e-18  1.066413204990967e-19 -9.900993347727457e-01
 1.066413204990967e-19  1.299567123180805e-17  3.773123179814578e-01
-9.900993347727457e-01  3.773123179814578e-01  5.357686251354549e-18

 9.616652278364503e-18 -3.493555890710432e-19 -1.027069102231024e+00
-3.493555890710432e-19  9.889028352877080e-18  4.942632152907493e-01
-1.027069102231024e+00  4.942632152907493e-01  7.272626311437337e-18

 7.888608711400798e-18  1.545648880333622e-19 -9.704446082729704e-01
 1.545648880333622e-19  7.825903967684400e-18  5.275666914238927e-01
-9.704446082729704e-01  5.275666914238927e-01  2.369373008481832e-18

 8.224173076808423e-18 -6.825918799241367e-20 -9.740569917384886e-01
-6.825918799241367e-20  1.191831375958520e-17  4.230450317976098e-01
-9.740569917384886e-01  4.230450317976098e-01  4.444406461613296e-18

 8.926506954929137e-18  4.440925375878001e-20 -1.002056580637807e+00
 4.440925375878001e-20  1.711718920558981e-17  2.771998676907547e-01
-1.002056580637807e+00  2.771998676907547e-01  7.640318439328679e-18

 1.187823794362823e-17  3.768358038623287e-19 -1.133504362882087e+00
 3.768358038623287e-19  1.813185278437946e-17  2.421074330934045e-01
-1.133504362882087e+00  2.421074330934045e-01  1.612081044760677e-17

 2.478626367785041e-18 -3.922318426002684e-19 -7.375707805830334e-01
-3.922318426002684e-19  3.354775460001348e-18  6.513332580323972e-01
-7.375707805830334e-01  6.513332580323972e-01 -1.165396586102873e-17

 1.117399567264093e-18 -1.563187091997078e-19 -6.927237900461809e-01
-1.563187091997078e-19 -1.256773870326546e-19  7.362016936824668e-01
-6.927237900461809e-01  7.362016936824668e-01 -1.566317203648099e-17

 7.916641633112134e-18  2.786294329722874e-19 -9.785735223817890e-01
 2.786294329722874e-19  1.557980601361540e-17  3.200065540453270e-01
-9.785735223817890e-01  3.200065540453270e-01  4.910628859428699e-18

 1.501300977646522e-17  1.518398544898598e-18 -1.298909839894198e+00
 1.518398544898598e-18  2.757567060315590e-17 -2.949176515942946e-02
-1.298909839894198e+00 -2.949176515942946e-02  2.453907746294182e-17

 8.413494173228440e-18  1.154301666949416e-18 -1.036449946332328e+00
 1.154301666949416e-18  1.658077986400865e-17  2.799040881073149e-01
-1.036449946332328e+00  2.799040881073149e-01  5.249723502561932e-18

 9.664906487812970e-18 -5.659992816868936e-19 -1.070518296650212e+00
-5.659992816868936e-19  1.300535837749527e-17  4.745267784886074e-01
-1.070518296650212e+00  4.745267784886074e-01  9.477282956172488e-18

 6.878770009763808e-18 -1.322289976147311e-18 -9.670323941961058e-01
-1.322289976147311e-18  5.055941690953805e-18  7.443749983382814e-01
-9.670323941961058e-01  7.443749983382814e-01  1.330536590043821e-18

 1.092060498836239e-17 -6.698887055784919e-20 -1.163763880621059e+00
-6.698887055784919e-20  1.168346733237636e-17  5.295300231164736e-01
-1.163763880621059e+00  5.295300231164736e-01  1.217292151692254e-17

 1.232293220788350e-17 -1.640808439600675e-19 -1.215643944393334e+00
-1.640808439600675e-19  1.812354847761901e-17  3.556491895661961e-01
-1.215643944393334e+00  3.556491895661961e-01  1.686400118416029e-17

 8.744688552952933e-18 -1.492905401684509e-19 -1.070186798960301e+00
-1.492905401684509e-19  1.753365217675745e-17  3.568037591096254e-01
-1.070186798960301e+00  3.568037591096254e-01  7.457790906530801e-18

 9.637345942262233e-18  7.617485253604526e-20 -1.118382783034949e+00
 7.617485253604526e-20  1.931744718259366e-17  3.017687073062507e-01
-1.118382783034949e+00  3.017687073062507e-01  1.072768588692304e-17

 9.013432810432846e-18  1.465573310178632e-20 -1.114559306014554e+00
 1.465573310178632e-20  1.423005277745551e-17  4.569143657571479e-01
-1.114559306014554e+00  4.569143657571479e-01  8.542187067680486e-18

 9.766154341803662e-18  3.393956663319455e-19 -1.168922684018473e+00
 3.393956663319455e-19  1.579160523532481e-17  4.112696137943938e-01
-1.168922684018473e+00  4.112696137943938e-01  1.145988262995456e-17

 3.048452187137952e-18  7.429621340647677e-19 -9.166757911934168e-01
 7.429621340647677e-19  6.870127081743117e-18  6.269228398385206e-01
-9.166757911934168e-01  6.269228398385206e-01 -7.687847005723397e-18

 1.439008703191995e-17 -2.601371469413115e-19 -1.349097830736339e+00
-2.601371469413115e-19  2.547721141874287e-17  1.761585960603977e-01
-1.349097830736339e+00  1.761585960603977e-01  2.616456793979952e-17

 1.874565923001221e-17 -3.433563371393868e-19 -1.524827825513244e+00
-3.433563371393868e-19  3.178530935682911e-17  1.326024968400524e-02
-1.524827825513244e+00  1.326024968400524e-02  3.865754964960700e-17

 3.946004100156726e-18 -1.573796772132210e-19 -9.466160867447760e-01
-1.573796772132210e-19  8.538385133544601e-18  6.141641270956970e-01
-9.466160867447760e-01  6.141641270956970e-01 -4.193110382692780e-18

 4.890464983938198e-18  1.060055119020170e-19 -9.951518133336518e-01
 1.060055119020170e-19  1.065023175585671e-17  5.457258830182384e-01
-9.951518133336518e-01  5.457258830182384e-01 -1.055243878405643e-18

 9.006716365962415e-18 -1.780592693625241e-19 -1.156602307402582e+00
-1.780592693625241e-19  2.073169415185580e-17  2.917225855204091e-01
-1.156602307402582e+00  2.917225855204091e-01  1.223245755459123e-17

 6.931892091686977e-18  3.171813063604109e-19 -1.093675924694352e+00
 3.171813063604109e-19  1.751867465637677e-17  3.598441737884999e-01
-1.093675924694352e+00  3.598441737884999e-01  6.226885045467827e-18

 8.319991635576776e-18  3.946950556005074e-19 -1.161319389730126e+00
 3.946950556005074e-19  1.693052395774989e-17  3.820838510454012e-01
-1.161319389730126e+00  3.820838510454012e-01  1.030118433312230e-17

 6.645033719964888e-18  2.077510426333260e-19 -1.102560736380198e+00
 2.077510426333260e-19  1.118465693738011e-17  5.510781577047696e-01
-1.102560736380198e+00  5.510781577047696e-01  5.495260524921030e-18

-2.425492689999259e-19  1.109101687832684e-18 -8.597939372329849e-01
 1.109101687832684e-18  3.180056828191543e-18  7.305076816796324e-01
-8.597939372329849e-01  7.305076816796324e-01 -1.246014527290843e-17

 1.423280939251840e-17 -9.529656516461491e-19 -1.386051453569890e+00
-9.529656516461491e-19  2.899035633683407e-17  1.202555200051700e-01
-1.386051453569890e+00  1.202555200051700e-01  2.789528815010423e-17

 1.466457867643815e-17 -5.128711489764070e-19 -1.418067324628034e+00
-5.128711489764070e-19  3.228650939590728e-17  1.351128295706868e-02
-1.418067324628034e+00  1.351128295706868e-02  2.943607451433464e-17

 2.007501574443766e-18 -7.106205505096488e-19 -9.246913475788631e-01
-7.106205505096488e-19  1.290767638421145e-17  5.403136904235617e-01
-9.246913475788631e-01  5.403136904235617e-01 -5.377712017204067e-18

 6.900293955070825e-18 -4.767557790329630e-19 -1.160445964380996e+00
-4.767557790329630e-19  1.540475627719509e-17  4.980250435261919e-01
-1.160445964380996e+00  4.980250435261919e-01  8.507364985538212e-18

 6.943564608076357e-18 -1.743936447036687e-19 -1.192194768497110e+00
-1.743936447036687e-19  1.510578657446348e-17  5.105733179273610e-01
-1.192194768497110e+00  5.105733179273610e-01  8.841912915727816e-18

 7.138340920547356e-18 -6.123727077603771e-20 -1.209396873410512e+00
-6.123727077603771e-20  1.630382536217877e-17  4.736670371992709e-01
-1.209396873410512e+00  4.736670371992709e-01  1.011351256027511e-17

 6.347312452271669e-18 -7.087372503206991e-20 -1.183376362423110e+00
-7.087372503206991e-20  1.682552594853728e-17  4.521131902443608e-01
-1.183376362423110e+00  4.521131902443608e-01  8.968617594341178e-18

 3.562889633242957e-18 -2.120639637599436e-19 -1.072051771763910e+00
-2.120639637599436e-19  1.569017578241433e-17  4.561203701406460e-01
-1.072051771763910e+00  4.561203701406460e-01  3.318930654496358e-18

 2.793281009050248e-18 -4.009269463976653e-19 -1.042364777612579e+00
-4.009269463976653e-19  1.960038212653812e-17  3.359271321117018e-01
-1.042364777612579e+00  3.359271321117018e-01  3.931805447526397e-18

 5.757929317511722e-18  1.458332521190034e-19 -1.187117588164337e+00
 1.458332521190034e-19  2.167073116653980e-17  2.612822821870517e-01
-1.187117588164337e+00  2.612822821870517e-01  1.328656520062681e-17

-5.743824616070165e-18 -2.218288019357211e-19 -7.251117632178573e-01
-2.218288019357211e-19  1.925028556325284e-18  7.865353042921297e-01
-7.251117632178573e-01  7.865353042921297e-01 -1.981348951446124e-17

-9.604131564992628e-18  3.948047640889482e-19 -5.918698240840914e-01
 3.948047640889482e-19 -3.313313124621299e-18  8.980064203268756e-01
-5.918698240840914e-01  8.980064203268756e-01 -2.975302809691158e-17

 1.379897348247986e-18 -8.345865434590383e-19 -1.013071797334881e+00
-8.345865434590383e-19  1.781981180409164e-17  3.882221044151286e-01
-1.013071797334881e+00  3.882221044151286e-01  2.868368055019611e-18

 4.932789459787148e-18 -7.384092799174244e-19 -1.172237932113106e+00
-7.384092799174244e-19  2.738768784268078e-17  1.337032363753201e-01
-1.172237932113106e+00  1.337032363753201e-01  1.486584467941426e-17

-6.817848599700248e-19 -2.925383892808072e-19 -9.734617742856145e-01
-2.925383892808072e-19  1.745139739429205e-17  3.736340219200770e-01
-9.734617742856145e-01  3.736340219200770e-01 -6.564105256929355e-19

-7.909533128293552e-18 -8.764429856666136e-19 -6.878933528273568e-01
-8.764429856666136e-19  3.425382911462198e-18  7.640832064929340e-01
-6.878933528273568e-01  7.640832064929340e-01 -2.125905870015489e-17

-1.261559460185104e-17 -5.817144053645756e-19 -5.161117102265460e-01
-5.817144053645756e-19 -2.511499162768327e-18  9.084935593914995e-01
-5.161117102265460e-01  9.084935593914995e-01 -3.426969636682544e-17

-9.649769921694783e-19 -5.493002430024643e-19 -1.006134380815710e+00
-5.493002430024643e-19  1.843862772197712e-17  3.740354481900853e-01
-1.006134380815710e+00  3.740354481900853e-01  1.032234083287738e-18

 9.708715586931029e-18 -1.268200503079644e-19 -1.466134273712350e+00
-1.268200503079644e-19  3.611720219086031e-17 -8.861756217486294e-02
-1.466134273712350e+00 -8.861756217486294e-02  3.268647288410405e-17

-8.823664963011787e-19 -2.504522674608061e-19 -1.053168472296480e+00
-2.504522674608061e-19  2.190053883362806e-17  2.830330668647061e-01
-1.053168472296480e+00  2.830330668647061e-01  3.107576741233290e-18

-2.597580200633397e-18 -1.112343804911666e-18 -1.016454718334755e+00
-1.112343804911666e-18  1.629721287960403e-17  4.880564311243661e-01
-1.016454718334755e+00  4.880564311243661e-01 -5.709785937454521e-19

-1.966773048928792e-18 -8.866434983392973e-19 -1.084123895043410e+00
-8.866434983392973e-19  1.833107176418692e-17  4.425622691669149e-01
-1.084123895043410e+00  4.425622691669149e-01  2.539995006907551e-18

-1.676938155524737e-18 -7.789787268143430e-19 -1.131488649216127e+00
-7.789787268143430e-19  1.966570166814864e-17  4.128910527177643e-01
-1.131488649216127e+00  4.128910527177643e-01  4.973809861749327e-18

-5.754170082023288e-18 -4.670758984682912e-19 -1.010969292412429e+00
-4.670758984682912e-19  1.448036988168266e-17  5.352436086350820e-01
-1.010969292412429e+00  5.352436086350820e-01 -5.009620060460710e-18

-5.698534292217526e-18 -8.804636278148894e-19 -1.033861701662113e+00
-8.804636278148894e-19  1.846133510370861e-17  4.400949471906577e-01
-1.033861701662113e+00  4.400949471906577e-01 -2.099210199517832e-18

-7.731771939958432e-18 -1.463284173953153e-18 -9.922537896361211e-01
-1.463284173953153e-18  1.999604840123696e-17  4.069299596031383e-01
-9.922537896361211e-01  4.069299596031383e-01 -3.865266634017639e-18

-1.222050226219033e-17 -1.192021499220380e-18 -8.671839303609906e-01
-1.192021499220380e-18  1.435068564538065e-17  5.306591948928678e-01
-8.671839303609906e-01  5.306591948928678e-01 -1.380972748775687e-17

-1.416317659158584e-17 -1.568596477476982e-18 -8.244857461590414e-01
-1.568596477476982e-18  1.618985884221782e-17  4.904148865526013e-01
-8.244857461590414e-01  4.904148865526013e-01 -1.635282768179900e-17

-1.110218259868637e-17 -2.050420508735572e-18 -9.822430846859259e-01
-2.050420508735572e-18  2.575455205542411e-17  2.655230730784632e-01
-9.822430846859259e-01  2.655230730784632e-01 -4.355198734627166e-18

-1.399294688681115e-17 -1.448823009373936e-18 -9.412977151831419e-01
-1.448823009373936e-18  2.418472428453786e-17  2.839362559220129e-01
-9.412977151831419e-01  2.839362559220129e-01 -1.021210004836383e-17

-1.480926438036364e-17 -2.043604458301273e-18 -9.632102805663693e-01
-2.043604458301273e-18  2.090474365454229e-17  4.080378801219429e-01
-9.632102805663693e-01  4.080378801219429e-01 -1.034987174115203e-17

-1.598061218369505e-17 -2.770087629442327e-18 -9.448066019961099e-01
-2.770087629442327e-18  1.833854199717192e-17  5.167614205877150e-01
-9.448066019961099e-01  5.167614205877150e-01 -1.219877464447947e-17

-1.584663795132627e-17 -2.990080325120110e-18 -1.020849017359841e+00
-2.990080325120110e-18  1.931891207782991e-17  5.210122792115812e-01
-1.020849017359841e+00  5.210122792115812e-01 -9.384241010823789e-18

-1.365621709921347e-17 -2.730526437891649e-18 -1.182909782026993e+00
-2.730526437891649e-18  2.475095037390262e-17  3.840491260767115e-01
-1.182909782026993e+00  3.840491260767115e-01 -2.888139305140546e-19

-1.616742313835291e-17 -2.870627787223009e-18 -1.220480038688004e+00
-2.870627787223009e-18  2.351446126491681e-17  4.366428411772881e-01
-1.220480038688004e+00  4.366428411772881e-01 -1.836223957691456e-18

-2.595465915410413e-17 -3.352784060492711e-18 -1.021430242871326e+00
-3.352784060492711e-18  2.092640756013709e-17  4.838574100312915e-01
-1.021430242871326e+00  4.838574100312915e-01 -1.827776096482796e-17

-1.743241067812681e-17 -6.650014861422957e-18 -1.400689058068239e+00
-6.650014861422957e-18  4.269189169781633e-17  2.340534882409920e-02
-1.400689058068239e+00  2.340534882409920e-02  1.091096302964001e-17

-2.104749961319023e-17 -6.101993211181713e-18 -1.339087535874580e+00
-6.101993211181713e-18  4.166865159825788e-17  1.330614234692579e-02
-1.339087535874580e+00  1.330614234692579e-02  4.486985420164587e-18

-3.241381181036374e-17 -6.317073317047749e-18 -1.015572852077161e+00
-6.317073317047749e-18  2.328844560024623e-17  4.797666571514383e-01
-1.015572852077161e+00  4.797666571514383e-01 -2.142855334285330e-17

-3.597404145267963e-17 -6.784927040477337e-18 -1.066767826298275e+00
-6.784927040477337e-18  1.797241210981111e-17  6.164988561353779e-01
-1.066767826298275e+00  6.164988561353779e-01 -2.324224290077913e-17

-3.379630651057582e-17 -8.435085566059124e-18 -1.315333785935110e+00
-8.435085566059124e-18  3.074334594835413e-17  3.069946807180705e-01
-1.315333785935110e+00  3.069946807180705e-01 -6.760437605882126e-18

-3.771743690950074e-17 -9.492804224637328e-18 -1.282415252305443e+00
-9.492804224637328e-18  3.045436335176113e-17  3.101654315453942e-01
-1.282415252305443e+00  3.101654315453942e-01 -1.078837664547549e-17

-4.887632765029315e-17 -1.079047089760976e-17 -1.063911168588842e+00
-1.079047089760976e-17  2.136976374657449e-17  5.083472284542975e-01
-1.063911168588842e+00  5.083472284542975e-01 -3.057964299915108e-17

-5.985058906372087e-17 -1.346862732874534e-17 -8.540127969212912e-01
-1.346862732874534e-17  1.923569413388585e-17  5.590015564758998e-01
-8.540127969212912e-01  5.590015564758998e-01 -4.770329118325081e-17

-5.963879819167201e-17 -1.537050249087705e-17 -9.443087056792955e-01
-1.537050249087705e-17  2.595140126000183e-17  4.365279525226404e-01
-9.443087056792955e-01  4.365279525226404e-01 -4.094662631689883e-17

-5.406234299009708e-17 -1.786326763608012e-17 -1.266072010566134e+00
-1.786326763608012e-17  4.085467442945144e-17  1.359521887685824e-01
-1.266072010566134e+00  1.359521887685824e-01 -1.761823861050933e-17

-6.555545894478784e-17 -1.932235348717012e-17 -1.088431410465907e+00
-1.932235348717012e-17  3.156516421890612e-17  3.000152248592430e-01
-1.088431410465907e+00  3.000152248592430e-01 -3.577125586268013e-17

-7.755030677797661e-17 -2.209522988079747e-17 -1.014602752244536e+00
-2.209522988079747e-17  1.464155838155854e-17  6.088192252250713e-01
-1.014602752244536e+00  6.088192252250713e-01 -4.895111227446518e-17

-8.881070699805777e-17 -2.541586705203430e-17 -9.458555744286347e-01
-2.541586705203430e-17  1.320890981821080e-17  6.003757504417131e-01
-9.458555744286347e-01  6.003757504417131e-01 -5.921512961818314e-17

-9.169791271842497e-17 -3.101517490404032e-17 -1.061212475670783e+00
-3.101517490404032e-17  2.541232218379713e-17  4.259432022624762e-01
-1.061212475670783e+00  4.259432022624762e-01 -5.152248976765056e-17

-1.072464524437570e-16 -4.031461179884194e-17 -9.303624111461671e-01
-4.031461179884194e-17  3.839377124810609e-17  3.704336571468747e-01
-9.303624111461671e-01  3.704336571468747e-01 -6.360265697742255e-17

-1.229049931212942e-16 -4.960658209450394e-17 -1.016747265113257e+00
-4.960658209450394e-17  5.093633306804901e-17  2.123512475894328e-01
-1.016747265113257e+00  2.123512475894328e-01 -6.561764524067988e-17

-1.366871051059272e-16 -5.449267811462611e-17 -8.627987550552279e-01
-5.449267811462611e-17  3.558698549893570e-17  4.471939491485077e-01
-8.627987550552279e-01  4.471939491485077e-01 -8.327662269339725e-17

-1.505728434393858e-16 -5.684724015504087e-17 -5.039210705664329e-01
-5.684724015504087e-17  1.093577077954632e-17  8.199823868545412e-01
-5.039210705664329e-01  8.199823868545412e-01 -1.130845265887826e-16

-1.585136938411088e-16 -6.477120804953476e-17 -7.554171634603113e-01
-6.477120804953476e-17  2.594156387118004e-17  6.005650607949604e-01
-7.554171634603113e-01  6.005650607949604e-01 -1.022020328189348e-16

-1.788509623724239e-16 -8.076927500751121e-17 -9.983598903109445e-01
-8.076927500751121e-17  4.756648189193529e-17  3.112753455328601e-01
-9.983598903109445e-01  3.112753455328601e-01 -9.700645911513139e-17

-2.099029890945696e-16 -9.590880321141799e-17 -8.000980258387786e-01
-9.590880321141799e-17  3.101612149269056e-17  4.978826292857981e-01
-8.000980258387786e-01  4.978826292857981e-01 -1.274116470515422e-16

-2.311635237930721e-16 -1.047917372015532e-16 -5.617397473387674e-01
-1.047917372015532e-16  1.424940556641455e-17  6.593188667036142e-01
-5.617397473387674e-01  6.593188667036142e-01 -1.544928420130226e-16

-2.448723589408888e-16 -1.191377346993493e-16 -1.116626441499164e+00
-1.191377346993493e-16  6.597715599536764e-17  1.418627231490343e-01
-1.116626441499164e+00  1.418627231490343e-01 -1.266769678475966e-16

-2.700352703193898e-16 -1.381739441702193e-16 -1.368603168581769e+00
-1.381739441702193e-16  6.471108143179674e-17 -7.735287221026601e-03
-1.368603168581769e+00 -7.735287221026601e-03 -1.291760544807416e-16

-2.927576113586636e-16 -1.396420280758482e-16 -7.076072199480595e-01
-1.396420280758482e-16 -5.938698621354584e-17  8.429392806165844e-01
-7.076072199480595e-01  8.429392806165844e-01 -1.819165459214897e-16

-3.383621932833923e-16 -1.756888630445239e-16 -9.233299011416307e-01
-1.756888630445239e-16 -6.199089223606972e-17  6.771692909192096e-01
-9.233299011416307e-01  6.771692909192096e-01 -1.959972636293371e-16

-4.362709366569185e-16 -2.510072975700203e-16 -1.224706217503692e+00
-2.510072975700203e-16  5.938699465594079e-17  2.119302690347100e-01
-1.224706217503692e+00  2.119302690347100e-01 -2.137362076783855e-16

-4.964885471585520e-16 -2.873869619935356e-16 -1.030385835679976e+00
-2.873869619935356e-16  5.782852968095976e-17  3.218225641739659e-01
-1.030385835679976e+00  3.218225641739659e-01 -2.534493511970397e-16

-5.634841339998511e-16 -3.415192146074674e-16 -9.703623649720240e-01
-3.415192146074674e-16  7.896922836293344e-17  3.871210374118930e-01
-9.703623649720240e-01  3.871210374118930e-01 -3.067361629540228e-16

-7.070163732941917e-16 -4.194371284186304e-16 -9.745217938773834e-01
-4.194371284186304e-16  1.215275923165811e-16  3.984440757371807e-01
-9.745217938773834e-01  3.984440757371807e-01 -3.488247909215226e-16

-8.033112604159754e-16 -4.796047900940858e-16 -7.496225792050961e-01
-4.796047900940858e-16  1.125314913467346e-16  5.758585670769175e-01
-7.496225792050961e-01  5.758585670769175e-01 -4.066504644790560e-16

-9.183498467263586e-16 -5.322060428540220e-16 -9.995307525435596e-01
-5.322060428540220e-16  2.853119727370151e-16  3.358024402176086e-01
-9.995307525435596e-01  3.358024402176086e-01 -4.313250605380860e-16

-1.080523305137977e-15 -6.091987518957804e-16 -1.043946444851783e+00
-6.091987518957804e-16  4.407783137129447e-16  2.684833717717938e-01
-1.043946444851783e+00  2.684833717717938e-01 -4.905861714424679e-16

-1.445767404301514e-15 -8.031863904189075e-16 -8.510342183767384e-01
-8.031863904189075e-16  6.263987535534258e-16  4.536579556390719e-01
-8.510342183767384e-01  4.536579556390719e-01 -6.567721149595988e-16

-1.927838780145000e-15 -1.011942669110336e-15 -8.528345750098297e-01
-1.011942669110336e-15  1.040801041696619e-15  4.557714455526083e-01
-8.528345750098297e-01  4.557714455526083e-01 -8.557198341836841e-16

-2.981694574951827e-15 -1.322572625362229e-15 -8.469986089163853e-01
-1.322572625362229e-15  2.341823057544413e-15  3.837353558611389e-01
-8.469986089163853e-01  3.837353558611389e-01 -1.303834261356240e-15

-4.697115265177221e-15 -1.851443836111130e-15 -8.382825322730109e-01
-1.851443836111130e-15  4.094331213113912e-15  4.351425057075347e-01
-8.382825322730109e-01  4.351425057075347e-01 -2.088049161636518e-15

-7.094994318378992e-15 -2.425102665157374e-15 -9.415803579305452e-01
-2.425102665157374e-15  6.681290438702152e-15  3.707683776785146e-01
-9.415803579305452e-01  3.707683776785146e-01 -3.244076631053402e-15

-1.037034789907419e-14 -3.069832215113705e-15 -1.011837110681916e+00
-3.069832215113705e-15  9.759554134031141e-15  3.276719889121272e-01
-1.011837110681916e+00  3.276719889121272e-01 -4.878015825895215e-15

-1.634546354413992e-14 -3.712145054049331e-15 -1.243809328324647e+00
-3.712145054049331e-15  1.431385564700017e-14  2.113666119716379e-01
-1.243809328324647e+00  2.113666119716379e-01 -7.833785630241150e-15

-1.979090857910060e-14 -5.133170700914346e-15 -1.082766058797307e+00
-5.133170700914346e-15  1.604580576217262e-15  6.136902105718053e-01
-1.082766058797307e+00  6.136902105718053e-01 -1.107785139200900e-14

 3.172240362564332e-14 -6.061358709576510e-15 -1.203277891963391e+00
-6.061358709576510e-15  2.283524960909891e-14  5.401692988071674e-01
-1.203277891963391e+00  5.401692988071674e-01  4.136266747526865e-16

-6.874814656029548e-13 -1.681380784671143e-13 -1.027164607824301e+00
-1.681380784671143e-13 -3.340061772937001e-13  3.931912165718839e-01
-1.027164607824301e+00  3.931912165718839e-01 -2.504759363067525e-13

 1.450084667080029e-13  6.753049465606220e-14 -9.052885396758177e-01
 6.753049465606220e-14  1.785486266937059e-13  3.317990895616463e-01
-9.052885396758177e-01  3.317990895616463e-01  5.614252683047716e-14

-6.880544499749800e-13 -1.169191235405698e-13 -9.408499508613246e-01
-1.169191235405698e-13 -2.544096040659329e-13  2.841853385408349e-01
-9.408499508613246e-01  2.841853385408349e-01 -1.691120764841469e-13

 2.027052414385825e-14  2.425647381852596e-14 -7.581319455017426e-01
 2.425647381852596e-14  9.996094218889631e-14  6.391620128828247e-01
-7.581319455017426e-01  6.391620128828247e-01  4.683271659081615e-17

-3.248638743028538e-15 -9.146604665656256e-15 -9.570533262196871e-01
-9.146604665656256e-15  2.581778978068935e-14  3.894296331644165e-01
-9.570533262196871e-01  3.894296331644165e-01 -7.347576772055048e-15

-1.130483654200427e-15 -8.273152673684082e-15 -9.144832727314317e-01
-8.273152673684082e-15  1.507529272291172e-14  5.150002946478298e-01
-9.144832727314317e-01  5.150002946478298e-01 -4.481339640742502e-15

-1.068747834015615e-15 -6.954893049735450e-15 -9.272758027028895e-01
-6.954893049735450e-15  1.168441299942264e-14  5.038466425891114e-01
-9.272758027028895e-01  5.038466425891114e-01 -3.400984990896175e-15

-9.685161380643484e-16 -5.686505796336098e-15 -1.118679242385116e+00
-5.686505796336098e-15  8.424567551042579e-15  2.414239676713018e-01
-1.118679242385116e+00  2.414239676713018e-01 -2.533762014045522e-15

-9.928223023253543e-16 -5.014938818064596e-15 -1.347662631258071e+00
-5.014938818064596e-15  7.287337966955121e-15  4.498909294421797e-02
-1.347662631258071e+00  4.498909294421797e-02 -2.170269140146581e-15

-1.154794812262315e-15 -4.302898610386420e-15 -1.356828877230000e+00
-4.302898610386420e-15  7.055158719246819e-15  1.115130546840158e-01
-1.356828877230000e+00  1.115130546840158e-01 -1.932525420569852e-15

-1.611483469645144e-15 -2.347134452577955e-15 -1.213824914905714e+00
-2.347134452577955e-15  6.620842746795147e-15  6.553083857451182e-01
-1.213824914905714e+00  6.553083857451182e-01 -1.465537672178134e-15

-1.309293940749571e-15 -1.858156196230014e-15 -1.203391672411929e+00
-1.858156196230014e-15  4.745492305199211e-15  5.113515387473203e-01
-1.203391672411929e+00  5.113515387473203e-01 -1.096054743316062e-15

-8.696669575942760e-16 -1.717208409729175e-15 -1.158913865863303e+00
-1.717208409729175e-15  3.118530058245774e-15  3.581596614371969e-01
-1.158913865863303e+00  3.581596614371969e-01 -8.231168080080290e-16

-6.043250485827079e-16 -1.246626278831762e-15 -8.157163570719338e-01
-1.246626278831762e-15  1.999761975762098e-15  3.956476213675910e-01
-8.157163570719338e-01  3.956476213675910e-01 -5.899621330814929e-16

-4.972541073037123e-16 -8.857370587652201e-16 -9.654813994614340e-01
-8.857370587652201e-16  1.510011876788139e-15  2.126451310702917e-01
-9.654813994614340e-01  2.126451310702917e-01 -4.358579077524251e-16

-5.444119226924172e-16 -6.788206475402603e-16 -7.468606565660536e-01
-6.788206475402603e-16  1.483033734920617e-15  6.552770041907159e-01
-7.468606565660536e-01  6.552770041907159e-01 -4.055313141599236e-16

-5.571744973926061e-16 -5.980550832444743e-16 -5.921060567500922e-01
-5.980550832444743e-16  1.456938752747407e-15  8.679660209304046e-01
-5.921060567500922e-01  8.679660209304046e-01 -3.995393330950507e-16

-4.485957576263907e-16 -4.654533597569587e-16 -1.028364092245219e+00
-4.654533597569587e-16  1.158858984247614e-15  4.605623886049998e-01
-1.028364092245219e+00  4.605623886049998e-01 -2.970094343608050e-16

-3.655850261973947e-16 -3.409378394423979e-16 -8.914076689458635e-01
-3.409378394423979e-16  8.942883994048432e-16  4.971585354170412e-01
-8.914076689458635e-01  4.971585354170412e-01 -2.409275847057777e-16

-3.258856362418475e-16 -2.851536961682828e-16 -8.188450385004161e-01
-2.851536961682828e-16  7.742249652416903e-16  5.043018786210742e-01
-8.188450385004161e-01  5.043018786210742e-01 -2.145631793225286e-16

-2.737771060684200e-16 -2.611582531103905e-16 -1.025474216430372e+00
-2.611582531103905e-16  6.699861502218055e-16  2.252266116913314e-01
-1.025474216430372e+00  2.252266116913314e-01 -1.718679450362561e-16

-2.344020582456613e-16 -1.720441049247606e-16 -9.446724004393373e-01
-1.720441049247606e-16  5.363110589964487e-16  4.177848099191104e-01
-9.446724004393373e-01  4.177848099191104e-01 -1.416400318736181e-16

-1.926582372175866e-16 -1.175968458654494e-16 -1.033550815767863e+00
-1.175968458654494e-16  4.322030570141296e-16  4.430406344950329e-01
-1.033550815767863e+00  4.430406344950329e-01 -1.081468311685065e-16

-1.641795882442120e-16 -9.592746848983965e-17 -1.039759336368181e+00
-9.592746848983965e-17  3.659228927808145e-16  4.144023673966235e-01
-1.039759336368181e+00  4.144023673966235e-01 -9.074487396703609e-17

-1.345670125146153e-16 -7.605112199245310e-17 -9.308931237636417e-01
-7.605112199245310e-17  2.931126375349900e-16  4.256091893954277e-01
-9.308931237636417e-01  4.256091893954277e-01 -7.838317488053990e-17

-1.036764907757832e-16 -5.545108654978291e-17 -8.675217342269046e-01
-5.545108654978291e-17  2.200619462787395e-16  4.657082839225836e-01
-8.675217342269046e-01  4.657082839225836e-01 -6.374782044302028e-17

-8.280370581123329e-17 -3.900251754080469e-17 -9.218313923307550e-01
-3.900251754080469e-17  1.794378080238659e-16  3.863949751772289e-01
-9.218313923307550e-01  3.863949751772289e-01 -4.956345319326158e-17

-7.287549809368027e-17 -3.103248739274358e-17 -9.929053548797885e-01
-3.103248739274358e-17  1.625826761239017e-16  3.114996652122310e-01
-9.929053548797885e-01  3.114996652122310e-01 -4.318551918073244e-17

-6.794384195910762e-17 -2.645053827880243e-17 -1.070415625226747e+00
-2.645053827880243e-17  1.550377186017134e-16  3.282770954242716e-01
-1.070415625226747e+00  3.282770954242716e-01 -3.800832086299914e-17

-5.721306593660783e-17 -2.272708999899299e-17 -1.379009604398141e+00
-2.272708999899299e-17  1.529536631653459e-16  2.063320835400121e-01
-1.379009604398141e+00  2.063320835400121e-01 -1.706335463267914e-17

-6.138658270028418e-17 -1.749641864129224e-17 -1.044551830707889e+00
-1.749641864129224e-17  1.299830952395231e-16  8.166243088858339e-01
-1.044551830707889e+00  8.166243088858339e-01 -3.183687500978769e-17

-5.295476293180553e-17 -1.303443055633860e-17 -1.181983011170212e+00
-1.303443055633860e-17  1.227568144601341e-16  6.014961679296623e-01
-1.181983011170212e+00  6.014961679296623e-01 -2.441522914808607e-17

-2.978380414733196e-17 -1.749947096996166e-17 -1.821726811591303e+00
-1.749947096996166e-17  1.405550817092747e-16 -1.823580062923372e-01
-1.821726811591303e+00 -1.823580062923372e-01  2.169375857809352e-17

-2.906003736875482e-17 -1.522562368171756e-17 -1.802454752700462e+00
-1.522562368171756e-17  1.346498823777509e-16 -1.646448647250555e-01
-1.802454752700462e+00 -1.646448647250555e-01  1.963030657141073e-17

-4.473909063257666e-17 -1.065910660310785e-17 -1.095226010275309e+00
-1.065910660310785e-17  9.986179832643622e-17  7.283688891938438e-01
-1.095226010275309e+00  7.283688891938438e-01 -2.416296977111665e-17

-4.129959289165090e-17 -7.559561964968240e-18 -1.078641670565539e+00
-7.559561964968240e-18  8.907562582712406e-17  6.946919221243103e-01
-1.078641670565539e+00  6.946919221243103e-01 -2.470619060810056e-17

-2.654849235397776e-17 -1.454995006087562e-17 -1.382109590431259e+00
-1.454995006087562e-17  1.048457954850165e-16  1.711351675079852e-01
-1.382109590431259e+00  1.711351675079852e-01  2.412556414708012e-18

-2.565284511422938e-17 -1.294453013794652e-17 -1.363551942052094e+00
-1.294453013794652e-17  1.028247724287199e-16  6.218468104065518e-02
-1.363551942052094e+00  6.218468104065518e-02  1.857114030727042e-18

-3.086955303607396e-17 -8.888318910544531e-18 -1.085192518830488e+00
-8.888318910544531e-18  8.342974368458686e-17  4.017007181952000e-01
-1.085192518830488e+00  4.017007181952000e-01 -1.817037183899928e-17

-2.906589770407487e-17 -7.666416120260453e-18 -1.034438240394053e+00
-7.666416120260453e-18  6.951986796180796e-17  7.542881578994911e-01
-1.034438240394053e+00  7.542881578994911e-01 -1.978667011903075e-17

-2.299495612285238e-17 -6.736250405748592e-18 -1.244089952648642e+00
-6.736250405748592e-18  7.197741619710099e-17  6.243355703366457e-01
-1.244089952648642e+00  6.243355703366457e-01 -5.837700999550348e-18

-1.791581245164415e-17 -5.369092846605189e-18 -1.387105678914973e+00
-5.369092846605189e-18  7.044874808576961e-17  5.564172487887509e-01
-1.387105678914973e+00  5.564172487887509e-01  3.440405114356887e-18

-1.618360792452900e-17 -4.947861068717124e-18 -1.307736822390650e+00
-4.947861068717124e-18  6.765111325130698e-17  4.441337424979908e-01
-1.307736822390650e+00  4.441337424979908e-01  1.094761785084827e-18

-1.256177063825406e-17 -5.290065370849372e-18 -1.317767658024272e+00
-5.290065370849372e-18  6.839326833470623e-17  2.759962104891387e-01
-1.317767658024272e+00  2.759962104891387e-01  5.910806581221974e-18

-8.510988814825780e-18 -3.824405624160569e-18 -1.421375445523829e+00
-3.824405624160569e-18  6.210982678783668e-17  3.259671808504570e-01
-1.421375445523829e+00  3.259671808504570e-01  1.329150270522996e-17

-1.629894438085092e-17 -2.526156451754111e-18 -1.079540181876145e+00
-2.526156451754111e-18  4.533533930710550e-17  7.000005654741468e-01
-1.079540181876145e+00  7.000005654741468e-01 -1.074022139847260e-17

-1.628789145696119e-17 -1.210849753903424e-18 -1.033670148170252e+00
-1.210849753903424e-18  4.235345304580595e-17  6.379851647083179e-01
-1.033670148170252e+00  6.379851647083179e-01 -1.152802457968941e-17

-6.827339926092805e-18 -6.319310835712513e-18 -1.222039618993888e+00
-6.319310835712513e-18  5.470026925041334e-17  3.375754806023263e-01
-1.222039618993888e+00  3.375754806023263e-01  8.245506208339223e-18

-1.466241639278074e-17 -4.876912583269398e-18 -8.281314286058843e-01
-4.876912583269398e-18  4.125116971453559e-17  4.912281846585246e-01
-8.281314286058843e-01  4.912281846585246e-01 -1.530595609106237e-17

-7.466828891752518e-18 -4.700140491537778e-18 -1.019726849807841e+00
-4.700140491537778e-18  4.897948373022916e-17  1.642635767239627e-01
-1.019726849807841e+00  1.642635767239627e-01  1.342134814189330e-18

-6.682013578338058e-18 -3.358395278476546e-18 -1.033874160684308e+00
-3.358395278476546e-18  4.553786310442002e-17  1.721580461618651e-01
-1.033874160684308e+00  1.721580461618651e-01  1.380786739978819e-18

-8.629370400049113e-18 -3.531568169819913e-18 -8.781309646808612e-01
-3.531568169819913e-18  2.799175067498428e-17  6.301320076618276e-01
-8.781309646808612e-01  6.301320076618276e-01 -7.755303163350810e-18

-5.748267449825079e-18 -3.046356621155169e-18 -9.428106906341404e-01
-3.046356621155169e-18  3.245910409629867e-17  4.358291341909153e-01
-9.428106906341404e-01  4.358291341909153e-01 -2.818210216952054e-18

-4.444733435637795e-18 -3.411404064757334e-18 -9.555560429424313e-01
-3.411404064757334e-18  3.616645250575056e-17  3.171044798266696e-01
-9.555560429424313e-01  3.171044798266696e-01 -3.083114697332033e-19

-4.286555449506972e-18 -2.334201644605067e-18 -9.447421042923405e-01
-2.334201644605067e-18  3.380367906857719e-17  3.086501328296198e-01
-9.447421042923405e-01  3.086501328296198e-01 -2.149626315399138e-18

-4.672382446428287e-18 -2.452308458178936e-18 -8.913597373771278e-01
-2.452308458178936e-18  2.826459567094780e-17  4.470175148540546e-01
-8.913597373771278e-01  4.470175148540546e-01 -6.097278832146719e-18

-4.641161010852972e-18 -2.141686463608964e-18 -8.615193792704032e-01
-2.141686463608964e-18  2.478219495778680e-17  5.184389473137009e-01
-8.615193792704032e-01  5.184389473137009e-01 -9.509295690540071e-18

 1.515908257415772e-18  9.441882048514138e-19 -1.267565426960715e+00
 9.441882048514138e-19  3.971347162109801e-17  3.384222692352358e-02
-1.267565426960715e+00  3.384222692352358e-02  1.498844871003991e-17

 6.459330681807619e-18  1.075867754803017e-18 -1.332580743813420e+00
 1.075867754803017e-18  3.911126764949373e-17  1.561156874073165e-02
-1.332580743813420e+00  1.561156874073165e-02  1.413563035933593e-17

 2.359839474721137e-17 -8.047748310612376e-18 -1.186761736723988e+00
-8.047748310612376e-18  3.016338751085899e-17  5.300930128167436e-01
-1.186761736723988e+00  5.300930128167436e-01  1.364133371477881e-17

-1.550852699589541e-16  5.980396673445201e-17 -1.409448330951068e+00
 5.980396673445201e-17  4.026836957583517e-18  5.277194412274360e-01
-1.409448330951068e+00  5.277194412274360e-01  2.322646499170893e-17

 4.260540765948363e-17 -1.471206111437500e-17 -1.003424485421218e+00
-1.471206111437500e-17  2.949813570469609e-17  4.323711927811318e-01
-1.003424485421218e+00  4.323711927811318e-01  7.955819480000140e-19

 3.414013437390110e-17 -1.470695717835092e-17 -1.302064462494868e+00
-1.470695717835092e-17  4.287562306143015e-17  1.845503878591453e-01
-1.302064462494868e+00  1.845503878591453e-01  1.997817102797909e-17

-3.284322707318081e-16  1.203336939653790e-16 -1.229953364314579e+00
 1.203336939653790e-16 -5.584795376800739e-18  7.378868936382058e-02
-1.229953364314579e+00  7.378868936382058e-02  1.757791206692525e-17

 6.041862869788901e-17 -2.424218196571209e-17 -8.370506174996145e-01
-2.424218196571209e-17  3.154554891006686e-17  3.941416418093963e-01
-8.370506174996145e-01  3.941416418093963e-01 -9.740484260279442e-18

-1.573684405157782e-17  3.912730846904452e-18 -9.132113710051523e-01
 3.912730846904452e-18  1.354331011905781e-17  6.481693609413071e-01
-9.132113710051523e-01  6.481693609413071e-01 -4.040074132284982e-18

 3.609213508733919e-18 -1.767032453304064e-18 -9.978594511406123e-01
-1.767032453304064e-18  1.551548174273935e-17  6.360623779963908e-01
-9.978594511406123e-01  6.360623779963908e-01 -4.531358640014498e-19

 5.109331232520382e-18 -9.200624472955632e-19 -1.096964989400258e+00
-9.200624472955632e-19  2.377177838355322e-17  3.759761978066388e-01
-1.096964989400258e+00  3.759761978066388e-01  7.815784695749625e-18

 4.818122612373457e-18 -6.213445087015412e-19 -1.058667737579022e+00
-6.213445087015412e-19  2.342490877955675e-17  3.414408216504864e-01
-1.058667737579022e+00  3.414408216504864e-01  6.087630941765652e-18

 7.754985850950513e-18 -5.049765062639213e-19 -1.143926369065425e+00
-5.049765062639213e-19  2.237288134013597e-17  3.523528800013637e-01
-1.143926369065425e+00  3.523528800013637e-01  1.187273801253635e-17

 3.530951686265441e-18  1.207633720135408e-19 -9.762414363634506e-01
 1.207633720135408e-19  1.196422138300513e-17  5.900647765195378e-01
-9.762414363634506e-01  5.900647765195378e-01 -7.474860294384375e-19

 1.738711632664426e-18  2.173142106078259e-19 -8.796626106103363e-01
 2.173142106078259e-19  1.334164874802342e-17  5.161862021387081e-01
-8.796626106103363e-01  5.161862021387081e-01 -4.978654957788370e-18

 1.812390650720206e-17 -2.726478185994272e-18 -1.464878433156629e+00
-2.726478185994272e-18  3.675413860643636e-17  8.185382187657983e-03
-1.464878433156629e+00  8.185382187657983e-03  3.910357841124807e-17

 1.137199757603801e-17 -1.972989797646886e-18 -1.195309888139129e+00
-1.972989797646886e-18  2.871880440823620e-17  1.668096463258513e-01
-1.195309888139129e+00  1.668096463258513e-01  2.103050599862828e-17

-6.337940428104271e-18 -3.257348014322837e-19 -4.984608590484351e-01
-3.257348014322837e-19  1.449743061783339e-18  7.844409143062749e-01
-4.984608590484351e-01  7.844409143062749e-01 -2.984661021473451e-17

 1.861400469167503e-18 -8.271487720317261e-19 -8.066128407351584e-01
-8.271487720317261e-19  1.326051859160340e-17  4.849582652635326e-01
-8.066128407351584e-01  4.849582652635326e-01 -6.353811302677912e-18

 5.680987488733368e-18 -9.744945872208248e-19 -9.438517793552041e-01
-9.744945872208248e-19  2.188539036553223e-17  2.543361805033915e-01
-9.438517793552041e-01  2.543361805033915e-01  4.967992588422006e-18

 3.517929665062722e-18 -7.514989133853636e-19 -8.496964211374479e-01
-7.514989133853636e-19  1.376476335006797e-17  4.533769808466468e-01
-8.496964211374479e-01  4.533769808466468e-01 -2.718841047489187e-18

 6.503119209958149e-18 -6.169677954102510e-19 -9.677201782590192e-01
-6.169677954102510e-19  1.618324113664017e-17  3.954042296809309e-01
-9.677201782590192e-01  3.954042296809309e-01  4.767053089392006e-18

 7.429367309692414e-18 -5.396278122691940e-19 -1.004130586997108e+00
-5.396278122691940e-19  1.724801114171234e-17  3.684534270331135e-01
-1.004130586997108e+00  3.684534270331135e-01  6.947540472898171e-18

 7.203483980255873e-18 -6.009987370953643e-19 -9.894486405552461e-01
-6.009987370953643e-19  1.608803565369315e-17  4.027809329009591e-01
-9.894486405552461e-01  4.027809329009591e-01  5.444605997229325e-18

 8.822654659269026e-18 -4.311437218634829e-19 -1.059089352697576e+00
-4.311437218634829e-19  1.629772080765430e-17  3.950514264100138e-01
-1.059089352697576e+00  3.950514264100138e-01  9.805721598086954e-18

 6.814435490032464e-18 -2.942010290005751e-20 -9.715658874888935e-01
-2.942010290005751e-20  1.229051459321676e-17  4.684157193783452e-01
-9.715658874888935e-01  4.684157193783452e-01  3.111165848747174e-18

 7.365735392096574e-18 -2.412978196877520e-19 -9.977151487263218e-01
-2.412978196877520e-19  1.609260366618038e-17  3.687319112567554e-01
-9.977151487263218e-01  3.687319112567554e-01  6.969767447831864e-18

 7.585890379793266e-18 -8.929301580777178e-19 -9.141369312052685e-01
-8.929301580777178e-19  1.636748669089730e-17  3.463941791668433e-01
-9.141369312052685e-01  3.463941791668433e-01  2.766450448612587e-18

 1.157444634202546e-17  5.143749461739948e-20 -1.178360366393119e+00
 5.143749461739948e-20  2.358041651260162e-17  1.414707827113318e-01
-1.178360366393119e+00  1.414707827113318e-01  2.215258719470835e-17

-6.362675581711000e-18  2.963238815621531e-18 -8.466506428926514e-01
 2.963238815621531e-18  9.507388997805486e-18  4.644671740533444e-01
-8.466506428926514e-01  4.644671740533444e-01 -2.313285720233210e-18

 1.195284000548144e-17 -5.818021617275717e-18 -2.469032820250849e-01
-5.818021617275717e-18 -8.325157218735633e-18  9.652045427884391e-01
-2.469032820250849e-01  9.652045427884391e-01 -4.492719481120333e-17

-2.884601327508998e-17  8.161018563100797e-18 -6.852402599458940e-01
 8.161018563100797e-18  2.900813629676449e-18  5.864430417538474e-01
-6.852402599458940e-01  5.864430417538474e-01 -1.356550915788285e-17

 3.721879421295744e-17 -8.368358995770665e-18 -1.033921582686783e+00
-8.368358995770665e-18  2.328123733627973e-17  2.057929439065914e-01
-1.033921582686783e+00  2.057929439065914e-01  1.350488304337612e-17

-2.277394405587653e-16  6.472200088386408e-17 -8.832688660582089e-01
 6.472200088386408e-17 -1.428213337502816e-18  2.907414931451392e-01
-8.832688660582089e-01  2.907414931451392e-01  1.654987054456380e-18

-1.230551814884003e-16  3.592224085400324e-17 -9.225309784996500e-01
 3.592224085400324e-17  3.717992241173060e-18  3.761011505312731e-01
-9.225309784996500e-01  3.761011505312731e-01  3.746528862791542e-18

 4.122164892740816e-17 -1.037299185647521e-17 -8.929771593145547e-01
-1.037299185647521e-17  1.183507457242660e-17  5.245821921935971e-01
-8.929771593145547e-01  5.245821921935971e-01  1.339411681884831e-18

 5.112357875573974e-18  8.080928468504489e-19 -9.783531742766465e-01
 8.080928468504489e-19  1.099522160637552e-17  4.485344148754049e-01
-9.783531742766465e-01  4.485344148754049e-01  6.150073841344187e-18

 9.624269511902232e-18 -7.371572928767557e-19 -9.554466327874019e-01
-7.371572928767557e-19  1.534925069392343e-17  3.425814443981166e-01
-9.554466327874019e-01  3.425814443981166e-01  5.969315855999302e-18

 9.091567353792823e-18 -3.339005279014653e-19 -9.792753853680115e-01
-3.339005279014653e-19  1.828048692129898e-17  2.564784358453934e-01
-9.792753853680115e-01  2.564784358453934e-01  8.275407319681096e-18

 7.624770583487158e-18 -2.812170695763001e-19 -9.144207217634175e-01
-2.812170695763001e-19  1.329264089739565e-17  3.803501933711561e-01
-9.144207217634175e-01  3.803501933711561e-01  2.905759078650830e-18

 8.395260004160273e-18 -3.315482697721596e-19 -9.398959958419449e-01
-3.315482697721596e-19  1.135682644009050e-17  4.347485149595433e-01
-9.398959958419449e-01  4.347485149595433e-01  4.083600675749106e-18

 1.048476717734439e-17 -2.950764894929129e-19 -1.022474512602120e+00
-2.950764894929129e-19  1.662222068291833e-17  2.964362915793106e-01
-1.022474512602120e+00  2.964362915793106e-01  1.060147692624180e-17

 1.036078536835445e-17 -2.419039148557111e-19 -1.015083205600572e+00
-2.419039148557111e-19  1.608904589538967e-17  3.068749618640968e-01
-1.015083205600572e+00  3.068749618640968e-01  9.992138453493460e-18

 8.243696636661386e-18 -2.049893895070514e-19 -9.275538228850947e-01
-2.049893895070514e-19  1.058428738392037e-17  4.435764828657248e-01
-9.275538228850947e-01  4.435764828657248e-01  3.093681881124506e-18

 8.163558756525782e-18 -2.660836399574716e-19 -9.155640613773021e-01
-2.660836399574716e-19  1.321799312518694e-17  3.705072318640310e-01
-9.155640613773021e-01  3.705072318640310e-01  3.075151059717269e-18

 9.892269516919619e-18 -4.950648464831004e-20 -9.877179574297513e-01
-4.950648464831004e-20  1.794160287821987e-17  2.405546681446558e-01
-9.877179574297513e-01  2.405546681446558e-01  8.376330508770667e-18

 9.413481661512408e-18 -7.861477519225082e-20 -9.677039055208010e-01
-7.861477519225082e-20  1.450553945262903e-17  3.354525295029151e-01
-9.677039055208010e-01  3.354525295029151e-01  6.094081036344663e-18

 1.066368587335473e-17 -4.839971618216726e-19 -1.014577934390513e+00
-4.839971618216726e-19  1.142976726017573e-17  4.442140140587945e-01
-1.014577934390513e+00  4.442140140587945e-01  8.727873450440057e-18

 9.148091034487419e-18  1.262608116452408e-19 -9.621185015652817e-01
 1.262608116452408e-19  8.820818112796303e-18  4.833276681271770e-01
-9.621185015652817e-01  4.833276681271770e-01  3.886331200736008e-18

 1.029604050954196e-17 -1.714938946567463e-19 -9.934979796562430e-01
-1.714938946567463e-19  1.317519130726819e-17  3.727839911889804e-01
-9.934979796562430e-01  3.727839911889804e-01  7.913346667674226e-18

 8.928331330714429e-18 -3.915965979986544e-19 -9.204319124214697e-01
-3.915965979986544e-19  1.445475923091034e-17  3.290586258480201e-01
-9.204319124214697e-01  3.290586258480201e-01  4.523625019161520e-18

 1.576849731303660e-17 -8.095564282177489e-20 -1.199310720815748e+00
-8.095564282177489e-20  2.191708843214087e-17  1.231937181560500e-01
-1.199310720815748e+00  1.231937181560500e-01  2.461510819326084e-17

 6.756710711586593e-18  1.410591880130116e-20 -8.322089139593924e-01
 1.410591880130116e-20  7.553097046795745e-18  4.781206312291393e-01
-8.322089139593924e-01  4.781206312291393e-01 -2.319003177950096e-18

-8.268654935794687e-18  3.344021675651476e-19 -2.288976659273076e-01
 3.344021675651476e-19 -1.277083504470417e-17  9.825157507048040e-01
-2.288976659273076e-01  9.825157507048040e-01 -4.494170458889906e-17

 3.062654392364575e-18  3.489313484080670e-20 -6.773934126444695e-01
 3.489313484080670e-20  2.665210710412269e-18  5.963010947015630e-01
-6.773934126444695e-01  5.963010947015630e-01 -1.315121630530661e-17

 1.248179447319896e-17 -7.113259076872064e-19 -1.040505486135391e+00
-7.113259076872064e-19  1.926185771932549e-17  2.029109460294128e-01
-1.040505486135391e+00  2.029109460294128e-01  1.488208380626825e-17

 8.311617963829441e-18  1.577168958878302e-20 -8.851042593601482e-01
 1.577168958878302e-20  1.469473084043271e-17  2.885348242400553e-01
-8.851042593601482e-01  2.885348242400553e-01  2.666257447502477e-18

 9.229331194651801e-18 -1.438571822031810e-19 -9.226298500047732e-01
-1.438571822031810e-19  1.198215775628507e-17  3.750470238466161e-01
-9.226298500047732e-01  3.750470238466161e-01  4.551624840789141e-18

 8.688370431440196e-18 -7.033732065139538e-19 -8.917714263116979e-01
-7.033732065139538e-19  7.491125654831709e-18  5.241471910667970e-01
-8.917714263116979e-01  5.241471910667970e-01  2.008286537881616e-18

 1.038839235781980e-17 -1.123972960853323e-19 -9.763698422711730e-01
-1.123972960853323e-19  9.813395092718481e-18  4.470317026536193e-01
-9.763698422711730e-01  4.470317026536193e-01  6.673317432353200e-18

 1.011749562881028e-17 -2.662462052430832e-19 -9.565232247084339e-01
-2.662462052430832e-19  1.408646870630309e-17  3.355890926844139e-01
-9.565232247084339e-01  3.355890926844139e-01  6.435408000419154e-18

 1.116197020215869e-17 -7.964909183946433e-20 -1.001744602349767e+00
-7.964909183946433e-20  1.794009688046082e-17  2.282393661956441e-01
-1.001744602349767e+00  2.282393661956441e-01  9.865524881913251e-18

 1.027700044701581e-17 -2.408542742751944e-20 -9.682959059037187e-01
-2.408542742751944e-20  1.417627454117823e-17  3.268047279920187e-01
-9.682959059037187e-01  3.268047279920187e-01  6.522006612728845e-18

 1.153146995928859e-17 -3.631466856072977e-19 -1.017672932048582e+00
-3.631466856072977e-19  1.110253622822026e-17  4.331975891604675e-01
-1.017672932048582e+00  4.331975891604675e-01  9.202435911469075e-18

 9.895392547364138e-18  1.956582805208190e-19 -9.605320474786398e-01
 1.956582805208190e-19  8.285758216889177e-18  4.802770638581945e-01
-9.605320474786398e-01  4.802770638581945e-01  4.107044405725420e-18

 1.104005166044887e-17 -1.179831417608224e-19 -9.924384122353848e-01
-1.179831417608224e-19  1.263639674906536e-17  3.713190148682328e-01
-9.924384122353848e-01  3.713190148682328e-01  8.170781714575454e-18

 9.659129028569796e-18 -3.315212836645171e-19 -9.201496501344841e-01
-3.315212836645171e-19  1.389632626059939e-17  3.288703067707285e-01
-9.201496501344841e-01  3.288703067707285e-01  4.811665664502832e-18

 1.650402367355213e-17 -2.547541754015187e-20 -1.199359984077976e+00
-2.547541754015187e-20  2.136472970047068e-17  1.233081778775065e-01
-1.199359984077976e+00  1.233081778775065e-01  2.494033573977367e-17

 7.494289605912684e-18  7.064571304033312e-20 -8.332196252899160e-01
 7.064571304033312e-20  7.083089128530663e-18  4.767886422401237e-01
-8.332196252899160e-01  4.767886422401237e-01 -1.952631933120985e-18

-7.497133150212215e-18  3.873872163457046e-19 -2.318112417940932e-01
 3.873872163457046e-19 -1.317287564320850e-17  9.793751240193661e-01
-2.318112417940932e-01  9.793751240193661e-01 -4.448311783628603e-17

 3.816868083292523e-18  8.616324519533471e-20 -6.795964258928943e-01
 8.616324519533471e-20  2.277958002743232e-18  5.934110659387464e-01
-6.795964258928943e-01  5.934110659387464e-01 -1.270342771552181e-17

 1.315025296321324e-17 -6.570093994405409e-19 -1.039769044915156e+00
-6.570093994405409e-19  1.879462845872858e-17  2.025540026052328e-01
-1.039769044915156e+00  2.025540026052328e-01  1.511715488085542e-17

 8.968172820167677e-18  6.252872944084577e-20 -8.845618008335244e-01
 6.252872944084577e-20  1.422600258669819e-17  2.889285932456104e-01
-8.845618008335244e-01  2.889285932456104e-01  2.898498150267754e-18

 9.895724724335793e-18 -1.056223894144993e-19 -9.228948057368858e-01
-1.056223894144993e-19  1.158079601354540e-17  3.747560968723843e-01
-9.228948057368858e-01  3.747560968723843e-01  4.827478532113338e-18

 9.319053556768650e-18 -6.612607618083127e-19 -8.919550349333808e-01
-6.612607618083127e-19  7.103071845938547e-18  5.236667407320239e-01
-8.919550349333808e-01  5.236667407320239e-01  2.270281446118568e-18

 1.100221936437649e-17 -7.538639421068022e-20 -9.764867808782809e-01
-7.538639421068022e-20  9.442424387789448e-18  4.468988031259977e-01
-9.764867808782809e-01  4.468988031259977e-01  6.922715988041940e-18

 1.070816449476475e-17 -2.280343337819054e-19 -9.566888917858962e-01
-2.280343337819054e-19  1.373993852844580e-17  3.355337466959054e-01
-9.566888917858962e-01  3.355337466959054e-01  6.674581117145461e-18

 1.174566878711949e-17 -4.285344914540984e-20 -1.002162230506791e+00
-4.285344914540984e-20  1.762144471281541e-17  2.280037432383059e-01
-1.002162230506791e+00  2.280037432383059e-01  1.011769991107332e-17

 1.084438624704568e-17  1.022403013937688e-20 -9.686370113429538e-01
 1.022403013937688e-20  1.387365633818903e-17  3.266131454870134e-01
-9.686370113429538e-01  3.266131454870134e-01  6.758347290835755e-18

 1.208387027876860e-17 -3.315478736156899e-19 -1.018218884807256e+00
-3.315478736156899e-19  1.082378760152921e-17  4.329794144272747e-01
-1.018218884807256e+00  4.329794144272747e-01  9.438685294849060e-18

 1.041691595520978e-17  2.288740872066285e-19 -9.606458972895998e-01
 2.288740872066285e-19  7.995879094822799e-18  4.807466040504850e-01
-9.606458972895998e-01  4.807466040504850e-01  4.295511699827134e-18

 1.154119206201971e-17 -8.407479871466595e-20 -9.921775048557379e-01
-8.407479871466595e-20  1.234961987470340e-17  3.720049793334275e-01
-9.921775048557379e-01  3.720049793334275e-01  8.327625242655864e-18

 1.017454365356280e-17 -3.072925503698947e-19 -9.208116969598478e-01
-3.072925503698947e-19  1.371303726144588e-17  3.277583623520162e-01
-9.208116969598478e-01  3.277583623520162e-01  5.050193201696404e-18

 1.695405409060928e-17  7.417680048583580e-21 -1.198132261894499e+00
 7.417680048583580e-21  2.110324110891167e-17  1.241945520441873e-01
-1.198132261894499e+00  1.241945520441873e-01  2.501502389210274e-17

 7.837336952836470e-18  9.760645171901942e-20 -8.274249192524467e-01
 9.760645171901942e-20  6.657736836958155e-18  4.821603329801580e-01
-8.274249192524467e-01  4.821603329801580e-01 -2.207007078285238e-18

-7.085002369274390e-18  4.065806429423874e-19 -2.295525185414273e-01
 4.065806429423874e-19 -1.346212966172107e-17  9.817102697383986e-01
-2.295525185414273e-01  9.817102697383986e-01 -4.445768152674156e-17

 4.264094547613727e-18  1.098932576646696e-19 -6.785838611791050e-01
 1.098932576646696e-19  2.014068720593586e-18  5.949285310789435e-01
-6.785838611791050e-01  5.949285310789435e-01 -1.261092833274652e-17

 1.362724876795707e-17 -6.311889017097620e-19 -1.040875574663449e+00
-6.311889017097620e-19  1.859335382549641e-17  2.029023605940208e-01
-1.040875574663449e+00  2.029023605940208e-01  1.535106777655578e-17

 9.408817872302062e-18  8.877300242524005e-20 -8.848145967902480e-01
 8.877300242524005e-20  1.404538835290092e-17  2.891552311602175e-01
-8.848145967902480e-01  2.891552311602175e-01  3.070179888780327e-18

 1.033989491781143e-17 -8.189933564108010e-20 -9.234147625245062e-01
-8.189933564108010e-20  1.141680565020948e-17  3.747962959458361e-01
-9.234147625245062e-01  3.747962959458361e-01  5.010920899207603e-18

 9.763081025400113e-18 -6.410483985372963e-19 -8.924396252299062e-01
-6.410483985372963e-19  6.948670459914245e-18  5.237851528257718e-01
-8.924396252299062e-01  5.237851528257718e-01  2.447345516400532e-18

 1.142779872763339e-17 -5.473183983970963e-20 -9.768151626398768e-01
-5.473183983970963e-20  9.299055825608287e-18  4.470218725653203e-01
-9.768151626398768e-01  4.470218725653203e-01  7.085939003960454e-18

 1.112335652931299e-17 -2.114186434064045e-19 -9.567554269644447e-01
-2.114186434064045e-19  1.359818002784619e-17  3.358624758723938e-01
-9.567554269644447e-01  3.358624758723938e-01  6.820196837029096e-18

 1.213859687340338e-17 -2.341150613780558e-20 -1.001840042908592e+00
-2.341150613780558e-20  1.748645315143797e-17  2.284628851398928e-01
-1.001840042908592e+00  2.284628851398928e-01  1.023350422465611e-17

 1.124095953769116e-17  3.049084632233934e-20 -9.688512903565900e-01
 3.049084632233934e-20  1.377456822900898e-17  3.262682530343505e-01
-9.688512903565900e-01  3.262682530343505e-01  6.909744253822830e-18

 1.245835170098608e-17 -3.172420887727874e-19 -1.017899332780728e+00
-3.172420887727874e-19  1.071901982096811e-17  4.332253954350413e-01
-1.017899332780728e+00  4.332253954350413e-01  9.551624967562591e-18

 1.080129732916921e-17  2.382925854114008e-19 -9.610373014139358e-01
 2.382925854114008e-19  7.932323318613262e-18  4.804110719310797e-01
-9.610373014139358e-01  4.804110719310797e-01  4.459784768480343e-18

 1.192856323705331e-17 -7.231531196945440e-20 -9.929826273250802e-01
-7.231531196945440e-20  1.230375348242579e-17  3.714191255919175e-01
-9.929826273250802e-01  3.714191255919175e-01  8.518440295533337e-18

 1.049856305692881e-17 -2.841569111052066e-19 -9.197104662346101e-01
-2.841569111052066e-19  1.356113201048812e-17  3.297448698491379e-01
-9.197104662346101e-01  3.297448698491379e-01  5.079018513071471e-18

 1.736931990963081e-17  1.956314665488469e-20 -1.200596700962988e+00
 1.956314665488469e-20  2.113695460301343e-17  1.220880318867631e-01
-1.200596700962988e+00  1.220880318867631e-01  2.533339215112439e-17

 8.380193813305608e-18  1.117045062377272e-19 -8.354954368806465e-01
 1.117045062377272e-19  6.901306572825682e-18  4.746017886639923e-01
-8.354954368806465e-01  4.746017886639923e-01 -1.486522279847643e-18

-6.706666093778315e-18  4.232710716407444e-19 -2.308382999313278e-01
 4.232710716407444e-19 -1.346129018077765e-17  9.801734710726487e-01
-2.308382999313278e-01  9.801734710726487e-01 -4.425053454448652e-17

 4.596550958384535e-18  1.276246860650434e-19 -6.784229567493935e-01
 1.276246860650434e-19  1.978972791195263e-18  5.945767222773911e-01
-6.784229567493935e-01  5.945767222773911e-01 -1.249666004870739e-17

 1.394130637432198e-17 -6.082211302237593e-19 -1.039698866468950e+00
-6.082211302237593e-19  1.853415511717174e-17  2.029723173015246e-01
-1.039698866468950e+00  2.029723173015246e-01  1.539409381924587e-17

 9.744466082318308e-18  1.088647985674652e-19 -8.848621236349012e-01
 1.088647985674652e-19  1.399804178958000e-17  2.890451236224823e-01
-8.848621236349012e-01  2.890451236224823e-01  3.197761517646914e-18

 1.065381308165954e-17 -6.528673281919159e-20 -9.229492869673699e-01
-6.528673281919159e-20  1.136879464887115e-17  3.749710419521208e-01
-9.229492869673699e-01  3.749710419521208e-01  5.103196698331013e-18

 1.006837736773704e-17 -6.243537702109393e-19 -8.919073704564768e-01
-6.243537702109393e-19  6.902208631077850e-18  5.239308562445566e-01
-8.919073704564768e-01  5.239308562445566e-01  2.530431962899562e-18

 1.171329779566941e-17 -3.656166261773891e-20 -9.762336944183420e-01
-3.656166261773891e-20  9.262383155094268e-18  4.470676786531175e-01
-9.762336944183420e-01  4.470676786531175e-01  7.163384200842410e-18

 1.141475022680005e-17 -1.924795716426990e-19 -9.566139663914397e-01
-1.924795716426990e-19  1.359419087668997e-17  3.354183724824020e-01
-9.566139663914397e-01  3.354183724824020e-01  6.924555722845043e-18

 1.246880899183755e-17 -1.111520995995135e-20 -1.001892874677990e+00
-1.111520995995135e-20  1.747869740014867e-17  2.281810006623674e-01
-1.001892874677990e+00  2.281810006623674e-01  1.033991324926711e-17

 1.152761210338839e-17  3.882039803120009e-20 -9.682894057501603e-01
 3.882039803120009e-20  1.373078007760547e-17  3.272392643937233e-01
-9.682894057501603e-01  3.272392643937233e-01  6.970861691653345e-18

 1.308346561353053e-17 -4.120064513186082e-19 -1.017955212355939e+00
-4.120064513186082e-19  1.074287601324181e-17  4.333638027126199e-01
-1.017955212355939e+00  4.333638027126199e-01  9.651143448679785e-18

 9.121285735424490e-18  8.623948298434220e-19 -9.610904899498456e-01
 8.623948298434220e-19  7.753972693322105e-18  4.801233423091420e-01
-9.610904899498456e-01  4.801233423091420e-01  4.560731196531557e-18

 1.534194091599555e-17 -1.043896451701003e-18 -9.928915562197592e-01
-1.043896451701003e-18  1.261573974069811e-17  3.714445146394059e-01
-9.928915562197592e-01  3.714445146394059e-01  8.603305162354004e-18

 2.963726814772903e-17 -6.187549958163843e-18 -9.197660796635052e-01
-6.187549958163843e-18  1.541749783822424e-17  3.299658753474352e-01
-9.197660796635052e-01  3.299658753474352e-01  5.166694426165815e-18

 1.173484535842819e-16 -3.127191961477369e-17 -1.200487050080913e+00
-3.127191961477369e-17  3.096188778277485e-17  1.225586366888571e-01
-1.200487050080913e+00  1.225586366888571e-01  2.541006702584318e-17

-1.109354488736713e-17  6.321554597547188e-18 -8.351167170925119e-01
 6.321554597547188e-18  4.945548660033535e-18  4.751534920209277e-01
-8.351167170925119e-01  4.751534920209277e-01 -1.436516038753418e-18

 1.949314197956301e-17 -7.719949155809043e-18 -2.304570424992018e-01
-7.719949155809043e-18 -1.089925761398573e-17  9.804441948551103e-01
-2.304570424992018e-01  9.804441948551103e-01 -4.420563915037696e-17

-1.343870773832482e-16  4.393518342619599e-17 -6.782928863878710e-01
 4.393518342619599e-17 -1.178304711186421e-17  5.945902443189967e-01
-6.782928863878710e-01  5.945902443189967e-01 -1.243023214756185e-17

 1.096928542094673e-16 -3.065745750895022e-17 -1.039542244047075e+00
-3.065745750895022e-17  2.802622082356920e-17  2.028122495853058e-01
-1.039542244047075e+00  2.028122495853058e-01  1.546330483029383e-17

-2.763163233776959e-17  1.197819817530476e-17 -8.848327520308732e-01
 1.197819817530476e-17  1.029268861462302e-17  2.887627311425806e-01
-8.848327520308732e-01  2.887627311425806e-01  3.268611033675732e-18

-9.719423047663109e-18  6.451273016608093e-18 -9.225108455832556e-01
 6.451273016608093e-18  9.322730010693308e-18  3.755721916696526e-01
-9.225108455832556e-01  3.755721916696526e-01  5.141887527930773e-18

 8.201347936725697e-18  4.692589522679609e-20 -8.919518547809792e-01
 4.692589522679609e-20  6.714592651272625e-18  5.244061286909086e-01
-8.919518547809792e-01  5.244061286909086e-01  2.601589384331979e-18

 9.575214157455268e-18  7.241545221820367e-19 -9.765797900771320e-01
 7.241545221820367e-19  9.056968388534863e-18  4.473779707087397e-01
-9.765797900771320e-01  4.473779707087397e-01  7.248351625976667e-18

 1.126634749666165e-17 -6.254389896597592e-20 -9.567760428027985e-01
-6.254389896597592e-20  1.357668805170302e-17  3.360912992976511e-01
-9.567760428027985e-01  3.360912992976511e-01  6.989607514534360e-18

 1.264436936363122e-17  7.503357240109435e-21 -1.002048003047630e+00
 7.503357240109435e-21  1.750551425845760e-17  2.287546940106801e-01
-1.002048003047630e+00  2.287546940106801e-01  1.041262808041874e-17

 1.162761664724391e-17  8.682364586151756e-20 -9.684322907620805e-01
 8.682364586151756e-20  1.376443042572093e-17  3.273770751056181e-01
-9.684322907620805e-01  3.273770751056181e-01  7.040590221823106e-18

 1.289396039362460e-17 -2.758057011033352e-19 -1.017706213597633e+00
-2.758057011033352e-19  1.074154455984762e-17  4.337624112413277e-01
-1.017706213597633e+00  4.337624112413277e-01  9.692985280754973e-18

 1.128692563027445e-17  2.510534882682397e-19 -9.606076123176551e-01
 2.510534882682397e-19  7.982786939696801e-18  4.807335573195109e-01
-9.606076123176551e-01  4.807335573195109e-01  4.588609768864827e-18

 1.240510662533852e-17 -6.091848921248704e-20 -9.926755752768039e-01
-6.091848921248704e-20  1.236718024837900e-17  3.716434832658733e-01
-9.926755752768039e-01  3.716434832658733e-01  8.652449393554732e-18

 1.101387687284519e-17 -2.643050773677170e-19 -9.213153273760131e-01
-2.643050773677170e-19  1.367076774279333e-17  3.289977500860663e-01
-9.213153273760131e-01  3.289977500860663e-01  5.332626210399200e-18

 1.779303221424107e-17  5.338877351396604e-20 -1.199524933326992e+00
 5.338877351396604e-20  2.110984730132233e-17  1.252034617858662e-01
-1.199524933326992e+00  1.252034617858662e-01  2.536843514737925e-17

 8.800600761418604e-18  1.365023486969212e-19 -8.340700690608268e-01
 1.365023486969212e-19  6.864873270024360e-18  4.777357076158805e-01
-8.340700690608268e-01  4.777357076158805e-01 -1.478277467722964e-18

-6.131249096228213e-18  4.517470872198500e-19 -2.359782927321234e-01
 4.517470872198500e-19 -1.327405266151342e-17  9.773892453895276e-01
-2.359782927321234e-01  9.773892453895276e-01 -4.380271669477991e-17

 5.167456575117771e-18  1.491500936503924e-19 -6.831492506001526e-01
 1.491500936503924e-19  2.201318116905421e-18  5.912884756143966e-01
-6.831492506001526e-01  5.912884756143966e-01 -1.203493612542475e-17

 1.439603600914983e-17 -5.904783003587989e-19 -1.039836217261482e+00
-5.904783003587989e-19  1.864930558661110e-17  2.026231906493422e-01
-1.039836217261482e+00  2.026231906493422e-01  1.553728090726487e-17

 1.019368378038816e-17  1.288893892296125e-19 -8.850923602838714e-01
 1.288893892296125e-19  1.408135114248404e-17  2.895153481401193e-01
-8.850923602838714e-01  2.895153481401193e-01  3.335908638783899e-18

 1.111476573410105e-17 -4.934559313991080e-20 -9.237759992322868e-01
-4.934559313991080e-20  1.145351186010401e-17  3.756460725200521e-01
-9.237759992322868e-01  3.756460725200521e-01  5.283360763425971e-18

 1.052752244229076e-17 -6.053020637465822e-19 -8.931607070331929e-01
-6.053020637465822e-19  6.970280557214327e-18  5.249476894725988e-01
-8.931607070331929e-01  5.249476894725988e-01  2.732394932350029e-18

 1.212257338097956e-17 -6.982466673659397e-22 -9.756759500020744e-01
-6.982466673659397e-22  9.201556435924336e-18  4.505318575674715e-01
-9.756759500020744e-01  4.505318575674715e-01  7.216759191441809e-18

 1.174079749625596e-17 -1.860663258808239e-19 -9.522274992343938e-01
-1.860663258808239e-19  1.358718089936852e-17  3.381549524077276e-01
-9.522274992343938e-01  3.381549524077276e-01  6.798452028132769e-18

 1.268458466516417e-17  3.625148046163737e-20 -9.954758248128559e-01
 3.625148046163737e-20  1.758354741763095e-17  2.265122112778110e-01
-9.954758248128559e-01  2.265122112778110e-01  1.004310634137648e-17

 1.189282451206556e-17  7.856036763747225e-20 -9.668951004232778e-01
 7.856036763747225e-20  1.374987267220468e-17  3.291056866026691e-01
-9.668951004232778e-01  3.291056866026691e-01  7.004592942134158e-18

 1.303957739421207e-17 -3.266541442421785e-19 -1.013125924092450e+00
-3.266541442421785e-19  1.055945597988849e-17  4.420216850128694e-01
-1.013125924092450e+00  4.420216850128694e-01  9.494808049244206e-18

 1.149980734813903e-17  2.494340708159093e-19 -9.623356076083242e-01
 2.494340708159093e-19  8.046257224930623e-18  4.822276936871905e-01
-9.623356076083242e-01  4.822276936871905e-01  4.765462938193421e-18

 1.260874055864124e-17 -5.031722804001182e-20 -9.942704320037349e-01
-5.031722804001182e-20  1.243260139786803e-17  3.729297364170784e-01
-9.942704320037349e-01  3.729297364170784e-01  8.790494607310065e-18

 1.115854209375509e-17 -2.447547985465466e-19 -9.212933815754709e-01
-2.447547985465466e-19  1.363093497616474e-17  3.328671449717306e-01
-9.212933815754709e-01  3.328671449717306e-01  5.325734436024452e-18

 1.798447959822805e-17  5.585995685080725e-20 -1.200994850152525e+00
 5.585995685080725e-20  2.116574064271457e-17  1.273449778943546e-01
-1.200994850152525e+00  1.273449778943546e-01  2.550605133544019e-17

 9.077802703244412e-18  1.474638569792695e-19 -8.391322976395074e-01
 1.474638569792695e-19  7.072557098816558e-18  4.757752310881494e-01
-8.391322976395074e-01  4.757752310881494e-01 -1.098152909673305e-18

-5.953036470590374e-18  4.689688097608407e-19 -2.374391932705144e-01
 4.689688097608407e-19 -1.320120558197358e-17  9.785161787113689e-01
-2.374391932705144e-01  9.785161787113689e-01 -4.373021791272830e-17

 5.340488745404246e-18  1.581184593026939e-19 -6.843251831225701e-01
 1.581184593026939e-19  2.281987670332776e-18  5.926798105502428e-01
-6.843251831225701e-01  5.926798105502428e-01 -1.193805078402587e-17

 1.449420281152133e-17 -5.770265718788026e-19 -1.038272037677665e+00
-5.770265718788026e-19  1.860327508845167e-17  2.071140561412366e-01
-1.038272037677665e+00  2.071140561412366e-01  1.543671779301923e-17

 1.027681027160561e-17  1.365350560692370e-19 -8.828401218349488e-01
 1.365350560692370e-19  1.396338630795931e-17  2.963123091199614e-01
-8.828401218349488e-01  2.963123091199614e-01  3.176416143558485e-18

 1.121066158922762e-17 -3.982864146429938e-20 -9.218107869055485e-01
-3.982864146429938e-20  1.135893003401892e-17  3.819743181257418e-01
-9.218107869055485e-01  3.819743181257418e-01  5.124650798210937e-18

 1.059537609997746e-17 -5.878135042153112e-19 -8.897637276132999e-01
-5.878135042153112e-19  6.838872244156665e-18  5.321358521488861e-01
-8.897637276132999e-01  5.321358521488861e-01  2.453571265479883e-18

 1.216910895814981e-17  1.010782491170093e-21 -9.722806128582955e-01
 1.010782491170093e-21  9.104152345448834e-18  4.581886613550547e-01
-9.722806128582955e-01  4.581886613550547e-01  6.942431058050602e-18

 1.255477294786557e-17 -2.202003162506669e-19 -9.507141460126282e-01
-2.202003162506669e-19  1.334257180523369e-17  3.498561339514294e-01
-9.507141460126282e-01  3.498561339514294e-01  6.527850753700729e-18

 1.406069310026946e-17 -9.934566991979625e-20 -9.928297009691438e-01
-9.934566991979625e-20  1.709753950411831e-17  2.463079568504045e-01
-9.928297009691438e-01  2.463079568504045e-01  9.684965502172330e-18

 1.640342846958891e-17 -3.857078386167664e-19 -9.534323143115537e-01
-3.857078386167664e-19  1.319557374615992e-17  3.507963798830840e-01
-9.534323143115537e-01  3.507963798830840e-01  5.817747527468129e-18

 2.007859152370850e-17 -1.019140764035907e-18 -9.947878348010029e-01
-1.019140764035907e-18  1.032256181388262e-17  4.566946451093724e-01
-9.947878348010029e-01  4.566946451093724e-01  7.749085377339149e-18

-1.044968730425975e-16  1.162039082307042e-17 -9.917388952970990e-01
 1.162039082307042e-17  8.365474119257076e-18  4.651066618122878e-01
-9.917388952970990e-01  4.651066618122878e-01  6.443946469595928e-18

 3.525797603986221e-17 -2.115111044682845e-18 -9.544791704889622e-01
-2.115111044682845e-18  1.034191212229977e-17  4.377112595176534e-01
-9.544791704889622e-01  4.377112595176534e-01  4.137211241312990e-18

 4.348115736803236e-18  6.796907687328300e-19 -7.995446030508305e-01
 6.796907687328300e-19  1.029500632570677e-17  4.173308471667076e-01
-7.995446030508305e-01  4.173308471667076e-01 -6.327911253906317e-18

 2.214573925507586e-17 -1.022969896141695e-19 -1.191014490304260e+00
-1.022969896141695e-19  2.559976438582453e-17  2.922182878136899e-02
-1.191014490304260e+00  2.922182878136899e-02  2.150354931681319e-17

 1.964517208965910e-17  1.342643922329098e-18 -1.274375590441849e+00
 1.342643922329098e-18  2.775819356418743e-17 -6.655607405722334e-02
-1.274375590441849e+00 -6.655607405722334e-02  2.452428429675325e-17

 1.542200919403663e-17  1.206366251813578e-18 -1.121669829824429e+00
 1.206366251813578e-18  1.793491419627863e-17  2.102480202480565e-01
-1.121669829824429e+00  2.102480202480565e-01  1.190059311313540e-17

 1.022734753791333e-17 -2.316155455664138e-18 -8.986281483393139e-01
-2.316155455664138e-18  4.836775159836310e-18  7.390383354515709e-01
-8.986281483393139e-01  7.390383354515709e-01  2.384888913085692e-18

 5.852840389647940e-18 -1.558473819165543e-18 -7.455912385774396e-01
-1.558473819165543e-18 -3.021157378127845e-18  9.347171623533266e-01
-7.455912385774396e-01  9.347171623533266e-01 -1.156013613361081e-17

 1.729556908783710e-17  1.437761741003716e-21 -1.227454119657445e+00
 1.437761741003716e-21  1.399658418284088e-17  4.160999193305228e-01
-1.227454119657445e+00  4.160999193305228e-01  1.983296382744405e-17

 1.516549268003281e-17 -7.797094608520216e-19 -1.107149519861394e+00
-7.797094608520216e-19  1.789528678642257e-17  3.092364539820973e-01
-1.107149519861394e+00  3.092364539820973e-01  1.488350803433155e-17

 1.732795240847602e-17 -9.947036947090071e-19 -1.180930180098581e+00
-9.947036947090071e-19  2.150664262864229e-17  2.148860225234270e-01
-1.180930180098581e+00  2.148860225234270e-01  2.162771082357263e-17

 1.321085679372240e-17 -3.817764142610392e-19 -1.022959699447737e+00
-3.817764142610392e-19  1.514022001998090e-17  3.442147294981585e-01
-1.022959699447737e+00  3.442147294981585e-01  9.859555906480212e-18

 1.076181098807266e-17  3.380421356973907e-19 -9.327555049259338e-01
 3.380421356973907e-19  8.849769099075004e-18  4.658999749435138e-01
-9.327555049259338e-01  4.658999749435138e-01  2.912579158418590e-18

 8.053974780513972e-18  1.008121714287758e-18 -8.315532777151607e-01
 1.008121714287758e-18  4.395275466947819e-18  5.425314570588303e-01
-8.315532777151607e-01  5.425314570588303e-01 -4.274400514977487e-18

 1.765718327114952e-18  1.381094721647205e-18 -5.778709279722402e-01
 1.381094721647205e-18 -1.379376784074420e-18  6.614832375027440e-01
-5.778709279722402e-01  6.614832375027440e-01 -2.148713218662447e-17

 1.065455169791539e-17 -8.302640670801290e-19 -8.796586917087150e-01
-8.302640670801290e-19  1.458795192919178e-17  3.297198355485360e-01
-8.796586917087150e-01  3.297198355485360e-01  3.374570989358917e-18

 1.011190967124179e-17  2.138554419258932e-19 -8.791476778867041e-01
 2.138554419258932e-19  1.653617912902920e-17  2.335362366655318e-01
-8.791476778867041e-01  2.335362366655318e-01  2.153856808677619e-18

 9.188629601619252e-18  1.269370006796792e-19 -8.495591524626533e-01
 1.269370006796792e-19  9.799093270924856e-18  4.292648671855747e-01
-8.495591524626533e-01  4.292648671855747e-01 -1.311784382435315e-18

 1.530504353547330e-17  1.989314345524002e-19 -1.116092207675147e+00
 1.989314345524002e-19  1.370637614886794e-17  3.571321027751703e-01
-1.116092207675147e+00  3.571321027751703e-01  1.526003597304786e-17

 8.936357416596400e-18  2.224030592573286e-19 -8.858713597216519e-01
 2.224030592573286e-19 -4.551506714668756e-19  7.565891957476177e-01
-8.858713597216519e-01  7.565891957476177e-01 -1.486217692421793e-18

-1.442434273152293e-18  1.859182134393682e-18 -4.568716295259403e-01
 1.859182134393682e-18 -1.210020080872802e-17  9.994036481314371e-01
-4.568716295259403e-01  9.994036481314371e-01 -3.125338077710066e-17

 1.377679949568743e-17  3.387061335653399e-19 -1.047347334413689e+00
 3.387061335653399e-19  1.039848019746656e-17  4.436323467604391e-01
-1.047347334413689e+00  4.436323467604391e-01  9.650171804555157e-18

 1.639434391339194e-17 -1.874296303803109e-18 -9.881188227934561e-01
-1.874296303803109e-18  2.001775744974503e-17  2.404439624285688e-01
-9.881188227934561e-01  2.404439624285688e-01  9.517718566832782e-18

 2.366908316747492e-17 -1.901908107883718e-18 -8.893649753533389e-01
-1.901908107883718e-18  1.423763653974962e-17  3.378971004787553e-01
-8.893649753533389e-01  3.378971004787553e-01  1.064356335406815e-18

-2.572315818325814e-17  4.867890906713862e-18 -9.063754710562377e-01
 4.867890906713862e-18  9.852814824265157e-18  4.464037081679555e-01
-9.063754710562377e-01  4.464037081679555e-01  1.292986792727216e-18

-1.095538180914365e-16  1.689866426449415e-17 -1.030363030414243e+00
 1.689866426449415e-17  9.603096738706603e-18  4.390785365981770e-01
-1.030363030414243e+00  4.390785365981770e-01  8.472360592349866e-18

 9.635124532743188e-17 -1.152030396569334e-17 -1.113053654142357e+00
-1.152030396569334e-17  1.484999974831256e-17  4.167386794925980e-01
-1.113053654142357e+00  4.167386794925980e-01  1.301227452218697e-17

-9.825870266658056e-18  3.191666033958666e-18 -9.522736874873636e-01
 3.191666033958666e-18  6.143381774558395e-18  5.808744536910089e-01
-9.522736874873636e-01  5.808744536910089e-01 -1.627968294545107e-19

 1.473722375036712e-17 -3.152869463363292e-19 -1.018252386198273e+00
-3.152869463363292e-19  1.189916875467910e-17  4.510778681660097e-01
-1.018252386198273e+00  4.510778681660097e-01  5.759095089701675e-18

 2.930017003549697e-17 -1.385386207468785e-18 -1.484635713924948e+00
-1.385386207468785e-18  2.893870286129589e-17  4.256295649450917e-02
-1.484635713924948e+00  4.256295649450917e-02  4.075744535967402e-17

 1.503784625776022e-17 -3.900761316035269e-19 -1.144474983718614e+00
-3.900761316035269e-19  1.875076586807381e-17  2.901602559616982e-01
-1.144474983718614e+00  2.901602559616982e-01  1.640290970287076e-17

 1.236635820035280e-17 -3.492031448738336e-19 -9.957111442884070e-01
-3.492031448738336e-19  1.249415041014681e-17  4.406631080563652e-01
-9.957111442884070e-01  4.406631080563652e-01  5.165403423941472e-18

 1.388363067506365e-17 -4.975174116530571e-20 -1.068484174939061e+00
-4.975174116530571e-20  1.267343227121139e-17  4.247620523190001e-01
-1.068484174939061e+00  4.247620523190001e-01  1.030425381913987e-17

 1.099565116533449e-17  5.725562493570133e-19 -9.570470831329987e-01
 5.725562493570133e-19  8.306563110969612e-18  4.956457186421175e-01
-9.570470831329987e-01  4.956457186421175e-01  2.869817961937334e-18

 8.255579596287488e-18  2.781691683784293e-19 -8.296715768942916e-01
 2.781691683784293e-19  8.579316312587084e-18  4.814155694621017e-01
-8.296715768942916e-01  4.814155694621017e-01 -4.275511584901586e-18

 1.353295296496623e-17 -3.659696195940814e-19 -1.018873613144975e+00
-3.659696195940814e-19  2.060573290378417e-17  1.879468418885170e-01
-1.018873613144975e+00  1.879468418885170e-01  1.102416146850985e-17

 1.253946825265630e-17  8.090639701892847e-19 -1.004918700133809e+00
 8.090639701892847e-19  1.869578767694649e-17  1.903822995207893e-01
-1.004918700133809e+00  1.903822995207893e-01  7.750208962484497e-18

 1.094162403193556e-17  1.295043340592456e-19 -9.325164257755922e-01
 1.295043340592456e-19  1.211267635274274e-17  4.008266138917045e-01
-9.325164257755922e-01  4.008266138917045e-01  2.888337041630432e-18

 1.152264268838349e-17 -1.041100964689918e-18 -9.394974238870032e-01
-1.041100964689918e-18  8.114693770993351e-18  5.686219468376318e-01
-9.394974238870032e-01  5.686219468376318e-01  4.480367228622954e-18

 1.207668603086205e-17 -7.185167392867783e-19 -9.780303983225923e-01
-7.185167392867783e-19  7.019372265752426e-18  6.015777146420159e-01
-9.780303983225923e-01  6.015777146420159e-01  5.038495161491604e-18

 1.494084085267937e-17 -1.710869919355871e-19 -1.103480309012815e+00
-1.710869919355871e-19  1.494536375062493e-17  3.736319463122520e-01
-1.103480309012815e+00  3.736319463122520e-01  1.368112319190541e-17

 1.214524653533660e-17  9.162404412717737e-20 -9.928432718547038e-01
 9.162404412717737e-20  1.103604368090445e-17  4.562017960752460e-01
-9.928432718547038e-01  4.562017960752460e-01  5.493946984218091e-18

 1.260590854406453e-17 -1.316769813049816e-19 -1.001355109135333e+00
-1.316769813049816e-19  1.377640751329103e-17  3.848392886906766e-01
-1.001355109135333e+00  3.848392886906766e-01  7.486703884898553e-18

 1.070023168100991e-17 -1.296929541248408e-20 -9.252932442111216e-01
-1.296929541248408e-20  1.102357117182287e-17  4.451038912548571e-01
-9.252932442111216e-01  4.451038912548571e-01  1.875880477499547e-18

 1.368100588784816e-17  1.057533688351578e-19 -1.050080790255102e+00
 1.057533688351578e-19  1.526801151390778e-17  3.357885076628302e-01
-1.050080790255102e+00  3.357885076628302e-01  1.083047781215716e-17

 1.479312605170501e-17  1.304887064604700e-19 -1.098234218536590e+00
 1.304887064604700e-19  1.626423407036824e-17  3.121465258949844e-01
-1.098234218536590e+00  3.121465258949844e-01  1.397725105170493e-17

 8.200402034215488e-18 -7.776320115864482e-20 -8.314254852161811e-01
-7.776320115864482e-20  6.084849480707553e-18  5.853078742981737e-01
-8.314254852161811e-01  5.853078742981737e-01 -6.242196531218494e-18

 1.137187277663460e-17  2.218803770385767e-19 -9.709141133558252e-01
 2.218803770385767e-19  1.181549242363358e-17  4.340377920254687e-01
-9.709141133558252e-01  4.340377920254687e-01  3.172229696442144e-18

 1.631283752728588e-17  8.805161999974799e-19 -1.194700365001126e+00
 8.805161999974799e-19  1.993861124128671e-17  2.118383230297716e-01
-1.194700365001126e+00  2.118383230297716e-01  1.717871090964668e-17

 1.114924050356652e-17 -3.863268455161890e-19 -9.738352154729734e-01
-3.863268455161890e-19  9.015436800944752e-18  5.648243347842998e-01
-9.738352154729734e-01  5.648243347842998e-01  1.553065901649254e-18

 4.094108475689915e-18 -1.039014061379963e-18 -6.878718291137543e-01
-1.039014061379963e-18 -1.699423302137943e-18  8.871534535166542e-01
-6.878718291137543e-01  8.871534535166542e-01 -1.897509742985086e-17

 1.398793932419049e-17 -3.622294258513258e-19 -1.105368185898484e+00
-3.622294258513258e-19  1.267391973073163e-17  4.934372659174011e-01
-1.105368185898484e+00  4.934372659174011e-01  9.372590051198611e-18

 2.317920546482307e-17  6.735982245219481e-20 -1.486611923679537e+00
 6.735982245219481e-20  2.667652879914699e-17  1.182045915172057e-01
-1.486611923679537e+00  1.182045915172057e-01  3.661641248198008e-17

 1.773908759544407e-17  7.055003945828766e-20 -1.278545270380942e+00
 7.055003945828766e-20  1.982182329559620e-17  3.078746403796779e-01
-1.278545270380942e+00  3.078746403796779e-01  2.034321942207937e-17

 1.616179169476840e-17  1.095028183406005e-19 -1.237574345100253e+00
 1.095028183406005e-19  1.264694871435098e-17  5.226917406565655e-01
-1.237574345100253e+00  5.226917406565655e-01  1.483633371732090e-17

 9.044326978784769e-18  9.419889541199993e-19 -9.634666066626612e-01
 9.419889541199993e-19  6.894188901698963e-18  6.207415387522687e-01
-9.634666066626612e-01  6.207415387522687e-01 -4.822370622727395e-18

 1.596767852360004e-17 -5.895854863699423e-19 -1.194322434088264e+00
-5.895854863699423e-19  2.002578161250391e-17  3.188816992801541e-01
-1.194322434088264e+00  3.188816992801541e-01  1.511367279194755e-17

 1.633300018946518e-17  2.404017063056383e-19 -1.220160454253063e+00
 2.404017063056383e-19  2.473509986658979e-17  1.512539222760990e-01
-1.220160454253063e+00  1.512539222760990e-01  1.600354330056203e-17

 1.619033862375578e-17 -2.883944018555795e-20 -1.224883068435667e+00
-2.883944018555795e-20  1.775407934527095e-17  3.708981831452802e-01
-1.224883068435667e+00  3.708981831452802e-01  1.523563403679509e-17

 6.199582431001124e-18 -2.135261230108892e-18 -7.968336685623982e-01
-2.135261230108892e-18  2.885127389690910e-19  9.493485207495542e-01
-7.968336685623982e-01  9.493485207495542e-01 -1.232832108456923e-17

 1.076348099778584e-17 -1.471269127715922e-18 -9.974559498382841e-01
-1.471269127715922e-18  4.700239602459459e-18  8.110503714750029e-01
-9.974559498382841e-01  8.110503714750029e-01 -2.137934219123004e-19

 1.888607161819734e-17 -2.777673837213162e-19 -1.338861341049411e+00
-2.777673837213162e-19  1.617514600208938e-17  4.536130948961836e-01
-1.338861341049411e+00  4.536130948961836e-01  2.305353371206347e-17

 1.590074194390911e-17 -5.248218374628270e-19 -1.175325689136111e+00
-5.248218374628270e-19  1.754308859242117e-17  3.695214390676221e-01
-1.175325689136111e+00  3.695214390676221e-01  1.555919889246015e-17

 8.188929099914958e-18  6.143719459337542e-19 -8.588794530009923e-01
 6.143719459337542e-19  5.424916995766141e-18  5.894208910625008e-01
-8.588794530009923e-01  5.894208910625008e-01 -5.553210984280905e-18

 6.125798071531703e-18  9.239539674739779e-19 -7.672470949850584e-01
 9.239539674739779e-19  2.327690024029911e-18  6.337846018504254e-01
-7.672470949850584e-01  6.337846018504254e-01 -1.080235131460090e-17

 1.921158370658033e-17 -9.827139773194625e-19 -1.246074208663427e+00
-9.827139773194625e-19  1.992792960983411e-17  2.455870467623386e-01
-1.246074208663427e+00  2.455870467623386e-01  2.608368550871028e-17

 5.306315608799061e-18  1.674224989537806e-19 -6.925782501619007e-01
 1.674224989537806e-19  4.478395242070121e-18  5.683695059085320e-01
-6.925782501619007e-01  5.683695059085320e-01 -1.253322562751901e-17

 9.288694802399409e-18 -8.443871007796295e-19 -8.176604075905752e-01
-8.443871007796295e-19  1.346806461392829e-17  3.601867589575908e-01
-8.176604075905752e-01  3.601867589575908e-01 -8.242846523933851e-19

 1.330296274241671e-17  1.176485783508699e-19 -9.973044633793137e-01
 1.176485783508699e-19  2.076573047272038e-17  1.305819649877455e-01
-9.973044633793137e-01  1.305819649877455e-01  1.088825391397404e-17

 7.990220346382856e-18 -5.453287315929397e-19 -7.657830548475705e-01
-5.453287315929397e-19  7.336702615435366e-18  5.054495080208549e-01
-7.657830548475705e-01  5.054495080208549e-01 -4.152891340409142e-18

 1.035968350590010e-17 -8.486909723876859e-19 -8.586856668448097e-01
-8.486909723876859e-19  5.040337393793712e-18  5.900444851487970e-01
-8.586856668448097e-01  5.900444851487970e-01  1.758938505544017e-18

 1.171759017948362e-17 -9.132734571660720e-20 -9.285853206150029e-01
-9.132734571660720e-20  7.296039704706122e-18  5.022277018700824e-01
-9.285853206150029e-01  5.022277018700824e-01  5.375733879545232e-18

 1.127943850047573e-17  1.521662405798966e-19 -9.126765250708737e-01
 1.521662405798966e-19  8.970799354597575e-18  4.436200821122370e-01
-9.126765250708737e-01  4.436200821122370e-01  4.564696903325931e-18

 9.853563882428639e-18 -1.724872890159512e-19 -8.412033320847981e-01
-1.724872890159512e-19  1.112768878005501e-17  3.890617532275304e-01
-8.412033320847981e-01  3.890617532275304e-01  1.025115145741016e-18

 1.299399566583124e-17 -1.883531765964091e-19 -9.667318702605403e-01
-1.883531765964091e-19  1.810897973448527e-17  2.096813600272007e-01
-9.667318702605403e-01  2.096813600272007e-01  1.072187630449086e-17

 1.038075119143682e-17  1.253269073236985e-19 -8.689042610031452e-01
 1.253269073236985e-19  1.251315654246231e-17  3.397155461246193e-01
-8.689042610031452e-01  3.397155461246193e-01  2.653718674644069e-18

 1.098010972391834e-17 -3.409070476404801e-19 -8.902364898777112e-01
-3.409070476404801e-19  9.174771523164561e-18  4.567690501472539e-01
-8.902364898777112e-01  4.567690501472539e-01  3.591798852219709e-18

 1.248003916881285e-17 -1.016365560838575e-19 -9.634832758056383e-01
-1.016365560838575e-19  1.167465436761083e-17  3.951463935229974e-01
-9.634832758056383e-01  3.951463935229974e-01  7.609438786707053e-18

 1.267542549265734e-17 -3.982418729402444e-20 -9.786417654338504e-01
-3.982418729402444e-20  1.233968868214499e-17  3.801867011643056e-01
-9.786417654338504e-01  3.801867011643056e-01  8.286382981161293e-18

 1.175566952096863e-17  6.303686446079859e-20 -9.661826199673009e-01
 6.303686446079859e-20  1.176728686028179e-17  3.945538974910570e-01
-9.661826199673009e-01  3.945538974910570e-01  7.234161172675483e-18

 6.444495740734490e-18  8.598028987860594e-19 -9.599320502565574e-01
 8.598028987860594e-19  5.166350242181018e-18  3.962654796970458e-01
-9.599320502565574e-01  3.962654796970458e-01  6.058160760708906e-18

 1.066949313475725e-17 -2.919503459183678e-19 -9.851062991268986e-01
-2.919503459183678e-19  2.065713472682011e-17  4.163831894679152e-01
-9.851062991268986e-01  4.163831894679152e-01  6.981155870614152e-18

 3.076834089036175e-17 -5.941960790656034e-18 -9.467608197012319e-01
-5.941960790656034e-18  1.933942947707774e-17  3.789608763000022e-01
-9.467608197012319e-01  3.789608763000022e-01  5.483475478015304e-18

 2.415547840518699e-18  3.734132877441635e-19 -9.443500403636055e-01
 3.734132877441635e-19  9.525624614355353e-18  4.062036893557792e-01
-9.443500403636055e-01  4.062036893557792e-01  5.099437244935056e-18

-3.156539912646854e-17  1.305871316673328e-17 -1.068468624098092e+00
 1.305871316673328e-17  1.775328761972480e-17  4.258878346973247e-01
-1.068468624098092e+00  4.258878346973247e-01  1.181821010209292e-17

-2.204400686578912e-18  1.316227242937197e-17 -9.584980169614471e-01
 1.316227242937197e-17 -8.094816829253843e-18  6.629265522306006e-01
-9.584980169614471e-01  6.629265522306006e-01  1.955082484828915e-18

 8.705454856046252e-18 -1.598380944190295e-18 -1.009259257884779e+00
-1.598380944190295e-18  1.595267437746579e-17  6.039922314469099e-01
-1.009259257884779e+00  6.039922314469099e-01  8.213881458319942e-18

 1.842419041537166e-17 -1.842021427414530e-18 -1.026503157671194e+00
-1.842021427414530e-18  2.098267440688147e-17  3.022240072382766e-01
-1.026503157671194e+00  3.022240072382766e-01  8.373911958233695e-18

 8.666846523493810e-18 -5.291502055412712e-19 -8.951128060875597e-01
-5.291502055412712e-19  2.051830688407578e-17  3.631164960441665e-01
-8.951128060875597e-01  3.631164960441665e-01  7.450081926053063e-19

 6.682984056943582e-18 -1.449850030312170e-18 -7.831600481981459e-01
-1.449850030312170e-18  3.219104828544307e-18  5.258899530087507e-01
-7.831600481981459e-01  5.258899530087507e-01 -7.684005306097106e-18

 1.535984445015459e-17 -2.834532626592845e-18 -1.137305649799001e+00
-2.834532626592845e-18  1.306919490248274e-17  3.480044966235995e-01
-1.137305649799001e+00  3.480044966235995e-01  1.646755870641881e-17

 1.065187414298597e-17  1.376159829317402e-18 -1.091534990768616e+00
 1.376159829317402e-18  5.397166961842524e-18  5.792287262666131e-01
-1.091534990768616e+00  5.792287262666131e-01  7.215364796778149e-18

 1.381207433701497e-17  4.517545831976527e-19 -1.239070822477864e+00
 4.517545831976527e-19  1.423929238729950e-17  6.005055339656236e-01
-1.239070822477864e+00  6.005055339656236e-01  1.557169043856009e-17

 1.457234767978473e-17 -3.646667199916442e-19 -1.203878182132365e+00
-3.646667199916442e-19  1.842692490472735e-17  4.262516289303742e-01
-1.203878182132365e+00  4.262516289303742e-01  1.442439496082548e-17

 2.781097586794381e-17 -3.837743805232958e-18 -1.201069740939494e+00
-3.837743805232958e-18  4.838756963266465e-18  4.439304630619760e-01
-1.201069740939494e+00  4.439304630619760e-01  1.500357228616271e-17

-1.292211056040151e-17  6.636392759751137e-18 -1.233803787402809e+00
 6.636392759751137e-18  1.385017068956273e-17  4.321451425656891e-01
-1.233803787402809e+00  4.321451425656891e-01  1.791930594425441e-17

-3.387807955867407e-17  1.048915360382105e-17 -1.038449373859909e+00
 1.048915360382105e-17 -6.829503164697601e-19  5.970306775749328e-01
-1.038449373859909e+00  5.970306775749328e-01  5.519246368224730e-18

 2.139512573203202e-17 -2.398365472919491e-18 -1.086201431107579e+00
-2.398365472919491e-18  2.943109802673165e-17  3.358252144135739e-01
-1.086201431107579e+00  3.358252144135739e-01  9.509554858696271e-18

 8.085079989072354e-18  3.859267321812467e-19 -1.069081984599919e+00
 3.859267321812467e-19  3.312393914799530e-17  3.613799774800935e-01
-1.069081984599919e+00  3.613799774800935e-01  9.379565849188152e-18

 2.739132736170403e-18  4.222236557461058e-19 -8.571126776148347e-01
 4.222236557461058e-19  2.429358751874203e-17  5.735433309009551e-01
-8.571126776148347e-01  5.735433309009551e-01 -6.902045864348526e-18

 1.091939136704498e-17 -5.806464942254016e-19 -1.046235359660885e+00
-5.806464942254016e-19  1.126945685507414e-17  4.994795120994104e-01
-1.046235359660885e+00  4.994795120994104e-01  6.197412906890037e-18

 1.016856259283589e-17 -5.433164245645962e-19 -9.818251425019219e-01
-5.433164245645962e-19  9.186266567848865e-18  6.403856515312435e-01
-9.818251425019219e-01  6.403856515312435e-01 -7.952904346154503e-19

 1.011266849115503e-17 -4.041245449129669e-19 -1.044370370780091e+00
-4.041245449129669e-19  1.177632216187882e-17  6.101019805058943e-01
-1.044370370780091e+00  6.101019805058943e-01  2.800946762631969e-18

 1.507896261022036e-17 -8.708523743213549e-19 -1.246779597107248e+00
-8.708523743213549e-19  2.578117254010700e-17  3.886232977426053e-01
-1.246779597107248e+00  3.886232977426053e-01  1.821607967476735e-17

 1.363757383190585e-17 -1.451623475710010e-18 -1.164062090557804e+00
-1.451623475710010e-18  3.478102851640005e-17  4.646356760482543e-01
-1.164062090557804e+00  4.646356760482543e-01  1.115268873035579e-17

 1.951591341261847e-17 -1.848490649339682e-18 -1.429067055981947e+00
-1.848490649339682e-18  1.491700210496552e-17  3.752648327482799e-01
-1.429067055981947e+00  3.752648327482799e-01  2.755820680878985e-17

 1.019518832937888e-17  7.789155281700140e-19 -1.171742276908680e+00
 7.789155281700140e-19  1.410818380203318e-17  7.241767243498839e-01
-1.171742276908680e+00  7.241767243498839e-01  4.269617441115824e-18

 1.170043522070394e-17  3.891661326546983e-19 -1.237791655919254e+00
 3.891661326546983e-19  1.428122999759497e-17  7.345590277191810e-01
-1.237791655919254e+00  7.345590277191810e-01  8.033141167774994e-18

 3.004327037208248e-17 -3.545561647453511e-18 -1.813270599035995e+00
-3.545561647453511e-18  2.984033677701848e-17  1.573387067504474e-01
-1.813270599035995e+00  1.573387067504474e-01  5.130280048155075e-17

 2.796810539652766e-17 -6.683834227304437e-18 -1.353378832619646e+00
-6.683834227304437e-18  1.889820698391745e-17  7.355226380861440e-01
-1.353378832619646e+00  7.355226380861440e-01  1.760151157457913e-17

 2.035170716267468e-18 -1.601962571024288e-18 -1.118148278183610e+00
-1.601962571024288e-18  1.662856131299164e-17  9.586693905403668e-01
-1.118148278183610e+00  9.586693905403668e-01  5.841615263852047e-18

 7.370907980360223e-17 -5.654697673376562e-18 -1.478152759148557e+00
-5.654697673376562e-18  3.338527239647926e-17  3.066763501896372e-01
-1.478152759148557e+00  3.066763501896372e-01  2.647841509206532e-17

-2.159739410750833e-18  3.503503209685493e-18 -1.135378200282749e+00
 3.503503209685493e-18  2.096169195085281e-17  4.122346448143551e-01
-1.135378200282749e+00  4.122346448143551e-01  8.010036375400033e-18

-1.065501066061808e-17  7.501772713758615e-18 -1.021871631846625e+00
 7.501772713758615e-18  1.306903105393584e-17  5.615482354784950e-01
-1.021871631846625e+00  5.615482354784950e-01  2.685378584135725e-18

 2.104686237957427e-17 -4.837423404161765e-18 -1.079060347660110e+00
-4.837423404161765e-18 -4.310098227134573e-18  5.107901793267776e-01
-1.079060347660110e+00  5.107901793267776e-01  7.684248736758333e-18

-2.123544554165243e-16  8.426639330352124e-17 -1.047524159042827e+00
 8.426639330352124e-17 -3.508411435340832e-17  5.505626055123369e-01
-1.047524159042827e+00  5.505626055123369e-01  5.778388647372795e-18

 7.008576186095108e-17 -2.375353235227437e-17 -9.413274316729882e-01
-2.375353235227437e-17  1.969296666106890e-17  6.329297697643547e-01
-9.413274316729882e-01  6.329297697643547e-01 -1.635415349026313e-18

 1.047615471892583e-16 -3.567935570163853e-17 -1.085926389223994e+00
-3.567935570163853e-17  1.853495131150896e-17  4.215935926749192e-01
-1.085926389223994e+00  4.215935926749192e-01  9.477044077794538e-18

-1.844221941291352e-17  1.080178983773532e-17 -1.096402275480217e+00
 1.080178983773532e-17  1.178265964296133e-17  4.127099990925249e-01
-1.096402275480217e+00  4.127099990925249e-01  1.031184897859936e-17

 3.006437070062126e-17 -8.020666351525598e-18 -1.055952588139307e+00
-8.020666351525598e-18  2.518653148747821e-17  5.336264412911251e-01
-1.055952588139307e+00  5.336264412911251e-01  5.228438004944882e-18

 1.805416765530091e-17 -2.821766246822655e-18 -1.101901171187900e+00
-2.821766246822655e-18  2.023867356005916e-17  5.756020448309287e-01
-1.101901171187900e+00  5.756020448309287e-01  6.264639735488895e-18

 1.573571251874032e-17 -9.477422314722873e-19 -1.246037504158356e+00
-9.477422314722873e-19  1.598012073417171e-17  5.433231091219125e-01
-1.246037504158356e+00  5.433231091219125e-01  1.406795186582238e-17

 4.051175650740237e-18  2.161130013400483e-18 -1.183483308765574e+00
 2.161130013400483e-18  1.373685799000583e-18  6.333945010213088e-01
-1.183483308765574e+00  6.333945010213088e-01  7.562357976019744e-18

-1.647764643893157e-17  9.287685636900427e-18 -1.309185552740292e+00
 9.287685636900427e-18  1.061322785016788e-17  4.748246434122588e-01
-1.309185552740292e+00  4.748246434122588e-01  1.735264285850326e-17

-6.455395722199025e-18  7.616620270459639e-18 -1.547839394918739e+00
 7.616620270459639e-18  1.426450988935817e-17  2.943908097097475e-01
-1.547839394918739e+00  2.943908097097475e-01  3.473339559975297e-17

 4.268078160097948e-17 -8.524823272743101e-18 -1.312166395223888e+00
-8.524823272743101e-18  1.930802705958680e-17  7.381399515415841e-01
-1.312166395223888e+00  7.381399515415841e-01  1.294837659172928e-17

-3.032135297691853e-17  1.284272048271773e-17 -1.331090756101383e+00
 1.284272048271773e-17  4.106707394874247e-18  7.962361563508192e-01
-1.331090756101383e+00  7.962361563508192e-01  1.583566074029231e-17

 6.413705589544785e-17 -9.932996395057186e-18 -1.475813971629380e+00
-9.932996395057186e-18  1.966083815107661e-17  5.089405364809048e-01
-1.475813971629380e+00  5.089405364809048e-01  2.793202164551900e-17

-2.641744338226276e-17  8.236903348623142e-18 -1.247671217255671e+00
 8.236903348623142e-18  1.541547155941038e-17  4.990586017527718e-01
-1.247671217255671e+00  4.990586017527718e-01  1.388153863075117e-17

 3.519439140332257e-17 -3.696683151096984e-18 -1.242768752786473e+00
-3.696683151096984e-18  2.569261685015070e-17  3.327841131031213e-01
-1.242768752786473e+00  3.327841131031213e-01  1.529171819132670e-17

 4.236859258532005e-17 -6.824450778949081e-18 -1.033547316633320e+00
-6.824450778949081e-18 -5.733950132405978e-18  5.256847056645321e-01
-1.033547316633320e+00  5.256847056645321e-01  2.528605290696590e-18

 2.244691639445730e-17 -2.674756849204404e-18 -1.059231252433121e+00
-2.674756849204404e-18  1.708036785870947e-17  5.177214613891076e-01
-1.059231252433121e+00  5.177214613891076e-01  5.668899582562222e-18

 1.030022941837562e-17 -3.482551860962062e-19 -1.037931785936907e+00
-3.482551860962062e-19  2.874261934402714e-17  5.543178347062542e-01
-1.037931785936907e+00  5.543178347062542e-01  4.807476047580350e-18

 7.050533853580672e-18 -3.395634628776237e-19 -9.206519033121650e-01
-3.395634628776237e-19 -7.031973469645242e-18  6.482988731280988e-01
-9.206519033121650e-01  6.482988731280988e-01 -3.302759245319550e-18

 1.104797357284450e-17 -3.832944891739438e-19 -1.061651170112349e+00
-3.832944891739438e-19  2.024409757115759e-17  4.392287708249138e-01
-1.061651170112349e+00  4.392287708249138e-01  7.595760411689509e-18

 1.567660134674378e-17 -2.548583840120699e-18 -1.066515922187869e+00
-2.548583840120699e-18  2.226490278748388e-18  4.315300321891028e-01
-1.066515922187869e+00  4.315300321891028e-01  8.100012592479696e-18

 4.593298388357399e-18  1.242432123424630e-18 -1.047281971543485e+00
 1.242432123424630e-18  3.251539548226802e-17  5.306853252419058e-01
-1.047281971543485e+00  5.306853252419058e-01  4.666644685220048e-18

 1.190353831349486e-17 -8.654918361663288e-19 -1.109443914061918e+00
-8.654918361663288e-19  2.696599451525465e-17  5.672310936024691e-01
-1.109443914061918e+00  5.672310936024691e-01  6.462835967522713e-18

 7.255476013435641e-17 -2.223044950755278e-17 -1.378677464504767e+00
-2.223044950755278e-17  2.199443229084243e-17  4.922016687469455e-01
-1.378677464504767e+00  4.922016687469455e-01  2.205367389246955e-17

 5.983153203652141e-18  2.433314995683957e-18 -1.182217603137301e+00
 2.433314995683957e-18  1.169217133196621e-17  8.322490647614654e-01
-1.182217603137301e+00  8.322490647614654e-01  3.339471738707276e-18

 2.045226680704530e-17 -2.502435674384586e-18 -1.327913421259247e+00
-2.502435674384586e-18  8.967479225187800e-18  7.098136768026512e-01
-1.327913421259247e+00  7.098136768026512e-01  1.421632107570268e-17

 2.428407309558558e-17 -4.443030462594636e-19 -1.719648524892951e+00
-4.443030462594636e-19  3.568136954176594e-17  1.593592139220356e-01
-1.719648524892951e+00  1.593592139220356e-01  4.438457938965578e-17

 1.613409359690216e-17 -8.549270713439997e-19 -1.321909552859532e+00
-8.549270713439997e-19  1.079660503158167e-17  6.950994395710016e-01
-1.321909552859532e+00  6.950994395710016e-01  1.380735419721597e-17

 1.449048813876918e-17 -1.066423421745017e-18 -1.291187558944854e+00
-1.066423421745017e-18  1.870611004298767e-17  7.991284186439155e-01
-1.291187558944854e+00  7.991284186439155e-01  1.301323165159235e-17

 1.835851756790438e-17 -5.018087052406680e-19 -1.441528631798744e+00
-5.018087052406680e-19  4.141152639173754e-18  5.267929542740778e-01
-1.441528631798744e+00  5.267929542740778e-01  2.551622351917032e-17

 1.384531177216079e-17 -1.977121171739235e-19 -1.228199316021829e+00
-1.977121171739235e-19  1.330253778301193e-17  5.167048937335282e-01
-1.228199316021829e+00  5.167048937335282e-01  1.252589841206310e-17

 1.425381139546643e-17  7.767070479615416e-19 -1.233698887333652e+00
 7.767070479615416e-19 -9.049372331420615e-18  3.441258735527460e-01
-1.233698887333652e+00  3.441258735527460e-01  1.467371133568306e-17

 9.812114039277144e-18  1.527808638689181e-20 -1.028324674109106e+00
 1.527808638689181e-20 -1.633711819321328e-18  5.340028245857729e-01
-1.028324674109106e+00  5.340028245857729e-01  2.157039240059016e-18

 1.074147421712243e-17 -2.683294769284738e-19 -1.054850671675874e+00
-2.683294769284738e-19  1.422052740263023e-17  5.257830845851308e-01
-1.054850671675874e+00  5.257830845851308e-01  5.348057165540004e-18

 1.042783824038248e-17 -3.869606819566454e-19 -1.034417239615053e+00
-3.869606819566454e-19  5.975071732224318e-18  5.612945274093146e-01
-1.034417239615053e+00  5.612945274093146e-01  4.542738891629430e-18

 7.689488859447745e-18 -6.201559555042335e-19 -9.195928046752005e-01
-6.201559555042335e-19  1.803494166140432e-17  6.515476280342495e-01
-9.195928046752005e-01  6.515476280342495e-01 -3.378785960784505e-18

 1.117814895160728e-17 -5.363877766229489e-19 -1.061501092488311e+00
-5.363877766229489e-19  1.847785035747140e-17  4.405980188848540e-01
-1.061501092488311e+00  4.405980188848540e-01  7.592018273202060e-18

 1.142575911166051e-17 -9.969893180335510e-19 -1.066291608268874e+00
-9.969893180335510e-19 -8.449764393955335e-18  4.327120215620400e-01
-1.066291608268874e+00  4.327120215620400e-01  8.089214717815210e-18

 1.056326579015666e-17 -9.984874794670629e-19 -1.047859405987923e+00
-9.984874794670629e-19 -3.108593337160360e-18  5.308078455804506e-01
-1.047859405987923e+00  5.308078455804506e-01  4.718269130029041e-18

 1.144369398954197e-17 -6.900902406390244e-19 -1.111508368242703e+00
-6.900902406390244e-19  1.880727888083067e-17  5.656894311637440e-01
-1.111508368242703e+00  5.656894311637440e-01  6.613056009044392e-18

 1.737305349661461e-17 -9.917102836599532e-19 -1.382938015344315e+00
-9.917102836599532e-19  3.689279785687082e-17  4.880302189228238e-01
-1.382938015344315e+00  4.880302189228238e-01  2.235921788662935e-17

 1.086052668030374e-17  7.125140859850946e-19 -1.194666061020926e+00
 7.125140859850946e-19 -1.224600731514499e-18  8.221327425252145e-01
-1.194666061020926e+00  8.221327425252145e-01  4.190449082467388e-18

 1.504623557900596e-17 -3.237539975897057e-19 -1.346341038465819e+00
-3.237539975897057e-19  1.466926188035281e-17  6.988908345381744e-01
-1.346341038465819e+00  6.988908345381744e-01  1.553919006213309e-17

 2.592549608435884e-17 -7.745349183556749e-19 -1.751181503673551e+00
-7.745349183556749e-19  1.880602980288128e-17  1.639103134913996e-01
-1.751181503673551e+00  1.639103134913996e-01  4.671425405100216e-17

 1.433894253317281e-17 -8.765637219861793e-19 -1.302298769551509e+00
-8.765637219861793e-19  1.282697041261325e-17  7.566167894938742e-01
-1.302298769551509e+00  7.566167894938742e-01  1.398574546532296e-17

 1.011666910492501e-17 -2.219713824383642e-18 -1.095601682821515e+00
-2.219713824383642e-18  3.704761884803984e-18  9.731624098934450e-01
-1.095601682821515e+00  9.731624098934450e-01  3.747663114733486e-18

 1.841985480491348e-17  7.997218530441631e-19 -1.445390293290715e+00
 7.997218530441631e-19  1.807271672566059e-17  3.395445781431909e-01
-1.445390293290715e+00  3.395445781431909e-01  2.446579135279726e-17

 1.164926648183635e-17  4.497574607734299e-19 -1.126016563262370e+00
 4.497574607734299e-19  4.501067601270570e-18  4.328042360195003e-01
-1.126016563262370e+00  4.328042360195003e-01  7.372102044560995e-18

 9.826368127041646e-18 -3.393126769889370e-19 -1.023611861186118e+00
-3.393126769889370e-19  2.088097855663567e-17  5.721543934777368e-01
-1.023611861186118e+00  5.721543934777368e-01  2.635340428691490e-18

 1.122059343603243e-17 -4.757527262483694e-19 -1.074066572460806e+00
-4.757527262483694e-19  4.596036185158133e-17  5.305443640357055e-01
-1.074066572460806e+00  5.305443640357055e-01  7.086477928446584e-18

 1.041523133844508e-17 -4.818503809484629e-19 -1.036403611804846e+00
-4.818503809484629e-19  1.222969832479877e-17  5.754856922501471e-01
-1.036403611804846e+00  5.754856922501471e-01  4.718669368309139e-18

 7.915744008582012e-18 -5.447524820164650e-19 -9.335431965763317e-01
-5.447524820164650e-19 -1.722772017032319e-17  6.476824295971286e-01
-9.335431965763317e-01  6.476824295971286e-01 -2.406533479602693e-18

 1.131092694916241e-17 -5.187087991861284e-19 -1.071639046413488e+00
-5.187087991861284e-19  8.140801416715750e-18  4.337931137675011e-01
-1.071639046413488e+00  4.337931137675011e-01  8.251270888301307e-18

 1.141497408507749e-17 -1.092104808037620e-18 -1.071941987658007e+00
-1.092104808037620e-18  4.445329371294737e-17  4.278477937338170e-01
-1.071941987658007e+00  4.278477937338170e-01  8.432877003758347e-18

 1.052114511860104e-17 -1.160211282026172e-18 -1.049727318490113e+00
-1.160211282026172e-18  4.890583724879788e-17  5.288486792566225e-01
-1.049727318490113e+00  5.288486792566225e-01  4.813376940480032e-18

 1.121316037479082e-17 -6.015797799063611e-19 -1.111234130550173e+00
-6.015797799063611e-19 -3.535196628832384e-18  5.660078101057500e-01
-1.111234130550173e+00  5.660078101057500e-01  6.557462169010182e-18

 1.763967787688100e-17 -1.079986732177796e-18 -1.378856546430704e+00
-1.079986732177796e-18  2.801649185411827e-17  4.921977473490127e-01
-1.378856546430704e+00  4.921977473490127e-01  2.203329684582452e-17

 1.042467607801685e-17  6.110839853495636e-19 -1.184553950081166e+00
 6.110839853495636e-19  1.130027908760093e-17  8.310334170611627e-01
-1.184553950081166e+00  8.310334170611627e-01  3.465477279688074e-18

 1.601753815241701e-17 -6.223059002707064e-19 -1.329938991763403e+00
-6.223059002707064e-19  8.002927560995453e-18  7.083220875339610e-01
-1.329938991763403e+00  7.083220875339610e-01  1.431730735987989e-17

 2.050982566919141e-17  2.988482427931366e-19 -1.723711344809643e+00
 2.988482427931366e-19  1.383617684709070e-18  1.578376125323561e-01
-1.723711344809643e+00  1.578376125323561e-01  4.461636954180683e-17

 3.472139443134835e-17 -4.546961203460230e-18 -1.323212179269987e+00
-4.546961203460230e-18 -6.408571762732086e-18  6.948779801165602e-01
-1.323212179269987e+00  6.948779801165602e-01  1.384564571896372e-17

-2.695406957671803e-17  7.874902624806178e-18 -1.293070942175943e+00
 7.874902624806178e-18  1.346463436890641e-17  7.983514303103011e-01
-1.293070942175943e+00  7.983514303103011e-01  1.308840571016783e-17

 6.472554752706008e-17 -1.069070429133517e-17 -1.440124059645144e+00
-1.069070429133517e-17  1.592226432827437e-17  5.283308977966624e-01
-1.440124059645144e+00  5.283308977966624e-01  2.538845280368600e-17

-5.804981913553188e-17  1.524396375996527e-17 -1.227940547837345e+00
 1.524396375996527e-17  1.729854140474742e-17  5.171986185479909e-01
-1.227940547837345e+00  5.171986185479909e-01  1.248076893741340e-17

 2.028528437594793e-17 -7.036837657429098e-19 -1.233787732158337e+00
-7.036837657429098e-19  1.916323323561736e-17  3.441550680057144e-01
-1.233787732158337e+00  3.441550680057144e-01  1.463905473155123e-17

 5.632748107918452e-18  7.578437779156704e-19 -1.026491489699300e+00
 7.578437779156704e-19  2.700550206514176e-17  5.357886827156407e-01
-1.026491489699300e+00  5.357886827156407e-01  1.992079644732076e-18

 9.027951484479249e-18  5.191710703650602e-20 -1.054476554562822e+00
 5.191710703650602e-20  4.726740723823197e-18  5.254790701709618e-01
-1.054476554562822e+00  5.254790701709618e-01  5.300196962521051e-18

 1.156523096279085e-17 -8.945407465459141e-19 -1.034826943860790e+00
-8.945407465459141e-19  2.615248291523953e-17  5.598434389883798e-01
-1.034826943860790e+00  5.598434389883798e-01  4.555631632335544e-18

 2.883151860993002e-18  6.564669915143261e-19 -9.186133446030805e-01
 6.564669915143261e-19  4.425300677288539e-18  6.519324708695654e-01
-9.186133446030805e-01  6.519324708695654e-01 -3.474227100766969e-18

 2.928228960708233e-19  2.377670378953635e-18 -1.060418826902649e+00
 2.377670378953635e-18  4.034334524874055e-17  4.416837194841244e-01
-1.060418826902649e+00  4.416837194841244e-01  7.489906630108770e-18

 1.256119460584796e-17 -1.468251453919235e-18 -1.066421676313687e+00
-1.468251453919235e-18  1.052806987460691e-17  4.326442406502672e-01
-1.066421676313687e+00  4.326442406502672e-01  8.073539701214490e-18

 9.438661753934565e-17 -2.501365313559781e-17 -1.047060438614520e+00
-2.501365313559781e-17  4.541830586589338e-18  5.314282733382525e-01
-1.047060438614520e+00  5.314282733382525e-01  4.627139818666565e-18

 4.354679294196559e-17 -9.883269935738893e-18 -1.110966078571628e+00
-9.883269935738893e-18 -3.023518491276229e-18  5.660102563607423e-01
-1.110966078571628e+00  5.660102563607423e-01  6.539368090218474e-18

 6.765458149412313e-18  1.992152509871112e-18 -1.383014645641593e+00
 1.992152509871112e-18  1.839349931346256e-17  4.878295882770539e-01
-1.383014645641593e+00  4.878295882770539e-01  2.233145119672341e-17

 8.625700366475369e-18  1.078402039525279e-18 -1.194943591869457e+00
 1.078402039525279e-18  2.665596171084376e-17  8.234575220439210e-01
-1.194943591869457e+00  8.234575220439210e-01  4.171788010672759e-18

 8.219719939423060e-18  1.528826732359351e-18 -1.346465253936618e+00
 1.528826732359351e-18  3.442991210839493e-18  6.997749327171603e-01
-1.346465253936618e+00  6.997749327171603e-01  1.551747983411326e-17

-1.357228212431255e-17  1.004051389017089e-17 -1.749877275498378e+00
 1.004051389017089e-17  4.813605000909327e-17  1.624485089175268e-01
-1.749877275498378e+00  1.624485089175268e-01  4.657933435422730e-17

 3.911992098668172e-18  2.090845168960580e-18 -1.300897135931107e+00
 2.090845168960580e-18 -1.836274002854742e-17  7.563982954238934e-01
-1.300897135931107e+00  7.563982954238934e-01  1.387723005409415e-17

 4.147068697069520e-17 -1.123450424265850e-17 -1.091836610368372e+00
-1.123450424265850e-17  1.582290804567915e-17  9.750386065938145e-01
-1.091836610368372e+00  9.750386065938145e-01  3.481274794557405e-18

 8.931496880552830e-18  3.206795497637024e-18 -1.445447096407270e+00
 3.206795497637024e-18  5.929009209101035e-17  3.403610644713481e-01
-1.445447096407270e+00  3.403610644713481e-01  2.445911191309310e-17

 8.265440833225493e-18  1.123036423151233e-18 -1.125979951653334e+00
 1.123036423151233e-18  3.929717176207543e-17  4.329397700458544e-01
-1.125979951653334e+00  4.329397700458544e-01  7.344908876447165e-18

 9.291311164845006e-18 -1.715370738422764e-19 -1.019627814576495e+00
-1.715370738422764e-19 -2.869237145601232e-17  5.747464113158980e-01
-1.019627814576495e+00  5.747464113158980e-01  2.346795831595602e-18

 1.245873745635414e-17 -1.100675997943286e-18 -1.073111963905352e+00
-1.100675997943286e-18  2.309937820286456e-17  5.279898376375920e-01
-1.073111963905352e+00  5.279898376375920e-01  7.038768448585301e-18

 1.875159193244776e-17 -4.093714006399337e-18 -1.037711045164732e+00
-4.093714006399337e-18  1.792870447641536e-17  5.700371061807513e-01
-1.037711045164732e+00  5.700371061807513e-01  4.836422502846390e-18

 7.517167796385893e-17 -2.843411200052434e-17 -9.308083132773098e-01
-2.843411200052434e-17 -3.177725069367173e-17  6.482316171263670e-01
-9.308083132773098e-01  6.482316171263670e-01 -2.615804952745945e-18

 2.436362839403929e-16 -9.673420329043858e-17 -1.069319562766995e+00
-9.673420329043858e-17  8.866666744149591e-17  4.360058642118573e-01
-1.069319562766995e+00  4.360058642118573e-01  8.075650828661837e-18

-5.242353463517829e-17  2.519908220312721e-17 -1.071584613853662e+00
 2.519908220312721e-17 -1.681875122900472e-17  4.284133387523544e-01
-1.071584613853662e+00  4.284133387523544e-01  8.378386443578320e-18

 3.927371734355135e-17 -1.322967238734382e-17 -1.049893147241481e+00
-1.322967238734382e-17  4.610347473767436e-17  5.287247743035365e-01
-1.049893147241481e+00  5.287247743035365e-01  4.780206889426795e-18

 1.111170629484173e-17 -7.804074329126766e-19 -1.111006267481343e+00
-7.804074329126766e-19  1.004304081894704e-17  5.658231809324938e-01
-1.111006267481343e+00  5.658231809324938e-01  6.503906323527239e-18

 1.434810501725105e-18  5.409309706646991e-18 -1.378655494117991e+00
 5.409309706646991e-18  8.367357419171289e-18  4.917862554040723e-01
-1.378655494117991e+00  4.917862554040723e-01  2.198444568069643e-17

 1.339080259969295e-17 -7.893591772393794e-19 -1.183214666160920e+00
-7.893591772393794e-19  7.960235164652694e-18  8.312004796516332e-01
-1.183214666160920e+00  8.312004796516332e-01  3.338625324142862e-18

 7.814550248963975e-18  2.317629542066452e-18 -1.328738704514521e+00
 2.317629542066452e-18 -1.973455994696818e-18  7.084983219056371e-01
-1.328738704514521e+00  7.084983219056371e-01  1.420328671445655e-17

 2.595880365329282e-17 -1.202560283065249e-18 -1.721551456583347e+00
-1.202560283065249e-18 -1.717017959408368e-17  1.583209750060075e-01
-1.721551456583347e+00  1.583209750060075e-01  4.443927485727871e-17

 1.371687945898169e-17 -3.799205547624274e-19 -1.321864808528783e+00
-3.799205547624274e-19  3.447569679956555e-17  6.952304366970307e-01
-1.321864808528783e+00  6.952304366970307e-01  1.372663378700873e-17

 1.114104980638029e-17 -4.165680710933078e-19 -1.291030634731016e+00
-4.165680710933078e-19  2.580659607299769e-17  7.991698121581837e-01
-1.291030634731016e+00  7.991698121581837e-01  1.292657998056298e-17

 1.692846087697051e-17 -4.414828857610352e-19 -1.440107609520026e+00
-4.414828857610352e-19  1.410370826180528e-17  5.270363153914975e-01
-1.440107609520026e+00  5.270363153914975e-01  2.533707349432424e-17

 2.655700864579685e-17 -3.889576215379010e-18 -1.226999526314308e+00
-3.889576215379010e-18 -2.695422300985366e-17  5.167617857318993e-01
-1.226999526314308e+00  5.167617857318993e-01  1.235538677989595e-17

-1.829936229344361e-18  4.754817693869666e-18 -1.232477537802784e+00
 4.754817693869666e-18  8.968992839162289e-17  3.441433058504978e-01
-1.232477537802784e+00  3.441433058504978e-01  1.451790691225036e-17

 4.566894327942696e-17 -1.058576573696662e-17 -1.029116790157580e+00
-1.058576573696662e-17  7.110102169319597e-17  5.332353158528335e-01
-1.029116790157580e+00  5.332353158528335e-01  2.121415653614000e-18

 4.552167327358883e-17 -1.033070524482333e-17 -1.053595394757410e+00
-1.033070524482333e-17 -1.325777711264059e-17  5.283254633298122e-01
-1.053595394757410e+00  5.283254633298122e-01  5.149588724100533e-18

 1.350343676048242e-17 -1.643890812444419e-18 -1.031868854669687e+00
-1.643890812444419e-18  3.771719851956379e-17  5.656779529212586e-01
-1.031868854669687e+00  5.656779529212586e-01  4.243591028352049e-18

 9.793711510631796e-18 -1.510910820085628e-18 -9.195300892534893e-01
-1.510910820085628e-18  2.020814972382332e-17  6.525546462003073e-01
-9.195300892534893e-01  6.525546462003073e-01 -3.486938494893084e-18

 1.196452231352267e-17 -1.071004893732436e-18 -1.060343973667163e+00
-1.071004893732436e-18  2.770132245868757e-17  4.415686875855565e-01
-1.060343973667163e+00  4.415686875855565e-01  7.393571505070975e-18

 1.002604078620366e-17 -9.367894969593488e-19 -1.064765431775545e+00
-9.367894969593488e-19  9.797150855274805e-18  4.338444758175905e-01
-1.064765431775545e+00  4.338444758175905e-01  7.874816154469013e-18

 9.573128455714005e-18 -1.137427725687560e-18 -1.044053461765135e+00
-1.137427725687560e-18  3.315253211191914e-17  5.339574400844357e-01
-1.044053461765135e+00  5.339574400844357e-01  4.343526882767535e-18

 1.065920150745554e-17 -6.455868599773918e-19 -1.107106426540768e+00
-6.455868599773918e-19 -3.206604051955797e-17  5.697797277425940e-01
-1.107106426540768e+00  5.697797277425940e-01  6.192628594919771e-18

 1.649812589809611e-17 -9.415993641947330e-19 -1.376901819815268e+00
-9.415993641947330e-19 -3.285347018928349e-18  4.938970028971632e-01
-1.376901819815268e+00  4.938970028971632e-01  2.181941682790629e-17

 9.804037294227102e-18  5.988828961747306e-19 -1.180745811870851e+00
 5.988828961747306e-19 -4.907653355202156e-18  8.335566691564259e-01
-1.180745811870851e+00  8.335566691564259e-01  3.115806119372009e-18

 1.372744897223107e-17 -4.338743971419270e-19 -1.326814570736941e+00
-4.338743971419270e-19  1.935719872404865e-17  7.106522296390569e-01
-1.326814570736941e+00  7.106522296390569e-01  1.401970299049522e-17

 2.375857956575234e-17 -6.775826326800243e-19 -1.718579128001789e+00
-6.775826326800243e-19  1.163553358411264e-17  1.600726262096313e-01
-1.718579128001789e+00  1.600726262096313e-01  4.418851036445591e-17

 1.379499446527653e-17 -4.295615297804671e-19 -1.320680803515123e+00
-4.295615297804671e-19  1.267590225082445e-17  6.958798680060289e-01
-1.320680803515123e+00  6.958798680060289e-01  1.359581257803032e-17

 1.535213013061312e-17 -1.983287809606301e-18 -1.289944208798118e+00
-1.983287809606301e-18  7.727155742698637e-17  7.999152832534778e-01
-1.289944208798118e+00  7.999152832534778e-01  1.279906917996213e-17

 7.581855336864625e-19  3.740181274065393e-18 -1.439808504310160e+00
 3.740181274065393e-18  6.376935254038145e-17  5.279462390542348e-01
-1.439808504310160e+00  5.279462390542348e-01  2.526940219174879e-17

-1.234665953735166e-17  6.746577328338365e-18 -1.226999146437125e+00
 6.746577328338365e-18  2.169372777794489e-17  5.169487939711706e-01
-1.226999146437125e+00  5.169487939711706e-01  1.230125183488784e-17

 7.531921738699730e-17 -1.683877845609010e-17 -1.232482025407063e+00
-1.683877845609010e-17 -2.685254319880752e-17  3.444357393766559e-01
-1.232482025407063e+00  3.444357393766559e-01  1.444670896269004e-17

 4.269998435891320e-18  9.784720006166497e-19 -1.028155293441106e+00
 9.784720006166497e-19  7.268625317825749e-17  5.340102390260585e-01
-1.028155293441106e+00  5.340102390260585e-01  1.993517914592539e-18

 9.600612493356397e-18 -5.398257194971338e-19 -1.053616744886000e+00
-5.398257194971338e-19  8.787184115429129e-17  5.278397805253036e-01
-1.053616744886000e+00  5.278397805253036e-01  5.094929059150773e-18

 9.377722528381918e-18 -4.347279498568464e-19 -1.031869157435902e+00
-4.347279498568464e-19 -3.630898235952636e-17  5.650427733368878e-01
-1.031869157435902e+00  5.650427733368878e-01  4.186048948567098e-18

 6.030776055133508e-18 -5.348463712875106e-19 -9.190679656661603e-01
-5.348463712875106e-19  4.114833187704425e-19  6.525302541379291e-01
-9.190679656661603e-01  6.525302541379291e-01 -3.583511682422416e-18

 9.910869472674327e-18 -5.189603068542595e-19 -1.060305477708317e+00
-5.189603068542595e-19 -3.418814114107760e-17  4.412967246181368e-01
-1.060305477708317e+00  4.412967246181368e-01  7.328152187441315e-18

 1.051448441069116e-17 -1.229385753416762e-18 -1.064509104839233e+00
-1.229385753416762e-18  1.345802044974616e-17  4.340035183718641e-01
-1.064509104839233e+00  4.340035183718641e-01  7.784135008456828e-18

 8.442189361966791e-18 -1.041117506921667e-18 -1.044617117982997e+00
-1.041117506921667e-18  6.699124102560800e-17  5.337024254884747e-01
-1.044617117982997e+00  5.337024254884747e-01  4.293983664471077e-18

 9.188743663862644e-18 -3.225776674403733e-19 -1.107379971362433e+00
-3.225776674403733e-19 -5.365158387554780e-17  5.694137347949844e-01
-1.107379971362433e+00  5.694137347949844e-01  6.133064103524346e-18

 7.553811271940445e-18  1.251212797359006e-18 -1.376621049181979e+00
 1.251212797359006e-18  3.589906076948427e-17  4.936913261874382e-01
-1.376621049181979e+00  4.936913261874382e-01  2.171960288313340e-17

 1.765776812743048e-17 -1.810539937014852e-18 -1.182064472385673e+00
-1.810539937014852e-18  6.990227474305554e-18  8.322919866079823e-01
-1.182064472385673e+00  8.322919866079823e-01  3.123742153473359e-18

 1.145703409064878e-17 -7.064049376637807e-20 -1.327925667114772e+00
-7.064049376637807e-20  4.372632291959851e-17  7.090100586664453e-01
-1.327925667114772e+00  7.090100586664453e-01  1.401556880046256e-17

 1.149140425785529e-17  2.409028756609111e-18 -1.720821235896192e+00
 2.409028756609111e-18  6.353512724825582e-17  1.584346586868756e-01
-1.720821235896192e+00  1.584346586868756e-01  4.426167715278727e-17

-1.553252682099936e-17  7.985238085649816e-18 -1.321161114134953e+00
 7.985238085649816e-18 -5.566828542126336e-17  6.946307622623994e-01
-1.321161114134953e+00  6.946307622623994e-01  1.354772635407954e-17

 1.053662380628160e-17 -4.052274445082722e-19 -1.290788687911927e+00
-4.052274445082722e-19  7.847544890318612e-18  7.981119022025084e-01
-1.290788687911927e+00  7.981119022025084e-01  1.277125637874039e-17

 1.756639329890581e-17 -1.043855267881907e-18 -1.438511806909855e+00
-1.043855267881907e-18  3.803333913317512e-17  5.276873809433577e-01
-1.438511806909855e+00  5.276873809433577e-01  2.511364863796225e-17

 1.282188915449679e-17 -5.261970682192970e-19 -1.226631324373643e+00
-5.261970682192970e-19  2.388723145160366e-17  5.160265001051501e-01
-1.226631324373643e+00  5.160265001051501e-01  1.221698969292782e-17

 1.313976309645115e-17  3.118695080248840e-19 -1.232091896805201e+00
 3.118695080248840e-19  5.724723311192506e-17  3.435604985435898e-01
-1.232091896805201e+00  3.435604985435898e-01  1.435307231064156e-17

 8.178446734748237e-18 -7.712924081744086e-20 -1.025990614161462e+00
-7.712924081744086e-20 -2.035828731422548e-17  5.343371442857683e-01
-1.025990614161462e+00  5.343371442857683e-01  1.778377849593337e-18

 9.278751922836562e-18 -6.547965270239813e-19 -1.053349868433172e+00
-6.547965270239813e-19  1.026750742849507e-16  5.254248926092404e-01
-1.053349868433172e+00  5.254248926092404e-01  5.025116642006120e-18

 6.432111164316819e-18  2.276486459557566e-19 -1.032416427058513e+00
 2.276486459557566e-19 -5.829251828450734e-18  5.614108533945326e-01
-1.032416427058513e+00  5.614108533945326e-01  4.177971019354630e-18

 1.954886460413704e-18  1.894464148995998e-19 -9.178165879064923e-01
 1.894464148995998e-19  3.191207196769135e-17  6.513386668947660e-01
-9.178165879064923e-01  6.513386668947660e-01 -3.733950210952596e-18

-1.456159413546958e-17  6.572112407694202e-18 -1.059382157364581e+00
 6.572112407694202e-18  2.678405942888329e-17  4.404412007125852e-01
-1.059382157364581e+00  4.404412007125852e-01  7.203222602268539e-18

 7.050714100320180e-17 -1.954730630605165e-17 -1.064146150996590e+00
-1.954730630605165e-17  4.383287177049958e-17  4.325090780513106e-01
-1.064146150996590e+00  4.325090780513106e-01  7.693031691019388e-18

 1.431697623769876e-16 -4.184399436926625e-17 -1.044605837581303e+00
-4.184399436926625e-17  8.142816933797315e-17  5.316152175300982e-01
-1.044605837581303e+00  5.316152175300982e-01  4.225031660409420e-18

 2.548678756004486e-17 -7.193894749896617e-18 -1.107264262406020e+00
-7.193894749896617e-18 -2.915100998305257e-18  5.670734537660153e-01
-1.107264262406020e+00  5.670734537660153e-01  6.056544334898249e-18

 1.618287207071536e-17 -1.242811822897828e-18 -1.376411460999890e+00
-1.242811822897828e-18  4.893213671721585e-17  4.910210661120835e-01
-1.376411460999890e+00  4.910210661120835e-01  2.163194228058681e-17

 6.576763720535571e-18  1.023461941485634e-18 -1.182080397562700e+00
 1.023461941485634e-18 -1.787942184654771e-17  8.292411527669334e-01
-1.182080397562700e+00  8.292411527669334e-01  3.043184849700863e-18

 1.262908908129466e-17 -7.142803309239889e-19 -1.327957548602725e+00
-7.142803309239889e-19  6.816316315967267e-17  7.054945697266886e-01
-1.327957548602725e+00  7.054945697266886e-01  1.393556843205869e-17

 2.326818117831322e-17 -3.829164372487425e-19 -1.720969807993429e+00
-3.829164372487425e-19 -1.275116986887568e-16  1.541764046590451e-01
-1.720969807993429e+00  1.541764046590451e-01  4.419354283265951e-17

 1.253869216669934e-17 -5.796592169759549e-19 -1.322115418778970e+00
-5.796592169759549e-19  3.929255549273429e-17  6.897621311393268e-01
-1.322115418778970e+00  6.897621311393268e-01  1.352090671769453e-17

 1.219491919830028e-17 -1.318312201821724e-18 -1.292333147025037e+00
-1.318312201821724e-18  5.507545260258022e-17  7.924639047716739e-01
-1.292333147025037e+00  7.924639047716739e-01  1.279093977630319e-17

 1.623103138423606e-17 -5.622458671178919e-19 -1.439211494632250e+00
-5.622458671178919e-19 -3.915607038369055e-17  5.224801985233122e-01
-1.439211494632250e+00  5.224801985233122e-01  2.509510040233466e-17

 1.283668831215777e-17 -4.230392889832157e-19 -1.227712072614393e+00
-4.230392889832157e-19 -7.348636471108584e-17  5.088084971319359e-01
-1.227712072614393e+00  5.088084971319359e-01  1.223072917813665e-17

 1.745920975552982e-17 -1.330118128510115e-18 -1.236079813635933e+00
-1.330118128510115e-18  1.154291043808149e-16  3.322339687445761e-01
-1.236079813635933e+00  3.322339687445761e-01  1.458139600894527e-17

 1.032351678890184e-17 -1.027267949542351e-18 -1.030034888450138e+00
-1.027267949542351e-18  1.304428326693909e-17  5.233709916982351e-01
-1.030034888450138e+00  5.233709916982351e-01  2.028866050804452e-18

-2.050944996558951e-17  8.299171770007160e-18 -1.056624687525719e+00
 8.299171770007160e-18 -1.847196175723501e-17  5.161897919826209e-01
-1.056624687525719e+00  5.161897919826209e-01  5.230099777318196e-18

 3.578267672828227e-17 -8.816478238847441e-18 -1.039460689120610e+00
-8.816478238847441e-18  3.135209479754373e-18  5.486460620503191e-01
-1.039460689120610e+00  5.486460620503191e-01  4.680299229434575e-18

-2.691615248747212e-17  8.984171005453615e-18 -9.307981994480983e-01
 8.984171005453615e-18 -1.983601251335100e-17  6.332416146956276e-01
-9.307981994480983e-01  6.332416146956276e-01 -2.765156164467244e-18

 6.748003542862567e-17 -1.807351488680807e-17 -1.077192710051640e+00
-1.807351488680807e-17  7.303368037148578e-18  4.209930165450104e-01
-1.077192710051640e+00  4.209930165450104e-01  8.528927520908503e-18

 5.172917395318090e-18  2.012223727865402e-19 -1.088352565593304e+00
 2.012223727865402e-19  7.333684055116380e-18  4.122301531279119e-01
-1.088352565593304e+00  4.122301531279119e-01  9.451393616196230e-18

 7.681786351626104e-18 -8.533393382180664e-19 -1.048825515764045e+00
-8.533393382180664e-19  3.841015566479742e-17  5.318293181694180e-01
-1.048825515764045e+00  5.318293181694180e-01  4.422012674553850e-18

 8.850153518843069e-18 -6.503560471318100e-19 -1.097573991155021e+00
-6.503560471318100e-19  3.760993729416368e-17  5.696566924144545e-01
-1.097573991155021e+00  5.696566924144545e-01  5.686068784958475e-18

 1.126161000051915e-17 -5.611197907610631e-19 -1.245081794575472e+00
-5.611197907610631e-19  3.522662618001583e-17  5.280845690008008e-01
-1.245081794575472e+00  5.280845690008008e-01  1.382319424932919e-17

 1.013692642092189e-17 -1.166134740370739e-18 -1.191141732004320e+00
-1.166134740370739e-18  1.003876221313012e-16  6.102874252026323e-01
-1.191141732004320e+00  6.102874252026323e-01  7.959353649103723e-18

 1.357155931133285e-17 -1.018524662947505e-18 -1.320148977139780e+00
-1.018524662947505e-18 -5.579883394763946e-17  4.551935389181588e-01
-1.320148977139780e+00  4.551935389181588e-01  1.800643086623848e-17

 1.999000585907306e-17 -1.957121057900539e-18 -1.567676478904977e+00
-1.957121057900539e-18  1.257710682989650e-17  2.785352623465552e-01
-1.567676478904977e+00  2.785352623465552e-01  3.610542686350769e-17

 1.137092075433872e-17 -3.678982379913584e-19 -1.283704821348608e+00
-3.678982379913584e-19 -3.745507955154641e-17  7.733571312323581e-01
-1.283704821348608e+00  7.733571312323581e-01  1.247640178164422e-17

 8.492933286269083e-18 -2.342373959044936e-18 -1.128455901298052e+00
-2.342373959044936e-18  9.423135422889111e-18  9.373978372387204e-01
-1.128455901298052e+00  9.373978372387204e-01  6.148775233219365e-18

 1.682917771477900e-17  6.460828401790466e-19 -1.471201670694257e+00
 6.460828401790466e-19 -4.092377775550665e-17  2.930156994769443e-01
-1.471201670694257e+00  2.930156994769443e-01  2.655128245768273e-17

 9.833878441936456e-18  2.065679797481041e-19 -1.135545975423637e+00
 2.065679797481041e-19 -5.015256573192864e-17  3.758531793691605e-01
-1.135545975423637e+00  3.758531793691605e-01  8.537374756404149e-18

 3.008259647827001e-18  5.187284207222070e-19 -1.015515006087242e+00
 5.187284207222070e-19  4.523132337902492e-17  5.163632544759504e-01
-1.015515006087242e+00  5.163632544759504e-01  3.002012698084900e-18

 6.641161595290304e-18 -4.388489266825445e-20 -1.080577692432713e+00
-4.388489266825445e-20  4.750061320207394e-17  4.490220073992071e-01
-1.080577692432713e+00  4.490220073992071e-01  8.874193853042718e-18

-8.272364642631542e-17  2.529170855480182e-17 -1.050449567627204e+00
 2.529170855480182e-17 -8.936372719775548e-17  4.819350715351786e-01
-1.050449567627204e+00  4.819350715351786e-01  7.484790558572557e-18

 6.185343804658822e-17 -1.670657803950697e-17 -9.490999421874234e-01
-1.670657803950697e-17 -2.136281230551748e-18  5.660338228158001e-01
-9.490999421874234e-01  5.660338228158001e-01  8.661073578074716e-19

 1.673385483825040e-17 -2.665215214042109e-18 -1.103519324796765e+00
-2.665215214042109e-18  3.431259324729897e-17  3.675862616229560e-01
-1.103519324796765e+00  3.675862616229560e-01  1.310759895860755e-17

 9.367192931116635e-19  1.324867324828677e-18 -1.078742040336683e+00
 1.324867324828677e-18  5.604737599290027e-17  4.178936992011980e-01
-1.078742040336683e+00  4.178936992011980e-01  1.218042132931354e-17

 2.253528478592717e-19 -1.259645266161752e-18 -7.569946517145266e-01
-1.259645266161752e-18  1.457743140708111e-17  7.592678859265478e-01
-7.569946517145266e-01  7.592678859265478e-01 -9.834117157529620e-18

-2.166123458375323e-18 -1.931207095896496e-18 -5.991843621011431e-01
-1.931207095896496e-18 -3.600676804038900e-17  8.251872991465041e-01
-5.991843621011431e-01  8.251872991465041e-01 -1.901730281473939e-17

 1.328018187495117e-17 -6.535660283034725e-19 -1.201898738906379e+00
-6.535660283034725e-19  4.746127856063322e-18  1.259279298920964e-01
-1.201898738906379e+00  1.259279298920964e-01  2.044898286956038e-17

 1.262033148057221e-17 -1.414635690364275e-18 -1.194534436448212e+00
-1.414635690364275e-18  9.412701201436407e-18  1.348639130512891e-01
-1.194534436448212e+00  1.348639130512891e-01  2.132545300770993e-17

 4.219856566120731e-18 -3.588423059320263e-19 -8.171545657118524e-01
-3.588423059320263e-19 -3.458867179327578e-17  6.109875549526509e-01
-8.171545657118524e-01  6.109875549526509e-01 -8.116385292896388e-18

 3.237870506535339e-18  3.473228241631925e-20 -8.555351363471340e-01
 3.473228241631925e-20 -3.153959804371898e-17  6.837896602624434e-01
-8.555351363471340e-01  6.837896602624434e-01 -7.060226998532535e-18

 1.012869245409249e-17 -1.284917180052279e-18 -1.088635875494339e+00
-1.284917180052279e-18  4.302348963641806e-17  4.958351124731356e-01
-1.088635875494339e+00  4.958351124731356e-01  1.017419638544794e-17

 8.483676047564820e-18 -9.287161192589170e-19 -1.087091487267082e+00
-9.287161192589170e-19  6.921309143029789e-17  4.726588264035563e-01
-1.087091487267082e+00  4.726588264035563e-01  1.015525064442188e-17

 1.793511514813108e-17 -3.217156060229075e-18 -9.283390288188306e-01
-3.217156060229075e-18 -9.071178029074992e-17  5.893028123475627e-01
-9.283390288188306e-01  5.893028123475627e-01 -1.592216578418853e-18

 1.878730940926467e-17 -1.095633964126884e-17 -1.067034536373794e+00
-1.095633964126884e-17 -3.033381556240957e-17  3.825783940472705e-01
-1.067034536373794e+00  3.825783940472705e-01  8.898964652623327e-18

 7.151809926447944e-18  4.860637282913572e-18 -1.066396861986939e+00
 4.860637282913572e-18  1.105218633982756e-17  3.740771938041356e-01
-1.066396861986939e+00  3.740771938041356e-01  8.815286659566651e-18

-6.299183523398796e-17  2.264512171435502e-18 -1.036850056994760e+00
 2.264512171435502e-18  5.438031616885939e-17  4.778995707195977e-01
-1.036850056994760e+00  4.778995707195977e-01  4.543025818388372e-18

-5.323417252657634e-17  3.758022080067653e-18 -1.095737708294118e+00
 3.758022080067653e-18 -5.831512234705791e-17  5.114487807446306e-01
-1.095737708294118e+00  5.114487807446306e-01  6.170603289775397e-18

 4.784396310665007e-17 -1.658184443845390e-17 -1.354718371696598e+00
-1.658184443845390e-17 -1.778477900567755e-17  4.348758311719747e-01
-1.354718371696598e+00  4.348758311719747e-01  2.120999530155177e-17

 4.855653568570769e-18  5.743967431662444e-19 -1.151999011031325e+00
 5.743967431662444e-19 -3.315455025562913e-18  7.690153188199398e-01
-1.151999011031325e+00  7.690153188199398e-01  2.197757355625324e-18

 1.158356853131856e-17 -1.586872357197051e-18 -1.295024633739321e+00
-1.586872357197051e-18  1.080064961660183e-17  6.450104276564882e-01
-1.295024633739321e+00  6.450104276564882e-01  1.326281667717275e-17

 1.903572520777153e-17 -9.027921349334304e-19 -1.684162154448419e+00
-9.027921349334304e-19  3.363338950768762e-17  1.141577099373011e-01
-1.684162154448419e+00  1.141577099373011e-01  4.378521395728116e-17

 1.239296026622376e-17 -2.830470106882191e-18 -1.220604677743004e+00
-2.830470106882191e-18 -1.463413775137772e-17  7.012313854101559e-01
-1.220604677743004e+00  7.012313854101559e-01  1.059389257924447e-17

-1.252616090377355e-17  3.076182037374675e-18 -9.936540502711102e-01
 3.076182037374675e-18 -6.568455341339316e-17  9.213861522642841e-01
-9.936540502711102e-01  9.213861522642841e-01 -6.228895494309816e-19

 1.727265526901888e-17 -1.958945347092438e-18 -1.347091839044904e+00
-1.958945347092438e-18  9.037245754038470e-17  2.996092617775337e-01
-1.347091839044904e+00  2.996092617775337e-01  2.033801575001178e-17

 2.846125361796059e-18  1.100513467735554e-19 -9.763131924343006e-01
 1.100513467735554e-19 -2.693990588559722e-17  4.160294915737425e-01
-9.763131924343006e-01  4.160294915737425e-01  1.081141935784552e-19

-1.145524755612583e-17  3.340142216941316e-18 -8.518956733393966e-01
 3.340142216941316e-18 -5.331728746357239e-17  5.070738764179434e-01
-8.518956733393966e-01  5.070738764179434e-01 -5.650567139696661e-18

 1.594407738417582e-17 -6.945417636883508e-18 -9.276837128468912e-01
-6.945417636883508e-18  6.331704390828908e-17  4.066544113851217e-01
-9.276837128468912e-01  4.066544113851217e-01  1.081754699582874e-18

 1.467991461690312e-17 -4.271615423704226e-18 -1.354807922765789e+00
-4.271615423704226e-18  1.403462598039299e-17  2.136595137582141e-01
-1.354807922765789e+00  2.136595137582141e-01  2.954142553275854e-17

 4.481903538936373e-18  3.830230385955037e-19 -1.114917307241954e+00
 3.830230385955037e-19  9.367448838927192e-17  5.240406953056863e-01
-1.114917307241954e+00  5.240406953056863e-01  8.334765806113116e-18

 9.938195737364250e-18 -1.197363286108103e-18 -1.283055010126022e+00
-1.197363286108103e-18  3.802386775526557e-17  5.213752735156340e-01
-1.283055010126022e+00  5.213752735156340e-01  1.858591632187366e-17

 5.647885641457268e-18 -2.665692854594199e-18 -1.095123151023510e+00
-2.665692854594199e-18  1.034022289164700e-16  5.460899281102344e-01
-1.095123151023510e+00  5.460899281102344e-01  8.347137127584303e-18

-6.751536206968427e-19 -2.682338518694890e-18 -8.309306537193446e-01
-2.682338518694890e-18 -2.778647078547680e-17  7.085032478698364e-01
-8.309306537193446e-01  7.085032478698364e-01 -8.457455645220534e-18

 1.291646321421760e-17 -7.343944594639489e-19 -1.416526202367172e+00
-7.343944594639489e-19  3.330051805547058e-17  1.503517402716270e-01
-1.416526202367172e+00  1.503517402716270e-01  2.954844733909423e-17

 3.905764141078684e-18 -1.266058288340615e-18 -1.038782370384089e+00
-1.266058288340615e-18 -3.181247686745043e-17  3.570956861841721e-01
-1.038782370384089e+00  3.570956861841721e-01  5.983253881647515e-18

-4.261997258907212e-18 -3.753726882622124e-18 -6.753971107608209e-01
-3.753726882622124e-18  8.555320402373249e-17  8.466605049072787e-01
-6.753971107608209e-01  8.466605049072787e-01 -1.506591243201898e-17

-7.330693185740537e-18 -3.711297752754707e-18 -5.476692327767325e-01
-3.711297752754707e-18  6.627569928393831e-17  8.370736442099095e-01
-5.476692327767325e-01  8.370736442099095e-01 -2.224121400642503e-17

 5.328482854505989e-18 -8.319301524953050e-19 -1.113595871267645e+00
-8.319301524953050e-19  1.980221214184730e-17  1.105616703433465e-01
-1.113595871267645e+00  1.105616703433465e-01  1.183015314558667e-17

 2.518081485100985e-18 -2.285483503870248e-18 -9.782740427067226e-01
-2.285483503870248e-18  9.652091319559497e-18  2.525578639260113e-01
-9.782740427067226e-01  2.525578639260113e-01  5.869366878593015e-18

-6.275723760332008e-18 -1.191008713973401e-18 -6.635077922197107e-01
-1.191008713973401e-18 -4.200501827093172e-17  5.812137618922226e-01
-6.635077922197107e-01  5.812137618922226e-01 -1.821480725573234e-17

 3.345491529629151e-18 -1.791066489134063e-18 -1.066373564588410e+00
-1.791066489134063e-18 -2.583482745644984e-17  4.067781660732736e-01
-1.066373564588410e+00  4.067781660732736e-01  9.467178314285204e-18

-4.687688369907379e-19 -1.756612261466684e-18 -9.453571119446874e-01
-1.756612261466684e-18  7.499365569570063e-17  6.210351502549677e-01
-9.453571119446874e-01  6.210351502549677e-01 -1.868410037006030e-18

 3.253578732379752e-18 -2.150255909354069e-18 -1.098159712225267e+00
-2.150255909354069e-18 -5.149360882530365e-17  3.971731961588018e-01
-1.098159712225267e+00  3.971731961588018e-01  1.060428536487276e-17

 1.631434701409932e-18 -2.794846346876578e-18 -1.046131375964341e+00
-2.794846346876578e-18  4.560981965192232e-17  4.609933487079316e-01
-1.046131375964341e+00  4.609933487079316e-01  7.816050258417853e-18

-5.070043464333805e-18 -4.162837263797284e-18 -7.629858033781617e-01
-4.162837263797284e-18  5.527156952178103e-17  7.936125084355767e-01
-7.629858033781617e-01  7.936125084355767e-01 -9.441987345765574e-18

-5.649423134879655e-18 -4.086222923083008e-18 -7.393350020770575e-01
-4.086222923083008e-18 -3.160178078333464e-18  6.925543327585560e-01
-7.393350020770575e-01  6.925543327585560e-01 -8.922191387259836e-18

-1.194716316961699e-18 -1.217303695497447e-18 -9.816892297978507e-01
-1.217303695497447e-18  2.898550462528142e-17  2.464296401787009e-01
-9.816892297978507e-01  2.464296401787009e-01  2.324898063745159e-18

 7.941892026621715e-19 -2.098909918286128e-18 -1.054928536872902e+00
-2.098909918286128e-18  3.681254932631245e-17  9.755269189376954e-02
-1.054928536872902e+00  9.755269189376954e-02  9.207433946657123e-18

-9.575881585893128e-18 -2.342200823863399e-18 -6.651738464201037e-01
-2.342200823863399e-18  1.184366672271616e-17  5.536584560420533e-01
-6.651738464201037e-01  5.536584560420533e-01 -1.801626397493772e-17

-9.850838119082404e-18 -2.411246798397653e-18 -6.836854411715988e-01
-2.411246798397653e-18  3.442990822126608e-17  6.225571465514449e-01
-6.836854411715988e-01  6.225571465514449e-01 -1.847636791337647e-17

 1.017110243652273e-18 -4.578539480433951e-18 -1.122640103484351e+00
-4.578539480433951e-18 -4.627418210829039e-18  3.389629941190906e-01
-1.122640103484351e+00  3.389629941190906e-01  1.250258093193858e-17

-2.410364053116007e-18 -2.272144929638041e-18 -1.087477382297364e+00
-2.272144929638041e-18 -5.084475847855319e-17  4.874451945931385e-01
-1.087477382297364e+00  4.874451945931385e-01  5.481236182437342e-18

-3.786876921054185e-19 -3.124684829158302e-18 -1.218687679980261e+00
-3.124684829158302e-18 -1.965916185593328e-17  5.780257727307831e-01
-1.218687679980261e+00  5.780257727307831e-01  1.287111530083652e-17

-5.825831429958567e-18 -4.065079748044375e-18 -1.007950294187977e+00
-4.065079748044375e-18 -1.034045417854478e-16  4.978398884434957e-01
-1.007950294187977e+00  4.978398884434957e-01  8.158360751745604e-19

-2.663927610770734e-18 -2.725887344014281e-18 -1.182277535046086e+00
-2.725887344014281e-18  7.799013295980383e-18  9.588848818026184e-02
-1.182277535046086e+00  9.588848818026184e-02  1.029228946430651e-17

-9.825878572867928e-19 -5.013011947710855e-18 -1.228559358857487e+00
-5.013011947710855e-18  1.459558315773305e-17  1.000697767548858e-01
-1.228559358857487e+00  1.000697767548858e-01  1.649650025132961e-17

-5.692458219215395e-18 -5.320018686547148e-18 -1.068097315023915e+00
-5.320018686547148e-18  8.968658711565900e-17  3.272058334461868e-01
-1.068097315023915e+00  3.272058334461868e-01  4.769455834266478e-18

-1.226279880575720e-17 -3.466329553646455e-18 -8.812439115245462e-01
-3.466329553646455e-18 -1.141711870430343e-17  5.737944491826608e-01
-8.812439115245462e-01  5.737944491826608e-01 -1.167357542254135e-17

-8.127796235404136e-18 -3.643681400546591e-18 -1.116991177501853e+00
-3.643681400546591e-18 -2.548703208540150e-18  5.718434361728646e-01
-1.116991177501853e+00  5.718434361728646e-01  1.453165757808769e-18

-7.290370213914666e-18 -5.386581095699264e-18 -1.219354281342439e+00
-5.386581095699264e-18  3.461226093042230e-17  4.645414970575855e-01
-1.219354281342439e+00  4.645414970575855e-01  8.177359745367792e-18

-4.920784931172137e-18 -5.750542352745891e-18 -1.377411528995679e+00
-5.750542352745891e-18 -2.312058416076351e-17  2.461443068300063e-01
-1.377411528995679e+00  2.461443068300063e-01  2.009909305106812e-17

-8.595385080734332e-18 -6.293164378709521e-18 -1.276105395291330e+00
-6.293164378709521e-18  3.867994089191298e-17  4.266383240764277e-01
-1.276105395291330e+00  4.266383240764277e-01  1.160360725807246e-17

-1.699432724666217e-17 -7.450835146426941e-18 -9.852344622691473e-01
-7.450835146426941e-18  8.078891978344372e-17  7.914326872363879e-01
-9.852344622691473e-01  7.914326872363879e-01 -9.379965810915890e-18

-1.348422226038353e-17 -6.198865215176248e-18 -1.178718752076653e+00
-6.198865215176248e-18 -7.084963648929809e-17  4.208876890156732e-01
-1.178718752076653e+00  4.208876890156732e-01  4.551078911022633e-18

-1.411006017403842e-17 -6.040798602053190e-18 -1.212800034496460e+00
-6.040798602053190e-18  5.753360585326256e-17  2.258881796907874e-01
-1.212800034496460e+00  2.258881796907874e-01  7.476227668624659e-18

-2.144307702374985e-17 -7.785604652307459e-18 -1.014673127249167e+00
-7.785604652307459e-18 -6.968672276857924e-17  5.306835777445323e-01
-1.014673127249167e+00  5.306835777445323e-01 -5.689045071574716e-18

-2.683994849458940e-17 -9.406092764503431e-18 -9.512844016327519e-01
-9.406092764503431e-18 -2.309999071689510e-17  3.485498490892386e-01
-9.512844016327519e-01  3.485498490892386e-01 -9.336413780412386e-18

-1.829591686185911e-17 -1.252293426139413e-17 -1.360645462577781e+00
-1.252293426139413e-17  1.029359197486933e-17  1.261483086190435e-01
-1.360645462577781e+00  1.261483086190435e-01  1.774380464815399e-17

-3.177289768601033e-17 -9.442659503174890e-18 -9.999288489268653e-01
-9.442659503174890e-18 -8.407626151375295e-17  5.194181680222328e-01
-9.999288489268653e-01  5.194181680222328e-01 -1.049825035329536e-17

-3.792543876783043e-17 -1.014413518522827e-17 -9.106046019378664e-01
-1.014413518522827e-17  9.664196668632860e-17  8.082664964271344e-01
-9.106046019378664e-01  8.082664964271344e-01 -2.046678714312079e-17

-2.990022014495016e-17 -1.184560256364479e-17 -1.310791204960936e+00
-1.184560256364479e-17 -3.115174841015693e-17  3.645095954672910e-01
-1.310791204960936e+00  3.645095954672910e-01  7.095320552861221e-18

-3.651038286626911e-17 -1.421778496309512e-17 -1.192357126855052e+00
-1.421778496309512e-17 -2.185723708754999e-17  4.209551435612821e-01
-1.192357126855052e+00  4.209551435612821e-01 -1.157971717616726e-19

-5.800876494905316e-17 -1.770488209846519e-17 -4.721885222760529e-01
-1.770488209846519e-17 -3.092662857345841e-17  1.058920029113358e+00
-4.721885222760529e-01  1.058920029113358e+00 -4.532953711500758e-17

-4.412916010013975e-17 -1.531567607082775e-17 -1.069314398001270e+00
-1.531567607082775e-17  3.676830407484574e-17  4.591993280573324e-01
-1.069314398001270e+00  4.591993280573324e-01 -1.050682651310112e-17

-4.684333009465169e-17 -1.437371866937124e-17 -1.122534728067195e+00
-1.437371866937124e-17 -3.950047077509895e-17  1.740822541647900e-01
-1.122534728067195e+00  1.740822541647900e-01 -1.068607447510257e-17

-5.942586155752874e-17 -1.894293583016806e-17 -8.911477399557107e-01
-1.894293583016806e-17 -2.037099872401112e-17  4.496194998866856e-01
-8.911477399557107e-01  4.496194998866856e-01 -2.455111361360952e-17

-6.842040008716001e-17 -2.129729953977222e-17 -7.610378072866157e-01
-2.129729953977222e-17 -3.895928648953170e-17  6.115114554420015e-01
-7.610378072866157e-01  6.115114554420015e-01 -3.620819992487370e-17

-6.351688512864295e-17 -2.401232089918935e-17 -1.140178804872914e+00
-2.401232089918935e-17  8.771333602337372e-18  2.385226047234694e-01
-1.140178804872914e+00  2.385226047234694e-01 -9.089388300816272e-18

-6.054947770240774e-17 -2.595329856943470e-17 -1.387791303733460e+00
-2.595329856943470e-17  1.269117140927348e-17  7.289955708705419e-02
-1.387791303733460e+00  7.289955708705419e-02  7.348972572916130e-18

-7.127981650050287e-17 -2.639491274273089e-17 -1.089671482157822e+00
-2.639491274273089e-17 -5.188896262346227e-17  3.538694831910148e-01
-1.089671482157822e+00  3.538694831910148e-01 -1.620422531465061e-17

-8.607834328047104e-17 -2.772683183366042e-17 -8.768171100399621e-01
-2.772683183366042e-17 -1.938070415983590e-16  7.039736550752507e-01
-8.768171100399621e-01  7.039736550752507e-01 -3.624567470716060e-17

-9.410868783447561e-17 -3.231456687508566e-17 -8.335156882902256e-01
-3.231456687508566e-17 -9.392522555237461e-17  6.956614377537947e-01
-8.335156882902256e-01  6.956614377537947e-01 -4.003701537027914e-17

-9.030224744664200e-17 -3.304692695464285e-17 -1.230387062527781e+00
-3.304692695464285e-17  1.513360592637768e-17  1.236099126225656e-01
-1.230387062527781e+00  1.236099126225656e-01 -1.743964400027608e-17

-1.115670148936909e-16 -4.260902385183968e-17 -8.909168032081174e-01
-4.260902385183968e-17 -6.731662815507428e-17  3.569109965225459e-01
-8.909168032081174e-01  3.569109965225459e-01 -4.382810731666106e-17

-1.400622941799038e-16 -5.054868790814776e-17 -1.005026676450291e+00
-5.054868790814776e-17  5.266117494724149e-17  3.961805073690888e-01
-1.005026676450291e+00  3.961805073690888e-01 -4.593237738452185e-17

-1.312249396285604e-16 -7.712483414580385e-17 -1.059023207338308e+00
-7.712483414580385e-17 -6.075414461249318e-17  5.160642576593595e-01
-1.059023207338308e+00  5.160642576593595e-01 -5.429269686913609e-17

-1.426611850836096e-16 -9.057037936320911e-17 -9.049011975070093e-01
-9.057037936320911e-17  1.721600364444371e-16  7.070433348441495e-01
-9.049011975070093e-01  7.070433348441495e-01 -7.095886005554653e-17

-1.572005745709428e-16 -1.054875046501808e-16 -9.410313467094577e-01
-1.054875046501808e-16  1.048413928801233e-17  5.559676848138712e-01
-9.410313467094577e-01  5.559676848138712e-01 -7.433421919285348e-17

-1.490865572914756e-16 -1.268141523784161e-16 -1.249990042393362e+00
-1.268141523784161e-16  5.572043088555317e-17  2.893334003524060e-02
-1.249990042393362e+00  2.893334003524060e-02 -6.362011313584956e-17

-1.958135008371307e-16 -1.112840642759647e-16 -1.427434799078544e+00
-1.112840642759647e-16  6.928103257605971e-17 -1.300113787852253e-01
-1.427434799078544e+00 -1.300113787852253e-01 -5.434548357904324e-17

-2.478331524924723e-16 -1.296286224402817e-16 -1.004143701434608e+00
-1.296286224402817e-16  1.396998271368051e-16  3.019046486120441e-01
-1.004143701434608e+00  3.019046486120441e-01 -9.574128583389211e-17

-3.216372492409067e-16 -1.261925256586346e-16 -8.743628888738152e-01
-1.261925256586346e-16  7.673339781278474e-17  5.803186668071953e-01
-8.743628888738152e-01  5.803186668071953e-01 -1.222526283499950e-16

-3.154687051734679e-16 -1.746895443757686e-16 -1.059438955974905e+00
-1.746895443757686e-16 -4.557805462656263e-17  5.584691602029920e-01
-1.059438955974905e+00  5.584691602029920e-01 -1.306335332947145e-16

-4.381599705989191e-16 -2.375538747011327e-16 -1.082622260972118e+00
-2.375538747011327e-16  3.094651237550008e-16  4.057105111411755e-01
-1.082622260972118e+00  4.057105111411755e-01 -1.772137690447383e-16

-5.414998232723117e-16 -3.122786946660073e-16 -8.775537394141194e-01
-3.122786946660073e-16  2.874241210025347e-16  5.514546439894562e-01
-8.775537394141194e-01  5.514546439894562e-01 -2.218500540836445e-16

-5.933945694780778e-16 -3.787650821587152e-16 -1.030898318472108e+00
-3.787650821587152e-16  2.197449287363476e-16  3.139911318936388e-01
-1.030898318472108e+00  3.139911318936388e-01 -2.398983453134677e-16

-7.130290310982328e-16 -4.781988919691523e-16 -9.769667766717033e-01
-4.781988919691523e-16  3.760860670360288e-16  3.652622788626073e-01
-9.769667766717033e-01  3.652622788626073e-01 -3.064212073401285e-16

-8.830170542861752e-16 -6.115603675598695e-16 -1.036485278364120e+00
-6.115603675598695e-16  3.587060157186954e-16  3.909422207525768e-01
-1.036485278364120e+00  3.909422207525768e-01 -3.660467541812963e-16

-1.116843808466637e-15 -7.753419344652690e-16 -1.171978973750943e+00
-7.753419344652690e-16  6.647041475080729e-16  3.917303826318713e-01
-1.171978973750943e+00  3.917303826318713e-01 -4.564295045369322e-16

-1.633324104095907e-15 -1.212666551532564e-15 -1.108748917559843e+00
-1.212666551532564e-15  1.507042170743384e-15  5.383752909482844e-01
-1.108748917559843e+00  5.383752909482844e-01 -6.982878268215137e-16

-1.767750780398208e-15 -1.778666834192236e-15 -1.132422832363663e+00
-1.778666834192236e-15  1.002843332373803e-15  2.757058035457957e-01
-1.132422832363663e+00  2.757058035457957e-01 -8.919589026667587e-16

-2.739228171677723e-15 -2.622827903788824e-15 -9.304032155810259e-01
-2.622827903788824e-15  7.790667878442105e-16  3.340735004817587e-01
-9.304032155810259e-01  3.340735004817587e-01 -1.345794561862123e-15

-5.443979276468920e-15 -5.138025784694597e-15 -9.674183267311524e-01
-5.138025784694597e-15  1.951065462050136e-15  4.052512981131007e-01
-9.674183267311524e-01  4.052512981131007e-01 -2.967176392128041e-15

-1.227418767145302e-14 -6.785824296426911e-15 -9.819215951782999e-01
-6.785824296426911e-15  6.380850403880756e-15  3.961138631168600e-01
-9.819215951782999e-01  3.961138631168600e-01 -6.504948036924948e-15

-1.479099231577151e-14  9.173064423458530e-15 -8.909901417565183e-01
 9.173064423458530e-15  3.205508305133440e-14  4.282100663590267e-01
-8.909901417565183e-01  4.282100663590267e-01 -1.004211555575369e-14

 1.147051035043113e-13  5.381768649570532e-14 -8.876425468599562e-01
 5.381768649570532e-14  9.444417508135852e-14  3.479616261230650e-01
-8.876425468599562e-01  3.479616261230650e-01  3.274747520320219e-14

-5.855392311058061e-13 -1.215808149126775e-13 -8.281359980444399e-01
-1.215808149126775e-13 -1.965284063881190e-13  3.699256088066273e-01
-8.281359980444399e-01  3.699256088066273e-01 -1.345334512869150e-13

 2.361982327678200e-13  1.073601309379105e-13 -8.938755257625579e-01
 1.073601309379105e-13  1.575815456289117e-13  2.847192334480141e-01
-8.938755257625579e-01  2.847192334480141e-01  7.117964898935038e-14

-5.860343104331228e-13 -1.122441186155900e-13 -6.617732289478748e-01
-1.122441186155900e-13 -2.216474635428259e-13  5.802955981112270e-01
-6.617732289478748e-01  5.802955981112270e-01 -1.203787452710268e-13

 6.311294602154639e-14  6.158775980641696e-14 -8.988854686410215e-01
 6.158775980641696e-14  9.172376276370947e-14  2.340435033057763e-01
-8.988854686410215e-01  2.340435033057763e-01  1.447071438348675e-14

-2.528184312855518e-14  8.905525669500049e-15 -8.276038602902720e-01
 8.905525669500049e-15  1.730961941373721e-14  3.367650493667568e-01
-8.276038602902720e-01  3.367650493667568e-01 -1.158778002715437e-14

-2.648101238538142e-14 -3.613818016142596e-17 -7.345007970170134e-01
-3.613818016142596e-17 -2.548084143730587e-15  4.501812203441656e-01
-7.345007970170134e-01  4.501812203441656e-01 -1.130879648471468e-14

-2.167077494005717e-14 -1.558419296553826e-15 -8.127270402066427e-01
-1.558419296553826e-15 -7.925025737068995e-15  4.278729915263335e-01
-8.127270402066427e-01  4.278729915263335e-01 -9.255161076655069e-15

-1.717634862055837e-14 -1.553083430660668e-15 -9.927090053867828e-01
-1.553083430660668e-15 -8.602382773176545e-15  3.302721164686549e-01
-9.927090053867828e-01  3.302721164686549e-01 -7.310714326887960e-15

-1.200469963780740e-14 -4.513093867124723e-16 -9.001333309265533e-01
-4.513093867124723e-16 -9.301760518022913e-15  4.441580065448582e-01
-9.001333309265533e-01  4.441580065448582e-01 -5.044547987019147e-15

-6.971037092602095e-15 -5.592033256894487e-17 -1.096115149985584e+00
-5.592033256894487e-17 -6.253517840371181e-15  3.793443089587033e-01
-1.096115149985584e+00  3.793443089587033e-01 -2.682928106744987e-15

-4.631240053811467e-15 -1.079050689678405e-16 -9.631930774736589e-01
-1.079050689678405e-16 -4.404171046045499e-15  5.673435075159606e-01
-9.631930774736589e-01  5.673435075159606e-01 -1.616854054488211e-15

-3.838388824895635e-15 -3.278374514948872e-16 -9.880666580923789e-01
-3.278374514948872e-16 -3.649411698596403e-15  4.888834318383108e-01
-9.880666580923789e-01  4.888834318383108e-01 -1.314584249414429e-15

-3.241535116625040e-15 -5.683195396795956e-16 -1.268848094532412e+00
-5.683195396795956e-16 -2.898660457813833e-15  1.741070256676813e-01
-1.268848094532412e+00  1.741070256676813e-01 -1.136293637932380e-15

-2.548920026607023e-15 -5.127636452325468e-16 -1.095286242938247e+00
-5.127636452325468e-16 -2.423869254837904e-15  2.990923806944045e-01
-1.095286242938247e+00  2.990923806944045e-01 -8.726780064648843e-16

-2.003853820835793e-15 -5.209965877753870e-16 -1.058090381700111e+00
-5.209965877753870e-16 -1.984246733895017e-15  3.756215284684494e-01
-1.058090381700111e+00  3.756215284684494e-01 -6.707941339981073e-16

-1.419614310900808e-15 -4.403746034387980e-16 -9.708616928578997e-01
-4.403746034387980e-16 -1.576249960707602e-15  5.412605363150471e-01
-9.708616928578997e-01  5.412605363150471e-01 -4.516502794664892e-16

-1.165824899475334e-15 -4.155568121642930e-16 -7.899265382896160e-01
-4.155568121642930e-16 -1.319045691020714e-15  6.292143209025139e-01
-7.899265382896160e-01  6.292143209025139e-01 -3.804527060112759e-16

-1.141360546481896e-15 -4.515019433211913e-16 -1.121294867505099e+00
-4.515019433211913e-16 -1.209512342540733e-15  3.125898851385663e-01
-1.121294867505099e+00  3.125898851385663e-01 -3.546616735289756e-16

-1.028048534352829e-15 -4.486157293198030e-16 -1.211312668051131e+00
-4.486157293198030e-16 -9.851340708638549e-16  1.217766311667552e-01
-1.211312668051131e+00  1.217766311667552e-01 -3.137037795152907e-16

-9.220883969325517e-16 -4.282509664387370e-16 -1.135078786354158e+00
-4.282509664387370e-16 -8.148484510006572e-16  1.477022966890952e-01
-1.135078786354158e+00  1.477022966890952e-01 -2.834508321757476e-16

-7.546177723296825e-16 -3.636950010431504e-16 -8.240409973891086e-01
-3.636950010431504e-16 -7.533382346215275e-16  4.436853494564344e-01
-8.240409973891086e-01  4.436853494564344e-01 -2.604894031715723e-16

-5.672422157927341e-16 -2.916200350812447e-16 -8.455509604760550e-01
-2.916200350812447e-16 -5.713635212228314e-16  4.315875097633701e-01
-8.455509604760550e-01  4.315875097633701e-01 -1.854646887843991e-16

-3.958894139463074e-16 -2.138694749441633e-16 -8.092860179234166e-01
-2.138694749441633e-16 -4.046950318243527e-16  4.315037229752315e-01
-8.092860179234166e-01  4.315037229752315e-01 -1.332945735618835e-16

-2.941378082388521e-16 -1.593882694870858e-16 -8.675477451380647e-01
-1.593882694870858e-16 -4.212391609049170e-16  4.004187821261118e-01
-8.675477451380647e-01  4.004187821261118e-01 -9.849055629890883e-17

-2.431340214050548e-16 -1.248773584514083e-16 -8.798147579349330e-01
-1.248773584514083e-16 -3.089504497183303e-16  4.538235009740897e-01
-8.798147579349330e-01  4.538235009740897e-01 -8.419602286374272e-17

-2.251022285596888e-16 -1.127009128541896e-16 -8.920854185627393e-01
-1.127009128541896e-16 -3.229401444383706e-16  4.652945836172723e-01
-8.920854185627393e-01  4.652945836172723e-01 -7.870665973468136e-17

-1.969801492300831e-16 -1.050520812843949e-16 -1.270217467181523e+00
-1.050520812843949e-16 -3.020918890555033e-16  2.407659455214574e-01
-1.270217467181523e+00  2.407659455214574e-01 -4.602087720630680e-17

-1.762689447585836e-16 -7.891470001126402e-17 -1.205158994873811e+00
-7.891470001126402e-17 -2.998234116667495e-16  4.141770218869831e-01
-1.205158994873811e+00  4.141770218869831e-01 -4.667394625998858e-17

-1.693396119665604e-16 -5.756946354654994e-17 -9.582983460822352e-01
-5.756946354654994e-17 -2.996958703618545e-16  7.640560234912759e-01
-9.582983460822352e-01  7.640560234912759e-01 -5.757797627068131e-17

-1.202583398814636e-16 -6.339887299599179e-17 -1.005929149105532e+00
-6.339887299599179e-17 -2.533494413276468e-16  6.180895656333422e-01
-1.005929149105532e+00  6.180895656333422e-01 -4.346771336397865e-17

-1.038338195524904e-16 -6.957135585205243e-17 -1.073775300042775e+00
-6.957135585205243e-17 -1.950540058494661e-16  2.774187375883846e-01
-1.073775300042775e+00  2.774187375883846e-01 -4.085340449340563e-17

-1.253687146551207e-16 -6.975921644103147e-17 -1.186257737177001e+00
-6.975921644103147e-17 -2.150285314876443e-16 -1.900566181701882e-02
-1.186257737177001e+00 -1.900566181701882e-02 -2.904146821536608e-17

-1.225583875525591e-16 -6.279754695892260e-17 -1.033115881143458e+00
-6.279754695892260e-17 -1.094296080000340e-16  1.758285590921684e-01
-1.033115881143458e+00  1.758285590921684e-01 -3.148127232014663e-17

-1.676465957171728e-16 -4.679642846037368e-17 -7.264996771618101e-01
-4.679642846037368e-17 -1.892034402384343e-16  5.504225164546306e-01
-7.264996771618101e-01  5.504225164546306e-01 -5.197627848184680e-17

-9.937279055587652e-17 -4.384924745607005e-17 -9.576757725823046e-01
-4.384924745607005e-17 -1.788692138103439e-16  4.925471656865950e-01
-9.576757725823046e-01  4.925471656865950e-01 -3.366013874107596e-17

-7.832651868078117e-17 -3.757020937326090e-17 -1.074855063317632e+00
-3.757020937326090e-17 -1.425954368294385e-16  3.882120355632189e-01
-1.074855063317632e+00  3.882120355632189e-01 -2.011318368632152e-17

-6.350822440696532e-17 -3.145400670047212e-17 -1.145458744681137e+00
-3.145400670047212e-17 -1.010954090935292e-16  3.764014815204901e-01
-1.145458744681137e+00  3.764014815204901e-01 -9.897455021500441e-18

-6.251742569932719e-17 -2.707637162910949e-17 -8.441441258564666e-01
-2.707637162910949e-17 -1.147323276279841e-16  7.369460484933334e-01
-8.441441258564666e-01  7.369460484933334e-01 -2.606411635159019e-17

-6.780315335634256e-17 -2.602938241412432e-17 -4.194259013141146e-01
-2.602938241412432e-17 -1.205832927168763e-16  9.694246554777435e-01
-4.194259013141146e-01  9.694246554777435e-01 -4.996864300815909e-17

-5.572449648219932e-17 -2.707421152580790e-17 -9.427166879996426e-01
-2.707421152580790e-17 -1.014838460573261e-16  4.216740773055077e-01
-9.427166879996426e-01  4.216740773055077e-01 -1.811728740456514e-17

-4.445204962784246e-17 -2.775180580801644e-17 -1.397449722943849e+00
-2.775180580801644e-17 -5.167412083238482e-17 -1.115404564386156e-01
-1.397449722943849e+00 -1.115404564386156e-01  9.302119759283421e-18

-4.787703392115708e-17 -2.519995037170085e-17 -9.594300343352616e-01
-2.519995037170085e-17 -8.188843834584749e-17  3.030934676065807e-01
-9.594300343352616e-01  3.030934676065807e-01 -1.368747542726436e-17

-4.841923510627658e-17 -1.923525975288440e-17 -6.715317652533263e-01
-1.923525975288440e-17 -8.508603263297127e-17  7.902356215077591e-01
-6.715317652533263e-01  7.902356215077591e-01 -3.255545139493679e-17

-4.425597832999612e-17 -1.941850323177689e-17 -7.287466508435358e-01
-1.941850323177689e-17 -8.206462877761564e-17  7.119851179071813e-01
-7.287466508435358e-01  7.119851179071813e-01 -2.608003306503213e-17

-3.081894602053666e-17 -1.962871029604066e-17 -1.226595218610202e+00
-1.962871029604066e-17 -2.599820702433258e-17  1.481145152843692e-01
-1.226595218610202e+00  1.481145152843692e-01  8.577619496130201e-18

-3.283194750667077e-17 -1.862080624176644e-17 -9.841497454115110e-01
-1.862080624176644e-17 -6.298177969556673e-17  4.189588455494428e-01
-9.841497454115110e-01  4.189588455494428e-01 -5.565740076362612e-18

-4.939143051476691e-17 -1.636684237702722e-17 -1.438643930334582e-01
-1.636684237702722e-17 -7.889316432890548e-17  1.182020376592328e+00
-1.438643930334582e-01  1.182020376592328e+00 -5.833614524296221e-17

-4.744434458380461e-17 -1.664018652790372e-17 -1.893424255358168e-01
-1.664018652790372e-17 -6.631737064336098e-17  1.101245721453297e+00
-1.893424255358168e-01  1.101245721453297e+00 -5.489883708402445e-17

-2.809309883906516e-17 -1.609992396467405e-17 -1.037543527259134e+00
-1.609992396467405e-17 -2.890537648072749e-17  2.745576982820333e-01
-1.037543527259134e+00  2.745576982820333e-01 -3.414275731169871e-18

-3.087369481789271e-17 -1.603411497053245e-17 -7.702327259732852e-01
-1.603411497053245e-17 -1.849158797839104e-17  3.585562351609245e-01
-7.702327259732852e-01  3.585562351609245e-01 -1.802860145783742e-17

-2.116281461125357e-17 -1.443241902103802e-17 -9.656740250310989e-01
-1.443241902103802e-17 -4.074781263309581e-17  4.417360371473160e-01
-9.656740250310989e-01  4.417360371473160e-01 -5.465798228930537e-18

-1.987644689836829e-17 -1.043186708704390e-17 -1.010636149158639e+00
-1.043186708704390e-17 -3.541648730406307e-17  4.908224937525608e-01
-1.010636149158639e+00  4.908224937525608e-01 -5.462260938807235e-18

-2.013233521167175e-17 -8.607042216289982e-18 -1.016530268905701e+00
-8.607042216289982e-18 -3.793701864946655e-17  5.102525090332647e-01
-1.016530268905701e+00  5.102525090332647e-01 -5.980173558866665e-18

-1.672163708696573e-17 -4.894778655164325e-18 -1.177241852042601e+00
-4.894778655164325e-18 -3.899495706243221e-17  5.397122276028654e-01
-1.177241852042601e+00  5.397122276028654e-01  2.067772716474036e-18

-1.579750304872998e-17 -4.786334779522104e-18 -1.157476327643148e+00
-4.786334779522104e-18 -4.044301949770934e-17  7.116302954228846e-01
-1.157476327643148e+00  7.116302954228846e-01 -1.441577384109784e-18

-6.681089916835703e-18 -6.612429258662208e-18 -1.436394221117090e+00
-6.612429258662208e-18 -2.265672423267142e-17  4.376807387446005e-01
-1.436394221117090e+00  4.376807387446005e-01  2.006229796437505e-17

-1.085338001030471e-17 -7.030971073442498e-18 -1.184666752528025e+00
-7.030971073442498e-18 -2.359482164987872e-17  4.945498956627093e-01
-1.184666752528025e+00  4.945498956627093e-01  4.520235737652881e-18

-6.327722820851446e-18 -6.331628261176312e-18 -1.334201839041272e+00
-6.331628261176312e-18 -1.377966727482411e-17  1.821263499552732e-01
-1.334201839041272e+00  1.821263499552732e-01  1.580711207826133e-17

-6.565716054270278e-18 -6.608181061303236e-18 -1.273495179699395e+00
-6.608181061303236e-18 -9.228744984840289e-18  2.133970347621942e-01
-1.273495179699395e+00  2.133970347621942e-01  1.329706422440700e-17

-1.061599579581582e-17 -5.691670047770746e-18 -1.051383819664548e+00
-5.691670047770746e-18 -2.126517077980450e-17  5.567113381256424e-01
-1.051383819664548e+00  5.567113381256424e-01 -3.287931882688633e-18

-8.664533648696537e-18 -5.468318527794114e-18 -1.074417786017104e+00
-5.468318527794114e-18 -1.956058627750532e-17  5.264442695183945e-01
-1.074417786017104e+00  5.264442695183945e-01 -5.628345127390924e-19

-5.439763859830635e-18 -5.675119130815966e-18 -1.123947645064809e+00
-5.675119130815966e-18 -1.092168575584981e-17  3.636840281357106e-01
-1.123947645064809e+00  3.636840281357106e-01  5.405363406100885e-18

-3.862234133533419e-18 -3.268287940627948e-18 -1.164665556965501e+00
-3.268287940627948e-18 -1.764540646780497e-17  6.281670557026980e-01
-1.164665556965501e+00  6.281670557026980e-01  4.897478702128298e-18

-4.930655007797534e-18 -4.338212866474588e-18 -1.059823137231675e+00
-4.338212866474588e-18 -2.260182541618429e-17  7.937409186379069e-01
-1.059823137231675e+00  7.937409186379069e-01  7.066609847615378e-19

 1.540069488588130e-18 -4.345985230557669e-18 -1.283194033433961e+00
-4.345985230557669e-18 -8.234338780435218e-18  4.372564262149619e-01
-1.283194033433961e+00  4.372564262149619e-01  1.810137006972915e-17

-6.691582292242816e-18 -4.179645647546194e-18 -9.049108849911942e-01
-4.179645647546194e-18 -1.448449969777568e-17  5.332719905606828e-01
-9.049108849911942e-01  5.332719905606828e-01 -5.866676243691482e-18

 3.378881190943934e-18 -1.995590366783821e-18 -1.346613304014082e+00
-1.995590366783821e-18 -9.688975359232386e-19  2.973301204175012e-02
-1.346613304014082e+00  2.973301204175012e-02  2.081525225109005e-17

 1.107805403944387e-18 -2.457842134783164e-18 -1.224974015856907e+00
-2.457842134783164e-18 -1.159460627221856e-18  6.222044487112560e-02
-1.224974015856907e+00  6.222044487112560e-02  1.489981517413968e-17

-5.565134876598831e-18 -3.701335975632255e-18 -8.856202270350527e-01
-3.701335975632255e-18 -1.495601614785886e-17  4.101353879441190e-01
-8.856202270350527e-01  4.101353879441190e-01 -4.866629720032716e-18

-7.694452322185937e-18 -3.576537995987330e-18 -7.727292354242338e-01
-3.576537995987330e-18 -2.043647847881550e-17  5.943957106580365e-01
-7.727292354242338e-01  5.943957106580365e-01 -1.310412688160699e-17

-5.351942137252784e-18 -3.665512827472489e-18 -8.507399347242712e-01
-3.665512827472489e-18 -5.889631517991739e-18  5.288779247238412e-01
-8.507399347242712e-01  5.288779247238412e-01 -7.070348845632727e-18

 5.944937520244777e-19 -4.022443964699230e-18 -1.069549241567159e+00
-4.022443964699230e-18  9.529435232752827e-18  3.292415270218707e-01
-1.069549241567159e+00  3.292415270218707e-01  9.641997947072899e-18

-9.651215888968206e-19 -3.080280347601568e-18 -1.004308529890310e+00
-3.080280347601568e-18 -6.575719399887071e-19  4.629833874391318e-01
-1.004308529890310e+00  4.629833874391318e-01  2.497292203429648e-18

 1.949850806349558e-18 -2.780165417927632e-18 -1.121262692489367e+00
-2.780165417927632e-18  1.217095557715986e-18  4.285559218496277e-01
-1.121262692489367e+00  4.285559218496277e-01  1.003372212244980e-17

 4.014482955742390e-18 -2.663843149109758e-18 -1.200355700825257e+00
-2.663843149109758e-18 -8.047814907782600e-19  4.092240199395159e-01
-1.200355700825257e+00  4.092240199395159e-01  1.522760605265520e-17

 2.628475673961518e-18 -2.905813960698462e-18 -1.120187434756863e+00
-2.905813960698462e-18 -8.319137398441942e-18  5.622497253045192e-01
-1.120187434756863e+00  5.622497253045192e-01  9.221576688634056e-18

 1.864335919909108e-18 -3.156454788964428e-18 -1.046970343616995e+00
-3.156454788964428e-18 -2.595480476094784e-18  4.907755243422544e-01
-1.046970343616995e+00  4.907755243422544e-01  6.739711500059822e-18

 3.823383673004374e-18 -1.747040886529428e-18 -1.128008744195708e+00
-1.747040886529428e-18  5.254197205578718e-18  2.244306003348616e-01
-1.128008744195708e+00  2.244306003348616e-01  1.197449300191678e-17

 3.237083537953905e-20 -2.388382104123703e-18 -9.354739330185121e-01
-2.388382104123703e-18 -1.022526350489554e-17  4.096116260757188e-01
-9.354739330185121e-01  4.096116260757188e-01  4.042241421357617e-19

-8.128428169094963e-20 -2.518596358285261e-18 -9.023112785309654e-01
-2.518596358285261e-18 -6.038277191451848e-18  4.710451164269663e-01
-9.023112785309654e-01  4.710451164269663e-01 -1.200094296274241e-18

 9.163059806235622e-18 -2.652823263807673e-18 -1.264493143760332e+00
-2.652823263807673e-18  2.132034918215099e-17  1.422802727607605e-01
-1.264493143760332e+00  1.422802727607605e-01  2.601502205794329e-17

 5.879581875355217e-18 -2.584673883451040e-18 -1.126960074528525e+00
-2.584673883451040e-18  9.006931107941651e-18  2.731695107031076e-01
-1.126960074528525e+00  2.731695107031076e-01  1.589880367360959e-17

-4.871444808636751e-19 -2.011294772150348e-18 -8.692280837499400e-01
-2.011294772150348e-18 -1.033321484893471e-17  5.711042546943569e-01
-8.692280837499400e-01  5.711042546943569e-01 -4.419687058160655e-18

 1.277517891782302e-19 -2.097144777326159e-18 -8.768996633848234e-01
-2.097144777326159e-18 -5.000892352581581e-18  5.779224870027728e-01
-8.768996633848234e-01  5.779224870027728e-01 -3.427648038133231e-18

 1.872942121023487e-18 -2.033086629247830e-18 -9.383227644014902e-01
-2.033086629247830e-18  2.043265772006397e-18  4.526009040428228e-01
-9.383227644014902e-01  4.526009040428228e-01  1.834554512457433e-18

 3.743607228349215e-18 -2.013969454099999e-18 -1.008363371666772e+00
-2.013969454099999e-18 -6.362976626642171e-18  3.430845359098655e-01
-1.008363371666772e+00  3.430845359098655e-01  7.480501346439632e-18

 1.667791375601321e-18 -2.373454048997518e-18 -9.039331884517189e-01
-2.373454048997518e-18 -5.718170377828549e-18  3.896076155885526e-01
-9.039331884517189e-01  3.896076155885526e-01  6.672426999736109e-19

 8.197097398282267e-18 -3.279611936561090e-18 -1.139125786899737e+00
-3.279611936561090e-18  1.633732310364714e-19  2.486805930684112e-01
-1.139125786899737e+00  2.486805930684112e-01  1.810230607556951e-17

 5.789350483332461e-18 -2.616400278403945e-18 -1.054132636254417e+00
-2.616400278403945e-18  1.035345151714486e-17  3.556655804355345e-01
-1.054132636254417e+00  3.556655804355345e-01  1.052229746175476e-17

 6.783072731632210e-18 -1.382375245292870e-18 -1.122375602511528e+00
-1.382375245292870e-18  7.911633857344832e-18  4.032342852782638e-01
-1.122375602511528e+00  4.032342852782638e-01  1.253800808836737e-17

 6.795886984296726e-18 -7.151953253908093e-19 -1.141459924236904e+00
-7.151953253908093e-19 -6.797797810138379e-19  5.196737948816973e-01
-1.141459924236904e+00  5.196737948816973e-01  1.143759061494557e-17

-1.469715176453458e-18 -3.029683751401823e-19 -8.179191127146478e-01
-3.029683751401823e-19 -1.075624045229442e-17  8.074165376498511e-01
-8.179191127146478e-01  8.074165376498511e-01 -1.248606126565531e-17

 3.398946978994960e-18 -1.118971727322171e-18 -9.919128443720130e-01
-1.118971727322171e-18 -5.318466064635645e-18  7.132768084183888e-01
-9.919128443720130e-01  7.132768084183888e-01  7.256981668268090e-19

 7.905225387362336e-18 -2.253980156136522e-18 -1.130930502933365e+00
-2.253980156136522e-18  3.378595147139267e-18  4.900731107478370e-01
-1.130930502933365e+00  4.900731107478370e-01  1.430416638250673e-17

 8.282008330308866e-18 -4.764350830531660e-19 -1.160936143402435e+00
-4.764350830531660e-19  2.221031408905806e-17  2.387027839204622e-01
-1.160936143402435e+00  2.387027839204622e-01  1.510581392812388e-17

 4.549085079500315e-18 -7.494759599663208e-19 -9.959566141991397e-01
-7.494759599663208e-19  5.326600423168240e-18  3.211204023405654e-01
-9.959566141991397e-01  3.211204023405654e-01  4.591204568109740e-18

 3.998654174381134e-18 -1.257593889985095e-18 -9.550924007304255e-01
-1.257593889985095e-18  1.074819248572172e-17  3.517825222947986e-01
-9.550924007304255e-01  3.517825222947986e-01  3.235477741191520e-18

 8.136773680804156e-18 -1.741503131288474e-18 -1.112274108683996e+00
-1.741503131288474e-18  1.429287050268704e-17  2.679690716899488e-01
-1.112274108683996e+00  2.679690716899488e-01  1.527550443336776e-17

 1.238809415857862e-18 -1.372903856137836e-18 -8.425586258621764e-01
-1.372903856137836e-18 -5.229301264750341e-19  6.249855037478649e-01
-8.425586258621764e-01  6.249855037478649e-01 -6.338384773246382e-18

-5.827267140110380e-20 -1.624133941970991e-18 -7.871807008663703e-01
-1.624133941970991e-18 -3.964364069022626e-19  7.167284970100553e-01
-7.871807008663703e-01  7.167284970100553e-01 -1.106797053101400e-17

 6.535987589939033e-18 -1.648618490762943e-18 -1.055779273781462e+00
-1.648618490762943e-18  2.840902475269515e-18  3.912723655403756e-01
-1.055779273781462e+00  3.912723655403756e-01  8.717801614522170e-18

 7.115161764859148e-18 -2.205650767392220e-18 -1.071247583987383e+00
-2.205650767392220e-18  8.770311615458587e-18  3.588548026250721e-01
-1.071247583987383e+00  3.588548026250721e-01  9.748875967273430e-18

 5.216151602372730e-18 -2.042241290205206e-18 -1.009947990454854e+00
-2.042241290205206e-18  3.613028285948018e-18  4.950831912165439e-01
-1.009947990454854e+00  4.950831912165439e-01  2.868129081414750e-18

 6.460952753628772e-18 -1.550249090445460e-18 -1.087886159679287e+00
-1.550249090445460e-18  6.849157071516181e-18  5.281877469953877e-01
-1.087886159679287e+00  5.281877469953877e-01  5.418438876098315e-18

 1.273189398011228e-17 -1.722646916346895e-18 -1.367346176066386e+00
-1.722646916346895e-18  1.653492060597379e-17  4.500874837605549e-01
-1.367346176066386e+00  4.500874837605549e-01  2.140344280483108e-17

 6.241182333587253e-18 -7.931282278611445e-20 -1.174488272777626e+00
-7.931282278611445e-20  6.927081331604574e-19  7.864713081505489e-01
-1.174488272777626e+00  7.864713081505489e-01  2.736102808424010e-18

 1.053882034411631e-17 -9.990336246314438e-19 -1.327075860583435e+00
-9.990336246314438e-19  8.644328729845614e-18  6.670122389681046e-01
-1.327075860583435e+00  6.670122389681046e-01  1.405886846812546e-17

 2.140255863922736e-17 -1.478723855468426e-18 -1.727409472660693e+00
-1.478723855468426e-18  2.605107308674848e-17  1.353291598256315e-01
-1.727409472660693e+00  1.353291598256315e-01  4.488745915711854e-17

 1.010381802190551e-17 -1.452068591241147e-18 -1.284384693265076e+00
-1.452068591241147e-18  6.737778818276077e-18  7.205248732895776e-01
-1.284384693265076e+00  7.205248732895776e-01  1.256253607702553e-17

 5.961640128862169e-18 -2.735374908677795e-18 -1.077567883823806e+00
-2.735374908677795e-18 -1.305766462561863e-18  9.355325271596446e-01
-1.077567883823806e+00  9.355325271596446e-01  2.243226887943916e-18

 1.454650167462929e-17  1.830465731838103e-19 -1.434445949560098e+00
 1.830465731838103e-19  1.559824240979729e-17  3.042915009324194e-01
-1.434445949560098e+00  3.042915009324194e-01  2.374178320494365e-17

 8.131611900150443e-18 -1.375819152550352e-19 -1.121749971560802e+00
-1.375819152550352e-19  1.184872054795371e-17  3.878007790574901e-01
-1.121749971560802e+00  3.878007790574901e-01  7.262660352923886e-18

 6.524980402525315e-18 -8.136397975779130e-19 -1.018789549958244e+00
-8.136397975779130e-19  4.739411197675143e-18  5.194972834118232e-01
-1.018789549958244e+00  5.194972834118232e-01  2.804680648301272e-18

 8.310211661903702e-18 -8.516726409732331e-19 -1.078448056623171e+00
-8.516726409732331e-19  9.675676956448051e-18  4.637279165932088e-01
-1.078448056623171e+00  4.637279165932088e-01  8.227950127990549e-18

 7.901620535870665e-18 -9.116237272242521e-19 -1.048640514995519e+00
-9.116237272242521e-19  1.287339409489582e-17  4.994049823425874e-01
-1.048640514995519e+00  4.994049823425874e-01  6.840807335442823e-18

 5.905305521091880e-18 -1.069494588656294e-18 -9.561023350573581e-01
-1.069494588656294e-18  5.247847644605993e-19  5.719241066960051e-01
-9.561023350573581e-01  5.719241066960051e-01  9.303817211877442e-19

 9.883917357803154e-18 -8.154967026995045e-19 -1.111235274873492e+00
-8.154967026995045e-19  1.275530171666075e-17  3.699182676999848e-01
-1.111235274873492e+00  3.699182676999848e-01  1.321134689889607e-17

 9.492392396949529e-18 -1.106035814379602e-18 -1.083284342153096e+00
-1.106035814379602e-18  1.607617548487259e-17  4.240425110803111e-01
-1.083284342153096e+00  4.240425110803111e-01  1.205761081905361e-17

 2.061851571274525e-18 -1.735643280024768e-18 -7.647951287332452e-01
-1.735643280024768e-18 -1.227343304812662e-17  7.647857899180925e-01
-7.647951287332452e-01  7.647857899180925e-01 -9.786906657460603e-18

-1.345835724620189e-18 -2.089579870456414e-18 -6.122226728280602e-01
-2.089579870456414e-18 -6.173027276401257e-18  8.272404148997528e-01
-6.122226728280602e-01  8.272404148997528e-01 -1.863546457984915e-17

 1.276071040396473e-17 -4.775080238182845e-19 -1.211193588431934e+00
-4.775080238182845e-19  5.115254310632571e-17  1.345430930433581e-01
-1.211193588431934e+00  1.345430930433581e-01  2.078313323422547e-17

 1.321023567824643e-17 -1.494803715853908e-18 -1.205902008552114e+00
-1.494803715853908e-18  2.804239445571711e-17  1.431996493897098e-01
-1.205902008552114e+00  1.431996493897098e-01  2.177414619820347e-17

 2.995816404025655e-18  2.390639357643703e-19 -8.438036552716922e-01
 2.390639357643703e-19 -4.005973667296002e-18  6.122786083609510e-01
-8.438036552716922e-01  6.122786083609510e-01 -6.664079893959687e-18

 3.703183563461744e-18  1.728615491456063e-19 -8.775728845412879e-01
 1.728615491456063e-19  1.807269866746113e-18  6.948930222338865e-01
-8.775728845412879e-01  6.948930222338865e-01 -6.041848691724006e-18

 9.738869205965357e-18 -5.878972637243919e-19 -1.103216898244902e+00
-5.878972637243919e-19  8.693498727919330e-18  5.122594041493447e-01
-1.103216898244902e+00  5.122594041493447e-01  1.067497713517941e-17

 9.842353886497382e-18 -7.873885263175657e-19 -1.109502455091218e+00
-7.873885263175657e-19  1.249962335927127e-17  4.811707353989814e-01
-1.109502455091218e+00  4.811707353989814e-01  1.126662621199929e-17

 6.672522435692772e-18 -1.236805067209628e-18 -9.469924364686521e-01
-1.236805067209628e-18  5.887591018828155e-18  6.006991727452942e-01
-9.469924364686521e-01  6.006991727452942e-01 -7.400535261943538e-19

 1.104708351017019e-17 -1.548505881726281e-18 -1.083930299484012e+00
-1.548505881726281e-18  7.365480906927146e-18  3.979838018829244e-01
-1.083930299484012e+00  3.979838018829244e-01  9.559479273343917e-18

 9.638083606159065e-18 -1.556940737883669e-18 -1.083455891531843e+00
-1.556940737883669e-18  1.540176405584119e-17  3.934580297237558e-01
-1.083455891531843e+00  3.934580297237558e-01  9.429098964457814e-18

 1.065281633202426e-17 -2.156781696530741e-18 -1.060585214966170e+00
-2.156781696530741e-18  4.861160309341788e-18  4.968717854276705e-01
-1.060585214966170e+00  4.968717854276705e-01  5.580715667410752e-18

-2.007787434582972e-17  8.116827387004802e-18 -1.121977531371945e+00
 8.116827387004802e-18  3.510857077153187e-18  5.349644844504208e-01
-1.121977531371945e+00  5.349644844504208e-01  7.251332118053983e-18

 1.284516641594641e-16 -3.677012885016023e-17 -1.389117377197863e+00
-3.677012885016023e-17  2.872340219506466e-17  4.653342109761442e-01
-1.389117377197863e+00  4.653342109761442e-01  2.257541598248378e-17

-3.134648049297804e-16  1.013279102141694e-16 -1.193209758318351e+00
 1.013279102141694e-16 -2.710538956822148e-17  8.073919103912089e-01
-1.193209758318351e+00  8.073919103912089e-01  3.836815142156716e-18

-1.117046037585629e-17  6.884347721891458e-18 -1.343890615759768e+00
 6.884347721891458e-18  8.270224413184701e-18  6.886214101168254e-01
-1.343890615759768e+00  6.886214101168254e-01  1.506701441468507e-17

 3.676689169562534e-18  5.150144629243105e-18 -1.744117880106175e+00
 5.150144629243105e-18  3.076078300730552e-17  1.567692449808168e-01
-1.744117880106175e+00  1.567692449808168e-01  4.589335856785283e-17

 2.227981092854020e-17 -4.333272587190659e-18 -1.299618650215029e+00
-4.333272587190659e-18  1.021232411248727e-17  7.476295610184680e-01
-1.299618650215029e+00  7.476295610184680e-01  1.347541828159308e-17

-4.578902660807703e-18  1.475053536755360e-18 -1.092179139403244e+00
 1.475053536755360e-18  8.809126821094104e-19  9.661055421788486e-01
-1.092179139403244e+00  9.661055421788486e-01  3.117219809498714e-18

 3.056436409447857e-17 -3.974900832931062e-18 -1.445676884848564e+00
-3.974900832931062e-18  1.892866946178892e-17  3.346944083827470e-01
-1.445676884848564e+00  3.346944083827470e-01  2.417252243632192e-17

-9.096013053841088e-17  3.198908002094346e-17 -1.128656297346728e+00
 3.198908002094346e-17 -5.889793525623982e-20  4.269555666360517e-01
-1.128656297346728e+00  4.269555666360517e-01  7.166847106968645e-18

 3.431333535641350e-16 -1.067238757624212e-16 -1.022809681999931e+00
-1.067238757624212e-16  4.362362616721844e-17  5.699810658525364e-01
-1.022809681999931e+00  5.699810658525364e-01  2.171166994044521e-18

-6.448475210206107e-17  2.279886800292863e-17 -1.075644992187122e+00
 2.279886800292863e-17  6.242844547501144e-19  5.248239592677900e-01
-1.075644992187122e+00  5.248239592677900e-01  6.810243239879431e-18

 7.736617361144167e-18 -4.166401865770918e-19 -1.041954056109988e+00
-4.166401865770918e-19  2.349113629210078e-18  5.654906272184571e-01
-1.041954056109988e+00  5.654906272184571e-01  4.740480571498434e-18

 4.746166114795609e-18 -3.922793772183513e-19 -9.349881436982083e-01
-3.922793772183513e-19  3.654240974578782e-18  6.438431686566283e-01
-9.349881436982083e-01  6.438431686566283e-01 -2.708089895081774e-18

 9.513391827567717e-18 -9.151639784754021e-19 -1.073423250085058e+00
-9.151639784754021e-19  2.181659501607720e-17  4.320183636694572e-01
-1.073423250085058e+00  4.320183636694572e-01  7.984062499816009e-18

 4.289806749081695e-18 -1.701249096796689e-19 -1.074898085426481e+00
-1.701249096796689e-19  1.087964861173023e-17  4.247911690382926e-01
-1.074898085426481e+00  4.247911690382926e-01  8.244786826757581e-18

 6.539045153900926e-18 -8.879493244872229e-19 -1.056012380281276e+00
-8.879493244872229e-19  1.467213549835160e-17  5.223318504305494e-01
-1.056012380281276e+00  5.223318504305494e-01  4.897298730018450e-18

 3.194527834688527e-17 -5.440876471651924e-18 -1.117466001316357e+00
-5.440876471651924e-18  1.660251760881864e-17  5.598162168188463e-01
-1.117466001316357e+00  5.598162168188463e-01  6.631223382823586e-18

 1.687279960591054e-16 -3.274329269182044e-17 -1.387495734544617e+00
-3.274329269182044e-17  2.620714473182356e-17  4.847023480448401e-01
-1.387495734544617e+00  4.847023480448401e-01  2.228208273158774e-17

-6.468272713486131e-17  1.584109161099494e-17 -1.198053310369261e+00
 1.584109161099494e-17  1.935166974105613e-18  8.211242920338564e-01
-1.198053310369261e+00  8.211242920338564e-01  4.062707218706805e-18

 1.351285234960569e-17 -4.787245445796911e-19 -1.348074123984869e+00
-4.787245445796911e-19  1.197307067845064e-17  6.997553668369871e-01
-1.348074123984869e+00  6.997553668369871e-01  1.529242999030381e-17

 4.256224049698228e-17 -4.761176977036460e-18 -1.752325707945918e+00
-4.761176977036460e-18  3.123936876026947e-17  1.624408466813730e-01
-1.752325707945918e+00  1.624408466813730e-01  4.642407894106865e-17

 9.439150558883105e-18 -2.881937772495453e-19 -1.303234129787533e+00
-2.881937772495453e-19  1.104778578517067e-17  7.562050614354516e-01
-1.303234129787533e+00  7.562050614354516e-01  1.372594788012545e-17

 7.756828384671535e-18 -2.175601120477668e-18 -1.094790225873185e+00
-2.175601120477668e-18  3.712961276226263e-18  9.744018737294539e-01
-1.094790225873185e+00  9.744018737294539e-01  3.368329589324824e-18

 1.796131905922071e-17  4.443954396291004e-19 -1.447567807975893e+00
 4.443954396291004e-19  1.692283737529546e-17  3.399378380312747e-01
-1.447567807975893e+00  3.399378380312747e-01  2.429962908452885e-17

 1.051429480440527e-17  2.497062732784712e-19 -1.128633691871687e+00
 2.497062732784712e-19  1.287212499385639e-17  4.311874681481895e-01
-1.128633691871687e+00  4.311874681481895e-01  7.227957178939146e-18

 8.530679968828030e-18 -4.344958366993653e-19 -1.027006806375133e+00
-4.344958366993653e-19  9.539305771111709e-19  5.705859263702664e-01
-1.027006806375133e+00  5.705859263702664e-01  2.546111852095672e-18

 9.930577160262036e-18 -5.077592861113343e-19 -1.075476754093894e+00
-5.077592861113343e-19  6.269740955837415e-18  5.321163908974510e-01
-1.075476754093894e+00  5.321163908974510e-01  6.847122671997317e-18

 9.212913349476200e-18 -5.724869535840204e-19 -1.039795696922296e+00
-5.724869535840204e-19  1.159589315938447e-17  5.753118196679938e-01
-1.039795696922296e+00  5.753118196679938e-01  4.633674661215136e-18

 6.745379819092685e-18 -7.118656799787900e-19 -9.377304130750480e-01
-7.118656799787900e-19  4.521820332877046e-18  6.460620890821409e-01
-9.377304130750480e-01  6.460620890821409e-01 -2.417239750016837e-18

 1.015051193205230e-17 -6.094268702729867e-19 -1.075299286719013e+00
-6.094268702729867e-19  1.981759994958069e-17  4.321368914798860e-01
-1.075299286719013e+00  4.321368914798860e-01  8.210656907069429e-18

 1.027397910722262e-17 -1.136361400769546e-18 -1.074609972397727e+00
-1.136361400769546e-18  8.485438470309759e-18  4.265201172041880e-01
-1.074609972397727e+00  4.265201172041880e-01  8.334231932787943e-18

 9.454643131472578e-18 -1.143440952123451e-18 -1.055914511815933e+00
-1.143440952123451e-18  1.745686755889514e-17  5.240202500762072e-01
-1.055914511815933e+00  5.240202500762072e-01  5.012058691447867e-18

 1.029581787923645e-17 -7.573697116073236e-19 -1.117225379488384e+00
-7.573697116073236e-19  1.092285756916072e-17  5.619322090692149e-01
-1.117225379488384e+00  5.619322090692149e-01  6.726387578691588e-18

 1.623387358571286e-17 -9.966257240189919e-19 -1.386929742227955e+00
-9.966257240189919e-19  1.709586601984140e-17  4.869179710882397e-01
-1.386929742227955e+00  4.869179710882397e-01  2.234661186906774e-17

 9.772307267862002e-18  5.599805203156598e-19 -1.199002477687763e+00
 5.599805203156598e-19  4.797649872982539e-18  8.220445856373605e-01
-1.199002477687763e+00  8.220445856373605e-01  4.235526195133631e-18

 1.391978609687036e-17 -3.987875246011442e-19 -1.348369280691303e+00
-3.987875246011442e-19  1.187261065341284e-17  7.005194396814023e-01
-1.348369280691303e+00  7.005194396814023e-01  1.541950177721185e-17

 2.485960479625414e-17 -9.087469172829825e-19 -1.753717290152109e+00
-9.087469172829825e-19  2.991142909084834e-17  1.627329320093509e-01
-1.753717290152109e+00  1.627329320093509e-01  4.661957350240390e-17

 1.328654818269437e-17 -9.402451944213184e-19 -1.304019529058821e+00
-9.402451944213184e-19  9.664851848661849e-18  7.571632255752073e-01
-1.304019529058821e+00  7.571632255752073e-01  1.387309534931075e-17

 9.042537925627785e-18 -2.291868970565020e-18 -1.095605219821394e+00
-2.291868970565020e-18  4.537734369384481e-18  9.752350761036204e-01
-1.095605219821394e+00  9.752350761036204e-01  3.527003051036754e-18

 1.745027664294552e-17  7.336310176341184e-19 -1.448248469574237e+00
 7.336310176341184e-19  2.117976121471986e-17  3.404091850889152e-01
-1.448248469574237e+00  3.404091850889152e-01  2.443070245609991e-17

 1.071158238484142e-17  3.663922376532450e-19 -1.128709235484619e+00
 3.663922376532450e-19  1.437575283836544e-17  4.326527350863176e-01
-1.128709235484619e+00  4.326527350863176e-01  7.325627191168388e-18

 8.872719870462516e-18 -3.766660961837144e-19 -1.024137950999240e+00
-3.766660961837144e-19  1.466643037476614e-18  5.738730669280183e-01
-1.024137950999240e+00  5.738730669280183e-01  2.447336548751084e-18

 1.031978588297934e-17 -4.194625805780975e-19 -1.075716530206162e+00
-4.194625805780975e-19  1.212769470688140e-17  5.302310450074763e-01
-1.075716530206162e+00  5.302310450074763e-01  6.993833962499957e-18

 9.610256247025899e-18 -5.125159555198265e-19 -1.040955621205973e+00
-5.125159555198265e-19  4.663067472204920e-18  5.718451252712247e-01
-1.040955621205973e+00  5.718451252712247e-01  4.844973880480520e-18

 7.102588834349290e-18 -6.484820331836082e-19 -9.359212730711278e-01
-6.484820331836082e-19  6.411541799718616e-18  6.472157316742855e-01
-9.359212730711278e-01  6.472157316742855e-01 -2.451743616031642e-18

 1.050153991107949e-17 -5.785286229884675e-19 -1.073899146852094e+00
-5.785286229884675e-19  8.689486954751889e-18  4.346729312885415e-01
-1.073899146852094e+00  4.346729312885415e-01  8.206702452262920e-18

 1.066451845020502e-17 -1.058932203374680e-18 -1.074704057472877e+00
-1.058932203374680e-18  2.146112819672825e-17  4.277761108426472e-01
-1.074704057472877e+00  4.277761108426472e-01  8.420183120272670e-18

 9.838222269866441e-18 -1.099719092016759e-18 -1.056217045482809e+00
-1.099719092016759e-18  1.174950786435641e-17  5.248283627653467e-01
-1.056217045482809e+00  5.248283627653467e-01  5.101974770086440e-18

 1.067825078081027e-17 -6.864481076707496e-19 -1.117507592160068e+00
-6.864481076707496e-19  1.943776754935009e-17  5.623743356310509e-01
-1.117507592160068e+00  5.623743356310509e-01  6.816977700756928e-18

 1.660788304381864e-17 -9.589649618759885e-19 -1.387008761702667e+00
-9.589649618759885e-19  1.682462893978896e-17  4.872954600721928e-01
-1.387008761702667e+00  4.872954600721928e-01  2.242164190370900e-17

 1.016601776936760e-17  5.990524395823713e-19 -1.199677990017680e+00
 5.990524395823713e-19  6.159836587652240e-18  8.224487975472764e-01
-1.199677990017680e+00  8.224487975472764e-01  4.343375006993188e-18

 1.429171752099280e-17 -3.573175866934624e-19 -1.349232744149398e+00
-3.573175866934624e-19  1.263552803681466e-17  7.004752379843363e-01
-1.349232744149398e+00  7.004752379843363e-01  1.554114178285084e-17

 2.518940661637985e-17 -8.558539170385201e-19 -1.754610337486461e+00
-8.558539170385201e-19  3.116152387006795e-17  1.625730070135872e-01
-1.754610337486461e+00  1.625730070135872e-01  4.673711187597367e-17

 1.372771009649489e-17 -9.302474396550121e-19 -1.304498076716800e+00
-9.302474396550121e-19  1.116374984826277e-17  7.572565998082854e-01
-1.304498076716800e+00  7.572565998082854e-01  1.395993126118432e-17

 9.320765760719426e-18 -2.233480013784766e-18 -1.096204015154176e+00
-2.233480013784766e-18  3.900447480383476e-18  9.754726148540719e-01
-1.096204015154176e+00  9.754726148540719e-01  3.615543846553172e-18

 1.765430737308549e-17  8.115611936800511e-19 -1.448264109098318e+00
 8.115611936800511e-19  1.957205034750285e-17  3.411886590748543e-01
-1.448264109098318e+00  3.411886590748543e-01  2.448951205859490e-17

 9.425556721276215e-18  8.613539232365686e-19 -1.129097443519497e+00
 8.613539232365686e-19  1.456019001350331e-17  4.332103628139156e-01
-1.129097443519497e+00  4.332103628139156e-01  7.400414028667545e-18

 9.696154394214380e-18 -1.906972518705016e-19 -1.023161488219864e+00
-1.906972518705016e-19  7.426451358495462e-18  5.753081332466345e-01
-1.023161488219864e+00  5.753081332466345e-01  2.423539466120277e-18

 1.765365976142779e-17 -1.291746747630596e-18 -1.076136425550353e+00
-1.291746747630596e-18  5.597114368051255e-18  5.295363563997751e-01
-1.076136425550353e+00  5.295363563997751e-01  7.074823930968390e-18

 9.614222775905174e-18  6.414738858237945e-19 -1.042217209092410e+00
 6.414738858237945e-19  9.802772291761930e-18  5.701872348132845e-01
-1.042217209092410e+00  5.701872348132845e-01  4.982312859217292e-18

 9.916436148646738e-18 -1.825990749184940e-17 -9.357238274575190e-01
-1.825990749184940e-17  1.602119286517758e-17  6.479066904001318e-01
-9.357238274575190e-01  6.479066904001318e-01 -2.438954708646042e-18

 1.580815798579420e-16 -7.065914920563797e-18 -1.074018243522388e+00
-7.065914920563797e-18  1.365963586902150e-17  4.358875230286455e-01
-1.074018243522388e+00  4.358875230286455e-01  8.241491253791354e-18

-1.375661078346847e-16  6.275234607500437e-17 -1.075357585086237e+00
 6.275234607500437e-17 -1.192147041519311e-17  4.283730749217809e-01
-1.075357585086237e+00  4.283730749217809e-01  8.485781693156319e-18

-2.518153628485717e-16  1.140752395614572e-16 -1.057499824845421e+00
 1.140752395614572e-16 -3.650996206182287e-17  5.246383071031433e-01
-1.057499824845421e+00  5.246383071031433e-01  5.215225026036000e-18

-5.333314440485228e-17  1.265451720674681e-17 -1.118627807570835e+00
 1.265451720674681e-17  8.363425650544890e-18  5.623726237077982e-01
-1.118627807570835e+00  5.623726237077982e-01  6.913802739861235e-18

 1.995029937986594e-17 -5.705079558850061e-18 -1.387939343786468e+00
-5.705079558850061e-18  2.306812615566386e-17  4.873238441806561e-01
-1.387939343786468e+00  4.873238441806561e-01  2.250839623523969e-17

 1.843382759615077e-17 -3.328367959206381e-18 -1.200232601590368e+00
-3.328367959206381e-18  7.814958854141741e-18  8.223657854984893e-01
-1.200232601590368e+00  8.223657854984893e-01  4.411764185789781e-18

 1.436932561040884e-17 -2.885084448872607e-19 -1.349488428351739e+00
-2.885084448872607e-19  1.210458706423095e-17  7.007169225538245e-01
-1.349488428351739e+00  7.007169225538245e-01  1.558479937342601e-17

 2.756488528771285e-17 -1.600710137805598e-18 -1.755071105937782e+00
-1.600710137805598e-18  3.426104769622278e-17  1.627135555089574e-01
-1.755071105937782e+00  1.627135555089574e-01  4.680763388642849e-17

 1.329687927230379e-17 -5.850420301612708e-19 -1.304870457121385e+00
-5.850420301612708e-19  1.285285955985938e-17  7.568028793702025e-01
-1.304870457121385e+00  7.568028793702025e-01  1.402239753583255e-17

 9.045157269869930e-18 -1.964240255246131e-18 -1.097087931841823e+00
-1.964240255246131e-18  3.167207425021048e-18  9.746271678318240e-01
-1.097087931841823e+00  9.746271678318240e-01  3.709065425023278e-18

 1.950391857263275e-17  3.073357492421591e-19 -1.447770337333716e+00
 3.073357492421591e-19  2.107989062045931e-17  3.412138161900145e-01
-1.447770337333716e+00  3.412138161900145e-01  2.451470220467472e-17

 1.132874651645224e-18  3.706141725332436e-18 -1.129055891733106e+00
 3.706141725332436e-18  1.825069012371350e-17  4.329135534172847e-01
-1.129055891733106e+00  4.329135534172847e-01  7.456379799653027e-18

 6.342323980473458e-17 -1.768400297794178e-17 -1.021891782414279e+00
-1.768400297794178e-17  1.204224573142693e-17  5.759449019728000e-01
-1.021891782414279e+00  5.759449019728000e-01  2.395688974285686e-18

-3.118797794017896e-17  1.316020858116719e-17 -1.075676027616104e+00
 1.316020858116719e-17  5.854207296331791e-18  5.287611888640597e-01
-1.075676027616104e+00  5.287611888640597e-01  7.113999159877165e-18

 2.604630260849320e-17 -5.549507735658676e-18 -1.042246625964909e+00
-5.549507735658676e-18  6.340267568170162e-18  5.684735927205472e-01
-1.042246625964909e+00  5.684735927205472e-01  5.064533247890331e-18

 3.312698953817119e-18  7.946029891529966e-19 -9.344546196526811e-01
 7.946029891529966e-19  2.438979889832148e-18  6.476236464849713e-01
-9.344546196526811e-01  6.476236464849713e-01 -2.453174406821374e-18

 9.954282852281309e-18 -2.043320928869210e-19 -1.073237262694041e+00
-2.043320928869210e-19  8.729363652717013e-18  4.352675033530042e-01
-1.073237262694041e+00  4.352675033530042e-01  8.265861356284875e-18

 1.055976072669917e-17 -9.138997114866496e-19 -1.074649655808836e+00
-9.138997114866496e-19  1.525089258298446e-17  4.279954041582618e-01
-1.074649655808836e+00  4.279954041582618e-01  8.510495634724427e-18

 4.772830924435186e-18  2.755631971712268e-19 -1.056525533817500e+00
 2.755631971712268e-19  1.234133130891299e-17  5.248001566710212e-01
-1.056525533817500e+00  5.248001566710212e-01  5.203710711031354e-18

 3.106703652702271e-18  1.127428444146893e-18 -1.117924452962071e+00
 1.127428444146893e-18  1.204617999678242e-17  5.618790136173510e-01
-1.117924452962071e+00  5.618790136173510e-01  6.931795832958274e-18

 3.939708156748926e-17 -5.930843975384108e-18 -1.387231941051359e+00
-5.930843975384108e-18  2.069837093368892e-17  4.867549730090191e-01
-1.387231941051359e+00  4.867549730090191e-01  2.252532424502262e-17

 7.924429894794163e-18  1.255432227068838e-18 -1.199457289688642e+00
 1.255432227068838e-18  6.509445907360757e-18  8.219062685035261e-01
-1.199457289688642e+00  8.219062685035261e-01  4.416663916761534e-18

-1.070627100196748e-16  2.717758121986622e-17 -1.349174003767280e+00
 2.717758121986622e-17  5.491389848859227e-18  6.996774838120902e-01
-1.349174003767280e+00  6.996774838120902e-01  1.562846350742955e-17

-8.595219474880770e-17  2.445427368776761e-17 -1.754020561292550e+00
 2.445427368776761e-17  2.916107892736747e-17  1.622516475577021e-01
-1.754020561292550e+00  1.622516475577021e-01  4.679595547024602e-17

-1.775315582745480e-18  2.748536419472125e-18 -1.304019710059700e+00
 2.748536419472125e-18  1.089706570984816e-17  7.562935389481930e-01
-1.304019710059700e+00  7.562935389481930e-01  1.402619274024340e-17

 6.306075861265401e-18 -1.403721903296633e-18 -1.095982964929590e+00
-1.403721903296633e-18  4.982775589459005e-18  9.740505972668765e-01
-1.095982964929590e+00  9.740505972668765e-01  3.697597226984608e-18

 1.751986337173594e-17  9.444162524215984e-19 -1.447238247031357e+00
 9.444162524215984e-19  1.797412897135281e-17  3.401052371715982e-01
-1.447238247031357e+00  3.401052371715982e-01  2.452956726064762e-17

 1.151549261253208e-17  4.482838680233280e-19 -1.128245220599084e+00
 4.482838680233280e-19  1.889280038112147e-17  4.316467098009308e-01
-1.128245220599084e+00  4.316467098009308e-01  7.455950596782098e-18

 9.659292037354574e-18 -2.832274405448252e-19 -1.024913432414472e+00
-2.832274405448252e-19  1.120315177073252e-17  5.716561633628767e-01
-1.024913432414472e+00  5.716561633628767e-01  2.659080851745288e-18

 1.100010992857620e-17 -3.573854772899075e-19 -1.075307876358180e+00
-3.573854772899075e-19  6.805779546781700e-18  5.299743221639509e-01
-1.075307876358180e+00  5.299743221639509e-01  7.109702411500947e-18

 1.016114468598992e-17 -4.202115861846517e-19 -1.039627287150325e+00
-4.202115861846517e-19  1.193858883288423e-17  5.727293535580730e-01
-1.039627287150325e+00  5.727293535580730e-01  4.892626427652399e-18

 8.449526451340038e-18 -6.601893747790485e-19 -9.358369421165954e-01
-6.601893747790485e-19  7.260806353318197e-18  6.459924779970443e-01
-9.358369421165954e-01  6.459924779970443e-01 -2.302017596329048e-18

 1.130788220033209e-17 -4.945485084193286e-19 -1.074197718186991e+00
-4.945485084193286e-19  1.367195459140414e-17  4.320908717177329e-01
-1.074197718186991e+00  4.320908717177329e-01  8.381742374568343e-18

 1.046566450539490e-17 -9.043975373250406e-19 -1.074278769246890e+00
-9.043975373250406e-19  1.063722039788056e-17  4.258120656828331e-01
-1.074278769246890e+00  4.258120656828331e-01  8.549404328959864e-18

-8.926116457823552e-19  3.797485485354345e-19 -1.055019543166515e+00
 3.797485485354345e-19  1.403991152283772e-17  5.236938975022964e-01
-1.055019543166515e+00  5.236938975022964e-01  5.168852375171118e-18

-6.989518090849131e-17  9.423000916387042e-18 -1.116755810486188e+00
 9.423000916387042e-18  9.420964112488035e-18  5.608446092178748e-01
-1.116755810486188e+00  5.608446092178748e-01  6.916714706672084e-18

-1.444028943048346e-16  1.923146721626960e-17 -1.386305641348368e+00
 1.923146721626960e-17  1.689115019171446e-17  4.855328398668997e-01
-1.386305641348368e+00  4.855328398668997e-01  2.252277056252507e-17

-2.714917541613204e-17  5.404620472523488e-18 -1.198802022415432e+00
 5.404620472523488e-18  6.617473238675080e-18  8.204615703720248e-01
-1.198802022415432e+00  8.204615703720248e-01  4.426541463970136e-18

 6.641632363077943e-19  1.494913382316640e-18 -1.348476003642950e+00
 1.494913382316640e-18  1.297670535198718e-17  6.984593513994448e-01
-1.348476003642950e+00  6.984593513994448e-01  1.563166210409170e-17

 3.624270286680060e-17 -2.091739461879830e-18 -1.753269111643474e+00
-2.091739461879830e-18  3.130643881972683e-17  1.612773549162828e-01
-1.753269111643474e+00  1.612773549162828e-01  4.679205854033653e-17

 1.428754568289400e-17 -8.486687414803094e-19 -1.303141770416068e+00
-8.486687414803094e-19  1.113431918040596e-17  7.551337468930314e-01
-1.303141770416068e+00  7.551337468930314e-01  1.401293736632542e-17

 1.031918241838824e-17 -2.236735010919597e-18 -1.094956425679075e+00
-2.236735010919597e-18  5.300292109117994e-18  9.729060756068485e-01
-1.094956425679075e+00  9.729060756068485e-01  3.668164762518481e-18

 1.718724021923230e-17  1.099621192071644e-18 -1.445744355289181e+00
 1.099621192071644e-18  1.915476376260559e-17  3.392781400836939e-01
-1.445744355289181e+00  3.392781400836939e-01  2.447279650850289e-17

 1.009423527939623e-17  9.648721360093645e-19 -1.127249201301000e+00
 9.648721360093645e-19  1.526767225467255e-17  4.292285941446668e-01
-1.127249201301000e+00  4.292285941446668e-01  7.427075060253601e-18

-1.316323260567042e-17  6.750051075179329e-18 -1.032005155887368e+00
 6.750051075179329e-18  9.654346443667909e-18  5.631555897367000e-01
-1.032005155887368e+00  5.631555897367000e-01  3.172160520200733e-18

-6.207422478937435e-18  4.925681435816941e-18 -1.075047052067284e+00
 4.925681435816941e-18  8.416165059627766e-18  5.327712537077062e-01
-1.075047052067284e+00  5.327712537077062e-01  7.051191579402693e-18

 7.989833320245451e-17 -2.160585735077749e-17 -1.035198485027422e+00
-2.160585735077749e-17  1.226963219792274e-17  5.817633655209730e-01
-1.035198485027422e+00  5.817633655209730e-01  4.510247005256496e-18

 1.472358660487177e-17 -2.563449611166124e-18 -9.394189803026698e-01
-2.563449611166124e-18  7.659850504924403e-18  6.432922876700605e-01
-9.394189803026698e-01  6.432922876700605e-01 -2.045536649186595e-18

-2.264799476715235e-18  3.752616088982792e-18 -1.077333849754751e+00
 3.752616088982792e-18  1.135799848870436e-17  4.256852753705639e-01
-1.077333849754751e+00  4.256852753705639e-01  8.594749676177234e-18

-6.181894799479428e-17  2.092699840092724e-17 -1.073060553337461e+00
 2.092699840092724e-17  1.037612719913645e-17  4.232489046539114e-01
-1.073060553337461e+00  4.232489046539114e-01  8.471952584749467e-18

 2.253888734766671e-17 -4.547529048494439e-18 -1.053328342933425e+00
-4.547529048494439e-18  1.587588372670918e-17  5.222818064739356e-01
-1.053328342933425e+00  5.222818064739356e-01  5.070632590007767e-18

-1.482690041155358e-17  7.237746031743886e-18 -1.114832589406699e+00
 7.237746031743886e-18  7.770257659187266e-18  5.605268619000934e-01
-1.114832589406699e+00  5.605268619000934e-01  6.792434351992065e-18

 1.434596167319780e-17 -8.751194322814551e-21 -1.382355120248119e+00
-8.751194322814551e-21  1.835566300225419e-17  4.876490803102649e-01
-1.382355120248119e+00  4.876490803102649e-01  2.222551471773070e-17

 1.556748689556372e-17 -1.224011991979309e-18 -1.185438577084819e+00
-1.224011991979309e-18  7.547955722389483e-18  8.270216452597616e-01
-1.185438577084819e+00  8.270216452597616e-01  3.484085852052413e-18

 1.454249352914169e-17 -2.263528954544257e-19 -1.329106111660995e+00
-2.263528954544257e-19  1.218203467196903e-17  7.067755000440085e-01
-1.329106111660995e+00  7.067755000440085e-01  1.416587106068803e-17

-5.315717317615488e-17  2.676820273139217e-17 -1.719646304713304e+00
 2.676820273139217e-17  2.321456356555962e-17  1.561165888661447e-01
-1.719646304713304e+00  1.561165888661447e-01  4.420428989387870e-17

-2.224626449901884e-16  8.322417212150003e-17 -1.325073874619979e+00
 8.322417212150003e-17 -1.555612113127773e-17  6.853645369291826e-01
-1.325073874619979e+00  6.853645369291826e-01  1.371410582008507e-17

-1.777538959684329e-16  6.696463133727381e-17 -1.304070006236904e+00
 6.696463133727381e-17 -1.214200849305152e-17  7.790468224941932e-01
-1.304070006236904e+00  7.790468224941932e-01  1.329683053028719e-17

-2.063902827835815e-17  1.363800146932369e-17 -1.481172463203176e+00
 1.363800146932369e-17  1.448977546934932e-17  4.888561598167602e-01
-1.481172463203176e+00  4.888561598167602e-01  2.757698417831815e-17

 1.973423539591682e-18  3.752745570719027e-18 -1.234763964457199e+00
 3.752745570719027e-18  1.317268742036911e-17  5.493129098383225e-01
-1.234763964457199e+00  5.493129098383225e-01  1.275838158667116e-17

 1.501813240447918e-17 -2.440118711603822e-19 -1.187570522682313e+00
-2.440118711603822e-19  1.129327383801217e-17  4.061013961846868e-01
-1.187570522682313e+00  4.061013961846868e-01  1.117167063519814e-17

 8.620276429764805e-18 -1.395402546553797e-20 -9.846548709838878e-01
-1.395402546553797e-20  1.302759947583303e-17  5.052134017962628e-01
-9.846548709838878e-01  5.052134017962628e-01 -4.809479746529182e-19

 1.479144951134297e-17 -3.396626657243546e-19 -1.203908340746603e+00
-3.396626657243546e-19  1.965052597447971e-17  2.706965212234765e-01
-1.203908340746603e+00  2.706965212234765e-01  1.705610269231311e-17

 1.221336766068290e-17 -6.831118121127917e-19 -1.098816581653327e+00
-6.831118121127917e-19  1.886818746774515e-17  3.732170854858349e-01
-1.098816581653327e+00  3.732170854858349e-01  9.951227429310574e-18

 9.351537401260511e-18 -8.545209245740588e-19 -9.934998426745044e-01
-8.545209245740588e-19  1.577472216103472e-17  5.160783465350447e-01
-9.934998426745044e-01  5.160783465350447e-01  1.292896775818962e-18

 1.842468806997630e-17 -1.623519095925597e-18 -1.347700035086810e+00
-1.623519095925597e-18  2.331110567595785e-17  3.294695937902238e-01
-1.347700035086810e+00  3.294695937902238e-01  2.628942897322141e-17

 1.010462888073168e-17  6.032471060466382e-19 -1.085306259325388e+00
 6.032471060466382e-19  6.700226123018595e-18  7.670702995146911e-01
-1.085306259325388e+00  7.670702995146911e-01  3.019122661361647e-18

 8.428695109845678e-18 -6.968349947093176e-19 -9.934606958975476e-01
-6.968349947093176e-19  2.290829350606546e-18  8.789157999338342e-01
-9.934606958975476e-01  8.789157999338342e-01 -1.256898339432439e-18

 2.073944418038288e-17  9.856038031209060e-19 -1.491994076740283e+00
 9.856038031209060e-19  2.702517155392547e-17  1.576394331283383e-01
-1.491994076740283e+00  1.576394331283383e-01  3.232446267224423e-17

 1.429604831505117e-17 -1.454260880845856e-19 -1.191171710203864e+00
-1.454260880845856e-19  1.604691981353841e-17  4.251110113761487e-01
-1.191171710203864e+00  4.251110113761487e-01  1.490813158414333e-17

 1.140543503507858e-17 -1.475879056478748e-18 -1.014508232287514e+00
-1.475879056478748e-18  8.461627258675663e-18  6.103089316150303e-01
-1.014508232287514e+00  6.103089316150303e-01  7.385741173965305e-18

 1.036394061269402e-17  7.638977650666570e-20 -9.723866046701090e-01
 7.638977650666570e-20  1.335420569400419e-17  4.255475685511801e-01
-9.723866046701090e-01  4.255475685511801e-01  4.829941486557306e-18

 9.113741001495740e-18  1.093598394208751e-18 -9.397706762631138e-01
 1.093598394208751e-18  1.954760010767589e-17  2.933150789794389e-01
-9.397706762631138e-01  2.933150789794389e-01  3.335419075851261e-18

 1.260026735660447e-17 -1.888094246552378e-18 -7.928688277043976e-01
-1.888094246552378e-18  2.306896801958952e-17  4.278251473128077e-01
-7.928688277043976e-01  4.278251473128077e-01 -3.099206305665821e-18

 3.234965633894326e-17 -8.393258344145884e-18 -7.379296590051918e-01
-8.393258344145884e-18  1.439956033350300e-17  5.392265886405676e-01
-7.379296590051918e-01  5.392265886405676e-01 -7.106401741275599e-18

 2.688829473138428e-17 -5.828752773617103e-18 -9.264906274485096e-01
-5.828752773617103e-18  1.358647557741700e-17  3.721115176473772e-01
-9.264906274485096e-01  3.721115176473772e-01  7.288082822761113e-18

 5.063572744139361e-17 -1.225495769216641e-17 -1.038741347547909e+00
-1.225495769216641e-17  1.594379707847028e-17  3.347443567332016e-01
-1.038741347547909e+00  3.347443567332016e-01  1.462638018630883e-17

-1.693325704425469e-18  2.793148437002206e-18 -7.892459195758184e-01
 2.793148437002206e-18 -3.480121688385702e-18  6.327355733731064e-01
-7.892459195758184e-01  6.327355733731064e-01 -6.324128023820795e-18

 9.196024401419178e-18 -1.821946299425385e-19 -9.158394682012525e-01
-1.821946299425385e-19  1.187081267946502e-17  4.665374031162786e-01
-9.158394682012525e-01  4.665374031162786e-01  3.484620821210825e-18

 1.466581807944196e-17 -1.359606668273070e-18 -1.086217814496884e+00
-1.359606668273070e-18  2.306702185981781e-17  2.184101272231922e-01
-1.086217814496884e+00  2.184101272231922e-01  1.670567460263426e-17

 1.633002323487453e-17 -1.388829584583198e-18 -1.222574807377359e+00
-1.388829584583198e-18  2.209685987353473e-17  2.511979944494340e-01
-1.222574807377359e+00  2.511979944494340e-01  2.462804686968722e-17

 1.112264314819257e-17  8.104618794421961e-19 -1.038547357130257e+00
 8.104618794421961e-19  5.928677521480998e-18  6.007506501206573e-01
-1.038547357130257e+00  6.007506501206573e-01  7.973644267981279e-18

 7.615991080959320e-18 -1.282302330020198e-18 -8.493766562733588e-01
-1.282302330020198e-18  2.662486753992590e-18  8.349063726297347e-01
-8.493766562733588e-01  8.349063726297347e-01 -1.591831179082331e-18

 1.815832063103515e-17 -8.102718495566633e-20 -1.282579104883207e+00
-8.102718495566633e-20  2.263615809833150e-17  2.917139264116286e-01
-1.282579104883207e+00  2.917139264116286e-01  2.656307146347233e-17

 1.423171447683633e-17  1.075660871634463e-19 -1.113517354113716e+00
 1.075660871634463e-19  1.309953736811289e-17  3.076309533661067e-01
-1.113517354113716e+00  3.076309533661067e-01  1.636543889629222e-17

 7.328210172475333e-18 -4.865595599018958e-19 -8.105369671786686e-01
-4.865595599018958e-19  1.072513007534407e-17  4.953447414112025e-01
-8.105369671786686e-01  4.953447414112025e-01 -2.326366124808565e-18

 9.854772141225504e-18  7.583286073950036e-19 -9.283614882641585e-01
 7.583286073950036e-19  1.476251427649730e-17  2.890742751915616e-01
-9.283614882641585e-01  2.890742751915616e-01  5.178672278800856e-18

 6.219863432009136e-18  3.009576611604918e-19 -7.628820401863665e-01
 3.009576611604918e-19  8.042003983222753e-18  3.557666409726374e-01
-7.628820401863665e-01  3.557666409726374e-01 -4.502214073086424e-18

 1.062729989380763e-17 -1.054338176472209e-18 -9.107489650600221e-01
-1.054338176472209e-18  2.436282029020849e-17  2.211534816725099e-01
-9.107489650600221e-01  2.211534816725099e-01  8.430148330991037e-18

 8.828121386221839e-18 -1.353806942717311e-18 -8.342779429498443e-01
-1.353806942717311e-18  1.726921981575570e-17  3.598758961838469e-01
-8.342779429498443e-01  3.598758961838469e-01  2.876372624071877e-18

 7.540243442684629e-18  1.914767746954690e-20 -8.239271446351922e-01
 1.914767746954690e-20  1.513059838876128e-17  4.810165380679448e-01
-8.239271446351922e-01  4.810165380679448e-01 -5.863463142707977e-19

 1.001812835115295e-17  3.852605442027061e-19 -9.410890920861980e-01
 3.852605442027061e-19  5.606381873889165e-18  4.792148414792475e-01
-9.410890920861980e-01  4.792148414792475e-01  5.927423936247079e-18

 8.128290937121883e-18 -2.570654378770205e-21 -8.684505293193804e-01
-2.570654378770205e-21  2.629324878266552e-18  5.771984186113169e-01
-8.684505293193804e-01  5.771984186113169e-01 -5.614223836810068e-19

 1.545122726789297e-17 -1.108233336788203e-18 -1.148549474004890e+00
-1.108233336788203e-18  2.886809091155061e-17  1.905497554630744e-01
-1.148549474004890e+00  1.905497554630744e-01  2.091059191883649e-17

 1.177479217761309e-17 -7.967614171892452e-19 -1.013806081346282e+00
-7.967614171892452e-19  1.194752200425676e-17  3.554235665878920e-01
-1.013806081346282e+00  3.554235665878920e-01  9.731564253362055e-18

 6.097343318579701e-18  3.604597414645760e-19 -8.200676481950765e-01
 3.604597414645760e-19  5.221656409299926e-18  5.751230050978862e-01
-8.200676481950765e-01  5.751230050978862e-01 -7.127273686974843e-18

 1.439156683940392e-17 -3.027847934708511e-19 -1.152318010389376e+00
-3.027847934708511e-19  2.091431593500792e-17  3.431802330538333e-01
-1.152318010389376e+00  3.431802330538333e-01  1.679381212377918e-17

 1.428096819419649e-17 -3.115340951721165e-19 -1.151404606403695e+00
-3.115340951721165e-19  1.653023968196606e-17  3.714174709792681e-01
-1.151404606403695e+00  3.714174709792681e-01  1.557849028168278e-17

 1.565961722567235e-17 -3.703605570205045e-19 -1.196544864023184e+00
-3.703605570205045e-19  1.658249405899890e-17  3.945203737581014e-01
-1.196544864023184e+00  3.945203737581014e-01  1.766837851049944e-17

 1.082673358186501e-17 -3.371417009179632e-19 -1.099413100571746e+00
-3.371417009179632e-19  6.916282007784511e-18  4.785650611827487e-01
-1.099413100571746e+00  4.785650611827487e-01  1.320623972910323e-17

 8.789084670441467e-18 -9.645726466393459e-19 -9.736660361028129e-01
-9.645726466393459e-19  8.582769357578854e-18  5.062747869641840e-01
-9.736660361028129e-01  5.062747869641840e-01  6.330938039436657e-18

-3.585376995152096e-17  7.825959016598684e-18 -1.019680887967730e+00
 7.825959016598684e-18  1.009567376555178e-17  3.727701973907612e-01
-1.019680887967730e+00  3.727701973907612e-01  9.792703921348049e-18

-8.234446565968819e-19  1.742772622409975e-18 -1.006936811071055e+00
 1.742772622409975e-18  1.971554613568096e-17  3.044474374184614e-01
-1.006936811071055e+00  3.044474374184614e-01  9.289575955035740e-18

 1.127033659815394e-16 -1.797503684734354e-17 -9.040499627014290e-01
-1.797503684734354e-17  1.581854748419988e-17  3.335820619789907e-01
-9.040499627014290e-01  3.335820619789907e-01  3.278002057747630e-18

 2.094674203802776e-16 -5.226051886646844e-17 -7.875103044399208e-01
-5.226051886646844e-17  2.968703768367453e-17  3.841256281844476e-01
-7.875103044399208e-01  3.841256281844476e-01 -1.929763871832274e-18

 4.993735187641372e-17 -9.871519321767379e-18 -8.377892505277904e-01
-9.871519321767379e-18  8.873012683277638e-18  4.141791152491945e-01
-8.377892505277904e-01  4.141791152491945e-01  1.403910926568765e-18

 2.978472084695374e-17 -4.969044267970077e-18 -7.986937165646709e-01
-4.969044267970077e-18  9.526793752628192e-18  4.933088954118370e-01
-7.986937165646709e-01  4.933088954118370e-01 -2.929962484044681e-18

 1.318424702603507e-17 -6.885313455501133e-19 -9.728277707874841e-01
-6.885313455501133e-19  1.101568273586603e-17  3.752768324789059e-01
-9.728277707874841e-01  3.752768324789059e-01  9.435544160555072e-18

 1.433943396942095e-17 -4.908962695158405e-19 -1.068193261157145e+00
-4.908962695158405e-19  2.100448465526200e-17  3.795966551324185e-01
-1.068193261157145e+00  3.795966551324185e-01  1.463221263855892e-17

 1.159458090626719e-17 -1.088117020240256e-18 -9.799111323502945e-01
-1.088117020240256e-18  1.028182804040233e-17  4.974929976651314e-01
-9.799111323502945e-01  4.974929976651314e-01  9.706479621334013e-18

 1.120472426592155e-17 -1.859854811568606e-19 -9.527707164881641e-01
-1.859854811568606e-19  1.315952545058579e-17  3.368786972496089e-01
-9.527707164881641e-01  3.368786972496089e-01  7.302095799019394e-18

 1.112642353432702e-17 -4.840657178875095e-19 -8.948882290513965e-01
-4.840657178875095e-19  1.483439027901312e-17  3.099461187436972e-01
-8.948882290513965e-01  3.099461187436972e-01  3.760123935703979e-18

 1.771110454344733e-17 -3.635552141175800e-18 -8.620171435956943e-01
-3.635552141175800e-18  1.734750664073614e-17  3.020204185199120e-01
-8.620171435956943e-01  3.020204185199120e-01  3.186756157876290e-18

 2.045380731979991e-17 -4.631672234167009e-18 -8.574874790364088e-01
-4.631672234167009e-18  1.737259676587920e-17  4.063318075219884e-01
-8.574874790364088e-01  4.063318075219884e-01  1.613282141784879e-18

 5.428222099432983e-17 -1.396584404646247e-17 -8.790252759501626e-01
-1.396584404646247e-17  1.597779732034563e-17  4.818800060341483e-01
-8.790252759501626e-01  4.818800060341483e-01  4.990324580633350e-19

 7.552258291900350e-17 -1.929762948133698e-17 -1.092255363453198e+00
-1.929762948133698e-17  1.651844647021064e-17  5.912310045328363e-01
-1.092255363453198e+00  5.912310045328363e-01  1.377592045797967e-17

 1.350902600969564e-17 -1.864039345779952e-18 -1.014474400239819e+00
-1.864039345779952e-18 -4.199157499241559e-18  5.673095347244883e-01
-1.014474400239819e+00  5.673095347244883e-01  1.028956917351502e-17

 1.521134326145462e-17  1.407488214484958e-18 -1.165710955195671e+00
 1.407488214484958e-18  2.663140991319018e-17  1.206409637092937e-01
-1.165710955195671e+00  1.206409637092937e-01  1.561478732943027e-17

 8.038683880470175e-18 -5.628621521672652e-20 -8.751021427982588e-01
-5.628621521672652e-20  1.215437325727031e-17  3.786402515196560e-01
-8.751021427982588e-01  3.786402515196560e-01  6.324233997230080e-19

 1.199269528458687e-17 -8.130254159083935e-19 -1.006230665766032e+00
-8.130254159083935e-19  2.283049454264762e-17  3.225220730698239e-01
-1.006230665766032e+00  3.225220730698239e-01  1.114845711355572e-17

 9.654229889672174e-18 -3.321398284176093e-19 -9.287206980702761e-01
-3.321398284176093e-19  2.447076870804782e-18  5.296214967864554e-01
-9.287206980702761e-01  5.296214967864554e-01  3.554076326739074e-18

 7.133537182622095e-18 -1.464907324833158e-18 -8.003916400831834e-01
-1.464907324833158e-18 -1.611307300630461e-18  6.891730159133431e-01
-8.003916400831834e-01  6.891730159133431e-01 -3.305247487234542e-18

 1.349729150538062e-17 -1.716394095688905e-19 -1.077942353978248e+00
-1.716394095688905e-19  1.584410538338704e-17  1.491205619415495e-01
-1.077942353978248e+00  1.491205619415495e-01  1.481646150477014e-17

 1.369638657947541e-17 -1.419358250990627e-18 -1.059308425801153e+00
-1.419358250990627e-18  2.090711180797975e-17  1.812688619150071e-01
-1.059308425801153e+00  1.812688619150071e-01  1.498955714329762e-17

 1.081386675887326e-17  5.830535003213397e-19 -1.008530152213998e+00
 5.830535003213397e-19  2.285991345992390e-17  4.527091033277389e-01
-1.008530152213998e+00  4.527091033277389e-01  7.410248783184184e-18

 1.145240534009333e-17 -3.756277873255636e-20 -1.031836363884820e+00
-3.756277873255636e-20  1.702997684882487e-17  5.637886803105333e-01
-1.031836363884820e+00  5.637886803105333e-01  7.440104502711630e-18

 1.316058399566804e-17 -6.193267499315025e-19 -1.077255564338109e+00
-6.193267499315025e-19  2.728611814129926e-18  4.682073396220450e-01
-1.077255564338109e+00  4.682073396220450e-01  1.213601251595679e-17

 6.167525273454240e-17 -1.169080993288731e-17  9.265374600229538e-01
-1.169080993288731e-17 -1.224649659050958e-17  2.669898150510718e-01
 9.265374600229538e-01  2.669898150510718e-01 -3.122339187104095e-17

 5.253571353504665e-17 -1.084806692292900e-17  9.228248027862964e-01
-1.084806692292900e-17 -1.259842090400160e-17  2.852701158110568e-01
 9.228248027862964e-01  2.852701158110568e-01 -3.232251055796392e-17

-3.317112505229223e-17  1.303315074094832e-18  1.086184113791907e+00
 1.303315074094832e-18 -1.457243138146075e-17  3.699584075380261e-01
 1.086184113791907e+00  3.699584075380261e-01 -3.814979646125968e-17

-2.476882412652221e-17 -2.090080625127151e-19  7.415268629439106e-01
-2.090080625127151e-19 -8.445952733560380e-18  8.299688925342926e-01
 7.415268629439106e-01  8.299688925342926e-01 -2.917244671423954e-17

-2.331561544446296e-17 -1.464086997292201e-19  9.474764605023742e-01
-1.464086997292201e-19 -1.170376768553791e-17  5.990617754456059e-01
 9.474764605023742e-01  5.990617754456059e-01 -3.448683854104780e-17

-2.806804343478652e-17 -2.472083004710977e-19  1.457716993356342e+00
-2.472083004710977e-19 -2.212507736204675e-17 -1.369355495482624e-03
 1.457716993356342e+00 -1.369355495482624e-03 -5.078636353591818e-17

-2.726419842749311e-17 -9.298157651618816e-20  1.308648861821236e+00
-9.298157651618816e-20 -1.906018031472915e-17  1.654517522185406e-01
 1.308648861821236e+00  1.654517522185406e-01 -4.595770483614426e-17

-2.211368240100428e-17 -2.382395018825477e-19  8.366942501675990e-01
-2.382395018825477e-19 -1.103871777871843e-17  6.320283473208570e-01
 8.366942501675990e-01  6.320283473208570e-01 -3.049852557044395e-17

-2.323639804139931e-17  1.888583535258240e-19  9.881800212338524e-01
 1.888583535258240e-19 -1.178051405280972e-17  5.364520163151764e-01
 9.881800212338524e-01  5.364520163151764e-01 -3.496675324353432e-17

-2.254530703984078e-17 -6.044565053434018e-19  1.003655782559661e+00
-6.044565053434018e-19 -1.541825165069064e-17  3.035722310373007e-01
 1.003655782559661e+00  3.035722310373007e-01 -3.542135363222505e-17

-2.207946600749064e-17 -3.862536834931666e-19  1.001695139835747e+00
-3.862536834931666e-19 -1.527108198084094e-17  2.644679796486662e-01
 1.001695139835747e+00  2.644679796486662e-01 -3.520206881108379e-17

-1.842357220852346e-17 -3.632573035995738e-19  6.659913176780649e-01
-3.632573035995738e-19 -9.293486156469007e-18  5.824003451276107e-01
 6.659913176780649e-01  5.824003451276107e-01 -2.362184363978287e-17

-1.962118010208620e-17 -3.066325237381521e-19  7.704754988900013e-01
-3.066325237381521e-19 -9.839438797585454e-18  5.480896657921012e-01
 7.704754988900013e-01  5.480896657921012e-01 -2.724787506816733e-17

-2.029099353115550e-17 -6.817114058739650e-20  8.385330764759898e-01
-6.817114058739650e-20 -9.887526291798771e-18  5.217447877533842e-01
 8.385330764759898e-01  5.217447877533842e-01 -2.938642184783989e-17

-2.051000842113390e-17 -2.023255726608738e-19  8.835669795086286e-01
-2.023255726608738e-19 -1.180622282522488e-17  4.030027450279274e-01
 8.835669795086286e-01  4.030027450279274e-01 -3.109528170029956e-17

-1.922342928980655e-17 -5.959021959379280e-20  7.976750693728891e-01
-5.959021959379280e-20 -1.144870989887522e-17  3.949699695013278e-01
 7.976750693728891e-01  3.949699695013278e-01 -2.794439393227042e-17

-2.099877744456567e-17  2.197339317541577e-19  8.876512616313361e-01
 2.197339317541577e-19 -1.232281907137192e-17  3.849361022887822e-01
 8.876512616313361e-01  3.849361022887822e-01 -3.102546235757123e-17

-2.528942899514149e-17  3.688749884465682e-19  1.083736416789744e+00
 3.688749884465682e-19 -1.417660476373792e-17  4.057740924763488e-01
 1.083736416789744e+00  4.057740924763488e-01 -3.871487445308990e-17

-2.339976804425390e-17  9.293631879364346e-19  8.470778179410611e-01
 9.293631879364346e-19 -9.474791946951145e-18  6.704082216924341e-01
 8.470778179410611e-01  6.704082216924341e-01 -3.047188324107875e-17

-1.130219776542697e-17 -4.661150984222175e-18  1.019284411595852e+00
-4.661150984222175e-18 -1.341849513810426e-17  3.212888830639346e-01
 1.019284411595852e+00  3.212888830639346e-01 -3.593835797018457e-17

-1.001123416211765e-17 -4.931119833495602e-18  1.018739137631547e+00
-4.931119833495602e-18 -1.431670614832613e-17  2.325479107007965e-01
 1.018739137631547e+00  2.325479107007965e-01 -3.523372203988830e-17

-1.027447928625558e-17 -5.118100825046334e-18  1.093919768155499e+00
-5.118100825046334e-18 -1.372432214912830e-17  2.840434235904078e-01
 1.093919768155499e+00  2.840434235904078e-01 -3.751980634807501e-17

-2.544373488610523e-17 -3.182048103899196e-20  1.051229486255254e+00
-3.182048103899196e-20 -1.396150995435299e-17  4.943670358099096e-01
 1.051229486255254e+00  4.943670358099096e-01 -3.788952957007570e-17

-2.523312983628771e-17  2.656892600191692e-19  9.005729667552457e-01
 2.656892600191692e-19 -1.083186633645118e-17  7.266264781804259e-01
 9.005729667552457e-01  7.266264781804259e-01 -3.370165362104140e-17

-2.603319334089561e-17 -2.399544466949814e-19  1.161580950171235e+00
-2.399544466949814e-19 -1.669667555741313e-17  3.346877787895144e-01
 1.161580950171235e+00  3.346877787895144e-01 -4.119294621034077e-17

-2.554679933176414e-17 -4.668258785580627e-19  1.212172454350829e+00
-4.668258785580627e-19 -1.851024295960447e-17  1.982629536309000e-01
 1.212172454350829e+00  1.982629536309000e-01 -4.273130782651128e-17

-2.473630369075604e-17 -3.310387028585673e-19  1.181049548943687e+00
-3.310387028585673e-19 -1.703956601429831e-17  2.495344468941303e-01
 1.181049548943687e+00  2.495344468941303e-01 -4.142264215719186e-17

-2.230372727518628e-17  2.048119073644668e-19  9.292837917734267e-01
 2.048119073644668e-19 -1.095934691940691e-17  5.514249682348762e-01
 9.292837917734267e-01  5.514249682348762e-01 -3.254809795308360e-17

-1.862733327149684e-17  7.131344234266917e-19  6.616300655710077e-01
 7.131344234266917e-19 -7.056988703764928e-18  6.896643319464830e-01
 6.616300655710077e-01  6.896643319464830e-01 -2.321888724760331e-17

-2.185361110569746e-17 -3.917714857936533e-19  9.545643034458206e-01
-3.917714857936533e-19 -1.336425316434882e-17  3.836786683953709e-01
 9.545643034458206e-01  3.836786683953709e-01 -3.337501326138445e-17

-2.321094679269216e-17 -1.035575555620283e-18  1.098792311562564e+00
-1.035575555620283e-18 -1.771900448137469e-17  1.636072396021660e-01
 1.098792311562564e+00  1.636072396021660e-01 -3.839235584524961e-17

-2.000559583233643e-17 -2.692113843977133e-19  8.596866943132018e-01
-2.692113843977133e-19 -1.378239412795247e-17  3.024081488839689e-01
 8.596866943132018e-01  3.024081488839689e-01 -2.972717709575298e-17

-2.074328443261327e-17 -2.391539086540848e-19  8.733885319714274e-01
-2.391539086540848e-19 -1.170562605997096e-17  4.436935924073069e-01
 8.733885319714274e-01  4.436935924073069e-01 -3.074755373116018e-17

-2.134604593559368e-17 -3.739414761925345e-19  8.952029158994578e-01
-3.739414761925345e-19 -1.087515839000614e-17  5.199505384818938e-01
 8.952029158994578e-01  5.199505384818938e-01 -3.189911723040519e-17

-2.188615512536784e-17 -1.733492865285537e-19  9.538541149717146e-01
-1.733492865285537e-19 -1.163132288400185e-17  4.703285813804641e-01
 9.538541149717146e-01  4.703285813804641e-01 -3.360533213520850e-17

-2.302158229833444e-17  4.749511028306745e-19  9.334688102073156e-01
 4.749511028306745e-19 -1.354371157227194e-17  3.631360589052676e-01
 9.334688102073156e-01  3.631360589052676e-01 -3.277206697309258e-17

-2.781518642858936e-17  2.349562190632044e-18  1.001415000822776e+00
 2.349562190632044e-18 -1.647542251052424e-17  2.271285705510542e-01
 1.001415000822776e+00  2.271285705510542e-01 -3.483905501041695e-17

-1.138431466251196e-17 -4.344976370278363e-18  9.486563105043508e-01
-4.344976370278363e-18 -1.174647720079037e-17  3.565171755393592e-01
 9.486563105043508e-01  3.565171755393592e-01 -3.319661470632001e-17

 4.795952633945391e-17 -2.950453282563631e-17  1.011352361842226e+00
-2.950453282563631e-17 -9.302885111001458e-19  4.409687095349012e-01
 1.011352361842226e+00  4.409687095349012e-01 -3.594857094775092e-17

-2.048054992770016e-16  7.488112235964991e-17  9.918010204226327e-01
 7.488112235964991e-17 -4.324418508453554e-17  4.548461327067049e-01
 9.918010204226327e-01  4.548461327067049e-01 -3.490514981983445e-17

 1.523267944211620e-16 -7.207760450266447e-17  9.837462616298296e-01
-7.207760450266447e-17  1.679321473533401e-17  4.021370527013877e-01
 9.837462616298296e-01  4.021370527013877e-01 -3.450770378894798e-17

 5.341487312585769e-17 -3.087636772171565e-17  8.918432156999886e-01
-3.087636772171565e-17 -2.546149906079872e-19  3.751642550966259e-01
 8.918432156999886e-01  3.751642550966259e-01 -3.129886379310908e-17

 4.299547835722211e-18 -1.202730818787329e-17  1.179448235628287e+00
-1.202730818787329e-17 -1.301206260341292e-17  1.092320685321410e-01
 1.179448235628287e+00  1.092320685321410e-01 -4.138540372865495e-17

-1.958399650408472e-17 -8.444095025460991e-19  9.471545373946897e-01
-8.444095025460991e-19 -1.259821051435514e-17  3.509488549373265e-01
 9.471545373946897e-01  3.509488549373265e-01 -3.307648165354150e-17

-1.355907546946904e-17 -3.275599023681295e-19  3.425621228897037e-01
-3.275599023681295e-19 -2.276606629004401e-18  8.979397952854508e-01
 3.425621228897037e-01  8.979397952854508e-01 -1.256857185090138e-17

-1.631416213503604e-17 -7.157845439925537e-19  6.591928074869490e-01
-7.157845439925537e-19 -7.333302276625858e-18  6.133106512026294e-01
 6.591928074869490e-01  6.133106512026294e-01 -2.304925766457343e-17

-2.095400245128499e-17 -1.032115628220899e-18  1.064388257905350e+00
-1.032115628220899e-18 -1.558388346828628e-17  1.935577637801249e-01
 1.064388257905350e+00  1.935577637801249e-01 -3.733621059024748e-17

-2.105192555099246e-17  1.886008046498817e-19  9.007310000171488e-01
 1.886008046498817e-19 -1.375225667221403e-17  2.852493233791610e-01
 9.007310000171488e-01  2.852493233791610e-01 -3.128519742921739e-17

-2.135931673923502e-17 -5.819677593311982e-20  9.015183571509775e-01
-5.819677593311982e-20 -1.209478938126532e-17  4.134867366826429e-01
 9.015183571509775e-01  4.134867366826429e-01 -3.184660214364814e-17

-2.186324424143040e-17 -1.767276558304962e-19  9.121757086721989e-01
-1.767276558304962e-19 -1.126133830250149e-17  4.909631640247840e-01
 9.121757086721989e-01  4.909631640247840e-01 -3.255473006896303e-17

-2.225662532106762e-17 -1.560739084246152e-20  9.606438080397728e-01
-1.560739084246152e-20 -1.187662190918629e-17  4.514697995770230e-01
 9.606438080397728e-01  4.514697995770230e-01 -3.389079075044170e-17

-2.164146898865088e-17 -9.882793053470599e-20  9.366236453470147e-01
-9.882793053470599e-20 -1.344319699920468e-17  3.500143568580023e-01
 9.366236453470147e-01  3.500143568580023e-01 -3.292706588154412e-17

-2.215997365223476e-17  1.572998690699551e-20  1.003641903494809e+00
 1.572998690699551e-20 -1.562773427965240e-17  2.171061890887545e-01
 1.003641903494809e+00  2.171061890887545e-01 -3.495357165328928e-17

-2.190993849750817e-17 -3.186271041762243e-20  9.500343396838271e-01
-3.186271041762243e-20 -1.360026154538120e-17  3.487314361921886e-01
 9.500343396838271e-01  3.487314361921886e-01 -3.326298250000148e-17

-2.324627874439039e-17 -2.324366471334306e-19  1.012654622594905e+00
-2.324366471334306e-19 -1.303483964811883e-17  4.356459357016133e-01
 1.012654622594905e+00  4.356459357016133e-01 -3.600174180818466e-17

-2.297414003029831e-17 -4.146391200378777e-20  9.930010079084537e-01
-4.146391200378777e-20 -1.244419664005504e-17  4.504750419943589e-01
 9.930010079084537e-01  4.504750419943589e-01 -3.495227134211407e-17

-2.253870443947739e-17  3.580004598060452e-21  9.848527397447612e-01
 3.580004598060452e-21 -1.298848305944593e-17  3.985632006529445e-01
 9.848527397447612e-01  3.985632006529445e-01 -3.455426154210332e-17

-2.102696241398277e-17 -1.461873608302346e-19  8.889939471587534e-01
-1.461873608302346e-19 -1.293809796516428e-17  3.751569895966999e-01
 8.889939471587534e-01  3.751569895966999e-01 -3.120310101636682e-17

-2.414036724611764e-17 -3.097411095528344e-19  1.180279568293987e+00
-3.097411095528344e-19 -1.792948646033448e-17  1.058403751571870e-01
 1.180279568293987e+00  1.058403751571870e-01 -4.142208460582404e-17

-2.152649633864348e-17 -8.307571534226412e-20  9.499054404757055e-01
-8.307571534226412e-20 -1.303676072065792e-17  3.450493079115227e-01
 9.499054404757055e-01  3.450493079115227e-01 -3.318008920464324e-17

-1.485602338453445e-17  1.677042909584355e-19  3.428264927796719e-01
 1.677042909584355e-19 -2.547587930288487e-18  8.963436061872495e-01
 3.428264927796719e-01  8.963436061872495e-01 -1.259116664619350e-17

-1.823789328290879e-17  5.348423912323283e-20  6.575637907977130e-01
 5.348423912323283e-20 -7.676085800138331e-18  6.136962083060227e-01
 6.575637907977130e-01  6.136962083060227e-01 -2.300457214793818e-17

-2.263285685334856e-17 -3.588605019802455e-19  1.063332639524972e+00
-3.588605019802455e-19 -1.588147317854981e-17  1.938219109542226e-01
 1.063332639524972e+00  1.938219109542226e-01 -3.730935529141229e-17

-2.063116111674667e-17 -2.133235038017269e-20  9.011487291556630e-01
-2.133235038017269e-20 -1.371411450118590e-17  2.846335948884869e-01
 9.011487291556630e-01  2.846335948884869e-01 -3.131200948699032e-17

-2.125276763441895e-17 -1.370822902294104e-19  9.019465245102191e-01
-1.370822902294104e-19 -1.212517766839205e-17  4.122067350343714e-01
 9.019465245102191e-01  4.122067350343714e-01 -3.186841734449097e-17

-2.186873113858795e-17 -2.058572965790820e-19  9.120713393987393e-01
-2.058572965790820e-19 -1.130665752149401e-17  4.899666150183152e-01
 9.120713393987393e-01  4.899666150183152e-01 -3.255793924722324e-17

-2.235381626551093e-17 -6.299422751140913e-21  9.601287322174621e-01
-6.299422751140913e-21 -1.193130520310115e-17  4.510582098831770e-01
 9.601287322174621e-01  4.510582098831770e-01 -3.388309369617874e-17

-2.172694055253292e-17 -9.304478421912479e-20  9.357745551593588e-01
-9.304478421912479e-20 -1.349167557200516e-17  3.500241260515545e-01
 9.357745551593588e-01  3.500241260515545e-01 -3.291017609220837e-17

-2.219732204459563e-17  1.847937317155488e-21  1.002571645098964e+00
 1.847937317155488e-21 -1.566695225800466e-17  2.173479833482146e-01
 1.002571645098964e+00  2.173479833482146e-01 -3.493118007439410e-17

-2.196772648618246e-17 -3.265402363158246e-20  9.482790154583443e-01
-3.265402363158246e-20 -1.363834413014390e-17  3.492489168581722e-01
 9.482790154583443e-01  3.492489168581722e-01 -3.321547710312046e-17

-2.329488054176360e-17 -2.304625641310624e-19  1.009415098321480e+00
-2.304625641310624e-19 -1.307186662627059e-17  4.364463861410823e-01
 1.009415098321480e+00  4.364463861410823e-01 -3.590173777197506e-17

-2.298221495072437e-17 -3.010539445937590e-20  9.882285605031661e-01
-3.010539445937590e-20 -1.254902468917591e-17  4.498926319293192e-01
 9.882285605031661e-01  4.498926319293192e-01 -3.481034405191665e-17

-2.266227454582990e-17 -3.576478360542209e-20  9.862046164864418e-01
-3.576478360542209e-20 -1.324754915547917e-17  3.924029938233080e-01
 9.862046164864418e-01  3.924029938233080e-01 -3.464800312933115e-17

-2.153151983748059e-17 -1.690976645806081e-19  9.195447216409952e-01
-1.690976645806081e-19 -1.351329666027532e-17  3.554965396014765e-01
 9.195447216409952e-01  3.554965396014765e-01 -3.232132560154121e-17

-2.415117087899173e-17 -2.515171266124497e-19  1.165982889031442e+00
-2.515171266124497e-19 -1.760938327169977e-17  1.311975491213385e-01
 1.165982889031442e+00  1.311975491213385e-01 -4.098358765780300e-17

-2.174636960697742e-17 -5.482529533989385e-20  9.516952256693133e-01
-5.482529533989385e-20 -1.294172089021746e-17  3.613937184971555e-01
 9.516952256693133e-01  3.613937184971555e-01 -3.328484116326914e-17

-1.555019253353278e-17  2.547650432821231e-19  3.947758090023008e-01
 2.547650432821231e-19 -3.322524039385525e-18  8.574970733418226e-01
 3.947758090023008e-01  8.574970733418226e-01 -1.419923568880996e-17

-1.875357276400273e-17  8.607218034430871e-20  6.928737999230292e-01
 8.607218034430871e-20 -8.378161777302332e-18  5.822479644598756e-01
 6.928737999230292e-01  5.822479644598756e-01 -2.420894600669604e-17

-2.279409792043947e-17 -3.900329629876940e-19  1.066050190301164e+00
-3.900329629876940e-19 -1.616687925041019e-17  1.874117987055333e-01
 1.066050190301164e+00  1.874117987055333e-01 -3.745384729828709e-17

-2.072672271595541e-17 -2.826680960406692e-20  8.987123754653119e-01
-2.826680960406692e-20 -1.383066176627464e-17  2.843779096013294e-01
 8.987123754653119e-01  2.843779096013294e-01 -3.126094130541908e-17

-2.132639484881710e-17 -1.304925804026893e-19  8.997195588075496e-01
-1.304925804026893e-19 -1.220139213631598e-17  4.120949044221103e-01
 8.997195588075496e-01  4.120949044221103e-01 -3.180244018580836e-17

-2.196137005828789e-17 -2.007277366683288e-19  9.108051686715750e-01
-2.007277366683288e-19 -1.138733907971609e-17  4.891782246169060e-01
 9.108051686715750e-01  4.891782246169060e-01 -3.252391782635780e-17

-2.245778067144243e-17 -6.954514692033809e-21  9.589415794519973e-01
-6.954514692033809e-21 -1.200050198599386e-17  4.515124688699112e-01
 9.589415794519973e-01  4.515124688699112e-01 -3.386467241987016e-17

-2.184911489952870e-17 -9.029351608294824e-20  9.357582009858408e-01
-9.029351608294824e-20 -1.356447977327302e-17  3.504917516285315e-01
 9.357582009858408e-01  3.504917516285315e-01 -3.293128167451879e-17

-2.233171974065913e-17  3.411325669391276e-21  1.003868378819083e+00
 3.411325669391276e-21 -1.576236760232916e-17  2.168056061493895e-01
 1.003868378819083e+00  2.168056061493895e-01 -3.499876192382450e-17

-2.212852400739032e-17 -3.223297122355921e-20  9.502976660077617e-01
-3.223297122355921e-20 -1.374883095965970e-17  3.482371219150930e-01
 9.502976660077617e-01  3.482371219150930e-01 -3.331132182508801e-17

-2.347188231796331e-17 -2.304599527702971e-19  1.013056461370163e+00
-2.304599527702971e-19 -1.319060536077740e-17  4.350507468722170e-01
 1.013056461370163e+00  4.350507468722170e-01 -3.605575905458911e-17

-2.320309392912532e-17 -3.976309879845293e-20  9.935119576122757e-01
-3.976309879845293e-20 -1.259804600547725e-17  4.500818018774692e-01
 9.935119576122757e-01  4.500818018774692e-01 -3.501102406315717e-17

-2.277473516800688e-17  7.555438273595490e-21  9.848702446557939e-01
 7.555438273595490e-21 -1.312968996678898e-17  3.986704732798316e-01
 9.848702446557939e-01  3.986704732798316e-01 -3.459455576927787e-17

-2.133981768569797e-17 -1.337119706847491e-19  8.881538240048438e-01
-1.337119706847491e-19 -1.307915362091180e-17  3.752604351193853e-01
 8.881538240048438e-01  3.752604351193853e-01 -3.121560572026265e-17

-2.423697994516675e-17 -3.312229534888650e-19  1.182126618431576e+00
-3.312229534888650e-19 -1.811691615707455e-17  1.033790283732419e-01
 1.182126618431576e+00  1.033790283732419e-01 -4.152305061484874e-17

-2.211158983289102e-17 -3.828375361862810e-20  9.473499508513256e-01
-3.828375361862810e-20 -1.315117807349325e-17  3.466383481793678e-01
 9.473499508513256e-01  3.466383481793678e-01 -3.313088954937216e-17

-1.529733139219253e-17  2.073909904972710e-19  3.328164575207355e-01
 2.073909904972710e-19 -2.571812239000519e-18  9.029797469289779e-01
 3.328164575207355e-01  9.029797469289779e-01 -1.232016516651211e-17

-1.788448253082504e-17 -9.682957371010344e-21  6.533233299405452e-01
-9.682957371010344e-21 -7.762857678228956e-18  6.162510007376577e-01
 6.533233299405452e-01  6.162510007376577e-01 -2.290472119016814e-17

-2.602742048369186e-17  3.309359084158022e-21  1.064437325423018e+00
 3.309359084158022e-21 -1.610433391046066e-17  1.921675014462663e-01
 1.064437325423018e+00  1.921675014462663e-01 -3.738711885918582e-17

-2.371860558838990e-17  3.097958098908440e-19  9.005190954400611e-01
 3.097958098908440e-19 -1.391639109671274e-17  2.837166288559402e-01
 9.005190954400611e-01  2.837166288559402e-01 -3.132988391045404e-17

-3.128512874577674e-17  9.942866981301074e-19  9.018441573843755e-01
 9.942866981301074e-19 -1.242183620392291e-17  4.119378274652639e-01
 9.018441573843755e-01  4.119378274652639e-01 -3.191646734933368e-17

-1.252226962137897e-16  1.167746191625066e-17  9.120450815599709e-01
 1.167746191625066e-17 -1.284362696116481e-17  4.903760467826609e-01
 9.120450815599709e-01  4.903760467826609e-01 -3.261610839314509e-17

 3.453137172726046e-17 -6.566873586827776e-18  9.611090000687627e-01
-6.566873586827776e-18 -1.136561339161499e-17  4.504506981541701e-01
 9.611090000687627e-01  4.504506981541701e-01 -3.397264333623314e-17

-1.685798000778283e-17 -6.826600633479050e-19  9.369306582597496e-01
-6.826600633479050e-19 -1.362453538371475e-17  3.488394266957421e-01
 9.369306582597496e-01  3.488394266957421e-01 -3.300611200467208e-17

-1.793696778813897e-17 -5.168751445812875e-19  1.003986585183362e+00
-5.168751445812875e-19 -1.581596735439267e-17  2.158133930723277e-01
 1.003986585183362e+00  2.158133930723277e-01 -3.503736442959498e-17

-2.341826046108468e-17  9.619844970199189e-20  9.504439504247923e-01
 9.619844970199189e-20 -1.387110030996655e-17  3.473531865499632e-01
 9.504439504247923e-01  3.473531865499632e-01 -3.335108214898876e-17

-2.376668796140286e-17 -2.137211238550023e-19  1.013409585641455e+00
-2.137211238550023e-19 -1.329478686303822e-17  4.344351792374107e-01
 1.013409585641455e+00  4.344351792374107e-01 -3.610593966734983e-17

-2.346058420562755e-17 -2.368095417797478e-20  9.943029865058796e-01
-2.368095417797478e-20 -1.269320073129997e-17  4.496133501450114e-01
 9.943029865058796e-01  4.496133501450114e-01 -3.507518384898342e-17

-2.287385356913493e-17  1.287796866695676e-20  9.849858780826561e-01
 1.287796866695676e-20 -1.319078758629551e-17  3.992280425583913e-01
 9.849858780826561e-01  3.992280425583913e-01 -3.463151483222960e-17

-2.131049664691007e-17 -1.326519698282055e-19  8.801848038817002e-01
-1.326519698282055e-19 -1.304284026135968e-17  3.799320167320559e-01
 8.801848038817002e-01  3.799320167320559e-01 -3.096623086229506e-17

-2.453479391714293e-17 -3.253229352796687e-19  1.185228673757226e+00
-3.253229352796687e-19 -1.831314108155787e-17  9.643322621019852e-02
 1.185228673757226e+00  9.643322621019852e-02 -4.164649698121086e-17

-2.185125480207373e-17 -9.399507160995773e-20  9.483728594464539e-01
-9.399507160995773e-20 -1.332608500221586e-17  3.402311117818432e-01
 9.483728594464539e-01  3.402311117818432e-01 -3.319914994471525e-17

-1.500301527370048e-17  1.348360402312440e-19  3.212455654568799e-01
 1.348360402312440e-19 -2.529781932357761e-18  9.117971246116423e-01
 3.212455654568799e-01  9.117971246116423e-01 -1.203019715950367e-17

-1.848103410510302e-17  3.837506335962015e-20  6.443377760160199e-01
 3.837506335962015e-20 -7.712671760117203e-18  6.249828940619427e-01
 6.443377760160199e-01  6.249828940619427e-01 -2.265661640926590e-17

-2.300732562328008e-17 -3.502585186317541e-19  1.062050768051749e+00
-3.502585186317541e-19 -1.606840543883052e-17  1.959050338200993e-01
 1.062050768051749e+00  1.959050338200993e-01 -3.733992126677857e-17

-2.104984117088415e-17 -2.028999479193837e-20  9.023572326881579e-01
-2.028999479193837e-20 -1.396884803159856e-17  2.844163238560302e-01
 9.023572326881579e-01  2.844163238560302e-01 -3.143758126455571e-17

-2.168216000845906e-17 -1.367090259430352e-19  9.034269149888585e-01
-1.367090259430352e-19 -1.240695673910256e-17  4.114800128821813e-01
 9.034269149888585e-01  4.114800128821813e-01 -3.201404847871947e-17

-2.231363564114399e-17 -2.083342919249570e-19  9.134496763956572e-01
-2.083342919249570e-19 -1.159485551417682e-17  4.894514177526406e-01
 9.134496763956572e-01  4.894514177526406e-01 -3.270360714176846e-17

-2.280952602456230e-17 -8.079055882644821e-21  9.618467271774431e-01
-8.079055882644821e-21 -1.223113103239884e-17  4.501081791196804e-01
 9.618467271774431e-01  4.501081791196804e-01 -3.403871007437387e-17

-2.218290045239170e-17 -1.004738683771954e-19  9.376214432809891e-01
-1.004738683771954e-19 -1.380053818746528e-17  3.486750282922556e-01
 9.376214432809891e-01  3.486750282922556e-01 -3.307127640804672e-17

-2.266429178402751e-17 -6.301857731348464e-21  1.004677848947588e+00
-6.301857731348464e-21 -1.598121801498122e-17  2.157859298388183e-01
 1.004677848947588e+00  2.157859298388183e-01 -3.510227525737306e-17

-2.245512108265557e-17 -3.989099260095326e-20  9.510880762984216e-01
-3.989099260095326e-20 -1.396112449336670e-17  3.475825756766662e-01
 9.510880762984216e-01  3.475825756766662e-01 -3.341512986918138e-17

-2.381842770600724e-17 -2.368965500419452e-19  1.014209496738357e+00
-2.368965500419452e-19 -1.339835424179703e-17  4.346416288952200e-01
 1.014209496738357e+00  4.346416288952200e-01 -3.617576207036572e-17

-2.352673849165555e-17 -1.488689197165686e-20  9.945555834173503e-01
-1.488689197165686e-20 -1.281263598938783e-17  4.496688403211706e-01
 9.945555834173503e-01  4.496688403211706e-01 -3.512746110390700e-17

-2.318394438945454e-17  3.836101494641692e-20  9.854088718816881e-01
 3.836101494641692e-20 -1.330011932711050e-17  3.995900481016240e-01
 9.854088718816881e-01  3.995900481016240e-01 -3.468943473685828e-17

-2.165426837790525e-17 -8.064585415722270e-20  8.806149951393462e-01
-8.064585415722270e-20 -1.316698570981675e-17  3.800405926720942e-01
 8.806149951393462e-01  3.800405926720942e-01 -3.102604709026312e-17

-2.424797308021646e-17 -5.216245009184051e-19  1.185773278933741e+00
-5.216245009184051e-19 -1.834386961275740e-17  9.634046954316151e-02
 1.185773278933741e+00  9.634046954316151e-02 -4.170871898158871e-17

-2.133638132197406e-17 -3.174778536152527e-19  9.471990323538844e-01
-3.174778536152527e-19 -1.333159845436450e-17  3.418605673163838e-01
 9.471990323538844e-01  3.418605673163838e-01 -3.320341173503391e-17

-1.396494347348325e-17 -2.524555379910318e-19  3.178308150176248e-01
-2.524555379910318e-19 -2.449468470643236e-18  9.144445805892708e-01
 3.178308150176248e-01  9.144445805892708e-01 -1.196910704702127e-17

-1.737210791515684e-17 -2.711438294851913e-19  6.427261925913574e-01
-2.711438294851913e-19 -7.735120990705445e-18  6.263361102813564e-01
 6.427261925913574e-01  6.263361102813564e-01 -2.264879333682897e-17

-2.610948521313584e-17  5.218843257826167e-19  1.062684663803741e+00
 5.218843257826167e-19 -1.644154779149060e-17  1.956135865871085e-01
 1.062684663803741e+00  1.956135865871085e-01 -3.740888921600931e-17

-2.304631434858502e-17  1.392706380483455e-19  9.020542973996480e-01
 1.392706380483455e-19 -1.393993285974558e-17  2.843727958988136e-01
 9.020542973996480e-01  2.843727958988136e-01 -3.147483423118472e-17

-5.939026986585150e-18 -3.064489396267540e-18  9.032026387952968e-01
-3.064489396267540e-18 -1.254540928551018e-17  4.118448412230016e-01
 9.032026387952968e-01  4.118448412230016e-01 -3.205993007420170e-17

-1.366252863585851e-16  4.036660442309825e-17  9.129925273129008e-01
 4.036660442309825e-17 -2.630807303899831e-17  4.902028188788953e-01
 9.129925273129008e-01  4.902028188788953e-01 -3.274460704159421e-17

-9.029064859409677e-17  2.655577451661472e-17  9.616336934411823e-01
 2.655577451661472e-17 -2.295226624335251e-17  4.502449789352199e-01
 9.616336934411823e-01  4.502449789352199e-01 -3.408789203772025e-17

-2.296437558039298e-16  9.023800656986446e-17  9.373749048729507e-01
 9.023800656986446e-17 -5.309457423845837e-17  3.485636002723827e-01
 9.373749048729507e-01  3.485636002723827e-01 -3.312225279476177e-17

-8.295912913657646e-17  2.581271130639229e-17  1.004383460998719e+00
 2.581271130639229e-17 -2.716247770432739e-17  2.157119590100415e-01
 1.004383460998719e+00  2.157119590100415e-01 -3.515277726701805e-17

-2.097368974981196e-17 -8.794146167242722e-19  9.508085879865189e-01
-8.794146167242722e-19 -1.365951643378399e-17  3.475920961764138e-01
 9.508085879865189e-01  3.475920961764138e-01 -3.346996601394192e-17

-2.405239022274682e-17 -1.875178268314041e-19  1.014074829941795e+00
-1.875178268314041e-19 -1.352836371113412e-17  4.345647266312072e-01
 1.014074829941795e+00  4.345647266312072e-01 -3.623836133447043e-17

-2.475101206468019e-17  4.237841494709078e-19  9.945476586188802e-01
 4.237841494709078e-19 -1.309610025592978e-17  4.494512815071842e-01
 9.945476586188802e-01  4.494512815071842e-01 -3.519500753981159e-17

-2.380334368888001e-17  1.914548591800327e-19  9.852919745422983e-01
 1.914548591800327e-19 -1.344509612981922e-17  3.996030780535836e-01
 9.852919745422983e-01  3.996030780535836e-01 -3.475381587210706e-17

-2.174434293078518e-17 -1.271631122736607e-19  8.791938233795201e-01
-1.271631122736607e-19 -1.321378366640938e-17  3.808028133880852e-01
 8.791938233795201e-01  3.808028133880852e-01 -3.104518027241993e-17

-2.500246149306997e-17 -3.296746200086520e-19  1.186570793748590e+00
-3.296746200086520e-19 -1.852493176056607e-17  9.492623656219137e-02
 1.186570793748590e+00  9.492623656219137e-02 -4.180060955842152e-17

-2.216303042355840e-17 -1.561464896381881e-19  9.460022534034236e-01
-1.561464896381881e-19 -1.344279343938401e-17  3.422321131004413e-01
 9.460022534034236e-01  3.422321131004413e-01 -3.323047321892699e-17

-1.548005491294423e-17  1.811589898876412e-19  3.111816514066358e-01
 1.811589898876412e-19 -2.598238570700557e-18  9.191251917523748e-01
 3.111816514066358e-01  9.191251917523748e-01 -1.183708326650455e-17

-1.885432244016681e-17  1.277588578876164e-20  6.394832979170195e-01
 1.277588578876164e-20 -7.812062225924684e-18  6.287697399447711e-01
 6.394832979170195e-01  6.287697399447711e-01 -2.261348696781771e-17

-2.357480360941631e-17 -3.270237997121774e-19  1.062825446721587e+00
-3.270237997121774e-19 -1.627604074644018e-17  1.953395774710683e-01
 1.062825446721587e+00  1.953395774710683e-01 -3.748379131469405e-17

-2.131803713937842e-17 -1.229211932773477e-19  9.016315853682667e-01
-1.229211932773477e-19 -1.410592672784867e-17  2.844154687011078e-01
 9.016315853682667e-01  2.844154687011078e-01 -3.153207053911499e-17

-2.246014623366704e-17 -1.485719597660539e-20  9.031608591501823e-01
-1.485719597660539e-20 -1.263747754832888e-17  4.119623946690966e-01
 9.031608591501823e-01  4.119623946690966e-01 -3.213675984225932e-17

-2.177598180329371e-17 -6.707663909903242e-19  9.128164452736158e-01
-6.707663909903242e-19 -1.156025886727172e-17  4.908477901150046e-01
 9.128164452736158e-01  4.908477901150046e-01 -3.282257754337269e-17

-3.018837013221809e-17  3.031558528037260e-18  9.619859145406848e-01
 3.031558528037260e-18 -1.374770879121301e-17  4.505714992419548e-01
 9.619859145406848e-01  4.505714992419548e-01 -3.418407093144754e-17

-2.609542843787800e-17  1.404155549132161e-18  9.375350556724434e-01
 1.404155549132161e-18 -1.464287830367144e-17  3.488870881604654e-01
 9.375350556724434e-01  3.488870881604654e-01 -3.321291002642147e-17

-4.097789485630519e-17  7.864533659281631e-18  1.004458330200088e+00
 7.864533659281631e-18 -1.964010504083402e-17  2.160290187463338e-01
 1.004458330200088e+00  2.160290187463338e-01 -3.524337221545201e-17

 1.131644072211325e-16 -6.034389931883774e-17  9.507251947833699e-01
-6.034389931883774e-17  1.257599672390808e-17  3.478312972375769e-01
 9.507251947833699e-01  3.478312972375769e-01 -3.355536552790321e-17

 9.157364733967083e-18 -1.509792008219583e-17  1.013624693449216e+00
-1.509792008219583e-17 -6.973622325103729e-18  4.350085023957403e-01
 1.013624693449216e+00  4.350085023957403e-01 -3.631449136067719e-17

-3.120647960681178e-17  3.150245582754786e-18  9.939339817554487e-01
 3.150245582754786e-18 -1.438557004629479e-17  4.499357622454558e-01
 9.939339817554487e-01  4.499357622454558e-01 -3.527069991908181e-17

-2.616951853812338e-17  1.117799479367844e-18  9.851508813480457e-01
 1.117799479367844e-18 -1.396320799444185e-17  3.994945618180255e-01
 9.851508813480457e-01  3.994945618180255e-01 -3.485091106229673e-17

-1.668645300330373e-17 -2.558766060628303e-18  8.836766000592901e-01
-2.558766060628303e-18 -1.228525209062873e-17  3.784513739055536e-01
 8.836766000592901e-01  3.784513739055536e-01 -3.130880742701077e-17

-2.442892747456835e-17 -7.313178817929459e-19  1.184523619698165e+00
-7.313178817929459e-19 -1.835844340987359e-17  9.947366867323162e-02
 1.184523619698165e+00  9.947366867323162e-02 -4.185016702543856e-17

-2.355452857543721e-17  3.057591278481495e-19  9.471178550153287e-01
 3.057591278481495e-19 -1.370479248455347e-17  3.444959264644702e-01
 9.471178550153287e-01  3.444959264644702e-01 -3.338103430442722e-17

-1.571695527199750e-17  9.476052648426729e-20  3.234795368433529e-01
 9.476052648426729e-20 -2.776902924282610e-18  9.107395129723473e-01
 3.234795368433529e-01  9.107395129723473e-01 -1.231405239932258e-17

-1.892586337447582e-17 -1.370715583936305e-19  6.471428588253638e-01
-1.370715583936305e-19 -7.933357065425033e-18  6.227503043453897e-01
 6.471428588253638e-01  6.227503043453897e-01 -2.297378436078148e-17

-2.417522227952154e-17 -2.192089004296701e-19  1.063818388770583e+00
-2.192089004296701e-19 -1.642960734102795e-17  1.945043989812981e-01
 1.063818388770583e+00  1.945043989812981e-01 -3.763450706258739e-17

-2.181672423812346e-17 -5.080162691000148e-20  9.015180223304784e-01
-5.080162691000148e-20 -1.420649535036918e-17  2.847082873610111e-01
 9.015180223304784e-01  2.847082873610111e-01 -3.164374457223376e-17

-2.250843374349517e-17 -1.558412994727309e-19  9.030898429704987e-01
-1.558412994727309e-19 -1.263689592532797e-17  4.124396477151717e-01
 9.030898429704987e-01  4.124396477151717e-01 -3.224906620779902e-17

-2.311020567257011e-17 -2.433895711096974e-19  9.130392489997098e-01
-2.433895711096974e-19 -1.180764865834493e-17  4.910702351372287e-01
 9.130392489997098e-01  4.910702351372287e-01 -3.294675430340794e-17

-2.368187371844707e-17 -1.914499031114030e-20  9.621892733024965e-01
-1.914499031114030e-20 -1.245994791964635e-17  4.511125757420229e-01
 9.621892733024965e-01  4.511125757420229e-01 -3.431375382619888e-17

-2.307717865052731e-17 -1.121563861745103e-19  9.379978132178955e-01
-1.121563861745103e-19 -1.402466659229284e-17  3.495291246100907e-01
 9.379978132178955e-01  3.495291246100907e-01 -3.335468891726112e-17

-2.357906405540670e-17 -1.596435617681025e-20  1.005179948185242e+00
-1.596435617681025e-20 -1.620295866480796e-17  2.165711373166450e-01
 1.005179948185242e+00  2.165711373166450e-01 -3.539724901648719e-17

-2.338507186733786e-17 -4.999776149009353e-20  9.516412602498320e-01
-4.999776149009353e-20 -1.417824326915935e-17  3.482946101025046e-01
 9.516412602498320e-01  3.482946101025046e-01 -3.371959932768447e-17

-2.476751125460047e-17 -2.456502026911636e-19  1.014926112207828e+00
-2.456502026911636e-19 -1.360717374567519e-17  4.354862189974463e-01
 1.014926112207828e+00  4.354862189974463e-01 -3.649770303102154e-17

-2.449956673349545e-17 -2.405025051593691e-20  9.954596710489195e-01
-2.405025051593691e-20 -1.300445610903044e-17  4.507397908518126e-01
 9.954596710489195e-01  4.507397908518126e-01 -3.546465913569668e-17

-2.408712242513457e-17  5.188350815360688e-21  9.858850628353245e-01
 5.188350815360688e-21 -1.345702077171901e-17  4.012729333994709e-01
 9.858850628353245e-01  4.012729333994709e-01 -3.501635264546408e-17

-2.244760701445102e-17 -1.501292619602970e-19  8.778074436246238e-01
-1.501292619602970e-19 -1.326162195027507e-17  3.832019224004606e-01
 8.778074436246238e-01  3.832019224004606e-01 -3.124639154734887e-17

-2.576342249427673e-17 -3.506350954335120e-19  1.188136523752364e+00
-3.506350954335120e-19 -1.863892089087433e-17  9.415493161378079e-02
 1.188136523752364e+00  9.415493161378079e-02 -4.209928467270401e-17

-2.303868327719160e-17 -1.174775830096298e-19  9.453947241722553e-01
-1.174775830096298e-19 -1.353979222680090e-17  3.428920943236334e-01
 9.453947241722553e-01  3.428920943236334e-01 -3.346967365902323e-17

-1.606253348595381e-17  1.080124215735862e-19  3.059414574743160e-01
 1.080124215735862e-19 -2.577051405435436e-18  9.242618494600333e-01
 3.059414574743160e-01  9.242618494600333e-01 -1.194843063972345e-17

-1.962310706324013e-17  1.348991560010312e-20  6.362402232860505e-01
 1.348991560010312e-20 -7.830945787364016e-18  6.329941951967399e-01
 6.362402232860505e-01  6.329941951967399e-01 -2.277603432545106e-17

-2.426047641664147e-17 -3.750602624767578e-19  1.062449496496284e+00
-3.750602624767578e-19 -1.629661143252995e-17  1.975220717856347e-01
 1.062449496496284e+00  1.975220717856347e-01 -3.774178094131218e-17

-2.230419954606119e-17 -4.437296594127035e-20  9.016116238653671e-01
-4.437296594127035e-20 -1.418318891960843e-17  2.862720690003444e-01
 9.016116238653671e-01  2.862720690003444e-01 -3.181480009359732e-17

-2.298935656123421e-17 -1.600240250539806e-19  9.033869265428459e-01
-1.600240250539806e-19 -1.262119061428515e-17  4.135408548230586e-01
 9.033869265428459e-01  4.135408548230586e-01 -3.243956688755095e-17

-2.361548787736088e-17 -2.474329789721207e-19  9.127864505228971e-01
-2.474329789721207e-19 -1.178517656237035e-17  4.927263877908146e-01
 9.127864505228971e-01  4.927263877908146e-01 -3.312552317060985e-17

-2.413482747717235e-17 -4.186068621822461e-20  9.618416154331566e-01
-4.186068621822461e-20 -1.241932040096132e-17  4.526314143681363e-01
 9.618416154331566e-01  4.526314143681363e-01 -3.449312856061327e-17

-2.366945178039820e-17 -8.301696343361609e-20  9.370871801529612e-01
-8.301696343361609e-20 -1.399241275029068e-17  3.511766367953318e-01
 9.370871801529612e-01  3.511766367953318e-01 -3.352355230241416e-17

-2.383648170650946e-17 -1.157486404777710e-19  1.003692029018579e+00
-1.157486404777710e-19 -1.610893152385290e-17  2.185434075998086e-01
 1.003692029018579e+00  2.185434075998086e-01 -3.555279050541180e-17

-2.210254308086168e-17 -7.291798878626519e-19  9.496511115376098e-01
-7.291798878626519e-19 -1.385575376911404e-17  3.503488511998102e-01
 9.496511115376098e-01  3.503488511998102e-01 -3.386245349474723e-17

-1.395984681876698e-17 -4.519040695026286e-18  1.012429110100145e+00
-4.519040695026286e-18 -1.194475585829208e-17  4.368149146682033e-01
 1.012429110100145e+00  4.368149146682033e-01 -3.663658478709366e-17

-3.789659858051657e-17  4.713497261750960e-18  1.004639154597187e+00
 4.713497261750960e-18 -1.490776223152490e-17  4.447420284437696e-01
 1.004639154597187e+00  4.447420284437696e-01 -3.604244063533487e-17

-6.608820588522239e-17  1.564057910704344e-17  9.861489885096657e-01
 1.564057910704344e-17 -1.917439922532545e-17  4.099961116637454e-01
 9.861489885096657e-01  4.099961116637454e-01 -3.525999912989129e-17

 7.841655827460807e-18 -1.180909609087608e-17  8.766171030489405e-01
-1.180909609087608e-17 -8.634666742390478e-18  3.928317670327859e-01
 8.766171030489405e-01  3.928317670327859e-01 -3.145598347505992e-17

-2.590386497375204e-17 -6.316956316181856e-19  1.201275669590564e+00
-6.316956316181856e-19 -1.868768908775822e-17  8.727998343282625e-02
 1.201275669590564e+00  8.727998343282625e-02 -4.282758358633274e-17

-2.508151938913099e-17  3.919915416234973e-19  9.469627852055064e-01
 3.919915416234973e-19 -1.374808773901903e-17  3.407668906046774e-01
 9.469627852055064e-01  3.407668906046774e-01 -3.380222163746689e-17

-1.667694859194674e-17  8.712654733642310e-20  3.044037896443458e-01
 8.712654733642310e-20 -2.479261988548838e-18  9.271559221606184e-01
 3.044037896443458e-01  9.271559221606184e-01 -1.215976528959529e-17

-1.953485283938065e-17 -2.811393557228126e-19  6.363093201090386e-01
-2.811393557228126e-19 -7.634940843928122e-18  6.356761746954820e-01
 6.363093201090386e-01  6.356761746954820e-01 -2.305891692637166e-17

-2.480039775563948e-17 -3.897461870865868e-19  1.056044860718399e+00
-3.897461870865868e-19 -1.606774157796082e-17  2.058577861369575e-01
 1.056044860718399e+00  2.058577861369575e-01 -3.781012850329180e-17

-2.297602104949386e-17 -3.694292043692580e-20  8.968263603824514e-01
-3.694292043692580e-20 -1.393391782345610e-17  2.969092189520529e-01
 8.968263603824514e-01  2.969092189520529e-01 -3.195268214511872e-17

-2.357345933524676e-17 -1.913152650338237e-19  8.992110676955509e-01
-1.913152650338237e-19 -1.238067749816248e-17  4.220701472702821e-01
 8.992110676955509e-01  4.220701472702821e-01 -3.259448026761739e-17

-2.424936033003477e-17 -2.339919118021790e-19  9.064367959018690e-01
-2.339919118021790e-19 -1.150862000888777e-17  5.027996574783952e-01
 9.064367959018690e-01  5.027996574783952e-01 -3.320900607818097e-17

-2.474143413339187e-17 -2.212357327429872e-20  9.502373939581555e-01
-2.212357327429872e-20 -1.203255114466781e-17  4.685503293060949e-01
 9.502373939581555e-01  4.685503293060949e-01 -3.441644920481056e-17

-2.407536256174894e-17 -1.091412507591723e-19  9.187392633410684e-01
-1.091412507591723e-19 -1.348073504793497e-17  3.729183979610846e-01
 9.187392633410684e-01  3.729183979610846e-01 -3.324312697855734e-17

-2.448591732882699e-17 -5.865813739014483e-21  9.762833169961027e-01
-5.865813739014483e-21 -1.555834106620462e-17  2.444767984221849e-01
 9.762833169961027e-01  2.444767984221849e-01 -3.496618846246876e-17

-2.424994509615047e-17  8.808567769293715e-21  9.198824834526165e-01
 8.808567769293715e-21 -1.361637767335062e-17  3.694107675462856e-01
 9.198824834526165e-01  3.694107675462856e-01 -3.314033627654921e-17

-2.541562460629560e-17 -2.184528961625597e-19  9.539546520489982e-01
-2.184528961625597e-19 -1.303647026035109e-17  4.675081308456526e-01
 9.539546520489982e-01  4.675081308456526e-01 -3.503730885767763e-17

-2.613527571755033e-17 -7.721723746643889e-20  9.987768232173874e-01
-7.721723746643889e-20 -1.438137090740076e-17  4.048274451043488e-01
 9.987768232173874e-01  4.048274451043488e-01 -3.640476800452218e-17

-2.675910995481774e-17  3.452166012179659e-20  1.056316165760954e+00
 3.452166012179659e-20 -1.611724678706243e-17  3.157229336982979e-01
 1.056316165760954e+00  3.157229336982979e-01 -3.827418419752453e-17

-2.789675123988318e-17  8.839165530087387e-20  1.126982866495734e+00
 8.839165530087387e-20 -1.696760599222565e-17  2.960797517747303e-01
 1.126982866495734e+00  2.960797517747303e-01 -4.080031627889112e-17

-2.650376644790403e-17 -1.789669104129719e-19  9.386148004585791e-01
-1.789669104129719e-19 -1.310649837824405e-17  5.657202277827627e-01
 9.386148004585791e-01  5.657202277827627e-01 -3.511578856320099e-17

-2.620806598856685e-17 -1.647359756221305e-19  8.970182013462703e-01
-1.647359756221305e-19 -1.208816673911130e-17  6.290769794012405e-01
 8.970182013462703e-01  6.290769794012405e-01 -3.375676575760432e-17

-2.827426317369500e-17  1.351970414240942e-19  1.094509317183367e+00
 1.351970414240942e-19 -1.492453284845910e-17  4.466423195727664e-01
 1.094509317183367e+00  4.466423195727664e-01 -4.019271270596548e-17

-2.757140582785220e-17 -3.298281670041726e-20  1.056264325035031e+00
-3.298281670041726e-20 -1.570850427000792e-17  3.779955737102926e-01
 1.056264325035031e+00  3.779955737102926e-01 -3.881986333036729e-17

-2.871358989279671e-17 -2.479491596328297e-19  1.168495638997004e+00
-2.479491596328297e-19 -1.842509737611876e-17  2.261202048689817e-01
 1.168495638997004e+00  2.261202048689817e-01 -4.294048702772534e-17

-2.683026214083907e-17 -6.334884657263980e-21  1.004777811713524e+00
-6.334884657263980e-21 -1.485746054701586e-17  3.885878755536611e-01
 1.004777811713524e+00  3.885878755536611e-01 -3.701609402221807e-17

-2.668547496792113e-17  1.491531234266283e-19  9.773738537435612e-01
 1.491531234266283e-19 -1.300544880701512e-17  4.678305789186459e-01
 9.773738537435612e-01  4.678305789186459e-01 -3.600579419393357e-17

-2.649071638816576e-17  2.561853078795981e-19  9.739960393991958e-01
 2.561853078795981e-19 -1.295606927663494e-17  4.455588264945710e-01
 9.739960393991958e-01  4.455588264945710e-01 -3.584437785664178e-17

-2.511376662977726e-17  1.414188447245068e-19  8.752677640559406e-01
 1.414188447245068e-19 -1.261140735762390e-17  4.328404612804851e-01
 8.752677640559406e-01  4.328404612804851e-01 -3.243755799777811e-17

-2.883719040369050e-17 -1.552763692195799e-19  1.215413883327561e+00
-1.552763692195799e-19 -1.854910261239358e-17  1.140095521912861e-01
 1.215413883327561e+00  1.140095521912861e-01 -4.434655555046693e-17

-2.614968939900843e-17  1.148207840023624e-19  9.677244221260789e-01
 1.148207840023624e-19 -1.353433576236789e-17  3.603393795280011e-01
 9.677244221260789e-01  3.603393795280011e-01 -3.560784220725789e-17

-1.953229998725530e-17  3.591987590817544e-19  3.430552889000034e-01
 3.591987590817544e-19 -2.804577852374049e-18  9.424781112096351e-01
 3.430552889000034e-01  9.424781112096351e-01 -1.465910458092228e-17

-2.317976952858509e-17  2.543487401611922e-19  6.784304116331931e-01
 2.543487401611922e-19 -8.115556618256704e-18  6.444226817444288e-01
 6.784304116331931e-01  6.444226817444288e-01 -2.567979842093624e-17

-2.789977744694232e-17 -7.279878758757726e-20  1.111634101898926e+00
-7.279878758757726e-20 -1.637779675550080e-17  2.104286004265702e-01
 1.111634101898926e+00  2.104286004265702e-01 -4.076666612546670e-17

-2.602749580173621e-17  2.441481940982679e-19  9.412500559564819e-01
 2.441481940982679e-19 -1.417674064795323e-17  3.119667056467958e-01
 9.412500559564819e-01  3.119667056467958e-01 -3.452401104914860e-17

-2.738077532637899e-17  1.310745104757060e-19  9.767293746881188e-01
 1.310745104757060e-19 -1.331499182318428e-17  4.217551460268237e-01
 9.767293746881188e-01  4.217551460268237e-01 -3.642535524611379e-17

-2.876464730754907e-17 -2.972507736502974e-20  1.026087732388606e+00
-2.972507736502974e-20 -1.325030697853967e-17  4.889297940980672e-01
 1.026087732388606e+00  4.889297940980672e-01 -3.885993422282413e-17

-3.042525545076777e-17  1.123819585931128e-19  1.127261871256964e+00
 1.123819585931128e-19 -1.371318251272332e-17  4.926842401443048e-01
 1.127261871256964e+00  4.926842401443048e-01 -4.235601147857005e-17

-2.850857360208759e-17  4.353675802337975e-19  9.801975814725570e-01
 4.353675802337975e-19 -1.156986583055358e-17  5.517793330169228e-01
 9.801975814725570e-01  5.517793330169228e-01 -3.661310149225695e-17

-2.792287261042192e-17 -2.387147780924516e-19  9.692346428750793e-01
-2.387147780924516e-19 -1.391635493151490e-17  4.100059846647125e-01
 9.692346428750793e-01  4.100059846647125e-01 -3.630250334677500e-17

-2.781080215539086e-17 -1.308819568544480e-19  1.000556548783981e+00
-1.308819568544480e-19 -1.588004871253495e-17  2.525647066224019e-01
 1.000556548783981e+00  2.525647066224019e-01 -3.674208775551762e-17

-2.770387104994097e-17  4.666767447081755e-19  9.883405366523113e-01
 4.666767447081755e-19 -1.482308766711658e-17  2.818156890870441e-01
 9.883405366523113e-01  2.818156890870441e-01 -3.529205905972887e-17

-2.938546812575370e-17  1.861991932495241e-19  1.038722496022794e+00
 1.861991932495241e-19 -1.438663001882081e-17  3.997999481822411e-01
 1.038722496022794e+00  3.997999481822411e-01 -3.810845309970093e-17

-3.257943651482730e-17 -4.066397210431082e-19  1.186048502852052e+00
-4.066397210431082e-19 -1.576810654858214e-17  4.795399817358213e-01
 1.186048502852052e+00  4.795399817358213e-01 -4.546586806067537e-17

-3.329676469672847e-17 -5.848448606028761e-19  1.130862282952466e+00
-5.848448606028761e-19 -1.358901336993883e-17  7.244425805182524e-01
 1.130862282952466e+00  7.244425805182524e-01 -4.527653481271631e-17

-3.251585875302943e-17  1.454706131340589e-19  1.083575289679936e+00
 1.454706131340589e-19 -1.279935273924200e-17  7.117355046130999e-01
 1.083575289679936e+00  7.117355046130999e-01 -4.246729098316691e-17

-3.482633828172246e-17 -3.248800731958248e-19  1.333919202900820e+00
-3.248800731958248e-19 -1.829087659604739e-17  3.643552671635725e-01
 1.333919202900820e+00  3.643552671635725e-01 -5.035049503819026e-17

-3.313051188548149e-17 -5.144953187106875e-19  1.211692023268591e+00
-5.144953187106875e-19 -1.777812664670906e-17  3.487458172842432e-01
 1.211692023268591e+00  3.487458172842432e-01 -4.596626697478642e-17

-3.109570068536043e-17 -3.119512292555214e-19  1.059465112062875e+00
-3.119512292555214e-19 -1.561730468255204e-17  4.196563583525249e-01
 1.059465112062875e+00  4.196563583525249e-01 -4.041416976432818e-17

-3.123128422276459e-17 -8.351332090835553e-20  1.077824192887954e+00
-8.351332090835553e-20 -1.565268525103700e-17  3.725483429646039e-01
 1.077824192887954e+00  3.725483429646039e-01 -4.082474028287803e-17

-3.183722385286451e-17  7.661524594972682e-21  1.093257543704482e+00
 7.661524594972682e-21 -1.473207915742656e-17  4.287681782198439e-01
 1.093257543704482e+00  4.287681782198439e-01 -4.152879857397040e-17

-3.226635790521558e-17 -5.559677419516332e-21  1.107066159116220e+00
-5.559677419516332e-21 -1.421188523044951e-17  4.691394290562747e-01
 1.107066159116220e+00  4.691394290562747e-01 -4.225518424259992e-17

-3.177293196629856e-17 -2.344802951792408e-20  1.019966346817956e+00
-2.344802951792408e-20 -1.173814448305825e-17  6.257547055199183e-01
 1.019966346817956e+00  6.257547055199183e-01 -3.979257022097908e-17

-2.934897568490478e-17  2.837652840253030e-19  8.050246173883815e-01
 2.837652840253030e-19 -9.132459319279809e-18  7.413399529471579e-01
 8.050246173883815e-01  7.413399529471579e-01 -3.248704827665307e-17

-3.492597858701359e-17 -3.675289293851318e-19  1.331298048822178e+00
-3.675289293851318e-19 -1.916916531116852e-17  1.769921885484146e-01
 1.331298048822178e+00  1.769921885484146e-01 -5.000857467130559e-17

-3.391961409360545e-17 -1.132795852948825e-19  1.255599347918629e+00
-1.132795852948825e-19 -1.899056921698668e-17  1.541096332182380e-01
 1.255599347918629e+00  1.541096332182380e-01 -4.698578897781272e-17

-3.218402795040975e-17 -1.949789018694269e-19  1.011533929754039e+00
-1.949789018694269e-19 -1.400751921227087e-17  4.835239167008440e-01
 1.011533929754039e+00  4.835239167008440e-01 -3.980149720249143e-17

-3.487589716174428e-17 -3.265977617614605e-19  1.163742977841396e+00
-3.265977617614605e-19 -1.515420669413408e-17  4.902672751601795e-01
 1.163742977841396e+00  4.902672751601795e-01 -4.592592215778140e-17

-3.558453745322949e-17 -3.600474687614739e-19  1.150773626369950e+00
-3.600474687614739e-19 -1.437507261105256e-17  5.802305930728313e-01
 1.150773626369950e+00  5.802305930728313e-01 -4.608485878034643e-17

-3.730329697664384e-17 -1.943526015436407e-19  1.296548731637301e+00
-1.943526015436407e-19 -1.681294242991905e-17  4.280541720412386e-01
 1.296548731637301e+00  4.280541720412386e-01 -5.088602944642996e-17

-3.690313798619376e-17 -3.862349475652287e-20  1.241911235349790e+00
-3.862349475652287e-20 -1.526388837743226e-17  4.786034886167327e-01
 1.241911235349790e+00  4.786034886167327e-01 -4.887985348462431e-17

-3.576666246881051e-17  1.969604421466820e-19  1.159759086571642e+00
 1.969604421466820e-19 -1.337949461411493e-17  5.006887562468562e-01
 1.159759086571642e+00  5.006887562468562e-01 -4.572012992601542e-17

-3.485791285376517e-17 -7.221275534461630e-20  1.105960244766262e+00
-7.221275534461630e-20 -1.319654539238334e-17  4.477917637599765e-01
 1.105960244766262e+00  4.477917637599765e-01 -4.378826288389292e-17

-3.381008467385070e-17 -2.782253581903758e-19  1.029596852117979e+00
-2.782253581903758e-19 -1.263341319817003e-17  4.356501066112454e-01
 1.029596852117979e+00  4.356501066112454e-01 -4.113461382853854e-17

-3.297847907238262e-17 -3.119302044621302e-19  9.828192762616347e-01
-3.119302044621302e-19 -1.302460694482604e-17  3.372871577594284e-01
 9.828192762616347e-01  3.372871577594284e-01 -3.945802541332867e-17

-3.476624518164333e-17  2.312985540600720e-19  1.123345118138974e+00
 2.312985540600720e-19 -1.357289794270646e-17  2.465186541484067e-01
 1.123345118138974e+00  2.465186541484067e-01 -4.383526842411730e-17

-3.075859188872698e-17 -1.592437688885807e-19  6.603265459962463e-01
-1.592437688885807e-19 -4.210757946162683e-18  8.140682686331890e-01
 6.603265459962463e-01  8.140682686331890e-01 -2.970341350450492e-17

-2.925482063261693e-17  1.092772574412869e-19  5.070136594806590e-01
 1.092772574412869e-19 -1.743077301538612e-18  9.379705620035522e-01
 5.070136594806590e-01  9.379705620035522e-01 -2.473226632216676e-17

-3.575923305591324e-17 -1.816986030920414e-20  1.097556001291756e+00
-1.816986030920414e-20 -1.235713616018104e-17  3.241289734650494e-01
 1.097556001291756e+00  3.241289734650494e-01 -4.442577063814608e-17

-3.778932773117564e-17  2.123066008885670e-19  1.277346882919547e+00
 2.123066008885670e-19 -1.596936447277884e-17  9.154107759539169e-02
 1.277346882919547e+00  9.154107759539169e-02 -5.035696631502604e-17

-3.549325716522339e-17  3.298366091759989e-19  1.026726261376999e+00
 3.298366091759989e-19 -1.135364999574195e-17  3.434336006311333e-01
 1.026726261376999e+00  3.434336006311333e-01 -4.206071101792521e-17

-3.391422778907870e-17  2.264754195125402e-19  7.577322540612874e-01
 2.264754195125402e-19 -4.593924811960152e-18  7.547822407720441e-01
 7.577322540612874e-01  7.547822407720441e-01 -3.427685472934825e-17

-3.265020602988050e-17  5.674660514320688e-19  6.304513374993246e-01
 5.674660514320688e-19 -3.100996797024577e-18  8.040653406527628e-01
 6.304513374993246e-01  8.040653406527628e-01 -2.982726614845098e-17

-3.835182119962598e-17  2.172998405873005e-19  1.135124464334693e+00
 2.172998405873005e-19 -1.215674905345527e-17  3.045064252572949e-01
 1.135124464334693e+00  3.045064252572949e-01 -4.705586140671395e-17

-4.017449019212422e-17  3.439399548665910e-19  1.291926875062116e+00
 3.439399548665910e-19 -1.573821692436480e-17  7.766738526081876e-02
 1.291926875062116e+00  7.766738526081876e-02 -5.242420094120830e-17

-3.799255045985975e-17  5.027536986919089e-19  1.050656798729875e+00
 5.027536986919089e-19 -1.162940022096136e-17  2.929135852654151e-01
 1.050656798729875e+00  2.929135852654151e-01 -4.444982755868755e-17

-3.955082910386874e-17  4.747161422153244e-19  1.046449705473156e+00
 4.747161422153244e-19 -9.600888057342143e-18  4.400568196309196e-01
 1.046449705473156e+00  4.400568196309196e-01 -4.550542235022653e-17

-4.184122471931143e-17  6.652214727295069e-19  1.161663679574324e+00
 6.652214727295069e-19 -1.021599997780595e-17  4.036977358232147e-01
 1.161663679574324e+00  4.036977358232147e-01 -4.997811139653679e-17

-4.025456767170304e-17  6.940262679300927e-19  9.911022252623295e-01
 6.940262679300927e-19 -7.248346551775719e-18  5.690765317673712e-01
 9.911022252623295e-01  5.690765317673712e-01 -4.418352932033864e-17

-4.132565192652586e-17  9.980457947099179e-19  1.050893252953659e+00
 9.980457947099179e-19 -7.463569872567453e-18  5.195264874686908e-01
 1.050893252953659e+00  5.195264874686908e-01 -4.632533454986801e-17

-4.114786622359265e-17  1.287426280717917e-18  1.013400733209129e+00
 1.287426280717917e-18 -7.060113360640253e-18  4.686226868961154e-01
 1.013400733209129e+00  4.686226868961154e-01 -4.524094044955924e-17

-3.955937293259141e-17  1.336502126108745e-18  8.579839276218539e-01
 1.336502126108745e-18 -5.671230681121864e-18  4.860091932151291e-01
 8.579839276218539e-01  4.860091932151291e-01 -4.013866605120274e-17

-4.254781691116943e-17  1.002766633427204e-18  1.089417871933329e+00
 1.002766633427204e-18 -1.120196337743316e-17  1.262391833693607e-01
 1.089417871933329e+00  1.262391833693607e-01 -4.767567337388378e-17

-4.438358966938944e-17  1.777465780956499e-18  1.189983936193881e+00
 1.777465780956499e-18 -1.080151493415779e-17  8.315297214044021e-02
 1.189983936193881e+00  8.315297214044021e-02 -5.069995149234086e-17

-3.993361418311398e-17  5.560398959171618e-19  6.047775654879766e-01
 5.560398959171618e-19 -4.103496822599758e-19  8.165346431665451e-01
 6.047775654879766e-01  8.165346431665451e-01 -3.566219919615555e-17

-4.228019854515191e-17  1.112698504306700e-18  7.370241976307638e-01
 1.112698504306700e-18 -3.938368025455217e-19  7.835007722787435e-01
 7.370241976307638e-01  7.835007722787435e-01 -3.955860972709975e-17

-4.499671350799139e-17  1.666801325627382e-18  9.268170848591203e-01
 1.666801325627382e-18 -4.352553483425363e-18  4.959540590436344e-01
 9.268170848591203e-01  4.959540590436344e-01 -4.562708315196316e-17

-4.823514567952628e-17  1.704879202330682e-18  1.156435208220770e+00
 1.704879202330682e-18 -9.434385778446951e-18  1.826358590030793e-01
 1.156435208220770e+00  1.826358590030793e-01 -5.404467087782553e-17

-4.657377256918212e-17  2.244995840355250e-18  9.189512953810129e-01
 2.244995840355250e-18 -5.734174444160043e-18  3.428826094113883e-01
 9.189512953810129e-01  3.428826094113883e-01 -4.607736836199889e-17

-4.815919625388821e-17  2.656375261715140e-18  9.091203828338423e-01
 2.656375261715140e-18 -4.722964842743822e-18  4.002115649069297e-01
 9.091203828338423e-01  4.002115649069297e-01 -4.644079030010796e-17

-5.215846381065858e-17  3.169067156991721e-18  1.155773783479457e+00
 3.169067156991721e-18 -7.873258525666837e-18  2.228845658245435e-01
 1.155773783479457e+00  2.228845658245435e-01 -5.517705860410989e-17

-5.290079558107436e-17  2.566479189349831e-18  1.034602419703173e+00
 2.566479189349831e-18 -5.797141457432384e-18  4.479035332042375e-01
 1.034602419703173e+00  4.479035332042375e-01 -5.337631343387888e-17

-5.433795449175894e-17  2.231396204618658e-18  9.859308297369384e-01
 2.231396204618658e-18 -4.667433743013639e-18  6.049807581924418e-01
 9.859308297369384e-01  6.049807581924418e-01 -5.369910222504314e-17

-6.044297706253284e-17  3.209436402406085e-18  1.233912295797936e+00
 3.209436402406085e-18 -7.738937509211231e-18  4.317705360221327e-01
 1.233912295797936e+00  4.317705360221327e-01 -6.350825806495320e-17

-6.146052536992065e-17  4.785528456199922e-18  9.861016309505679e-01
 4.785528456199922e-18 -3.340017275126671e-18  5.383019138674573e-01
 9.861016309505679e-01  5.383019138674573e-01 -5.694848297496658e-17

-6.567944570536375e-17  4.767720464465981e-18  1.199682672768298e+00
 4.767720464465981e-18 -7.330076242387400e-18  2.433245671055274e-01
 1.199682672768298e+00  2.433245671055274e-01 -6.546849108240154e-17

-6.697076021319029e-17  5.580982186464132e-18  1.169423245928259e+00
 5.580982186464132e-18 -7.040209280765142e-18  1.890046341959407e-01
 1.169423245928259e+00  1.890046341959407e-01 -6.520158882696393e-17

-6.988425599069919e-17  7.080757278760727e-18  9.814305430202348e-01
 7.080757278760727e-18 -2.875738701834401e-18  4.306722741074653e-01
 9.814305430202348e-01  4.306722741074653e-01 -6.162652030722676e-17

-7.733747852771603e-17  7.852690315344555e-18  1.096050599486343e+00
 7.852690315344555e-18 -4.761579496745617e-18  4.713620088412032e-01
 1.096050599486343e+00  4.713620088412032e-01 -6.966773538639384e-17

-8.647191270205077e-17  9.410401204528147e-18  1.491053959628419e+00
 9.410401204528147e-18 -9.566224932966219e-18  2.319736919878802e-01
 1.491053959628419e+00  2.319736919878802e-01 -8.566425090017481e-17

-8.492373675721631e-17  8.474164383858439e-18  1.128180007306408e+00
 8.474164383858439e-18 -5.253519738587643e-18  6.299921631832133e-01
 1.128180007306408e+00  6.299921631832133e-01 -7.614376056195880e-17

-8.539966783952680e-17  9.356721280072399e-18  9.181564430612446e-01
 9.356721280072399e-18 -3.011034569023012e-18  8.035278779640022e-01
 9.181564430612446e-01  8.035278779640022e-01 -7.119898151477499e-17

-9.557232172865645e-17  1.443373174895296e-17  1.108344068827736e+00
 1.443373174895296e-17 -4.996717635842031e-18  3.424632371925765e-01
 1.108344068827736e+00  3.424632371925765e-01 -8.101961637568929e-17

-1.054554662200828e-16  1.953963318057641e-17  1.195058747617123e+00
 1.953963318057641e-17 -5.479599283579628e-18  1.702620040886518e-01
 1.195058747617123e+00  1.702620040886518e-01 -8.845468529068948e-17

-1.132270378283961e-16  1.977149530465931e-17  1.015251732103173e+00
 1.977149530465931e-17 -6.504046960447762e-18  6.619095185439822e-01
 1.015251732103173e+00  6.619095185439822e-01 -9.093573752325283e-17

-1.186036055328458e-16  2.386830624642151e-17  8.431255253564360e-01
 2.386830624642151e-17 -5.428735902069636e-18  7.480514208127956e-01
 8.431255253564360e-01  7.480514208127956e-01 -8.959138065756607e-17

-1.292455802245030e-16  2.989130386679732e-17  1.135469337509850e+00
 2.989130386679732e-17 -3.488778417270288e-18  4.146526337381694e-01
 1.135469337509850e+00  4.146526337381694e-01 -1.019179874826452e-16

-1.427413432504436e-16  3.930254313336747e-17  9.316873814235650e-01
 3.930254313336747e-17  9.896779272228091e-18  3.617017972176996e-01
 9.316873814235650e-01  3.617017972176996e-01 -1.023281485082230e-16

-1.607503435562871e-16  5.001078648199238e-17  1.029609876086351e+00
 5.001078648199238e-17  1.718719171529999e-17  1.965332100086991e-01
 1.029609876086351e+00  1.965332100086991e-01 -1.139530958570665e-16

-1.675069416916167e-16  5.459715141434489e-17  8.502012605437900e-01
 5.459715141434489e-17  1.606622120197309e-17  4.400135961671419e-01
 8.502012605437900e-01  4.400135961671419e-01 -1.136000335561784e-16

-1.687887701204528e-16  5.643600281587185e-17  4.656876595412251e-01
 5.643600281587185e-17  1.197017523660410e-17  8.373463666426667e-01
 4.656876595412251e-01  8.373463666426667e-01 -1.053478060977370e-16

-1.846451168342459e-16  6.450487229911805e-17  6.792437974812473e-01
 6.450487229911805e-17  1.572792071629414e-17  6.565435109582026e-01
 6.792437974812473e-01  6.565435109582026e-01 -1.188429315842985e-16

-2.141013622112058e-16  8.096749269313216e-17  9.517119876341977e-01
 8.096749269313216e-17  2.489601652528052e-17  3.240796213715411e-01
 9.517119876341977e-01  3.240796213715411e-01 -1.406059146124817e-16

-2.409249990204795e-16  9.787631407621674e-17  8.733311460631877e-01
 9.787631407621674e-17  2.556568355518461e-17  3.775329704069914e-01
 8.733311460631877e-01  3.775329704069914e-01 -1.522208460997306e-16

-2.538444167930300e-16  1.074067579897675e-16  6.076885177191685e-01
 1.074067579897675e-16  1.534581484439876e-17  5.986197465296371e-01
 6.076885177191685e-01  5.986197465296371e-01 -1.529362633575978e-16

-2.798143356522854e-16  1.200322106458501e-16  1.012515912995099e+00
 1.200322106458501e-16  2.771554158287074e-17  2.402907410227244e-01
 1.012515912995099e+00  2.402907410227244e-01 -1.751080979566565e-16

-3.110175276649649e-16  1.380548607966038e-16  1.264775522168441e+00
 1.380548607966038e-16  1.492863657455721e-17  9.403561379263756e-02
 1.264775522168441e+00  9.403561379263756e-02 -1.985129792868139e-16

-3.311009789208866e-16  1.461677257050384e-16  8.324039980605948e-01
 1.461677257050384e-16 -6.618619153655246e-17  7.554878486913642e-01
 8.324039980605948e-01  7.554878486913642e-01 -2.104867651358650e-16

-3.898775899489183e-16  1.855495739793060e-16  9.765526516810600e-01
 1.855495739793060e-16 -6.157582313027535e-17  5.988233159255145e-01
 9.765526516810600e-01  5.988233159255145e-01 -2.409084747747787e-16

-4.814902347947870e-16  2.503513326314925e-16  1.223453225240237e+00
 2.503513326314925e-16  8.098620685434818e-18  2.134823477046618e-01
 1.223453225240237e+00  2.134823477046618e-01 -2.837626567501248e-16

-5.367567025166041e-16  2.881997961550477e-16  1.104209296481769e+00
 2.881997961550477e-16  2.344577108984096e-17  2.602206516777262e-01
 1.104209296481769e+00  2.602206516777262e-01 -3.051788556067248e-16

-7.043360658993887e-16  4.013974296890950e-16  9.455098134786654e-01
 4.013974296890950e-16  4.087499599297942e-17  4.521061593682575e-01
 9.455098134786654e-01  4.521061593682575e-01 -3.768227568835625e-16

-9.596909999617419e-16  5.334117253985870e-16  1.009916237863607e+00
 5.334117253985870e-16  2.537684325149755e-16  3.262888520648000e-01
 1.009916237863607e+00  3.262888520648000e-01 -4.806708958729600e-16

-1.129852026539020e-15  6.087947822473370e-16  1.074176389351266e+00
 6.087947822473370e-16  4.395980074797631e-16  2.301846985003144e-01
 1.074176389351266e+00  2.301846985003144e-01 -5.470562941145699e-16

-1.481159596505906e-15  8.015775017768799e-16  8.266474078245668e-01
 8.015775017768799e-16  6.275325072612096e-16  4.522142920100673e-01
 8.266474078245668e-01  4.522142920100673e-01 -6.879825509907356e-16

-1.961413491859014e-15  1.009794278231204e-15  8.584395012987854e-01
 1.009794278231204e-15  1.036924161909502e-15  4.359749658777068e-01
 8.584395012987854e-01  4.359749658777068e-01 -8.877396976245737e-16

-3.147790066487213e-15  1.416480583729250e-15  8.579264002415895e-01
 1.416480583729250e-15  2.297636132789945e-15  4.017605577948893e-01
 8.579264002415895e-01  4.017605577948893e-01 -1.396051029200368e-15

-4.977676370966090e-15  1.989052061560574e-15  8.285561510592746e-01
 1.989052061560574e-15  4.035321411823912e-15  4.615082759028580e-01
 8.285561510592746e-01  4.615082759028580e-01 -2.234753287144346e-15

-7.131965188061527e-15  2.422163718577762e-15  9.407090865885629e-01
 2.422163718577762e-15  6.676986742542216e-15  3.564020753273676e-01
 9.407090865885629e-01  3.564020753273676e-01 -3.283594538350835e-15

-1.040870070605159e-14  3.064997282928554e-15  1.003813516610502e+00
 3.064997282928554e-15  9.764809369195123e-15  3.273153646870355e-01
 1.003813516610502e+00  3.273153646870355e-01 -4.921481450485550e-15

-1.639422669830698e-14  3.702635340607915e-15  1.238038263609859e+00
 3.702635340607915e-15  1.436081079328715e-14  2.129152615328309e-01
 1.238038263609859e+00  2.129152615328309e-01 -7.895337153372101e-15

-1.984061069899200e-14  5.135748565079894e-15  1.078732224527655e+00
 5.135748565079894e-15  1.651234847319276e-15  6.149816587835536e-01
 1.078732224527655e+00  6.149816587835536e-01 -1.112918891085248e-14

3.174654921456520e-14 6.046240531912587e-15 1.200302981351192e+00
6.046240531912587e-15 2.288615052340332e-14 5.416644366226019e-01
1.200302981351192e+00 5.416644366226019e-01 3.846087578318801e-16

-6.874445484336691e-13  1.681406316006308e-13  1.025680540678803e+00
 1.681406316006308e-13 -3.339047133780494e-13  3.939065522668092e-01
 1.025680540678803e+00  3.939065522668092e-01 -2.504593110931849e-13

 1.449495462420923e-13 -6.753898966970361e-14  9.043317108628647e-01
-6.753898966970361e-14  1.785268843209542e-13  3.322276113274226e-01
 9.043317108628647e-01  3.322276113274226e-01  5.609503226194867e-14

-6.880135236442067e-13  1.169095409282342e-13  9.396663120745925e-01
 1.169095409282342e-13 -2.544854465637795e-13  2.846605378658106e-01
 9.396663120745925e-01  2.846605378658106e-01 -1.690667755683847e-13

 2.024683652761020e-14 -2.427583138396448e-14  7.574031669724410e-01
-2.427583138396448e-14  9.996233168228767e-14  6.397876790600248e-01
 7.574031669724410e-01  6.397876790600248e-01  2.288983560154753e-17

-3.283266470468226e-15  9.141398477977889e-15  9.562945693678816e-01
 9.141398477977889e-15  2.580402698105170e-14  3.899150745299593e-01
 9.562945693678816e-01  3.899150745299593e-01 -7.386681889679162e-15

-1.164642214189649e-15  8.271159766683261e-15  9.135907863529956e-01
 8.271159766683261e-15  1.505822674228366e-14  5.156178762143981e-01
 9.135907863529956e-01  5.156178762143981e-01 -4.514746118710913e-15

-1.103028723970863e-15  6.953825919827973e-15  9.262628663051344e-01
 6.953825919827973e-15  1.166422001865351e-14  5.046512640200513e-01
 9.262628663051344e-01  5.046512640200513e-01 -3.434374200030917e-15

-1.008491187456435e-15  5.686796523420274e-15  1.117282164797685e+00
 5.686796523420274e-15  8.388947131570865e-15  2.426901451155253e-01
 1.117282164797685e+00  2.426901451155253e-01 -2.584619041447534e-15

-1.040205457623592e-15  5.017227065488588e-15  1.345666829613610e+00
 5.017227065488588e-15  7.242076656673488e-15  4.675235497603918e-02
 1.345666829613610e+00  4.675235497603918e-02 -2.242433298972356e-15

-1.202504586628874e-15  4.304180742063709e-15  1.354505175489305e+00
 4.304180742063709e-15  7.011201675399944e-15  1.134970313663767e-01
 1.354505175489305e+00  1.134970313663767e-01 -2.003149474106759e-15

-1.654940185450203e-15  2.344035717491360e-15  1.212620909270609e+00
 2.344035717491360e-15  6.589412731874421e-15  6.555196889752603e-01
 1.212620909270609e+00  6.555196889752603e-01 -1.527336404752030e-15

-1.347205036224955e-15  1.861055289238187e-15  1.198585941546076e+00
 1.861055289238187e-15  4.704164814127057e-15  5.114354310456717e-01
 1.198585941546076e+00  5.114354310456717e-01 -1.152148384626981e-15

-9.055800944994920e-16  1.715952960056628e-15  1.151236728322686e+00
 1.715952960056628e-15  3.065717023615591e-15  3.606665149506577e-01
 1.151236728322686e+00  3.606665149506577e-01 -8.771780708109757e-16

-6.336662661869924e-16  1.240057263138808e-15  8.115962732230352e-01
 1.240057263138808e-15  1.971248537831680e-15  3.979727736525849e-01
 8.115962732230352e-01  3.979727736525849e-01 -6.135305946447243e-16

-5.335598211884303e-16  8.775038441115616e-16  9.626282851079850e-01
 8.775038441115616e-16  1.481148669107979e-15  2.221803721241947e-01
 9.626282851079850e-01  2.221803721241947e-01 -4.709218419494935e-16

-5.672503556388554e-16  6.760968854458137e-16  8.535140385233944e-01
 6.760968854458137e-16  1.453162787596895e-15  5.739647328140832e-01
 8.535140385233944e-01  5.739647328140832e-01 -4.275304066902918e-16

-5.804133038419573e-16  5.924466881822190e-16  6.258199502721682e-01
 5.924466881822190e-16  1.452911231769589e-15  8.505917428868945e-01
 6.258199502721682e-01  8.505917428868945e-01 -4.074383358699362e-16

-4.895630608536206e-16  4.610189063975547e-16  1.006694143917507e+00
 4.610189063975547e-16  1.144333577016742e-15  4.965227939036750e-01
 1.006694143917507e+00  4.965227939036750e-01 -3.444450816447737e-16

-3.932146416572213e-16  3.451030996914308e-16  9.135363584656374e-01
 3.451030996914308e-16  8.664451400148495e-16  4.592291394765318e-01
 9.135363584656374e-01  4.592291394765318e-01 -2.725921065584764e-16

-3.525316542632398e-16  2.846765841735942e-16  8.196074584129925e-01
 2.846765841735942e-16  7.510107260491614e-16  5.130799688308012e-01
 8.196074584129925e-01  5.130799688308012e-01 -2.379188417072347e-16

-3.148254389612125e-16  2.572943543483910e-16  8.544248177912037e-01
 2.572943543483910e-16  6.522182709317347e-16  3.925214730011548e-01
 8.544248177912037e-01  3.925214730011548e-01 -2.162176867506491e-16

-2.737453108064302e-16  2.182703180680645e-16  1.085760239226172e+00
 2.182703180680645e-16  5.372869699934900e-16  6.624823256764388e-02
 1.085760239226172e+00  6.624823256764388e-02 -1.943674095563221e-16

-2.590806273120293e-16  1.729767120483127e-16  1.117188883319257e+00
 1.729767120483127e-16  4.878026131561537e-16  1.623258765651385e-01
 1.117188883319257e+00  1.623258765651385e-01 -1.797526409420640e-16

-2.218023383105060e-16  1.105410737971430e-16  1.036881966023525e+00
 1.105410737971430e-16  4.567012180488124e-16  5.873728255418977e-01
 1.036881966023525e+00  5.873728255418977e-01 -1.671618628184727e-16

-2.061858012848515e-16  8.491567249378896e-17  1.080077453574894e+00
 8.491567249378896e-17  3.455326516304156e-16  4.302084209402002e-01
 1.080077453574894e+00  4.302084209402002e-01 -1.394115071184204e-16

-1.849645384780002e-16  8.065545187025527e-17  1.019897487787039e+00
 8.065545187025527e-17  3.009175091007702e-16  3.639530215508138e-01
 1.019897487787039e+00  3.639530215508138e-01 -1.269626447115271e-16

-1.742357939496921e-16  7.567705254412708e-17  9.100219983288078e-01
 7.567705254412708e-17  2.817454535140785e-16  4.089183462591860e-01
 9.100219983288078e-01  4.089183462591860e-01 -1.177475594880928e-16

-1.647354793110379e-16  7.157149049803618e-17  8.668092138739774e-01
 7.157149049803618e-17  2.628642472494543e-16  4.040202098204568e-01
 8.668092138739774e-01  4.040202098204568e-01 -1.111534768195973e-16

-1.485558147408601e-16  6.336212438823680e-17  1.015176309551487e+00
 6.336212438823680e-17  2.223464548539216e-16  1.777526966812056e-01
 1.015176309551487e+00  1.777526966812056e-01 -1.052052089860120e-16

-1.408037017692375e-16  5.254840678755211e-17  1.123488892691593e+00
 5.254840678755211e-17  2.003586138137150e-16  1.959079535242877e-01
 1.123488892691593e+00  1.959079535242877e-01 -1.027181246334988e-16

-1.352412712575461e-16  3.932684035929411e-17  7.781416844006259e-01
 3.932684035929411e-17  1.969557379493117e-16  6.956461526233745e-01
 7.781416844006259e-01  6.956461526233745e-01 -9.172976830278815e-17

-1.294603188322045e-16  3.275276803789635e-17  7.761267877003155e-01
 3.275276803789635e-17  1.839304857443780e-16  7.713885973528525e-01
 7.761267877003155e-01  7.713885973528525e-01 -8.747045358057038e-17

-1.258226478924440e-16  3.172854673080329e-17  1.037317848690088e+00
 3.172854673080329e-17  1.665896066175467e-16  5.099606762794830e-01
 1.037317848690088e+00  5.099606762794830e-01 -9.207068707470593e-17

-1.169829883363171e-16  2.868354208250878e-17  1.136483510146431e+00
 2.868354208250878e-17  1.435947422525240e-16  3.416227351755237e-01
 1.136483510146431e+00  3.416227351755237e-01 -8.964817946393711e-17

-1.073437408069109e-16  2.318779824583905e-17  1.223322488317193e+00
 2.318779824583905e-17  1.201078943400143e-16  2.884024053415803e-01
 1.223322488317193e+00  2.884024053415803e-01 -8.592129763494611e-17

-9.885195221021935e-17  1.611235792387907e-17  9.499751148479169e-01
 1.611235792387907e-17  1.117581633668867e-16  7.313108037834207e-01
 9.499751148479169e-01  7.313108037834207e-01 -7.503349730229039e-17

-9.418377060342636e-17  1.487213362214886e-17  1.015456105928197e+00
 1.487213362214886e-17  1.002448322987945e-16  6.306228151161005e-01
 1.015456105928197e+00  6.306228151161005e-01 -7.391998370008485e-17

-9.307515355190148e-17  1.765549280872164e-17  1.669905823979448e+00
 1.765549280872164e-17  7.477072613090487e-17 -1.325702990611814e-01
 1.669905823979448e+00 -1.325702990611814e-01 -8.863210836898275e-17

-9.149383592972305e-17  1.685098832841993e-17  1.718830363599306e+00
 1.685098832841993e-17  7.108113217239632e-17 -1.279029022120775e-01
 1.718830363599306e+00 -1.279029022120775e-01 -8.833471022565114e-17

-8.427102777539552e-17  1.014149484352469e-17  1.040235522901095e+00
 1.014149484352469e-17  7.812776395898610e-17  7.635777652307413e-01
 1.040235522901095e+00  7.635777652307413e-01 -7.162356638157769e-17

-7.944455304314895e-17  9.626024371031741e-18  1.085376194599768e+00
 9.626024371031741e-18  6.916182704367806e-17  6.851379066597040e-01
 1.085376194599768e+00  6.851379066597040e-01 -6.892607697211634e-17

-7.787317691319263e-17  1.123253892432471e-17  1.438458030177119e+00
 1.123253892432471e-17  5.247231540360963e-17  9.953714401744616e-02
 1.438458030177119e+00  9.953714401744616e-02 -7.497434240568268e-17

-7.543746228102548e-17  1.170460597501778e-17  1.452705488208794e+00
 1.170460597501778e-17  4.822306859469986e-17 -1.104575118510503e-02
 1.452705488208794e+00 -1.104575118510503e-02 -7.348182684215316e-17

-7.002776429748339e-17  8.670591333509654e-18  1.105664106204154e+00
 8.670591333509654e-18  4.972643098568005e-17  4.469110267649155e-01
 1.105664106204154e+00  4.469110267649155e-01 -6.276662298075500e-17

-6.765183838936675e-17  5.492515131245156e-18  9.729820896451787e-01
 5.492515131245156e-18  4.820786163445497e-17  8.184864305929389e-01
 9.729820896451787e-01  8.184864305929389e-01 -5.984664226829058e-17

-6.980114400278317e-17  5.775479724775830e-18  1.318925027005756e+00
 5.775479724775830e-18  4.077281786452703e-17  5.320096123925157e-01
 1.318925027005756e+00  5.320096123925157e-01 -6.980716410247807e-17

-6.811201472980055e-17  5.354580503495549e-18  1.414332672920219e+00
 5.354580503495549e-18  3.531035128718600e-17  5.134809460973057e-01
 1.414332672920219e+00  5.134809460973057e-01 -7.142770042842106e-17

-6.186861838687405e-17  5.224886734152788e-18  1.266164606002616e+00
 5.224886734152788e-18  3.109526024644138e-17  4.874003098916316e-01
 1.266164606002616e+00  4.874003098916316e-01 -6.299070907681393e-17

-5.689480438960271e-17  4.781353512338583e-18  1.169009700071864e+00
 4.781353512338583e-18  2.574965167076719e-17  3.635360182366937e-01
 1.169009700071864e+00  3.635360182366937e-01 -5.719150707745510e-17

-5.142800378127114e-17  4.776463757064765e-18  1.002212267872633e+00
 4.776463757064765e-18  2.540817166687034e-17  4.845035216099885e-01
 1.002212267872633e+00  4.845035216099885e-01 -4.936365976937784e-17

-4.756315835467966e-17  4.440633694949571e-18  9.260844125552541e-01
 4.440633694949571e-18  2.335775250392315e-17  5.377884733272483e-01
 9.260844125552541e-01  5.377884733272483e-01 -4.506916080558764e-17

-4.680555406974867e-17  4.147063169321063e-18  1.070518297950849e+00
 4.147063169321063e-18  1.688048541528914e-17  3.248159932438208e-01
 1.070518297950849e+00  3.248159932438208e-01 -4.936242696432047e-17

-4.538637672848138e-17  4.009563827227213e-18  1.032910245255783e+00
 4.009563827227213e-18  1.635106856517459e-17  3.554666167059535e-01
 1.032910245255783e+00  3.554666167059535e-01 -4.759040663110813e-17

-4.131980592287954e-17  3.691769949474875e-18  7.023970745974768e-01
 3.691769949474875e-18  2.138806558821699e-17  6.545615611412190e-01
 7.023970745974768e-01  6.545615611412190e-01 -3.572802593933545e-17

-3.953424945062451e-17  3.701743385065612e-18  6.991147638438283e-01
 3.701743385065612e-18  1.914474243038274e-17  6.170326476807895e-01
 6.991147638438283e-01  6.170326476807895e-01 -3.478427274160923e-17

-4.172378867536820e-17  3.639878067234670e-18  9.960042629610075e-01
 3.639878067234670e-18  1.116826251204327e-17  2.635448125216676e-01
 9.960042629610075e-01  2.635448125216676e-01 -4.469253839390658e-17

-3.892164814222778e-17  3.639911796890565e-18  8.664345077595864e-01
 3.639911796890565e-18  1.079511102547816e-17  3.384929435716370e-01
 8.664345077595864e-01  3.384929435716370e-01 -3.867341219491590e-17

-4.111373002156582e-17  1.535082096522879e-18  1.035745143413211e+00
 1.535082096522879e-18  6.965966943684766e-18  5.087232894676122e-01
 1.035745143413211e+00  5.087232894676122e-01 -4.672789626089395e-17

-4.151130630707685e-17  1.354097679644801e-18  1.184431510341983e+00
 1.354097679644801e-18  4.279431736163615e-18  4.775359268992673e-01
 1.184431510341983e+00  4.775359268992673e-01 -5.109561884056630e-17

-4.231376386320589e-17  2.586874535469915e-18  1.020845922278881e+00
 2.586874535469915e-18  5.760833488174853e-18  5.908529170130026e-01
 1.020845922278881e+00  5.908529170130026e-01 -4.457476759612412e-17

-4.544054445757273e-17  3.807711261260867e-18  1.077330549121097e+00
 3.807711261260867e-18  2.871043498720369e-18  4.621510529598638e-01
 1.077330549121097e+00  4.621510529598638e-01 -4.588268754870947e-17

-1.923129491476637e-17 -1.660112704147344e-18  9.708045351485270e-01
-1.660112704147344e-18  9.073066987830761e-19  3.620007542153207e-01
 9.708045351485270e-01  3.620007542153207e-01 -4.126446653787385e-17

-1.804427311851462e-16  5.337380568765888e-17  1.001835491980082e+00
 5.337380568765888e-17 -1.809281684147813e-17  4.367849128177192e-01
 1.001835491980082e+00  4.367849128177192e-01 -4.172825687423357e-17

-2.637269398329888e-16  8.777936268911228e-17  7.705774426792712e-01
 8.777936268911228e-17 -2.755184526507346e-17  7.048899238569832e-01
 7.705774426792712e-01  7.048899238569832e-01 -3.384280911524140e-17

 7.965330540049913e-17 -4.040315338434976e-17  9.275476643234681e-01
-4.040315338434976e-17  1.526164271236171e-17  4.620095069238204e-01
 9.275476643234681e-01  4.620095069238204e-01 -3.837690261150604e-17

-5.099448860083752e-17  6.167149984494566e-18  1.382549573554706e+00
 6.167149984494566e-18 -1.124660520059720e-17 -3.875894474514643e-02
 1.382549573554706e+00 -3.875894474514643e-02 -5.264486223609480e-17

-2.491952516503904e-17 -2.225327604084453e-18  1.166375925721757e+00
-2.225327604084453e-18 -5.048708937608148e-18  1.469383575386460e-01
 1.166375925721757e+00  1.469383575386460e-01 -4.504869799525194e-17

-4.047459997163178e-17  2.705588994958598e-18  1.020799754226202e+00
 2.705588994958598e-18 -4.193115137575348e-18  5.013042698384571e-01
 1.020799754226202e+00  5.013042698384571e-01 -4.187092585640592e-17

-3.611183684065045e-17  4.793556239799129e-19  1.163480099226197e+00
 4.793556239799129e-19 -5.840573596902731e-18  4.650961581774748e-01
 1.163480099226197e+00  4.650961581774748e-01 -4.643295226823044e-17

-3.391257384646228e-17  1.089848179505222e-19  1.121569928347063e+00
 1.089848179505222e-19 -5.090943307905745e-18  5.204444549101981e-01
 1.121569928347063e+00  5.204444549101981e-01 -4.450742251122531e-17

-3.603065548780139e-17  7.980916045415699e-19  1.198712929842467e+00
 7.980916045415699e-19 -6.726326946643942e-18  4.358726482267671e-01
 1.198712929842467e+00  4.358726482267671e-01 -4.691532589991800e-17

-3.455462300008440e-17  8.090568442464865e-19  1.130099191505645e+00
 8.090568442464865e-19 -5.985811047221655e-18  4.606517026374174e-01
 1.130099191505645e+00  4.606517026374174e-01 -4.420012310926292e-17

-3.240898900225628e-17  9.563495307683007e-19  9.665587492061148e-01
 9.563495307683007e-19 -5.058953598743019e-18  4.896985024029539e-01
 9.665587492061148e-01  4.896985024029539e-01 -3.811020368457653e-17

-3.312534654938218e-17  2.403218884929282e-19  1.129183372907504e+00
 2.403218884929282e-19 -1.030357747072185e-17  2.184445465511472e-01
 1.129183372907504e+00  2.184445465511472e-01 -4.361926505370638e-17

-3.184448532907311e-17  5.224237319282853e-19  1.060274889037183e+00
 5.224237319282853e-19 -8.709799605159409e-18  2.909750324348357e-01
 1.060274889037183e+00  2.909750324348357e-01 -4.073330614679757e-17

-2.858371660068400e-17  1.541150954722838e-19  7.347462825512510e-01
 1.541150954722838e-19 -2.344821111940197e-18  6.920559246571693e-01
 7.347462825512510e-01  6.920559246571693e-01 -3.019451500916951e-17

-3.081331936683893e-17  3.529668757796875e-19  9.590396354877024e-01
 3.529668757796875e-19 -5.119749829279542e-18  5.446490710570879e-01
 9.590396354877024e-01  5.446490710570879e-01 -3.746551493863850e-17

-3.209840787457989e-17  3.895894586254683e-19  1.128707594803788e+00
 3.895894586254683e-19 -8.911118206077192e-18  3.356399511529776e-01
 1.128707594803788e+00  3.356399511529776e-01 -4.310760038423107e-17

-3.133792839625828e-17  4.980813573490554e-19  1.093962567318701e+00
 4.980813573490554e-19 -8.524764283287485e-18  3.469507647598566e-01
 1.093962567318701e+00  3.469507647598566e-01 -4.164606584292491e-17

-2.639157573758870e-17  9.539827100940386e-19  7.227948622028182e-01
 9.539827100940386e-19 -2.973052990648739e-18  6.064604589364181e-01
 7.227948622028182e-01  6.064604589364181e-01 -2.862355764198818e-17

-3.118200743211350e-17  1.172849597617973e-19  1.191913958114479e+00
 1.172849597617973e-19 -1.304632505470045e-17  9.795675338212650e-02
 1.191913958114479e+00  9.795675338212650e-02 -4.413582762223085e-17

-3.265584465222856e-17  3.877924941947569e-19  1.367640130366057e+00
 3.877924941947569e-19 -1.609863379472837e-17 -9.163904213988999e-02
 1.367640130366057e+00 -9.163904213988999e-02 -4.865178423568258e-17

-2.676439040822908e-17  3.039861765636588e-21  7.950539363557645e-01
 3.039861765636588e-21 -6.668754844478191e-18  4.837678544530662e-01
 7.950539363557645e-01  4.837678544530662e-01 -3.177748152138835e-17

-2.795794289702662e-17 -1.257033638517246e-19  8.636625131924910e-01
-1.257033638517246e-19 -5.436340477964682e-18  5.989566406699623e-01
 8.636625131924910e-01  5.989566406699623e-01 -3.437117627292111e-17

-2.826804412507848e-17  5.283366506394858e-19  9.517728629108756e-01
 5.283366506394858e-19 -6.673286437204289e-18  4.923400096955073e-01
 9.517728629108756e-01  4.923400096955073e-01 -3.608040031664501e-17

-2.747182802649866e-17  1.076857548748598e-19  9.473933202047453e-01
 1.076857548748598e-19 -9.763398932124763e-18  3.260004715455248e-01
 9.473933202047453e-01  3.260004715455248e-01 -3.588304453568232e-17

-2.663326378295353e-17  3.786669040697122e-19  9.436650563078964e-01
 3.786669040697122e-19 -1.112671033061060e-17  2.261514043493254e-01
 9.436650563078964e-01  2.261514043493254e-01 -3.501217195576027e-17

-2.698858689831947e-17  3.612936160420920e-19  9.123060089522277e-01
 3.612936160420920e-19 -9.008282483468204e-18  3.884941784214744e-01
 9.123060089522277e-01  3.884941784214744e-01 -3.425422925940318e-17

-2.886997092402884e-17  1.018336809612592e-19  1.002807370413178e+00
 1.018336809612592e-19 -9.104276616391533e-18  4.710325867304212e-01
 1.002807370413178e+00  4.710325867304212e-01 -3.808524906202522e-17

-2.847603245220869e-17  3.097284095438457e-19  9.986404011519476e-01
 3.097284095438457e-19 -9.143490117850233e-18  4.631874247620807e-01
 9.986404011519476e-01  4.631874247620807e-01 -3.729448021620748e-17

-2.605437147106227e-17 -1.559232667341528e-19  9.940974767016137e-01
-1.559232667341528e-19 -9.912683943303377e-18  4.011604991955215e-01
 9.940974767016137e-01  4.011604991955215e-01 -3.691676266063267e-17

-1.829549988668029e-17 -2.089711025271210e-18  9.307674769143948e-01
-2.089711025271210e-18 -1.002904081115698e-17  3.550022732778095e-01
 9.307674769143948e-01  3.550022732778095e-01 -3.462971972078331e-17

-5.476862805692514e-17  7.253668261101973e-18  1.172343890733250e+00
 7.253668261101973e-18 -1.676413684564857e-17  1.323330984495815e-01
 1.172343890733250e+00  1.323330984495815e-01 -4.307117817846035e-17

-4.485158362218950e-17  5.404809300516378e-18  9.513579885001977e-01
 5.404809300516378e-18 -1.153384502825122e-17  3.685690340761618e-01
 9.513579885001977e-01  3.685690340761618e-01 -3.508582443416155e-17

-1.074719063403096e-16  2.479413983528242e-17  3.922353737723949e-01
 2.479413983528242e-17 -7.344406861190091e-18  8.645679789384499e-01
 3.922353737723949e-01  8.645679789384499e-01 -1.589011351928915e-17

-5.974725947243690e-17  1.055586691386866e-17  6.873544190324207e-01
 1.055586691386866e-17 -8.479150252696100e-18  5.917653628864958e-01
 6.873544190324207e-01  5.917653628864958e-01 -2.575717156561413e-17

-1.171799019704764e-16  2.494826376225043e-17  1.072182700736263e+00
 2.494826376225043e-17 -2.064014339153250e-17  1.886737093423015e-01
 1.072182700736263e+00  1.886737093423015e-01 -3.936243152145430e-17

-4.871387716986125e-17  6.899405925470856e-18  9.026707451278455e-01
 6.899405925470856e-18 -1.336125847457267e-17  2.824892876121847e-01
 9.026707451278455e-01  2.824892876121847e-01 -3.303425888940844e-17

-2.880327045341053e-17  1.091763110088212e-18  9.013383967266648e-01
 1.091763110088212e-18 -1.023956376436918e-17  4.139926805940005e-01
 9.013383967266648e-01  4.139926805940005e-01 -3.344797225087572e-17

-2.282951617881333e-17 -8.075653273356640e-19  9.125993899884770e-01
-8.075653273356640e-19 -9.018903802716604e-18  4.908644667244794e-01
 9.125993899884770e-01  4.908644667244794e-01 -3.412449245525694e-17

-2.561043634328029e-17  6.134546834798848e-20  9.626551065386783e-01
 6.134546834798848e-20 -9.970183929201400e-18  4.501560238350494e-01
 9.626551065386783e-01  4.501560238350494e-01 -3.546096142289579e-17

-2.524760817239512e-17  8.442679424623857e-20  9.397861624277131e-01
 8.442679424623857e-20 -1.161858096813503e-17  3.529849265129932e-01
 9.397861624277131e-01  3.529849265129932e-01 -3.451500714321677e-17

-2.558041500892472e-17  1.623250480155905e-19  9.895862042784266e-01
 1.623250480155905e-19 -1.352294858487426e-17  2.427450338878830e-01
 9.895862042784266e-01  2.427450338878830e-01 -3.603674232719390e-17

-2.483332459317494e-17  1.188269181968689e-19  9.081759358161303e-01
 1.188269181968689e-19 -1.112808707304100e-17  3.904772082200147e-01
 9.081759358161303e-01  3.904772082200147e-01 -3.326691576320056e-17

-2.548608141551577e-17  6.550036304763618e-20  9.538002263873296e-01
 6.550036304763618e-20 -1.111707047858817e-17  4.228419506376240e-01
 9.538002263873296e-01  4.228419506376240e-01 -3.495390874152270e-17

-2.611661445953089e-17  8.294240470546049e-20  1.029183992279074e+00
 8.294240470546049e-20 -1.328855840457304e-17  3.075456138693915e-01
 1.029183992279074e+00  3.075456138693915e-01 -3.743812210059647e-17

-2.572207010068528e-17  9.489504853948584e-20  9.991057757548208e-01
 9.489504853948584e-20 -1.261960378189608e-17  3.486439802129022e-01
 9.991057757548208e-01  3.486439802129022e-01 -3.635599952724424e-17

-2.494781502996544e-17  1.312281249281197e-19  9.359742741650516e-01
 1.312281249281197e-19 -1.090376703230119e-17  4.423448028597955e-01
 9.359742741650516e-01  4.423448028597955e-01 -3.402650556075630e-17

-2.426904338802224e-17  3.993806896860711e-20  9.138406771521640e-01
 3.993806896860711e-20 -1.214143610718575e-17  3.633525097805924e-01
 9.138406771521640e-01  3.633525097805924e-01 -3.315048499020561e-17

-2.476836357712308e-17  1.522706160241474e-19  9.889843980618079e-01
 1.522706160241474e-19 -1.440821223018303e-17  2.296979037714794e-01
 9.889843980618079e-01  2.296979037714794e-01 -3.544618398323016e-17

-2.456434694618216e-17  8.431983575570751e-20  9.430362210361798e-01
 8.431983575570751e-20 -1.258961195024568e-17  3.554917153096502e-01
 9.430362210361798e-01  3.554917153096502e-01 -3.401977059288448e-17

-2.581735352481238e-17 -1.272079791384708e-19  1.005740741505932e+00
-1.272079791384708e-19 -1.214970061575432e-17  4.400202963365061e-01
 1.005740741505932e+00  4.400202963365061e-01 -3.674137004232862e-17

-2.542623878462960e-17  7.605543437084230e-20  9.854986206988237e-01
 7.605543437084230e-20 -1.169886856436291e-17  4.526751176073280e-01
 9.854986206988237e-01  4.526751176073280e-01 -3.563868215797053e-17

-2.501311901391893e-17  8.634594059013284e-20  9.814529229298269e-01
 8.634594059013284e-20 -1.240822643918576e-17  3.960605439743922e-01
 9.814529229298269e-01  3.960605439743922e-01 -3.537118169638579e-17

-2.383687856424172e-17 -5.617743962891597e-20  9.174771847192591e-01
-5.617743962891597e-20 -1.282392249326072e-17  3.542983648470157e-01
 9.174771847192591e-01  3.542983648470157e-01 -3.312018100474812e-17

-2.643197625906162e-17 -1.346917703324398e-19  1.165088193119184e+00
-1.346917703324398e-19 -1.698262722479919e-17  1.279977102745275e-01
 1.165088193119184e+00  1.279977102745275e-01 -4.180352412276430e-17

-2.390183377077289e-17  6.013715774957885e-20  9.443173982969787e-01
 6.013715774957885e-20 -1.222437203504810e-17  3.640693922284841e-01
 9.443173982969787e-01  3.640693922284841e-01 -3.385882306211251e-17

-1.764681347627980e-17  3.448279748288686e-19  3.863847589134278e-01
 3.448279748288686e-19 -2.629481681821275e-18  8.611975854071660e-01
 3.863847589134278e-01  8.611975854071660e-01 -1.473159527191724e-17

-2.082134619212743e-17  1.880311421882430e-19  6.833534713188674e-01
 1.880311421882430e-19 -7.657810000500644e-18  5.878842913314326e-01
 6.833534713188674e-01  5.878842913314326e-01 -2.468047550416847e-17

-2.492774902557869e-17 -2.628966775669051e-19  1.065610000459109e+00
-2.628966775669051e-19 -1.558234159676075e-17  1.877627747493129e-01
 1.065610000459109e+00  1.877627747493129e-01 -3.821906695064496e-17

-2.278595950773730e-17  8.785587675335021e-20  8.980804688644245e-01
 8.785587675335021e-20 -1.332737749845927e-17  2.822686239912901e-01
 8.980804688644245e-01  2.822686239912901e-01 -3.199365163353053e-17

-2.334081230151183e-17 -3.409927008472177e-20  8.985372225689516e-01
-3.409927008472177e-20 -1.172598366706678e-17  4.120922096576758e-01
 8.985372225689516e-01  4.120922096576758e-01 -3.249707513614145e-17

-2.391810800684170e-17 -1.137514723917110e-19  9.097825757012119e-01
-1.137514723917110e-19 -1.093154281921943e-17  4.892512173475741e-01
 9.097825757012119e-01  4.892512173475741e-01 -3.320293747380826e-17

-2.433679421654965e-17  8.189696233073580e-20  9.582249078610653e-01
 8.189696233073580e-20 -1.159453956646995e-17  4.503726673902061e-01
 9.582249078610653e-01  4.503726673902061e-01 -3.451812075429807e-17

-2.365031367009951e-17 -3.105721244904372e-21  9.345718435895878e-01
-3.105721244904372e-21 -1.319639442452008e-17  3.494589926916965e-01
 9.345718435895878e-01  3.494589926916965e-01 -3.354113750376354e-17

-2.407572263176835e-17  9.277513240988867e-20  1.001969434081687e+00
 9.277513240988867e-20 -1.540836605469879e-17  2.164620135880454e-01
 1.001969434081687e+00  2.164620135880454e-01 -3.556022381476885e-17

-2.379657473295449e-17  4.586482437229494e-20  9.478036675604784e-01
 4.586482437229494e-20 -1.340534421187416e-17  3.486673271977492e-01
 9.478036675604784e-01  3.486673271977492e-01 -3.383122989969729e-17

-2.505973780048217e-17 -1.636606876628587e-19  1.009544866951562e+00
-1.636606876628587e-19 -1.288021221645475e-17  4.351955623327726e-01
 1.009544866951562e+00  4.351955623327726e-01 -3.650877213046443e-17

-2.471731634041529e-17  1.212546414315643e-20  9.889081703958370e-01
 1.212546414315643e-20 -1.235009177298867e-17  4.494280926789896e-01
 9.889081703958370e-01  4.494280926789896e-01 -3.540865286128877e-17

-2.427702739213645e-17  4.059290939149872e-20  9.832669718560747e-01
 4.059290939149872e-20 -1.301604487824959e-17  3.943825330265470e-01
 9.832669718560747e-01  3.943825330265470e-01 -3.509703097620596e-17

-2.305575976983476e-17 -1.022788443008135e-19  9.139384823233047e-01
-1.022788443008135e-19 -1.331870867130567e-17  3.564788017406243e-01
 9.139384823233047e-01  3.564788017406243e-01 -3.266905547509260e-17

-2.572434357159216e-17 -1.931062964471648e-19  1.167430366235069e+00
-1.931062964471648e-19 -1.757820069753948e-17  1.245300163789092e-01
 1.167430366235069e+00  1.245300163789092e-01 -4.156795886246262e-17

-2.321258051551575e-17  6.041119384127737e-21  9.470670166382578e-01
 6.041119384127737e-21 -1.282219856125308e-17  3.592036354600696e-01
 9.470670166382578e-01  3.592036354600696e-01 -3.364493552668881e-17

-1.696250556887971e-17  2.924278918660202e-19  3.862941745405634e-01
 2.924278918660202e-19 -3.129616236143355e-18  8.615090662115159e-01
 3.862941745405634e-01  8.615090662115159e-01 -1.443843044731955e-17

-2.012021983333028e-17  1.390814019306354e-19  6.825077426877584e-01
 1.390814019306354e-19 -8.121666171625928e-18  5.892002484642030e-01
 6.825077426877584e-01  5.892002484642030e-01 -2.435845958070140e-17

-2.423238916381000e-17 -3.055175641405002e-19  1.064452321685655e+00
-3.055175641405002e-19 -1.601359087068125e-17  1.891629397252855e-01
 1.064452321685655e+00  1.891629397252855e-01 -3.789060758080888e-17

-2.216398994407426e-17  4.666878418382176e-20  8.991113811040731e-01
 4.666878418382176e-20 -1.377237780498621e-17  2.825524252510502e-01
 8.991113811040731e-01  2.825524252510502e-01 -3.175150320051125e-17

-2.271188320059378e-17 -7.147276069984292e-20  8.995245201981243e-01
-7.147276069984292e-20 -1.214649040553427e-17  4.115066548604452e-01
 8.995245201981243e-01  4.115066548604452e-01 -3.226240403969445e-17

-2.328729302917379e-17 -1.472415642860281e-19  9.105488754546759e-01
-1.472415642860281e-19 -1.134175415396013e-17  4.885172926802827e-01
 9.105488754546759e-01  4.885172926802827e-01 -3.296531892824831e-17

-2.373146851007639e-17  4.778940589556684e-20  9.584240575958014e-01
 4.778940589556684e-20 -1.196991215349010e-17  4.503068910194042e-01
 9.584240575958014e-01  4.503068910194042e-01 -3.427315689393442e-17

-2.306252675074400e-17 -3.806952259892849e-20  9.345756438693372e-01
-3.806952259892849e-20 -1.354088420101656e-17  3.496200797060806e-01
 9.345756438693372e-01  3.496200797060806e-01 -3.330041304608074e-17

-2.349989547257947e-17  5.773031531713858e-20  1.001792585367258e+00
 5.773031531713858e-20 -1.573260425450659e-17  2.166574068439405e-01
 1.001792585367258e+00  2.166574068439405e-01 -3.532132809703342e-17

-2.323320703749136e-17  1.495756771692304e-20  9.475427128262430e-01
 1.495756771692304e-20 -1.371082684883491e-17  3.488118817161303e-01
 9.475427128262430e-01  3.488118817161303e-01 -3.359546834145794e-17

-2.450762136746362e-17 -1.913132105776481e-19  1.008732551091430e+00
-1.913132105776481e-19 -1.315973339315008e-17  4.355955322133664e-01
 1.008732551091430e+00  4.355955322133664e-01 -3.626420928623199e-17

-2.418160586448685e-17 -1.823478811446453e-20  9.878374436250944e-01
-1.823478811446453e-20 -1.262444879840378e-17  4.495049400123018e-01
 9.878374436250944e-01  4.495049400123018e-01 -3.516671351819547e-17

-2.377783253576153e-17  3.176269812125616e-21  9.839875933692213e-01
 3.176269812125616e-21 -1.332934662424165e-17  3.925628530640607e-01
 9.839875933692213e-01  3.925628530640607e-01 -3.493004711400145e-17

-2.269536656814591e-17 -1.349584610356269e-19  9.246864051074778e-01
-1.349584610356269e-19 -1.372853114275048e-17  3.495117602423602e-01
 9.246864051074778e-01  3.495117602423602e-01 -3.286136061341263e-17

-2.520962927928716e-17 -1.978498804657795e-19  1.163881666939597e+00
-1.978498804657795e-19 -1.769860909822251e-17  1.319166460023924e-01
 1.163881666939597e+00  1.319166460023924e-01 -4.125743168978826e-17

-2.275659556161371e-17 -1.054853018928396e-20  9.467989648606241e-01
-1.054853018928396e-20 -1.296535846638388e-17  3.654750627638220e-01
 9.467989648606241e-01  3.654750627638220e-01 -3.345425077756382e-17

-1.663083750699531e-17  2.955789193903243e-19  3.997837743646562e-01
 2.955789193903243e-19 -3.520830050600782e-18  8.513206231855488e-01
 3.997837743646562e-01  8.513206231855488e-01 -1.467245625182890e-17

-1.976731264017472e-17  1.244723775305361e-19  6.928076931184954e-01
 1.244723775305361e-19 -8.512025294217388e-18  5.799065484670020e-01
 6.928076931184954e-01  5.799065484670020e-01 -2.452796683589067e-17

-2.378231331111189e-17 -3.404467766469311e-19  1.065460938545928e+00
-3.404467766469311e-19 -1.627835003620028e-17  1.869555170402752e-01
 1.065460938545928e+00  1.869555170402752e-01 -3.775720394476348e-17

-2.167263567231984e-17  1.598227082857803e-20  8.980310698984488e-01
 1.598227082857803e-20 -1.396238174687520e-17  2.826347631075381e-01
 8.980310698984488e-01  2.826347631075381e-01 -3.154525453657305e-17

-2.224982201768180e-17 -9.298851810882376e-20  8.986860158970361e-01
-9.298851810882376e-20 -1.231063220973126e-17  4.117980347546156e-01
 8.986860158970361e-01  4.117980347546156e-01 -3.206607794270931e-17

-2.285653802437601e-17 -1.670958841242453e-19  9.099162168483647e-01
-1.670958841242453e-19 -1.149625939084361e-17  4.887550588845808e-01
 9.099162168483647e-01  4.887550588845808e-01 -3.278060797422890e-17

-2.330076411474754e-17  2.992334637956734e-20  9.580308334228907e-01
 2.992334637956734e-20 -1.211326002929969e-17  4.505343188605251e-01
 9.580308334228907e-01  4.505343188605251e-01 -3.410477813765473e-17

-2.265156036348589e-17 -5.640001018380510e-20  9.344688595737204e-01
-5.640001018380510e-20 -1.367305127860277e-17  3.497963978562246e-01
 9.344688595737204e-01  3.497963978562246e-01 -3.314753937937800e-17

-2.310035645713177e-17  3.942228029459085e-20  1.001910275451864e+00
 3.942228029459085e-20 -1.585738470735657e-17  2.167846984330987e-01
 1.001910275451864e+00  2.167846984330987e-01 -3.518150812816708e-17

-2.283938092219198e-17 -1.753400405011309e-21  9.473772030901514e-01
-1.753400405011309e-21 -1.382974592293722e-17  3.488201265224078e-01
 9.473772030901514e-01  3.488201265224078e-01 -3.344990946959029e-17

-2.413490144221830e-17 -2.067820294336498e-19  1.009399555318265e+00
-2.067820294336498e-19 -1.330532022653127e-17  4.338194654592762e-01
 1.009399555318265e+00  4.338194654592762e-01 -3.615456102530594e-17

-2.395985589169376e-17 -3.773863311824230e-20  9.998584079806117e-01
-3.773863311824230e-20 -1.290873584954669e-17  4.410093324331708e-01
 9.998584079806117e-01  4.410093324331708e-01 -3.547634534913368e-17

-2.343666912860702e-17  2.906957407528158e-20  9.841891826145021e-01
 2.906957407528158e-20 -1.322495184950775e-17  4.021544890632442e-01
 9.841891826145021e-01  4.021544890632442e-01 -3.478734143578375e-17

-2.213091213851912e-17 -1.192940230160682e-19  9.064570264147962e-01
-1.192940230160682e-19 -1.341240383920433e-17  3.681720054474480e-01
 9.064570264147962e-01  3.681720054474480e-01 -3.207972715722909e-17

-2.511406396875298e-17 -2.781434011977570e-19  1.187744567764220e+00
-2.781434011977570e-19 -1.825688547740012e-17  1.072352421921573e-01
 1.187744567764220e+00  1.072352421921573e-01 -4.198012540404411e-17

-2.239179408243850e-17 -4.785719012514390e-20  9.496393098443672e-01
-4.785719012514390e-20 -1.326398511659515e-17  3.504371854016572e-01
 9.496393098443672e-01  3.504371854016572e-01 -3.343555513498978e-17

-1.595955646102687e-17  2.391204381543935e-19  3.717136526478311e-01
 2.391204381543935e-19 -3.231417777938319e-18  8.705924211096713e-01
 3.717136526478311e-01  8.705924211096713e-01 -1.367799684157854e-17

-1.918674061703828e-17  9.300245795331305e-20  6.728432240787537e-01
 9.300245795331305e-20 -8.240399168822947e-18  5.963846613125975e-01
 6.728432240787537e-01  5.963846613125975e-01 -2.373515431285199e-17

-2.340497049106153e-17 -3.388791211623160e-19  1.062609402098534e+00
-3.388791211623160e-19 -1.621027351656780e-17  1.909068027733706e-01
 1.062609402098534e+00  1.909068027733706e-01 -3.752819938865113e-17

-2.135258233927229e-17  7.263814263254239e-21  8.989581618206702e-01
 7.263814263254239e-21 -1.398308225203832e-17  2.831469100677223e-01
 8.989581618206702e-01  2.831469100677223e-01 -3.146016259693005e-17

-2.195105884221683e-17 -1.042046846222818e-19  8.998153162389528e-01
-1.042046846222818e-19 -1.235439339888556e-17  4.117596807500223e-01
 8.998153162389528e-01  4.117596807500223e-01 -3.200230792849802e-17

-2.252203515433338e-17 -1.743892091984576e-19  9.107912656017743e-01
-1.743892091984576e-19 -1.153853315200103e-17  4.887514004655236e-01
 9.107912656017743e-01  4.887514004655236e-01 -3.271124925678410e-17

-2.304659641392473e-17  3.139444510749283e-20  9.588618837728569e-01
 3.139444510749283e-20 -1.216427021787296e-17  4.502951392395743e-01
 9.588618837728569e-01  4.502951392395743e-01 -3.403160151911229e-17

-2.256813519965188e-17  5.910623017422677e-22  9.349533719336868e-01
 5.910623017422677e-22 -1.372595244989593e-17  3.494561850754119e-01
 9.349533719336868e-01  3.494561850754119e-01 -3.306757225559280e-17

-2.283372089705535e-17  3.928912954669818e-20  1.002089633748562e+00
 3.928912954669818e-20 -1.588414025430130e-17  2.165194217979120e-01
 1.002089633748562e+00  2.165194217979120e-01 -3.509283748301554e-17

-2.289330674758411e-17  9.427851013608222e-20  9.479722903214329e-01
 9.427851013608222e-20 -1.387904118046840e-17  3.486583686190187e-01
 9.479722903214329e-01  3.486583686190187e-01 -3.337835349917854e-17

-1.923897518658403e-17 -1.651902144931933e-18  1.009490518274367e+00
-1.651902144931933e-18 -1.282425345622169e-17  4.354615030713528e-01
 1.009490518274367e+00  4.354615030713528e-01 -3.606744018640549e-17

-3.356182905491152e-17  3.106203728154289e-18  9.889761866523522e-01
 3.106203728154289e-18 -1.369802141556772e-17  4.496611231036450e-01
 9.889761866523522e-01  4.496611231036450e-01 -3.498847212732891e-17

-1.110943673947248e-17 -3.781627385351750e-18  9.834453558585068e-01
-3.781627385351750e-18 -1.217353494962234e-17  3.944780376594402e-01
 9.834453558585068e-01  3.944780376594402e-01 -3.469221224527359e-17

 4.249335608410697e-17 -2.041923765902386e-17  9.151941460519021e-01
-2.041923765902386e-17 -7.274027426314824e-18  3.559256525561736e-01
 9.151941460519021e-01  3.559256525561736e-01 -3.231489216336025e-17

 2.452554990656259e-17 -1.571122779940222e-17  1.167144366711471e+00
-1.571122779940222e-17 -1.299560236402095e-17  1.254315218676361e-01
 1.167144366711471e+00  1.254315218676361e-01 -4.116572648267783e-17

-8.786683489788307e-17  2.067205899827739e-17  9.475983008399902e-01
 2.067205899827739e-17 -1.963175442277087e-17  3.595799972965916e-01
 9.475983008399902e-01  3.595799972965916e-01 -3.328087956467026e-17

 2.431781199777814e-17 -1.244404061895887e-17  3.900636585199810e-01
-1.244404061895887e-17  5.641362430551867e-19  8.593739377402126e-01
 3.900636585199810e-01  8.593739377402126e-01 -1.418570463447888e-17

 9.101826468173497e-18 -8.800787969293132e-18  6.847717642142523e-01
-8.800787969293132e-18 -5.598190376552272e-18  5.880746103973215e-01
 6.847717642142523e-01  5.880746103973215e-01 -2.406596743941289e-17

-3.274510813109162e-17  2.669883073938664e-18  1.063867903803117e+00
 2.669883073938664e-18 -1.719650743471871e-17  1.901020462025660e-01
 1.063867903803117e+00  1.901020462025660e-01 -3.750827463103958e-17

-2.310414716746686e-17  6.246555336735952e-19  8.995689412862852e-01
 6.246555336735952e-19 -1.418761624002079e-17  2.830578841406924e-01
 8.995689412862852e-01  2.830578841406924e-01 -3.141573940707484e-17

-2.125904769242130e-17 -2.498056063650856e-19  8.997937821059198e-01
-2.498056063650856e-19 -1.229628000095984e-17  4.117827296408874e-01
 8.997937821059198e-01  4.117827296408874e-01 -3.192882665230322e-17

-2.236254688945290e-17 -1.542092489889364e-19  9.108104737265046e-01
-1.542092489889364e-19 -1.153026973139408e-17  4.884266230981582e-01
 9.108104737265046e-01  4.884266230981582e-01 -3.263706281124019e-17

-2.308283506594737e-17  1.148974014028276e-19  9.584604419974408e-01
 1.148974014028276e-19 -1.215590387352854e-17  4.505194625312733e-01
 9.584604419974408e-01  4.505194625312733e-01 -3.395093069297592e-17

-2.216762167043064e-17 -5.796703671963624e-20  9.348600095379821e-01
-5.796703671963624e-20 -1.367780521502612e-17  3.498058936823092e-01
 9.348600095379821e-01  3.498058936823092e-01 -3.299942291606951e-17

-2.256612858793244e-17  1.832021009102074e-20  1.002262685636627e+00
 1.832021009102074e-20 -1.584676498899847e-17  2.168481354509527e-01
 1.002262685636627e+00  2.168481354509527e-01 -3.503577032288475e-17

-2.235317158553543e-17 -1.081109634326097e-20  9.481810058849776e-01
-1.081109634326097e-20 -1.381298793345674e-17  3.491109607284635e-01
 9.481810058849776e-01  3.491109607284635e-01 -3.332596356692035e-17

-2.364697053946997e-17 -2.181130951467758e-19  1.010071643560322e+00
-2.181130951467758e-19 -1.325098387994272e-17  4.356475372661107e-01
 1.010071643560322e+00  4.356475372661107e-01 -3.602822218147730e-17

-2.334506422517077e-17 -3.534412753100279e-20  9.895748695939501e-01
-3.534412753100279e-20 -1.267214114066751e-17  4.500228164516052e-01
 9.895748695939501e-01  4.500228164516052e-01 -3.495188635355457e-17

-2.292704056624066e-17 -6.493723789247007e-21  9.834003953883538e-01
-6.493723789247007e-21 -1.329667341361791e-17  3.955426847256976e-01
 9.834003953883538e-01  3.955426847256976e-01 -3.463217719711260e-17

-2.170538856069223e-17 -1.535727421344857e-19  9.118741956713835e-01
-1.535727421344857e-19 -1.354724440715961e-17  3.586172007730593e-01
 9.118741956713835e-01  3.586172007730593e-01 -3.214133444321114e-17

-2.442934578288144e-17 -2.523608322638748e-19  1.169390937455313e+00
-2.523608322638748e-19 -1.786846288120774e-17  1.228204924778610e-01
 1.169390937455313e+00  1.228204924778610e-01 -4.118662482340816e-17

-2.191089696875381e-17 -4.715292105767613e-20  9.466042815556994e-01
-4.715292105767613e-20 -1.305197020343795e-17  3.594639848893921e-01
 9.466042815556994e-01  3.594639848893921e-01 -3.319018319347305e-17

-1.561594840879622e-17  2.410813802147299e-19  3.804434205742193e-01
 2.410813802147299e-19 -3.254110075298556e-18  8.668991098902442e-01
 3.804434205742193e-01  8.668991098902442e-01 -1.383058963205203e-17

-1.882960138196701e-17  9.012237210918370e-20  6.804842935962914e-01
 9.012237210918370e-20 -8.284018145775428e-18  5.918950645748400e-01
 6.804842935962914e-01  5.918950645748400e-01 -2.386974717624373e-17

-2.298767215893494e-17 -3.574914255845845e-19  1.064834322187525e+00
-3.574914255845845e-19 -1.620050193670001e-17  1.896887854212712e-01
 1.064834322187525e+00  1.896887854212712e-01 -3.748679095347528e-17

-2.091532044910101e-17 -7.353844874053910e-21  8.989913827595338e-01
-7.353844874053910e-21 -1.392956876737734e-17  2.836612804863745e-01
 8.989913827595338e-01  2.836612804863745e-01 -3.134410118189704e-17

-2.151055144108759e-17 -1.168013051743064e-19  8.996519635120988e-01
-1.168013051743064e-19 -1.228616565901204e-17  4.126132064272184e-01
 8.996519635120988e-01  4.126132064272184e-01 -3.188130988627297e-17

-2.211750891930904e-17 -1.857745222807566e-19  9.105438515690258e-01
-1.857745222807566e-19 -1.146349249178389e-17  4.898654566225251e-01
 9.105438515690258e-01  4.898654566225251e-01 -3.259191891811301e-17

-2.258445760333393e-17  1.224776721793400e-20  9.585470216326784e-01
 1.224776721793400e-20 -1.207490151369301e-17  4.514652860577187e-01
 9.585470216326784e-01  4.514652860577187e-01 -3.391737140358250e-17

-2.194443831704766e-17 -7.228524283460505e-20  9.346349229513012e-01
-7.228524283460505e-20 -1.362509681371866e-17  3.507475324628198e-01
 9.346349229513012e-01  3.507475324628198e-01 -3.295852677149002e-17

-2.240521420063863e-17  2.466163894546728e-20  1.001903012272652e+00
 2.466163894546728e-20 -1.580065772631042e-17  2.178532900381105e-01
 1.001903012272652e+00  2.178532900381105e-01 -3.499419917365827e-17

-2.216267239014851e-17 -1.172480910254569e-20  9.477758860670343e-01
-1.172480910254569e-20 -1.376623835717921e-17  3.500030575836884e-01
 9.477758860670343e-01  3.500030575836884e-01 -3.328485103973513e-17

-2.347336242132587e-17 -2.093035404168845e-19  1.009441621257975e+00
-2.093035404168845e-19 -1.319794093387061e-17  4.369797886614299e-01
 1.009441621257975e+00  4.369797886614299e-01 -3.598702879033629e-17

-2.318057209456163e-17 -2.736691279088469e-20  9.891444376967780e-01
-2.736691279088469e-20 -1.263241105535459e-17  4.515087900452485e-01
 9.891444376967780e-01  4.515087900452485e-01 -3.492242802759571e-17

-2.277037620175660e-17  2.946341387647110e-21  9.834596636773788e-01
 2.946341387647110e-21 -1.326848402483485e-17  3.969111508244067e-01
 9.834596636773788e-01  3.969111508244067e-01 -3.462442524496659e-17

-2.157597882596545e-17 -1.398637471826891e-19  9.130674117516026e-01
-1.398637471826891e-19 -1.353024425232895e-17  3.599428823703369e-01
 9.130674117516026e-01  3.599428823703369e-01 -3.217704268985674e-17

-2.428643254548968e-17 -2.348079265327802e-19  1.168793406925636e+00
-2.348079265327802e-19 -1.781624141225912e-17  1.261086391949321e-01
 1.168793406925636e+00  1.261086391949321e-01 -4.116280290562713e-17

-2.179359350713338e-17 -2.893077534744369e-20  9.475200259624809e-01
-2.893077534744369e-20 -1.303062765400033e-17  3.618136422524683e-01
 9.475200259624809e-01  3.618136422524683e-01 -3.322224781967831e-17

-1.553576970132840e-17  2.697792769356309e-19  3.843307225106776e-01
 2.697792769356309e-19 -3.282143927904725e-18  8.670004981231908e-01
 3.843307225106776e-01  8.670004981231908e-01 -1.395987086170204e-17

-1.874186819910655e-17  1.119544070392389e-19  6.833991203943575e-01
 1.119544070392389e-19 -8.306702189003622e-18  5.925255303072373e-01
 6.833991203943575e-01  5.925255303072373e-01 -2.397702830136822e-17

-2.286245735831107e-17 -3.316699163278700e-19  1.064574983037330e+00
-3.316699163278700e-19 -1.617655318186179e-17  1.927776377869938e-01
 1.064574983037330e+00  1.927776377869938e-01 -3.748898262335344e-17

-2.081874524939955e-17  2.422132735935098e-20  8.992107576912837e-01
 2.422132735935098e-20 -1.390319587039065e-17  2.877876059258845e-01
 8.992107576912837e-01  2.877876059258845e-01 -3.137093574692409e-17

-2.137224639646801e-17 -8.125557520125425e-20  8.998194483675164e-01
-8.125557520125425e-20 -1.226452650697509e-17  4.176018179461615e-01
 8.998194483675164e-01  4.176018179461615e-01 -3.191710754417407e-17

-2.203637904558182e-17 -1.267494041331906e-19  9.107728044868765e-01
-1.267494041331906e-19 -1.145116422482406e-17  4.953289851707845e-01
 9.107728044868765e-01  4.953289851707845e-01 -3.263643502368245e-17

-2.304748541512981e-17  1.247097607084725e-19  9.584616010543393e-01
 1.247097607084725e-19 -1.206320084583996e-17  4.583270141835771e-01
 9.584616010543393e-01  4.583270141835771e-01 -3.396560038588366e-17

-2.037283122440434e-17 -1.452235114691396e-19  9.338716756989780e-01
-1.452235114691396e-19 -1.356509048737678e-17  3.603944394072081e-01
 9.338716756989780e-01  3.603944394072081e-01 -3.299513746171286e-17

-2.350581939936187e-17  2.148007317129547e-19  9.998341347109901e-01
 2.148007317129547e-19 -1.574200090234946e-17  2.301964549309543e-01
 9.998341347109901e-01  2.301964549309543e-01 -3.499614703139479e-17

-3.573318817636014e-17  1.415878563597828e-18  9.426079361803018e-01
 1.415878563597828e-18 -1.376269611993028e-17  3.678205135722160e-01
 9.426079361803018e-01  3.678205135722160e-01 -3.319341627069106e-17

 4.820888624319558e-17 -7.126077043388903e-18  9.956967730999358e-01
-7.126077043388903e-18 -1.232666646158538e-17  4.599363959447915e-01
 9.956967730999358e-01  4.599363959447915e-01 -3.559052128232775e-17

-5.682294524555591e-17  3.448967180879531e-18  9.596193339802040e-01
 3.448967180879531e-18 -1.295376270705668e-17  4.729991650902935e-01
 9.596193339802040e-01  4.729991650902935e-01 -3.398699913624159e-17

 8.448183635147192e-18 -3.059198902005343e-18  9.814380483946398e-01
-3.059198902005343e-18 -1.399176406160254e-17  3.739891933451965e-01
 9.814380483946398e-01  3.739891933451965e-01 -3.466480340535671e-17

-2.251735071723190e-17 -6.500357084250943e-20  1.138224839494550e+00
-6.500357084250943e-20 -1.763496419763010e-17  1.788093920483805e-01
 1.138224839494550e+00  1.788093920483805e-01 -3.981951910298506e-17

-2.343981348036934e-17  1.254449623322195e-19  9.283099991422882e-01
 1.254449623322195e-19 -1.377291674690270e-17  4.124090179520006e-01
 9.283099991422882e-01  4.124090179520006e-01 -3.281736479455388e-17

-2.207325180303751e-17 -1.335918855649192e-19  8.279545391584436e-01
-1.335918855649192e-19 -1.163591666055953e-17  5.558058723237953e-01
 8.279545391584436e-01  5.558058723237953e-01 -2.972130214917130e-17

-2.449788943491624e-17 -6.758467750108191e-20  1.068881654858919e+00
-6.758467750108191e-20 -1.488500864571439e-17  3.866860868893669e-01
 1.068881654858919e+00  3.866860868893669e-01 -3.804049352512997e-17

-2.470142502691551e-17 -7.554167250661361e-20  1.086077042014730e+00
-7.554167250661361e-20 -1.477427392108569e-17  4.092607984050724e-01
 1.086077042014730e+00  4.092607984050724e-01 -3.851963772676970e-17

-2.349890193882243e-17 -1.673911969844759e-19  1.023015593108425e+00
-1.673911969844759e-19 -1.443627437482376e-17  3.934450164369862e-01
 1.023015593108425e+00  3.934450164369862e-01 -3.606290631712254e-17

-2.368059926696237e-17 -3.155161139567883e-19  1.059833577253168e+00
-3.155161139567883e-19 -1.572456388800373e-17  3.152673507910234e-01
 1.059833577253168e+00  3.152673507910234e-01 -3.743010924798891e-17

-2.321518972059516e-17 -2.861016816324177e-19  1.030716710703755e+00
-2.861016816324177e-19 -1.541996314532913e-17  3.194809041619388e-01
 1.030716710703755e+00  3.194809041619388e-01 -3.632474359977377e-17

-2.240149886118189e-17 -2.097664871780879e-19  9.666118969803519e-01
-2.097664871780879e-19 -1.387159910739035e-17  3.895948952605810e-01
 9.666118969803519e-01  3.895948952605810e-01 -3.398441743915882e-17

-2.220689912347354e-17 -1.065498747130224e-19  9.485376397825213e-01
-1.065498747130224e-19 -1.272777162957552e-17  4.425189248026997e-01
 9.485376397825213e-01  4.425189248026997e-01 -3.330813401436783e-17

-2.031996582644785e-17  1.080415210453030e-19  7.964820031770695e-01
 1.080415210453030e-19 -9.791030604747984e-18  5.734464721657182e-01
 7.964820031770695e-01  5.734464721657182e-01 -2.781898442952686e-17

-1.747690142665111e-17  2.825542610463980e-19  5.597257581563050e-01
 2.825542610463980e-19 -6.698603781926225e-18  7.212335338485585e-01
 5.597257581563050e-01  7.212335338485585e-01 -1.952299320971703e-17

-2.184557678378114e-17 -1.153967159976286e-19  9.762620480521230e-01
-1.153967159976286e-19 -1.528984521755440e-17  2.675699938073086e-01
 9.762620480521230e-01  2.675699938073086e-01 -3.407104388076369e-17

-2.289725662893423e-17  3.629194024086762e-19  1.072022350010204e+00
 3.629194024086762e-19 -1.709365424838961e-17  1.368104979396872e-01
 1.072022350010204e+00  1.368104979396872e-01 -3.642478761643540e-17

-2.247684592431456e-17 -6.218452247630705e-20  9.429244010692550e-01
-6.218452247630705e-20 -1.341261977711294e-17  4.254914325305242e-01
 9.429244010692550e-01  4.254914325305242e-01 -3.353723087837727e-17

-2.454412022215976e-17 -6.958166336697362e-20  1.033076568446029e+00
-6.958166336697362e-20 -1.192137633894290e-17  5.892831685998623e-01
 1.033076568446029e+00  5.892831685998623e-01 -3.775323919352127e-17

-2.224305254587708e-17  1.672350225118586e-19  1.004733687055779e+00
 1.672350225118586e-19 -1.284917304880134e-17  4.621981989024671e-01
 1.004733687055779e+00  4.621981989024671e-01 -3.560018169252697e-17

-2.423613750491141e-17 -2.196670164485951e-19  9.571722502264521e-01
-2.196670164485951e-19 -1.616388658522310e-17  2.719077553846331e-01
 9.571722502264521e-01  2.719077553846331e-01 -3.378974765023376e-17

-1.418011937566187e-17 -9.141052928085152e-19  9.025360923547200e-01
-9.141052928085152e-19 -1.402974705535735e-17  3.349457530157830e-01
 9.025360923547200e-01  3.349457530157830e-01 -3.142923235464128e-17

-1.199491913652230e-16  1.369927289093757e-17  9.210788520627948e-01
 1.369927289093757e-17 -1.513952717409246e-17  4.279214969944904e-01
 9.210788520627948e-01  4.279214969944904e-01 -3.247500007342287e-17

-1.726591189531059e-17 -1.015111603756703e-18  1.029410428726998e+00
-1.015111603756703e-18 -1.414665447305066e-17  4.380421854921658e-01
 1.029410428726998e+00  4.380421854921658e-01 -3.673720311045110e-17

 8.718671817477913e-18 -4.774645553376935e-18  1.114186628445727e+00
-4.774645553376935e-18 -1.452260594845893e-17  4.159962497239762e-01
 1.114186628445727e+00  4.159962497239762e-01 -3.974340712089897e-17

-2.879862237945220e-17  9.126342505158063e-19  9.560536046381312e-01
 9.126342505158063e-19 -1.252434694652840e-17  5.776960968034603e-01
 9.560536046381312e-01  5.776960968034603e-01 -3.418061766927795e-17

-2.757215504696469e-17  5.372447972018412e-19  1.016208391580604e+00
 5.372447972018412e-19 -1.456975054236501e-17  4.550706372698625e-01
 1.016208391580604e+00  4.550706372698625e-01 -3.615249285361935e-17

-2.804199224682351e-17 -5.069242072708736e-19  1.493188571228798e+00
-5.069242072708736e-19 -2.228527074399709e-17  3.886747380514013e-02
 1.493188571228798e+00  3.886747380514013e-02 -5.255658946902591e-17

-2.426683923341896e-17 -4.581763828610938e-19  1.177425322299148e+00
-4.581763828610938e-19 -1.787546157033707e-17  2.706992473187734e-01
 1.177425322299148e+00  2.706992473187734e-01 -4.178963928867458e-17

-2.423824136130609e-17 -8.861175291149205e-20  1.005949744072089e+00
-8.861175291149205e-20 -1.432628134482171e-17  4.567013373445715e-01
 1.005949744072089e+00  4.567013373445715e-01 -3.572318248903259e-17

-2.372237069944537e-17 -7.810405480985294e-20  1.029338544115956e+00
-7.810405480985294e-20 -1.428196519031811e-17  4.237102843842176e-01
 1.029338544115956e+00  4.237102843842176e-01 -3.631122719576724e-17

-2.265872519387242e-17 -1.349051634859968e-19  9.705236265037737e-01
-1.349051634859968e-19 -1.373094305947902e-17  4.179669986680724e-01
 9.705236265037737e-01  4.179669986680724e-01 -3.418166180718368e-17

-2.279248605098295e-17 -1.681868024778333e-19  9.993404434311646e-01
-1.681868024778333e-19 -1.455777883422008e-17  3.599840533059029e-01
 9.993404434311646e-01  3.599840533059029e-01 -3.521440568608730e-17

-2.158638452987929e-17 -2.189683394826152e-20  8.991486267075425e-01
-2.189683394826152e-20 -1.216077184218521e-17  4.735222309066190e-01
 8.991486267075425e-01  4.735222309066190e-01 -3.156693732082751e-17

-2.332278624790325e-17  3.496121532757784e-20  1.073881467564864e+00
 3.496121532757784e-20 -1.613651058637785e-17  2.464178601264828e-01
 1.073881467564864e+00  2.464178601264828e-01 -3.748502869273823e-17

-2.459091608537720e-17  2.629088250924195e-19  1.194368445098508e+00
 2.629088250924195e-19 -1.809359903514813e-17  1.331920909326261e-01
 1.194368445098508e+00  1.331920909326261e-01 -4.130219577584179e-17

-2.227494903105022e-17 -6.799043658411798e-20  9.297611206201631e-01
-6.799043658411798e-20 -1.309732953202455e-17  4.555942133438543e-01
 9.297611206201631e-01  4.555942133438543e-01 -3.298447918572750e-17

-2.374640751083047e-17 -1.216024772790701e-19  1.010692407159148e+00
-1.216024772790701e-19 -1.254604565321819e-17  5.333427306968701e-01
 1.010692407159148e+00  5.333427306968701e-01 -3.620285433225420e-17

-2.258735956574907e-17  2.420619197775627e-19  9.494422124484048e-01
 2.420619197775627e-19 -1.297121788369697e-17  4.693641860594323e-01
 9.494422124484048e-01  4.693641860594323e-01 -3.351071414652277e-17

-2.767872086204229e-17 -4.308372785977577e-20  1.444515313029764e+00
-4.308372785977577e-20 -2.226634393439508e-17 -4.942032722324106e-02
 1.444515313029764e+00 -4.942032722324106e-02 -4.959124415370725e-17

-2.354830028452545e-17 -5.613791932479882e-20  1.053219546306820e+00
-5.613791932479882e-20 -1.588547216248932e-17  3.080724694043176e-01
 1.053219546306820e+00  3.080724694043176e-01 -3.714496353329912e-17

-1.746335610806877e-17 -3.663187111295159e-19  4.623078939188084e-01
-3.663187111295159e-19 -6.387206934149721e-18  8.775279221220387e-01
 4.623078939188084e-01  8.775279221220387e-01 -1.825084319240182e-17

-2.231398202385984e-17 -2.148286081791174e-19  9.019907363179961e-01
-2.148286081791174e-19 -1.205604605063113e-17  5.560626145094133e-01
 9.019907363179961e-01  5.560626145094133e-01 -3.255644457230649e-17

-2.437820545933224e-17 -2.546638176319269e-20  1.109703695461066e+00
-2.546638176319269e-20 -1.633810657823990e-17  3.050992415390129e-01
 1.109703695461066e+00  3.050992415390129e-01 -3.929842986061749e-17

-2.437591208549910e-17  5.411521299877737e-20  1.109302020835697e+00
 5.411521299877737e-20 -1.629490146686721e-17  3.055136308584113e-01
 1.109302020835697e+00  3.055136308584113e-01 -3.918557214004801e-17

-2.146268943520438e-17  1.796909336978156e-20  8.256961977880586e-01
 1.796909336978156e-20 -1.149812048606767e-17  5.851503710586672e-01
 8.256961977880586e-01  5.851503710586672e-01 -2.940378494012364e-17

-2.283375173909224e-17  2.170780374453894e-19  9.566168984281254e-01
 2.170780374453894e-19 -1.418458308608065e-17  4.320069331026116e-01
 9.566168984281254e-01  4.320069331026116e-01 -3.359746014260530e-17

-2.532539704232183e-17  6.741995248222632e-19  1.195459467226844e+00
 6.741995248222632e-19 -1.855963166114546e-17  1.784468481285522e-01
 1.195459467226844e+00  1.784468481285522e-01 -4.070337252971928e-17

-2.531324774209684e-17  4.935893749450050e-20  1.086121783502489e+00
 4.935893749450050e-20 -1.589470036234452e-17  4.436649822252628e-01
 1.086121783502489e+00  4.436649822252628e-01 -3.897571730210109e-17

-2.424238445318108e-17 -5.805459243823754e-19  8.882080886978491e-01
-5.805459243823754e-19 -1.249237967361548e-17  7.671537205943064e-01
 8.882080886978491e-01  7.671537205943064e-01 -3.447312320764938e-17

-2.798939465328444e-17 -1.476119785513094e-19  1.243383616142984e+00
-1.476119785513094e-19 -1.831469441799315e-17  4.181445354758071e-01
 1.243383616142984e+00  4.181445354758071e-01 -4.535887031947028e-17

-2.933017695353362e-17  8.919296105569659e-20  1.378682552722908e+00
 8.919296105569659e-20 -2.130262216029173e-17  2.485047035086975e-01
 1.378682552722908e+00  2.485047035086975e-01 -4.948143629026340e-17

-2.912551100518989e-17  1.831114841083194e-19  1.293742323006617e+00
 1.831114841083194e-19 -1.794470217328185e-17  5.017274349577012e-01
 1.293742323006617e+00  5.017274349577012e-01 -4.730437707272937e-17

-2.448592640389718e-17  8.610539621666158e-19  9.479350748916012e-01
 8.610539621666158e-19 -1.337624792576928e-17  6.612567663366329e-01
 9.479350748916012e-01  6.612567663366329e-01 -3.506567939779736e-17

-2.755441950872647e-17 -5.749622836940916e-19  1.255510338666183e+00
-5.749622836940916e-19 -1.998077735649890e-17  2.992975210662877e-01
 1.255510338666183e+00  2.992975210662877e-01 -4.444001774273753e-17

-2.637650584005130e-17 -3.473579826247066e-19  1.239694440439082e+00
-3.473579826247066e-19 -2.164701165562277e-17  1.225489005893882e-01
 1.239694440439082e+00  1.225489005893882e-01 -4.226802019424900e-17

-2.694538330025610e-17 -5.680810634149679e-20  1.234206095521338e+00
-5.680810634149679e-20 -1.882698590284109e-17  3.074819785276144e-01
 1.234206095521338e+00  3.074819785276144e-01 -4.299601521290487e-17

-2.300148216892545e-17 -1.177361475973712e-18  7.412474179420111e-01
-1.177361475973712e-18 -1.104558924504491e-17  9.268511890410660e-01
 7.412474179420111e-01  9.268511890410660e-01 -3.080737342017875e-17

-2.587351806643233e-17 -8.580860395130795e-19  9.989611084780654e-01
-8.580860395130795e-19 -1.348863112257008e-17  7.744256972386440e-01
 9.989611084780654e-01  7.744256972386440e-01 -3.873406711851858e-17

-2.746461505402402e-17  4.538474447945037e-19  1.222085706037521e+00
 4.538474447945037e-19 -1.548983411926681e-17  5.388559340936533e-01
 1.222085706037521e+00  5.388559340936533e-01 -4.479201336974768e-17

-2.476539969425049e-17 -4.911266640866266e-19  1.073872325691787e+00
-4.911266640866266e-19 -1.597912877536249e-17  4.310266839480023e-01
 1.073872325691787e+00  4.310266839480023e-01 -3.846935786599473e-17

-3.300102812976982e-17 -2.086229710466412e-18  1.819070921461660e+00
-2.086229710466412e-18 -2.681743268906829e-17 -1.325684972309881e-01
 1.819070921461660e+00 -1.325684972309881e-01 -5.967395624554350e-17

-2.714795105337502e-17 -1.642802658460499e-18  1.341103974703251e+00
-1.642802658460499e-18 -2.148724779943255e-17  1.114148189812676e-01
 1.341103974703251e+00  1.114148189812676e-01 -4.568872795262642e-17

-2.050942574946949e-17 -6.297573047296603e-19  7.712599292051584e-01
-6.297573047296603e-19 -9.668043450201974e-18  6.747011454980274e-01
 7.712599292051584e-01  6.747011454980274e-01 -2.732746590877557e-17

-2.096225027745315e-17 -2.568898792401614e-19  8.454961350205641e-01
-2.568898792401614e-19 -1.002457097558780e-17  6.027370027237092e-01
 8.454961350205641e-01  6.027370027237092e-01 -2.943497105222761e-17

-2.402553693513356e-17 -5.122999800356884e-19  1.133990465903136e+00
-5.122999800356884e-19 -1.487148107871777e-17  3.303541423882206e-01
 1.133990465903136e+00  3.303541423882206e-01 -3.959536612182417e-17

-1.825110066473738e-17  3.666069427291273e-20  6.810065610511783e-01
 3.666069427291273e-20 -8.251757631563016e-18  6.049957800529190e-01
 6.810065610511783e-01  6.049957800529190e-01 -2.343114116759166e-17

-1.981025243666851e-17 -5.015706862715696e-19  8.473097296445434e-01
-5.015706862715696e-19 -1.287090323078182e-17  3.591190695591054e-01
 8.473097296445434e-01  3.591190695591054e-01 -2.937965742607400e-17

-2.146242048878913e-17 -1.667102067891049e-19  1.037562625679979e+00
-1.667102067891049e-19 -1.666671903810349e-17  1.138837745411234e-01
 1.037562625679979e+00  1.138837745411234e-01 -3.492270063915391e-17

-1.951853734989155e-17 -4.657861878124594e-19  7.921767157780129e-01
-4.657861878124594e-19 -1.069444252310592e-17  4.887794509357796e-01
 7.921767157780129e-01  4.887794509357796e-01 -2.816333370402902e-17

-2.108412888448648e-17 -6.061392829335432e-19  8.679360197919423e-01
-6.061392829335432e-19 -9.830890921164543e-18  5.888967938192142e-01
 8.679360197919423e-01  5.888967938192142e-01 -3.148142531678272e-17

-2.167998298766407e-17 -1.854556773083717e-19  9.359378363056388e-01
-1.854556773083717e-19 -1.085348556141838e-17  5.017592451547785e-01
 9.359378363056388e-01  5.017592451547785e-01 -3.312530021481323e-17

-2.117795351616410e-17 -3.739762291646899e-20  9.212872860471720e-01
-3.739762291646899e-20 -1.150487405037384e-17  4.391309985295664e-01
 9.212872860471720e-01  4.391309985295664e-01 -3.235096878798920e-17

-1.998564901947490e-17 -1.712394378081666e-19  8.484268265017213e-01
-1.712394378081666e-19 -1.214678729576551e-17  3.845243830655459e-01
 8.484268265017213e-01  3.845243830655459e-01 -2.984487992570508e-17

-2.116992135538523e-17 -1.604362177135615e-19  9.716798820907936e-01
-1.604362177135615e-19 -1.518439130394410e-17  2.070355406590125e-01
 9.716798820907936e-01  2.070355406590125e-01 -3.400657971120547e-17

-2.017235952353379e-17  1.166449181661931e-20  8.754615649921916e-01
 1.166449181661931e-20 -1.270830256023091e-17  3.360601832661921e-01
 8.754615649921916e-01  3.360601832661921e-01 -3.052616362709692e-17

-2.106548151201229e-17 -1.984496170963529e-19  9.004914279617025e-01
-1.984496170963529e-19 -1.162613044354343e-17  4.508575801244705e-01
 9.004914279617025e-01  4.508575801244705e-01 -3.209669539878527e-17

-2.218819548542101e-17 -5.615059440053700e-20  9.817281449441356e-01
-5.615059440053700e-20 -1.305314278161832e-17  3.897159306469818e-01
 9.817281449441356e-01  3.897159306469818e-01 -3.476787126997206e-17

-2.255106802302898e-17  6.966609599038097e-20  9.614475860325030e-01
 6.966609599038097e-20 -1.267731401668245e-17  4.116989194822809e-01
 9.614475860325030e-01  4.116989194822809e-01 -3.397586628280054e-17

-2.314977026670250e-17  1.127600981731741e-19  9.934860861810775e-01
 1.127600981731741e-19 -1.342887631213222e-17  3.674485108393616e-01
 9.934860861810775e-01  3.674485108393616e-01 -3.507966458460225e-17

-3.706975849570797e-17  2.373875528522781e-18  9.135738352260871e-01
 2.373875528522781e-18 -1.201509666951913e-17  4.433238954498543e-01
 9.135738352260871e-01  4.433238954498543e-01 -3.211266056882033e-17

-4.238248493875914e-17  3.277318366954725e-18  8.383651156091848e-01
 3.277318366954725e-18 -1.177071569017277e-17  4.450579510578053e-01
 8.383651156091848e-01  4.450579510578053e-01 -2.940797492392918e-17

-2.457807732601111e-17 -6.266942533974338e-19  1.013484635031102e+00
-6.266942533974338e-19 -1.376645726449116e-17  3.804648249571719e-01
 1.013484635031102e+00  3.804648249571719e-01 -3.489410749737347e-17

-2.206406466811883e-17 -3.998867975444870e-19  8.797366004609559e-01
-3.998867975444870e-19 -1.337041829516448e-17  3.410175292753523e-01
 8.797366004609559e-01  3.410175292753523e-01 -2.965996120812225e-17

-2.880553841400887e-17  5.206067289396017e-19  9.311215731001592e-01
 5.206067289396017e-19 -1.017688977270598e-17  5.993711452587360e-01
 9.311215731001592e-01  5.993711452587360e-01 -3.205572203042185e-17

-3.005024244682958e-17 -2.090611071372267e-19  1.017260863651762e+00
-2.090611071372267e-19 -1.279787865045534e-17  4.649278898870033e-01
 1.017260863651762e+00  4.649278898870033e-01 -3.509587303841567e-17

-4.634523309097593e-18 -6.287619783136286e-18  1.087057715957047e+00
-6.287619783136286e-18 -1.377103132441554e-17  3.234021204832778e-01
 1.087057715957047e+00  3.234021204832778e-01 -3.736914045093748e-17

-8.921725139927111e-17  2.143307360975263e-18  9.455695734892544e-01
 2.143307360975263e-18 -8.329244237391415e-18  6.063161673820441e-01
 9.455695734892544e-01  6.063161673820441e-01 -3.273135191134854e-17

-5.225484382570513e-18 -4.854501547678668e-19  1.012596374532745e+00
-4.854501547678668e-19 -1.340757071694451e-17  5.799677086986523e-01
 1.012596374532745e+00  5.799677086986523e-01 -3.567441822678549e-17

-1.167879818068371e-16  2.812858891764830e-17  1.012830033352776e+00
 2.812858891764830e-17 -2.279839984496099e-17  3.561409540910329e-01
 1.012830033352776e+00  3.561409540910329e-01 -3.400484706292876e-17

-2.337158577201129e-17  1.496831773668312e-20  8.769064120819126e-01
 1.496831773668312e-20 -1.268059588391591e-17  4.198174891705937e-01
 8.769064120819126e-01  4.198174891705937e-01 -2.932457475807128e-17

-1.435670512438711e-17 -2.738920746473781e-18  7.760462537120636e-01
-2.738920746473781e-18 -1.005796087633280e-17  5.414293083587030e-01
 7.760462537120636e-01  5.414293083587030e-01 -2.608021545835328e-17

-1.922543558700708e-17 -2.750312467512882e-18  1.043731895127401e+00
-2.750312467512882e-18 -1.482865665964518e-17  3.431172877758807e-01
 1.043731895127401e+00  3.431172877758807e-01 -3.588438819901536e-17

-2.786923678653484e-17  1.347468132519678e-19  1.008374728518566e+00
 1.347468132519678e-19 -1.484362821388925e-17  4.140224630773132e-01
 1.008374728518566e+00  4.140224630773132e-01 -3.471619114281928e-17

-2.425357192232929e-17 -7.418352738896409e-19  9.969740667929996e-01
-7.418352738896409e-19 -1.363397238025461e-17  4.945799116817258e-01
 9.969740667929996e-01  4.945799116817258e-01 -3.437125073914864e-17

-2.997484717008955e-17 -4.374117630507066e-19  1.311057934827424e+00
-4.374117630507066e-19 -1.812105863062381e-17  4.281219456676369e-01
 1.311057934827424e+00  4.281219456676369e-01 -4.653227114482570e-17

-2.573398657364056e-17 -2.075132551224812e-18  1.092808468103205e+00
-2.075132551224812e-18 -1.369304763940885e-17  8.438410763363621e-01
 1.092808468103205e+00  8.438410763363621e-01 -4.282519963946696e-17

-2.976000818995459e-17 -7.387696815373261e-19  1.159248565199966e+00
-7.387696815373261e-19 -1.590224316248026e-17  6.000792504879531e-01
 1.159248565199966e+00  6.000792504879531e-01 -4.276015171620025e-17

-2.821721488066679e-17  7.330301731899185e-19  1.137922421288613e+00
 7.330301731899185e-19 -1.635575254939226e-17  3.372339617494832e-01
 1.137922421288613e+00  3.372339617494832e-01 -3.733883228626136e-17

-6.162189090782480e-17  9.223059013430813e-18  1.051880002253499e+00
 9.223059013430813e-18 -1.888879712842957e-17  2.799625506419193e-01
 1.051880002253499e+00  2.799625506419193e-01 -3.504316649918519e-17

-6.577365415489407e-17  9.582286301941467e-18  1.124179392230545e+00
 9.582286301941467e-18 -2.068961779966029e-17  2.277860792148030e-01
 1.124179392230545e+00  2.277860792148030e-01 -3.809008896557327e-17

-4.961483369175709e-17  5.712047552956223e-18  8.970479033661748e-01
 5.712047552956223e-18 -1.606369229756575e-17  4.817959848569520e-01
 8.970479033661748e-01  4.817959848569520e-01 -3.075789148542501e-17

-3.505013580485828e-17  9.358326846050659e-19  1.150390985896721e+00
 9.358326846050659e-19 -1.750433467693341e-17  4.057862361686219e-01
 1.150390985896721e+00  4.057862361686219e-01 -3.988428137937148e-17

-2.464115292704023e-17 -4.172002240367111e-19  1.036141262419264e+00
-4.172002240367111e-19 -1.349510050091468e-17  6.089147121929246e-01
 1.036141262419264e+00  6.089147121929246e-01 -3.608518204006926e-17

-2.964724770164880e-17  9.561522090836194e-20  1.152529623967984e+00
 9.561522090836194e-20 -1.571191231937780e-17  6.125931545654699e-01
 1.152529623967984e+00  6.125931545654699e-01 -4.071933174096853e-17

-3.207438892951561e-17 -8.741781728823322e-19  1.373988504173162e+00
-8.741781728823322e-19 -2.155857923568511e-17  4.125701118158065e-01
 1.373988504173162e+00  4.125701118158065e-01 -4.929589658031535e-17

-3.091156685236883e-17 -1.355850952113405e-19  1.195218044582500e+00
-1.355850952113405e-19 -1.723866283573805e-17  7.682135254993711e-01
 1.195218044582500e+00  7.682135254993711e-01 -4.544787871242386e-17

-3.340844581945697e-17 -3.430947167475726e-19  1.303340039238992e+00
-3.430947167475726e-19 -1.929947539892220e-17  6.907817421324552e-01
 1.303340039238992e+00  6.907817421324552e-01 -4.978775665770592e-17

-4.382287368726464e-17  4.876727261650408e-19  1.724507032188890e+00
 4.876727261650408e-19 -2.725091619770882e-17  1.234400824647919e-01
 1.724507032188890e+00  1.234400824647919e-01 -6.155835628231258e-17

-2.692238637629444e-17 -1.031107598564224e-18  1.236081720100207e+00
-1.031107598564224e-18 -1.916036498755962e-17  6.458469432821871e-01
 1.236081720100207e+00  6.458469432821871e-01 -4.701299294694673e-17

-6.310961227502181e-17  4.583330751113293e-18  1.216526666854518e+00
 4.583330751113293e-18 -1.923055033558712e-17  6.887970480663551e-01
 1.216526666854518e+00  6.887970480663551e-01 -4.650370819088399e-17

-5.949699183881442e-18 -1.164476230944621e-18  1.644919991456704e+00
-1.164476230944621e-18 -2.527812474320874e-17  2.113411118122009e-01
 1.644919991456704e+00  2.113411118122009e-01 -5.850080784880634e-17

-1.412540276945876e-16  1.417211716937025e-17  1.069697300071232e+00
 1.417211716937025e-17 -1.761657256740952e-17  7.448896671393219e-01
 1.069697300071232e+00  7.448896671393219e-01 -4.064268473726907e-17

-3.472270788808863e-16  5.684589039312567e-17  1.041613562198264e+00
 5.684589039312567e-17 -2.726390970801759e-17  7.328732506782144e-01
 1.041613562198264e+00  7.328732506782144e-01 -3.905268903390685e-17

 5.826781424481452e-18 -2.406711071664376e-18  1.232484172361410e+00
-2.406711071664376e-18 -1.904684829598558e-17  3.401190455060082e-01
 1.232484172361410e+00  3.401190455060082e-01 -4.235588290568901e-17

-4.368706280467128e-17  5.263437571877739e-18  1.157867010245142e+00
 5.263437571877739e-18 -1.916580302395978e-17  3.873812228847419e-01
 1.157867010245142e+00  3.873812228847419e-01 -4.005910863129787e-17

-2.147464614265085e-17 -1.271529070878371e-18  1.061036965851701e+00
-1.271529070878371e-18 -1.482883990647277e-17  5.210439203644662e-01
 1.061036965851701e+00  5.210439203644662e-01 -3.710685639300449e-17

-3.866678870465946e-17  4.383395001887880e-18  9.290850716796039e-01
 4.383395001887880e-18 -1.393575534829313e-17  6.889760351919126e-01
 9.290850716796039e-01  6.889760351919126e-01 -3.285662764397003e-17

 1.985404984595916e-19 -1.015190595264957e-17  9.012323747130818e-01
-1.015190595264957e-17 -8.762242817457593e-18  6.373367404689866e-01
 9.012323747130818e-01  6.373367404689866e-01 -3.153865055442717e-17

-1.135496227690035e-16  3.283576034673533e-17  1.089749334804559e+00
 3.283576034673533e-17 -2.960135901768247e-17  3.307369738617255e-01
 1.089749334804559e+00  3.307369738617255e-01 -3.709626875840821e-17

-2.934162394431353e-19 -1.056402201847341e-17  1.063373713164851e+00
-1.056402201847341e-17 -1.373685463472548e-17  3.610231039954638e-01
 1.063373713164851e+00  3.610231039954638e-01 -3.667387308922991e-17

 1.042520526801238e-16 -5.007741850445909e-17  9.892565372569286e-01
-5.007741850445909e-17  3.331201265797746e-18  5.363344584855725e-01
 9.892565372569286e-01  5.363344584855725e-01 -3.439660034523765e-17

 3.783412726832854e-17 -2.584852840760565e-17  1.157395894229984e+00
-2.584852840760565e-17 -7.400078196534709e-18  5.129403534125269e-01
 1.157395894229984e+00  5.129403534125269e-01 -4.057699002876656e-17

-7.929472458457604e-17  1.892732875959087e-17  1.186760066793099e+00
 1.892732875959087e-17 -2.346830956533080e-17  6.604252152474978e-01
 1.186760066793099e+00  6.604252152474978e-01 -4.270539925615657e-17

-3.121608259366445e-17 -3.003431321297007e-19  1.274730013696784e+00
-3.003431321297007e-19 -1.827180001692685e-17  6.452941644755423e-01
 1.274730013696784e+00  6.452941644755423e-01 -4.674302671841833e-17

-3.621106784314285e-17 -1.253416964975525e-18  1.852060575338824e+00
-1.253416964975525e-18 -2.687902596803357e-17  1.428299840891344e-01
 1.852060575338824e+00  1.428299840891344e-01 -6.571336267993023e-17

-3.250895177204310e-17 -5.503739105866599e-19  1.362679322643996e+00
-5.503739105866599e-19 -2.013334016114545e-17  5.983209090271421e-01
 1.362679322643996e+00  5.983209090271421e-01 -5.040941330601698e-17

-3.294113486402562e-17 -1.315120704286229e-19  1.269116643871289e+00
-1.315120704286229e-19 -1.975207547985959e-17  6.568555365341144e-01
 1.269116643871289e+00  6.568555365341144e-01 -4.777682367528196e-17

-2.599071646483197e-17 -3.855341582515766e-18  1.757215498142036e+00
-3.855341582515766e-18 -2.659684792136481e-17  1.245357878622937e-01
 1.757215498142036e+00  1.245357878622937e-01 -6.269924509959088e-17

-2.642996118918047e-17 -2.107495582590523e-18  1.257089678449612e+00
-2.107495582590523e-18 -1.889015128541487e-17  6.627820424190786e-01
 1.257089678449612e+00  6.627820424190786e-01 -4.788655861907126e-17

-1.048844780651205e-16  2.293012053436795e-17  1.242695191342415e+00
 2.293012053436795e-17 -2.638214622381647e-17  7.042442392278281e-01
 1.242695191342415e+00  7.042442392278281e-01 -4.776227101842767e-17

-6.265555031836570e-17  9.621866433071561e-18  1.691874293729662e+00
 9.621866433071561e-18 -2.853465653666772e-17  1.934689659541823e-01
 1.691874293729662e+00  1.934689659541823e-01 -6.010955470741368e-17

-6.535935525010411e-17  1.168287980737440e-17  1.099684375649897e+00
 1.168287980737440e-17 -2.067119258001606e-17  7.448720465109497e-01
 1.099684375649897e+00  7.448720465109497e-01 -4.195869894742049e-17

-3.037592077903042e-17 -3.290694454081122e-19  1.051628473672181e+00
-3.290694454081122e-19 -1.561437298837933e-17  7.535524189885688e-01
 1.051628473672181e+00  7.535524189885688e-01 -3.974840306400056e-17

-2.783393685726285e-17 -1.643708502871015e-19  1.248881830197978e+00
-1.643708502871015e-19 -1.884500368893484e-17  3.463017894218609e-01
 1.248881830197978e+00  3.463017894218609e-01 -4.296310690070447e-17

-4.002539519045234e-17  2.362062556816772e-18  1.173789286589690e+00
 2.362062556816772e-18 -1.827520617500497e-17  3.912099026294044e-01
 1.173789286589690e+00  3.912099026294044e-01 -4.065127310216536e-17

-4.611869456454766e-17  3.888636085410072e-18  1.071903456967784e+00
 3.888636085410072e-18 -1.638076339135359e-17  5.293060513100499e-01
 1.071903456967784e+00  5.293060513100499e-01 -3.755738173553969e-17

-2.350940839807109e-17 -9.513365439415234e-19  9.362815805202428e-01
-9.513365439415234e-19 -1.230952978389441e-17  7.017103223504898e-01
 9.362815805202428e-01  7.017103223504898e-01 -3.319824234685849e-17

-2.316068304198297e-17 -9.134898408419140e-19  9.098718911334055e-01
-9.134898408419140e-19 -1.268765290618283e-17  6.480563996187148e-01
 9.098718911334055e-01  6.480563996187148e-01 -3.190787378342005e-17

-2.492573400600528e-17 -7.124977723039205e-19  1.102072925212093e+00
-7.124977723039205e-19 -1.735621756974652e-17  3.389053925882006e-01
 1.102072925212093e+00  3.389053925882006e-01 -3.756517647644578e-17

-2.581462398672221e-17 -1.054284229598543e-18  1.078176845183413e+00
-1.054284229598543e-18 -1.774951382034347e-17  3.694415555017383e-01
 1.078176845183413e+00  3.694415555017383e-01 -3.724159956701464e-17

-2.692702873797070e-17 -7.448905705769628e-19  1.011750146515305e+00
-7.448905705769628e-19 -1.589199006154970e-17  5.457948541331670e-01
 1.011750146515305e+00  5.457948541331670e-01 -3.530546319727564e-17

-2.974204524143499e-17 -4.295984153611172e-19  1.184250490842432e+00
-4.295984153611172e-19 -1.765622939067853e-17  5.265273474021779e-01
 1.184250490842432e+00  5.265273474021779e-01 -4.173951089129933e-17

-2.977852288164168e-17 -1.270273823435369e-19  1.213954389408151e+00
-1.270273823435369e-19 -1.682894215712166e-17  6.831634320159307e-01
 1.213954389408151e+00  6.831634320159307e-01 -4.436967598224479e-17

-3.294721756281974e-17  4.347600248218095e-20  1.313580059510018e+00
 4.347600248218095e-20 -1.940097087385320e-17  6.559111411876597e-01
 1.313580059510018e+00  6.559111411876597e-01 -4.907360582542477e-17

-5.505023343928789e-17  5.661788611693369e-18  1.906556494388537e+00
 5.661788611693369e-18 -3.074027100904933e-17  1.320938478060487e-01
 1.906556494388537e+00  1.320938478060487e-01 -6.811272106963682e-17

 6.415860256036511e-18 -1.580390941223620e-17  1.398810293186683e+00
-1.580390941223620e-17 -1.524849846139244e-17  6.059721995445998e-01
 1.398810293186683e+00  6.059721995445998e-01 -5.272293589497812e-17

-7.091385737980033e-18 -1.032283162287456e-17  1.297682897578680e+00
-1.032283162287456e-17 -1.667815152250287e-17  6.711963189208736e-01
 1.297682897578680e+00  6.711963189208736e-01 -4.982438813760112e-17

-4.193939959869737e-17  1.358665040195454e-18  1.791956682587970e+00
 1.358665040195454e-18 -2.920300931128332e-17  1.233592934134272e-01
 1.791956682587970e+00  1.233592934134272e-01 -6.437858918301711e-17

-3.983355710003271e-17  2.577286590196589e-18  1.284623234755491e+00
 2.577286590196589e-18 -2.143355042005513e-17  6.691867102537445e-01
 1.284623234755491e+00  6.691867102537445e-01 -4.951383343713122e-17

-2.816255532383813e-17 -1.971338561427480e-18  1.262637276887143e+00
-1.971338561427480e-18 -1.883926674570808e-17  7.113698768790971e-01
 1.262637276887143e+00  7.113698768790971e-01 -4.897947916384357e-17

-3.589327219274534e-17 -3.827754814293924e-20  1.712124677053057e+00
-3.827754814293924e-20 -2.575526305169843e-17  1.890426427357093e-01
 1.712124677053057e+00  1.890426427357093e-01 -6.102662302663571e-17

-2.893088759187175e-17 -8.740303113248983e-19  1.116001268907270e+00
-8.740303113248983e-19 -1.700775461512870e-17  7.437147616924135e-01
 1.116001268907270e+00  7.437147616924135e-01 -4.281165347727657e-17

-2.872314854922007e-17 -6.317428956270707e-19  1.058761138246655e+00
-6.317428956270707e-19 -1.585529466990287e-17  7.575455813221467e-01
 1.058761138246655e+00  7.575455813221467e-01 -4.024284981740323e-17

-2.891569168150846e-17  1.889317940465357e-19  1.253227112699578e+00
 1.889317940465357e-19 -1.918362718221945e-17  3.472001336684166e-01
 1.253227112699578e+00  3.472001336684166e-01 -4.323607051102424e-17

-2.786642706004156e-17 -7.999020342048854e-21  1.176176103370406e+00
-7.999020342048854e-21 -1.797872111206821e-17  3.926786866749503e-01
 1.176176103370406e+00  3.926786866749503e-01 -4.084510244238666e-17

-2.694340791591403e-17 -1.988918947646440e-19  1.072369783153466e+00
-1.988918947646440e-19 -1.566902575227215e-17  5.313969594949021e-01
 1.072369783153466e+00  5.313969594949021e-01 -3.767690936577764e-17

-2.543917295510952e-17 -5.091407341670682e-19  9.365731217628220e-01
-5.091407341670682e-19 -1.253500396254712e-17  7.022342063747713e-01
 9.365731217628220e-01  7.022342063747713e-01 -3.329799525855059e-17

-2.469487044531919e-17 -5.606374139544532e-19  9.105374482818603e-01
-5.606374139544532e-19 -1.297785588303967e-17  6.463272275688632e-01
 9.105374482818603e-01  6.463272275688632e-01 -3.199779207147220e-17

-2.615456526391500e-17 -4.341329935219180e-19  1.101460525517076e+00
-4.341329935219180e-19 -1.754794812045112e-17  3.381823308476513e-01
 1.101460525517076e+00  3.381823308476513e-01 -3.761161755860083e-17

-2.613290104662192e-17 -9.686182730464286e-19  1.075441835689187e+00
-9.686182730464286e-19 -1.789361937606883e-17  3.702071227828825e-01
 1.075441835689187e+00  3.702071227828825e-01 -3.721159768285819e-17

-2.608674165455558e-17 -9.749588621160911e-19  1.008855992507713e+00
-9.749588621160911e-19 -1.590729092760962e-17  5.451083234414829e-01
 1.008855992507713e+00  5.451083234414829e-01 -3.526107193284367e-17

-2.872060358179152e-17 -8.493334792401632e-19  1.180141201389751e+00
-8.493334792401632e-19 -1.750998248411181e-17  5.250725673011507e-01
 1.180141201389751e+00  5.250725673011507e-01 -4.164556084417619e-17

-3.017357451508148e-17  3.979552605228233e-20  1.210742227743344e+00
 3.979552605228233e-20 -1.703095128263878e-17  6.786055405714833e-01
 1.210742227743344e+00  6.786055405714833e-01 -4.428116940911535e-17

-3.200605267530035e-17 -2.801201691427233e-19  1.309767672154977e+00
-2.801201691427233e-19 -1.925385879106054e-17  6.507579511986218e-01
 1.309767672154977e+00  6.507579511986218e-01 -4.895272890740458e-17

-3.845949878102698e-17 -7.092635854926486e-19  1.901055862917996e+00
-7.092635854926486e-19 -2.815542753733416e-17  1.288204865880011e-01
 1.901055862917996e+00  1.288204865880011e-01 -6.795598772843078e-17

-3.327709389116731e-17 -4.043319422838429e-19  1.392377242193877e+00
-4.043319422838429e-19 -2.099784659935896e-17  6.005562878574051e-01
 1.392377242193877e+00  6.005562878574051e-01 -5.248860154520142e-17

-3.223042796760195e-17 -5.079618828150067e-19  1.287502039031587e+00
-5.079618828150067e-19 -2.044167041366174e-17  6.655455132232255e-01
 1.287502039031587e+00  6.655455132232255e-01 -4.941884442437417e-17

-3.704145432272583e-17 -4.355704812563507e-19  1.777697724664844e+00
-4.355704812563507e-19 -2.847704487534928e-17  1.198071808664835e-01
 1.777697724664844e+00  1.198071808664835e-01 -6.384321740548092e-17

-3.200804418328747e-17 -3.511540501871053e-19  1.268542051270901e+00
-3.511540501871053e-19 -2.015115483879178e-17  6.635647765598489e-01
 1.268542051270901e+00  6.635647765598489e-01 -4.876726620585856e-17

-3.176087301260348e-17 -4.751911245810470e-19  1.246697356356320e+00
-4.751911245810470e-19 -1.934052426090140e-17  7.034600470139953e-01
 1.246697356356320e+00  7.034600470139953e-01 -4.812354600564660e-17

-3.571738069140412e-17 -4.182830187963455e-20  1.699971819296391e+00
-4.182830187963455e-20 -2.575127377258288e-17  1.818850966559525e-01
 1.699971819296391e+00  1.818850966559525e-01 -6.043085103472702e-17

-2.956006666688795e-17 -5.412743346564519e-19  1.098035559161415e+00
-5.412743346564519e-19 -1.692878925392002e-17  7.417891621561941e-01
 1.098035559161415e+00  7.417891621561941e-01 -4.190716172702940e-17

-2.853989763197160e-17 -6.363078819450649e-19  1.042496599339956e+00
-6.363078819450649e-19 -1.583171601306539e-17  7.576190166951661e-01
 1.042496599339956e+00  7.576190166951661e-01 -3.946238275890943e-17

-2.896821893975056e-17  2.184824219505432e-19  1.245658212554866e+00
 2.184824219505432e-19 -1.927338270607547e-17  3.452549111952319e-01
 1.245658212554866e+00  3.452549111952319e-01 -4.286925753019239e-17

-2.789731170955433e-17  3.406480871912138e-21  1.168320827092362e+00
 3.406480871912138e-21 -1.813108927303828e-17  3.919311075391699e-01
 1.168320827092362e+00  3.919311075391699e-01 -4.048196572684855e-17

-2.681119898307024e-17 -2.805895674322279e-19  1.065856764776349e+00
-2.805895674322279e-19 -1.563909972008360e-17  5.301023339423691e-01
 1.065856764776349e+00  5.301023339423691e-01 -3.736844342666158e-17

-2.545560446333832e-17 -5.490038190630006e-19  9.321906910941026e-01
-5.490038190630006e-19 -1.261919350360111e-17  7.013586753882303e-01
 9.321906910941026e-01  7.013586753882303e-01 -3.306966060316964e-17

-2.468268917205228e-17 -6.325335360007959e-19  9.065247969043275e-01
-6.325335360007959e-19 -1.299650838380402e-17  6.485301696226048e-01
 9.065247969043275e-01  6.485301696226048e-01 -3.180690221868311e-17

-2.618715770620490e-17 -5.001395761764885e-19  1.098025006933578e+00
-5.001395761764885e-19 -1.761193525087527e-17  3.418014696016801e-01
 1.098025006933578e+00  3.418014696016801e-01 -3.746340324703793e-17

-2.621138370572742e-17 -1.033941041269225e-18  1.074918066329393e+00
-1.033941041269225e-18 -1.800194757819311e-17  3.725881418339976e-01
 1.074918066329393e+00  3.725881418339976e-01 -3.716393008086013e-17

-2.621251698513072e-17 -1.033850263959470e-18  1.009863931429410e+00
-1.033850263959470e-18 -1.610322244546542e-17  5.473009887645263e-01
 1.009863931429410e+00  5.473009887645263e-01 -3.526487920732386e-17

-2.885152225985494e-17 -9.171539220010935e-19  1.181763466725683e+00
-9.171539220010935e-19 -1.772036945122005e-17  5.279326434971844e-01
 1.181763466725683e+00  5.279326434971844e-01 -4.167271320794737e-17

-3.040367298274440e-17 -1.840706920669501e-20  1.213688374163541e+00
-1.840706920669501e-20 -1.714430489374878e-17  6.827847913194138e-01
 1.213688374163541e+00  6.827847913194138e-01 -4.437164059191236e-17

-3.215093573088593e-17 -3.628642187497649e-19  1.314543106343137e+00
-3.628642187497649e-19 -1.947057802782941e-17  6.555653987129433e-01
 1.314543106343137e+00  6.555653987129433e-01 -4.912902173152526e-17

-3.887462060882226e-17 -7.444860013957357e-19  1.906814762399279e+00
-7.444860013957357e-19 -2.852789059285672e-17  1.334294201156387e-01
 1.906814762399279e+00  1.334294201156387e-01 -6.815872629173975e-17

-3.350715536010616e-17 -4.866579553863066e-19  1.399214023803546e+00
-4.866579553863066e-19 -2.129735448162467e-17  6.072983344761158e-01
 1.399214023803546e+00  6.072983344761158e-01 -5.277748431012219e-17

-3.377181893988836e-17 -3.238627284145174e-19  1.298244860638814e+00
-3.238627284145174e-19 -2.076552529841210e-17  6.719629407677887e-01
 1.298244860638814e+00  6.719629407677887e-01 -4.989008870375523e-17

-3.490609193364933e-17 -1.046647295716077e-18  1.792961289680860e+00
-1.046647295716077e-18 -2.858437048984674e-17  1.229780318899923e-01
 1.792961289680860e+00  1.229780318899923e-01 -6.444709293475129e-17

-3.381705704483081e-17 -1.059404735014598e-19  1.285090502708581e+00
-1.059404735014598e-19 -2.085154164887150e-17  6.694732379006443e-01
 1.285090502708581e+00  6.694732379006443e-01 -4.957670617733690e-17

-3.440771316846663e-17 -4.429932052530194e-20  1.263084780545458e+00
-4.429932052530194e-20 -1.991655180784785e-17  7.119185731358669e-01
 1.263084780545458e+00  7.119185731358669e-01 -4.904535276290843e-17

-9.156740356701193e-17  1.187046091693491e-17  1.713928664633140e+00
 1.187046091693491e-17 -2.857842780278815e-17  1.884774307378388e-01
 1.713928664633140e+00  1.884774307378388e-01 -6.112749890884209e-17

-1.376087113969332e-17 -4.078287473870251e-18  1.116956499263692e+00
-4.078287473870251e-18 -1.670457810351670e-17  7.438074534084669e-01
 1.116956499263692e+00  7.438074534084669e-01 -4.289431394566685e-17

-6.280335172788272e-17  6.650731302036553e-18  1.058660298970493e+00
 6.650731302036553e-18 -1.780900124792902e-17  7.583301774359639e-01
 1.058660298970493e+00  7.583301774359639e-01 -4.029039747633068e-17

-5.178189134036259e-17  5.090152707162809e-18  1.252320419189551e+00
 5.090152707162809e-18 -2.063101607658043e-17  3.475743759837432e-01
 1.252320419189551e+00  3.475743759837432e-01 -4.323698213845707e-17

-3.173751572947614e-17  7.775008723629012e-19  1.176541259650160e+00
 7.775008723629012e-19 -1.860406440669235e-17  3.914833036854533e-01
 1.176541259650160e+00  3.914833036854533e-01 -4.088917241909484e-17

-2.638341421636095e-17 -4.233083198325676e-19  1.072028575042577e+00
-4.233083198325676e-19 -1.583165580573485e-17  5.307182264962578e-01
 1.072028575042577e+00  5.307182264962578e-01 -3.770179682870919e-17

-2.532135893056166e-17 -6.101414639692101e-19  9.362137674582518e-01
-6.101414639692101e-19 -1.285801047478539e-17  7.028394208241170e-01
 9.362137674582518e-01  7.028394208241170e-01 -3.332519277341704e-17

-2.280285211238438e-17 -1.103152418139301e-18  9.095031903716267e-01
-1.103152418139301e-18 -1.311338600950761e-17  6.479912949007716e-01
 9.095031903716267e-01  6.479912949007716e-01 -3.200939364661402e-17

-2.763677690277829e-17 -9.641657237243781e-20  1.100883333145272e+00
-9.641657237243781e-20 -1.801823817078588e-17  3.392385950823681e-01
 1.100883333145272e+00  3.392385950823681e-01 -3.764019660890818e-17

-2.742839780718986e-17 -7.017315834440035e-19  1.076163741724034e+00
-7.017315834440035e-19 -1.834943373094773e-17  3.698047639925540e-01
 1.076163741724034e+00  3.698047639925540e-01 -3.728253605922373e-17

-1.542942501270210e-17 -4.115932830256560e-18  1.009189092870380e+00
-4.115932830256560e-18 -1.540834827804313e-17  5.450046134275204e-01
 1.009189092870380e+00  5.450046134275204e-01 -3.531919111282750e-17

-4.481403812030266e-17  3.621867546684738e-18  1.180518069584245e+00
 3.621867546684738e-18 -1.919512460255583e-17  5.251933592598967e-01
 1.180518069584245e+00  5.251933592598967e-01 -4.170606119771577e-17

-1.068457405630603e-16  2.178710923985099e-17  1.209981518483761e+00
 2.178710923985099e-17 -2.374107265475694e-17  6.794610094751919e-01
 1.209981518483761e+00  6.794610094751919e-01 -4.430583759399705e-17

-1.800925933086960e-17 -4.384922713341808e-18  1.308797360991185e+00
-4.384922713341808e-18 -1.854571028946377e-17  6.510589819507100e-01
 1.308797360991185e+00  6.510589819507100e-01 -4.896800580451194e-17

-3.468771731165332e-17 -1.901192979420402e-18  1.900337886576314e+00
-1.901192979420402e-18 -2.811897538570065e-17  1.287339702563497e-01
 1.900337886576314e+00  1.287339702563497e-01 -6.797756266404467e-17

-1.849450105220469e-17 -4.733812052965966e-18  1.390995089507672e+00
-4.733812052965966e-18 -2.044200163685491e-17  6.016818419388460e-01
 1.390995089507672e+00  6.016818419388460e-01 -5.250018586678261e-17

-2.952467363767479e-17 -1.401682220349321e-18  1.287502237015728e+00
-1.401682220349321e-18 -2.092386153580724e-17  6.656743046251552e-01
 1.287502237015728e+00  6.656743046251552e-01 -4.947626466623452e-17

-3.627114080425086e-17 -7.920435808914272e-19  1.780064550498091e+00
-7.920435808914272e-19 -2.890349358104759e-17  1.178068055358034e-01
 1.780064550498091e+00  1.178068055358034e-01 -6.396376236770545e-17

-1.692844720593668e-17 -4.697226664171509e-18  1.270596496738984e+00
-4.697226664171509e-18 -1.930848090163217e-17  6.627736839664305e-01
 1.270596496738984e+00  6.627736839664305e-01 -4.889029358057258e-17

-1.840393572243121e-17 -4.347602420048972e-18  1.246643591356619e+00
-4.347602420048972e-18 -1.889542440272647e-17  7.061909295802494e-01
 1.246643591356619e+00  7.061909295802494e-01 -4.819289662683078e-17

-1.198000037897672e-16  2.347116740526934e-17  1.692091079012894e+00
 2.347116740526934e-17 -3.267904804849510e-17  1.890120594827245e-01
 1.692091079012894e+00  1.890120594827245e-01 -6.022348932946124e-17

-1.382626769372551e-16  2.987688056056233e-17  1.099310858196105e+00
 2.987688056056233e-17 -2.587234088747213e-17  7.372746461493678e-01
 1.099310858196105e+00  7.372746461493678e-01 -4.195354733205254e-17

 6.565462091097064e-18 -1.061806184375453e-17  1.044888898186760e+00
-1.061806184375453e-17 -1.359226886659683e-17  7.491232601028126e-01
 1.044888898186760e+00  7.491232601028126e-01 -3.951381750644678e-17

-2.907920540303325e-17  1.117772723265643e-19  1.240059448413374e+00
 1.117772723265643e-19 -1.968254373885346e-17  3.472545747152496e-01
 1.240059448413374e+00  3.472545747152496e-01 -4.274938708927589e-17

-2.889819231954715e-17  1.525731523055365e-19  1.164803574735963e+00
 1.525731523055365e-19 -1.845922481587206e-17  3.942314107950425e-01
 1.164803574735963e+00  3.942314107950425e-01 -4.043503832155172e-17

-2.549237633434702e-17 -8.029810727242274e-19  1.064490567060841e+00
-8.029810727242274e-19 -1.593345440619063e-17  5.317142916529358e-01
 1.064490567060841e+00  5.317142916529358e-01 -3.738375634916982e-17

-2.463275874658703e-17 -9.248135619319968e-19  9.314494746808485e-01
-9.248135619319968e-19 -1.295250039051064e-17  7.026887329033645e-01
 9.314494746808485e-01  7.026887329033645e-01 -3.310337868707933e-17

-2.670797874491983e-17  2.016188503419499e-20  9.060116720821872e-01
 2.016188503419499e-20 -1.363688690276893e-17  6.486316637516879e-01
 9.060116720821872e-01  6.486316637516879e-01 -3.184686137534389e-17

-2.330763507336945e-17 -1.871507405997855e-18  1.099365208640112e+00
-1.871507405997855e-18 -1.757673903367655e-17  3.399030189755897e-01
 1.099365208640112e+00  3.399030189755897e-01 -3.756151208744267e-17

-6.510029668652320e-18 -9.321500592643188e-18  1.075408818903662e+00
-9.321500592643188e-18 -1.510045522786441e-17  3.715111997374158e-01
 1.075408818903662e+00  3.715111997374158e-01 -3.723557383338832e-17

-1.135211487924123e-16  3.480002485536536e-17  1.008852090030489e+00
 3.480002485536536e-17 -3.133516026360123e-17  5.475834751909204e-01
 1.008852090030489e+00  5.475834751909204e-01 -3.528528094424854e-17

-6.064062281163804e-17  1.201661349212488e-17  1.181428438681510e+00
 1.201661349212488e-17 -2.360863340493943e-17  5.279679791054791e-01
 1.181428438681510e+00  5.279679791054791e-01 -4.171910193989211e-17

-2.784657397889507e-16  1.023331018447235e-16  1.213756596524062e+00
 1.023331018447235e-16 -5.993503218792814e-17  6.822344939828443e-01
 1.213756596524062e+00  6.822344939828443e-01 -4.442660709533549e-17

-3.335390104646098e-17 -7.727477879463788e-20  1.314956990588276e+00
-7.727477879463788e-20 -2.028953818923333e-17  6.545322368023899e-01
 1.314956990588276e+00  6.545322368023899e-01 -4.919233723324571e-17

-6.588818263346849e-17  1.026962899773364e-17  1.906110299780167e+00
 1.026962899773364e-17 -3.337446325192814e-17  1.337623994119610e-01
 1.906110299780167e+00  1.337623994119610e-01 -6.819605591548305e-17

 3.953415426195651e-18 -1.621579510680528e-17  1.398754450526134e+00
-1.621579510680528e-17 -1.550651427595604e-17  6.077675509527967e-01
 1.398754450526134e+00  6.077675509527967e-01 -5.281973428930304e-17

-5.192762065884474e-17  7.230551759224259e-18  1.298498735669423e+00
 7.230551759224259e-18 -2.479506709900765e-17  6.719375849617220e-01
 1.298498735669423e+00  6.719375849617220e-01 -4.995674325397156e-17

-3.751821767217406e-17 -6.790886421729517e-19  1.793780049695389e+00
-6.790886421729517e-19 -2.916836601759800e-17  1.226075256028080e-01
 1.793780049695389e+00  1.226075256028080e-01 -6.453467811259810e-17

-3.083310315919915e-17 -1.304405025007322e-18  1.286200075643392e+00
-1.304405025007322e-18 -2.090553257574369e-17  6.698397676323825e-01
 1.286200075643392e+00  6.698397676323825e-01 -4.967921164060815e-17

-3.281011987455178e-17 -4.536123555390101e-19  1.262651546276633e+00
-4.536123555390101e-19 -2.010962475796105e-17  7.147822668708353e-01
 1.262651546276633e+00  7.147822668708353e-01 -4.910646072949530e-17

-3.671170454602107e-17  2.984857821307070e-20  1.705311163252843e+00
 2.984857821307070e-20 -2.655673561172953e-17  1.958376599960496e-01
 1.705311163252843e+00  1.958376599960496e-01 -6.090319340523771e-17

-3.092814126490538e-17 -4.354932362547972e-19  1.117018221609700e+00
-4.354932362547972e-19 -1.802931002326058e-17  7.406474905080455e-01
 1.117018221609700e+00  7.406474905080455e-01 -4.290186985485201e-17

-2.737177127842131e-17 -1.282585458415309e-18  1.061016251197958e+00
-1.282585458415309e-18 -1.653582500900574e-17  7.512305869274215e-01
 1.061016251197958e+00  7.512305869274215e-01 -4.035068676142966e-17

-1.766761171527466e-17 -3.229790776467809e-18  1.249645731143602e+00
-3.229790776467809e-18 -1.914590318705549e-17  3.505239193064514e-01
 1.249645731143602e+00  3.505239193064514e-01 -4.325004097184168e-17

-1.521926005429066e-17 -3.857121326409114e-18  1.172769746266464e+00
-3.857121326409114e-18 -1.762203309114986e-17  3.980639971548876e-01
 1.172769746266464e+00  3.980639971548876e-01 -4.086765680322332e-17

-4.582000454822629e-17  4.843265244645584e-18  1.071986123395834e+00
 4.843265244645584e-18 -1.802449750946033e-17  5.346480385308477e-01
 1.071986123395834e+00  5.346480385308477e-01 -3.778991927379299e-17

-2.889354784188466e-17  1.685446831978117e-19  9.384434849584108e-01
 1.685446831978117e-19 -1.371658670058332e-17  7.032292650170002e-01
 9.384434849584108e-01  7.032292650170002e-01 -3.348232356001816e-17

-1.512428608174375e-17 -3.577571324754298e-18  9.123383533142320e-01
-3.577571324754298e-18 -1.306247769544486e-17  6.468249674875846e-01
 9.123383533142320e-01  6.468249674875846e-01 -3.217487576472934e-17

-1.501493505889208e-17 -3.906722311571877e-18  1.103433640513310e+00
-3.906722311571877e-18 -1.757298012981575e-17  3.394608400992093e-01
 1.103433640513310e+00  3.394608400992093e-01 -3.780111874649359e-17

-2.750549092288474e-17 -9.009348418283197e-19  1.076917299098263e+00
-9.009348418283197e-19 -1.884154443113128e-17  3.726991941023656e-01
 1.076917299098263e+00  3.726991941023656e-01 -3.738407079758412e-17

-2.607776185128843e-17 -1.310618966200320e-18  1.010598018812261e+00
-1.310618966200320e-18 -1.670990624009885e-17  5.479013600285320e-01
 1.010598018812261e+00  5.479013600285320e-01 -3.544279980134090e-17

-2.974716880774796e-17 -9.025765891949871e-19  1.182193722356750e+00
-9.025765891949871e-19 -1.855505256709920e-17  5.281251044233601e-01
 1.182193722356750e+00  5.281251044233601e-01 -4.184054646263043e-17

-3.122178947337192e-17 -3.878352287207213e-20  1.215339691613636e+00
-3.878352287207213e-20 -1.813397062631858e-17  6.813451390248852e-01
 1.215339691613636e+00  6.813451390248852e-01 -4.456817260434156e-17

-3.293541655646537e-17 -4.102397754823856e-19  1.316395173206221e+00
-4.102397754823856e-19 -2.037197022767165e-17  6.542116878413590e-01
 1.316395173206221e+00  6.542116878413590e-01 -4.932619626100010e-17

-3.937944046499303e-17 -8.461035049312872e-19  1.906511874027192e+00
-8.461035049312872e-19 -2.943701872475981e-17  1.347817115004485e-01
 1.906511874027192e+00  1.347817115004485e-01 -6.829902687371720e-17

-3.415634454180409e-17 -5.624118760125543e-19  1.399670863872722e+00
-5.624118760125543e-19 -2.231163299610746e-17  6.082594934495059e-01
 1.399670863872722e+00  6.082594934495059e-01 -5.293014400117985e-17

-3.319812601666744e-17 -6.723691575100155e-19  1.298815541638618e+00
-6.723691575100155e-19 -2.171109541944665e-17  6.721254249368076e-01
 1.298815541638618e+00  6.721254249368076e-01 -5.003760339293460e-17

-3.808965585790700e-17 -5.931489212348347e-19  1.793034670498820e+00
-5.931489212348347e-19 -2.968263888692485e-17  1.228038516399202e-01
 1.793034670498820e+00  1.228038516399202e-01 -6.457515714504409e-17

-3.321816101586757e-17 -4.697679401006424e-19  1.285527784558559e+00
-4.697679401006424e-19 -2.132458073098929e-17  6.699585704472629e-01
 1.285527784558559e+00  6.699585704472629e-01 -4.971640038391633e-17

-3.402711074725021e-17 -2.920474514978184e-19  1.262784405764523e+00
-2.920474514978184e-19 -2.107061229028793e-17  7.138205836922638e-01
 1.262784405764523e+00  7.138205836922638e-01 -4.916735805357905e-17

-3.456039730802879e-17 -7.805834511111854e-19  1.708881526297376e+00
-7.805834511111854e-19 -2.671610162638495e-17  1.930270668319264e-01
 1.708881526297376e+00  1.930270668319264e-01 -6.108751211646360e-17

-3.659394734741892e-17  9.798158210368138e-19  1.116682469417535e+00
 9.798158210368138e-19 -1.864299730437386e-17  7.422201298653816e-01
 1.116682469417535e+00  7.422201298653816e-01 -4.297911102597801e-17

-3.281523315765329e-17  1.343756950889536e-19  1.059964090930776e+00
 1.343756950889536e-19 -1.725713637770220e-17  7.541137619663273e-01
 1.059964090930776e+00  7.541137619663273e-01 -4.041338682263109e-17

-5.975098395648896e-17  8.494231776677207e-18  1.249778209199329e+00
 8.494231776677207e-18 -2.283646863259760e-17  3.501532694722845e-01
 1.249778209199329e+00  3.501532694722845e-01 -4.330593413112737e-17

-5.135923969938744e-17  6.219667313982746e-18  1.174162865233065e+00
 6.219667313982746e-18 -2.094325790178830e-17  3.951324841011593e-01
 1.174162865233065e+00  3.951324841011593e-01 -4.096248951068172e-17

 4.005976171720977e-17 -1.954675371868425e-17  1.072586756811487e+00
-1.954675371868425e-17 -1.139194588035942e-17  5.318605616529392e-01
 1.072586756811487e+00  5.318605616529392e-01 -3.786582894469133e-17

-7.968536501570285e-18 -5.875235122892101e-18  9.382319045048158e-01
-5.875235122892101e-18 -1.237250329614112e-17  7.025519064926965e-01
 9.382319045048158e-01  7.025519064926965e-01 -3.353387927559648e-17

-3.476481001719503e-17  1.843211773537027e-18  9.105517422108527e-01
 1.843211773537027e-18 -1.480282403196272e-17  6.495050884791206e-01
 9.105517422108527e-01  6.495050884791206e-01 -3.219214570294049e-17

-2.892625696716963e-17 -1.091576787319182e-19  1.101906241331707e+00
-1.091576787319182e-19 -1.898120774749957e-17  3.413796315242991e-01
 1.101906241331707e+00  3.413796315242991e-01 -3.782706373120650e-17

-2.702274447896466e-17 -1.198469659005683e-18  1.078789673727901e+00
-1.198469659005683e-18 -1.909242419323449e-17  3.710249682933778e-01
 1.078789673727901e+00  3.710249682933778e-01 -3.752204620200948e-17

-2.693994358661957e-17 -1.237990882120149e-18  1.012799087043173e+00
-1.237990882120149e-18 -1.716047408744022e-17  5.464742697197795e-01
 1.012799087043173e+00  5.464742697197795e-01 -3.559590898423537e-17

-2.957536812970949e-17 -1.110874025242452e-18  1.184583800582234e+00
-1.110874025242452e-18 -1.891368005942477e-17  5.274941555801351e-01
 1.184583800582234e+00  5.274941555801351e-01 -4.200239268718966e-17

-3.116321420890363e-17 -1.941938821249192e-19  1.214383635426098e+00
-1.941938821249192e-19 -1.841719227259230e-17  6.839128759389150e-01
 1.214383635426098e+00  6.839128759389150e-01 -4.463481180365168e-17

-3.288653954200509e-17 -5.695189626994752e-19  1.315197073773477e+00
-5.695189626994752e-19 -2.094782209179834e-17  6.552379461524672e-01
 1.315197073773477e+00  6.552379461524672e-01 -4.937576497608227e-17

-4.203117960268716e-17 -2.693780190728603e-19  1.908377189097774e+00
-2.693780190728603e-19 -2.977703848144961e-17  1.311919833848884e-01
 1.908377189097774e+00  1.311919833848884e-01 -6.841830696734051e-17

-3.277885759905425e-17 -1.108410008951450e-18  1.399358987313172e+00
-1.108410008951450e-18 -2.225060077811620e-17  6.064202040750858e-01
 1.399358987313172e+00  6.064202040750858e-01 -5.299554711284413e-17

-5.140124942778783e-17  4.249975456125041e-18  1.298372332527491e+00
 4.249975456125041e-18 -2.304492043492806e-17  6.713118071873179e-01
 1.298372332527491e+00  6.713118071873179e-01 -5.010433730823051e-17

 2.657891922768355e-18 -1.215886202710249e-17  1.794102064133807e+00
-1.215886202710249e-17 -2.686000188208059e-17  1.219387094218160e-01
 1.794102064133807e+00  1.219387094218160e-01 -6.469785289079468e-17

-6.993369082097234e-17  9.639431891907448e-18  1.286452247546774e+00
 9.639431891907448e-18 -2.435200738930398e-17  6.692373952451136e-01
 1.286452247546774e+00  6.692373952451136e-01 -4.983944273008086e-17

-7.078608478861826e-17  9.828841826513613e-18  1.262574608869596e+00
 9.828841826513613e-18 -2.321562178702312e-17  7.141177800263372e-01
 1.262574608869596e+00  7.141177800263372e-01 -4.925359685926368e-17

-4.357387878659803e-17  1.598939661649484e-18  1.704057200245198e+00
 1.598939661649484e-18 -2.773276945248278e-17  1.953754914542021e-01
 1.704057200245198e+00  1.953754914542021e-01 -6.100701694554767e-17

-2.976322102650015e-17 -1.096981141420180e-18  1.116363470500979e+00
-1.096981141420180e-18 -1.871365201039015e-17  7.393009535965224e-01
 1.116363470500979e+00  7.393009535965224e-01 -4.302010720181986e-17

-2.953841395779080e-17 -9.488232960907333e-19  1.060688415274074e+00
-9.488232960907333e-19 -1.763931140517666e-17  7.493384531432411e-01
 1.060688415274074e+00  7.493384531432411e-01 -4.047933765248568e-17

-3.012730989116316e-17 -3.983353036414970e-20  1.248875562050123e+00
-3.983353036414970e-20 -2.067122106569973e-17  3.496277631745616e-01
 1.248875562050123e+00  3.496277631745616e-01 -4.338333738631400e-17

-2.873856562040923e-17 -3.410937546549320e-19  1.171605093036716e+00
-3.410937546549320e-19 -1.961751895248674e-17  3.978407202234169e-01
 1.171605093036716e+00  3.978407202234169e-01 -4.098772186097527e-17

-2.852257225822373e-17 -3.782938019698000e-19  1.071332104860296e+00
-3.782938019698000e-19 -1.738879162831108e-17  5.333132624750385e-01
 1.071332104860296e+00  5.333132624750385e-01 -3.792644471887899e-17

-2.679557769120624e-17 -7.537788066004797e-19  9.380978159360914e-01
-7.537788066004797e-19 -1.434935756837036e-17  7.009458337444386e-01
 9.380978159360914e-01  7.009458337444386e-01 -3.362847127699329e-17

-2.640095219342837e-17 -7.221516185883207e-19  9.118295085307636e-01
-7.221516185883207e-19 -1.445457833529746e-17  6.443977948031234e-01
 9.118295085307636e-01  6.443977948031234e-01 -3.231780207195529e-17

-3.012436731890667e-17  2.882741376994834e-20  1.102744766014902e+00
 2.882741376994834e-20 -1.952481014787480e-17  3.373975786251545e-01
 1.102744766014902e+00  3.373975786251545e-01 -3.794880247029416e-17

-3.316240101266742e-17  4.166955577988373e-19  1.076149501600458e+00
 4.166955577988373e-19 -2.010177727668819e-17  3.708302035802702e-01
 1.076149501600458e+00  3.708302035802702e-01 -3.753162101966333e-17

-5.958331815204650e-17  7.749717017733141e-18  1.011092566058712e+00
 7.749717017733141e-18 -2.000331040561020e-17  5.450650741080754e-01
 1.011092566058712e+00  5.450650741080754e-01 -3.563476515641031e-17

-8.881652878808680e-17  1.677474025310771e-17  1.182937282684348e+00
 1.677474025310771e-17 -2.491822862171479e-17  5.251654717460638e-01
 1.182937282684348e+00  5.251654717460638e-01 -4.204255839119566e-17

-2.536571938106651e-17 -1.923636117840069e-18  1.214313353146363e+00
-1.923636117840069e-18 -1.790611724052764e-17  6.797019607203874e-01
 1.214313353146363e+00  6.797019607203874e-01 -4.471771671849696e-17

-4.509105254622462e-17  2.695386425031843e-18  1.314526265036770e+00
 2.695386425031843e-18 -2.215034159327704e-17  6.521275114333217e-01
 1.314526265036770e+00  6.521275114333217e-01 -4.944449363301548e-17

-1.450648967588001e-17 -8.551973504155801e-18  1.906115414965129e+00
-8.551973504155801e-18 -2.786427952603629e-17  1.300772940071316e-01
 1.906115414965129e+00  1.300772940071316e-01 -6.845552804090825e-17

-2.948841310324365e-17 -2.171102817879671e-18  1.398581536507738e+00
-2.171102817879671e-18 -2.287996300667518e-17  6.035389645232827e-01
 1.398581536507738e+00  6.035389645232827e-01 -5.306453139741594e-17

-4.011445901429024e-17  1.047068617051937e-18  1.297119549665761e+00
 1.047068617051937e-18 -2.377643217366763e-17  6.677292518394343e-01
 1.297119549665761e+00  6.677292518394343e-01 -5.015486401110848e-17

-3.873666213252702e-17 -7.647443795251929e-19  1.790600307383108e+00
-7.647443795251929e-19 -3.036104241529303e-17  1.188827313175973e-01
 1.790600307383108e+00  1.188827313175973e-01 -6.468533054716513e-17

-3.342183577125445e-17 -7.934256192892730e-19  1.283297950002512e+00
-7.934256192892730e-19 -2.269649830298021e-17  6.646935969614358e-01
 1.283297950002512e+00  6.646935969614358e-01 -4.982068679595736e-17

-3.322155580279451e-17 -9.423223735629212e-19  1.260228089639334e+00
-9.423223735629212e-19 -2.079892578678881e-17  7.072329991471474e-01
 1.260228089639334e+00  7.072329991471474e-01 -4.925841077219276e-17

-3.799602148567592e-17 -1.942884159630715e-19  1.705044814178090e+00
-1.942884159630715e-19 -2.755927175006766e-17  1.865005061070569e-01
 1.705044814178090e+00  1.865005061070569e-01 -6.115904869965756e-17

-3.160468986486173e-17 -7.975864580524228e-19  1.112262545586194e+00
-7.975864580524228e-19 -1.903432299221003e-17  7.360115809298829e-01
 1.112262545586194e+00  7.360115809298829e-01 -4.302381384526585e-17

-3.059760686634495e-17 -8.777463042088554e-19  1.056089403963683e+00
-8.777463042088554e-19 -1.788194169432747e-17  7.465035711415592e-01
 1.056089403963683e+00  7.465035711415592e-01 -4.048464555700178e-17

-3.052996817739689e-17 -1.462185177522896e-19  1.246614042425617e+00
-1.462185177522896e-19 -2.121706839654258e-17  3.399592224380615e-01
 1.246614042425617e+00  3.399592224380615e-01 -4.342064824045941e-17

-2.855889578453957e-17 -6.163600108229656e-19  1.168172936821632e+00
-6.163600108229656e-19 -1.990430345344857e-17  3.852852978833269e-01
 1.168172936821632e+00  3.852852978833269e-01 -4.098814285568340e-17

-2.895726186329669e-17 -4.346625458621022e-19  1.065839577448708e+00
-4.346625458621022e-19 -1.758152883864210e-17  5.198088454088357e-01
 1.065839577448708e+00  5.198088454088357e-01 -3.786948467679973e-17

-3.250061598579477e-17  7.976875103681182e-19  9.291847862757014e-01
 7.976875103681182e-19 -1.486106719189350e-17  6.879385452291360e-01
 9.291847862757014e-01  6.879385452291360e-01 -3.346219240590779e-17

-2.466193942304032e-17 -1.400954612374963e-18  8.999427686575765e-01
-1.400954612374963e-18 -1.472291131098113e-17  6.328076767516073e-01
 8.999427686575765e-01  6.328076767516073e-01 -3.207361053851511e-17

-3.201261338410491e-17  4.953624127853628e-19  1.090645886080878e+00
 4.953624127853628e-19 -1.985069252027579e-17  3.231854781303404e-01
 1.090645886080878e+00  3.231854781303404e-01 -3.771227105150174e-17

 3.210929399009526e-18 -1.056006900908342e-17  1.062635786661805e+00
-1.056006900908342e-17 -1.710481233430796e-17  3.535305389332593e-01
 1.062635786661805e+00  3.535305389332593e-01 -3.724041377704642e-17

-2.922628151832862e-17 -8.262725246081107e-19  9.889438798290674e-01
-8.262725246081107e-19 -1.770018545453619e-17  5.275946427319781e-01
 9.889438798290674e-01  5.275946427319781e-01 -3.497988865766767e-17

-3.822971312065286e-17  1.182835345007498e-18  1.159157123662566e+00
 1.182835345007498e-18 -2.009350408254092e-17  5.027196060356725e-01
 1.159157123662566e+00  5.027196060356725e-01 -4.123152010183498e-17

-3.384348307618076e-17  3.166935700909167e-19  1.180915516828233e+00
 3.166935700909167e-19 -1.902395883655883e-17  6.526638975900276e-01
 1.180915516828233e+00  6.526638975900276e-01 -4.309688728752404e-17

-3.405460500394627e-17 -4.530372509522984e-19  1.265429116266620e+00
-4.530372509522984e-19 -2.042840268169185e-17  6.329043083964317e-01
 1.265429116266620e+00  6.329043083964317e-01 -4.697648881156728e-17

-3.938824425619446e-17 -1.175576547072224e-18  1.848695724140666e+00
-1.175576547072224e-18 -2.928238406739631e-17  1.194548827419755e-01
 1.848695724140666e+00  1.194548827419755e-01 -6.610895924081955e-17

-3.403884484272712e-17 -9.898226095752046e-19  1.353366069781045e+00
-9.898226095752046e-19 -2.239193006570764e-17  5.747962717779289e-01
 1.353366069781045e+00  5.747962717779289e-01 -5.056019561744223e-17

-3.359937729890953e-17 -9.253840455618640e-19  1.253815579960842e+00
-9.253840455618640e-19 -2.240176867512252e-17  6.338682972232939e-01
 1.253815579960842e+00  6.338682972232939e-01 -4.766747092343934e-17

-3.883232713493833e-17 -7.651353446666441e-19  1.736092525265878e+00
-7.651353446666441e-19 -3.016428737642180e-17  1.034652452300068e-01
 1.736092525265878e+00  1.034652452300068e-01 -6.245194283163364e-17

-3.379611492252318e-17 -6.952292430833549e-19  1.237461861770024e+00
-6.952292430833549e-19 -2.203644556063980e-17  6.342375104497002e-01
 1.237461861770024e+00  6.342375104497002e-01 -4.746651293497739e-17

-3.359415928736628e-17 -8.586692493963260e-19  1.216012819103846e+00
-8.586692493963260e-19 -2.149915128799424e-17  6.773471885090133e-01
 1.216012819103846e+00  6.773471885090133e-01 -4.701716541930752e-17

-3.715496694419786e-17 -4.592237397848108e-19  1.628014708285813e+00
-4.592237397848108e-19 -2.719825202730684e-17  1.907508455465643e-01
 1.628014708285813e+00  1.907508455465643e-01 -5.837481690644077e-17

-3.152605733544790e-17 -8.929839937993105e-19  1.063899566362991e+00
-8.929839937993105e-19 -1.873436718828015e-17  7.045064666960741e-01
 1.063899566362991e+00  7.045064666960741e-01 -4.080923794681125e-17

-3.077255351746342e-17 -9.491004394291668e-19  1.033269305731919e+00
-9.491004394291668e-19 -1.820723557128959e-17  6.896763871475108e-01
 1.033269305731919e+00  6.896763871475108e-01 -3.919986149428642e-17

-3.059827652388286e-17 -3.578264141680467e-19  1.218899942620600e+00
-3.578264141680467e-19 -2.132999729384551e-17  3.064011652149307e-01
 1.218899942620600e+00  3.064011652149307e-01 -4.261378643381531e-17

-2.824638326422337e-17 -9.372946271790136e-19  1.145222966435505e+00
-9.372946271790136e-19 -2.005011934859952e-17  3.498743553550785e-01
 1.145222966435505e+00  3.498743553550785e-01 -4.039568557323205e-17

-2.945697416129074e-17 -5.901866480602275e-19  1.059216150454491e+00
-5.901866480602275e-19 -1.810960951348846e-17  4.678810436264818e-01
 1.059216150454491e+00  4.678810436264818e-01 -3.785416187580061e-17

-2.856092600167755e-17 -7.227698142184279e-19  9.347822783762946e-01
-7.227698142184279e-19 -1.540655314387033e-17  6.244521620964798e-01
 9.347822783762946e-01  6.244521620964798e-01 -3.392525371988978e-17

-6.354316156944827e-17  9.267688155970206e-18  9.263068042544363e-01
 9.267688155970206e-18 -1.841752396120468e-17  5.674433718900540e-01
 9.263068042544363e-01  5.674433718900540e-01 -3.336788408394290e-17

-5.231590879148987e-17  6.014338351907796e-18  1.115417918197251e+00
 6.014338351907796e-18 -2.146345715329920e-17  2.822807839425724e-01
 1.115417918197251e+00  2.822807839425724e-01 -3.897564184326945e-17

-7.289091303576652e-17  1.184720896110759e-17  1.035944645442574e+00
 1.184720896110759e-17 -2.194608654550521e-17  3.611316039315710e-01
 1.035944645442574e+00  3.611316039315710e-01 -3.652953095570880e-17

-2.767586241988428e-17 -4.725766041501547e-19  8.398035764115411e-01
-4.725766041501547e-19 -1.414981233880156e-17  6.026100190403024e-01
 8.398035764115411e-01  6.026100190403024e-01 -2.972451536523963e-17

-2.421055655323350e-17 -1.916833215326627e-18  9.391986547095903e-01
-1.916833215326627e-18 -1.526925580418287e-17  5.309602921142692e-01
 9.391986547095903e-01  5.309602921142692e-01 -3.327324430569471e-17

-1.904348190013714e-17 -3.830180870518348e-18  1.055860592338152e+00
-3.830180870518348e-18 -1.723752147548464e-17  4.053651278097171e-01
 1.055860592338152e+00  4.053651278097171e-01 -3.740377182285570e-17

-2.957245900036309e-17 -8.831369512046148e-19  1.043831635951987e+00
-8.831369512046148e-19 -1.825468410108825e-17  4.122046154182932e-01
 1.043831635951987e+00  4.122046154182932e-01 -3.700168775334504e-17

-2.884385483678210e-17 -1.110942992667494e-18  1.023768549545611e+00
-1.110942992667494e-18 -1.736831294942297e-17  4.656970200897517e-01
 1.023768549545611e+00  4.656970200897517e-01 -3.629715507726408e-17

-2.957334634820269e-17 -1.038576552224411e-18  1.021702724356999e+00
-1.038576552224411e-18 -1.706592785876429e-17  5.151259284015354e-01
 1.021702724356999e+00  5.151259284015354e-01 -3.623357342484042e-17

-2.966690533261826e-17 -1.279107836016105e-18  1.060581604196880e+00
-1.279107836016105e-18 -1.709306076157545e-17  5.259225520011978e-01
 1.060581604196880e+00  5.259225520011978e-01 -3.768671433391252e-17

-3.177033925364021e-17 -6.684341249415227e-19  9.752741242064467e-01
-6.684341249415227e-19 -1.583316762186827e-17  6.277686424299480e-01
 9.752741242064467e-01  6.277686424299480e-01 -3.493468470893391e-17

-2.278656027522095e-17 -3.816958844824089e-18  9.324870291315183e-01
-3.816958844824089e-18 -1.538564689405680e-17  5.872177686907810e-01
 9.324870291315183e-01  5.872177686907810e-01 -3.325431391749961e-17

-4.184100912446244e-17  3.583412821094710e-18  1.123148383026467e+00
 3.583412821094710e-18 -2.240531089923455e-17  2.902910640820445e-01
 1.123148383026467e+00  2.902910640820445e-01 -3.914329917090183e-17

-3.477280032098413e-17 -3.754691186399725e-18  1.089953351701619e+00
-3.754691186399725e-18 -2.038440786314201e-17  3.275883341809977e-01
 1.089953351701619e+00  3.275883341809977e-01 -3.846495463639587e-17

-5.238807297587092e-17 -5.118326635194393e-18  1.010532646606930e+00
-5.118326635194393e-18 -1.735420528429291e-17  5.041868642274953e-01
 1.010532646606930e+00  5.041868642274953e-01 -3.601561074912111e-17

-4.083332398913726e-17 -9.845389035590431e-18  1.187073314713292e+00
-9.845389035590431e-18 -1.829317232552742e-17  4.699056395148495e-01
 1.187073314713292e+00  4.699056395148495e-01 -4.259464662645737e-17

-1.244945049395398e-17 -4.930850144873951e-18  1.219624508191264e+00
-4.930850144873951e-18 -1.996857359569957e-17  6.114838625360358e-01
 1.219624508191264e+00  6.114838625360358e-01 -4.500127447490419e-17

-6.397602885749353e-17  7.296539485292879e-18  1.265527137028404e+00
 7.296539485292879e-18 -2.458648728170990e-17  6.324567445582634e-01
 1.265527137028404e+00  6.324567445582634e-01 -4.785453401865289e-17

-6.106709562604388e-17  5.118745257728819e-18  1.809893520431012e+00
 5.118745257728819e-18 -3.257439885835677e-17  1.582420051923607e-01
 1.809893520431012e+00  1.582420051923607e-01 -6.588065564252255e-17

-4.172394398967911e-17 -3.284677961320788e-19  1.383486376597946e+00
-3.284677961320788e-19 -2.532728102793207e-17  5.559875771717241e-01
 1.383486376597946e+00  5.559875771717241e-01 -5.265796064654610e-17

-5.562097145936017e-17  3.746786176182390e-18  1.329403246640567e+00
 3.746786176182390e-18 -2.620706801385858e-17  5.905168976360543e-01
 1.329403246640567e+00  5.905168976360543e-01 -5.135058563468392e-17

-4.084276931534429e-17 -2.128752774352094e-18  1.806348399184046e+00
-2.128752774352094e-18 -3.189134901135078e-17  1.258175310018582e-01
 1.806348399184046e+00  1.258175310018582e-01 -6.623323483470284e-17

-3.401072790270862e-17 -2.517997319750199e-18  1.223882873669317e+00
-2.517997319750199e-18 -2.279209413403206e-17  7.692863237531617e-01
 1.223882873669317e+00  7.692863237531617e-01 -4.969072419470331e-17

-3.611691062054042e-17 -2.254938008465675e-18  1.176162028580721e+00
-2.254938008465675e-18 -2.220134694204034e-17  7.907486010306165e-01
 1.176162028580721e+00  7.907486010306165e-01 -4.826404145394979e-17

-4.363011195477095e-17  1.698235087443869e-18  1.414008139463343e+00
 1.698235087443869e-18 -2.575709042711071e-17  2.654278985840793e-01
 1.414008139463343e+00  2.654278985840793e-01 -4.963564048250156e-17

-3.030647134629544e-17 -2.807992624564572e-18  1.413862983456772e+00
-2.807992624564572e-18 -2.400173189558047e-17  2.052685232915401e-01
 1.413862983456772e+00  2.052685232915401e-01 -4.953367661327210e-17

-3.914184628108089e-17  4.872974877750751e-19  1.114310474123250e+00
 4.872974877750751e-19 -2.047727915920230e-17  5.045331309149426e-01
 1.114310474123250e+00  5.045331309149426e-01 -4.137535062548599e-17

 1.047782250256619e-16 -4.902688566868497e-17  5.177879989545607e-01
-4.902688566868497e-17  4.648312074662536e-18  9.973526108223720e-01
 5.177879989545607e-01  9.973526108223720e-01 -2.414269346082730e-17

 3.543083011992296e-17 -2.449102637671994e-17  9.782993315913223e-01
-2.449102637671994e-17 -9.223189339573333e-18  4.659704356670379e-01
 9.782993315913223e-01  4.659704356670379e-01 -3.470035271969873e-17

 1.642591649444934e-16 -6.917482999667558e-17  9.995290030765557e-01
-6.917482999667558e-17  5.314678685052496e-18  2.629681519177689e-01
 9.995290030765557e-01  2.629681519177689e-01 -3.354715408815913e-17

-1.226739832452954e-16  3.184681239195745e-17  7.972056516404556e-01
 3.184681239195745e-17 -2.695019607477660e-17  5.238302626942117e-01
 7.972056516404556e-01  5.238302626942117e-01 -2.853926691763345e-17

-1.610625361838523e-16  4.483643232845754e-17  8.865863139140679e-01
 4.483643232845754e-17 -3.234395414123457e-17  4.983104762993563e-01
 8.865863139140679e-01  4.983104762993563e-01 -3.199331565589306e-17

-5.783533497368559e-17  8.303859442705689e-18  8.772520548408251e-01
 8.303859442705689e-18 -1.769959561772661e-17  6.183994748785934e-01
 8.772520548408251e-01  6.183994748785934e-01 -3.198074585928022e-17

-2.383898720681350e-17 -4.214090646523450e-18  9.466653394618040e-01
-4.214090646523450e-18 -1.623871361768661e-17  4.606946708734912e-01
 9.466653394618040e-01  4.606946708734912e-01 -3.451947030946756e-17

-3.285205262940800e-17 -1.903076739329046e-18  1.063984962279141e+00
-1.903076739329046e-18 -2.071941919236140e-17  2.922360975440411e-01
 1.063984962279141e+00  2.922360975440411e-01 -3.886596071649096e-17

-3.371642090798482e-17 -1.443955527885300e-18  1.085665461704869e+00
-1.443955527885300e-18 -1.888233186773108e-17  4.489284568469178e-01
 1.085665461704869e+00  4.489284568469178e-01 -4.005073581919838e-17

-3.599049127753109e-17 -1.901672767642938e-18  1.203133968097523e+00
-1.901672767642938e-18 -2.164719083063140e-17  4.027691421117179e-01
 1.203133968097523e+00  4.027691421117179e-01 -4.501011540622256e-17

-3.252369604859989e-17 -2.933849233828972e-18  8.082766037447835e-01
-2.933849233828972e-18 -1.555734153766700e-17  7.897873497960446e-01
 8.082766037447835e-01  7.897873497960446e-01 -3.411668257231686e-17

-3.053006885418145e-17 -2.896704206457588e-18  6.811753875265520e-01
-2.896704206457588e-18 -1.519136976220249e-17  7.374541310918261e-01
 6.811753875265520e-01  7.374541310918261e-01 -2.925814908351656e-17

-3.490394296717516e-17 -1.512092970939225e-18  1.228482290354661e+00
-1.512092970939225e-18 -2.409533434009937e-17  1.926347027832735e-02
 1.228482290354661e+00  1.926347027832735e-02 -4.175365721826594e-17

-3.297089839741824e-17 -2.250397924032617e-18  9.981223651672976e-01
-2.250397924032617e-18 -2.101117326893530e-17  2.422664726796008e-01
 9.981223651672976e-01  2.422664726796008e-01 -3.631469335331591e-17

-2.962142519246280e-17 -1.848160442037420e-18  6.595761182657122e-01
-1.848160442037420e-18 -1.445623764969700e-17  6.083829380679704e-01
 6.595761182657122e-01  6.083829380679704e-01 -2.527219061838261e-17

-3.604483430496493e-17 -2.550893585349906e-18  1.141197114366385e+00
-2.550893585349906e-18 -2.117392650124015e-17  3.237805348146793e-01
 1.141197114366385e+00  3.237805348146793e-01 -4.264265419565110e-17

-3.539841414198290e-17 -2.360227756844810e-18  1.030106406941922e+00
-2.360227756844810e-18 -1.875766325904651e-17  4.979278074336233e-01
 1.030106406941922e+00  4.979278074336233e-01 -3.880165484664599e-17

-3.580146721506703e-17 -2.588465396422426e-18  1.004803287206797e+00
-2.588465396422426e-18 -1.715416904858656e-17  5.817679473791459e-01
 1.004803287206797e+00  5.817679473791459e-01 -3.837641435666160e-17

-3.860413379335444e-17 -2.888111727224293e-18  1.241808539686518e+00
-2.888111727224293e-18 -2.289070418525500e-17  2.595209501142209e-01
 1.241808539686518e+00  2.595209501142209e-01 -4.663451730171849e-17

-3.788222383512605e-17 -3.363501769534177e-18  1.117742054365797e+00
-3.363501769534177e-18 -2.063013619562383e-17  4.382837089007052e-01
 1.117742054365797e+00  4.382837089007052e-01 -4.340339592366104e-17

-3.357874030705169e-17 -4.238652923764643e-18  6.574668330614628e-01
-4.238652923764643e-18 -1.336010624172768e-17  8.907957988424196e-01
 6.574668330614628e-01  8.907957988424196e-01 -3.036594755420876e-17

-3.270160474320146e-17 -4.310343115335260e-18  6.084607510378127e-01
-4.310343115335260e-18 -1.405704433292191e-17  8.012800906430174e-01
 6.084607510378127e-01  8.012800906430174e-01 -2.882401975028714e-17

-3.715158378485461e-17 -2.235338531317779e-18  1.171613141575756e+00
-2.235338531317779e-18 -2.175349376704024e-17  8.466986805947450e-02
 1.171613141575756e+00  8.466986805947450e-02 -4.007702444514777e-17

-3.605749799226616e-17 -3.076597737588969e-18  1.029001743131214e+00
-3.076597737588969e-18 -2.101033729731871e-17  1.546886216141975e-01
 1.029001743131214e+00  1.546886216141975e-01 -3.704416299083691e-17

-3.005656008663170e-17 -3.315358087787927e-18  3.845079364340820e-01
-3.315358087787927e-18 -9.595543943317764e-18  8.383519595587319e-01
 3.845079364340820e-01  8.383519595587319e-01 -1.712971514687432e-17

-3.046663886227965e-17 -3.566026277403791e-18  3.839852571607074e-01
-3.566026277403791e-18 -1.013190552908612e-17  8.387367213598078e-01
 3.839852571607074e-01  8.387367213598078e-01 -1.741560975085099e-17

-3.955831496578171e-17 -4.149553858394395e-18  1.164231861999260e+00
-4.149553858394395e-18 -2.213551984338103e-17  2.055637214865014e-01
 1.164231861999260e+00  2.055637214865014e-01 -4.402698508672485e-17

-4.052756781385038e-17 -4.627165007479515e-18  1.183043666975863e+00
-4.627165007479515e-18 -2.321434447913528e-17  2.010974794345298e-01
 1.183043666975863e+00  2.010974794345298e-01 -4.514984996808872e-17

-4.053658711489115e-17 -4.107257752299297e-18  1.081157319516458e+00
-4.107257752299297e-18 -2.036392822057664e-17  4.087357788358894e-01
 1.081157319516458e+00  4.087357788358894e-01 -4.207039460058611e-17

-4.114212022184963e-17 -3.469249311192684e-18  1.050394274781104e+00
-3.469249311192684e-18 -1.812117830594507e-17  5.680152449325868e-01
 1.050394274781104e+00  5.680152449325868e-01 -4.141152022318947e-17

-4.389988256770441e-17 -4.286228546548449e-18  1.153636138510726e+00
-4.286228546548449e-18 -1.964901075215366e-17  6.197543518815450e-01
 1.153636138510726e+00  6.197543518815450e-01 -4.632800523767278e-17

-4.205748108872305e-17 -5.267484353765901e-18  9.283866585584021e-01
-5.267484353765901e-18 -1.855979970575590e-17  5.996007029143828e-01
 9.283866585584021e-01  5.996007029143828e-01 -3.965903588823901e-17

-4.248770355706622e-17 -4.166047691536937e-18  1.053032328492721e+00
-4.166047691536937e-18 -2.126182817831439e-17  2.281570703184521e-01
 1.053032328492721e+00  2.281570703184521e-01 -3.977128522697314e-17

-4.414889478873323e-17 -4.822140792163789e-18  1.153627401911256e+00
-4.822140792163789e-18 -2.375355972359887e-17  7.274403692592710e-02
 1.153627401911256e+00  7.274403692592710e-02 -4.299154779267879e-17

-4.476508625547805e-17 -5.589082731006628e-18  1.049360909288227e+00
-5.589082731006628e-18 -2.080947626148412e-17  3.377760578641580e-01
 1.049360909288227e+00  3.377760578641580e-01 -4.181532187108468e-17

-4.165250380728050e-17 -4.197907664765810e-18  7.173901987848457e-01
-4.197907664765810e-18 -1.420384208729012e-17  7.140297904242563e-01
 7.173901987848457e-01  7.140297904242563e-01 -3.172360388446048e-17

-4.574807247828060e-17 -5.182950376238794e-18  9.072530861538045e-01
-5.182950376238794e-18 -1.587986095053247e-17  7.134073432406245e-01
 9.072530861538045e-01  7.134073432406245e-01 -3.909279840528498e-17

-4.898103661602723e-17 -5.972430882152526e-18  1.117086137300548e+00
-5.972430882152526e-18 -2.264012213212104e-17  3.210898374434757e-01
 1.117086137300548e+00  3.210898374434757e-01 -4.566977102188408e-17

-5.270906891682130e-17 -7.350015708405159e-18  1.299229091984183e+00
-7.350015708405159e-18 -2.691935635422598e-17  1.744230105502548e-01
 1.299229091984183e+00  1.744230105502548e-01 -5.168035639303137e-17

-5.581983842195301e-17 -7.271369510956654e-18  1.406184322783714e+00
-7.271369510956654e-18 -2.715521483887751e-17  3.017863427267804e-01
 1.406184322783714e+00  3.017863427267804e-01 -5.624443471551612e-17

-5.372068903143700e-17 -4.799029735327482e-18  1.163360391148266e+00
-4.799029735327482e-18 -2.291149371511093e-17  5.521272397749654e-01
 1.163360391148266e+00  5.521272397749654e-01 -5.272280886544103e-17

-5.969973075178326e-17 -6.428175673102599e-18  1.390831372773224e+00
-6.428175673102599e-18 -2.486578766221436e-17  6.947132205290880e-01
 1.390831372773224e+00  6.947132205290880e-01 -6.365914071458598e-17

-5.856850308334740e-17 -7.013896233913515e-18  1.257454062034487e+00
-7.013896233913515e-18 -2.451688563426565e-17  4.362113864481944e-01
 1.257454062034487e+00  4.362113864481944e-01 -5.513479088395413e-17

-6.102280100530260e-17 -5.395820486470952e-18  1.575156410203551e+00
-5.395820486470952e-18 -2.748884672244521e-17 -1.193980852474481e-01
 1.575156410203551e+00 -1.193980852474481e-01 -5.935167299210682e-17

-5.830399754911083e-17 -6.404367635705072e-18  1.214628932894078e+00
-6.404367635705072e-18 -2.311699775518443e-17  1.234665430579788e-01
 1.214628932894078e+00  1.234665430579788e-01 -5.013461141042052e-17

-6.043802007652953e-17 -8.023932762620251e-18  1.040360637413924e+00
-8.023932762620251e-18 -1.807281150013139e-17  4.528745714424183e-01
 1.040360637413924e+00  4.528745714424183e-01 -4.804061059475551e-17

-6.110072870684016e-17 -8.762161266112729e-18  8.504186798319836e-01
-8.762161266112729e-18 -1.347989463329008e-17  7.345535030450049e-01
 8.504186798319836e-01  7.345535030450049e-01 -4.296729303718653e-17

-6.326798323295977e-17 -9.288994084241030e-18  8.848604767805944e-01
-9.288994084241030e-18 -1.399431581619717e-17  6.982988504703156e-01
 8.848604767805944e-01  6.982988504703156e-01 -4.520681590551820e-17

-6.754302750202262e-17 -8.912730243953712e-18  1.054956120639202e+00
-8.912730243953712e-18 -1.588953870668570e-17  2.751169279337645e-01
 1.054956120639202e+00  2.751169279337645e-01 -5.027112894787591e-17

-6.836045409339907e-17 -9.629943385565203e-18  9.239123193687915e-01
-9.629943385565203e-18 -1.438128471175874e-17  3.312164674350826e-01
 9.239123193687915e-01  3.312164674350826e-01 -4.703874134515761e-17

-7.028732367870107e-17 -1.023024371291547e-17  9.165410500368550e-01
-1.023024371291547e-17 -1.359602809036105e-17  3.670590364797135e-01
 9.165410500368550e-01  3.670590364797135e-01 -4.784688522218151e-17

-7.465926496977182e-17 -1.093412707354616e-17  1.082330473283330e+00
-1.093412707354616e-17 -1.500488529857443e-17  3.131218900115215e-01
 1.082330473283330e+00  3.131218900115215e-01 -5.471939643437067e-17

-8.210494072079179e-17 -1.137020726935583e-17  1.185732070604385e+00
-1.137020726935583e-17 -1.548101314094541e-17  4.341347971609720e-01
 1.185732070604385e+00  4.341347971609720e-01 -6.066671808715272e-17

-9.159263716003978e-17 -1.375553686663558e-17  1.186921587139383e+00
-1.375553686663558e-17 -1.237577652900009e-17  5.711549413339319e-01
 1.186921587139383e+00  5.711549413339319e-01 -6.529465444362335e-17

-9.446322304710523e-17 -1.391928093854030e-17  1.119519624158013e+00
-1.391928093854030e-17 -9.621608167384546e-18  4.620204078540869e-01
 1.119519624158013e+00  4.620204078540869e-01 -6.354687626675953e-17

-9.834590136327194e-17 -1.318242160514434e-17  1.185685051157772e+00
-1.318242160514434e-17 -7.779183220857856e-18  2.457260123884401e-01
 1.185685051157772e+00  2.457260123884401e-01 -6.553723570464003e-17

-1.042118777303616e-16 -1.351239138764415e-17  1.211563047637292e+00
-1.351239138764415e-17 -4.258703562609901e-18  1.720747580136398e-01
 1.211563047637292e+00  1.720747580136398e-01 -6.881115185162242e-17

-1.088008872452926e-16 -1.534642403488748e-17  9.086672328259258e-01
-1.534642403488748e-17  4.301512039159599e-18  5.671021685944927e-01
 9.086672328259258e-01  5.671021685944927e-01 -6.191973689298638e-17

-1.154888474930062e-16 -1.577581555305343e-17  9.242549401178392e-01
-1.577581555305343e-17  8.253389725303368e-18  5.572715530393860e-01
 9.242549401178392e-01  5.572715530393860e-01 -6.519139557883654e-17

-1.257972380203441e-16 -1.381070920450147e-17  1.625712037564761e+00
-1.381070920450147e-17  3.756277209186448e-18 -4.891458443397771e-02
 1.625712037564761e+00 -4.891458443397771e-02 -8.892254632721227e-17

-1.287693927183104e-16 -1.387643884180867e-17  1.640067832223800e+00
-1.387643884180867e-17  5.818051112211774e-18 -4.001042881020808e-02
 1.640067832223800e+00 -4.001042881020808e-02 -9.041488709533555e-17

-1.241460589051577e-16 -1.698215159025074e-17  7.971774484143861e-01
-1.698215159025074e-17  1.728464390604270e-17  7.290305787572477e-01
 7.971774484143861e-01  7.290305787572477e-01 -6.518117946225435e-17

-1.292998411752243e-16 -1.729178985436727e-17  6.552561098838233e-01
-1.729178985436727e-17  2.529884824188572e-17  8.512886772620165e-01
 6.552561098838233e-01  8.512886772620165e-01 -6.374116215485854e-17

-1.418310882738392e-16 -1.141467858166763e-17  1.086408579693631e+00
-1.141467858166763e-17  3.097760194644766e-17  2.308880737583523e-01
 1.086408579693631e+00  2.308880737583523e-01 -7.758782938343524e-17

-1.603793432431946e-16 -1.039286188330209e-17  8.822482301811129e-01
-1.039286188330209e-17  5.069017799718253e-17  4.018833794828138e-01
 8.822482301811129e-01  4.018833794828138e-01 -8.002702071663267e-17

-1.920311350215834e-16 -8.631576259106491e-18  9.378150895025164e-01
-8.631576259106491e-18  7.788807193345574e-17  5.213795317485428e-01
 9.378150895025164e-01  5.213795317485428e-01 -9.385718781650019e-17

-2.185411867540876e-16 -1.875231311978014e-18  8.844126408903852e-01
-1.875231311978014e-18  1.082615891052320e-16  4.779037783836965e-01
 8.844126408903852e-01  4.779037783836965e-01 -1.035204528168776e-16

-2.520490163562996e-16  1.216881702195105e-17  9.760085865464809e-01
 1.216881702195105e-17  1.411999058167751e-16  2.893659242646181e-01
 9.760085865464809e-01  2.893659242646181e-01 -1.195275465301181e-16

-2.770299410873215e-16  1.294984206489291e-17  9.528051512727075e-01
 1.294984206489291e-17  1.668175812907843e-16  3.871596605423945e-01
 9.528051512727075e-01  3.871596605423945e-01 -1.289737818028100e-16

-3.113011285488618e-16  1.019507207298440e-17  1.095128428329965e+00
 1.019507207298440e-17  2.157064703438291e-16  3.983049169721669e-01
 1.095128428329965e+00  3.983049169721669e-01 -1.517601981128495e-16

-4.341171175897697e-16  4.881739973973032e-17  1.030544004870397e+00
 4.881739973973032e-17  2.313923294325207e-16  5.487313002161835e-01
 1.030544004870397e+00  5.487313002161835e-01 -1.638499305911841e-16

-4.139880120067092e-16  2.667997183892558e-17  1.136326598373391e+00
 2.667997183892558e-17  3.122097673160982e-16  4.905912327399519e-01
 1.136326598373391e+00  4.905912327399519e-01 -1.890161810775380e-16

-5.157127527779863e-16  8.326939636470148e-17  1.108831197163416e+00
 8.326939636470148e-17  5.096786287365082e-16  4.798322353156566e-01
 1.108831197163416e+00  4.798322353156566e-01 -2.468383871635633e-16

-6.389187271149639e-16  2.387057917190088e-16  1.138774646831054e+00
 2.387057917190088e-16  6.898337604241265e-16  2.788759912710436e-01
 1.138774646831054e+00  2.788759912710436e-01 -3.041992065836629e-16

-7.360133839695571e-16  3.614554416609414e-16  1.019202758321726e+00
 3.614554416609414e-16  9.048989429061750e-16  3.784649265642647e-01
 1.019202758321726e+00  3.784649265642647e-01 -3.610017841684834e-16

-8.496379642875916e-16  4.952562833703894e-16  7.926117258220147e-01
 4.952562833703894e-16  1.148335964208320e-15  6.721178806717134e-01
 7.926117258220147e-01  6.721178806717134e-01 -4.250127998369566e-16

-8.833913389110647e-16  7.671565003207070e-16  9.043888436820195e-01
 7.671565003207070e-16  1.375207832177748e-15  4.353725365044177e-01
 9.043888436820195e-01  4.353725365044177e-01 -5.067956378303400e-16

-8.538393115173454e-16  1.126796277867412e-15  9.825980888871861e-01
 1.126796277867412e-15  1.569140915407721e-15  2.115998806842185e-01
 9.825980888871861e-01  2.115998806842185e-01 -6.063911587661144e-16

-1.031834819476311e-15  1.559580367126625e-15  9.706678177432583e-01
 1.559580367126625e-15  2.163638104954721e-15  3.475866993607186e-01
 9.706678177432583e-01  3.475866993607186e-01 -7.805445481935497e-16

-1.426543118151438e-15  1.785223074678594e-15  7.242580435115390e-01
 1.785223074678594e-15  3.075625330088119e-15  6.932176183862140e-01
 7.242580435115390e-01  6.932176183862140e-01 -9.599665072844317e-16

-1.425663193812934e-15  2.704311708297875e-15  1.124013238074361e+00
 2.704311708297875e-15  3.909098538401259e-15  4.395853239445121e-01
 1.124013238074361e+00  4.395853239445121e-01 -1.256934054744922e-15

-7.862676890595742e-16  4.856786335471481e-15  1.067365322194809e+00
 4.856786335471481e-15  5.210317833151691e-15  3.349384332394120e-01
 1.067365322194809e+00  3.349384332394120e-01 -1.891693997765746e-15

 8.781054661230302e-16  7.610633039854610e-15  9.884669611124532e-01
 7.610633039854610e-15  6.545640173257326e-15  3.541646417368876e-01
 9.884669611124532e-01  3.541646417368876e-01 -2.915644163014876e-15

 3.400369234933705e-15  1.027266104686664e-14  9.586786616763362e-01
 1.027266104686664e-14  9.119785401680158e-15  3.680999457344875e-01
 9.586786616763362e-01  3.680999457344875e-01 -5.294653648650668e-15

 3.841055267728323e-15  4.183782803718447e-15  8.593919976884247e-01
 4.183782803718447e-15  2.137459522850480e-14  4.725509215442346e-01
 8.593919976884247e-01  4.725509215442346e-01 -8.614519040069987e-15

 1.084480687197643e-14 -9.958523799534269e-15  8.270515918322563e-01
-9.958523799534269e-15  3.995314877489054e-14  4.421198025084533e-01
 8.270515918322563e-01  4.421198025084533e-01 -6.838439531023127e-15

 1.247089338050681e-13 -5.021663487881372e-14  8.406915114016434e-01
-5.021663487881372e-14  1.007895567276596e-13  3.344477710893431e-01
 8.406915114016434e-01  3.344477710893431e-01  3.562217473385718e-14

-6.284628817084573e-13  1.259061932897713e-13  8.734920063296969e-01
 1.259061932897713e-13 -1.564722149116566e-13  3.211326532828127e-01
 8.734920063296969e-01  3.211326532828127e-01 -2.071356653927491e-13

 2.462313665386058e-13 -9.694673215806494e-14  8.221702112802901e-01
-9.694673215806494e-14  1.578313555983510e-13  3.582823631528954e-01
 8.221702112802901e-01  3.582823631528954e-01  8.053225595599237e-14

-6.786745711628910e-13  1.369107935822009e-13  6.312981900890657e-01
 1.369107935822009e-13 -2.653882249442174e-13  5.790963896059151e-01
 6.312981900890657e-01  5.790963896059151e-01 -1.601227830829248e-13

 8.371045297409274e-14 -5.997516081496664e-14  8.883057252251501e-01
-5.997516081496664e-14  9.774150229831745e-14  2.585281045612463e-01
 8.883057252251501e-01  2.585281045612463e-01  2.319829779814916e-14

-8.479023832494848e-15 -1.302656634777592e-14  8.332370626884296e-01
-1.302656634777592e-14  2.794675838746616e-14  3.359072417392093e-01
 8.332370626884296e-01  3.359072417392093e-01 -7.057232414309379e-15

-1.400638214015676e-14 -4.088181822812459e-15  7.522103633490274e-01
-4.088181822812459e-15  8.625919634608538e-15  4.360634017524943e-01
 7.522103633490274e-01  4.360634017524943e-01 -8.386318887686780e-15

-1.237167291845646e-14 -2.153121034963506e-15  8.253644867946315e-01
-2.153121034963506e-15  2.158141572378679e-15  4.173014400811057e-01
 8.253644867946315e-01  4.173014400811057e-01 -7.346799126380372e-15

-1.044522166690765e-14 -1.537454530372537e-15  1.015787291970725e+00
-1.537454530372537e-15  7.187196339111104e-17  3.158493038792554e-01
 1.015787291970725e+00  3.158493038792554e-01 -6.039697089889501e-15

-6.527725585184699e-15 -1.218734102765559e-15  1.055715845738738e+00
-1.218734102765559e-15 -1.859114693834129e-15  3.822953865068826e-01
 1.055715845738738e+00  3.822953865068826e-01 -3.202523572640955e-15

-4.268131066509735e-15 -5.643957185155983e-17  9.713202651630285e-01
-5.643957185155983e-17 -1.400278678275594e-15  5.558180483412389e-01
 9.713202651630285e-01  5.558180483412389e-01 -1.566308998181386e-15

-3.662734506601135e-15  2.083607008006035e-16  9.898353183392998e-01
 2.083607008006035e-16 -1.198161938170250e-15  4.801370822029170e-01
 9.898353183392998e-01  4.801370822029170e-01 -1.294971694554835e-15

-3.127789821853689e-15  3.710026570593251e-16  1.266581812811350e+00
 3.710026570593251e-16 -7.780537766877173e-16  1.699451866522390e-01
 1.266581812811350e+00  1.699451866522390e-01 -1.153541590279295e-15

-2.568537653920411e-15  4.354936513006033e-16  1.086915017320972e+00
 4.354936513006033e-16 -8.200779011815720e-16  3.035073067525754e-01
 1.086915017320972e+00  3.035073067525754e-01 -8.929718333829192e-16

-2.093200893921183e-15  5.436873787987051e-16  1.051393842601510e+00
 5.436873787987051e-16 -8.133042885441703e-16  3.769735558492866e-01
 1.051393842601510e+00  3.769735558492866e-01 -6.997336124288723e-16

-1.539057626341388e-15  5.143228657483854e-16  9.657875994486095e-01
 5.143228657483854e-16 -8.694156717922144e-16  5.365991160322615e-01
 9.657875994486095e-01  5.365991160322615e-01 -4.828322147025840e-16

-1.273517865804530e-15  4.741721705335396e-16  8.099164836769217e-01
 4.741721705335396e-16 -7.598697394721400e-16  6.070280268814015e-01
 8.099164836769217e-01  6.070280268814015e-01 -3.975030437041343e-16

-1.252340135580825e-15  4.761491588980360e-16  1.125067058111766e+00
 4.761491588980360e-16 -6.589132433205755e-16  3.038213398765788e-01
 1.125067058111766e+00  3.038213398765788e-01 -4.014012588342120e-16

-1.132851185567479e-15  4.497547694246417e-16  1.206738378653441e+00
 4.497547694246417e-16 -5.465710031451934e-16  1.279301547780244e-01
 1.206738378653441e+00  1.279301547780244e-01 -3.670603845218617e-16

-1.020324317404650e-15  4.229336310769577e-16  1.133727153028668e+00
 4.229336310769577e-16 -4.934745760973080e-16  1.547126019589329e-01
 1.133727153028668e+00  1.547126019589329e-01 -3.312058967026251e-16

-8.336804056483821e-16  3.755559488931577e-16  8.205606028369856e-01
 3.755559488931577e-16 -4.507098455702599e-16  4.547520039061294e-01
 8.205606028369856e-01  4.547520039061294e-01 -2.783030937483113e-16

-6.145296207138877e-16  2.918257494251385e-16  8.418719665970228e-01
 2.918257494251385e-16 -3.996409950960495e-16  4.176510264770085e-01
 8.418719665970228e-01  4.176510264770085e-01 -2.155826696148095e-16

-4.555454279019890e-16  2.231919456732373e-16  8.349152308724750e-01
 2.231919456732373e-16 -3.649545413604318e-16  4.192643752291641e-01
 8.349152308724750e-01  4.192643752291641e-01 -1.573016154561843e-16

-3.458240797437310e-16  1.651491085669153e-16  9.916139321475903e-01
 1.651491085669153e-16 -3.393604248394126e-16  3.856729720351587e-01
 9.916139321475903e-01  3.856729720351587e-01 -1.319509381040047e-16

-2.944291511199204e-16  1.339582384235686e-16  8.121040958500927e-01
 1.339582384235686e-16 -3.366065830809750e-16  6.326882042533596e-01
 8.121040958500927e-01  6.326882042533596e-01 -1.123507565676647e-16

-2.765372313349456e-16  1.238691467576108e-16  8.303747007621186e-01
 1.238691467576108e-16 -3.256386927818906e-16  6.379053382543755e-01
 8.303747007621186e-01  6.379053382543755e-01 -1.081466898967038e-16

-2.547500897070605e-16  1.139461041784287e-16  1.047789143391836e+00
 1.139461041784287e-16 -2.954153188103130e-16  4.130885268000346e-01
 1.047789143391836e+00  4.130885268000346e-01 -1.084199813446085e-16

-2.174627308979706e-16  9.486097991883734e-17  9.965246166268791e-01
 9.486097991883734e-17 -2.544306121050974e-16  3.365799963778762e-01
 9.965246166268791e-01  3.365799963778762e-01 -9.506175163462805e-17

-1.828760997051534e-16  7.775155743527225e-17  1.018835602724702e+00
 7.775155743527225e-17 -2.287612945703630e-16  3.545093080952632e-01
 1.018835602724702e+00  3.545093080952632e-01 -8.759719007227072e-17

-1.804266880673272e-16  6.622678607395242e-17  8.093876655277874e-01
 6.622678607395242e-17 -2.185873023449192e-16  6.008943620859774e-01
 8.093876655277874e-01  6.008943620859774e-01 -7.553017962594540e-17

-1.210737285031611e-16  5.967214952973536e-17  1.059234555695784e+00
 5.967214952973536e-17 -2.092668156739982e-16  3.959068369437081e-01
 1.059234555695784e+00  3.959068369437081e-01 -8.170369412711557e-17

-3.198816060014671e-16  6.674481998625932e-17  1.083342279846170e+00
 6.674481998625932e-17 -2.012952693227967e-16  3.615885624279723e-01
 1.083342279846170e+00  3.615885624279723e-01 -8.024343297312338e-17

-2.139183660584495e-16  5.526331884211996e-17  9.756963690423315e-01
 5.526331884211996e-17 -1.905130879730854e-16  4.276530285405701e-01
 9.756963690423315e-01  4.276530285405701e-01 -7.344816965630976e-17

-1.254080152588385e-16  4.561794837217641e-17  1.173111996756975e+00
 4.561794837217641e-17 -1.787062549910148e-16  2.595391710464405e-01
 1.173111996756975e+00  2.595391710464405e-01 -7.718946258137980e-17

-1.263565953302513e-16  3.599269401790479e-17  9.491516137413984e-01
 3.599269401790479e-17 -1.631578028090670e-16  5.804641957165013e-01
 9.491516137413984e-01  5.804641957165013e-01 -6.551159625860312e-17

-1.071571150096751e-16  3.024790201823702e-17  7.560608934383614e-01
 3.024790201823702e-17 -1.537226682344225e-16  7.566919860117696e-01
 7.560608934383614e-01  7.566919860117696e-01 -5.732773382957655e-17

-1.129662776583462e-16  3.240355921914961e-17  1.268451098801196e+00
 3.240355921914961e-17 -1.513957554729782e-16  2.512776990703324e-01
 1.268451098801196e+00  2.512776990703324e-01 -7.293731478687876e-17

-1.066929617115840e-16  2.879860096801488e-17  1.171560967856676e+00
 2.879860096801488e-17 -1.393396988726025e-16  3.349974974516600e-01
 1.171560967856676e+00  3.349974974516600e-01 -6.771965470184761e-17

-9.479909443598087e-17  2.345360570398745e-17  8.034001376858236e-01
 2.345360570398745e-17 -1.249195122813616e-16  7.155732743403097e-01
 8.034001376858236e-01  7.155732743403097e-01 -5.459711298154334e-17

-8.780269129604394e-17  2.264005717166563e-17  6.089284001818795e-01
 2.264005717166563e-17 -1.150483053780858e-16  7.349664320808705e-01
 6.089284001818795e-01  7.349664320808705e-01 -4.645022708520696e-17

-9.120035245707975e-17  2.611252187765954e-17  1.044206297147100e+00
 2.611252187765954e-17 -1.150754909010860e-16  2.447509727124491e-01
 1.044206297147100e+00  2.447509727124491e-01 -5.696327097562972e-17

-9.341557184950861e-17  2.808649306273577e-17  1.394184139107647e+00
 2.808649306273577e-17 -1.142716617252063e-16 -1.250849603393730e-01
 1.394184139107647e+00 -1.250849603393730e-01 -6.602302319878399e-17

-8.208898384023293e-17  2.219770698062003e-17  9.174382576304636e-01
 2.219770698062003e-17 -1.016865799043780e-16  3.354219866462086e-01
 9.174382576304636e-01  3.354219866462086e-01 -5.096531703077956e-17

-7.157930165482989e-17  1.545370532525199e-17  5.691121018953059e-01
 1.545370532525199e-17 -8.845598433100298e-17  8.748816420770554e-01
 5.691121018953059e-01  8.748816420770554e-01 -3.868038905046929e-17

-6.933644900913227e-17  1.453981975766823e-17  5.764331498618335e-01
 1.453981975766823e-17 -8.570784414621124e-17  8.082881339425061e-01
 5.764331498618335e-01  8.082881339425061e-01 -3.847390339395800e-17

-7.385686588218700e-17  1.710590552398383e-17  1.195453945293045e+00
 1.710590552398383e-17 -9.016485331670620e-17  1.024176343616035e-01
 1.195453945293045e+00  1.024176343616035e-01 -5.564403544363365e-17

-6.894470908874151e-17  1.428308353991016e-17  1.051625193916626e+00
 1.428308353991016e-17 -8.399563618893332e-17  2.474151790880716e-01
 1.051625193916626e+00  2.474151790880716e-01 -5.075534091487096e-17

-6.190006868841016e-17  1.076257666966160e-17  7.313844499962917e-01
 1.076257666966160e-17 -7.331915260517750e-17  7.457248275018493e-01
 7.313844499962917e-01  7.457248275018493e-01 -3.931315962628032e-17

-5.988819311098616e-17  9.034110166352438e-18  6.863894399481497e-01
 9.034110166352438e-18 -7.003024156939009e-17  8.465551044753425e-01
 6.863894399481497e-01  8.465551044753425e-01 -3.790918192301578e-17

-6.198916653726874e-17  1.009242913428895e-17  1.113389431725786e+00
 1.009242913428895e-17 -7.320666738557837e-17  3.212235033961611e-01
 1.113389431725786e+00  3.212235033961611e-01 -4.994559939309146e-17

-5.760080623108170e-17  9.391508603766629e-18  9.066158020463684e-01
 9.391508603766629e-18 -6.859676406064661e-17  3.957707760607596e-01
 9.066158020463684e-01  3.957707760607596e-01 -4.211555548257690e-17

-5.579643700825330e-17  8.666412221852367e-18  8.440611301559162e-01
 8.666412221852367e-18 -6.646402301615100e-17  4.289849361531955e-01
 8.440611301559162e-01  4.289849361531955e-01 -3.972011521567601e-17

-5.668251020439453e-17  7.701338368452019e-18  1.039196627625195e+00
 7.701338368452019e-18 -6.685984567269578e-17  3.074951771266236e-01
 1.039196627625195e+00  3.074951771266236e-01 -4.637612462525301e-17

-5.460120317705248e-17  6.303848211946982e-18  9.767743469107262e-01
 6.303848211946982e-18 -6.281024461267987e-17  4.662038692057220e-01
 9.767743469107262e-01  4.662038692057220e-01 -4.367746159922940e-17

-5.331791080350950e-17  5.172040729466617e-18  9.765745254026382e-01
 5.172040729466617e-18 -5.952088713146193e-17  5.802952213400157e-01
 9.765745254026382e-01  5.802952213400157e-01 -4.321451165867846e-17

-5.445276313043116e-17  4.166188441573262e-18  1.153863752861559e+00
 4.166188441573262e-18 -6.102414936960737e-17  4.555958324497106e-01
 1.153863752861559e+00  4.555958324497106e-01 -4.941306503152850e-17

-5.696108818039148e-17  3.521683739267918e-18  1.427172987198690e+00
 3.521683739267918e-18 -6.423113812321864e-17  2.423027009670956e-01
 1.427172987198690e+00  2.423027009670956e-01 -5.896763109611146e-17

-5.540771094872625e-17  2.896885365521998e-18  1.338962652478374e+00
 2.896885365521998e-18 -6.076873904807075e-17  4.057860770710470e-01
 1.338962652478374e+00  4.057860770710470e-01 -5.589042358201798e-17

-5.250813260570001e-17  1.953313059914209e-18  1.121240886931786e+00
 1.953313059914209e-18 -5.420043679713813e-17  7.652650174872930e-01
 1.121240886931786e+00  7.652650174872930e-01 -4.967799876129075e-17

-5.390821362240037e-17  1.826796863401025e-18  1.336185493257966e+00
 1.826796863401025e-18 -5.593205787017504e-17  5.464421021949634e-01
 1.336185493257966e+00  5.464421021949634e-01 -5.607552074695820e-17

-5.575775110676321e-17  2.628472692375298e-18  1.615840521407937e+00
 2.628472692375298e-18 -5.921042086445619e-17  2.098187490126286e-01
 1.615840521407937e+00  2.098187490126286e-01 -6.384371638558701e-17

-4.814601104481572e-17  1.673351188980476e-18  1.062640866886767e+00
 1.673351188980476e-18 -4.968735261559766e-17  6.130589739245079e-01
 1.062640866886767e+00  6.130589739245079e-01 -4.568888716130783e-17

-4.783585217236454e-17  3.282013585924407e-18  1.269540224391959e+00
 3.282013585924407e-18 -5.164141849283454e-17  1.841168482012849e-01
 1.269540224391959e+00  1.841168482012849e-01 -4.895323474464711e-17

-4.508419458877558e-17  2.670242145322638e-18  1.113702502267524e+00
 2.670242145322638e-18 -4.778893518406749e-17  3.080060158785327e-01
 1.113702502267524e+00  3.080060158785327e-01 -4.423851771203890e-17

-4.393735335501603e-17  1.982842805605609e-18  1.061632551282731e+00
 1.982842805605609e-18 -4.293548401205389e-17  5.200307434904635e-01
 1.061632551282731e+00  5.200307434904635e-01 -4.282269535495694e-17

-4.430433532537486e-17  1.502416822355300e-18  1.169485020363446e+00
 1.502416822355300e-18 -4.203678092979205e-17  4.941113687098465e-01
 1.169485020363446e+00  4.941113687098465e-01 -4.681257275460430e-17

-4.098915996279499e-17  1.109740168673137e-18  1.007264996978774e+00
 1.109740168673137e-18 -3.790767014082286e-17  5.720458046203012e-01
 1.007264996978774e+00  5.720458046203012e-01 -4.098629099284513e-17

-4.260131676220898e-17  2.113601620817571e-18  1.282811696497452e+00
 2.113601620817571e-18 -4.171933754125471e-17  1.978679276585950e-01
 1.282811696497452e+00  1.978679276585950e-01 -4.830392045210359e-17

-4.022511069157348e-17  1.952981019509495e-18  1.129101496831599e+00
 1.952981019509495e-18 -3.904070938025679e-17  2.865282731044947e-01
 1.129101496831599e+00  2.865282731044947e-01 -4.294753063942788e-17

-3.609208798037048e-17  1.319227097815480e-18  8.301581021919827e-01
 1.319227097815480e-18 -3.279815007266024e-17  5.585129301821590e-01
 8.301581021919827e-01  5.585129301821590e-01 -3.292433724216947e-17

-3.718145029927875e-17  1.426473154515522e-18  1.020032595172361e+00
 1.426473154515522e-18 -3.585929616089482e-17  2.980529045684313e-01
 1.020032595172361e+00  2.980529045684313e-01 -3.896578402582324e-17

-3.874730967137410e-17  1.236616441712919e-18  1.185300376617392e+00
 1.236616441712919e-18 -3.830370964312716e-17  1.508968656968161e-01
 1.185300376617392e+00  1.508968656968161e-01 -4.476436753542500e-17

-3.594154560217807e-17  9.421710665047950e-19  9.449063657058689e-01
 9.421710665047950e-19 -3.343155565573213e-17  4.068408667409953e-01
 9.449063657058689e-01  4.068408667409953e-01 -3.647647391472707e-17

-3.669423983338066e-17  8.782858349684839e-19  1.017086196150521e+00
 8.782858349684839e-19 -3.148586782921965e-17  4.931709583458646e-01
 1.017086196150521e+00  4.931709583458646e-01 -3.885898729242072e-17

-3.705322611268933e-17  5.063590309814919e-19  1.042691350268164e+00
 5.063590309814919e-19 -3.036043696533099e-17  5.582171178334470e-01
 1.042691350268164e+00  5.582171178334470e-01 -4.017833982124471e-17

-3.586430350197351e-17  5.118178728551364e-20  9.473296028102878e-01
 5.118178728551364e-20 -2.865167318658957e-17  6.522964432997768e-01
 9.473296028102878e-01  6.522964432997768e-01 -3.773183985358798e-17

-3.100022226350255e-17 -3.155095037776020e-19  5.517082276746166e-01
-3.155095037776020e-19 -2.410728085250219e-17  8.859116628197035e-01
 5.517082276746166e-01  8.859116628197035e-01 -2.503895818753935e-17

-3.614196589856959e-17  8.496068821542065e-19  1.117997583737120e+00
 8.496068821542065e-19 -3.271617008070987e-17  2.751099531122178e-01
 1.117997583737120e+00  2.751099531122178e-01 -4.122663568808980e-17

-3.704212197940079e-17  1.117037524952962e-18  1.272119812331927e+00
 1.117037524952962e-18 -3.588258701777839e-17  3.973166228080193e-02
 1.272119812331927e+00  3.973166228080193e-02 -4.533504133937981e-17

-3.331565422069393e-17  5.904815373413865e-19  9.295816463034424e-01
 5.904815373413865e-19 -2.908090328618261e-17  4.175382253169260e-01
 9.295816463034424e-01  4.175382253169260e-01 -3.476594115999056e-17

-3.328914484021148e-17  5.101243729458227e-19  9.239613658591369e-01
 5.101243729458227e-19 -2.706672086511579e-17  5.246426748769214e-01
 9.239613658591369e-01  5.246426748769214e-01 -3.460001763024259e-17

-3.403332189911720e-17  5.751052269324498e-20  1.023017422015890e+00
 5.751052269324498e-20 -2.926255139823115e-17  4.078731707536012e-01
 1.023017422015890e+00  4.078731707536012e-01 -3.821174814079990e-17

-3.664924772698323e-17 -6.996109077516206e-19  1.249601271796667e+00
-6.996109077516206e-19 -3.295234293266586e-17  2.446631463455414e-01
 1.249601271796667e+00  2.446631463455414e-01 -4.637261003632955e-17

-3.610958750075451e-17 -6.253310851426153e-19  1.128363530601268e+00
-6.253310851426153e-19 -2.651980360947485e-17  6.594946501479486e-01
 1.128363530601268e+00  6.594946501479486e-01 -4.427372567709474e-17

-3.255413775689327e-17 -1.673291967615825e-18  8.355835455792997e-01
-1.673291967615825e-18 -2.391389825311541e-17  8.116246011744971e-01
 8.355835455792997e-01  8.116246011744971e-01 -3.684716563038614e-17

-3.602306495751023e-17  1.347511988352087e-18  1.448694811803431e+00
 1.347511988352087e-18 -3.270077376933887e-17 -7.201861398616546e-02
 1.448694811803431e+00 -7.201861398616546e-02 -4.651125703749368e-17

-3.435160977481081e-17  7.295922832552449e-19  1.306737354639653e+00
 7.295922832552449e-19 -3.114545370745506e-17  2.689275479417935e-02
 1.306737354639653e+00  2.689275479417935e-02 -4.415791185770949e-17

-2.875999901463395e-17  2.722818116035663e-19  7.781554024047201e-01
 2.722818116035663e-19 -2.209978873639931e-17  5.414048853117374e-01
 7.781554024047201e-01  5.414048853117374e-01 -2.754766834348312e-17

-3.008577476513868e-17 -2.546419257092196e-19  8.822100684547127e-01
-2.546419257092196e-19 -2.160100245688562e-17  5.795543198491526e-01
 8.822100684547127e-01  5.795543198491526e-01 -3.219346557306910e-17

-2.944213098369649e-17 -3.519589909674109e-19  8.858116918898028e-01
-3.519589909674109e-19 -2.218644990763905e-17  4.927058297645242e-01
 8.858116918898028e-01  4.927058297645242e-01 -3.228616484757023e-17

-3.234885082353501e-17 -6.427151785685519e-19  1.196805903791875e+00
-6.427151785685519e-19 -2.771347177662893e-17  1.616225046712517e-01
 1.196805903791875e+00  1.616225046712517e-01 -4.231658300537273e-17

-3.058821512564279e-17 -3.999207534082002e-19  1.027923526248421e+00
-3.999207534082002e-19 -2.315543177887497e-17  3.903344594564008e-01
 1.027923526248421e+00  3.903344594564008e-01 -3.689862068530657e-17

-2.461838053495423e-17  1.615662346507840e-19  4.863813522510567e-01
 1.615662346507840e-19 -1.389055598133949e-17  8.738465508344596e-01
 4.863813522510567e-01  8.738465508344596e-01 -1.914192854879834e-17

-2.774118995909455e-17 -1.441386897653487e-19  7.634974599149211e-01
-1.441386897653487e-19 -1.732550267018512e-17  6.965660394663594e-01
 7.634974599149211e-01  6.965660394663594e-01 -2.815767369015900e-17

-3.113634432846038e-17  3.321895074817359e-20  1.115533324151186e+00
 3.321895074817359e-20 -2.374071344940508e-17  3.128322258966315e-01
 1.115533324151186e+00  3.128322258966315e-01 -3.936196498186733e-17

-3.075419919759943e-17 -1.613606034651733e-19  1.104429253729583e+00
-1.613606034651733e-19 -2.464024187366128e-17  2.630412068277617e-01
 1.104429253729583e+00  2.630412068277617e-01 -3.906965869539199e-17

-2.691887330814984e-17 -2.045401471401305e-19  7.492591095318980e-01
-2.045401471401305e-19 -1.753753331988892e-17  6.498777528306913e-01
 7.492591095318980e-01  6.498777528306913e-01 -2.682584286962200e-17

-2.506766567743380e-17 -2.717382403436204e-19  5.799556462851370e-01
-2.717382403436204e-19 -1.465384419814121e-17  8.117665765284827e-01
 5.799556462851370e-01  8.117665765284827e-01 -2.103200402730717e-17

-2.901619585824996e-17 -3.814359115550522e-19  9.562269613823938e-01
-3.814359115550522e-19 -2.123075667530865e-17  4.512946398234238e-01
 9.562269613823938e-01  4.512946398234238e-01 -3.399495002629351e-17

-2.923174041451706e-17 -6.128891871572842e-19  9.817168100886818e-01
-6.128891871572842e-19 -2.253574607222227e-17  3.994285184502266e-01
 9.817168100886818e-01  3.994285184502266e-01 -3.497013541249003e-17

-2.857535337628967e-17 -6.494850181177498e-19  8.992257697480057e-01
-6.494850181177498e-19 -2.051452310433891e-17  5.339692237327711e-01
 8.992257697480057e-01  5.339692237327711e-01 -3.197654192905355e-17

-3.033661445983059e-17 -8.838043775620708e-19  1.024824741956075e+00
-8.838043775620708e-19 -2.276235144919951e-17  4.692334827340478e-01
 1.024824741956075e+00  4.692334827340478e-01 -3.660816665768772e-17

-3.162943579709133e-17 -1.116641695354701e-18  1.106275614625669e+00
-1.116641695354701e-18 -2.423849999043083e-17  4.448678699195454e-01
 1.106275614625669e+00  4.448678699195454e-01 -3.969215495673365e-17

-3.334920710230963e-17 -1.159819029053661e-18  1.208255756660074e+00
-1.159819029053661e-18 -2.551264110234224e-17  4.356881405340609e-01
 1.208255756660074e+00  4.356881405340609e-01 -4.350724314411787e-17

-3.411157556134461e-17 -2.671771914441544e-19  1.195731113866324e+00
-2.671771914441544e-19 -2.410023452885694e-17  6.104076493686278e-01
 1.195731113866324e+00  6.104076493686278e-01 -4.429570721547313e-17

-3.508252008327379e-17 -4.239861589710534e-19  1.225027542775265e+00
-4.239861589710534e-19 -2.496739122560702e-17  6.522294884313320e-01
 1.225027542775265e+00  6.522294884313320e-01 -4.655644136012454e-17

-4.140372922491179e-17 -9.146708143660098e-19  1.792265957993929e+00
-9.146708143660098e-19 -3.359859128994619e-17  1.691120051515838e-01
 1.792265957993929e+00  1.691120051515838e-01 -6.533248565302087e-17

-3.690030628196135e-17 -6.239003336342483e-19  1.351252664542602e+00
-6.239003336342483e-19 -2.721639156509035e-17  5.894804356417588e-01
 1.351252664542602e+00  5.894804356417588e-01 -5.179627136404558e-17

-3.622157295741147e-17 -7.267808463022042e-19  1.284004545793657e+00
-7.267808463022042e-19 -2.678983954568475e-17  6.302585387857637e-01
 1.284004545793657e+00  6.302585387857637e-01 -4.999608951436890e-17

-4.085162674017755e-17 -6.104867406423747e-19  1.761347721144808e+00
-6.104867406423747e-19 -3.459424424245584e-17  1.008506238787796e-01
 1.761347721144808e+00  1.008506238787796e-01 -6.430204528447254e-17

-3.583704661466408e-17 -5.403193398987754e-19  1.264632935921203e+00
-5.403193398987754e-19 -2.633505843571200e-17  6.276124384407018e-01
 1.264632935921203e+00  6.276124384407018e-01 -4.937910197127443e-17

-3.549270395494748e-17 -6.208437524618700e-19  1.243702435670601e+00
-6.208437524618700e-19 -2.536926533398271e-17  6.603899028358153e-01
 1.243702435670601e+00  6.603899028358153e-01 -4.871145030749991e-17

-3.905920496000876e-17 -1.384212091910411e-19  1.668931484367899e+00
-1.384212091910411e-19 -3.132135151646294e-17  1.627992285748163e-01
 1.668931484367899e+00  1.627992285748163e-01 -6.033926916733635e-17

-3.295338158702912e-17 -6.349579390463541e-19  1.080416278899075e+00
-6.349579390463541e-19 -2.264603391654492e-17  7.070945237082702e-01
 1.080416278899075e+00  7.070945237082702e-01 -4.207578181124441e-17

-3.202029073084853e-17 -6.800561224125915e-19  1.041334216353899e+00
-6.800561224125915e-19 -2.159991233138596e-17  7.031725375883303e-01
 1.041334216353899e+00  7.031725375883303e-01 -4.015330463945109e-17

-3.232002756980445e-17  2.343203337391786e-19  1.239969879139342e+00
 2.343203337391786e-19 -2.487975684820239e-17  2.944992720524939e-01
 1.239969879139342e+00  2.944992720524939e-01 -4.358283220331015e-17

-3.111024762110919e-17  5.763132695283450e-20  1.160524156749748e+00
 5.763132695283450e-20 -2.360756567827006e-17  3.376208347415990e-01
 1.160524156749748e+00  3.376208347415990e-01 -4.111146154715744e-17

-3.000102795446117e-17 -1.936902392112128e-19  1.066398903310507e+00
-1.936902392112128e-19 -2.125284795337745e-17  4.609005994736118e-01
 1.066398903310507e+00  4.609005994736118e-01 -3.827586349721894e-17

-2.856592062364954e-17 -4.249047427910941e-19  9.381015683599325e-01
-4.249047427910941e-19 -1.808377790203510e-17  6.226312450570559e-01
 9.381015683599325e-01  6.226312450570559e-01 -3.417201769748995e-17

-2.781939609790187e-17 -4.685728150687411e-19  9.224986216108774e-01
-4.685728150687411e-19 -1.816367165797072e-17  5.735631224237315e-01
 9.224986216108774e-01  5.735631224237315e-01 -3.332936973422662e-17

-2.906670458048543e-17 -1.108746802460640e-19  1.108840597926822e+00
-1.108746802460640e-19 -2.205840841644329e-17  2.872937686789684e-01
 1.108840597926822e+00  2.872937686789684e-01 -3.878181536757971e-17

-2.817600602858216e-17 -3.640825483782152e-19  1.035190211214735e+00
-3.640825483782152e-19 -2.086234187519284e-17  3.551744664340494e-01
 1.035190211214735e+00  3.551744664340494e-01 -3.650501978075157e-17

-2.653819382545067e-17 -3.785542560671032e-19  8.740059389308855e-01
-3.785542560671032e-19 -1.705770789193896e-17  5.656710702968650e-01
 8.740059389308855e-01  5.656710702968650e-01 -3.088248046764130e-17

-2.834723455304423e-17 -4.831381489229725e-19  1.029718554632566e+00
-4.831381489229725e-19 -1.892495695211397e-17  4.780063681428340e-01
 1.029718554632566e+00  4.780063681428340e-01 -3.643406189034736e-17

-2.719813179347048e-17 -5.002749497883842e-19  9.240849274139994e-01
-5.002749497883842e-19 -1.711043851205290e-17  5.816694744975501e-01
 9.240849274139994e-01  5.816694744975501e-01 -3.268733324799813e-17

-2.703911056529571e-17 -5.311485576678594e-19  9.103707268740151e-01
-5.311485576678594e-19 -1.698621931899564e-17  5.926375369687675e-01
 9.103707268740151e-01  5.926375369687675e-01 -3.217802277935518e-17

-2.889466924523969e-17 -6.122699986701303e-19  1.084972646143766e+00
-6.122699986701303e-19 -2.003619753181170e-17  4.304330282217734e-01
 1.084972646143766e+00  4.304330282217734e-01 -3.827894718875726e-17

-2.861370339227875e-17 -6.699151049138885e-19  1.055148202363442e+00
-6.699151049138885e-19 -1.922026885933140e-17  4.807677609295083e-01
 1.055148202363442e+00  4.807677609295083e-01 -3.721604759177805e-17

-2.873010879593740e-17 -7.189407531027402e-19  1.057023599556699e+00
-7.189407531027402e-19 -1.862869541523103e-17  5.247658213506449e-01
 1.057023599556699e+00  5.247658213506449e-01 -3.729525605547580e-17

-2.776227955852091e-17 -9.547695760318650e-19  9.631711807103734e-01
-9.547695760318650e-19 -1.666267962635148e-17  6.450441509437370e-01
 9.631711807103734e-01  6.450441509437370e-01 -3.418845141902596e-17

-2.694097374555009e-17 -9.783630444135899e-19  9.183703551378620e-01
-9.783630444135899e-19 -1.694699733272209e-17  6.111049069289908e-01
 9.183703551378620e-01  6.111049069289908e-01 -3.240969637899691e-17

-2.847168743437904e-17 -8.208675907533232e-19  1.108577723597258e+00
-8.208675907533232e-19 -2.161709949720693e-17  3.109618830234141e-01
 1.108577723597258e+00  3.109618830234141e-01 -3.819897609176454e-17

-2.863115226494533e-17 -1.281913163261165e-18  1.086465245953107e+00
-1.281913163261165e-18 -2.200601232516533e-17  3.392977058685842e-01
 1.086465245953107e+00  3.392977058685842e-01 -3.786668214039992e-17

-2.966057581230064e-17 -9.066227786872909e-19  1.017707550102288e+00
-9.066227786872909e-19 -2.003318544841920e-17  5.156170094184586e-01
 1.017707550102288e+00  5.156170094184586e-01 -3.580084183218150e-17

-2.952550623220392e-17 -1.644808350067568e-18  1.190725764997574e+00
-1.644808350067568e-18 -2.138107062344665e-17  4.953736379872062e-01
 1.190725764997574e+00  4.953736379872062e-01 -4.224378607371518e-17

-3.490682974164433e-17  5.473294979477897e-19  1.205486683085668e+00
 5.473294979477897e-19 -2.082119880227620e-17  6.616078114835168e-01
 1.205486683085668e+00  6.616078114835168e-01 -4.430346752594826e-17

-2.141841207618899e-17 -4.478701930125635e-18  1.290194226502733e+00
-4.478701930125635e-18 -2.145497201082907e-17  6.455152781081563e-01
 1.290194226502733e+00  6.455152781081563e-01 -4.848658178311978e-17

-1.098403653908917e-17 -1.016726040152673e-17  1.881523802321448e+00
-1.016726040152673e-17 -2.874616655273022e-17  1.228525024477029e-01
 1.881523802321448e+00  1.228525024477029e-01 -6.755510335248866e-17

 2.760967481538652e-17 -2.037646739924915e-17  1.379841228704560e+00
-2.037646739924915e-17 -1.840450620559558e-17  5.899225604676164e-01
 1.379841228704560e+00  5.899225604676164e-01 -5.227898015737052e-17

-1.972278258426799e-17 -5.314714308148954e-18  1.282187122885655e+00
-5.314714308148954e-18 -2.241533883407705e-17  6.538830817563442e-01
 1.282187122885655e+00  6.538830817563442e-01 -4.946558141481003e-17

-3.540134263721433e-16  9.825267120935220e-17  1.772538366136001e+00
 9.825267120935220e-17 -6.284641500182325e-17  1.138783172488880e-01
 1.772538366136001e+00  1.138783172488880e-01 -6.399508424671278e-17

 1.182841189769699e-16 -4.845234484334106e-17  1.266484139945417e+00
-4.845234484334106e-17 -8.418989060905325e-18  6.549834128899427e-01
 1.266484139945417e+00  6.549834128899427e-01 -4.898109172887029e-17

 1.646314799955968e-18 -1.181964037778089e-17  1.246490407127209e+00
-1.181964037778089e-17 -1.909710888907617e-17  6.940422237239585e-01
 1.246490407127209e+00  6.940422237239585e-01 -4.840495661895628e-17

-3.837344469405114e-17 -8.674017332924163e-21  1.698995508374642e+00
-8.674017332924163e-21 -2.901405340076687e-17  1.766344744813330e-01
 1.698995508374642e+00  1.766344744813330e-01 -6.075196697123501e-17

-2.799039778098833e-17 -1.833677745352821e-18  1.097462173417583e+00
-1.833677745352821e-18 -1.981496378819218e-17  7.368988102672356e-01
 1.097462173417583e+00  7.368988102672356e-01 -4.223265769464472e-17

-1.736859261568553e-17 -4.940537208627653e-18  1.043291812305697e+00
-4.940537208627653e-18 -1.760247033302273e-17  7.517993018662743e-01
 1.043291812305697e+00  7.517993018662743e-01 -3.983159435443873e-17

-2.474893906917772e-17 -1.833542773956626e-18  1.245890397683762e+00
-1.833542773956626e-18 -2.177872775642064e-17  3.384460686520874e-01
 1.245890397683762e+00  3.384460686520874e-01 -4.318565201728235e-17

-4.537651616194418e-18 -8.088091171063767e-18  1.170419159092566e+00
-8.088091171063767e-18 -1.867813268859261e-17  3.828477550973078e-01
 1.170419159092566e+00  3.828477550973078e-01 -4.085922754986314e-17

-3.988904493277434e-17  3.155991950057004e-18  1.065938379807109e+00
 3.155991950057004e-18 -1.983829047531127e-17  5.234895698893215e-01
 1.065938379807109e+00  5.234895698893215e-01 -3.767927053504592e-17

-1.959179930672713e-16  5.271839968689642e-17  9.327784417122497e-01
 5.271839968689642e-17 -3.250945701930524e-17  6.964347756962758e-01
 9.327784417122497e-01  6.964347756962758e-01 -3.339464334071313e-17

-2.191325152941643e-16  6.040393861439967e-17  9.053928116824123e-01
 6.040393861439967e-17 -3.524637729773407e-17  6.463693748372141e-01
 9.053928116824123e-01  6.463693748372141e-01 -3.208731700655005e-17

 1.517061856725958e-16 -5.753667368284117e-17  1.095677341102862e+00
-5.753667368284117e-17 -2.367749783502526e-18  3.401682052310839e-01
 1.095677341102862e+00  3.401682052310839e-01 -3.770250483623614e-17

 2.208144718004707e-17 -1.686042181734110e-17  1.076118553202957e+00
-1.686042181734110e-17 -1.585579689197643e-17  3.672704369662855e-01
 1.076118553202957e+00  3.672704369662855e-01 -3.751448913405407e-17

-3.239915519421436e-17  5.319941051044950e-19  1.013661276208823e+00
 5.319941051044950e-19 -1.941902063481059e-17  5.406250000152814e-01
 1.013661276208823e+00  5.406250000152814e-01 -3.570553288825559e-17

-4.002063971125512e-17  1.068024696447114e-18  1.185686055198549e+00
 1.068024696447114e-18 -2.087645423619219e-17  5.221501083579636e-01
 1.185686055198549e+00  5.221501083579636e-01 -4.211656548582603e-17

-7.572053247829243e-18 -5.128363404436571e-18  1.206433223035244e+00
-5.128363404436571e-18 -1.845434011523773e-17  6.854063073964028e-01
 1.206433223035244e+00  6.854063073964028e-01 -4.446057010474339e-17

 6.041747613048231e-17 -1.981740315350853e-17  1.302141564807463e+00
-1.981740315350853e-17 -1.786298076097870e-17  6.568643903286133e-01
 1.302141564807463e+00  6.568643903286133e-01 -4.900831245221415e-17

-1.465780012685258e-17 -6.123314508485575e-18  1.902297677119483e+00
-6.123314508485575e-18 -2.983726830735209e-17  1.224205081490670e-01
 1.902297677119483e+00  1.224205081490670e-01 -6.821520377425613e-17

 8.445488953771743e-18 -9.477869248862214e-18  1.388915697760173e+00
-9.477869248862214e-18 -2.192484057519650e-17  5.980902350053778e-01
 1.388915697760173e+00  5.980902350053778e-01 -5.263902027184047e-17

 1.553674692022080e-18 -7.946576717817365e-18  1.284787159096882e+00
-7.946576717817365e-18 -2.146276174793985e-17  6.651148490254440e-01
 1.284787159096882e+00  6.651148490254440e-01 -4.959751956311367e-17

-1.269872726561236e-16  1.782959193117876e-17  1.778688939284601e+00
 1.782959193117876e-17 -3.471824425592788e-17  1.186894195823293e-01
 1.778688939284601e+00  1.186894195823293e-01 -6.413827682572767e-17

-1.423853962890038e-17 -4.474012114356768e-18  1.268867414706129e+00
-4.474012114356768e-18 -2.180624706201580e-17  6.621197474834203e-01
 1.268867414706129e+00  6.621197474834203e-01 -4.904433610309662e-17

-2.595233539456935e-17 -2.096017989410997e-18  1.248122750592046e+00
-2.096017989410997e-18 -2.141900951255941e-17  7.007454905239110e-01
 1.248122750592046e+00  7.007454905239110e-01 -4.843077095594999e-17

-3.513679357409182e-17 -5.937559408805700e-19  1.709176179047062e+00
-5.937559408805700e-19 -2.813242404245530e-17  1.754831182717062e-01
 1.709176179047062e+00  1.754831182717062e-01 -6.100098292482054e-17

-3.332736029851476e-17 -1.707716796275840e-19  1.101573699486319e+00
-1.707716796275840e-19 -1.948405192914533e-17  7.428475340639551e-01
 1.101573699486319e+00  7.428475340639551e-01 -4.233486766205887e-17

-2.990230633238122e-17 -7.589560114007804e-19  1.042672221602318e+00
-7.589560114007804e-19 -1.801632228147688e-17  7.625779535416343e-01
 1.042672221602318e+00  7.625779535416343e-01 -3.979158386443862e-17

-3.052822249935267e-17  1.892974012211383e-19  1.248373525646312e+00
 1.892974012211383e-19 -2.152630677462131e-17  3.417808923122178e-01
 1.248373525646312e+00  3.417808923122178e-01 -4.315035886602881e-17

-2.938435744740741e-17 -3.689476043813667e-20  1.173362099796870e+00
-3.689476043813667e-20 -2.037240696935318e-17  3.839779093027543e-01
 1.173362099796870e+00  3.839779093027543e-01 -4.084071577384875e-17

-2.807391972262068e-17 -3.516513671096638e-19  1.066395982017101e+00
-3.516513671096638e-19 -1.786670892023095e-17  5.264351344493157e-01
 1.066395982017101e+00  5.264351344493157e-01 -3.758957609295104e-17

-2.667617468956012e-17 -6.456237461284273e-19  9.314113782167805e-01
-6.456237461284273e-19 -1.471587238489400e-17  7.013855205379331e-01
 9.314113782167805e-01  7.013855205379331e-01 -3.325169703638491e-17

-2.586971609396372e-17 -7.044345053324238e-19  9.046635683044234e-01
-7.044345053324238e-19 -1.501091514379591e-17  6.504043698547569e-01
 9.046635683044234e-01  6.504043698547569e-01 -3.196550128347448e-17

-2.735259797913924e-17 -5.608785695113025e-19  1.095676019887057e+00
-5.608785695113025e-19 -1.960442887215902e-17  3.425553264811658e-01
 1.095676019887057e+00  3.425553264811658e-01 -3.759341433158795e-17

-2.738498148138759e-17 -1.094738464743248e-18  1.075869088904181e+00
-1.094738464743248e-18 -1.999581325839445e-17  3.693235138527383e-01
 1.075869088904181e+00  3.693235138527383e-01 -3.739956435830083e-17

-2.735279056274131e-17 -1.096312846214307e-18  1.011709014329190e+00
-1.096312846214307e-18 -1.800867756798075e-17  5.436230823898840e-01
 1.011709014329190e+00  5.436230823898840e-01 -3.553382072225608e-17

-2.997585211773395e-17 -9.560543787569886e-19  1.183854732737269e+00
-9.560543787569886e-19 -1.959273517984283e-17  5.249288247719121e-01
 1.183854732737269e+00  5.249288247719121e-01 -4.194867042244422e-17

-3.133113872031639e-17 -4.051907800228784e-20  1.207395109732430e+00
-4.051907800228784e-20 -1.885873559167359e-17  6.853016232989303e-01
 1.207395109732430e+00  6.853016232989303e-01 -4.438156037136223e-17

-3.311269618409179e-17 -3.675769086307167e-19  1.304321938563805e+00
-3.675769086307167e-19 -2.118362930819159e-17  6.565290521320489e-01
 1.304321938563805e+00  6.565290521320489e-01 -4.897831777946429e-17

-3.961293525211373e-17 -7.911534702569227e-19  1.902447456938783e+00
-7.911534702569227e-19 -3.019069517979116e-17  1.249933714311074e-01
 1.902447456938783e+00  1.249933714311074e-01 -6.813700775742672e-17

-3.438644031594921e-17 -4.905790734792384e-19  1.389894963313317e+00
-4.905790734792384e-19 -2.304435325502492e-17  6.002575712939867e-01
 1.389894963313317e+00  6.002575712939867e-01 -5.258587271094929e-17

-3.331169806282761e-17 -5.886819903835007e-19  1.285599725891100e+00
-5.886819903835007e-19 -2.224377718906475e-17  6.665324177615565e-01
 1.285599725891100e+00  6.665324177615565e-01 -4.953954991225511e-17

-3.813587493482946e-17 -5.134513797791715e-19  1.779174754176035e+00
-5.134513797791715e-19 -3.023071381111243e-17  1.192229948353366e-01
 1.779174754176035e+00  1.192229948353366e-01 -6.405845529488049e-17

-3.306492014948537e-17 -4.198080436769987e-19  1.269079987968178e+00
-4.198080436769987e-19 -2.193678043239060e-17  6.630652862326466e-01
 1.269079987968178e+00  6.630652862326466e-01 -4.896227061624956e-17

-3.280727666192771e-17 -5.423302569775652e-19  1.248067843711927e+00
-5.423302569775652e-19 -2.108309523722150e-17  7.021166302822682e-01
 1.248067843711927e+00  7.021166302822682e-01 -4.834467802460185e-17

-3.683348893689374e-17 -1.171644546973073e-19  1.708937300960063e+00
-1.171644546973073e-19 -2.753974507955447e-17  1.767132164907497e-01
 1.708937300960063e+00  1.767132164907497e-01 -6.090445363668458e-17

-3.061805084999153e-17 -6.137194925267334e-19  1.101795519195622e+00
-6.137194925267334e-19 -1.869719496653254e-17  7.432351736289526e-01
 1.101795519195622e+00  7.432351736289526e-01 -4.225261820893264e-17

-2.954033627944861e-17 -7.139013037959022e-19  1.042617966492676e+00
-7.139013037959022e-19 -1.730621588256544e-17  7.627826310017671e-01
 1.042617966492676e+00  7.627826310017671e-01 -3.969739105521460e-17

-2.990276000252350e-17  1.741750839134083e-19  1.247430544512349e+00
 1.741750839134083e-19 -2.086899713987579e-17  3.426650240384668e-01
 1.247430544512349e+00  3.426650240384668e-01 -4.303133556182376e-17

-2.883282090986474e-17 -3.977843846040382e-20  1.172891343395487e+00
-3.977843846040382e-20 -1.968681778693900e-17  3.845412142053804e-01
 1.172891343395487e+00  3.845412142053804e-01 -4.073948627770184e-17

-2.767900858612161e-17 -3.232310778572580e-19  1.065759731703305e+00
-3.232310778572580e-19 -1.722714312740788e-17  5.272174365825558e-01
 1.065759731703305e+00  5.272174365825558e-01 -3.748339000324558e-17

-2.629606711351845e-17 -6.146274249099875e-19  9.307967621193084e-01
-6.146274249099875e-19 -1.409809289632040e-17  7.021883915594460e-01
 9.307967621193084e-01  7.021883915594460e-01 -3.314684047512461e-17

-2.549321345120215e-17 -6.772870025055440e-19  9.043519102216140e-01
-6.772870025055440e-19 -1.439733082537522e-17  6.507832251415105e-01
 9.043519102216140e-01  6.507832251415105e-01 -3.187254319211449e-17

-2.695602879889390e-17 -5.449532310027376e-19  1.095384786415577e+00
-5.449532310027376e-19 -1.900720770040677e-17  3.430239768800805e-01
 1.095384786415577e+00  3.430239768800805e-01 -3.750700286473563e-17

-2.699824100735131e-17 -1.080792859940540e-18  1.075690235585958e+00
-1.080792859940540e-18 -1.940602572583882e-17  3.699802771595089e-01
 1.075690235585958e+00  3.699802771595089e-01 -3.731845886663371e-17

-2.699175947198583e-17 -1.079697546966488e-18  1.012863115025932e+00
-1.079697546966488e-18 -1.744901692774617e-17  5.435955071271996e-01
 1.012863115025932e+00  5.435955071271996e-01 -3.550050778207023e-17

-2.961445758414786e-17 -9.415649831583352e-19  1.184968504399216e+00
-9.415649831583352e-19 -1.903751575752643e-17  5.251475970927765e-01
 1.184968504399216e+00  5.251475970927765e-01 -4.191677957220921e-17

-3.097341861917478e-17 -6.397974657264647e-21  1.206790092866617e+00
-6.397974657264647e-21 -1.825517251527302e-17  6.875740632593093e-01
 1.206790092866617e+00  6.875740632593093e-01 -4.430506864201880e-17

-3.275379062571106e-17 -3.418559442631993e-19  1.303820489438484e+00
-3.418559442631993e-19 -2.056497430037181e-17  6.577933416445751e-01
 1.303820489438484e+00  6.577933416445751e-01 -4.890161502253897e-17

-3.926288364991671e-17 -7.646971846784246e-19  1.903929466892594e+00
-7.646971846784246e-19 -2.964902503742301e-17  1.232486405137009e-01
 1.903929466892594e+00  1.232486405137009e-01 -6.810243515964929e-17

-3.403300748361661e-17 -4.643035108068361e-19  1.389760863014117e+00
-4.643035108068361e-19 -2.252983422203427e-17  5.997359917106342e-01
 1.389760863014117e+00  5.997359917106342e-01 -5.251001164180797e-17

-3.297821936363909e-17 -5.609612789776051e-19  1.285118865780315e+00
-5.609612789776051e-19 -2.170912048590453e-17  6.668182873136851e-01
 1.285118865780315e+00  6.668182873136851e-01 -4.945562900617370e-17

-3.782377470788703e-17 -4.834739978622336e-19  1.779603005590193e+00
-4.834739978622336e-19 -2.970703496794552e-17  1.194444649923281e-01
 1.779603005590193e+00  1.194444649923281e-01 -6.400789965383710e-17

-3.275654659763312e-17 -3.950566019743865e-19  1.269319652456271e+00
-3.950566019743865e-19 -2.140616319281774e-17  6.636782479478591e-01
 1.269319652456271e+00  6.636782479478591e-01 -4.891113762368984e-17

-3.243883068889011e-17 -5.266697892931810e-19  1.247546737123501e+00
-5.266697892931810e-19 -2.054420343100341e-17  7.033921113309958e-01
 1.247546737123501e+00  7.033921113309958e-01 -4.826860651330267e-17

-3.641660830815003e-17 -9.546249871931886e-20  1.705727421715069e+00
-9.546249871931886e-20 -2.695762916742099e-17  1.787973083927314e-01
 1.705727421715069e+00  1.787973083927314e-01 -6.072585065068447e-17

-3.024718025407031e-17 -5.906178844502349e-19  1.100912472555283e+00
-5.906178844502349e-19 -1.816973365157445e-17  7.423076373189368e-01
 1.100912472555283e+00  7.423076373189368e-01 -4.213487257196237e-17

-2.896999653854750e-17 -7.386086232518569e-19  1.042393856666248e+00
-7.386086232518569e-19 -1.682224469355021e-17  7.609811214113570e-01
 1.042393856666248e+00  7.609811214113570e-01 -3.959444839510408e-17

-2.971024197079026e-17  2.040852529309510e-19  1.246622195855678e+00
 2.040852529309510e-19 -2.036352254391492e-17  3.437236720150444e-01
 1.246622195855678e+00  3.437236720150444e-01 -4.296253395014950e-17

-2.917991566865208e-17  3.512779931672978e-20  1.169622594282865e+00
 3.512779931672978e-20 -1.915827298469447e-17  3.889645049555673e-01
 1.169622594282865e+00  3.889645049555673e-01 -4.058852771094530e-17

-2.799649666339148e-17 -1.709776617149378e-19  1.064420843634452e+00
-1.709776617149378e-19 -1.674980531862401e-17  5.290420863911395e-01
 1.064420843634452e+00  5.290420863911395e-01 -3.738212440992419e-17

-2.323922165234087e-17 -1.226998900699192e-18  9.362823394480325e-01
-1.226998900699192e-18 -1.357653889762498e-17  6.957354296480361e-01
 9.362823394480325e-01  6.957354296480361e-01 -3.325667495109285e-17

-1.392189399920789e-17 -3.775808844887515e-18  9.080877889562238e-01
-3.775808844887515e-18 -1.308471839544041e-17  6.476694492718138e-01
 9.080877889562238e-01  6.476694492718138e-01 -3.193335698322660e-17

-3.069690512102214e-17 -7.691423092510494e-19  1.091986870287414e+00
-7.691423092510494e-19 -1.804397569945013e-17  3.487042303157417e-01
 1.091986870287414e+00  3.487042303157417e-01 -3.737536340699540e-17

 2.284733778043054e-17 -1.235394888252308e-17  1.077165802327791e+00
-1.235394888252308e-17 -1.684046203594737e-17  3.714673844680616e-01
 1.077165802327791e+00  3.714673844680616e-01 -3.733701140780446e-17

 1.055994246956704e-16 -1.889453400669298e-17  1.020006739483501e+00
-1.889453400669298e-17 -1.737464803686418e-17  5.402219103740311e-01
 1.020006739483501e+00  5.402219103740311e-01 -3.571152134106047e-17

 7.720491517518061e-17 -3.989471064516469e-17  1.190974256380454e+00
-3.989471064516469e-17 -2.735869459987173e-18  5.235223766787210e-01
 1.190974256380454e+00  5.235223766787210e-01 -4.208287080518482e-17

 9.879798918237404e-17 -5.021767757258691e-17  1.203728618462518e+00
-5.021767757258691e-17  2.194315347185946e-18  6.944114387576108e-01
 1.203728618462518e+00  6.944114387576108e-01 -4.420065787944393e-17

 7.986619646510991e-18 -2.624869278165698e-17  1.298984923697632e+00
-2.624869278165698e-17 -6.143904191017593e-18  6.642741287133725e-01
 1.298984923697632e+00  6.642741287133725e-01 -4.873082901054524e-17

 6.524570489521303e-17 -4.078052985991256e-17  1.908158740743753e+00
-4.078052985991256e-17 -1.343737554254350e-17  1.171874231980281e-01
 1.908158740743753e+00  1.171874231980281e-01 -6.814425560021445e-17

-3.057806261661846e-17  1.030404283571297e-19  1.388795400205016e+00
 1.030404283571297e-19 -2.307902238609227e-17  5.975539158537110e-01
 1.388795400205016e+00  5.975539158537110e-01 -5.241957393562905e-17

-4.206877501248766e-17  4.212793974247781e-18  1.282879557718169e+00
 4.212793974247781e-18 -2.355151949777050e-17  6.669989452871754e-01
 1.282879557718169e+00  6.669989452871754e-01 -4.932482426496990e-17

-2.365515611171058e-17 -6.548145558003746e-18  1.779077735184950e+00
-6.548145558003746e-18 -2.662290559815223e-17  1.187678996881444e-01
 1.779077735184950e+00  1.187678996881444e-01 -6.392807913301560e-17

-2.973470893201111e-17 -1.529780108592670e-18  1.268511854296746e+00
-1.529780108592670e-18 -2.046735358981214e-17  6.634484131156295e-01
 1.268511854296746e+00  6.634484131156295e-01 -4.882850114990812e-17

-3.346920282209455e-17  1.329565000598498e-19  1.247356446181108e+00
 1.329565000598498e-19 -2.038676193670091e-17  7.028284020553023e-01
 1.247356446181108e+00  7.028284020553023e-01 -4.821016302809372e-17

-3.570293327065023e-17 -3.017187461699935e-19  1.708754744840873e+00
-3.017187461699935e-19 -2.650056272961493e-17  1.765908093205447e-01
 1.708754744840873e+00  1.765908093205447e-01 -6.078118506690406e-17

-2.914422374897373e-17 -9.336888299383131e-19  1.101642823760726e+00
-9.336888299383131e-19 -1.761736210341138e-17  7.426760705698944e-01
 1.101642823760726e+00  7.426760705698944e-01 -4.213040840255055e-17

-2.882282611952725e-17 -6.819779720275090e-19  1.042123690052915e+00
-6.819779720275090e-19 -1.645724574350713e-17  7.623270738549260e-01
 1.042123690052915e+00  7.623270738549260e-01 -3.956349379915411e-17

-2.705810759509552e-17 -5.213689242371688e-19  1.246534512880869e+00
-5.213689242371688e-19 -1.975700682050437e-17  3.431704570632069e-01
 1.246534512880869e+00  3.431704570632069e-01 -4.290200129798391e-17

-2.858469096816985e-17  9.756558084189942e-20  1.171239713800638e+00
 9.756558084189942e-20 -1.885658320476221e-17  3.858042739191653e-01
 1.171239713800638e+00  3.858042739191653e-01 -4.058596580978906e-17

-2.414672304121996e-17 -1.243863310385616e-18  1.065086769634533e+00
-1.243863310385616e-18 -1.605382656170140e-17  5.272107559492801e-01
 1.065086769634533e+00  5.272107559492801e-01 -3.735953671395064e-17

-4.879534825947100e-17  6.823631772797760e-18  9.322012967609618e-01
 6.823631772797760e-18 -1.566455050366122e-17  6.995045794704001e-01
 9.322012967609618e-01  6.995045794704001e-01 -3.308682301538391e-17

 3.036059265653745e-17 -1.844278198977517e-17  9.049569814665005e-01
-1.844278198977517e-17 -7.838986337059092e-18  6.501495570340716e-01
 9.049569814665005e-01  6.501495570340716e-01 -3.179533381411733e-17

-8.728481649003773e-17  1.909228609239123e-17  1.093279521066137e+00
 1.909228609239123e-17 -2.446923845993040e-17  3.454652493812044e-01
 1.093279521066137e+00  3.454652493812044e-01 -3.735679734172592e-17

-2.996673493693663e-17  2.984206430772177e-20  1.076137198542418e+00
 2.984206430772177e-20 -1.897028654538622e-17  3.700905457696653e-01
 1.076137198542418e+00  3.700905457696653e-01 -3.724998813319757e-17

-2.136615121750969e-17 -2.672490002898219e-18  1.016012504775650e+00
-2.672490002898219e-18 -1.621408804690150e-17  5.417042434031900e-01
 1.016012504775650e+00  5.417042434031900e-01 -3.552525724046265e-17

-2.925467827117336e-17 -9.807787150772743e-19  1.187719924384463e+00
-9.807787150772743e-19 -1.825311257954873e-17  5.240323174053584e-01
 1.187719924384463e+00  5.240323174053584e-01 -4.192599056026942e-17

-3.951832813373433e-17  2.127743673123074e-18  1.204930198483023e+00
 2.127743673123074e-18 -1.791166403385751e-17  6.906378985253947e-01
 1.204930198483023e+00  6.906378985253947e-01 -4.417524300145400e-17

-5.108394461354717e-17  3.912086201853066e-18  1.300925870653655e+00
 3.912086201853066e-18 -2.073663599597822e-17  6.604216266439973e-01
 1.300925870653655e+00  6.604216266439973e-01 -4.873117327046596e-17

-1.081442132088496e-17 -7.030769261566944e-18  1.905495101853215e+00
-7.030769261566944e-18 -2.752131956601048e-17  1.197102708551497e-01
 1.905495101853215e+00  1.197102708551497e-01 -6.803884198146206e-17

 1.696185487592997e-17 -1.178412620673643e-17  1.388572653738965e+00
-1.178412620673643e-17 -1.921591449787256e-17  5.982458664770066e-01
 1.388572653738965e+00  5.982458664770066e-01 -5.237433591002899e-17

-2.442767315292817e-16  4.719905594900618e-17  1.283707667759029e+00
 4.719905594900618e-17 -3.171704013896150e-17  6.662891644198335e-01
 1.283707667759029e+00  6.662891644198335e-01 -4.931418879812768e-17

 5.415068246437151e-17 -2.110757175798707e-17  1.779406051024595e+00
-2.110757175798707e-17 -2.430383592219817e-17  1.183622476369605e-01
 1.779406051024595e+00  1.183622476369605e-01 -6.390870225772573e-17

-1.411559974028285e-17 -4.471879525670065e-18  1.269043877786406e+00
-4.471879525670065e-18 -1.976771341881433e-17  6.627012603573362e-01
 1.269043877786406e+00  6.627012603573362e-01 -4.881083435848198e-17

-8.022561586493921e-18 -5.921226709916965e-18  1.247790971157792e+00
-5.921226709916965e-18 -1.859171444234134e-17  7.020121177237975e-01
 1.247790971157792e+00  7.020121177237975e-01 -4.818840579870423e-17

-3.815139096331736e-17  4.209647838994875e-19  1.707876785126326e+00
 4.209647838994875e-19 -2.636633632785560e-17  1.766825861396063e-01
 1.707876785126326e+00  1.766825861396063e-01 -6.071863768878226e-17

-2.251057130641919e-17 -2.218464205336119e-18  1.101539399437125e+00
-2.218464205336119e-18 -1.708009274330424e-17  7.418463508190668e-01
 1.101539399437125e+00  7.418463508190668e-01 -4.208907448642191e-17

-2.795783242125856e-17 -8.405865632324220e-19  1.042455491205831e+00
-8.405865632324220e-19 -1.611444206187072e-17  7.608721715850698e-01
 1.042455491205831e+00  7.608721715850698e-01 -3.953552677390618e-17

-2.930580879517529e-17  2.577783104591953e-19  1.246128487428436e+00
 2.577783104591953e-19 -1.966618132263446e-17  3.424879914356185e-01
 1.246128487428436e+00  3.424879914356185e-01 -4.285346676549223e-17

-2.836183226004845e-17  7.594221951259032e-20  1.171729797790821e+00
 7.594221951259032e-20 -1.852962082956506e-17  3.844112986677805e-01
 1.171729797790821e+00  3.844112986677805e-01 -4.056791480630116e-17

-2.693445571332822e-17 -2.758537902485319e-19  1.065326586373408e+00
-2.758537902485319e-19 -1.605483748584596e-17  5.263612952174002e-01
 1.065326586373408e+00  5.263612952174002e-01 -3.733702257406100e-17

-2.559260156029743e-17 -5.657622331112775e-19  9.298186251169037e-01
-5.657622331112775e-19 -1.293589039545958e-17  7.016119581213885e-01
 9.298186251169037e-01  7.016119581213885e-01 -3.298444100156537e-17

-2.521517329120191e-17 -5.618069894804532e-19  9.033741572657429e-01
-5.618069894804532e-19 -1.327175286257995e-17  6.499180243355593e-01
 9.033741572657429e-01  6.499180243355593e-01 -3.171198472620756e-17

-2.695257807289883e-17 -4.031215920983063e-19  1.095671779875020e+00
-4.031215920983063e-19 -1.790130406256984e-17  3.409183627663255e-01
 1.095671779875020e+00  3.409183627663255e-01 -3.738947600118248e-17

-2.333903653234968e-17 -1.398765716418356e-18  1.075337605787792e+00
-1.398765716418356e-18 -1.826050575196728e-17  3.684641977437951e-01
 1.075337605787792e+00  3.684641977437951e-01 -3.718247694225336e-17

-3.167598265231748e-17 -3.636814649669512e-19  1.011808957963698e+00
-3.636814649669512e-19 -1.642052103931793e-17  5.426071824306219e-01
 1.011808957963698e+00  5.426071824306219e-01 -3.534052418311721e-17

-2.190163225225927e-17 -1.752011328095904e-18  1.184672833404969e+00
-1.752011328095904e-18 -1.783744287601203e-17  5.237875320946964e-01
 1.184672833404969e+00  5.237875320946964e-01 -4.178321183789629e-17

-7.361805697414698e-17  5.411243687778850e-18  1.206897132416362e+00
 5.411243687778850e-18 -1.784216033361779e-17  6.853133033054875e-01
 1.206897132416362e+00  6.853133033054875e-01 -4.417977878014128e-17

-3.635543037728961e-17  2.397354234753746e-19  1.303788189144013e+00
 2.397354234753746e-19 -1.961569340959153e-17  6.556107798984212e-01
 1.303788189144013e+00  6.556107798984212e-01 -4.876994420918513e-17

-6.730447686432128e-17  2.844169564588913e-18  1.902750754797870e+00
 2.844169564588913e-18 -2.905047830695166e-17  1.224322566822574e-01
 1.902750754797870e+00  1.224322566822574e-01 -6.794647938728976e-17

-7.451007008164248e-18 -3.649490894518128e-18  1.389504364354549e+00
-3.649490894518128e-18 -2.106736528353954e-17  5.976059971574484e-01
 1.389504364354549e+00  5.976059971574484e-01 -5.236871218627290e-17

-3.413993081228080e-17 -2.869246857216287e-19  1.284758374884751e+00
-2.869246857216287e-19 -2.072913162039117e-17  6.646845876679109e-01
 1.284758374884751e+00  6.646845876679109e-01 -4.931012486937974e-17

-4.678076457157040e-17  7.647328935902739e-19  1.777806971000765e+00
 7.647328935902739e-19 -2.878631521154079e-17  1.187645184036390e-01
 1.777806971000765e+00  1.187645184036390e-01 -6.383476374691687e-17

-3.761401167747595e-17  3.421359265873685e-19  1.268375707825091e+00
 3.421359265873685e-19 -2.046479351548616e-17  6.616937735064495e-01
 1.268375707825091e+00  6.616937735064495e-01 -4.874995003174885e-17

-2.739470641746051e-17 -1.026125997877739e-18  1.247561847566466e+00
-1.026125997877739e-18 -1.948586849207298e-17  6.999383036940460e-01
 1.247561847566466e+00  6.999383036940460e-01 -4.813484909822349e-17

-3.436232080454282e-17 -2.445583719258656e-19  1.706990431554623e+00
-2.445583719258656e-19 -2.597998749756914e-17  1.754611146774673e-01
 1.706990431554623e+00  1.754611146774673e-01 -6.065855186505775e-17

-3.057376114902405e-17 -4.389490166697957e-19  1.099498246761444e+00
-4.389490166697957e-19 -1.718242820009254e-17  7.425777904224691e-01
 1.099498246761444e+00  7.425777904224691e-01 -4.199366981949746e-17

-2.887638637589914e-17 -5.520696328045427e-19  1.041551155848174e+00
-5.520696328045427e-19 -1.587778767083711e-17  7.612732796890229e-01
 1.041551155848174e+00  7.612732796890229e-01 -3.948447488322347e-17

-2.994301774880815e-17  5.101182759644464e-19  1.246339915020521e+00
 5.101182759644464e-19 -1.949457943516848e-17  3.412003019493409e-01
 1.246339915020521e+00  3.412003019493409e-01 -4.282644056682687e-17

-3.081347964782453e-17  8.751634822968376e-19  1.172731767585697e+00
 8.751634822968376e-19 -1.855434238301883e-17  3.814514229344933e-01
 1.172731767585697e+00  3.814514229344933e-01 -4.056205336153764e-17

-2.436254330568215e-17 -9.920958114482644e-19  1.066950558143626e+00
-9.920958114482644e-19 -1.563329936111382e-17  5.223210411647383e-01
 1.066950558143626e+00  5.223210411647383e-01 -3.735369138438958e-17

-2.654258412599002e-17 -2.174720280815309e-19  9.323993434804492e-01
-2.174720280815309e-19 -1.284174574946089e-17  6.979552423845792e-01
 9.323993434804492e-01  6.979552423845792e-01 -3.303260175380606e-17

-4.151715017324673e-17  4.499710100888090e-18  9.029101270351525e-01
 4.499710100888090e-18 -1.454232659249152e-17  6.517695338354742e-01
 9.029101270351525e-01  6.517695338354742e-01 -3.168019176774663e-17

 5.406891976513923e-18 -1.006166513068831e-17  1.093734091221951e+00
-1.006166513068831e-17 -1.469239359152254e-17  3.432945740157348e-01
 1.093734091221951e+00  3.432945740157348e-01 -3.730591020432247e-17

 4.259939497086970e-17 -2.197218562769215e-17  1.079735370826884e+00
-2.197218562769215e-17 -1.175127130451381e-17  3.644530720618315e-01
 1.079735370826884e+00  3.644530720618315e-01 -3.729829331855671e-17

-4.315293821414058e-17  4.030835776264635e-18  1.016383607246397e+00
 4.030835776264635e-18 -1.768143282813904e-17  5.394964129411072e-01
 1.016383607246397e+00  5.394964129411072e-01 -3.546447159172600e-17

 6.678353981921717e-18 -1.153874764481759e-17  1.190600797596558e+00
-1.153874764481759e-17 -1.458042197739847e-17  5.217129430811716e-01
 1.190600797596558e+00  5.217129430811716e-01 -4.195534080125991e-17

-5.603805194797892e-17  7.761177507848768e-18  1.205523331040612e+00
 7.761177507848768e-18 -1.916025330002837e-17  6.915410582070318e-01
 1.205523331040612e+00  6.915410582070318e-01 -4.411639407025424e-17

-2.489282580672290e-18 -9.055806068758620e-18  1.297546081027221e+00
-9.055806068758620e-18 -1.655769421032128e-17  6.650115168609730e-01
 1.297546081027221e+00  6.650115168609730e-01 -4.852612017789301e-17

-4.635638946378248e-17  1.709764604580890e-18  1.899913487013643e+00
 1.709764604580890e-18 -2.904398295498889e-17  1.238958558466314e-01
 1.899913487013643e+00  1.238958558466314e-01 -6.776354545047687e-17

-3.604174823191655e-17  4.199328325240528e-19  1.387563829451013e+00
 4.199328325240528e-19 -2.145956479713701e-17  5.998863036049381e-01
 1.387563829451013e+00  5.998863036049381e-01 -5.222995617850184e-17

-2.237561305736038e-17 -3.836009871673236e-18  1.283044723777689e+00
-3.836009871673236e-18 -1.924558752447401e-17  6.697544886015300e-01
 1.283044723777689e+00  6.697544886015300e-01 -4.920045173539019e-17

-2.603861370364479e-17 -4.233923341005399e-18  1.769322586928316e+00
-4.233923341005399e-18 -2.688667877342642e-17  1.273443925484150e-01
 1.769322586928316e+00  1.273443925484150e-01 -6.352718691719978e-17

-5.836211867930278e-17  8.952590078675640e-18  1.265467102015309e+00
 8.952590078675640e-18 -2.332282770793504e-17  6.653949502098769e-01
 1.265467102015309e+00  6.653949502098769e-01 -4.865886118711354e-17

 7.283233533854115e-17 -3.716736789235718e-17  1.241685596353113e+00
-3.716736789235718e-17 -6.296677283100681e-18  6.974596456120866e-01
 1.241685596353113e+00  6.974596456120866e-01 -4.792296284095946e-17

 2.942939957810725e-17 -2.280077818398023e-17  1.676042913788377e+00
-2.280077818398023e-17 -1.780301559213297e-17  1.724183074979510e-01
 1.676042913788377e+00  1.724183074979510e-01 -5.983646034374653e-17

 1.056937500967793e-16 -4.836648560955639e-17  1.246235343540137e+00
-4.836648560955639e-17 -2.345041298658438e-18  5.815975491773214e-01
 1.246235343540137e+00  5.815975491773214e-01 -4.635529706927302e-17

-6.077751162321836e-17  1.054838832554340e-17  1.119925152526197e+00
 1.054838832554340e-17 -2.052556617394715e-17  7.279426287517824e-01
 1.119925152526197e+00  7.279426287517824e-01 -4.240446772668293e-17

-5.769322396078878e-17  9.691638261900713e-18  1.153706776209757e+00
 9.691638261900713e-18 -2.045665491371404e-17  5.914486871406878e-01
 1.153706776209757e+00  5.914486871406878e-01 -4.235176817374905e-17

-2.006823844509941e-18 -8.581855736137058e-18  1.017499153792616e+00
-8.581855736137058e-18 -1.278065083673547e-17  4.981130852163234e-01
 1.017499153792616e+00  4.981130852163234e-01 -3.571446311940748e-17

-4.004755432670793e-17  4.304247907993255e-18  1.333534238466284e+00
 4.304247907993255e-18 -2.274102258458845e-17  9.073200023693695e-02
 1.333534238466284e+00  9.073200023693695e-02 -4.487370366773142e-17

-2.116712146494108e-17 -2.036516245709479e-18  1.123975779178501e+00
-2.036516245709479e-18 -1.799637901138204e-17  2.648575402093237e-01
 1.123975779178501e+00  2.648575402093237e-01 -3.861589153913060e-17

-2.082088076880778e-17 -1.655861135250908e-18  8.904218153245341e-01
-1.655861135250908e-18 -1.428022009366935e-17  5.236000588569986e-01
 8.904218153245341e-01  5.236000588569986e-01 -3.119147360160829e-17

-3.109710690839656e-17 -1.817264532062016e-19  1.270289914415613e+00
-1.817264532062016e-19 -1.978361027805169e-17  3.241654169981778e-01
 1.270289914415613e+00  3.241654169981778e-01 -4.470480527531281e-17

-2.753702314017219e-17  5.643966525560513e-19  1.070697506508009e+00
 5.643966525560513e-19 -1.417754136185014e-17  6.203273549503835e-01
 1.070697506508009e+00  6.203273549503835e-01 -3.846746478735339e-17

-2.788846799625001e-17  4.826408702376217e-19  1.045870270471377e+00
 4.826408702376217e-19 -1.326062525027592e-17  7.362947642781147e-01
 1.045870270471377e+00  7.362947642781147e-01 -3.862735182708693e-17

-2.899588420012773e-17  1.071344491560672e-19  1.217533464260810e+00
 1.071344491560672e-19 -1.855817495386947e-17  3.905237109233792e-01
 1.217533464260810e+00  3.905237109233792e-01 -4.339864680303751e-17

-3.079800809864355e-17 -8.158905415666509e-21  1.422568079413638e+00
-8.158905415666509e-21 -2.295849511956573e-17  1.142133323621986e-01
 1.422568079413638e+00  1.142133323621986e-01 -5.016734390849431e-17

-2.948817754606731e-17 -1.665463579913334e-20  1.282965190103553e+00
-1.665463579913334e-20 -2.000200074679106e-17  2.883905610425093e-01
 1.282965190103553e+00  2.883905610425093e-01 -4.569851766604231e-17

-2.873383938338247e-17 -1.699390667900038e-19  1.184643763580721e+00
-1.699390667900038e-19 -1.607571452417886e-17  5.189850067638894e-01
 1.184643763580721e+00  5.189850067638894e-01 -4.292815706818778e-17

-2.640670690963526e-17 -2.765373110099276e-19  1.071040761063646e+00
-2.765373110099276e-19 -1.516923867039979e-17  4.531773119919003e-01
 1.071040761063646e+00  4.531773119919003e-01 -3.817540647180815e-17

-2.305439310572746e-17  4.659254953014112e-20  9.253992654679927e-01
 4.659254953014112e-20 -1.324878174437262e-17  3.893596251149017e-01
 9.253992654679927e-01  3.893596251149017e-01 -3.128728042794756e-17

-3.159980150399529e-17  2.935531247992341e-18  7.451298428432285e-01
 2.935531247992341e-18 -1.062805210380190e-17  5.464685401495858e-01
 7.451298428432285e-01  5.464685401495858e-01 -2.542085619031347e-17

-3.306288074635525e-19 -6.437485933421585e-18  7.138052953430432e-01
-6.437485933421585e-18 -7.329523104072991e-18  5.600486084993780e-01
 7.138052953430432e-01  5.600486084993780e-01 -2.431644216913783e-17

 1.484334551240183e-17 -1.144042587516434e-17  8.431606619937007e-01
-1.144042587516434e-17 -8.884435214472636e-18  3.870872420359134e-01
 8.431606619937007e-01  3.870872420359134e-01 -2.871069480058417e-17

-4.707466860361009e-18 -6.437912948987424e-18  8.938182139733462e-01
-6.437912948987424e-18 -1.168159399468024e-17  3.986780133012449e-01
 8.938182139733462e-01  3.986780133012449e-01 -3.081431639167878e-17

-3.968543578267344e-17  2.690535018237041e-18  1.208178967667388e+00
 2.690535018237041e-18 -1.767612865658881e-17  2.990794568229909e-01
 1.208178967667388e+00  2.990794568229909e-01 -4.167697885461777e-17

-2.666085807600355e-17  4.553077525681815e-19  1.061980035335424e+00
 4.553077525681815e-19 -1.115299926842808e-17  6.001976698336756e-01
 1.061980035335424e+00  6.001976698336756e-01 -3.784909473711363e-17

-2.401800569894421e-17 -1.125124705530372e-18  8.719144711001180e-01
-1.125124705530372e-18 -8.907414984688659e-18  8.352789940232427e-01
 8.719144711001180e-01  8.352789940232427e-01 -3.419024227317294e-17

-2.776900056468932e-17 -2.887946710618439e-19  1.276335041422271e+00
-2.887946710618439e-19 -1.582034522832308e-17  3.013138950488519e-01
 1.276335041422271e+00  3.013138950488519e-01 -4.373324863966242e-17

-2.549562679546509e-17 -4.482428135774340e-20  1.108518715218380e+00
-4.482428135774340e-20 -1.438169881111604e-17  3.123590404396165e-01
 1.108518715218380e+00  3.123590404396165e-01 -3.751949137840772e-17

-2.177605776872266e-17 -3.661454200665655e-19  8.185915318668066e-01
-3.661454200665655e-19 -1.073474378100159e-17  4.863279605752921e-01
 8.185915318668066e-01  4.863279605752921e-01 -2.810241654653220e-17

-2.187247137376592e-17  1.860060434969351e-19  9.272121133364361e-01
 1.860060434969351e-19 -1.251504416986708e-17  2.889073666714331e-01
 9.272121133364361e-01  2.889073666714331e-01 -3.017694825407828e-17

-1.965476920367786e-17 -8.478189704895549e-20  7.587267937441716e-01
-8.478189704895549e-20 -1.091172715610850e-17  3.609360253057968e-01
 7.587267937441716e-01  3.609360253057968e-01 -2.474348336246514e-17

-2.143912626568417e-17 -8.285186681187801e-19  9.092750946335731e-01
-8.285186681187801e-19 -1.414930435094371e-17  2.281246549605129e-01
 9.092750946335731e-01  2.281246549605129e-01 -3.070466305269849e-17

-2.100445999898924e-17 -9.788345076281456e-19  8.354870089715017e-01
-9.788345076281456e-19 -1.214891741101279e-17  3.653891217608994e-01
 8.354870089715017e-01  3.653891217608994e-01 -2.860694119287388e-17

-2.119444694670140e-17 -3.240203570483761e-19  8.267074642703861e-01
-3.240203570483761e-19 -9.810612509586233e-18  4.861613617757324e-01
 8.267074642703861e-01  4.861613617757324e-01 -2.813772381644057e-17

-2.294424827037163e-17 -1.569079883577138e-19  9.437902462021770e-01
-1.569079883577138e-19 -1.031406546893883e-17  4.843428976820818e-01
 9.437902462021770e-01  4.843428976820818e-01 -3.211758010738690e-17

-2.256219629125507e-17 -3.922385877409962e-19  8.741057615901106e-01
-3.922385877409962e-19 -9.508832834220536e-18  5.798244221578613e-01
 8.741057615901106e-01  5.798244221578613e-01 -2.979486137996607e-17

-2.571609850920274e-17 -9.491803990837296e-19  1.157380542797342e+00
-9.491803990837296e-19 -1.754220279556866e-17  1.927492829675155e-01
 1.157380542797342e+00  1.927492829675155e-01 -3.973691119619688e-17

-2.453638181859261e-17 -7.864347904261732e-19  1.025320057417308e+00
-7.864347904261732e-19 -1.481305406948688e-17  3.567512191935363e-01
 1.025320057417308e+00  3.567512191935363e-01 -3.520877892490120e-17

-2.265188290511870e-17 -2.284725811678245e-19  8.339542130114991e-01
-2.284725811678245e-19 -1.069676819781503e-17  5.758148416915810e-01
 8.339542130114991e-01  5.758148416915810e-01 -2.830174509340261e-17

-2.689474081864719e-17 -5.355122143922342e-19  1.169099149502715e+00
-5.355122143922342e-19 -1.606017098690967e-17  3.432965311625424e-01
 1.169099149502715e+00  3.432965311625424e-01 -4.037337251535191e-17

-2.729800778615570e-17 -5.242040727359855e-19  1.172851868339515e+00
-5.242040727359855e-19 -1.617259572324328e-17  3.694620386137343e-01
 1.172851868339515e+00  3.694620386137343e-01 -4.064016996181667e-17

-2.840172976192636e-17 -4.285553488736492e-19  1.229189931520632e+00
-4.285553488736492e-19 -1.669368705354796e-17  3.889055529415170e-01
 1.229189931520632e+00  3.889055529415170e-01 -4.296673118876358e-17

-2.694758313114076e-17 -7.765650010478481e-19  1.155550172315304e+00
-7.765650010478481e-19 -1.535376135747850e-17  4.666763011167686e-01
 1.155550172315304e+00  4.666763011167686e-01 -4.110778999699511e-17

-2.628059580449966e-17 -6.307684408126134e-19  1.043754467826004e+00
-6.307684408126134e-19 -1.410207723158518e-17  4.923020852430728e-01
 1.043754467826004e+00  4.923020852430728e-01 -3.716701800110270e-17

-2.827584174198227e-17 -1.580385027387267e-19  1.098138521115808e+00
-1.580385027387267e-19 -1.507042337853522e-17  3.600391813729943e-01
 1.098138521115808e+00  3.600391813729943e-01 -3.796785230725299e-17

-3.150479338030397e-17  7.755362311141976e-19  1.102845015578749e+00
 7.755362311141976e-19 -1.544141167273784e-17  2.870693448633745e-01
 1.102845015578749e+00  2.870693448633745e-01 -3.735964149278470e-17

-2.860300075743580e-17  6.489070122678901e-20  1.007337363448656e+00
 6.489070122678901e-20 -1.385061211916766e-17  3.272522651447544e-01
 1.007337363448656e+00  3.272522651447544e-01 -3.396507824043671e-17

 1.078602690267646e-17 -9.166578473058638e-18  8.999319808307409e-01
-9.166578473058638e-18 -9.496453093384716e-18  4.071589502030248e-01
 8.999319808307409e-01  4.071589502030248e-01 -3.056705643666221e-17

-1.986204317960598e-16  4.310892015428992e-17  9.055106008452158e-01
 4.310892015428992e-17 -2.187124762711725e-17  4.065273776256491e-01
 9.055106008452158e-01  4.065273776256491e-01 -3.086605722701660e-17

-7.606535765178698e-17  1.207787569213737e-17  8.368583520410469e-01
 1.207787569213737e-17 -1.246776025059446e-17  4.886404961373773e-01
 8.368583520410469e-01  4.886404961373773e-01 -2.861125926842842e-17

-1.886860398098835e-17 -9.765645885350219e-19  8.259368955282836e-01
-9.765645885350219e-19 -9.382627270451401e-18  4.555130518440734e-01
 8.259368955282836e-01  4.555130518440734e-01 -2.802547586797035e-17

-2.486397062484737e-17  7.629621626956564e-19  7.913149842935956e-01
 7.629621626956564e-19 -9.816919183186577e-18  4.212191231110607e-01
 7.913149842935956e-01  4.212191231110607e-01 -2.659229409835515e-17

-2.098238657063530e-17 -3.424250930398312e-19  7.786092153830970e-01
-3.424250930398312e-19 -1.004527542873827e-17  4.038227460532033e-01
 7.786092153830970e-01  4.038227460532033e-01 -2.634693094947224e-17

-2.193928659856594e-17 -3.594556244294045e-19  8.814116320103860e-01
-3.594556244294045e-19 -1.036309439171724e-17  4.295830541212499e-01
 8.814116320103860e-01  4.295830541212499e-01 -2.998146636498260e-17

-2.421000856677640e-17 -3.285875741659352e-19  1.027686502794224e+00
-3.285875741659352e-19 -1.267515475378733e-17  3.664706528280614e-01
 1.027686502794224e+00  3.664706528280614e-01 -3.525982313682565e-17

-2.395256474258441e-17 -4.716301484178329e-19  1.037439359322724e+00
-4.716301484178329e-19 -1.339872945843373e-17  3.345211062152908e-01
 1.037439359322724e+00  3.345211062152908e-01 -3.564236717280553e-17

-1.726961053928523e-17 -2.185706907296896e-18  9.314482794011669e-01
-2.185706907296896e-18 -1.198455800707528e-17  3.968251305099391e-01
 9.314482794011669e-01  3.968251305099391e-01 -3.193153034583042e-17

-5.823175888028139e-17  9.678742250410367e-18  1.020690261042874e+00
 9.678742250410367e-18 -1.648421181952293e-17  3.842285823438651e-01
 1.020690261042874e+00  3.842285823438651e-01 -3.522301780688015e-17

-1.727062000908413e-17 -2.469154267338838e-18  1.014520722287005e+00
-2.469154267338838e-18 -1.109718507905973e-17  5.039221647585882e-01
 1.014520722287005e+00  5.039221647585882e-01 -3.514589946579319e-17

-2.863038045109638e-17  8.236146378163383e-19  1.051777994033062e+00
 8.236146378163383e-19 -1.525322831948722e-17  3.172433836708060e-01
 1.051777994033062e+00  3.172433836708060e-01 -3.619509592841726e-17

-2.484204181175292e-17 -7.224545658329161e-19  1.124418365659943e+00
-7.224545658329161e-19 -1.643307646263226e-17  2.383638436781274e-01
 1.124418365659943e+00  2.383638436781274e-01 -3.888987783179695e-17

-2.454193552992504e-17 -2.884871072662355e-19  9.702551745916842e-01
-2.884871072662355e-19 -1.187440369185972e-17  5.051192471848858e-01
 9.702551745916842e-01  5.051192471848858e-01 -3.367591444907848e-17

-2.288529631339425e-17 -9.653181489266239e-19  8.303008417032237e-01
-9.653181489266239e-19 -9.650597682798096e-18  6.645651408435361e-01
 8.303008417032237e-01  6.645651408435361e-01 -3.017575696993328e-17

-2.470405381443022e-17 -1.833142288415100e-19  1.126707508173627e+00
-1.833142288415100e-19 -1.733385461167648e-17  1.150713267691803e-01
 1.126707508173627e+00  1.150713267691803e-01 -3.729667935548129e-17

-2.429053470503785e-17 -6.721722882673159e-19  1.063466896664796e+00
-6.721722882673159e-19 -1.676181908814870e-17  1.907028815023748e-01
 1.063466896664796e+00  1.907028815023748e-01 -3.606811446604884e-17

-2.438888875308281e-17 -2.635150382443378e-20  1.003385854364426e+00
-2.635150382443378e-20 -1.220301326983797e-17  4.616569370916677e-01
 1.003385854364426e+00  4.616569370916677e-01 -3.442099557196654e-17

-2.581334277439111e-17 -4.202826682053373e-19  1.073409793304237e+00
-4.202826682053373e-19 -1.254564660321444e-17  5.030158935148110e-01
 1.073409793304237e+00  5.030158935148110e-01 -3.739083704909257e-17

-2.465164570721082e-17 -8.508522799069623e-19  9.685110577925461e-01
-8.508522799069623e-19 -1.137863917789183e-17  5.843016701452920e-01
 9.685110577925461e-01  5.843016701452920e-01 -3.455584034173393e-17

-2.382675742088035e-17 -6.386740731469858e-20  1.025806716820313e+00
-6.386740731469858e-20 -1.429364714324941e-17  2.876315451726387e-01
 1.025806716820313e+00  2.876315451726387e-01 -3.420186420651060e-17


CELL_DATA 2547
SCALARS dislocation_index int
LOOKUP_TABLE default
0
1
2
3
4
5
6
7
8
9
10
11
12
13
14
15
16
17
18
19
20
21
22
23
24
25
26
27
28
29
30
31
32
33
34
35
36
37
38
39
40
41
42
43
44
45
46
47
48
49
50
51
52
53
54
55
56
57
58
59
60
61
62
63
64
65
66
67
68
69
70
71
72
73
74
75
76
77
78
79
80
81
82
83
84
85
86
87
88
89
90
91
92
93
94
95
96
97
98
99
100
101
102
103
104
105
106
107
108
109
110
111
112
113
114
115
116
117
118
119
120
121
122
123
124
125
126
127
128
129
130
131
132
133
134
135
136
137
138
139
140
141
142
143
144
145
146
147
148
149
150
151
152
153
154
155
156
157
158
159
160
161
162
163
164
165
166
167
168
169
170
171
172
173
174
175
176
177
178
179
180
181
182
183
184
185
186
187
188
189
190
191
192
193
194
195
196
197
198
199
200
201
202
203
204
205
206
207
208
209
210
211
212
213
214
215
216
217
218
219
220
221
222
223
224
225
226
227
228
229
230
231
232
233
234
235
236
237
238
239
240
241
242
243
244
245
246
247
248
249
250
251
252
253
254
255
256
257
258
259
260
261
262
263
264
265
266
267
268
269
270
271
272
273
274
275
276
277
278
279
280
281
282
283
284
285
286
287
288
289
290
291
292
293
294
295
296
297
298
299
300
301
302
303
304
305
306
307
308
309
310
311
312
313
314
315
316
317
318
319
320
321
322
323
324
325
326
327
328
329
330
331
332
333
334
335
336
337
338
339
340
341
342
343
344
345
346
347
348
349
350
351
352
353
354
355
356
357
358
359
360
361
362
363
364
365
366
367
368
369
370
371
372
373
374
375
376
377
378
379
380
381
382
383
384
385
386
387
388
389
390
391
392
393
394
395
396
397
398
399
400
401
402
403
404
405
406
407
408
409
410
411
412
413
414
415
416
417
418
419
420
421
422
423
424
425
426
427
428
429
430
431
432
433
434
435
436
437
438
439
440
441
442
443
444
445
446
447
448
449
450
451
452
453
454
455
456
457
458
459
460
461
462
463
464
465
466
467
468
469
470
471
472
473
474
475
476
477
478
479
480
481
482
483
484
485
486
487
488
489
490
491
492
493
494
495
496
497
498
499
500
501
502
503
504
505
506
507
508
509
510
511
512
513
514
515
516
517
518
519
520
521
522
523
524
525
526
527
528
529
530
531
532
533
534
535
536
537
538
539
540
541
542
543
544
545
546
547
548
549
550
551
552
553
554
555
556
557
558
559
560
561
562
563
564
565
566
567
568
569
570
571
572
573
574
575
576
577
578
579
580
581
582
583
584
585
586
587
588
589
590
591
592
593
594
595
596
597
598
599
600
601
602
603
604
605
606
607
608
609
610
611
612
613
614
615
616
617
618
619
620
621
622
623
624
625
626
627
628
629
630
631
632
633
634
635
636
637
638
639
640
641
642
643
644
645
646
647
648
649
650
651
652
653
654
655
656
657
658
659
660
661
662
663
664
665
666
667
668
669
670
671
672
673
674
675
676
677
678
679
680
681
682
683
684
685
686
687
688
689
690
691
692
693
694
695
696
697
698
699
700
701
702
703
704
705
706
707
708
709
710
711
712
713
714
715
716
717
718
719
720
721
722
723
724
725
726
727
728
729
730
731
732
733
734
735
736
737
738
739
740
741
742
743
744
745
746
747
748
749
750
751
752
753
754
755
756
757
758
759
760
761
762
763
764
765
766
767
768
769
770
771
772
773
774
775
776
777
778
779
780
781
782
783
784
785
786
787
788
789
790
791
792
793
794
795
796
797
798
799
800
801
802
803
804
805
806
807
808
809
810
811
812
813
814
815
816
817
818
819
820
821
822
823
824
825
826
827
828
829
830
831
832
833
834
835
836
837
838
839
840
841
842
843
844
845
846
847
848
849
850
851
852
853
854
855
856
857
858
859
860
861
862
863
864
865
866
867
868
869
870
871
872
873
874
875
876
877
878
879
880
881
882
883
884
885
886
887
888
889
890
891
892
893
894
895
896
897
898
899
900
901
902
903
904
905
906
907
908
909
910
911
912
913
914
915
916
917
918
919
920
921
922
923
924
925
926
927
928
929
930
931
932
933
934
935
936
937
938
939
940
941
942
943
944
945
946
947
948
949
950
951
952
953
954
955
956
957
958
959
960
961
962
963
964
965
966
967
968
969
970
971
972
973
974
975
976
977
978
979
980
981
982
983
984
985
986
987
988
989
990
991
992
993
994
995
996
997
998
999
1000
1001
1002
1003
1004
1005
1006
1007
1008
1009
1010
1011
1012
1013
1014
1015
1016
1017
1018
1019
1020
1021
1022
1023
1024
1025
1026
1027
1028
1029
1030
1031
1032
1033
1034
1035
1036
1037
1038
1039
1040
1041
1042
1043
1044
1045
1046
1047
1048
1049
1050
1051
1052
1053
1054
1055
1056
1057
1058
1059
1060
1061
1062
1063
1064
1065
1066
1067
1068
1069
1070
1071
1072
1073
1074
1075
1076
1077
1078
1079
1080
1081
1082
1083
1084
1085
1086
1087
1088
1089
1090
1091
1092
1093
1094
1095
1096
1097
1098
1099
1100
1101
1102
1103
1104
1105
1106
1107
1108
1109
1110
1111
1112
1113
1114
1115
1116
1117
1118
1119
1120
1121
1122
1123
1124
1125
1126
1127
1128
1129
1130
1131
1132
1133
1134
1135
1136
1137
1138
1139
1140
1141
1142
1143
1144
1145
1146
1147
1148
1149
1150
1151
1152
1153
1154
1155
1156
1157
1158
1159
1160
1161
1162
1163
1164
1165
1166
1167
1168
1169
1170
1171
1172
1173
1174
1175
1176
1177
1178
1179
1180
1181
1182
1183
1184
1185
1186
1187
1188
1189
1190
1191
1192
1193
1194
1195
1196
1197
1198
1199
1200
1201
1202
1203
1204
1205
1206
1207
1208
1209
1210
1211
1212
1213
1214
1215
1216
1217
1218
1219
1220
1221
1222
1223
1224
1225
1226
1227
1228
1229
1230
1231
1232
1233
1234
1235
1236
1237
1238
1239
1240
1241
1242
1243
1244
1245
1246
1247
1248
1249
1250
1251
1252
1253
1254
1255
1256
1257
1258
1259
1260
1261
1262
1263
1264
1265
1266
1267
1268
1269
1270
1271
1272
1273
1274
1275
1276
1277
1278
1279
1280
1281
1282
1283
1284
1285
1286
1287
1288
1289
1290
1291
1292
1293
1294
1295
1296
1297
1298
1299
1300
1301
1302
1303
1304
1305
1306
1307
1308
1309
1310
1311
1312
1313
1314
1315
1316
1317
1318
1319
1320
1321
1322
1323
1324
1325
1326
1327
1328
1329
1330
1331
1332
1333
1334
1335
1336
1337
1338
1339
1340
1341
1342
1343
1344
1345
1346
1347
1348
1349
1350
1351
1352
1353
1354
1355
1356
1357
1358
1359
1360
1361
1362
1363
1364
1365
1366
1367
1368
1369
1370
1371
1372
1373
1374
1375
1376
1377
1378
1379
1380
1381
1382
1383
1384
1385
1386
1387
1388
1389
1390
1391
1392
1393
1394
1395
1396
1397
1398
1399
1400
1401
1402
1403
1404
1405
1406
1407
1408
1409
1410
1411
1412
1413
1414
1415
1416
1417
1418
1419
1420
1421
1422
1423
1424
1425
1426
1427
1428
1429
1430
1431
1432
1433
1434
1435
1436
1437
1438
1439
1440
1441
1442
1443
1444
1445
1446
1447
1448
1449
1450
1451
1452
1453
1454
1455
1456
1457
1458
1459
1460
1461
1462
1463
1464
1465
1466
1467
1468
1469
1470
1471
1472
1473
1474
1475
1476
1477
1478
1479
1480
1481
1482
1483
1484
1485
1486
1487
1488
1489
1490
1491
1492
1493
1494
1495
1496
1497
1498
1499
1500
1501
1502
1503
1504
1505
1506
1507
1508
1509
1510
1511
1512
1513
1514
1515
1516
1517
1518
1519
1520
1521
1522
1523
1524
1525
1526
1527
1528
1529
1530
1531
1532
1533
1534
1535
1536
1537
1538
1539
1540
1541
1542
1543
1544
1545
1546
1547
1548
1549
1550
1551
1552
1553
1554
1555
1556
1557
1558
1559
1560
1561
1562
1563
1564
1565
1566
1567
1568
1569
1570
1571
1572
1573
1574
1575
1576
1577
1578
1579
1580
1581
1582
1583
1584
1585
1586
1587
1588
1589
1590
1591
1592
1593
1594
1595
1596
1597
1598
1599
1600
1601
1602
1603
1604
1605
1606
1607
1608
1609
1610
1611
1612
1613
1614
1615
1616
1617
1618
1619
1620
1621
1622
1623
1624
1625
1626
1627
1628
1629
1630
1631
1632
1633
1634
1635
1636
1637
1638
1639
1640
1641
1642
1643
1644
1645
1646
1647
1648
1649
1650
1651
1652
1653
1654
1655
1656
1657
1658
1659
1660
1661
1662
1663
1664
1665
1666
1667
1668
1669
1670
1671
1672
1673
1674
1675
1676
1677
1678
1679
1680
1681
1682
1683
1684
1685
1686
1687
1688
1689
1690
1691
1692
1693
1694
1695
1696
1697
1698
1699
1700
1701
1702
1703
1704
1705
1706
1707
1708
1709
1710
1711
1712
1713
1714
1715
1716
1717
1718
1719
1720
1721
1722
1723
1724
1725
1726
1727
1728
1729
1730
1731
1732
1733
1734
1735
1736
1737
1738
1739
1740
1741
1742
1743
1744
1745
1746
1747
1748
1749
1750
1751
1752
1753
1754
1755
1756
1757
1758
1759
1760
1761
1762
1763
1764
1765
1766
1767
1768
1769
1770
1771
1772
1773
1774
1775
1776
1777
1778
1779
1780
1781
1782
1783
1784
1785
1786
1787
1788
1789
1790
1791
1792
1793
1794
1795
1796
1797
1798
1799
1800
1801
1802
1803
1804
1805
1806
1807
1808
1809
1810
1811
1812
1813
1814
1815
1816
1817
1818
1819
1820
1821
1822
1823
1824
1825
1826
1827
1828
1829
1830
1831
1832
1833
1834
1835
1836
1837
1838
1839
1840
1841
1842
1843
1844
1845
1846
1847
1848
1849
1850
1851
1852
1853
1854
1855
1856
1857
1858
1859
1860
1861
1862
1863
1864
1865
1866
1867
1868
1869
1870
1871
1872
1873
1874
1875
1876
1877
1878
1879
1880
1881
1882
1883
1884
1885
1886
1887
1888
1889
1890
1891
1892
1893
1894
1895
1896
1897
1898
1899
1900
1901
1902
1903
1904
1905
1906
1907
1908
1909
1910
1911
1912
1913
1914
1915
1916
1917
1918
1919
1920
1921
1922
1923
1924
1925
1926
1927
1928
1929
1930
1931
1932
1933
1934
1935
1936
1937
1938
1939
1940
1941
1942
1943
1944
1945
1946
1947
1948
1949
1950
1951
1952
1953
1954
1955
1956
1957
1958
1959
1960
1961
1962
1963
1964
1965
1966
1967
1968
1969
1970
1971
1972
1973
1974
1975
1976
1977
1978
1979
1980
1981
1982
1983
1984
1985
1986
1987
1988
1989
1990
1991
1992
1993
1994
1995
1996
1997
1998
1999
2000
2001
2002
2003
2004
2005
2006
2007
2008
2009
2010
2011
2012
2013
2014
2015
2016
2017
2018
2019
2020
2021
2022
2023
2024
2025
2026
2027
2028
2029
2030
2031
2032
2033
2034
2035
2036
2037
2038
2039
2040
2041
2042
2043
2044
2045
2046
2047
2048
2049
2050
2051
2052
2053
2054
2055
2056
2057
2058
2059
2060
2061
2062
2063
2064
2065
2066
2067
2068
2069
2070
2071
2072
2073
2074
2075
2076
2077
2078
2079
2080
2081
2082
2083
2084
2085
2086
2087
2088
2089
2090
2091
2092
2093
2094
2095
2096
2097
2098
2099
2100
2101
2102
2103
2104
2105
2106
2107
2108
2109
2110
2111
2112
2113
2114
2115
2116
2117
2118
2119
2120
2121
2122
2123
2124
2125
2126
2127
2128
2129
2130
2131
2132
2133
2134
2135
2136
2137
2138
2139
2140
2141
2142
2143
2144
2145
2146
2147
2148
2149
2150
2151
2152
2153
2154
2155
2156
2157
2158
2159
2160
2161
2162
2163
2164
2165
2166
2167
2168
2169
2170
2171
2172
2173
2174
2175
2176
2177
2178
2179
2180
2181
2182
2183
2184
2185
2186
2187
2188
2189
2190
2191
2192
2193
2194
2195
2196
2197
2198
2199
2200
2201
2202
2203
2204
2205
2206
2207
2208
2209
2210
2211
2212
2213
2214
2215
2216
2217
2218
2219
2220
2221
2222
2223
2224
2225
2226
2227
2228
2229
2230
2231
2232
2233
2234
2235
2236
2237
2238
2239
2240
2241
2242
2243
2244
2245
2246
2247
2248
2249
2250
2251
2252
2253
2254
2255
2256
2257
2258
2259
2260
2261
2262
2263
2264
2265
2266
2267
2268
2269
2270
2271
2272
2273
2274
2275
2276
2277
2278
2279
2280
2281
2282
2283
2284
2285
2286
2287
2288
2289
2290
2291
2292
2293
2294
2295
2296
2297
2298
2299
2300
2301
2302
2303
2304
2305
2306
2307
2308
2309
2310
2311
2312
2313
2314
2315
2316
2317
2318
2319
2320
2321
2322
2323
2324
2325
2326
2327
2328
2329
2330
2331
2332
2333
2334
2335
2336
2337
2338
2339
2340
2341
2342
2343
2344
2345
2346
2347
2348
2349
2350
2351
2352
2353
2354
2355
2356
2357
2358
2359
2360
2361
2362
2363
2364
2365
2366
2367
2368
2369
2370
2371
2372
2373
2374
2375
2376
2377
2378
2379
2380
2381
2382
2383
2384
2385
2386
2387
2388
2389
2390
2391
2392
2393
2394
2395
2396
2397
2398
2399
2400
2401
2402
2403
2404
2405
2406
2407
2408
2409
2410
2411
2412
2413
2414
2415
2416
2417
2418
2419
2420
2421
2422
2423
2424
2425
2426
2427
2428
2429
2430
2431
2432
2433
2434
2435
2436
2437
2438
2439
2440
2441
2442
2443
2444
2445
2446
2447
2448
2449
2450
2451
2452
2453
2454
2455
2456
2457
2458
2459
2460
2461
2462
2463
2464
2465
2466
2467
2468
2469
2470
2471
2472
2473
2474
2475
2476
2477
2478
2479
2480
2481
2482
2483
2484
2485
2486
2487
2488
2489
2490
2491
2492
2493
2494
2495
2496
2497
2498
2499
2500
2501
2502
2503
2504
2505
2506
2507
2508
2509
2510
2511
2512
2513
2514
2515
2516
2517
2518
2519
2520
2521
2522
2523
2524
2525
2526
2527
2528
2529
2530
2531
2532
2533
2534
2535
2536
2537
2538
2539
2540
2541
2542
2543
2544
2545
2546

VECTORS burgers_vector_global double
-1.429999999999999e+00 -8.256108849411650e-01  3.393140768766017e-17
 1.429999999999999e+00  8.256108849411650e-01 -3.393140768766017e-17
-1.429999999999999e+00 -8.256108849411650e-01  3.393140768766017e-17
-1.429999999999999e+00 -8.256108849411650e-01  3.393140768766017e-17
-1.429999999999999e+00 -8.256108849411650e-01  3.393140768766017e-17
-1.429999999999999e+00 -8.256108849411650e-01  3.393140768766017e-17
-1.429999999999999e+00 -8.256108849411650e-01  3.393140768766017e-17
-1.429999999999999e+00 -8.256108849411650e-01  3.393140768766017e-17
-1.429999999999999e+00 -8.256108849411650e-01  3.393140768766017e-17
-1.429999999999999e+00 -8.256108849411650e-01  3.393140768766017e-17
-1.429999999999999e+00 -8.256108849411650e-01  3.393140768766017e-17
-1.429999999999999e+00 -8.256108849411650e-01  3.393140768766017e-17
-1.429999999999999e+00 -8.256108849411650e-01  3.393140768766017e-17
-1.429999999999999e+00 -8.256108849411650e-01  3.393140768766017e-17
-1.429999999999999e+00 -8.256108849411650e-01  3.393140768766017e-17
-1.429999999999999e+00 -8.256108849411650e-01  3.393140768766017e-17
-1.429999999999999e+00 -8.256108849411650e-01  3.393140768766017e-17
-1.429999999999999e+00 -8.256108849411650e-01  3.393140768766017e-17
-1.429999999999999e+00 -8.256108849411650e-01  3.393140768766017e-17
-1.429999999999999e+00 -8.256108849411650e-01  3.393140768766017e-17
-1.429999999999999e+00 -8.256108849411650e-01  3.393140768766017e-17
-1.429999999999999e+00 -8.256108849411650e-01  3.393140768766017e-17
-1.429999999999999e+00 -8.256108849411650e-01  3.393140768766017e-17
-1.429999999999999e+00 -8.256108849411650e-01  3.393140768766017e-17
-1.429999999999999e+00 -8.256108849411650e-01  3.393140768766017e-17
-1.429999999999999e+00 -8.256108849411650e-01  3.393140768766017e-17
-1.429999999999999e+00 -8.256108849411650e-01  3.393140768766017e-17
-1.429999999999999e+00 -8.256108849411650e-01  3.393140768766017e-17
-1.429999999999999e+00 -8.256108849411650e-01  3.393140768766017e-17
-1.429999999999999e+00 -8.256108849411650e-01  3.393140768766017e-17
-1.429999999999999e+00 -8.256108849411650e-01  3.393140768766017e-17
-1.429999999999999e+00 -8.256108849411650e-01  3.393140768766017e-17
-1.429999999999999e+00 -8.256108849411650e-01  3.393140768766017e-17
-1.429999999999999e+00 -8.256108849411650e-01  3.393140768766017e-17
-1.429999999999999e+00 -8.256108849411650e-01  3.393140768766017e-17
-1.429999999999999e+00 -8.256108849411650e-01  3.393140768766017e-17
-1.429999999999999e+00 -8.256108849411650e-01  3.393140768766017e-17
-1.429999999999999e+00 -8.256108849411650e-01  3.393140768766017e-17
-1.429999999999999e+00 -8.256108849411650e-01  3.393140768766017e-17
-1.429999999999999e+00 -8.256108849411650e-01  3.393140768766017e-17
-1.429999999999999e+00 -8.256108849411650e-01  3.393140768766017e-17
-1.429999999999999e+00 -8.256108849411650e-01  3.393140768766017e-17
-1.429999999999999e+00 -8.256108849411650e-01  3.393140768766017e-17
-1.429999999999999e+00 -8.256108849411650e-01  3.393140768766017e-17
-1.429999999999999e+00 -8.256108849411650e-01  3.393140768766017e-17
-1.429999999999999e+00 -8.256108849411650e-01  3.393140768766017e-17
-1.429999999999999e+00 -8.256108849411650e-01  3.393140768766017e-17
-1.429999999999999e+00 -8.256108849411650e-01  3.393140768766017e-17
-1.429999999999999e+00 -8.256108849411650e-01  3.393140768766017e-17
-1.429999999999999e+00 -8.256108849411650e-01  3.393140768766017e-17
-1.429999999999999e+00 -8.256108849411650e-01  3.393140768766017e-17
-1.429999999999999e+00 -8.256108849411650e-01  3.393140768766017e-17
-1.429999999999999e+00 -8.256108849411650e-01  3.393140768766017e-17
-1.429999999999999e+00 -8.256108849411650e-01  3.393140768766017e-17
-1.429999999999999e+00 -8.256108849411650e-01  3.393140768766017e-17
-1.429999999999999e+00 -8.256108849411650e-01  3.393140768766017e-17
-1.429999999999999e+00 -8.256108849411650e-01  3.393140768766017e-17
-1.429999999999999e+00 -8.256108849411650e-01  3.393140768766017e-17
-1.429999999999999e+00 -8.256108849411650e-01  3.393140768766017e-17
-1.429999999999999e+00 -8.256108849411650e-01  3.393140768766017e-17
-1.429999999999999e+00 -8.256108849411650e-01  3.393140768766017e-17
-1.429999999999999e+00 -8.256108849411650e-01  3.393140768766017e-17
-1.429999999999999e+00 -8.256108849411650e-01  3.393140768766017e-17
-1.429999999999999e+00 -8.256108849411650e-01  3.393140768766017e-17
-1.429999999999999e+00 -8.256108849411650e-01  3.393140768766017e-17
-1.429999999999999e+00 -8.256108849411650e-01  3.393140768766017e-17
-1.429999999999999e+00 -8.256108849411650e-01  3.393140768766017e-17
-1.429999999999999e+00 -8.256108849411650e-01  3.393140768766017e-17
-1.429999999999999e+00 -8.256108849411650e-01  3.393140768766017e-17
-1.429999999999999e+00 -8.256108849411650e-01  3.393140768766017e-17
-1.429999999999999e+00 -8.256108849411650e-01  3.393140768766017e-17
-1.429999999999999e+00 -8.256108849411650e-01  3.393140768766017e-17
-1.429999999999999e+00 -8.256108849411650e-01  3.393140768766017e-17
-1.429999999999999e+00 -8.256108849411650e-01  3.393140768766017e-17
-1.429999999999999e+00 -8.256108849411650e-01  3.393140768766017e-17
-1.429999999999999e+00 -8.256108849411650e-01  3.393140768766017e-17
-1.429999999999999e+00 -8.256108849411650e-01  3.393140768766017e-17
-1.429999999999999e+00 -8.256108849411650e-01  3.393140768766017e-17
-1.429999999999999e+00 -8.256108849411650e-01  3.393140768766017e-17
-1.429999999999999e+00 -8.256108849411650e-01  3.393140768766017e-17
-1.429999999999999e+00 -8.256108849411650e-01  3.393140768766017e-17
-1.429999999999999e+00 -8.256108849411650e-01  3.393140768766017e-17
-1.429999999999999e+00 -8.256108849411650e-01  3.393140768766017e-17
-1.429999999999999e+00 -8.256108849411650e-01  3.393140768766017e-17
-1.429999999999999e+00 -8.256108849411650e-01  3.393140768766017e-17
-1.429999999999999e+00 -8.256108849411650e-01  3.393140768766017e-17
-1.429999999999999e+00 -8.256108849411650e-01  3.393140768766017e-17
-1.429999999999999e+00 -8.256108849411650e-01  3.393140768766017e-17
-1.429999999999999e+00 -8.256108849411650e-01  3.393140768766017e-17
-1.429999999999999e+00 -8.256108849411650e-01  3.393140768766017e-17
-1.429999999999999e+00 -8.256108849411650e-01  3.393140768766017e-17
-1.429999999999999e+00 -8.256108849411650e-01  3.393140768766017e-17
-1.429999999999999e+00 -8.256108849411650e-01  3.393140768766017e-17
-1.429999999999999e+00 -8.256108849411650e-01  3.393140768766017e-17
-1.429999999999999e+00 -8.256108849411650e-01  3.393140768766017e-17
-1.429999999999999e+00 -8.256108849411650e-01  3.393140768766017e-17
-1.429999999999999e+00 -8.256108849411650e-01  3.393140768766017e-17
-1.429999999999999e+00 -8.256108849411650e-01  3.393140768766017e-17
-1.429999999999999e+00 -8.256108849411650e-01  3.393140768766017e-17
-1.429999999999999e+00 -8.256108849411650e-01  3.393140768766017e-17
-1.429999999999999e+00 -8.256108849411650e-01  3.393140768766017e-17
-1.429999999999999e+00 -8.256108849411650e-01  3.393140768766017e-17
-1.429999999999999e+00 -8.256108849411650e-01  3.393140768766017e-17
-1.429999999999999e+00 -8.256108849411650e-01  3.393140768766017e-17
-1.429999999999999e+00 -8.256108849411650e-01  3.393140768766017e-17
-1.429999999999999e+00 -8.256108849411650e-01  3.393140768766017e-17
-1.429999999999999e+00 -8.256108849411650e-01  3.393140768766017e-17
-1.429999999999999e+00 -8.256108849411650e-01  3.393140768766017e-17
-1.429999999999999e+00 -8.256108849411650e-01  3.393140768766017e-17
-1.429999999999999e+00 -8.256108849411650e-01  3.393140768766017e-17
-1.429999999999999e+00 -8.256108849411650e-01  3.393140768766017e-17
-1.429999999999999e+00 -8.256108849411650e-01  3.393140768766017e-17
-1.429999999999999e+00 -8.256108849411650e-01  3.393140768766017e-17
-1.429999999999999e+00 -8.256108849411650e-01  3.393140768766017e-17
-1.429999999999999e+00 -8.256108849411650e-01  3.393140768766017e-17
-1.429999999999999e+00 -8.256108849411650e-01  3.393140768766017e-17
-1.429999999999999e+00 -8.256108849411650e-01  3.393140768766017e-17
-1.429999999999999e+00 -8.256108849411650e-01  3.393140768766017e-17
-1.429999999999999e+00 -8.256108849411650e-01  3.393140768766017e-17
-1.429999999999999e+00 -8.256108849411650e-01  3.393140768766017e-17
-1.429999999999999e+00 -8.256108849411650e-01  3.393140768766017e-17
-1.429999999999999e+00 -8.256108849411650e-01  3.393140768766017e-17
-1.429999999999999e+00 -8.256108849411650e-01  3.393140768766017e-17
-1.429999999999999e+00 -8.256108849411650e-01  3.393140768766017e-17
-1.429999999999999e+00 -8.256108849411650e-01  3.393140768766017e-17
-1.429999999999999e+00 -8.256108849411650e-01  3.393140768766017e-17
-1.429999999999999e+00 -8.256108849411650e-01  3.393140768766017e-17
-1.429999999999999e+00 -8.256108849411650e-01  3.393140768766017e-17
-1.429999999999999e+00 -8.256108849411650e-01  3.393140768766017e-17
-1.429999999999999e+00 -8.256108849411650e-01  3.393140768766017e-17
-1.429999999999999e+00 -8.256108849411650e-01  3.393140768766017e-17
-1.429999999999999e+00 -8.256108849411650e-01  3.393140768766017e-17
-1.429999999999999e+00 -8.256108849411650e-01  3.393140768766017e-17
-1.429999999999999e+00 -8.256108849411650e-01  3.393140768766017e-17
-1.429999999999999e+00 -8.256108849411650e-01  3.393140768766017e-17
-1.429999999999999e+00 -8.256108849411650e-01  3.393140768766017e-17
-1.429999999999999e+00 -8.256108849411650e-01  3.393140768766017e-17
-1.429999999999999e+00 -8.256108849411650e-01  3.393140768766017e-17
-1.429999999999999e+00 -8.256108849411650e-01  3.393140768766017e-17
-1.429999999999999e+00 -8.256108849411650e-01  3.393140768766017e-17
-1.429999999999999e+00 -8.256108849411650e-01  3.393140768766017e-17
-1.429999999999999e+00 -8.256108849411650e-01  3.393140768766017e-17
-1.429999999999999e+00 -8.256108849411650e-01  3.393140768766017e-17
-1.429999999999999e+00 -8.256108849411650e-01  3.393140768766017e-17
-1.429999999999999e+00 -8.256108849411650e-01  3.393140768766017e-17
-1.429999999999999e+00 -8.256108849411650e-01  3.393140768766017e-17
-1.429999999999999e+00 -8.256108849411650e-01  3.393140768766017e-17
-1.429999999999999e+00 -8.256108849411650e-01  3.393140768766017e-17
-1.429999999999999e+00 -8.256108849411650e-01  3.393140768766017e-17
-1.429999999999999e+00 -8.256108849411650e-01  3.393140768766017e-17
-1.429999999999999e+00 -8.256108849411650e-01  3.393140768766017e-17
-1.429999999999999e+00 -8.256108849411650e-01  3.393140768766017e-17
-1.429999999999999e+00 -8.256108849411650e-01  3.393140768766017e-17
-1.429999999999999e+00 -8.256108849411650e-01  3.393140768766017e-17
-1.429999999999999e+00 -8.256108849411650e-01  3.393140768766017e-17
-1.429999999999999e+00 -8.256108849411650e-01  3.393140768766017e-17
-1.429999999999999e+00 -8.256108849411650e-01  3.393140768766017e-17
-1.429999999999999e+00 -8.256108849411650e-01  3.393140768766017e-17
-1.429999999999999e+00 -8.256108849411650e-01  3.393140768766017e-17
-1.429999999999999e+00 -8.256108849411650e-01  3.393140768766017e-17
-1.429999999999999e+00 -8.256108849411650e-01  3.393140768766017e-17
-1.429999999999999e+00 -8.256108849411650e-01  3.393140768766017e-17
-1.429999999999999e+00 -8.256108849411650e-01  3.393140768766017e-17
-1.429999999999999e+00 -8.256108849411650e-01  3.393140768766017e-17
-1.429999999999999e+00 -8.256108849411650e-01  3.393140768766017e-17
-1.429999999999999e+00 -8.256108849411650e-01  3.393140768766017e-17
-1.429999999999999e+00 -8.256108849411650e-01  3.393140768766017e-17
-1.429999999999999e+00 -8.256108849411650e-01  3.393140768766017e-17
-1.429999999999999e+00 -8.256108849411650e-01  3.393140768766017e-17
-1.429999999999999e+00 -8.256108849411650e-01  3.393140768766017e-17
-1.429999999999999e+00 -8.256108849411650e-01  3.393140768766017e-17
-1.429999999999999e+00 -8.256108849411650e-01  3.393140768766017e-17
-1.429999999999999e+00 -8.256108849411650e-01  3.393140768766017e-17
-1.429999999999999e+00 -8.256108849411650e-01  3.393140768766017e-17
-1.429999999999999e+00 -8.256108849411650e-01  3.393140768766017e-17
-1.429999999999999e+00 -8.256108849411650e-01  3.393140768766017e-17
-1.429999999999999e+00 -8.256108849411650e-01  3.393140768766017e-17
-1.429999999999999e+00 -8.256108849411650e-01  3.393140768766017e-17
-1.429999999999999e+00 -8.256108849411650e-01  3.393140768766017e-17
-1.429999999999999e+00 -8.256108849411650e-01  3.393140768766017e-17
-1.429999999999999e+00 -8.256108849411650e-01  3.393140768766017e-17
-1.429999999999999e+00 -8.256108849411650e-01  3.393140768766017e-17
-1.429999999999999e+00 -8.256108849411650e-01  3.393140768766017e-17
-1.429999999999999e+00 -8.256108849411650e-01  3.393140768766017e-17
-1.429999999999999e+00 -8.256108849411650e-01  3.393140768766017e-17
-1.429999999999999e+00 -8.256108849411650e-01  3.393140768766017e-17
-1.429999999999999e+00 -8.256108849411650e-01  3.393140768766017e-17
-1.429999999999999e+00 -8.256108849411650e-01  3.393140768766017e-17
-1.429999999999999e+00 -8.256108849411650e-01  3.393140768766017e-17
-1.429999999999999e+00 -8.256108849411650e-01  3.393140768766017e-17
-1.429999999999999e+00 -8.256108849411650e-01  3.393140768766017e-17
-1.429999999999999e+00 -8.256108849411650e-01  3.393140768766017e-17
-1.429999999999999e+00 -8.256108849411650e-01  3.393140768766017e-17
-1.429999999999999e+00 -8.256108849411650e-01  3.393140768766017e-17
-1.429999999999999e+00 -8.256108849411650e-01  3.393140768766017e-17
-1.429999999999999e+00 -8.256108849411650e-01  3.393140768766017e-17
-1.429999999999999e+00 -8.256108849411650e-01  3.393140768766017e-17
-1.429999999999999e+00 -8.256108849411650e-01  3.393140768766017e-17
-1.429999999999999e+00 -8.256108849411650e-01  3.393140768766017e-17
-1.429999999999999e+00 -8.256108849411650e-01  3.393140768766017e-17
-1.429999999999999e+00 -8.256108849411650e-01  3.393140768766017e-17
-1.429999999999999e+00 -8.256108849411650e-01  3.393140768766017e-17
-1.429999999999999e+00 -8.256108849411650e-01  3.393140768766017e-17
-1.429999999999999e+00 -8.256108849411650e-01  3.393140768766017e-17
-1.429999999999999e+00 -8.256108849411650e-01  3.393140768766017e-17
-1.429999999999999e+00 -8.256108849411650e-01  3.393140768766017e-17
-1.429999999999999e+00 -8.256108849411650e-01  3.393140768766017e-17
-1.429999999999999e+00 -8.256108849411650e-01  3.393140768766017e-17
-1.429999999999999e+00 -8.256108849411650e-01  3.393140768766017e-17
-1.429999999999999e+00 -8.256108849411650e-01  3.393140768766017e-17
-1.429999999999999e+00 -8.256108849411650e-01  3.393140768766017e-17
-1.429999999999999e+00 -8.256108849411650e-01  3.393140768766017e-17
-1.429999999999999e+00 -8.256108849411650e-01  3.393140768766017e-17
-1.429999999999999e+00 -8.256108849411650e-01  3.393140768766017e-17
-1.429999999999999e+00 -8.256108849411650e-01  3.393140768766017e-17
-1.429999999999999e+00 -8.256108849411650e-01  3.393140768766017e-17
-1.429999999999999e+00 -8.256108849411650e-01  3.393140768766017e-17
-1.429999999999999e+00 -8.256108849411650e-01  3.393140768766017e-17
-1.429999999999999e+00 -8.256108849411650e-01  3.393140768766017e-17
-1.429999999999999e+00 -8.256108849411650e-01  3.393140768766017e-17
-1.429999999999999e+00 -8.256108849411650e-01  3.393140768766017e-17
-1.429999999999999e+00 -8.256108849411650e-01  3.393140768766017e-17
-1.429999999999999e+00 -8.256108849411650e-01  3.393140768766017e-17
-1.429999999999999e+00 -8.256108849411650e-01  3.393140768766017e-17
-1.429999999999999e+00 -8.256108849411650e-01  3.393140768766017e-17
-1.429999999999999e+00 -8.256108849411650e-01  3.393140768766017e-17
-1.429999999999999e+00 -8.256108849411650e-01  3.393140768766017e-17
-1.429999999999999e+00 -8.256108849411650e-01  3.393140768766017e-17
-1.429999999999999e+00 -8.256108849411650e-01  3.393140768766017e-17
-1.429999999999999e+00 -8.256108849411650e-01  3.393140768766017e-17
-1.429999999999999e+00 -8.256108849411650e-01  3.393140768766017e-17
-1.429999999999999e+00 -8.256108849411650e-01  3.393140768766017e-17
-1.429999999999999e+00 -8.256108849411650e-01  3.393140768766017e-17
-1.429999999999999e+00 -8.256108849411650e-01  3.393140768766017e-17
-1.429999999999999e+00 -8.256108849411650e-01  3.393140768766017e-17
-1.429999999999999e+00 -8.256108849411650e-01  3.393140768766017e-17
-1.429999999999999e+00 -8.256108849411650e-01  3.393140768766017e-17
-1.429999999999999e+00 -8.256108849411650e-01  3.393140768766017e-17
-1.429999999999999e+00 -8.256108849411650e-01  3.393140768766017e-17
-1.429999999999999e+00 -8.256108849411650e-01  3.393140768766017e-17
-1.429999999999999e+00 -8.256108849411650e-01  3.393140768766017e-17
-1.429999999999999e+00 -8.256108849411650e-01  3.393140768766017e-17
-1.429999999999999e+00 -8.256108849411650e-01  3.393140768766017e-17
-1.429999999999999e+00 -8.256108849411650e-01  3.393140768766017e-17
-1.429999999999999e+00 -8.256108849411650e-01  3.393140768766017e-17
-1.429999999999999e+00 -8.256108849411650e-01  3.393140768766017e-17
-1.429999999999999e+00 -8.256108849411650e-01  3.393140768766017e-17
-1.429999999999999e+00 -8.256108849411650e-01  3.393140768766017e-17
-1.429999999999999e+00 -8.256108849411650e-01  3.393140768766017e-17
-1.429999999999999e+00 -8.256108849411650e-01  3.393140768766017e-17
-1.429999999999999e+00 -8.256108849411650e-01  3.393140768766017e-17
-1.429999999999999e+00 -8.256108849411650e-01  3.393140768766017e-17
-1.429999999999999e+00 -8.256108849411650e-01  3.393140768766017e-17
-1.429999999999999e+00 -8.256108849411650e-01  3.393140768766017e-17
-1.429999999999999e+00 -8.256108849411650e-01  3.393140768766017e-17
-1.429999999999999e+00 -8.256108849411650e-01  3.393140768766017e-17
-1.429999999999999e+00 -8.256108849411650e-01  3.393140768766017e-17
-1.429999999999999e+00 -8.256108849411650e-01  3.393140768766017e-17
-1.429999999999999e+00 -8.256108849411650e-01  3.393140768766017e-17
-1.429999999999999e+00 -8.256108849411650e-01  3.393140768766017e-17
-1.429999999999999e+00 -8.256108849411650e-01  3.393140768766017e-17
-1.429999999999999e+00 -8.256108849411650e-01  3.393140768766017e-17
-1.429999999999999e+00 -8.256108849411650e-01  3.393140768766017e-17
-1.429999999999999e+00 -8.256108849411650e-01  3.393140768766017e-17
-1.429999999999999e+00 -8.256108849411650e-01  3.393140768766017e-17
-1.429999999999999e+00 -8.256108849411650e-01  3.393140768766017e-17
-1.429999999999999e+00 -8.256108849411650e-01  3.393140768766017e-17
-1.429999999999999e+00 -8.256108849411650e-01  3.393140768766017e-17
-1.429999999999999e+00 -8.256108849411650e-01  3.393140768766017e-17
-1.429999999999999e+00 -8.256108849411650e-01  3.393140768766017e-17
-1.429999999999999e+00 -8.256108849411650e-01  3.393140768766017e-17
-1.429999999999999e+00 -8.256108849411650e-01  3.393140768766017e-17
-1.429999999999999e+00 -8.256108849411650e-01  3.393140768766017e-17
-1.429999999999999e+00 -8.256108849411650e-01  3.393140768766017e-17
-1.429999999999999e+00 -8.256108849411650e-01  3.393140768766017e-17
-1.429999999999999e+00 -8.256108849411650e-01  3.393140768766017e-17
-1.429999999999999e+00 -8.256108849411650e-01  3.393140768766017e-17
-1.429999999999999e+00 -8.256108849411650e-01  3.393140768766017e-17
-1.429999999999999e+00 -8.256108849411650e-01  3.393140768766017e-17
-1.429999999999999e+00 -8.256108849411650e-01  3.393140768766017e-17
-1.429999999999999e+00 -8.256108849411650e-01  3.393140768766017e-17
-1.429999999999999e+00 -8.256108849411650e-01  3.393140768766017e-17
-1.429999999999999e+00 -8.256108849411650e-01  3.393140768766017e-17
-1.429999999999999e+00 -8.256108849411650e-01  3.393140768766017e-17
-1.429999999999999e+00 -8.256108849411650e-01  3.393140768766017e-17
-1.429999999999999e+00 -8.256108849411650e-01  3.393140768766017e-17
-1.429999999999999e+00 -8.256108849411650e-01  3.393140768766017e-17
-1.429999999999999e+00 -8.256108849411650e-01  3.393140768766017e-17
-1.429999999999999e+00 -8.256108849411650e-01  3.393140768766017e-17
-1.429999999999999e+00 -8.256108849411650e-01  3.393140768766017e-17
-1.429999999999999e+00 -8.256108849411650e-01  3.393140768766017e-17
-1.429999999999999e+00 -8.256108849411650e-01  3.393140768766017e-17
-1.429999999999999e+00 -8.256108849411650e-01  3.393140768766017e-17
-1.429999999999999e+00 -8.256108849411650e-01  3.393140768766017e-17
-1.429999999999999e+00 -8.256108849411650e-01  3.393140768766017e-17
-1.429999999999999e+00 -8.256108849411650e-01  3.393140768766017e-17
-1.429999999999999e+00 -8.256108849411650e-01  3.393140768766017e-17
-1.429999999999999e+00 -8.256108849411650e-01  3.393140768766017e-17
-1.429999999999999e+00 -8.256108849411650e-01  3.393140768766017e-17
-1.429999999999999e+00 -8.256108849411650e-01  3.393140768766017e-17
-1.429999999999999e+00 -8.256108849411650e-01  3.393140768766017e-17
-1.429999999999999e+00 -8.256108849411650e-01  3.393140768766017e-17
-1.429999999999999e+00 -8.256108849411650e-01  3.393140768766017e-17
-1.429999999999999e+00 -8.256108849411650e-01  3.393140768766017e-17
-1.429999999999999e+00 -8.256108849411650e-01  3.393140768766017e-17
-1.429999999999999e+00 -8.256108849411650e-01  3.393140768766017e-17
-1.429999999999999e+00 -8.256108849411650e-01  3.393140768766017e-17
-1.429999999999999e+00 -8.256108849411650e-01  3.393140768766017e-17
-1.429999999999999e+00 -8.256108849411650e-01  3.393140768766017e-17
-1.429999999999999e+00 -8.256108849411650e-01  3.393140768766017e-17
-1.429999999999999e+00 -8.256108849411650e-01  3.393140768766017e-17
-1.429999999999999e+00 -8.256108849411650e-01  3.393140768766017e-17
-1.429999999999999e+00 -8.256108849411650e-01  3.393140768766017e-17
-1.429999999999999e+00 -8.256108849411650e-01  3.393140768766017e-17
 1.429999999999999e+00  8.256108849411650e-01 -3.393140768766017e-17
-1.429999999999999e+00 -8.256108849411650e-01  3.393140768766017e-17
-1.429999999999999e+00 -8.256108849411650e-01  3.393140768766017e-17
-1.429999999999999e+00 -8.256108849411650e-01  3.393140768766017e-17
-1.429999999999999e+00 -8.256108849411650e-01  3.393140768766017e-17
-1.429999999999999e+00 -8.256108849411650e-01  3.393140768766017e-17
-1.429999999999999e+00 -8.256108849411650e-01  3.393140768766017e-17
-1.429999999999999e+00 -8.256108849411650e-01  3.393140768766017e-17
-1.429999999999999e+00 -8.256108849411650e-01  3.393140768766017e-17
-1.429999999999999e+00 -8.256108849411650e-01  3.393140768766017e-17
-1.429999999999999e+00 -8.256108849411650e-01  3.393140768766017e-17
-1.429999999999999e+00 -8.256108849411650e-01  3.393140768766017e-17
-1.429999999999999e+00 -8.256108849411650e-01  3.393140768766017e-17
-1.429999999999999e+00 -8.256108849411650e-01  3.393140768766017e-17
-1.429999999999999e+00 -8.256108849411650e-01  3.393140768766017e-17
-1.429999999999999e+00 -8.256108849411650e-01  3.393140768766017e-17
-1.429999999999999e+00 -8.256108849411650e-01  3.393140768766017e-17
-1.429999999999999e+00 -8.256108849411650e-01  3.393140768766017e-17
-1.429999999999999e+00 -8.256108849411650e-01  3.393140768766017e-17
-1.429999999999999e+00 -8.256108849411650e-01  3.393140768766017e-17
-1.429999999999999e+00 -8.256108849411650e-01  3.393140768766017e-17
-1.429999999999999e+00 -8.256108849411650e-01  3.393140768766017e-17
-1.429999999999999e+00 -8.256108849411650e-01  3.393140768766017e-17
-1.429999999999999e+00 -8.256108849411650e-01  3.393140768766017e-17
-1.429999999999999e+00 -8.256108849411650e-01  3.393140768766017e-17
-1.429999999999999e+00 -8.256108849411650e-01  3.393140768766017e-17
-1.429999999999999e+00 -8.256108849411650e-01  3.393140768766017e-17
-1.429999999999999e+00 -8.256108849411650e-01  3.393140768766017e-17
-1.429999999999999e+00 -8.256108849411650e-01  3.393140768766017e-17
-1.429999999999999e+00 -8.256108849411650e-01  3.393140768766017e-17
-1.429999999999999e+00 -8.256108849411650e-01  3.393140768766017e-17
-1.429999999999999e+00 -8.256108849411650e-01  3.393140768766017e-17
-1.429999999999999e+00 -8.256108849411650e-01  3.393140768766017e-17
-1.429999999999999e+00 -8.256108849411650e-01  3.393140768766017e-17
-1.429999999999999e+00 -8.256108849411650e-01  3.393140768766017e-17
-1.429999999999999e+00 -8.256108849411650e-01  3.393140768766017e-17
-1.429999999999999e+00 -8.256108849411650e-01  3.393140768766017e-17
-1.429999999999999e+00 -8.256108849411650e-01  3.393140768766017e-17
-1.429999999999999e+00 -8.256108849411650e-01  3.393140768766017e-17
-1.429999999999999e+00 -8.256108849411650e-01  3.393140768766017e-17
-1.429999999999999e+00 -8.256108849411650e-01  3.393140768766017e-17
-1.429999999999999e+00 -8.256108849411650e-01  3.393140768766017e-17
-1.429999999999999e+00 -8.256108849411650e-01  3.393140768766017e-17
-1.429999999999999e+00 -8.256108849411650e-01  3.393140768766017e-17
-1.429999999999999e+00 -8.256108849411650e-01  3.393140768766017e-17
-1.429999999999999e+00 -8.256108849411650e-01  3.393140768766017e-17
-1.429999999999999e+00 -8.256108849411650e-01  3.393140768766017e-17
-1.429999999999999e+00 -8.256108849411650e-01  3.393140768766017e-17
-1.429999999999999e+00 -8.256108849411650e-01  3.393140768766017e-17
-1.429999999999999e+00 -8.256108849411650e-01  3.393140768766017e-17
-1.429999999999999e+00 -8.256108849411650e-01  3.393140768766017e-17
-1.429999999999999e+00 -8.256108849411650e-01  3.393140768766017e-17
-1.429999999999999e+00 -8.256108849411650e-01  3.393140768766017e-17
-1.429999999999999e+00 -8.256108849411650e-01  3.393140768766017e-17
-1.429999999999999e+00 -8.256108849411650e-01  3.393140768766017e-17
-1.429999999999999e+00 -8.256108849411650e-01  3.393140768766017e-17
-1.429999999999999e+00 -8.256108849411650e-01  3.393140768766017e-17
-1.429999999999999e+00 -8.256108849411650e-01  3.393140768766017e-17
-1.429999999999999e+00 -8.256108849411650e-01  3.393140768766017e-17
-1.429999999999999e+00 -8.256108849411650e-01  3.393140768766017e-17
-1.429999999999999e+00 -8.256108849411650e-01  3.393140768766017e-17
-1.429999999999999e+00 -8.256108849411650e-01  3.393140768766017e-17
-1.429999999999999e+00 -8.256108849411650e-01  3.393140768766017e-17
-1.429999999999999e+00 -8.256108849411650e-01  3.393140768766017e-17
-1.429999999999999e+00 -8.256108849411650e-01  3.393140768766017e-17
-1.429999999999999e+00 -8.256108849411650e-01  3.393140768766017e-17
-1.429999999999999e+00 -8.256108849411650e-01  3.393140768766017e-17
-1.429999999999999e+00 -8.256108849411650e-01  3.393140768766017e-17
-1.429999999999999e+00 -8.256108849411650e-01  3.393140768766017e-17
-1.429999999999999e+00 -8.256108849411650e-01  3.393140768766017e-17
-1.429999999999999e+00 -8.256108849411650e-01  3.393140768766017e-17
-1.429999999999999e+00 -8.256108849411650e-01  3.393140768766017e-17
-1.429999999999999e+00 -8.256108849411650e-01  3.393140768766017e-17
-1.429999999999999e+00 -8.256108849411650e-01  3.393140768766017e-17
-1.429999999999999e+00 -8.256108849411650e-01  3.393140768766017e-17
-1.429999999999999e+00 -8.256108849411650e-01  3.393140768766017e-17
-1.429999999999999e+00 -8.256108849411650e-01  3.393140768766017e-17
-1.429999999999999e+00 -8.256108849411650e-01  3.393140768766017e-17
-1.429999999999999e+00 -8.256108849411650e-01  3.393140768766017e-17
-1.429999999999999e+00 -8.256108849411650e-01  3.393140768766017e-17
-1.429999999999999e+00 -8.256108849411650e-01  3.393140768766017e-17
-1.429999999999999e+00 -8.256108849411650e-01  3.393140768766017e-17
-1.429999999999999e+00 -8.256108849411650e-01  3.393140768766017e-17
-1.429999999999999e+00 -8.256108849411650e-01  3.393140768766017e-17
-1.429999999999999e+00 -8.256108849411650e-01  3.393140768766017e-17
-1.429999999999999e+00 -8.256108849411650e-01  3.393140768766017e-17
-1.429999999999999e+00 -8.256108849411650e-01  3.393140768766017e-17
-1.429999999999999e+00 -8.256108849411650e-01  3.393140768766017e-17
-1.429999999999999e+00 -8.256108849411650e-01  3.393140768766017e-17
-1.429999999999999e+00 -8.256108849411650e-01  3.393140768766017e-17
-1.429999999999999e+00 -8.256108849411650e-01  3.393140768766017e-17
-1.429999999999999e+00 -8.256108849411650e-01  3.393140768766017e-17
-1.429999999999999e+00 -8.256108849411650e-01  3.393140768766017e-17
-1.429999999999999e+00 -8.256108849411650e-01  3.393140768766017e-17
-1.429999999999999e+00 -8.256108849411650e-01  3.393140768766017e-17
-1.429999999999999e+00 -8.256108849411650e-01  3.393140768766017e-17
-1.429999999999999e+00 -8.256108849411650e-01  3.393140768766017e-17
-1.429999999999999e+00 -8.256108849411650e-01  3.393140768766017e-17
-1.429999999999999e+00 -8.256108849411650e-01  3.393140768766017e-17
-1.429999999999999e+00 -8.256108849411650e-01  3.393140768766017e-17
-1.429999999999999e+00 -8.256108849411650e-01  3.393140768766017e-17
-1.429999999999999e+00 -8.256108849411650e-01  3.393140768766017e-17
-1.429999999999999e+00 -8.256108849411650e-01  3.393140768766017e-17
-1.429999999999999e+00 -8.256108849411650e-01  3.393140768766017e-17
-1.429999999999999e+00 -8.256108849411650e-01  3.393140768766017e-17
-1.429999999999999e+00 -8.256108849411650e-01  3.393140768766017e-17
-1.429999999999999e+00 -8.256108849411650e-01  3.393140768766017e-17
-1.429999999999999e+00 -8.256108849411650e-01  3.393140768766017e-17
-1.429999999999999e+00 -8.256108849411650e-01  3.393140768766017e-17
-1.429999999999999e+00 -8.256108849411650e-01  3.393140768766017e-17
-1.429999999999999e+00 -8.256108849411650e-01  3.393140768766017e-17
-1.429999999999999e+00 -8.256108849411650e-01  3.393140768766017e-17
-1.429999999999999e+00 -8.256108849411650e-01  3.393140768766017e-17
-1.429999999999999e+00 -8.256108849411650e-01  3.393140768766017e-17
-1.429999999999999e+00 -8.256108849411650e-01  3.393140768766017e-17
-1.429999999999999e+00 -8.256108849411650e-01  3.393140768766017e-17
-1.429999999999999e+00 -8.256108849411650e-01  3.393140768766017e-17
-1.429999999999999e+00 -8.256108849411650e-01  3.393140768766017e-17
-1.429999999999999e+00 -8.256108849411650e-01  3.393140768766017e-17
-1.429999999999999e+00 -8.256108849411650e-01  3.393140768766017e-17
-1.429999999999999e+00 -8.256108849411650e-01  3.393140768766017e-17
-1.429999999999999e+00 -8.256108849411650e-01  3.393140768766017e-17
-1.429999999999999e+00 -8.256108849411650e-01  3.393140768766017e-17
-1.429999999999999e+00 -8.256108849411650e-01  3.393140768766017e-17
-1.429999999999999e+00 -8.256108849411650e-01  3.393140768766017e-17
-1.429999999999999e+00 -8.256108849411650e-01  3.393140768766017e-17
-1.429999999999999e+00 -8.256108849411650e-01  3.393140768766017e-17
-1.429999999999999e+00 -8.256108849411650e-01  3.393140768766017e-17
-1.429999999999999e+00 -8.256108849411650e-01  3.393140768766017e-17
-1.429999999999999e+00 -8.256108849411650e-01  3.393140768766017e-17
-1.429999999999999e+00 -8.256108849411650e-01  3.393140768766017e-17
-1.429999999999999e+00 -8.256108849411650e-01  3.393140768766017e-17
-1.429999999999999e+00 -8.256108849411650e-01  3.393140768766017e-17
-1.429999999999999e+00 -8.256108849411650e-01  3.393140768766017e-17
-1.429999999999999e+00 -8.256108849411650e-01  3.393140768766017e-17
-1.429999999999999e+00 -8.256108849411650e-01  3.393140768766017e-17
-1.429999999999999e+00 -8.256108849411650e-01  3.393140768766017e-17
-1.429999999999999e+00 -8.256108849411650e-01  3.393140768766017e-17
-1.429999999999999e+00 -8.256108849411650e-01  3.393140768766017e-17
-1.429999999999999e+00 -8.256108849411650e-01  3.393140768766017e-17
-1.429999999999999e+00 -8.256108849411650e-01  3.393140768766017e-17
-1.429999999999999e+00 -8.256108849411650e-01  3.393140768766017e-17
-1.429999999999999e+00 -8.256108849411650e-01  3.393140768766017e-17
-1.429999999999999e+00 -8.256108849411650e-01  3.393140768766017e-17
-1.429999999999999e+00 -8.256108849411650e-01  3.393140768766017e-17
-1.429999999999999e+00 -8.256108849411650e-01  3.393140768766017e-17
-1.429999999999999e+00 -8.256108849411650e-01  3.393140768766017e-17
-1.429999999999999e+00 -8.256108849411650e-01  3.393140768766017e-17
-1.429999999999999e+00 -8.256108849411650e-01  3.393140768766017e-17
-1.429999999999999e+00 -8.256108849411650e-01  3.393140768766017e-17
-1.429999999999999e+00 -8.256108849411650e-01  3.393140768766017e-17
-1.429999999999999e+00 -8.256108849411650e-01  3.393140768766017e-17
-1.429999999999999e+00 -8.256108849411650e-01  3.393140768766017e-17
-1.429999999999999e+00 -8.256108849411650e-01  3.393140768766017e-17
-1.429999999999999e+00 -8.256108849411650e-01  3.393140768766017e-17
-1.429999999999999e+00 -8.256108849411650e-01  3.393140768766017e-17
-1.429999999999999e+00 -8.256108849411650e-01  3.393140768766017e-17
-1.429999999999999e+00 -8.256108849411650e-01  3.393140768766017e-17
-1.429999999999999e+00 -8.256108849411650e-01  3.393140768766017e-17
-1.429999999999999e+00 -8.256108849411650e-01  3.393140768766017e-17
-1.429999999999999e+00 -8.256108849411650e-01  3.393140768766017e-17
-1.429999999999999e+00 -8.256108849411650e-01  3.393140768766017e-17
-1.429999999999999e+00 -8.256108849411650e-01  3.393140768766017e-17
-1.429999999999999e+00 -8.256108849411650e-01  3.393140768766017e-17
-1.429999999999999e+00 -8.256108849411650e-01  3.393140768766017e-17
-1.429999999999999e+00 -8.256108849411650e-01  3.393140768766017e-17
-1.429999999999999e+00 -8.256108849411650e-01  3.393140768766017e-17
-1.429999999999999e+00 -8.256108849411650e-01  3.393140768766017e-17
-1.429999999999999e+00 -8.256108849411650e-01  3.393140768766017e-17
-1.429999999999999e+00 -8.256108849411650e-01  3.393140768766017e-17
-1.429999999999999e+00 -8.256108849411650e-01  3.393140768766017e-17
-1.429999999999999e+00 -8.256108849411650e-01  3.393140768766017e-17
-1.429999999999999e+00 -8.256108849411650e-01  3.393140768766017e-17
-1.429999999999999e+00 -8.256108849411650e-01  3.393140768766017e-17
-1.429999999999999e+00 -8.256108849411650e-01  3.393140768766017e-17
-1.429999999999999e+00 -8.256108849411650e-01  3.393140768766017e-17
-1.429999999999999e+00 -8.256108849411650e-01  3.393140768766017e-17
-1.429999999999999e+00 -8.256108849411650e-01  3.393140768766017e-17
-1.429999999999999e+00 -8.256108849411650e-01  3.393140768766017e-17
-1.429999999999999e+00 -8.256108849411650e-01  3.393140768766017e-17
-1.429999999999999e+00 -8.256108849411650e-01  3.393140768766017e-17
-1.429999999999999e+00 -8.256108849411650e-01  3.393140768766017e-17
-1.429999999999999e+00 -8.256108849411650e-01  3.393140768766017e-17
-1.429999999999999e+00 -8.256108849411650e-01  3.393140768766017e-17
-1.429999999999999e+00 -8.256108849411650e-01  3.393140768766017e-17
-1.429999999999999e+00 -8.256108849411650e-01  3.393140768766017e-17
-1.429999999999999e+00 -8.256108849411650e-01  3.393140768766017e-17
-1.429999999999999e+00 -8.256108849411650e-01  3.393140768766017e-17
-1.429999999999999e+00 -8.256108849411650e-01  3.393140768766017e-17
-1.429999999999999e+00 -8.256108849411650e-01  3.393140768766017e-17
-1.429999999999999e+00 -8.256108849411650e-01  3.393140768766017e-17
-1.429999999999999e+00 -8.256108849411650e-01  3.393140768766017e-17
-1.429999999999999e+00 -8.256108849411650e-01  3.393140768766017e-17
-1.429999999999999e+00 -8.256108849411650e-01  3.393140768766017e-17
-1.429999999999999e+00 -8.256108849411650e-01  3.393140768766017e-17
-1.429999999999999e+00 -8.256108849411650e-01  3.393140768766017e-17
-1.429999999999999e+00 -8.256108849411650e-01  3.393140768766017e-17
-1.429999999999999e+00 -8.256108849411650e-01  3.393140768766017e-17
-1.429999999999999e+00 -8.256108849411650e-01  3.393140768766017e-17
-1.429999999999999e+00 -8.256108849411650e-01  3.393140768766017e-17
-1.429999999999999e+00 -8.256108849411650e-01  3.393140768766017e-17
-1.429999999999999e+00 -8.256108849411650e-01  3.393140768766017e-17
-1.429999999999999e+00 -8.256108849411650e-01  3.393140768766017e-17
-1.429999999999999e+00 -8.256108849411650e-01  3.393140768766017e-17
-1.429999999999999e+00 -8.256108849411650e-01  3.393140768766017e-17
-1.429999999999999e+00 -8.256108849411650e-01  3.393140768766017e-17
-1.429999999999999e+00 -8.256108849411650e-01  3.393140768766017e-17
-1.429999999999999e+00 -8.256108849411650e-01  3.393140768766017e-17
-1.429999999999999e+00 -8.256108849411650e-01  3.393140768766017e-17
-1.429999999999999e+00 -8.256108849411650e-01  3.393140768766017e-17
-1.429999999999999e+00 -8.256108849411650e-01  3.393140768766017e-17
-1.429999999999999e+00 -8.256108849411650e-01  3.393140768766017e-17
-1.429999999999999e+00 -8.256108849411650e-01  3.393140768766017e-17
-1.429999999999999e+00 -8.256108849411650e-01  3.393140768766017e-17
-1.429999999999999e+00 -8.256108849411650e-01  3.393140768766017e-17
-1.429999999999999e+00 -8.256108849411650e-01  3.393140768766017e-17
-1.429999999999999e+00 -8.256108849411650e-01  3.393140768766017e-17
-1.429999999999999e+00 -8.256108849411650e-01  3.393140768766017e-17
-1.429999999999999e+00 -8.256108849411650e-01  3.393140768766017e-17
-1.429999999999999e+00 -8.256108849411650e-01  3.393140768766017e-17
-1.429999999999999e+00 -8.256108849411650e-01  3.393140768766017e-17
-1.429999999999999e+00 -8.256108849411650e-01  3.393140768766017e-17
-1.429999999999999e+00 -8.256108849411650e-01  3.393140768766017e-17
-1.429999999999999e+00 -8.256108849411650e-01  3.393140768766017e-17
-1.429999999999999e+00 -8.256108849411650e-01  3.393140768766017e-17
-1.429999999999999e+00 -8.256108849411650e-01  3.393140768766017e-17
-1.429999999999999e+00 -8.256108849411650e-01  3.393140768766017e-17
-1.429999999999999e+00 -8.256108849411650e-01  3.393140768766017e-17
-1.429999999999999e+00 -8.256108849411650e-01  3.393140768766017e-17
-1.429999999999999e+00 -8.256108849411650e-01  3.393140768766017e-17
-1.429999999999999e+00 -8.256108849411650e-01  3.393140768766017e-17
-1.429999999999999e+00 -8.256108849411650e-01  3.393140768766017e-17
-1.429999999999999e+00 -8.256108849411650e-01  3.393140768766017e-17
-1.429999999999999e+00 -8.256108849411650e-01  3.393140768766017e-17
-1.429999999999999e+00 -8.256108849411650e-01  3.393140768766017e-17
-1.429999999999999e+00 -8.256108849411650e-01  3.393140768766017e-17
-1.429999999999999e+00 -8.256108849411650e-01  3.393140768766017e-17
-1.429999999999999e+00 -8.256108849411650e-01  3.393140768766017e-17
-1.429999999999999e+00 -8.256108849411650e-01  3.393140768766017e-17
-1.429999999999999e+00 -8.256108849411650e-01  3.393140768766017e-17
-1.429999999999999e+00 -8.256108849411650e-01  3.393140768766017e-17
-1.429999999999999e+00 -8.256108849411650e-01  3.393140768766017e-17
-1.429999999999999e+00 -8.256108849411650e-01  3.393140768766017e-17
-1.429999999999999e+00 -8.256108849411650e-01  3.393140768766017e-17
-1.429999999999999e+00 -8.256108849411650e-01  3.393140768766017e-17
-1.429999999999999e+00 -8.256108849411650e-01  3.393140768766017e-17
-1.429999999999999e+00 -8.256108849411650e-01  3.393140768766017e-17
-1.429999999999999e+00 -8.256108849411650e-01  3.393140768766017e-17
-1.429999999999999e+00 -8.256108849411650e-01  3.393140768766017e-17
-1.429999999999999e+00 -8.256108849411650e-01  3.393140768766017e-17
-1.429999999999999e+00 -8.256108849411650e-01  3.393140768766017e-17
-1.429999999999999e+00 -8.256108849411650e-01  3.393140768766017e-17
-1.429999999999999e+00 -8.256108849411650e-01  3.393140768766017e-17
-1.429999999999999e+00 -8.256108849411650e-01  3.393140768766017e-17
-1.429999999999999e+00 -8.256108849411650e-01  3.393140768766017e-17
-1.429999999999999e+00 -8.256108849411650e-01  3.393140768766017e-17
-1.429999999999999e+00 -8.256108849411650e-01  3.393140768766017e-17
-1.429999999999999e+00 -8.256108849411650e-01  3.393140768766017e-17
-1.429999999999999e+00 -8.256108849411650e-01  3.393140768766017e-17
-1.429999999999999e+00 -8.256108849411650e-01  3.393140768766017e-17
-1.429999999999999e+00 -8.256108849411650e-01  3.393140768766017e-17
-1.429999999999999e+00 -8.256108849411650e-01  3.393140768766017e-17
-1.429999999999999e+00 -8.256108849411650e-01  3.393140768766017e-17
-1.429999999999999e+00 -8.256108849411650e-01  3.393140768766017e-17
-1.429999999999999e+00 -8.256108849411650e-01  3.393140768766017e-17
-1.429999999999999e+00 -8.256108849411650e-01  3.393140768766017e-17
-1.429999999999999e+00 -8.256108849411650e-01  3.393140768766017e-17
-1.429999999999999e+00 -8.256108849411650e-01  3.393140768766017e-17
-1.429999999999999e+00 -8.256108849411650e-01  3.393140768766017e-17
-1.429999999999999e+00 -8.256108849411650e-01  3.393140768766017e-17
-1.429999999999999e+00 -8.256108849411650e-01  3.393140768766017e-17
-1.429999999999999e+00 -8.256108849411650e-01  3.393140768766017e-17
-1.429999999999999e+00 -8.256108849411650e-01  3.393140768766017e-17
-1.429999999999999e+00 -8.256108849411650e-01  3.393140768766017e-17
-1.429999999999999e+00 -8.256108849411650e-01  3.393140768766017e-17
-1.429999999999999e+00 -8.256108849411650e-01  3.393140768766017e-17
-1.429999999999999e+00 -8.256108849411650e-01  3.393140768766017e-17
-1.429999999999999e+00 -8.256108849411650e-01  3.393140768766017e-17
-1.429999999999999e+00 -8.256108849411650e-01  3.393140768766017e-17
-1.429999999999999e+00 -8.256108849411650e-01  3.393140768766017e-17
-1.429999999999999e+00 -8.256108849411650e-01  3.393140768766017e-17
-1.429999999999999e+00 -8.256108849411650e-01  3.393140768766017e-17
-1.429999999999999e+00 -8.256108849411650e-01  3.393140768766017e-17
-1.429999999999999e+00 -8.256108849411650e-01  3.393140768766017e-17
-1.429999999999999e+00 -8.256108849411650e-01  3.393140768766017e-17
-1.429999999999999e+00 -8.256108849411650e-01  3.393140768766017e-17
-1.429999999999999e+00 -8.256108849411650e-01  3.393140768766017e-17
-1.429999999999999e+00 -8.256108849411650e-01  3.393140768766017e-17
-1.429999999999999e+00 -8.256108849411650e-01  3.393140768766017e-17
-1.429999999999999e+00 -8.256108849411650e-01  3.393140768766017e-17
-1.429999999999999e+00 -8.256108849411650e-01  3.393140768766017e-17
-1.429999999999999e+00 -8.256108849411650e-01  3.393140768766017e-17
-1.429999999999999e+00 -8.256108849411650e-01  3.393140768766017e-17
 1.429999999999999e+00  8.256108849411650e-01 -3.393140768766017e-17
-1.429999999999999e+00 -8.256108849411650e-01  3.393140768766017e-17
 1.429999999999999e+00  8.256108849411650e-01 -3.393140768766017e-17
 1.429999999999999e+00  8.256108849411650e-01 -3.393140768766017e-17
 1.429999999999999e+00  8.256108849411650e-01 -3.393140768766017e-17
 1.429999999999999e+00  8.256108849411650e-01 -3.393140768766017e-17
 1.429999999999999e+00  8.256108849411650e-01 -3.393140768766017e-17
 1.429999999999999e+00  8.256108849411650e-01 -3.393140768766017e-17
 1.429999999999999e+00  8.256108849411650e-01 -3.393140768766017e-17
 1.429999999999999e+00  8.256108849411650e-01 -3.393140768766017e-17
 1.429999999999999e+00  8.256108849411650e-01 -3.393140768766017e-17
 1.429999999999999e+00  8.256108849411650e-01 -3.393140768766017e-17
 1.429999999999999e+00  8.256108849411650e-01 -3.393140768766017e-17
 1.429999999999999e+00  8.256108849411650e-01 -3.393140768766017e-17
 1.429999999999999e+00  8.256108849411650e-01 -3.393140768766017e-17
 1.429999999999999e+00  8.256108849411650e-01 -3.393140768766017e-17
 1.429999999999999e+00  8.256108849411650e-01 -3.393140768766017e-17
 1.429999999999999e+00  8.256108849411650e-01 -3.393140768766017e-17
 1.429999999999999e+00  8.256108849411650e-01 -3.393140768766017e-17
 1.429999999999999e+00  8.256108849411650e-01 -3.393140768766017e-17
 1.429999999999999e+00  8.256108849411650e-01 -3.393140768766017e-17
 1.429999999999999e+00  8.256108849411650e-01 -3.393140768766017e-17
 1.429999999999999e+00  8.256108849411650e-01 -3.393140768766017e-17
 1.429999999999999e+00  8.256108849411650e-01 -3.393140768766017e-17
 1.429999999999999e+00  8.256108849411650e-01 -3.393140768766017e-17
 1.429999999999999e+00  8.256108849411650e-01 -3.393140768766017e-17
 1.429999999999999e+00  8.256108849411650e-01 -3.393140768766017e-17
 1.429999999999999e+00  8.256108849411650e-01 -3.393140768766017e-17
 1.429999999999999e+00  8.256108849411650e-01 -3.393140768766017e-17
 1.429999999999999e+00  8.256108849411650e-01 -3.393140768766017e-17
 1.429999999999999e+00  8.256108849411650e-01 -3.393140768766017e-17
 1.429999999999999e+00  8.256108849411650e-01 -3.393140768766017e-17
 1.429999999999999e+00  8.256108849411650e-01 -3.393140768766017e-17
 1.429999999999999e+00  8.256108849411650e-01 -3.393140768766017e-17
 1.429999999999999e+00  8.256108849411650e-01 -3.393140768766017e-17
 1.429999999999999e+00  8.256108849411650e-01 -3.393140768766017e-17
 1.429999999999999e+00  8.256108849411650e-01 -3.393140768766017e-17
 1.429999999999999e+00  8.256108849411650e-01 -3.393140768766017e-17
 1.429999999999999e+00  8.256108849411650e-01 -3.393140768766017e-17
 1.429999999999999e+00  8.256108849411650e-01 -3.393140768766017e-17
 1.429999999999999e+00  8.256108849411650e-01 -3.393140768766017e-17
 1.429999999999999e+00  8.256108849411650e-01 -3.393140768766017e-17
 1.429999999999999e+00  8.256108849411650e-01 -3.393140768766017e-17
 1.429999999999999e+00  8.256108849411650e-01 -3.393140768766017e-17
 1.429999999999999e+00  8.256108849411650e-01 -3.393140768766017e-17
 1.429999999999999e+00  8.256108849411650e-01 -3.393140768766017e-17
 1.429999999999999e+00  8.256108849411650e-01 -3.393140768766017e-17
 1.429999999999999e+00  8.256108849411650e-01 -3.393140768766017e-17
 1.429999999999999e+00  8.256108849411650e-01 -3.393140768766017e-17
 1.429999999999999e+00  8.256108849411650e-01 -3.393140768766017e-17
 1.429999999999999e+00  8.256108849411650e-01 -3.393140768766017e-17
 1.429999999999999e+00  8.256108849411650e-01 -3.393140768766017e-17
 1.429999999999999e+00  8.256108849411650e-01 -3.393140768766017e-17
 1.429999999999999e+00  8.256108849411650e-01 -3.393140768766017e-17
 1.429999999999999e+00  8.256108849411650e-01 -3.393140768766017e-17
 1.429999999999999e+00  8.256108849411650e-01 -3.393140768766017e-17
 1.429999999999999e+00  8.256108849411650e-01 -3.393140768766017e-17
 1.429999999999999e+00  8.256108849411650e-01 -3.393140768766017e-17
 1.429999999999999e+00  8.256108849411650e-01 -3.393140768766017e-17
 1.429999999999999e+00  8.256108849411650e-01 -3.393140768766017e-17
 1.429999999999999e+00  8.256108849411650e-01 -3.393140768766017e-17
 1.429999999999999e+00  8.256108849411650e-01 -3.393140768766017e-17
 1.429999999999999e+00  8.256108849411650e-01 -3.393140768766017e-17
 1.429999999999999e+00  8.256108849411650e-01 -3.393140768766017e-17
 1.429999999999999e+00  8.256108849411650e-01 -3.393140768766017e-17
 1.429999999999999e+00  8.256108849411650e-01 -3.393140768766017e-17
 1.429999999999999e+00  8.256108849411650e-01 -3.393140768766017e-17
 1.429999999999999e+00  8.256108849411650e-01 -3.393140768766017e-17
 1.429999999999999e+00  8.256108849411650e-01 -3.393140768766017e-17
 1.429999999999999e+00  8.256108849411650e-01 -3.393140768766017e-17
 1.429999999999999e+00  8.256108849411650e-01 -3.393140768766017e-17
 1.429999999999999e+00  8.256108849411650e-01 -3.393140768766017e-17
 1.429999999999999e+00  8.256108849411650e-01 -3.393140768766017e-17
 1.429999999999999e+00  8.256108849411650e-01 -3.393140768766017e-17
 1.429999999999999e+00  8.256108849411650e-01 -3.393140768766017e-17
 1.429999999999999e+00  8.256108849411650e-01 -3.393140768766017e-17
 1.429999999999999e+00  8.256108849411650e-01 -3.393140768766017e-17
 1.429999999999999e+00  8.256108849411650e-01 -3.393140768766017e-17
 1.429999999999999e+00  8.256108849411650e-01 -3.393140768766017e-17
 1.429999999999999e+00  8.256108849411650e-01 -3.393140768766017e-17
 1.429999999999999e+00  8.256108849411650e-01 -3.393140768766017e-17
 1.429999999999999e+00  8.256108849411650e-01 -3.393140768766017e-17
 1.429999999999999e+00  8.256108849411650e-01 -3.393140768766017e-17
 1.429999999999999e+00  8.256108849411650e-01 -3.393140768766017e-17
 1.429999999999999e+00  8.256108849411650e-01 -3.393140768766017e-17
 1.429999999999999e+00  8.256108849411650e-01 -3.393140768766017e-17
 1.429999999999999e+00  8.256108849411650e-01 -3.393140768766017e-17
 1.429999999999999e+00  8.256108849411650e-01 -3.393140768766017e-17
 1.429999999999999e+00  8.256108849411650e-01 -3.393140768766017e-17
 1.429999999999999e+00  8.256108849411650e-01 -3.393140768766017e-17
 1.429999999999999e+00  8.256108849411650e-01 -3.393140768766017e-17
 1.429999999999999e+00  8.256108849411650e-01 -3.393140768766017e-17
 1.429999999999999e+00  8.256108849411650e-01 -3.393140768766017e-17
 1.429999999999999e+00  8.256108849411650e-01 -3.393140768766017e-17
 1.429999999999999e+00  8.256108849411650e-01 -3.393140768766017e-17
 1.429999999999999e+00  8.256108849411650e-01 -3.393140768766017e-17
 1.429999999999999e+00  8.256108849411650e-01 -3.393140768766017e-17
 1.429999999999999e+00  8.256108849411650e-01 -3.393140768766017e-17
 1.429999999999999e+00  8.256108849411650e-01 -3.393140768766017e-17
 1.429999999999999e+00  8.256108849411650e-01 -3.393140768766017e-17
 1.429999999999999e+00  8.256108849411650e-01 -3.393140768766017e-17
 1.429999999999999e+00  8.256108849411650e-01 -3.393140768766017e-17
 1.429999999999999e+00  8.256108849411650e-01 -3.393140768766017e-17
 1.429999999999999e+00  8.256108849411650e-01 -3.393140768766017e-17
 1.429999999999999e+00  8.256108849411650e-01 -3.393140768766017e-17
 1.429999999999999e+00  8.256108849411650e-01 -3.393140768766017e-17
 1.429999999999999e+00  8.256108849411650e-01 -3.393140768766017e-17
 1.429999999999999e+00  8.256108849411650e-01 -3.393140768766017e-17
 1.429999999999999e+00  8.256108849411650e-01 -3.393140768766017e-17
 1.429999999999999e+00  8.256108849411650e-01 -3.393140768766017e-17
 1.429999999999999e+00  8.256108849411650e-01 -3.393140768766017e-17
 1.429999999999999e+00  8.256108849411650e-01 -3.393140768766017e-17
 1.429999999999999e+00  8.256108849411650e-01 -3.393140768766017e-17
 1.429999999999999e+00  8.256108849411650e-01 -3.393140768766017e-17
 1.429999999999999e+00  8.256108849411650e-01 -3.393140768766017e-17
 1.429999999999999e+00  8.256108849411650e-01 -3.393140768766017e-17
 1.429999999999999e+00  8.256108849411650e-01 -3.393140768766017e-17
 1.429999999999999e+00  8.256108849411650e-01 -3.393140768766017e-17
 1.429999999999999e+00  8.256108849411650e-01 -3.393140768766017e-17
 1.429999999999999e+00  8.256108849411650e-01 -3.393140768766017e-17
 1.429999999999999e+00  8.256108849411650e-01 -3.393140768766017e-17
 1.429999999999999e+00  8.256108849411650e-01 -3.393140768766017e-17
 1.429999999999999e+00  8.256108849411650e-01 -3.393140768766017e-17
 1.429999999999999e+00  8.256108849411650e-01 -3.393140768766017e-17
 1.429999999999999e+00  8.256108849411650e-01 -3.393140768766017e-17
 1.429999999999999e+00  8.256108849411650e-01 -3.393140768766017e-17
 1.429999999999999e+00  8.256108849411650e-01 -3.393140768766017e-17
 1.429999999999999e+00  8.256108849411650e-01 -3.393140768766017e-17
 1.429999999999999e+00  8.256108849411650e-01 -3.393140768766017e-17
 1.429999999999999e+00  8.256108849411650e-01 -3.393140768766017e-17
 1.429999999999999e+00  8.256108849411650e-01 -3.393140768766017e-17
 1.429999999999999e+00  8.256108849411650e-01 -3.393140768766017e-17
 1.429999999999999e+00  8.256108849411650e-01 -3.393140768766017e-17
 1.429999999999999e+00  8.256108849411650e-01 -3.393140768766017e-17
 1.429999999999999e+00  8.256108849411650e-01 -3.393140768766017e-17
 1.429999999999999e+00  8.256108849411650e-01 -3.393140768766017e-17
 1.429999999999999e+00  8.256108849411650e-01 -3.393140768766017e-17
 1.429999999999999e+00  8.256108849411650e-01 -3.393140768766017e-17
 1.429999999999999e+00  8.256108849411650e-01 -3.393140768766017e-17
 1.429999999999999e+00  8.256108849411650e-01 -3.393140768766017e-17
 1.429999999999999e+00  8.256108849411650e-01 -3.393140768766017e-17
 1.429999999999999e+00  8.256108849411650e-01 -3.393140768766017e-17
 1.429999999999999e+00  8.256108849411650e-01 -3.393140768766017e-17
 1.429999999999999e+00  8.256108849411650e-01 -3.393140768766017e-17
 1.429999999999999e+00  8.256108849411650e-01 -3.393140768766017e-17
 1.429999999999999e+00  8.256108849411650e-01 -3.393140768766017e-17
 1.429999999999999e+00  8.256108849411650e-01 -3.393140768766017e-17
 1.429999999999999e+00  8.256108849411650e-01 -3.393140768766017e-17
 1.429999999999999e+00  8.256108849411650e-01 -3.393140768766017e-17
 1.429999999999999e+00  8.256108849411650e-01 -3.393140768766017e-17
 1.429999999999999e+00  8.256108849411650e-01 -3.393140768766017e-17
 1.429999999999999e+00  8.256108849411650e-01 -3.393140768766017e-17
 1.429999999999999e+00  8.256108849411650e-01 -3.393140768766017e-17
 1.429999999999999e+00  8.256108849411650e-01 -3.393140768766017e-17
 1.429999999999999e+00  8.256108849411650e-01 -3.393140768766017e-17
 1.429999999999999e+00  8.256108849411650e-01 -3.393140768766017e-17
 1.429999999999999e+00  8.256108849411650e-01 -3.393140768766017e-17
 1.429999999999999e+00  8.256108849411650e-01 -3.393140768766017e-17
 1.429999999999999e+00  8.256108849411650e-01 -3.393140768766017e-17
 1.429999999999999e+00  8.256108849411650e-01 -3.393140768766017e-17
 1.429999999999999e+00  8.256108849411650e-01 -3.393140768766017e-17
 1.429999999999999e+00  8.256108849411650e-01 -3.393140768766017e-17
 1.429999999999999e+00  8.256108849411650e-01 -3.393140768766017e-17
 1.429999999999999e+00  8.256108849411650e-01 -3.393140768766017e-17
 1.429999999999999e+00  8.256108849411650e-01 -3.393140768766017e-17
 1.429999999999999e+00  8.256108849411650e-01 -3.393140768766017e-17
 1.429999999999999e+00  8.256108849411650e-01 -3.393140768766017e-17
 1.429999999999999e+00  8.256108849411650e-01 -3.393140768766017e-17
 1.429999999999999e+00  8.256108849411650e-01 -3.393140768766017e-17
 1.429999999999999e+00  8.256108849411650e-01 -3.393140768766017e-17
 1.429999999999999e+00  8.256108849411650e-01 -3.393140768766017e-17
 1.429999999999999e+00  8.256108849411650e-01 -3.393140768766017e-17
 1.429999999999999e+00  8.256108849411650e-01 -3.393140768766017e-17
 1.429999999999999e+00  8.256108849411650e-01 -3.393140768766017e-17
 1.429999999999999e+00  8.256108849411650e-01 -3.393140768766017e-17
 1.429999999999999e+00  8.256108849411650e-01 -3.393140768766017e-17
 1.429999999999999e+00  8.256108849411650e-01 -3.393140768766017e-17
 1.429999999999999e+00  8.256108849411650e-01 -3.393140768766017e-17
 1.429999999999999e+00  8.256108849411650e-01 -3.393140768766017e-17
 1.429999999999999e+00  8.256108849411650e-01 -3.393140768766017e-17
 1.429999999999999e+00  8.256108849411650e-01 -3.393140768766017e-17
 1.429999999999999e+00  8.256108849411650e-01 -3.393140768766017e-17
 1.429999999999999e+00  8.256108849411650e-01 -3.393140768766017e-17
 1.429999999999999e+00  8.256108849411650e-01 -3.393140768766017e-17
 1.429999999999999e+00  8.256108849411650e-01 -3.393140768766017e-17
 1.429999999999999e+00  8.256108849411650e-01 -3.393140768766017e-17
 1.429999999999999e+00  8.256108849411650e-01 -3.393140768766017e-17
 1.429999999999999e+00  8.256108849411650e-01 -3.393140768766017e-17
 1.429999999999999e+00  8.256108849411650e-01 -3.393140768766017e-17
 1.429999999999999e+00  8.256108849411650e-01 -3.393140768766017e-17
 1.429999999999999e+00  8.256108849411650e-01 -3.393140768766017e-17
 1.429999999999999e+00  8.256108849411650e-01 -3.393140768766017e-17
 1.429999999999999e+00  8.256108849411650e-01 -3.393140768766017e-17
 1.429999999999999e+00  8.256108849411650e-01 -3.393140768766017e-17
 1.429999999999999e+00  8.256108849411650e-01 -3.393140768766017e-17
 1.429999999999999e+00  8.256108849411650e-01 -3.393140768766017e-17
 1.429999999999999e+00  8.256108849411650e-01 -3.393140768766017e-17
 1.429999999999999e+00  8.256108849411650e-01 -3.393140768766017e-17
 1.429999999999999e+00  8.256108849411650e-01 -3.393140768766017e-17
 1.429999999999999e+00  8.256108849411650e-01 -3.393140768766017e-17
 1.429999999999999e+00  8.256108849411650e-01 -3.393140768766017e-17
 1.429999999999999e+00  8.256108849411650e-01 -3.393140768766017e-17
 1.429999999999999e+00  8.256108849411650e-01 -3.393140768766017e-17
 1.429999999999999e+00  8.256108849411650e-01 -3.393140768766017e-17
 1.429999999999999e+00  8.256108849411650e-01 -3.393140768766017e-17
 1.429999999999999e+00  8.256108849411650e-01 -3.393140768766017e-17
 1.429999999999999e+00  8.256108849411650e-01 -3.393140768766017e-17
 1.429999999999999e+00  8.256108849411650e-01 -3.393140768766017e-17
 1.429999999999999e+00  8.256108849411650e-01 -3.393140768766017e-17
 1.429999999999999e+00  8.256108849411650e-01 -3.393140768766017e-17
 1.429999999999999e+00  8.256108849411650e-01 -3.393140768766017e-17
 1.429999999999999e+00  8.256108849411650e-01 -3.393140768766017e-17
 1.429999999999999e+00  8.256108849411650e-01 -3.393140768766017e-17
 1.429999999999999e+00  8.256108849411650e-01 -3.393140768766017e-17
 1.429999999999999e+00  8.256108849411650e-01 -3.393140768766017e-17
 1.429999999999999e+00  8.256108849411650e-01 -3.393140768766017e-17
 1.429999999999999e+00  8.256108849411650e-01 -3.393140768766017e-17
 1.429999999999999e+00  8.256108849411650e-01 -3.393140768766017e-17
 1.429999999999999e+00  8.256108849411650e-01 -3.393140768766017e-17
 1.429999999999999e+00  8.256108849411650e-01 -3.393140768766017e-17
 1.429999999999999e+00  8.256108849411650e-01 -3.393140768766017e-17
 1.429999999999999e+00  8.256108849411650e-01 -3.393140768766017e-17
 1.429999999999999e+00  8.256108849411650e-01 -3.393140768766017e-17
 1.429999999999999e+00  8.256108849411650e-01 -3.393140768766017e-17
 1.429999999999999e+00  8.256108849411650e-01 -3.393140768766017e-17
 1.429999999999999e+00  8.256108849411650e-01 -3.393140768766017e-17
 1.429999999999999e+00  8.256108849411650e-01 -3.393140768766017e-17
 1.429999999999999e+00  8.256108849411650e-01 -3.393140768766017e-17
 1.429999999999999e+00  8.256108849411650e-01 -3.393140768766017e-17
 1.429999999999999e+00  8.256108849411650e-01 -3.393140768766017e-17
 1.429999999999999e+00  8.256108849411650e-01 -3.393140768766017e-17
 1.429999999999999e+00  8.256108849411650e-01 -3.393140768766017e-17
 1.429999999999999e+00  8.256108849411650e-01 -3.393140768766017e-17
 1.429999999999999e+00  8.256108849411650e-01 -3.393140768766017e-17
 1.429999999999999e+00  8.256108849411650e-01 -3.393140768766017e-17
 1.429999999999999e+00  8.256108849411650e-01 -3.393140768766017e-17
 1.429999999999999e+00  8.256108849411650e-01 -3.393140768766017e-17
 1.429999999999999e+00  8.256108849411650e-01 -3.393140768766017e-17
 1.429999999999999e+00  8.256108849411650e-01 -3.393140768766017e-17
 1.429999999999999e+00  8.256108849411650e-01 -3.393140768766017e-17
 1.429999999999999e+00  8.256108849411650e-01 -3.393140768766017e-17
 1.429999999999999e+00  8.256108849411650e-01 -3.393140768766017e-17
 1.429999999999999e+00  8.256108849411650e-01 -3.393140768766017e-17
 1.429999999999999e+00  8.256108849411650e-01 -3.393140768766017e-17
 1.429999999999999e+00  8.256108849411650e-01 -3.393140768766017e-17
 1.429999999999999e+00  8.256108849411650e-01 -3.393140768766017e-17
 1.429999999999999e+00  8.256108849411650e-01 -3.393140768766017e-17
 1.429999999999999e+00  8.256108849411650e-01 -3.393140768766017e-17
 1.429999999999999e+00  8.256108849411650e-01 -3.393140768766017e-17
 1.429999999999999e+00  8.256108849411650e-01 -3.393140768766017e-17
 1.429999999999999e+00  8.256108849411650e-01 -3.393140768766017e-17
 1.429999999999999e+00  8.256108849411650e-01 -3.393140768766017e-17
 1.429999999999999e+00  8.256108849411650e-01 -3.393140768766017e-17
 1.429999999999999e+00  8.256108849411650e-01 -3.393140768766017e-17
 1.429999999999999e+00  8.256108849411650e-01 -3.393140768766017e-17
 1.429999999999999e+00  8.256108849411650e-01 -3.393140768766017e-17
 1.429999999999999e+00  8.256108849411650e-01 -3.393140768766017e-17
 1.429999999999999e+00  8.256108849411650e-01 -3.393140768766017e-17
 1.429999999999999e+00  8.256108849411650e-01 -3.393140768766017e-17
 1.429999999999999e+00  8.256108849411650e-01 -3.393140768766017e-17
 1.429999999999999e+00  8.256108849411650e-01 -3.393140768766017e-17
 1.429999999999999e+00  8.256108849411650e-01 -3.393140768766017e-17
 1.429999999999999e+00  8.256108849411650e-01 -3.393140768766017e-17
 1.429999999999999e+00  8.256108849411650e-01 -3.393140768766017e-17
 1.429999999999999e+00  8.256108849411650e-01 -3.393140768766017e-17
 1.429999999999999e+00  8.256108849411650e-01 -3.393140768766017e-17
 1.429999999999999e+00  8.256108849411650e-01 -3.393140768766017e-17
 1.429999999999999e+00  8.256108849411650e-01 -3.393140768766017e-17
 1.429999999999999e+00  8.256108849411650e-01 -3.393140768766017e-17
 1.429999999999999e+00  8.256108849411650e-01 -3.393140768766017e-17
 1.429999999999999e+00  8.256108849411650e-01 -3.393140768766017e-17
 1.429999999999999e+00  8.256108849411650e-01 -3.393140768766017e-17
 1.429999999999999e+00  8.256108849411650e-01 -3.393140768766017e-17
 1.429999999999999e+00  8.256108849411650e-01 -3.393140768766017e-17
 1.429999999999999e+00  8.256108849411650e-01 -3.393140768766017e-17
 1.429999999999999e+00  8.256108849411650e-01 -3.393140768766017e-17
 1.429999999999999e+00  8.256108849411650e-01 -3.393140768766017e-17
 1.429999999999999e+00  8.256108849411650e-01 -3.393140768766017e-17
 1.429999999999999e+00  8.256108849411650e-01 -3.393140768766017e-17
 1.429999999999999e+00  8.256108849411650e-01 -3.393140768766017e-17
 1.429999999999999e+00  8.256108849411650e-01 -3.393140768766017e-17
 1.429999999999999e+00  8.256108849411650e-01 -3.393140768766017e-17
 1.429999999999999e+00  8.256108849411650e-01 -3.393140768766017e-17
 1.429999999999999e+00  8.256108849411650e-01 -3.393140768766017e-17
 1.429999999999999e+00  8.256108849411650e-01 -3.393140768766017e-17
 1.429999999999999e+00  8.256108849411650e-01 -3.393140768766017e-17
 1.429999999999999e+00  8.256108849411650e-01 -3.393140768766017e-17
 1.429999999999999e+00  8.256108849411650e-01 -3.393140768766017e-17
 1.429999999999999e+00  8.256108849411650e-01 -3.393140768766017e-17
 1.429999999999999e+00  8.256108849411650e-01 -3.393140768766017e-17
 1.429999999999999e+00  8.256108849411650e-01 -3.393140768766017e-17
 1.429999999999999e+00  8.256108849411650e-01 -3.393140768766017e-17
 1.429999999999999e+00  8.256108849411650e-01 -3.393140768766017e-17
 1.429999999999999e+00  8.256108849411650e-01 -3.393140768766017e-17
 1.429999999999999e+00  8.256108849411650e-01 -3.393140768766017e-17
 1.429999999999999e+00  8.256108849411650e-01 -3.393140768766017e-17
 1.429999999999999e+00  8.256108849411650e-01 -3.393140768766017e-17
 1.429999999999999e+00  8.256108849411650e-01 -3.393140768766017e-17
 1.429999999999999e+00  8.256108849411650e-01 -3.393140768766017e-17
 1.429999999999999e+00  8.256108849411650e-01 -3.393140768766017e-17
 1.429999999999999e+00  8.256108849411650e-01 -3.393140768766017e-17
 1.429999999999999e+00  8.256108849411650e-01 -3.393140768766017e-17
 1.429999999999999e+00  8.256108849411650e-01 -3.393140768766017e-17
 1.429999999999999e+00  8.256108849411650e-01 -3.393140768766017e-17
 1.429999999999999e+00  8.256108849411650e-01 -3.393140768766017e-17
 1.429999999999999e+00  8.256108849411650e-01 -3.393140768766017e-17
 1.429999999999999e+00  8.256108849411650e-01 -3.393140768766017e-17
 1.429999999999999e+00  8.256108849411650e-01 -3.393140768766017e-17
-1.429999999999999e+00 -8.256108849411650e-01  3.393140768766017e-17
 1.429999999999999e+00  8.256108849411650e-01 -3.393140768766017e-17
 1.429999999999999e+00  8.256108849411650e-01 -3.393140768766017e-17
 1.429999999999999e+00  8.256108849411650e-01 -3.393140768766017e-17
 1.429999999999999e+00  8.256108849411650e-01 -3.393140768766017e-17
 1.429999999999999e+00  8.256108849411650e-01 -3.393140768766017e-17
 1.429999999999999e+00  8.256108849411650e-01 -3.393140768766017e-17
 1.429999999999999e+00  8.256108849411650e-01 -3.393140768766017e-17
 1.429999999999999e+00  8.256108849411650e-01 -3.393140768766017e-17
 1.429999999999999e+00  8.256108849411650e-01 -3.393140768766017e-17
 1.429999999999999e+00  8.256108849411650e-01 -3.393140768766017e-17
 1.429999999999999e+00  8.256108849411650e-01 -3.393140768766017e-17
 1.429999999999999e+00  8.256108849411650e-01 -3.393140768766017e-17
 1.429999999999999e+00  8.256108849411650e-01 -3.393140768766017e-17
 1.429999999999999e+00  8.256108849411650e-01 -3.393140768766017e-17
 1.429999999999999e+00  8.256108849411650e-01 -3.393140768766017e-17
 1.429999999999999e+00  8.256108849411650e-01 -3.393140768766017e-17
 1.429999999999999e+00  8.256108849411650e-01 -3.393140768766017e-17
 1.429999999999999e+00  8.256108849411650e-01 -3.393140768766017e-17
 1.429999999999999e+00  8.256108849411650e-01 -3.393140768766017e-17
 1.429999999999999e+00  8.256108849411650e-01 -3.393140768766017e-17
 1.429999999999999e+00  8.256108849411650e-01 -3.393140768766017e-17
 1.429999999999999e+00  8.256108849411650e-01 -3.393140768766017e-17
 1.429999999999999e+00  8.256108849411650e-01 -3.393140768766017e-17
 1.429999999999999e+00  8.256108849411650e-01 -3.393140768766017e-17
 1.429999999999999e+00  8.256108849411650e-01 -3.393140768766017e-17
 1.429999999999999e+00  8.256108849411650e-01 -3.393140768766017e-17
 1.429999999999999e+00  8.256108849411650e-01 -3.393140768766017e-17
 1.429999999999999e+00  8.256108849411650e-01 -3.393140768766017e-17
 1.429999999999999e+00  8.256108849411650e-01 -3.393140768766017e-17
 1.429999999999999e+00  8.256108849411650e-01 -3.393140768766017e-17
 1.429999999999999e+00  8.256108849411650e-01 -3.393140768766017e-17
 1.429999999999999e+00  8.256108849411650e-01 -3.393140768766017e-17
 1.429999999999999e+00  8.256108849411650e-01 -3.393140768766017e-17
 1.429999999999999e+00  8.256108849411650e-01 -3.393140768766017e-17
 1.429999999999999e+00  8.256108849411650e-01 -3.393140768766017e-17
 1.429999999999999e+00  8.256108849411650e-01 -3.393140768766017e-17
 1.429999999999999e+00  8.256108849411650e-01 -3.393140768766017e-17
 1.429999999999999e+00  8.256108849411650e-01 -3.393140768766017e-17
 1.429999999999999e+00  8.256108849411650e-01 -3.393140768766017e-17
 1.429999999999999e+00  8.256108849411650e-01 -3.393140768766017e-17
 1.429999999999999e+00  8.256108849411650e-01 -3.393140768766017e-17
 1.429999999999999e+00  8.256108849411650e-01 -3.393140768766017e-17
 1.429999999999999e+00  8.256108849411650e-01 -3.393140768766017e-17
 1.429999999999999e+00  8.256108849411650e-01 -3.393140768766017e-17
 1.429999999999999e+00  8.256108849411650e-01 -3.393140768766017e-17
 1.429999999999999e+00  8.256108849411650e-01 -3.393140768766017e-17
 1.429999999999999e+00  8.256108849411650e-01 -3.393140768766017e-17
 1.429999999999999e+00  8.256108849411650e-01 -3.393140768766017e-17
 1.429999999999999e+00  8.256108849411650e-01 -3.393140768766017e-17
 1.429999999999999e+00  8.256108849411650e-01 -3.393140768766017e-17
 1.429999999999999e+00  8.256108849411650e-01 -3.393140768766017e-17
 1.429999999999999e+00  8.256108849411650e-01 -3.393140768766017e-17
 1.429999999999999e+00  8.256108849411650e-01 -3.393140768766017e-17
 1.429999999999999e+00  8.256108849411650e-01 -3.393140768766017e-17
 1.429999999999999e+00  8.256108849411650e-01 -3.393140768766017e-17
 1.429999999999999e+00  8.256108849411650e-01 -3.393140768766017e-17
 1.429999999999999e+00  8.256108849411650e-01 -3.393140768766017e-17
 1.429999999999999e+00  8.256108849411650e-01 -3.393140768766017e-17
 1.429999999999999e+00  8.256108849411650e-01 -3.393140768766017e-17
 1.429999999999999e+00  8.256108849411650e-01 -3.393140768766017e-17
 1.429999999999999e+00  8.256108849411650e-01 -3.393140768766017e-17
 1.429999999999999e+00  8.256108849411650e-01 -3.393140768766017e-17
 1.429999999999999e+00  8.256108849411650e-01 -3.393140768766017e-17
 1.429999999999999e+00  8.256108849411650e-01 -3.393140768766017e-17
 1.429999999999999e+00  8.256108849411650e-01 -3.393140768766017e-17
 1.429999999999999e+00  8.256108849411650e-01 -3.393140768766017e-17
 1.429999999999999e+00  8.256108849411650e-01 -3.393140768766017e-17
 1.429999999999999e+00  8.256108849411650e-01 -3.393140768766017e-17
 1.429999999999999e+00  8.256108849411650e-01 -3.393140768766017e-17
 1.429999999999999e+00  8.256108849411650e-01 -3.393140768766017e-17
 1.429999999999999e+00  8.256108849411650e-01 -3.393140768766017e-17
 1.429999999999999e+00  8.256108849411650e-01 -3.393140768766017e-17
 1.429999999999999e+00  8.256108849411650e-01 -3.393140768766017e-17
 1.429999999999999e+00  8.256108849411650e-01 -3.393140768766017e-17
 1.429999999999999e+00  8.256108849411650e-01 -3.393140768766017e-17
 1.429999999999999e+00  8.256108849411650e-01 -3.393140768766017e-17
 1.429999999999999e+00  8.256108849411650e-01 -3.393140768766017e-17
 1.429999999999999e+00  8.256108849411650e-01 -3.393140768766017e-17
 1.429999999999999e+00  8.256108849411650e-01 -3.393140768766017e-17
 1.429999999999999e+00  8.256108849411650e-01 -3.393140768766017e-17
 1.429999999999999e+00  8.256108849411650e-01 -3.393140768766017e-17
 1.429999999999999e+00  8.256108849411650e-01 -3.393140768766017e-17
 1.429999999999999e+00  8.256108849411650e-01 -3.393140768766017e-17
 1.429999999999999e+00  8.256108849411650e-01 -3.393140768766017e-17
 1.429999999999999e+00  8.256108849411650e-01 -3.393140768766017e-17
 1.429999999999999e+00  8.256108849411650e-01 -3.393140768766017e-17
 1.429999999999999e+00  8.256108849411650e-01 -3.393140768766017e-17
 1.429999999999999e+00  8.256108849411650e-01 -3.393140768766017e-17
 1.429999999999999e+00  8.256108849411650e-01 -3.393140768766017e-17
 1.429999999999999e+00  8.256108849411650e-01 -3.393140768766017e-17
 1.429999999999999e+00  8.256108849411650e-01 -3.393140768766017e-17
 1.429999999999999e+00  8.256108849411650e-01 -3.393140768766017e-17
 1.429999999999999e+00  8.256108849411650e-01 -3.393140768766017e-17
 1.429999999999999e+00  8.256108849411650e-01 -3.393140768766017e-17
 1.429999999999999e+00  8.256108849411650e-01 -3.393140768766017e-17
 1.429999999999999e+00  8.256108849411650e-01 -3.393140768766017e-17
 1.429999999999999e+00  8.256108849411650e-01 -3.393140768766017e-17
 1.429999999999999e+00  8.256108849411650e-01 -3.393140768766017e-17
 1.429999999999999e+00  8.256108849411650e-01 -3.393140768766017e-17
 1.429999999999999e+00  8.256108849411650e-01 -3.393140768766017e-17
 1.429999999999999e+00  8.256108849411650e-01 -3.393140768766017e-17
 1.429999999999999e+00  8.256108849411650e-01 -3.393140768766017e-17
 1.429999999999999e+00  8.256108849411650e-01 -3.393140768766017e-17
 1.429999999999999e+00  8.256108849411650e-01 -3.393140768766017e-17
 1.429999999999999e+00  8.256108849411650e-01 -3.393140768766017e-17
 1.429999999999999e+00  8.256108849411650e-01 -3.393140768766017e-17
 1.429999999999999e+00  8.256108849411650e-01 -3.393140768766017e-17
 1.429999999999999e+00  8.256108849411650e-01 -3.393140768766017e-17
 1.429999999999999e+00  8.256108849411650e-01 -3.393140768766017e-17
 1.429999999999999e+00  8.256108849411650e-01 -3.393140768766017e-17
 1.429999999999999e+00  8.256108849411650e-01 -3.393140768766017e-17
 1.429999999999999e+00  8.256108849411650e-01 -3.393140768766017e-17
 1.429999999999999e+00  8.256108849411650e-01 -3.393140768766017e-17
 1.429999999999999e+00  8.256108849411650e-01 -3.393140768766017e-17
 1.429999999999999e+00  8.256108849411650e-01 -3.393140768766017e-17
 1.429999999999999e+00  8.256108849411650e-01 -3.393140768766017e-17
 1.429999999999999e+00  8.256108849411650e-01 -3.393140768766017e-17
 1.429999999999999e+00  8.256108849411650e-01 -3.393140768766017e-17
 1.429999999999999e+00  8.256108849411650e-01 -3.393140768766017e-17
 1.429999999999999e+00  8.256108849411650e-01 -3.393140768766017e-17
 1.429999999999999e+00  8.256108849411650e-01 -3.393140768766017e-17
 1.429999999999999e+00  8.256108849411650e-01 -3.393140768766017e-17
 1.429999999999999e+00  8.256108849411650e-01 -3.393140768766017e-17
 1.429999999999999e+00  8.256108849411650e-01 -3.393140768766017e-17
 1.429999999999999e+00  8.256108849411650e-01 -3.393140768766017e-17
 1.429999999999999e+00  8.256108849411650e-01 -3.393140768766017e-17
 1.429999999999999e+00  8.256108849411650e-01 -3.393140768766017e-17
 1.429999999999999e+00  8.256108849411650e-01 -3.393140768766017e-17
 1.429999999999999e+00  8.256108849411650e-01 -3.393140768766017e-17
 1.429999999999999e+00  8.256108849411650e-01 -3.393140768766017e-17
 1.429999999999999e+00  8.256108849411650e-01 -3.393140768766017e-17
 1.429999999999999e+00  8.256108849411650e-01 -3.393140768766017e-17
 1.429999999999999e+00  8.256108849411650e-01 -3.393140768766017e-17
 1.429999999999999e+00  8.256108849411650e-01 -3.393140768766017e-17
 1.429999999999999e+00  8.256108849411650e-01 -3.393140768766017e-17
 1.429999999999999e+00  8.256108849411650e-01 -3.393140768766017e-17
 1.429999999999999e+00  8.256108849411650e-01 -3.393140768766017e-17
 1.429999999999999e+00  8.256108849411650e-01 -3.393140768766017e-17
 1.429999999999999e+00  8.256108849411650e-01 -3.393140768766017e-17
 1.429999999999999e+00  8.256108849411650e-01 -3.393140768766017e-17
 1.429999999999999e+00  8.256108849411650e-01 -3.393140768766017e-17
 1.429999999999999e+00  8.256108849411650e-01 -3.393140768766017e-17
 1.429999999999999e+00  8.256108849411650e-01 -3.393140768766017e-17
 1.429999999999999e+00  8.256108849411650e-01 -3.393140768766017e-17
 1.429999999999999e+00  8.256108849411650e-01 -3.393140768766017e-17
 1.429999999999999e+00  8.256108849411650e-01 -3.393140768766017e-17
 1.429999999999999e+00  8.256108849411650e-01 -3.393140768766017e-17
 1.429999999999999e+00  8.256108849411650e-01 -3.393140768766017e-17
 1.429999999999999e+00  8.256108849411650e-01 -3.393140768766017e-17
 1.429999999999999e+00  8.256108849411650e-01 -3.393140768766017e-17
 1.429999999999999e+00  8.256108849411650e-01 -3.393140768766017e-17
 1.429999999999999e+00  8.256108849411650e-01 -3.393140768766017e-17
 1.429999999999999e+00  8.256108849411650e-01 -3.393140768766017e-17
 1.429999999999999e+00  8.256108849411650e-01 -3.393140768766017e-17
 1.429999999999999e+00  8.256108849411650e-01 -3.393140768766017e-17
 1.429999999999999e+00  8.256108849411650e-01 -3.393140768766017e-17
 1.429999999999999e+00  8.256108849411650e-01 -3.393140768766017e-17
 1.429999999999999e+00  8.256108849411650e-01 -3.393140768766017e-17
 1.429999999999999e+00  8.256108849411650e-01 -3.393140768766017e-17
 1.429999999999999e+00  8.256108849411650e-01 -3.393140768766017e-17
 1.429999999999999e+00  8.256108849411650e-01 -3.393140768766017e-17
 1.429999999999999e+00  8.256108849411650e-01 -3.393140768766017e-17
 1.429999999999999e+00  8.256108849411650e-01 -3.393140768766017e-17
 1.429999999999999e+00  8.256108849411650e-01 -3.393140768766017e-17
 1.429999999999999e+00  8.256108849411650e-01 -3.393140768766017e-17
 1.429999999999999e+00  8.256108849411650e-01 -3.393140768766017e-17
 1.429999999999999e+00  8.256108849411650e-01 -3.393140768766017e-17
 1.429999999999999e+00  8.256108849411650e-01 -3.393140768766017e-17
 1.429999999999999e+00  8.256108849411650e-01 -3.393140768766017e-17
 1.429999999999999e+00  8.256108849411650e-01 -3.393140768766017e-17
 1.429999999999999e+00  8.256108849411650e-01 -3.393140768766017e-17
 1.429999999999999e+00  8.256108849411650e-01 -3.393140768766017e-17
 1.429999999999999e+00  8.256108849411650e-01 -3.393140768766017e-17
 1.429999999999999e+00  8.256108849411650e-01 -3.393140768766017e-17
 1.429999999999999e+00  8.256108849411650e-01 -3.393140768766017e-17
 1.429999999999999e+00  8.256108849411650e-01 -3.393140768766017e-17
 1.429999999999999e+00  8.256108849411650e-01 -3.393140768766017e-17
 1.429999999999999e+00  8.256108849411650e-01 -3.393140768766017e-17
 1.429999999999999e+00  8.256108849411650e-01 -3.393140768766017e-17
 1.429999999999999e+00  8.256108849411650e-01 -3.393140768766017e-17
 1.429999999999999e+00  8.256108849411650e-01 -3.393140768766017e-17
 1.429999999999999e+00  8.256108849411650e-01 -3.393140768766017e-17
 1.429999999999999e+00  8.256108849411650e-01 -3.393140768766017e-17
 1.429999999999999e+00  8.256108849411650e-01 -3.393140768766017e-17
 1.429999999999999e+00  8.256108849411650e-01 -3.393140768766017e-17
 1.429999999999999e+00  8.256108849411650e-01 -3.393140768766017e-17
 1.429999999999999e+00  8.256108849411650e-01 -3.393140768766017e-17
 1.429999999999999e+00  8.256108849411650e-01 -3.393140768766017e-17
 1.429999999999999e+00  8.256108849411650e-01 -3.393140768766017e-17
 1.429999999999999e+00  8.256108849411650e-01 -3.393140768766017e-17
 1.429999999999999e+00  8.256108849411650e-01 -3.393140768766017e-17
 1.429999999999999e+00  8.256108849411650e-01 -3.393140768766017e-17
 1.429999999999999e+00  8.256108849411650e-01 -3.393140768766017e-17
 1.429999999999999e+00  8.256108849411650e-01 -3.393140768766017e-17
 1.429999999999999e+00  8.256108849411650e-01 -3.393140768766017e-17
 1.429999999999999e+00  8.256108849411650e-01 -3.393140768766017e-17
 1.429999999999999e+00  8.256108849411650e-01 -3.393140768766017e-17
 1.429999999999999e+00  8.256108849411650e-01 -3.393140768766017e-17
 1.429999999999999e+00  8.256108849411650e-01 -3.393140768766017e-17
 1.429999999999999e+00  8.256108849411650e-01 -3.393140768766017e-17
 1.429999999999999e+00  8.256108849411650e-01 -3.393140768766017e-17
 1.429999999999999e+00  8.256108849411650e-01 -3.393140768766017e-17
 1.429999999999999e+00  8.256108849411650e-01 -3.393140768766017e-17
 1.429999999999999e+00  8.256108849411650e-01 -3.393140768766017e-17
 1.429999999999999e+00  8.256108849411650e-01 -3.393140768766017e-17
 1.429999999999999e+00  8.256108849411650e-01 -3.393140768766017e-17
 1.429999999999999e+00  8.256108849411650e-01 -3.393140768766017e-17
 1.429999999999999e+00  8.256108849411650e-01 -3.393140768766017e-17
 1.429999999999999e+00  8.256108849411650e-01 -3.393140768766017e-17
 1.429999999999999e+00  8.256108849411650e-01 -3.393140768766017e-17
 1.429999999999999e+00  8.256108849411650e-01 -3.393140768766017e-17
 1.429999999999999e+00  8.256108849411650e-01 -3.393140768766017e-17
 1.429999999999999e+00  8.256108849411650e-01 -3.393140768766017e-17
 1.429999999999999e+00  8.256108849411650e-01 -3.393140768766017e-17
 1.429999999999999e+00  8.256108849411650e-01 -3.393140768766017e-17
 1.429999999999999e+00  8.256108849411650e-01 -3.393140768766017e-17
 1.429999999999999e+00  8.256108849411650e-01 -3.393140768766017e-17
 1.429999999999999e+00  8.256108849411650e-01 -3.393140768766017e-17
 1.429999999999999e+00  8.256108849411650e-01 -3.393140768766017e-17
 1.429999999999999e+00  8.256108849411650e-01 -3.393140768766017e-17
 1.429999999999999e+00  8.256108849411650e-01 -3.393140768766017e-17
 1.429999999999999e+00  8.256108849411650e-01 -3.393140768766017e-17
 1.429999999999999e+00  8.256108849411650e-01 -3.393140768766017e-17
 1.429999999999999e+00  8.256108849411650e-01 -3.393140768766017e-17
 1.429999999999999e+00  8.256108849411650e-01 -3.393140768766017e-17
 1.429999999999999e+00  8.256108849411650e-01 -3.393140768766017e-17
 1.429999999999999e+00  8.256108849411650e-01 -3.393140768766017e-17
 1.429999999999999e+00  8.256108849411650e-01 -3.393140768766017e-17
 1.429999999999999e+00  8.256108849411650e-01 -3.393140768766017e-17
 1.429999999999999e+00  8.256108849411650e-01 -3.393140768766017e-17
 1.429999999999999e+00  8.256108849411650e-01 -3.393140768766017e-17
 1.429999999999999e+00  8.256108849411650e-01 -3.393140768766017e-17
 1.429999999999999e+00  8.256108849411650e-01 -3.393140768766017e-17
 1.429999999999999e+00  8.256108849411650e-01 -3.393140768766017e-17
 1.429999999999999e+00  8.256108849411650e-01 -3.393140768766017e-17
 1.429999999999999e+00  8.256108849411650e-01 -3.393140768766017e-17
 1.429999999999999e+00  8.256108849411650e-01 -3.393140768766017e-17
 1.429999999999999e+00  8.256108849411650e-01 -3.393140768766017e-17
 1.429999999999999e+00  8.256108849411650e-01 -3.393140768766017e-17
 1.429999999999999e+00  8.256108849411650e-01 -3.393140768766017e-17
 1.429999999999999e+00  8.256108849411650e-01 -3.393140768766017e-17
 1.429999999999999e+00  8.256108849411650e-01 -3.393140768766017e-17
 1.429999999999999e+00  8.256108849411650e-01 -3.393140768766017e-17
 1.429999999999999e+00  8.256108849411650e-01 -3.393140768766017e-17
 1.429999999999999e+00  8.256108849411650e-01 -3.393140768766017e-17
 1.429999999999999e+00  8.256108849411650e-01 -3.393140768766017e-17
 1.429999999999999e+00  8.256108849411650e-01 -3.393140768766017e-17
 1.429999999999999e+00  8.256108849411650e-01 -3.393140768766017e-17
 1.429999999999999e+00  8.256108849411650e-01 -3.393140768766017e-17
 1.429999999999999e+00  8.256108849411650e-01 -3.393140768766017e-17
 1.429999999999999e+00  8.256108849411650e-01 -3.393140768766017e-17
 1.429999999999999e+00  8.256108849411650e-01 -3.393140768766017e-17
 1.429999999999999e+00  8.256108849411650e-01 -3.393140768766017e-17
 1.429999999999999e+00  8.256108849411650e-01 -3.393140768766017e-17
 1.429999999999999e+00  8.256108849411650e-01 -3.393140768766017e-17
 1.429999999999999e+00  8.256108849411650e-01 -3.393140768766017e-17
 1.429999999999999e+00  8.256108849411650e-01 -3.393140768766017e-17
 1.429999999999999e+00  8.256108849411650e-01 -3.393140768766017e-17
 1.429999999999999e+00  8.256108849411650e-01 -3.393140768766017e-17
 1.429999999999999e+00  8.256108849411650e-01 -3.393140768766017e-17
 1.429999999999999e+00  8.256108849411650e-01 -3.393140768766017e-17
 1.429999999999999e+00  8.256108849411650e-01 -3.393140768766017e-17
 1.429999999999999e+00  8.256108849411650e-01 -3.393140768766017e-17
 1.429999999999999e+00  8.256108849411650e-01 -3.393140768766017e-17
 1.429999999999999e+00  8.256108849411650e-01 -3.393140768766017e-17
 1.429999999999999e+00  8.256108849411650e-01 -3.393140768766017e-17
 1.429999999999999e+00  8.256108849411650e-01 -3.393140768766017e-17
 1.429999999999999e+00  8.256108849411650e-01 -3.393140768766017e-17
 1.429999999999999e+00  8.256108849411650e-01 -3.393140768766017e-17
 1.429999999999999e+00  8.256108849411650e-01 -3.393140768766017e-17
 1.429999999999999e+00  8.256108849411650e-01 -3.393140768766017e-17
 1.429999999999999e+00  8.256108849411650e-01 -3.393140768766017e-17
 1.429999999999999e+00  8.256108849411650e-01 -3.393140768766017e-17
 1.429999999999999e+00  8.256108849411650e-01 -3.393140768766017e-17
 1.429999999999999e+00  8.256108849411650e-01 -3.393140768766017e-17
 1.429999999999999e+00  8.256108849411650e-01 -3.393140768766017e-17
 1.429999999999999e+00  8.256108849411650e-01 -3.393140768766017e-17
 1.429999999999999e+00  8.256108849411650e-01 -3.393140768766017e-17
 1.429999999999999e+00  8.256108849411650e-01 -3.393140768766017e-17
 1.429999999999999e+00  8.256108849411650e-01 -3.393140768766017e-17
 1.429999999999999e+00  8.256108849411650e-01 -3.393140768766017e-17
 1.429999999999999e+00  8.256108849411650e-01 -3.393140768766017e-17
 1.429999999999999e+00  8.256108849411650e-01 -3.393140768766017e-17
 1.429999999999999e+00  8.256108849411650e-01 -3.393140768766017e-17
 1.429999999999999e+00  8.256108849411650e-01 -3.393140768766017e-17
 1.429999999999999e+00  8.256108849411650e-01 -3.393140768766017e-17
 1.429999999999999e+00  8.256108849411650e-01 -3.393140768766017e-17
 1.429999999999999e+00  8.256108849411650e-01 -3.393140768766017e-17
 1.429999999999999e+00  8.256108849411650e-01 -3.393140768766017e-17
 1.429999999999999e+00  8.256108849411650e-01 -3.393140768766017e-17
 1.429999999999999e+00  8.256108849411650e-01 -3.393140768766017e-17
 1.429999999999999e+00  8.256108849411650e-01 -3.393140768766017e-17
 1.429999999999999e+00  8.256108849411650e-01 -3.393140768766017e-17
 1.429999999999999e+00  8.256108849411650e-01 -3.393140768766017e-17
 1.429999999999999e+00  8.256108849411650e-01 -3.393140768766017e-17
 1.429999999999999e+00  8.256108849411650e-01 -3.393140768766017e-17
 1.429999999999999e+00  8.256108849411650e-01 -3.393140768766017e-17
 1.429999999999999e+00  8.256108849411650e-01 -3.393140768766017e-17
 1.429999999999999e+00  8.256108849411650e-01 -3.393140768766017e-17
 1.429999999999999e+00  8.256108849411650e-01 -3.393140768766017e-17
 1.429999999999999e+00  8.256108849411650e-01 -3.393140768766017e-17
 1.429999999999999e+00  8.256108849411650e-01 -3.393140768766017e-17
 1.429999999999999e+00  8.256108849411650e-01 -3.393140768766017e-17
 1.429999999999999e+00  8.256108849411650e-01 -3.393140768766017e-17
 1.429999999999999e+00  8.256108849411650e-01 -3.393140768766017e-17
 1.429999999999999e+00  8.256108849411650e-01 -3.393140768766017e-17
 1.429999999999999e+00  8.256108849411650e-01 -3.393140768766017e-17
 1.429999999999999e+00  8.256108849411650e-01 -3.393140768766017e-17
 1.429999999999999e+00  8.256108849411650e-01 -3.393140768766017e-17
 1.429999999999999e+00  8.256108849411650e-01 -3.393140768766017e-17
 1.429999999999999e+00  8.256108849411650e-01 -3.393140768766017e-17
 1.429999999999999e+00  8.256108849411650e-01 -3.393140768766017e-17
 1.429999999999999e+00  8.256108849411650e-01 -3.393140768766017e-17
 1.429999999999999e+00  8.256108849411650e-01 -3.393140768766017e-17
 1.429999999999999e+00  8.256108849411650e-01 -3.393140768766017e-17
-1.429999999999999e+00  8.256108849411650e-01  1.696570384383008e-17
 1.429999999999999e+00 -8.256108849411650e-01 -1.696570384383008e-17
-1.429999999999999e+00  8.256108849411650e-01  1.696570384383008e-17
-1.429999999999999e+00  8.256108849411650e-01  1.696570384383008e-17
-1.429999999999999e+00  8.256108849411650e-01  1.696570384383008e-17
-1.429999999999999e+00  8.256108849411650e-01  1.696570384383008e-17
-1.429999999999999e+00  8.256108849411650e-01  1.696570384383008e-17
-1.429999999999999e+00  8.256108849411650e-01  1.696570384383008e-17
-1.429999999999999e+00  8.256108849411650e-01  1.696570384383008e-17
-1.429999999999999e+00  8.256108849411650e-01  1.696570384383008e-17
-1.429999999999999e+00  8.256108849411650e-01  1.696570384383008e-17
-1.429999999999999e+00  8.256108849411650e-01  1.696570384383008e-17
-1.429999999999999e+00  8.256108849411650e-01  1.696570384383008e-17
-1.429999999999999e+00  8.256108849411650e-01  1.696570384383008e-17
-1.429999999999999e+00  8.256108849411650e-01  1.696570384383008e-17
-1.429999999999999e+00  8.256108849411650e-01  1.696570384383008e-17
-1.429999999999999e+00  8.256108849411650e-01  1.696570384383008e-17
-1.429999999999999e+00  8.256108849411650e-01  1.696570384383008e-17
-1.429999999999999e+00  8.256108849411650e-01  1.696570384383008e-17
-1.429999999999999e+00  8.256108849411650e-01  1.696570384383008e-17
-1.429999999999999e+00  8.256108849411650e-01  1.696570384383008e-17
-1.429999999999999e+00  8.256108849411650e-01  1.696570384383008e-17
-1.429999999999999e+00  8.256108849411650e-01  1.696570384383008e-17
-1.429999999999999e+00  8.256108849411650e-01  1.696570384383008e-17
-1.429999999999999e+00  8.256108849411650e-01  1.696570384383008e-17
-1.429999999999999e+00  8.256108849411650e-01  1.696570384383008e-17
-1.429999999999999e+00  8.256108849411650e-01  1.696570384383008e-17
-1.429999999999999e+00  8.256108849411650e-01  1.696570384383008e-17
-1.429999999999999e+00  8.256108849411650e-01  1.696570384383008e-17
-1.429999999999999e+00  8.256108849411650e-01  1.696570384383008e-17
-1.429999999999999e+00  8.256108849411650e-01  1.696570384383008e-17
-1.429999999999999e+00  8.256108849411650e-01  1.696570384383008e-17
-1.429999999999999e+00  8.256108849411650e-01  1.696570384383008e-17
-1.429999999999999e+00  8.256108849411650e-01  1.696570384383008e-17
-1.429999999999999e+00  8.256108849411650e-01  1.696570384383008e-17
-1.429999999999999e+00  8.256108849411650e-01  1.696570384383008e-17
-1.429999999999999e+00  8.256108849411650e-01  1.696570384383008e-17
-1.429999999999999e+00  8.256108849411650e-01  1.696570384383008e-17
-1.429999999999999e+00  8.256108849411650e-01  1.696570384383008e-17
-1.429999999999999e+00  8.256108849411650e-01  1.696570384383008e-17
-1.429999999999999e+00  8.256108849411650e-01  1.696570384383008e-17
-1.429999999999999e+00  8.256108849411650e-01  1.696570384383008e-17
-1.429999999999999e+00  8.256108849411650e-01  1.696570384383008e-17
-1.429999999999999e+00  8.256108849411650e-01  1.696570384383008e-17
-1.429999999999999e+00  8.256108849411650e-01  1.696570384383008e-17
-1.429999999999999e+00  8.256108849411650e-01  1.696570384383008e-17
-1.429999999999999e+00  8.256108849411650e-01  1.696570384383008e-17
-1.429999999999999e+00  8.256108849411650e-01  1.696570384383008e-17
-1.429999999999999e+00  8.256108849411650e-01  1.696570384383008e-17
-1.429999999999999e+00  8.256108849411650e-01  1.696570384383008e-17
-1.429999999999999e+00  8.256108849411650e-01  1.696570384383008e-17
-1.429999999999999e+00  8.256108849411650e-01  1.696570384383008e-17
-1.429999999999999e+00  8.256108849411650e-01  1.696570384383008e-17
-1.429999999999999e+00  8.256108849411650e-01  1.696570384383008e-17
-1.429999999999999e+00  8.256108849411650e-01  1.696570384383008e-17
-1.429999999999999e+00  8.256108849411650e-01  1.696570384383008e-17
-1.429999999999999e+00  8.256108849411650e-01  1.696570384383008e-17
-1.429999999999999e+00  8.256108849411650e-01  1.696570384383008e-17
-1.429999999999999e+00  8.256108849411650e-01  1.696570384383008e-17
-1.429999999999999e+00  8.256108849411650e-01  1.696570384383008e-17
-1.429999999999999e+00  8.256108849411650e-01  1.696570384383008e-17
-1.429999999999999e+00  8.256108849411650e-01  1.696570384383008e-17
-1.429999999999999e+00  8.256108849411650e-01  1.696570384383008e-17
-1.429999999999999e+00  8.256108849411650e-01  1.696570384383008e-17
-1.429999999999999e+00  8.256108849411650e-01  1.696570384383008e-17
-1.429999999999999e+00  8.256108849411650e-01  1.696570384383008e-17
-1.429999999999999e+00  8.256108849411650e-01  1.696570384383008e-17
-1.429999999999999e+00  8.256108849411650e-01  1.696570384383008e-17
-1.429999999999999e+00  8.256108849411650e-01  1.696570384383008e-17
-1.429999999999999e+00  8.256108849411650e-01  1.696570384383008e-17
-1.429999999999999e+00  8.256108849411650e-01  1.696570384383008e-17
-1.429999999999999e+00  8.256108849411650e-01  1.696570384383008e-17
-1.429999999999999e+00  8.256108849411650e-01  1.696570384383008e-17
-1.429999999999999e+00  8.256108849411650e-01  1.696570384383008e-17
-1.429999999999999e+00  8.256108849411650e-01  1.696570384383008e-17
-1.429999999999999e+00  8.256108849411650e-01  1.696570384383008e-17
-1.429999999999999e+00  8.256108849411650e-01  1.696570384383008e-17
-1.429999999999999e+00  8.256108849411650e-01  1.696570384383008e-17
-1.429999999999999e+00  8.256108849411650e-01  1.696570384383008e-17
-1.429999999999999e+00  8.256108849411650e-01  1.696570384383008e-17
-1.429999999999999e+00  8.256108849411650e-01  1.696570384383008e-17
-1.429999999999999e+00  8.256108849411650e-01  1.696570384383008e-17
-1.429999999999999e+00  8.256108849411650e-01  1.696570384383008e-17
-1.429999999999999e+00  8.256108849411650e-01  1.696570384383008e-17
-1.429999999999999e+00  8.256108849411650e-01  1.696570384383008e-17
-1.429999999999999e+00  8.256108849411650e-01  1.696570384383008e-17
-1.429999999999999e+00  8.256108849411650e-01  1.696570384383008e-17
-1.429999999999999e+00  8.256108849411650e-01  1.696570384383008e-17
-1.429999999999999e+00  8.256108849411650e-01  1.696570384383008e-17
-1.429999999999999e+00  8.256108849411650e-01  1.696570384383008e-17
-1.429999999999999e+00  8.256108849411650e-01  1.696570384383008e-17
-1.429999999999999e+00  8.256108849411650e-01  1.696570384383008e-17
-1.429999999999999e+00  8.256108849411650e-01  1.696570384383008e-17
-1.429999999999999e+00  8.256108849411650e-01  1.696570384383008e-17
-1.429999999999999e+00  8.256108849411650e-01  1.696570384383008e-17
-1.429999999999999e+00  8.256108849411650e-01  1.696570384383008e-17
-1.429999999999999e+00  8.256108849411650e-01  1.696570384383008e-17
-1.429999999999999e+00  8.256108849411650e-01  1.696570384383008e-17
-1.429999999999999e+00  8.256108849411650e-01  1.696570384383008e-17
-1.429999999999999e+00  8.256108849411650e-01  1.696570384383008e-17
-1.429999999999999e+00  8.256108849411650e-01  1.696570384383008e-17
-1.429999999999999e+00  8.256108849411650e-01  1.696570384383008e-17
-1.429999999999999e+00  8.256108849411650e-01  1.696570384383008e-17
-1.429999999999999e+00  8.256108849411650e-01  1.696570384383008e-17
-1.429999999999999e+00  8.256108849411650e-01  1.696570384383008e-17
-1.429999999999999e+00  8.256108849411650e-01  1.696570384383008e-17
-1.429999999999999e+00  8.256108849411650e-01  1.696570384383008e-17
-1.429999999999999e+00  8.256108849411650e-01  1.696570384383008e-17
-1.429999999999999e+00  8.256108849411650e-01  1.696570384383008e-17
-1.429999999999999e+00  8.256108849411650e-01  1.696570384383008e-17
-1.429999999999999e+00  8.256108849411650e-01  1.696570384383008e-17
-1.429999999999999e+00  8.256108849411650e-01  1.696570384383008e-17
-1.429999999999999e+00  8.256108849411650e-01  1.696570384383008e-17
-1.429999999999999e+00  8.256108849411650e-01  1.696570384383008e-17
-1.429999999999999e+00  8.256108849411650e-01  1.696570384383008e-17
-1.429999999999999e+00  8.256108849411650e-01  1.696570384383008e-17
-1.429999999999999e+00  8.256108849411650e-01  1.696570384383008e-17
-1.429999999999999e+00  8.256108849411650e-01  1.696570384383008e-17
-1.429999999999999e+00  8.256108849411650e-01  1.696570384383008e-17
-1.429999999999999e+00  8.256108849411650e-01  1.696570384383008e-17
-1.429999999999999e+00  8.256108849411650e-01  1.696570384383008e-17
-1.429999999999999e+00  8.256108849411650e-01  1.696570384383008e-17
-1.429999999999999e+00  8.256108849411650e-01  1.696570384383008e-17
-1.429999999999999e+00  8.256108849411650e-01  1.696570384383008e-17
-1.429999999999999e+00  8.256108849411650e-01  1.696570384383008e-17
-1.429999999999999e+00  8.256108849411650e-01  1.696570384383008e-17
-1.429999999999999e+00  8.256108849411650e-01  1.696570384383008e-17
-1.429999999999999e+00  8.256108849411650e-01  1.696570384383008e-17
-1.429999999999999e+00  8.256108849411650e-01  1.696570384383008e-17
-1.429999999999999e+00  8.256108849411650e-01  1.696570384383008e-17
-1.429999999999999e+00  8.256108849411650e-01  1.696570384383008e-17
-1.429999999999999e+00  8.256108849411650e-01  1.696570384383008e-17
-1.429999999999999e+00  8.256108849411650e-01  1.696570384383008e-17
-1.429999999999999e+00  8.256108849411650e-01  1.696570384383008e-17
-1.429999999999999e+00  8.256108849411650e-01  1.696570384383008e-17
-1.429999999999999e+00  8.256108849411650e-01  1.696570384383008e-17
-1.429999999999999e+00  8.256108849411650e-01  1.696570384383008e-17
-1.429999999999999e+00  8.256108849411650e-01  1.696570384383008e-17
-1.429999999999999e+00  8.256108849411650e-01  1.696570384383008e-17
-1.429999999999999e+00  8.256108849411650e-01  1.696570384383008e-17
-1.429999999999999e+00  8.256108849411650e-01  1.696570384383008e-17
-1.429999999999999e+00  8.256108849411650e-01  1.696570384383008e-17
-1.429999999999999e+00  8.256108849411650e-01  1.696570384383008e-17
-1.429999999999999e+00  8.256108849411650e-01  1.696570384383008e-17
-1.429999999999999e+00  8.256108849411650e-01  1.696570384383008e-17
-1.429999999999999e+00  8.256108849411650e-01  1.696570384383008e-17
-1.429999999999999e+00  8.256108849411650e-01  1.696570384383008e-17
-1.429999999999999e+00  8.256108849411650e-01  1.696570384383008e-17
-1.429999999999999e+00  8.256108849411650e-01  1.696570384383008e-17
-1.429999999999999e+00  8.256108849411650e-01  1.696570384383008e-17
-1.429999999999999e+00  8.256108849411650e-01  1.696570384383008e-17
-1.429999999999999e+00  8.256108849411650e-01  1.696570384383008e-17
-1.429999999999999e+00  8.256108849411650e-01  1.696570384383008e-17
-1.429999999999999e+00  8.256108849411650e-01  1.696570384383008e-17
-1.429999999999999e+00  8.256108849411650e-01  1.696570384383008e-17
-1.429999999999999e+00  8.256108849411650e-01  1.696570384383008e-17
-1.429999999999999e+00  8.256108849411650e-01  1.696570384383008e-17
-1.429999999999999e+00  8.256108849411650e-01  1.696570384383008e-17
-1.429999999999999e+00  8.256108849411650e-01  1.696570384383008e-17
-1.429999999999999e+00  8.256108849411650e-01  1.696570384383008e-17
-1.429999999999999e+00  8.256108849411650e-01  1.696570384383008e-17
-1.429999999999999e+00  8.256108849411650e-01  1.696570384383008e-17
-1.429999999999999e+00  8.256108849411650e-01  1.696570384383008e-17
-1.429999999999999e+00  8.256108849411650e-01  1.696570384383008e-17
-1.429999999999999e+00  8.256108849411650e-01  1.696570384383008e-17
-1.429999999999999e+00  8.256108849411650e-01  1.696570384383008e-17
-1.429999999999999e+00  8.256108849411650e-01  1.696570384383008e-17
-1.429999999999999e+00  8.256108849411650e-01  1.696570384383008e-17
-1.429999999999999e+00  8.256108849411650e-01  1.696570384383008e-17
-1.429999999999999e+00  8.256108849411650e-01  1.696570384383008e-17
-1.429999999999999e+00  8.256108849411650e-01  1.696570384383008e-17
-1.429999999999999e+00  8.256108849411650e-01  1.696570384383008e-17
-1.429999999999999e+00  8.256108849411650e-01  1.696570384383008e-17
-1.429999999999999e+00  8.256108849411650e-01  1.696570384383008e-17
-1.429999999999999e+00  8.256108849411650e-01  1.696570384383008e-17
-1.429999999999999e+00  8.256108849411650e-01  1.696570384383008e-17
-1.429999999999999e+00  8.256108849411650e-01  1.696570384383008e-17
-1.429999999999999e+00  8.256108849411650e-01  1.696570384383008e-17
-1.429999999999999e+00  8.256108849411650e-01  1.696570384383008e-17
-1.429999999999999e+00  8.256108849411650e-01  1.696570384383008e-17
-1.429999999999999e+00  8.256108849411650e-01  1.696570384383008e-17
-1.429999999999999e+00  8.256108849411650e-01  1.696570384383008e-17
-1.429999999999999e+00  8.256108849411650e-01  1.696570384383008e-17
-1.429999999999999e+00  8.256108849411650e-01  1.696570384383008e-17
-1.429999999999999e+00  8.256108849411650e-01  1.696570384383008e-17
-1.429999999999999e+00  8.256108849411650e-01  1.696570384383008e-17
-1.429999999999999e+00  8.256108849411650e-01  1.696570384383008e-17
-1.429999999999999e+00  8.256108849411650e-01  1.696570384383008e-17
-1.429999999999999e+00  8.256108849411650e-01  1.696570384383008e-17
-1.429999999999999e+00  8.256108849411650e-01  1.696570384383008e-17
-1.429999999999999e+00  8.256108849411650e-01  1.696570384383008e-17
-1.429999999999999e+00  8.256108849411650e-01  1.696570384383008e-17
-1.429999999999999e+00  8.256108849411650e-01  1.696570384383008e-17
-1.429999999999999e+00  8.256108849411650e-01  1.696570384383008e-17
-1.429999999999999e+00  8.256108849411650e-01  1.696570384383008e-17
-1.429999999999999e+00  8.256108849411650e-01  1.696570384383008e-17
-1.429999999999999e+00  8.256108849411650e-01  1.696570384383008e-17
-1.429999999999999e+00  8.256108849411650e-01  1.696570384383008e-17
-1.429999999999999e+00  8.256108849411650e-01  1.696570384383008e-17
-1.429999999999999e+00  8.256108849411650e-01  1.696570384383008e-17
-1.429999999999999e+00  8.256108849411650e-01  1.696570384383008e-17
-1.429999999999999e+00  8.256108849411650e-01  1.696570384383008e-17
-1.429999999999999e+00  8.256108849411650e-01  1.696570384383008e-17
-1.429999999999999e+00  8.256108849411650e-01  1.696570384383008e-17
-1.429999999999999e+00  8.256108849411650e-01  1.696570384383008e-17
-1.429999999999999e+00  8.256108849411650e-01  1.696570384383008e-17
-1.429999999999999e+00  8.256108849411650e-01  1.696570384383008e-17
-1.429999999999999e+00  8.256108849411650e-01  1.696570384383008e-17
-1.429999999999999e+00  8.256108849411650e-01  1.696570384383008e-17
-1.429999999999999e+00  8.256108849411650e-01  1.696570384383008e-17
-1.429999999999999e+00  8.256108849411650e-01  1.696570384383008e-17
-1.429999999999999e+00  8.256108849411650e-01  1.696570384383008e-17
-1.429999999999999e+00  8.256108849411650e-01  1.696570384383008e-17
-1.429999999999999e+00  8.256108849411650e-01  1.696570384383008e-17
-1.429999999999999e+00  8.256108849411650e-01  1.696570384383008e-17
-1.429999999999999e+00  8.256108849411650e-01  1.696570384383008e-17
-1.429999999999999e+00  8.256108849411650e-01  1.696570384383008e-17
-1.429999999999999e+00  8.256108849411650e-01  1.696570384383008e-17
-1.429999999999999e+00  8.256108849411650e-01  1.696570384383008e-17
-1.429999999999999e+00  8.256108849411650e-01  1.696570384383008e-17
-1.429999999999999e+00  8.256108849411650e-01  1.696570384383008e-17
-1.429999999999999e+00  8.256108849411650e-01  1.696570384383008e-17
-1.429999999999999e+00  8.256108849411650e-01  1.696570384383008e-17
-1.429999999999999e+00  8.256108849411650e-01  1.696570384383008e-17
-1.429999999999999e+00  8.256108849411650e-01  1.696570384383008e-17
-1.429999999999999e+00  8.256108849411650e-01  1.696570384383008e-17
-1.429999999999999e+00  8.256108849411650e-01  1.696570384383008e-17
-1.429999999999999e+00  8.256108849411650e-01  1.696570384383008e-17
-1.429999999999999e+00  8.256108849411650e-01  1.696570384383008e-17
-1.429999999999999e+00  8.256108849411650e-01  1.696570384383008e-17
-1.429999999999999e+00  8.256108849411650e-01  1.696570384383008e-17
-1.429999999999999e+00  8.256108849411650e-01  1.696570384383008e-17
-1.429999999999999e+00  8.256108849411650e-01  1.696570384383008e-17
-1.429999999999999e+00  8.256108849411650e-01  1.696570384383008e-17
-1.429999999999999e+00  8.256108849411650e-01  1.696570384383008e-17
-1.429999999999999e+00  8.256108849411650e-01  1.696570384383008e-17
-1.429999999999999e+00  8.256108849411650e-01  1.696570384383008e-17
-1.429999999999999e+00  8.256108849411650e-01  1.696570384383008e-17
-1.429999999999999e+00  8.256108849411650e-01  1.696570384383008e-17
-1.429999999999999e+00  8.256108849411650e-01  1.696570384383008e-17
-1.429999999999999e+00  8.256108849411650e-01  1.696570384383008e-17
-1.429999999999999e+00  8.256108849411650e-01  1.696570384383008e-17
-1.429999999999999e+00  8.256108849411650e-01  1.696570384383008e-17
-1.429999999999999e+00  8.256108849411650e-01  1.696570384383008e-17
-1.429999999999999e+00  8.256108849411650e-01  1.696570384383008e-17
-1.429999999999999e+00  8.256108849411650e-01  1.696570384383008e-17
-1.429999999999999e+00  8.256108849411650e-01  1.696570384383008e-17
-1.429999999999999e+00  8.256108849411650e-01  1.696570384383008e-17
-1.429999999999999e+00  8.256108849411650e-01  1.696570384383008e-17
-1.429999999999999e+00  8.256108849411650e-01  1.696570384383008e-17
-1.429999999999999e+00  8.256108849411650e-01  1.696570384383008e-17
-1.429999999999999e+00  8.256108849411650e-01  1.696570384383008e-17
-1.429999999999999e+00  8.256108849411650e-01  1.696570384383008e-17
-1.429999999999999e+00  8.256108849411650e-01  1.696570384383008e-17
-1.429999999999999e+00  8.256108849411650e-01  1.696570384383008e-17
-1.429999999999999e+00  8.256108849411650e-01  1.696570384383008e-17
-1.429999999999999e+00  8.256108849411650e-01  1.696570384383008e-17
-1.429999999999999e+00  8.256108849411650e-01  1.696570384383008e-17
-1.429999999999999e+00  8.256108849411650e-01  1.696570384383008e-17
-1.429999999999999e+00  8.256108849411650e-01  1.696570384383008e-17
-1.429999999999999e+00  8.256108849411650e-01  1.696570384383008e-17
-1.429999999999999e+00  8.256108849411650e-01  1.696570384383008e-17
-1.429999999999999e+00  8.256108849411650e-01  1.696570384383008e-17
-1.429999999999999e+00  8.256108849411650e-01  1.696570384383008e-17
-1.429999999999999e+00  8.256108849411650e-01  1.696570384383008e-17
-1.429999999999999e+00  8.256108849411650e-01  1.696570384383008e-17
-1.429999999999999e+00  8.256108849411650e-01  1.696570384383008e-17
-1.429999999999999e+00  8.256108849411650e-01  1.696570384383008e-17
-1.429999999999999e+00  8.256108849411650e-01  1.696570384383008e-17
-1.429999999999999e+00  8.256108849411650e-01  1.696570384383008e-17
-1.429999999999999e+00  8.256108849411650e-01  1.696570384383008e-17
-1.429999999999999e+00  8.256108849411650e-01  1.696570384383008e-17
-1.429999999999999e+00  8.256108849411650e-01  1.696570384383008e-17
-1.429999999999999e+00  8.256108849411650e-01  1.696570384383008e-17
-1.429999999999999e+00  8.256108849411650e-01  1.696570384383008e-17
-1.429999999999999e+00  8.256108849411650e-01  1.696570384383008e-17
-1.429999999999999e+00  8.256108849411650e-01  1.696570384383008e-17
-1.429999999999999e+00  8.256108849411650e-01  1.696570384383008e-17
-1.429999999999999e+00  8.256108849411650e-01  1.696570384383008e-17
-1.429999999999999e+00  8.256108849411650e-01  1.696570384383008e-17
-1.429999999999999e+00  8.256108849411650e-01  1.696570384383008e-17
-1.429999999999999e+00  8.256108849411650e-01  1.696570384383008e-17
-1.429999999999999e+00  8.256108849411650e-01  1.696570384383008e-17
-1.429999999999999e+00  8.256108849411650e-01  1.696570384383008e-17
-1.429999999999999e+00  8.256108849411650e-01  1.696570384383008e-17
-1.429999999999999e+00  8.256108849411650e-01  1.696570384383008e-17
-1.429999999999999e+00  8.256108849411650e-01  1.696570384383008e-17
-1.429999999999999e+00  8.256108849411650e-01  1.696570384383008e-17
-1.429999999999999e+00  8.256108849411650e-01  1.696570384383008e-17
-1.429999999999999e+00  8.256108849411650e-01  1.696570384383008e-17
-1.429999999999999e+00  8.256108849411650e-01  1.696570384383008e-17
-1.429999999999999e+00  8.256108849411650e-01  1.696570384383008e-17
-1.429999999999999e+00  8.256108849411650e-01  1.696570384383008e-17
-1.429999999999999e+00  8.256108849411650e-01  1.696570384383008e-17
-1.429999999999999e+00  8.256108849411650e-01  1.696570384383008e-17
-1.429999999999999e+00  8.256108849411650e-01  1.696570384383008e-17
-1.429999999999999e+00  8.256108849411650e-01  1.696570384383008e-17
-1.429999999999999e+00  8.256108849411650e-01  1.696570384383008e-17
-1.429999999999999e+00  8.256108849411650e-01  1.696570384383008e-17
-1.429999999999999e+00  8.256108849411650e-01  1.696570384383008e-17
-1.429999999999999e+00  8.256108849411650e-01  1.696570384383008e-17
-1.429999999999999e+00  8.256108849411650e-01  1.696570384383008e-17
-1.429999999999999e+00  8.256108849411650e-01  1.696570384383008e-17
-1.429999999999999e+00  8.256108849411650e-01  1.696570384383008e-17
-1.429999999999999e+00  8.256108849411650e-01  1.696570384383008e-17
-1.429999999999999e+00  8.256108849411650e-01  1.696570384383008e-17
-1.429999999999999e+00  8.256108849411650e-01  1.696570384383008e-17
-1.429999999999999e+00  8.256108849411650e-01  1.696570384383008e-17
-1.429999999999999e+00  8.256108849411650e-01  1.696570384383008e-17
-1.429999999999999e+00  8.256108849411650e-01  1.696570384383008e-17
-1.429999999999999e+00  8.256108849411650e-01  1.696570384383008e-17
-1.429999999999999e+00  8.256108849411650e-01  1.696570384383008e-17
-1.429999999999999e+00  8.256108849411650e-01  1.696570384383008e-17
-1.429999999999999e+00  8.256108849411650e-01  1.696570384383008e-17
-1.429999999999999e+00  8.256108849411650e-01  1.696570384383008e-17
-1.429999999999999e+00  8.256108849411650e-01  1.696570384383008e-17
-1.429999999999999e+00  8.256108849411650e-01  1.696570384383008e-17
 1.429999999999999e+00 -8.256108849411650e-01 -1.696570384383008e-17
-1.429999999999999e+00  8.256108849411650e-01  1.696570384383008e-17
-1.429999999999999e+00  8.256108849411650e-01  1.696570384383008e-17
-1.429999999999999e+00  8.256108849411650e-01  1.696570384383008e-17
-1.429999999999999e+00  8.256108849411650e-01  1.696570384383008e-17
-1.429999999999999e+00  8.256108849411650e-01  1.696570384383008e-17
-1.429999999999999e+00  8.256108849411650e-01  1.696570384383008e-17
-1.429999999999999e+00  8.256108849411650e-01  1.696570384383008e-17
-1.429999999999999e+00  8.256108849411650e-01  1.696570384383008e-17
-1.429999999999999e+00  8.256108849411650e-01  1.696570384383008e-17
-1.429999999999999e+00  8.256108849411650e-01  1.696570384383008e-17
-1.429999999999999e+00  8.256108849411650e-01  1.696570384383008e-17
-1.429999999999999e+00  8.256108849411650e-01  1.696570384383008e-17
-1.429999999999999e+00  8.256108849411650e-01  1.696570384383008e-17
-1.429999999999999e+00  8.256108849411650e-01  1.696570384383008e-17
-1.429999999999999e+00  8.256108849411650e-01  1.696570384383008e-17
-1.429999999999999e+00  8.256108849411650e-01  1.696570384383008e-17
-1.429999999999999e+00  8.256108849411650e-01  1.696570384383008e-17
-1.429999999999999e+00  8.256108849411650e-01  1.696570384383008e-17
-1.429999999999999e+00  8.256108849411650e-01  1.696570384383008e-17
-1.429999999999999e+00  8.256108849411650e-01  1.696570384383008e-17
-1.429999999999999e+00  8.256108849411650e-01  1.696570384383008e-17
-1.429999999999999e+00  8.256108849411650e-01  1.696570384383008e-17
-1.429999999999999e+00  8.256108849411650e-01  1.696570384383008e-17
-1.429999999999999e+00  8.256108849411650e-01  1.696570384383008e-17
-1.429999999999999e+00  8.256108849411650e-01  1.696570384383008e-17
-1.429999999999999e+00  8.256108849411650e-01  1.696570384383008e-17
-1.429999999999999e+00  8.256108849411650e-01  1.696570384383008e-17
-1.429999999999999e+00  8.256108849411650e-01  1.696570384383008e-17
-1.429999999999999e+00  8.256108849411650e-01  1.696570384383008e-17
-1.429999999999999e+00  8.256108849411650e-01  1.696570384383008e-17
-1.429999999999999e+00  8.256108849411650e-01  1.696570384383008e-17
-1.429999999999999e+00  8.256108849411650e-01  1.696570384383008e-17
-1.429999999999999e+00  8.256108849411650e-01  1.696570384383008e-17
-1.429999999999999e+00  8.256108849411650e-01  1.696570384383008e-17
-1.429999999999999e+00  8.256108849411650e-01  1.696570384383008e-17
-1.429999999999999e+00  8.256108849411650e-01  1.696570384383008e-17
-1.429999999999999e+00  8.256108849411650e-01  1.696570384383008e-17
-1.429999999999999e+00  8.256108849411650e-01  1.696570384383008e-17
-1.429999999999999e+00  8.256108849411650e-01  1.696570384383008e-17
-1.429999999999999e+00  8.256108849411650e-01  1.696570384383008e-17
-1.429999999999999e+00  8.256108849411650e-01  1.696570384383008e-17
-1.429999999999999e+00  8.256108849411650e-01  1.696570384383008e-17
-1.429999999999999e+00  8.256108849411650e-01  1.696570384383008e-17
-1.429999999999999e+00  8.256108849411650e-01  1.696570384383008e-17
-1.429999999999999e+00  8.256108849411650e-01  1.696570384383008e-17
-1.429999999999999e+00  8.256108849411650e-01  1.696570384383008e-17
-1.429999999999999e+00  8.256108849411650e-01  1.696570384383008e-17
-1.429999999999999e+00  8.256108849411650e-01  1.696570384383008e-17
-1.429999999999999e+00  8.256108849411650e-01  1.696570384383008e-17
-1.429999999999999e+00  8.256108849411650e-01  1.696570384383008e-17
-1.429999999999999e+00  8.256108849411650e-01  1.696570384383008e-17
-1.429999999999999e+00  8.256108849411650e-01  1.696570384383008e-17
-1.429999999999999e+00  8.256108849411650e-01  1.696570384383008e-17
-1.429999999999999e+00  8.256108849411650e-01  1.696570384383008e-17
-1.429999999999999e+00  8.256108849411650e-01  1.696570384383008e-17
-1.429999999999999e+00  8.256108849411650e-01  1.696570384383008e-17
-1.429999999999999e+00  8.256108849411650e-01  1.696570384383008e-17
-1.429999999999999e+00  8.256108849411650e-01  1.696570384383008e-17
-1.429999999999999e+00  8.256108849411650e-01  1.696570384383008e-17
-1.429999999999999e+00  8.256108849411650e-01  1.696570384383008e-17
-1.429999999999999e+00  8.256108849411650e-01  1.696570384383008e-17
-1.429999999999999e+00  8.256108849411650e-01  1.696570384383008e-17
-1.429999999999999e+00  8.256108849411650e-01  1.696570384383008e-17
-1.429999999999999e+00  8.256108849411650e-01  1.696570384383008e-17
-1.429999999999999e+00  8.256108849411650e-01  1.696570384383008e-17
-1.429999999999999e+00  8.256108849411650e-01  1.696570384383008e-17
-1.429999999999999e+00  8.256108849411650e-01  1.696570384383008e-17
-1.429999999999999e+00  8.256108849411650e-01  1.696570384383008e-17
-1.429999999999999e+00  8.256108849411650e-01  1.696570384383008e-17
-1.429999999999999e+00  8.256108849411650e-01  1.696570384383008e-17
-1.429999999999999e+00  8.256108849411650e-01  1.696570384383008e-17
-1.429999999999999e+00  8.256108849411650e-01  1.696570384383008e-17
-1.429999999999999e+00  8.256108849411650e-01  1.696570384383008e-17
-1.429999999999999e+00  8.256108849411650e-01  1.696570384383008e-17
-1.429999999999999e+00  8.256108849411650e-01  1.696570384383008e-17
-1.429999999999999e+00  8.256108849411650e-01  1.696570384383008e-17
-1.429999999999999e+00  8.256108849411650e-01  1.696570384383008e-17
-1.429999999999999e+00  8.256108849411650e-01  1.696570384383008e-17
-1.429999999999999e+00  8.256108849411650e-01  1.696570384383008e-17
-1.429999999999999e+00  8.256108849411650e-01  1.696570384383008e-17
-1.429999999999999e+00  8.256108849411650e-01  1.696570384383008e-17
-1.429999999999999e+00  8.256108849411650e-01  1.696570384383008e-17
-1.429999999999999e+00  8.256108849411650e-01  1.696570384383008e-17
-1.429999999999999e+00  8.256108849411650e-01  1.696570384383008e-17
-1.429999999999999e+00  8.256108849411650e-01  1.696570384383008e-17
-1.429999999999999e+00  8.256108849411650e-01  1.696570384383008e-17
-1.429999999999999e+00  8.256108849411650e-01  1.696570384383008e-17
-1.429999999999999e+00  8.256108849411650e-01  1.696570384383008e-17
-1.429999999999999e+00  8.256108849411650e-01  1.696570384383008e-17
-1.429999999999999e+00  8.256108849411650e-01  1.696570384383008e-17
-1.429999999999999e+00  8.256108849411650e-01  1.696570384383008e-17
-1.429999999999999e+00  8.256108849411650e-01  1.696570384383008e-17
-1.429999999999999e+00  8.256108849411650e-01  1.696570384383008e-17
-1.429999999999999e+00  8.256108849411650e-01  1.696570384383008e-17
-1.429999999999999e+00  8.256108849411650e-01  1.696570384383008e-17
-1.429999999999999e+00  8.256108849411650e-01  1.696570384383008e-17
-1.429999999999999e+00  8.256108849411650e-01  1.696570384383008e-17
-1.429999999999999e+00  8.256108849411650e-01  1.696570384383008e-17
-1.429999999999999e+00  8.256108849411650e-01  1.696570384383008e-17
-1.429999999999999e+00  8.256108849411650e-01  1.696570384383008e-17
-1.429999999999999e+00  8.256108849411650e-01  1.696570384383008e-17
-1.429999999999999e+00  8.256108849411650e-01  1.696570384383008e-17
-1.429999999999999e+00  8.256108849411650e-01  1.696570384383008e-17
-1.429999999999999e+00  8.256108849411650e-01  1.696570384383008e-17
-1.429999999999999e+00  8.256108849411650e-01  1.696570384383008e-17
-1.429999999999999e+00  8.256108849411650e-01  1.696570384383008e-17
-1.429999999999999e+00  8.256108849411650e-01  1.696570384383008e-17
-1.429999999999999e+00  8.256108849411650e-01  1.696570384383008e-17
-1.429999999999999e+00  8.256108849411650e-01  1.696570384383008e-17
-1.429999999999999e+00  8.256108849411650e-01  1.696570384383008e-17
-1.429999999999999e+00  8.256108849411650e-01  1.696570384383008e-17
-1.429999999999999e+00  8.256108849411650e-01  1.696570384383008e-17
-1.429999999999999e+00  8.256108849411650e-01  1.696570384383008e-17
-1.429999999999999e+00  8.256108849411650e-01  1.696570384383008e-17
-1.429999999999999e+00  8.256108849411650e-01  1.696570384383008e-17
-1.429999999999999e+00  8.256108849411650e-01  1.696570384383008e-17
-1.429999999999999e+00  8.256108849411650e-01  1.696570384383008e-17
-1.429999999999999e+00  8.256108849411650e-01  1.696570384383008e-17
-1.429999999999999e+00  8.256108849411650e-01  1.696570384383008e-17
-1.429999999999999e+00  8.256108849411650e-01  1.696570384383008e-17
-1.429999999999999e+00  8.256108849411650e-01  1.696570384383008e-17
-1.429999999999999e+00  8.256108849411650e-01  1.696570384383008e-17
-1.429999999999999e+00  8.256108849411650e-01  1.696570384383008e-17
-1.429999999999999e+00  8.256108849411650e-01  1.696570384383008e-17
-1.429999999999999e+00  8.256108849411650e-01  1.696570384383008e-17
-1.429999999999999e+00  8.256108849411650e-01  1.696570384383008e-17
-1.429999999999999e+00  8.256108849411650e-01  1.696570384383008e-17
-1.429999999999999e+00  8.256108849411650e-01  1.696570384383008e-17
-1.429999999999999e+00  8.256108849411650e-01  1.696570384383008e-17
-1.429999999999999e+00  8.256108849411650e-01  1.696570384383008e-17
-1.429999999999999e+00  8.256108849411650e-01  1.696570384383008e-17
-1.429999999999999e+00  8.256108849411650e-01  1.696570384383008e-17
-1.429999999999999e+00  8.256108849411650e-01  1.696570384383008e-17
-1.429999999999999e+00  8.256108849411650e-01  1.696570384383008e-17
-1.429999999999999e+00  8.256108849411650e-01  1.696570384383008e-17
-1.429999999999999e+00  8.256108849411650e-01  1.696570384383008e-17
-1.429999999999999e+00  8.256108849411650e-01  1.696570384383008e-17
-1.429999999999999e+00  8.256108849411650e-01  1.696570384383008e-17
-1.429999999999999e+00  8.256108849411650e-01  1.696570384383008e-17
-1.429999999999999e+00  8.256108849411650e-01  1.696570384383008e-17
-1.429999999999999e+00  8.256108849411650e-01  1.696570384383008e-17
-1.429999999999999e+00  8.256108849411650e-01  1.696570384383008e-17
-1.429999999999999e+00  8.256108849411650e-01  1.696570384383008e-17
-1.429999999999999e+00  8.256108849411650e-01  1.696570384383008e-17
-1.429999999999999e+00  8.256108849411650e-01  1.696570384383008e-17
-1.429999999999999e+00  8.256108849411650e-01  1.696570384383008e-17
-1.429999999999999e+00  8.256108849411650e-01  1.696570384383008e-17
-1.429999999999999e+00  8.256108849411650e-01  1.696570384383008e-17
-1.429999999999999e+00  8.256108849411650e-01  1.696570384383008e-17
-1.429999999999999e+00  8.256108849411650e-01  1.696570384383008e-17
-1.429999999999999e+00  8.256108849411650e-01  1.696570384383008e-17
-1.429999999999999e+00  8.256108849411650e-01  1.696570384383008e-17
-1.429999999999999e+00  8.256108849411650e-01  1.696570384383008e-17
-1.429999999999999e+00  8.256108849411650e-01  1.696570384383008e-17
-1.429999999999999e+00  8.256108849411650e-01  1.696570384383008e-17
-1.429999999999999e+00  8.256108849411650e-01  1.696570384383008e-17
-1.429999999999999e+00  8.256108849411650e-01  1.696570384383008e-17
-1.429999999999999e+00  8.256108849411650e-01  1.696570384383008e-17
-1.429999999999999e+00  8.256108849411650e-01  1.696570384383008e-17
-1.429999999999999e+00  8.256108849411650e-01  1.696570384383008e-17
-1.429999999999999e+00  8.256108849411650e-01  1.696570384383008e-17
-1.429999999999999e+00  8.256108849411650e-01  1.696570384383008e-17
-1.429999999999999e+00  8.256108849411650e-01  1.696570384383008e-17
-1.429999999999999e+00  8.256108849411650e-01  1.696570384383008e-17
-1.429999999999999e+00  8.256108849411650e-01  1.696570384383008e-17
-1.429999999999999e+00  8.256108849411650e-01  1.696570384383008e-17
-1.429999999999999e+00  8.256108849411650e-01  1.696570384383008e-17
-1.429999999999999e+00  8.256108849411650e-01  1.696570384383008e-17
-1.429999999999999e+00  8.256108849411650e-01  1.696570384383008e-17
-1.429999999999999e+00  8.256108849411650e-01  1.696570384383008e-17
-1.429999999999999e+00  8.256108849411650e-01  1.696570384383008e-17
-1.429999999999999e+00  8.256108849411650e-01  1.696570384383008e-17
-1.429999999999999e+00  8.256108849411650e-01  1.696570384383008e-17
-1.429999999999999e+00  8.256108849411650e-01  1.696570384383008e-17
-1.429999999999999e+00  8.256108849411650e-01  1.696570384383008e-17
-1.429999999999999e+00  8.256108849411650e-01  1.696570384383008e-17
-1.429999999999999e+00  8.256108849411650e-01  1.696570384383008e-17
-1.429999999999999e+00  8.256108849411650e-01  1.696570384383008e-17
-1.429999999999999e+00  8.256108849411650e-01  1.696570384383008e-17
-1.429999999999999e+00  8.256108849411650e-01  1.696570384383008e-17
-1.429999999999999e+00  8.256108849411650e-01  1.696570384383008e-17
-1.429999999999999e+00  8.256108849411650e-01  1.696570384383008e-17
-1.429999999999999e+00  8.256108849411650e-01  1.696570384383008e-17
-1.429999999999999e+00  8.256108849411650e-01  1.696570384383008e-17
-1.429999999999999e+00  8.256108849411650e-01  1.696570384383008e-17
-1.429999999999999e+00  8.256108849411650e-01  1.696570384383008e-17
-1.429999999999999e+00  8.256108849411650e-01  1.696570384383008e-17
-1.429999999999999e+00  8.256108849411650e-01  1.696570384383008e-17
-1.429999999999999e+00  8.256108849411650e-01  1.696570384383008e-17
-1.429999999999999e+00  8.256108849411650e-01  1.696570384383008e-17
-1.429999999999999e+00  8.256108849411650e-01  1.696570384383008e-17
-1.429999999999999e+00  8.256108849411650e-01  1.696570384383008e-17
-1.429999999999999e+00  8.256108849411650e-01  1.696570384383008e-17
-1.429999999999999e+00  8.256108849411650e-01  1.696570384383008e-17
-1.429999999999999e+00  8.256108849411650e-01  1.696570384383008e-17
-1.429999999999999e+00  8.256108849411650e-01  1.696570384383008e-17
-1.429999999999999e+00  8.256108849411650e-01  1.696570384383008e-17
-1.429999999999999e+00  8.256108849411650e-01  1.696570384383008e-17
-1.429999999999999e+00  8.256108849411650e-01  1.696570384383008e-17
-1.429999999999999e+00  8.256108849411650e-01  1.696570384383008e-17
-1.429999999999999e+00  8.256108849411650e-01  1.696570384383008e-17
-1.429999999999999e+00  8.256108849411650e-01  1.696570384383008e-17
-1.429999999999999e+00  8.256108849411650e-01  1.696570384383008e-17
-1.429999999999999e+00  8.256108849411650e-01  1.696570384383008e-17
-1.429999999999999e+00  8.256108849411650e-01  1.696570384383008e-17
-1.429999999999999e+00  8.256108849411650e-01  1.696570384383008e-17
-1.429999999999999e+00  8.256108849411650e-01  1.696570384383008e-17
-1.429999999999999e+00  8.256108849411650e-01  1.696570384383008e-17
-1.429999999999999e+00  8.256108849411650e-01  1.696570384383008e-17
-1.429999999999999e+00  8.256108849411650e-01  1.696570384383008e-17
-1.429999999999999e+00  8.256108849411650e-01  1.696570384383008e-17
-1.429999999999999e+00  8.256108849411650e-01  1.696570384383008e-17
-1.429999999999999e+00  8.256108849411650e-01  1.696570384383008e-17
-1.429999999999999e+00  8.256108849411650e-01  1.696570384383008e-17
-1.429999999999999e+00  8.256108849411650e-01  1.696570384383008e-17
-1.429999999999999e+00  8.256108849411650e-01  1.696570384383008e-17
-1.429999999999999e+00  8.256108849411650e-01  1.696570384383008e-17
-1.429999999999999e+00  8.256108849411650e-01  1.696570384383008e-17
-1.429999999999999e+00  8.256108849411650e-01  1.696570384383008e-17
-1.429999999999999e+00  8.256108849411650e-01  1.696570384383008e-17
-1.429999999999999e+00  8.256108849411650e-01  1.696570384383008e-17
-1.429999999999999e+00  8.256108849411650e-01  1.696570384383008e-17
-1.429999999999999e+00  8.256108849411650e-01  1.696570384383008e-17
-1.429999999999999e+00  8.256108849411650e-01  1.696570384383008e-17
-1.429999999999999e+00  8.256108849411650e-01  1.696570384383008e-17
-1.429999999999999e+00  8.256108849411650e-01  1.696570384383008e-17
-1.429999999999999e+00  8.256108849411650e-01  1.696570384383008e-17
-1.429999999999999e+00  8.256108849411650e-01  1.696570384383008e-17
-1.429999999999999e+00  8.256108849411650e-01  1.696570384383008e-17
-1.429999999999999e+00  8.256108849411650e-01  1.696570384383008e-17
-1.429999999999999e+00  8.256108849411650e-01  1.696570384383008e-17
-1.429999999999999e+00  8.256108849411650e-01  1.696570384383008e-17
-1.429999999999999e+00  8.256108849411650e-01  1.696570384383008e-17
-1.429999999999999e+00  8.256108849411650e-01  1.696570384383008e-17
-1.429999999999999e+00  8.256108849411650e-01  1.696570384383008e-17
-1.429999999999999e+00  8.256108849411650e-01  1.696570384383008e-17
-1.429999999999999e+00  8.256108849411650e-01  1.696570384383008e-17
-1.429999999999999e+00  8.256108849411650e-01  1.696570384383008e-17
-1.429999999999999e+00  8.256108849411650e-01  1.696570384383008e-17
-1.429999999999999e+00  8.256108849411650e-01  1.696570384383008e-17
-1.429999999999999e+00  8.256108849411650e-01  1.696570384383008e-17
-1.429999999999999e+00  8.256108849411650e-01  1.696570384383008e-17
-1.429999999999999e+00  8.256108849411650e-01  1.696570384383008e-17
-1.429999999999999e+00  8.256108849411650e-01  1.696570384383008e-17
-1.429999999999999e+00  8.256108849411650e-01  1.696570384383008e-17
-1.429999999999999e+00  8.256108849411650e-01  1.696570384383008e-17
-1.429999999999999e+00  8.256108849411650e-01  1.696570384383008e-17
-1.429999999999999e+00  8.256108849411650e-01  1.696570384383008e-17
-1.429999999999999e+00  8.256108849411650e-01  1.696570384383008e-17
-1.429999999999999e+00  8.256108849411650e-01  1.696570384383008e-17
-1.429999999999999e+00  8.256108849411650e-01  1.696570384383008e-17
-1.429999999999999e+00  8.256108849411650e-01  1.696570384383008e-17
-1.429999999999999e+00  8.256108849411650e-01  1.696570384383008e-17
-1.429999999999999e+00  8.256108849411650e-01  1.696570384383008e-17
-1.429999999999999e+00  8.256108849411650e-01  1.696570384383008e-17
-1.429999999999999e+00  8.256108849411650e-01  1.696570384383008e-17
-1.429999999999999e+00  8.256108849411650e-01  1.696570384383008e-17
-1.429999999999999e+00  8.256108849411650e-01  1.696570384383008e-17
-1.429999999999999e+00  8.256108849411650e-01  1.696570384383008e-17
-1.429999999999999e+00  8.256108849411650e-01  1.696570384383008e-17
-1.429999999999999e+00  8.256108849411650e-01  1.696570384383008e-17
-1.429999999999999e+00  8.256108849411650e-01  1.696570384383008e-17
-1.429999999999999e+00  8.256108849411650e-01  1.696570384383008e-17
-1.429999999999999e+00  8.256108849411650e-01  1.696570384383008e-17
-1.429999999999999e+00  8.256108849411650e-01  1.696570384383008e-17
-1.429999999999999e+00  8.256108849411650e-01  1.696570384383008e-17
-1.429999999999999e+00  8.256108849411650e-01  1.696570384383008e-17
-1.429999999999999e+00  8.256108849411650e-01  1.696570384383008e-17
-1.429999999999999e+00  8.256108849411650e-01  1.696570384383008e-17
-1.429999999999999e+00  8.256108849411650e-01  1.696570384383008e-17
-1.429999999999999e+00  8.256108849411650e-01  1.696570384383008e-17
-1.429999999999999e+00  8.256108849411650e-01  1.696570384383008e-17
-1.429999999999999e+00  8.256108849411650e-01  1.696570384383008e-17
-1.429999999999999e+00  8.256108849411650e-01  1.696570384383008e-17
-1.429999999999999e+00  8.256108849411650e-01  1.696570384383008e-17
-1.429999999999999e+00  8.256108849411650e-01  1.696570384383008e-17
-1.429999999999999e+00  8.256108849411650e-01  1.696570384383008e-17
-1.429999999999999e+00  8.256108849411650e-01  1.696570384383008e-17
-1.429999999999999e+00  8.256108849411650e-01  1.696570384383008e-17
-1.429999999999999e+00  8.256108849411650e-01  1.696570384383008e-17
-1.429999999999999e+00  8.256108849411650e-01  1.696570384383008e-17
-1.429999999999999e+00  8.256108849411650e-01  1.696570384383008e-17
-1.429999999999999e+00  8.256108849411650e-01  1.696570384383008e-17
-1.429999999999999e+00  8.256108849411650e-01  1.696570384383008e-17
-1.429999999999999e+00  8.256108849411650e-01  1.696570384383008e-17
-1.429999999999999e+00  8.256108849411650e-01  1.696570384383008e-17
-1.429999999999999e+00  8.256108849411650e-01  1.696570384383008e-17
-1.429999999999999e+00  8.256108849411650e-01  1.696570384383008e-17
-1.429999999999999e+00  8.256108849411650e-01  1.696570384383008e-17
-1.429999999999999e+00  8.256108849411650e-01  1.696570384383008e-17
-1.429999999999999e+00  8.256108849411650e-01  1.696570384383008e-17
-1.429999999999999e+00  8.256108849411650e-01  1.696570384383008e-17
-1.429999999999999e+00  8.256108849411650e-01  1.696570384383008e-17
-1.429999999999999e+00  8.256108849411650e-01  1.696570384383008e-17
-1.429999999999999e+00  8.256108849411650e-01  1.696570384383008e-17
-1.429999999999999e+00  8.256108849411650e-01  1.696570384383008e-17
-1.429999999999999e+00  8.256108849411650e-01  1.696570384383008e-17
-1.429999999999999e+00  8.256108849411650e-01  1.696570384383008e-17
-1.429999999999999e+00  8.256108849411650e-01  1.696570384383008e-17
-1.429999999999999e+00  8.256108849411650e-01  1.696570384383008e-17
-1.429999999999999e+00  8.256108849411650e-01  1.696570384383008e-17
 1.429999999999999e+00 -8.256108849411650e-01 -1.696570384383008e-17
-1.429999999999999e+00  8.256108849411650e-01  1.696570384383008e-17
 1.429999999999999e+00 -8.256108849411650e-01 -1.696570384383008e-17
 1.429999999999999e+00 -8.256108849411650e-01 -1.696570384383008e-17
 1.429999999999999e+00 -8.256108849411650e-01 -1.696570384383008e-17
 1.429999999999999e+00 -8.256108849411650e-01 -1.696570384383008e-17
 1.429999999999999e+00 -8.256108849411650e-01 -1.696570384383008e-17
 1.429999999999999e+00 -8.256108849411650e-01 -1.696570384383008e-17
 1.429999999999999e+00 -8.256108849411650e-01 -1.696570384383008e-17
 1.429999999999999e+00 -8.256108849411650e-01 -1.696570384383008e-17
 1.429999999999999e+00 -8.256108849411650e-01 -1.696570384383008e-17
 1.429999999999999e+00 -8.256108849411650e-01 -1.696570384383008e-17
 1.429999999999999e+00 -8.256108849411650e-01 -1.696570384383008e-17
 1.429999999999999e+00 -8.256108849411650e-01 -1.696570384383008e-17
 1.429999999999999e+00 -8.256108849411650e-01 -1.696570384383008e-17
 1.429999999999999e+00 -8.256108849411650e-01 -1.696570384383008e-17
 1.429999999999999e+00 -8.256108849411650e-01 -1.696570384383008e-17
 1.429999999999999e+00 -8.256108849411650e-01 -1.696570384383008e-17
 1.429999999999999e+00 -8.256108849411650e-01 -1.696570384383008e-17
 1.429999999999999e+00 -8.256108849411650e-01 -1.696570384383008e-17
 1.429999999999999e+00 -8.256108849411650e-01 -1.696570384383008e-17
 1.429999999999999e+00 -8.256108849411650e-01 -1.696570384383008e-17
 1.429999999999999e+00 -8.256108849411650e-01 -1.696570384383008e-17
 1.429999999999999e+00 -8.256108849411650e-01 -1.696570384383008e-17
 1.429999999999999e+00 -8.256108849411650e-01 -1.696570384383008e-17
 1.429999999999999e+00 -8.256108849411650e-01 -1.696570384383008e-17
 1.429999999999999e+00 -8.256108849411650e-01 -1.696570384383008e-17
 1.429999999999999e+00 -8.256108849411650e-01 -1.696570384383008e-17
 1.429999999999999e+00 -8.256108849411650e-01 -1.696570384383008e-17
 1.429999999999999e+00 -8.256108849411650e-01 -1.696570384383008e-17
 1.429999999999999e+00 -8.256108849411650e-01 -1.696570384383008e-17
 1.429999999999999e+00 -8.256108849411650e-01 -1.696570384383008e-17
 1.429999999999999e+00 -8.256108849411650e-01 -1.696570384383008e-17
 1.429999999999999e+00 -8.256108849411650e-01 -1.696570384383008e-17
 1.429999999999999e+00 -8.256108849411650e-01 -1.696570384383008e-17
 1.429999999999999e+00 -8.256108849411650e-01 -1.696570384383008e-17
 1.429999999999999e+00 -8.256108849411650e-01 -1.696570384383008e-17
 1.429999999999999e+00 -8.256108849411650e-01 -1.696570384383008e-17
 1.429999999999999e+00 -8.256108849411650e-01 -1.696570384383008e-17
 1.429999999999999e+00 -8.256108849411650e-01 -1.696570384383008e-17
 1.429999999999999e+00 -8.256108849411650e-01 -1.696570384383008e-17
 1.429999999999999e+00 -8.256108849411650e-01 -1.696570384383008e-17
 1.429999999999999e+00 -8.256108849411650e-01 -1.696570384383008e-17
 1.429999999999999e+00 -8.256108849411650e-01 -1.696570384383008e-17
 1.429999999999999e+00 -8.256108849411650e-01 -1.696570384383008e-17
 1.429999999999999e+00 -8.256108849411650e-01 -1.696570384383008e-17
 1.429999999999999e+00 -8.256108849411650e-01 -1.696570384383008e-17
 1.429999999999999e+00 -8.256108849411650e-01 -1.696570384383008e-17
 1.429999999999999e+00 -8.256108849411650e-01 -1.696570384383008e-17
 1.429999999999999e+00 -8.256108849411650e-01 -1.696570384383008e-17
 1.429999999999999e+00 -8.256108849411650e-01 -1.696570384383008e-17
 1.429999999999999e+00 -8.256108849411650e-01 -1.696570384383008e-17
 1.429999999999999e+00 -8.256108849411650e-01 -1.696570384383008e-17
 1.429999999999999e+00 -8.256108849411650e-01 -1.696570384383008e-17
 1.429999999999999e+00 -8.256108849411650e-01 -1.696570384383008e-17
 1.429999999999999e+00 -8.256108849411650e-01 -1.696570384383008e-17
 1.429999999999999e+00 -8.256108849411650e-01 -1.696570384383008e-17
 1.429999999999999e+00 -8.256108849411650e-01 -1.696570384383008e-17
 1.429999999999999e+00 -8.256108849411650e-01 -1.696570384383008e-17
 1.429999999999999e+00 -8.256108849411650e-01 -1.696570384383008e-17
 1.429999999999999e+00 -8.256108849411650e-01 -1.696570384383008e-17
 1.429999999999999e+00 -8.256108849411650e-01 -1.696570384383008e-17
 1.429999999999999e+00 -8.256108849411650e-01 -1.696570384383008e-17
 1.429999999999999e+00 -8.256108849411650e-01 -1.696570384383008e-17
 1.429999999999999e+00 -8.256108849411650e-01 -1.696570384383008e-17
 1.429999999999999e+00 -8.256108849411650e-01 -1.696570384383008e-17
 1.429999999999999e+00 -8.256108849411650e-01 -1.696570384383008e-17
 1.429999999999999e+00 -8.256108849411650e-01 -1.696570384383008e-17
 1.429999999999999e+00 -8.256108849411650e-01 -1.696570384383008e-17
 1.429999999999999e+00 -8.256108849411650e-01 -1.696570384383008e-17
 1.429999999999999e+00 -8.256108849411650e-01 -1.696570384383008e-17
 1.429999999999999e+00 -8.256108849411650e-01 -1.696570384383008e-17
 1.429999999999999e+00 -8.256108849411650e-01 -1.696570384383008e-17
 1.429999999999999e+00 -8.256108849411650e-01 -1.696570384383008e-17
 1.429999999999999e+00 -8.256108849411650e-01 -1.696570384383008e-17
 1.429999999999999e+00 -8.256108849411650e-01 -1.696570384383008e-17
 1.429999999999999e+00 -8.256108849411650e-01 -1.696570384383008e-17
 1.429999999999999e+00 -8.256108849411650e-01 -1.696570384383008e-17
 1.429999999999999e+00 -8.256108849411650e-01 -1.696570384383008e-17
 1.429999999999999e+00 -8.256108849411650e-01 -1.696570384383008e-17
 1.429999999999999e+00 -8.256108849411650e-01 -1.696570384383008e-17
 1.429999999999999e+00 -8.256108849411650e-01 -1.696570384383008e-17
 1.429999999999999e+00 -8.256108849411650e-01 -1.696570384383008e-17
 1.429999999999999e+00 -8.256108849411650e-01 -1.696570384383008e-17
 1.429999999999999e+00 -8.256108849411650e-01 -1.696570384383008e-17
 1.429999999999999e+00 -8.256108849411650e-01 -1.696570384383008e-17
 1.429999999999999e+00 -8.256108849411650e-01 -1.696570384383008e-17
 1.429999999999999e+00 -8.256108849411650e-01 -1.696570384383008e-17
 1.429999999999999e+00 -8.256108849411650e-01 -1.696570384383008e-17
 1.429999999999999e+00 -8.256108849411650e-01 -1.696570384383008e-17
 1.429999999999999e+00 -8.256108849411650e-01 -1.696570384383008e-17
 1.429999999999999e+00 -8.256108849411650e-01 -1.696570384383008e-17
 1.429999999999999e+00 -8.256108849411650e-01 -1.696570384383008e-17
 1.429999999999999e+00 -8.256108849411650e-01 -1.696570384383008e-17
 1.429999999999999e+00 -8.256108849411650e-01 -1.696570384383008e-17
 1.429999999999999e+00 -8.256108849411650e-01 -1.696570384383008e-17
 1.429999999999999e+00 -8.256108849411650e-01 -1.696570384383008e-17
 1.429999999999999e+00 -8.256108849411650e-01 -1.696570384383008e-17
 1.429999999999999e+00 -8.256108849411650e-01 -1.696570384383008e-17
 1.429999999999999e+00 -8.256108849411650e-01 -1.696570384383008e-17
 1.429999999999999e+00 -8.256108849411650e-01 -1.696570384383008e-17
 1.429999999999999e+00 -8.256108849411650e-01 -1.696570384383008e-17
 1.429999999999999e+00 -8.256108849411650e-01 -1.696570384383008e-17
 1.429999999999999e+00 -8.256108849411650e-01 -1.696570384383008e-17
 1.429999999999999e+00 -8.256108849411650e-01 -1.696570384383008e-17
 1.429999999999999e+00 -8.256108849411650e-01 -1.696570384383008e-17
 1.429999999999999e+00 -8.256108849411650e-01 -1.696570384383008e-17
 1.429999999999999e+00 -8.256108849411650e-01 -1.696570384383008e-17
 1.429999999999999e+00 -8.256108849411650e-01 -1.696570384383008e-17
 1.429999999999999e+00 -8.256108849411650e-01 -1.696570384383008e-17
 1.429999999999999e+00 -8.256108849411650e-01 -1.696570384383008e-17
 1.429999999999999e+00 -8.256108849411650e-01 -1.696570384383008e-17
 1.429999999999999e+00 -8.256108849411650e-01 -1.696570384383008e-17
 1.429999999999999e+00 -8.256108849411650e-01 -1.696570384383008e-17
 1.429999999999999e+00 -8.256108849411650e-01 -1.696570384383008e-17
 1.429999999999999e+00 -8.256108849411650e-01 -1.696570384383008e-17
 1.429999999999999e+00 -8.256108849411650e-01 -1.696570384383008e-17
 1.429999999999999e+00 -8.256108849411650e-01 -1.696570384383008e-17
 1.429999999999999e+00 -8.256108849411650e-01 -1.696570384383008e-17
 1.429999999999999e+00 -8.256108849411650e-01 -1.696570384383008e-17
 1.429999999999999e+00 -8.256108849411650e-01 -1.696570384383008e-17
 1.429999999999999e+00 -8.256108849411650e-01 -1.696570384383008e-17
 1.429999999999999e+00 -8.256108849411650e-01 -1.696570384383008e-17
 1.429999999999999e+00 -8.256108849411650e-01 -1.696570384383008e-17
 1.429999999999999e+00 -8.256108849411650e-01 -1.696570384383008e-17
 1.429999999999999e+00 -8.256108849411650e-01 -1.696570384383008e-17
 1.429999999999999e+00 -8.256108849411650e-01 -1.696570384383008e-17
 1.429999999999999e+00 -8.256108849411650e-01 -1.696570384383008e-17
 1.429999999999999e+00 -8.256108849411650e-01 -1.696570384383008e-17
 1.429999999999999e+00 -8.256108849411650e-01 -1.696570384383008e-17
 1.429999999999999e+00 -8.256108849411650e-01 -1.696570384383008e-17
 1.429999999999999e+00 -8.256108849411650e-01 -1.696570384383008e-17
 1.429999999999999e+00 -8.256108849411650e-01 -1.696570384383008e-17
 1.429999999999999e+00 -8.256108849411650e-01 -1.696570384383008e-17
 1.429999999999999e+00 -8.256108849411650e-01 -1.696570384383008e-17
 1.429999999999999e+00 -8.256108849411650e-01 -1.696570384383008e-17
 1.429999999999999e+00 -8.256108849411650e-01 -1.696570384383008e-17
 1.429999999999999e+00 -8.256108849411650e-01 -1.696570384383008e-17
 1.429999999999999e+00 -8.256108849411650e-01 -1.696570384383008e-17
 1.429999999999999e+00 -8.256108849411650e-01 -1.696570384383008e-17
 1.429999999999999e+00 -8.256108849411650e-01 -1.696570384383008e-17
 1.429999999999999e+00 -8.256108849411650e-01 -1.696570384383008e-17
 1.429999999999999e+00 -8.256108849411650e-01 -1.696570384383008e-17
 1.429999999999999e+00 -8.256108849411650e-01 -1.696570384383008e-17
 1.429999999999999e+00 -8.256108849411650e-01 -1.696570384383008e-17
 1.429999999999999e+00 -8.256108849411650e-01 -1.696570384383008e-17
 1.429999999999999e+00 -8.256108849411650e-01 -1.696570384383008e-17
 1.429999999999999e+00 -8.256108849411650e-01 -1.696570384383008e-17
 1.429999999999999e+00 -8.256108849411650e-01 -1.696570384383008e-17
 1.429999999999999e+00 -8.256108849411650e-01 -1.696570384383008e-17
 1.429999999999999e+00 -8.256108849411650e-01 -1.696570384383008e-17
 1.429999999999999e+00 -8.256108849411650e-01 -1.696570384383008e-17
 1.429999999999999e+00 -8.256108849411650e-01 -1.696570384383008e-17
 1.429999999999999e+00 -8.256108849411650e-01 -1.696570384383008e-17
 1.429999999999999e+00 -8.256108849411650e-01 -1.696570384383008e-17
 1.429999999999999e+00 -8.256108849411650e-01 -1.696570384383008e-17
 1.429999999999999e+00 -8.256108849411650e-01 -1.696570384383008e-17
 1.429999999999999e+00 -8.256108849411650e-01 -1.696570384383008e-17
 1.429999999999999e+00 -8.256108849411650e-01 -1.696570384383008e-17
 1.429999999999999e+00 -8.256108849411650e-01 -1.696570384383008e-17
 1.429999999999999e+00 -8.256108849411650e-01 -1.696570384383008e-17
 1.429999999999999e+00 -8.256108849411650e-01 -1.696570384383008e-17
 1.429999999999999e+00 -8.256108849411650e-01 -1.696570384383008e-17
 1.429999999999999e+00 -8.256108849411650e-01 -1.696570384383008e-17
 1.429999999999999e+00 -8.256108849411650e-01 -1.696570384383008e-17
 1.429999999999999e+00 -8.256108849411650e-01 -1.696570384383008e-17
 1.429999999999999e+00 -8.256108849411650e-01 -1.696570384383008e-17
 1.429999999999999e+00 -8.256108849411650e-01 -1.696570384383008e-17
 1.429999999999999e+00 -8.256108849411650e-01 -1.696570384383008e-17
 1.429999999999999e+00 -8.256108849411650e-01 -1.696570384383008e-17
 1.429999999999999e+00 -8.256108849411650e-01 -1.696570384383008e-17
 1.429999999999999e+00 -8.256108849411650e-01 -1.696570384383008e-17
 1.429999999999999e+00 -8.256108849411650e-01 -1.696570384383008e-17
 1.429999999999999e+00 -8.256108849411650e-01 -1.696570384383008e-17
 1.429999999999999e+00 -8.256108849411650e-01 -1.696570384383008e-17
 1.429999999999999e+00 -8.256108849411650e-01 -1.696570384383008e-17
 1.429999999999999e+00 -8.256108849411650e-01 -1.696570384383008e-17
 1.429999999999999e+00 -8.256108849411650e-01 -1.696570384383008e-17
 1.429999999999999e+00 -8.256108849411650e-01 -1.696570384383008e-17
 1.429999999999999e+00 -8.256108849411650e-01 -1.696570384383008e-17
 1.429999999999999e+00 -8.256108849411650e-01 -1.696570384383008e-17
 1.429999999999999e+00 -8.256108849411650e-01 -1.696570384383008e-17
 1.429999999999999e+00 -8.256108849411650e-01 -1.696570384383008e-17
 1.429999999999999e+00 -8.256108849411650e-01 -1.696570384383008e-17
 1.429999999999999e+00 -8.256108849411650e-01 -1.696570384383008e-17
 1.429999999999999e+00 -8.256108849411650e-01 -1.696570384383008e-17
 1.429999999999999e+00 -8.256108849411650e-01 -1.696570384383008e-17
 1.429999999999999e+00 -8.256108849411650e-01 -1.696570384383008e-17
 1.429999999999999e+00 -8.256108849411650e-01 -1.696570384383008e-17
 1.429999999999999e+00 -8.256108849411650e-01 -1.696570384383008e-17
 1.429999999999999e+00 -8.256108849411650e-01 -1.696570384383008e-17
 1.429999999999999e+00 -8.256108849411650e-01 -1.696570384383008e-17
 1.429999999999999e+00 -8.256108849411650e-01 -1.696570384383008e-17
 1.429999999999999e+00 -8.256108849411650e-01 -1.696570384383008e-17
 1.429999999999999e+00 -8.256108849411650e-01 -1.696570384383008e-17
 1.429999999999999e+00 -8.256108849411650e-01 -1.696570384383008e-17
 1.429999999999999e+00 -8.256108849411650e-01 -1.696570384383008e-17
 1.429999999999999e+00 -8.256108849411650e-01 -1.696570384383008e-17
 1.429999999999999e+00 -8.256108849411650e-01 -1.696570384383008e-17
 1.429999999999999e+00 -8.256108849411650e-01 -1.696570384383008e-17
 1.429999999999999e+00 -8.256108849411650e-01 -1.696570384383008e-17
 1.429999999999999e+00 -8.256108849411650e-01 -1.696570384383008e-17
 1.429999999999999e+00 -8.256108849411650e-01 -1.696570384383008e-17
 1.429999999999999e+00 -8.256108849411650e-01 -1.696570384383008e-17
 1.429999999999999e+00 -8.256108849411650e-01 -1.696570384383008e-17
 1.429999999999999e+00 -8.256108849411650e-01 -1.696570384383008e-17
 1.429999999999999e+00 -8.256108849411650e-01 -1.696570384383008e-17
 1.429999999999999e+00 -8.256108849411650e-01 -1.696570384383008e-17
 1.429999999999999e+00 -8.256108849411650e-01 -1.696570384383008e-17
 1.429999999999999e+00 -8.256108849411650e-01 -1.696570384383008e-17
 1.429999999999999e+00 -8.256108849411650e-01 -1.696570384383008e-17
 1.429999999999999e+00 -8.256108849411650e-01 -1.696570384383008e-17
 1.429999999999999e+00 -8.256108849411650e-01 -1.696570384383008e-17
 1.429999999999999e+00 -8.256108849411650e-01 -1.696570384383008e-17
 1.429999999999999e+00 -8.256108849411650e-01 -1.696570384383008e-17
 1.429999999999999e+00 -8.256108849411650e-01 -1.696570384383008e-17
 1.429999999999999e+00 -8.256108849411650e-01 -1.696570384383008e-17
 1.429999999999999e+00 -8.256108849411650e-01 -1.696570384383008e-17
 1.429999999999999e+00 -8.256108849411650e-01 -1.696570384383008e-17
 1.429999999999999e+00 -8.256108849411650e-01 -1.696570384383008e-17
 1.429999999999999e+00 -8.256108849411650e-01 -1.696570384383008e-17
 1.429999999999999e+00 -8.256108849411650e-01 -1.696570384383008e-17
 1.429999999999999e+00 -8.256108849411650e-01 -1.696570384383008e-17
 1.429999999999999e+00 -8.256108849411650e-01 -1.696570384383008e-17
 1.429999999999999e+00 -8.256108849411650e-01 -1.696570384383008e-17
 1.429999999999999e+00 -8.256108849411650e-01 -1.696570384383008e-17
 1.429999999999999e+00 -8.256108849411650e-01 -1.696570384383008e-17
 1.429999999999999e+00 -8.256108849411650e-01 -1.696570384383008e-17
 1.429999999999999e+00 -8.256108849411650e-01 -1.696570384383008e-17
 1.429999999999999e+00 -8.256108849411650e-01 -1.696570384383008e-17
 1.429999999999999e+00 -8.256108849411650e-01 -1.696570384383008e-17
 1.429999999999999e+00 -8.256108849411650e-01 -1.696570384383008e-17
 1.429999999999999e+00 -8.256108849411650e-01 -1.696570384383008e-17
 1.429999999999999e+00 -8.256108849411650e-01 -1.696570384383008e-17
 1.429999999999999e+00 -8.256108849411650e-01 -1.696570384383008e-17
 1.429999999999999e+00 -8.256108849411650e-01 -1.696570384383008e-17
 1.429999999999999e+00 -8.256108849411650e-01 -1.696570384383008e-17
 1.429999999999999e+00 -8.256108849411650e-01 -1.696570384383008e-17
 1.429999999999999e+00 -8.256108849411650e-01 -1.696570384383008e-17
 1.429999999999999e+00 -8.256108849411650e-01 -1.696570384383008e-17
 1.429999999999999e+00 -8.256108849411650e-01 -1.696570384383008e-17
 1.429999999999999e+00 -8.256108849411650e-01 -1.696570384383008e-17
 1.429999999999999e+00 -8.256108849411650e-01 -1.696570384383008e-17
 1.429999999999999e+00 -8.256108849411650e-01 -1.696570384383008e-17
 1.429999999999999e+00 -8.256108849411650e-01 -1.696570384383008e-17
 1.429999999999999e+00 -8.256108849411650e-01 -1.696570384383008e-17
 1.429999999999999e+00 -8.256108849411650e-01 -1.696570384383008e-17
 1.429999999999999e+00 -8.256108849411650e-01 -1.696570384383008e-17
 1.429999999999999e+00 -8.256108849411650e-01 -1.696570384383008e-17
 1.429999999999999e+00 -8.256108849411650e-01 -1.696570384383008e-17
 1.429999999999999e+00 -8.256108849411650e-01 -1.696570384383008e-17
 1.429999999999999e+00 -8.256108849411650e-01 -1.696570384383008e-17
 1.429999999999999e+00 -8.256108849411650e-01 -1.696570384383008e-17
 1.429999999999999e+00 -8.256108849411650e-01 -1.696570384383008e-17
 1.429999999999999e+00 -8.256108849411650e-01 -1.696570384383008e-17
 1.429999999999999e+00 -8.256108849411650e-01 -1.696570384383008e-17
 1.429999999999999e+00 -8.256108849411650e-01 -1.696570384383008e-17
 1.429999999999999e+00 -8.256108849411650e-01 -1.696570384383008e-17
 1.429999999999999e+00 -8.256108849411650e-01 -1.696570384383008e-17
 1.429999999999999e+00 -8.256108849411650e-01 -1.696570384383008e-17
 1.429999999999999e+00 -8.256108849411650e-01 -1.696570384383008e-17
 1.429999999999999e+00 -8.256108849411650e-01 -1.696570384383008e-17
 1.429999999999999e+00 -8.256108849411650e-01 -1.696570384383008e-17
 1.429999999999999e+00 -8.256108849411650e-01 -1.696570384383008e-17
 1.429999999999999e+00 -8.256108849411650e-01 -1.696570384383008e-17
 1.429999999999999e+00 -8.256108849411650e-01 -1.696570384383008e-17
 1.429999999999999e+00 -8.256108849411650e-01 -1.696570384383008e-17
 1.429999999999999e+00 -8.256108849411650e-01 -1.696570384383008e-17
 1.429999999999999e+00 -8.256108849411650e-01 -1.696570384383008e-17
 1.429999999999999e+00 -8.256108849411650e-01 -1.696570384383008e-17
 1.429999999999999e+00 -8.256108849411650e-01 -1.696570384383008e-17
 1.429999999999999e+00 -8.256108849411650e-01 -1.696570384383008e-17
 1.429999999999999e+00 -8.256108849411650e-01 -1.696570384383008e-17
 1.429999999999999e+00 -8.256108849411650e-01 -1.696570384383008e-17
 1.429999999999999e+00 -8.256108849411650e-01 -1.696570384383008e-17
 1.429999999999999e+00 -8.256108849411650e-01 -1.696570384383008e-17
 1.429999999999999e+00 -8.256108849411650e-01 -1.696570384383008e-17
 1.429999999999999e+00 -8.256108849411650e-01 -1.696570384383008e-17
 1.429999999999999e+00 -8.256108849411650e-01 -1.696570384383008e-17
 1.429999999999999e+00 -8.256108849411650e-01 -1.696570384383008e-17
 1.429999999999999e+00 -8.256108849411650e-01 -1.696570384383008e-17
 1.429999999999999e+00 -8.256108849411650e-01 -1.696570384383008e-17
 1.429999999999999e+00 -8.256108849411650e-01 -1.696570384383008e-17
 1.429999999999999e+00 -8.256108849411650e-01 -1.696570384383008e-17
 1.429999999999999e+00 -8.256108849411650e-01 -1.696570384383008e-17
 1.429999999999999e+00 -8.256108849411650e-01 -1.696570384383008e-17
 1.429999999999999e+00 -8.256108849411650e-01 -1.696570384383008e-17
 1.429999999999999e+00 -8.256108849411650e-01 -1.696570384383008e-17
 1.429999999999999e+00 -8.256108849411650e-01 -1.696570384383008e-17
 1.429999999999999e+00 -8.256108849411650e-01 -1.696570384383008e-17
 1.429999999999999e+00 -8.256108849411650e-01 -1.696570384383008e-17
 1.429999999999999e+00 -8.256108849411650e-01 -1.696570384383008e-17
 1.429999999999999e+00 -8.256108849411650e-01 -1.696570384383008e-17
 1.429999999999999e+00 -8.256108849411650e-01 -1.696570384383008e-17
 1.429999999999999e+00 -8.256108849411650e-01 -1.696570384383008e-17
 1.429999999999999e+00 -8.256108849411650e-01 -1.696570384383008e-17
 1.429999999999999e+00 -8.256108849411650e-01 -1.696570384383008e-17
 1.429999999999999e+00 -8.256108849411650e-01 -1.696570384383008e-17
 1.429999999999999e+00 -8.256108849411650e-01 -1.696570384383008e-17
 1.429999999999999e+00 -8.256108849411650e-01 -1.696570384383008e-17
 1.429999999999999e+00 -8.256108849411650e-01 -1.696570384383008e-17
 1.429999999999999e+00 -8.256108849411650e-01 -1.696570384383008e-17
 1.429999999999999e+00 -8.256108849411650e-01 -1.696570384383008e-17
 1.429999999999999e+00 -8.256108849411650e-01 -1.696570384383008e-17
 1.429999999999999e+00 -8.256108849411650e-01 -1.696570384383008e-17
 1.429999999999999e+00 -8.256108849411650e-01 -1.696570384383008e-17
 1.429999999999999e+00 -8.256108849411650e-01 -1.696570384383008e-17
 1.429999999999999e+00 -8.256108849411650e-01 -1.696570384383008e-17
 1.429999999999999e+00 -8.256108849411650e-01 -1.696570384383008e-17
 1.429999999999999e+00 -8.256108849411650e-01 -1.696570384383008e-17
 1.429999999999999e+00 -8.256108849411650e-01 -1.696570384383008e-17
 1.429999999999999e+00 -8.256108849411650e-01 -1.696570384383008e-17
 1.429999999999999e+00 -8.256108849411650e-01 -1.696570384383008e-17
 1.429999999999999e+00 -8.256108849411650e-01 -1.696570384383008e-17
 1.429999999999999e+00 -8.256108849411650e-01 -1.696570384383008e-17
 1.429999999999999e+00 -8.256108849411650e-01 -1.696570384383008e-17
 1.429999999999999e+00 -8.256108849411650e-01 -1.696570384383008e-17
 1.429999999999999e+00 -8.256108849411650e-01 -1.696570384383008e-17
 1.429999999999999e+00 -8.256108849411650e-01 -1.696570384383008e-17
 1.429999999999999e+00 -8.256108849411650e-01 -1.696570384383008e-17
 1.429999999999999e+00 -8.256108849411650e-01 -1.696570384383008e-17
 1.429999999999999e+00 -8.256108849411650e-01 -1.696570384383008e-17
 1.429999999999999e+00 -8.256108849411650e-01 -1.696570384383008e-17
 1.429999999999999e+00 -8.256108849411650e-01 -1.696570384383008e-17
 1.429999999999999e+00 -8.256108849411650e-01 -1.696570384383008e-17
 1.429999999999999e+00 -8.256108849411650e-01 -1.696570384383008e-17
 1.429999999999999e+00 -8.256108849411650e-01 -1.696570384383008e-17
 1.429999999999999e+00 -8.256108849411650e-01 -1.696570384383008e-17
 1.429999999999999e+00 -8.256108849411650e-01 -1.696570384383008e-17
 1.429999999999999e+00 -8.256108849411650e-01 -1.696570384383008e-17
 1.429999999999999e+00 -8.256108849411650e-01 -1.696570384383008e-17
 1.429999999999999e+00 -8.256108849411650e-01 -1.696570384383008e-17
 1.429999999999999e+00 -8.256108849411650e-01 -1.696570384383008e-17
 1.429999999999999e+00 -8.256108849411650e-01 -1.696570384383008e-17
 1.429999999999999e+00 -8.256108849411650e-01 -1.696570384383008e-17
 1.429999999999999e+00 -8.256108849411650e-01 -1.696570384383008e-17
 1.429999999999999e+00 -8.256108849411650e-01 -1.696570384383008e-17
 1.429999999999999e+00 -8.256108849411650e-01 -1.696570384383008e-17
 1.429999999999999e+00 -8.256108849411650e-01 -1.696570384383008e-17
 1.429999999999999e+00 -8.256108849411650e-01 -1.696570384383008e-17
 1.429999999999999e+00 -8.256108849411650e-01 -1.696570384383008e-17
 1.429999999999999e+00 -8.256108849411650e-01 -1.696570384383008e-17
 1.429999999999999e+00 -8.256108849411650e-01 -1.696570384383008e-17
 1.429999999999999e+00 -8.256108849411650e-01 -1.696570384383008e-17
 1.429999999999999e+00 -8.256108849411650e-01 -1.696570384383008e-17
 1.429999999999999e+00 -8.256108849411650e-01 -1.696570384383008e-17
 1.429999999999999e+00 -8.256108849411650e-01 -1.696570384383008e-17
 1.429999999999999e+00 -8.256108849411650e-01 -1.696570384383008e-17
 1.429999999999999e+00 -8.256108849411650e-01 -1.696570384383008e-17
 1.429999999999999e+00 -8.256108849411650e-01 -1.696570384383008e-17
 1.429999999999999e+00 -8.256108849411650e-01 -1.696570384383008e-17
-1.429999999999999e+00  8.256108849411650e-01  1.696570384383008e-17
 1.429999999999999e+00 -8.256108849411650e-01 -1.696570384383008e-17
 1.429999999999999e+00 -8.256108849411650e-01 -1.696570384383008e-17
 1.429999999999999e+00 -8.256108849411650e-01 -1.696570384383008e-17
 1.429999999999999e+00 -8.256108849411650e-01 -1.696570384383008e-17
 1.429999999999999e+00 -8.256108849411650e-01 -1.696570384383008e-17
 1.429999999999999e+00 -8.256108849411650e-01 -1.696570384383008e-17
 1.429999999999999e+00 -8.256108849411650e-01 -1.696570384383008e-17
 1.429999999999999e+00 -8.256108849411650e-01 -1.696570384383008e-17
 1.429999999999999e+00 -8.256108849411650e-01 -1.696570384383008e-17
 1.429999999999999e+00 -8.256108849411650e-01 -1.696570384383008e-17
 1.429999999999999e+00 -8.256108849411650e-01 -1.696570384383008e-17
 1.429999999999999e+00 -8.256108849411650e-01 -1.696570384383008e-17
 1.429999999999999e+00 -8.256108849411650e-01 -1.696570384383008e-17
 1.429999999999999e+00 -8.256108849411650e-01 -1.696570384383008e-17
 1.429999999999999e+00 -8.256108849411650e-01 -1.696570384383008e-17
 1.429999999999999e+00 -8.256108849411650e-01 -1.696570384383008e-17
 1.429999999999999e+00 -8.256108849411650e-01 -1.696570384383008e-17
 1.429999999999999e+00 -8.256108849411650e-01 -1.696570384383008e-17
 1.429999999999999e+00 -8.256108849411650e-01 -1.696570384383008e-17
 1.429999999999999e+00 -8.256108849411650e-01 -1.696570384383008e-17
 1.429999999999999e+00 -8.256108849411650e-01 -1.696570384383008e-17
 1.429999999999999e+00 -8.256108849411650e-01 -1.696570384383008e-17
 1.429999999999999e+00 -8.256108849411650e-01 -1.696570384383008e-17
 1.429999999999999e+00 -8.256108849411650e-01 -1.696570384383008e-17
 1.429999999999999e+00 -8.256108849411650e-01 -1.696570384383008e-17
 1.429999999999999e+00 -8.256108849411650e-01 -1.696570384383008e-17
 1.429999999999999e+00 -8.256108849411650e-01 -1.696570384383008e-17
 1.429999999999999e+00 -8.256108849411650e-01 -1.696570384383008e-17
 1.429999999999999e+00 -8.256108849411650e-01 -1.696570384383008e-17
 1.429999999999999e+00 -8.256108849411650e-01 -1.696570384383008e-17
 1.429999999999999e+00 -8.256108849411650e-01 -1.696570384383008e-17
 1.429999999999999e+00 -8.256108849411650e-01 -1.696570384383008e-17
 1.429999999999999e+00 -8.256108849411650e-01 -1.696570384383008e-17
 1.429999999999999e+00 -8.256108849411650e-01 -1.696570384383008e-17
 1.429999999999999e+00 -8.256108849411650e-01 -1.696570384383008e-17
 1.429999999999999e+00 -8.256108849411650e-01 -1.696570384383008e-17
 1.429999999999999e+00 -8.256108849411650e-01 -1.696570384383008e-17
 1.429999999999999e+00 -8.256108849411650e-01 -1.696570384383008e-17
 1.429999999999999e+00 -8.256108849411650e-01 -1.696570384383008e-17
 1.429999999999999e+00 -8.256108849411650e-01 -1.696570384383008e-17
 1.429999999999999e+00 -8.256108849411650e-01 -1.696570384383008e-17
 1.429999999999999e+00 -8.256108849411650e-01 -1.696570384383008e-17
 1.429999999999999e+00 -8.256108849411650e-01 -1.696570384383008e-17
 1.429999999999999e+00 -8.256108849411650e-01 -1.696570384383008e-17
 1.429999999999999e+00 -8.256108849411650e-01 -1.696570384383008e-17
 1.429999999999999e+00 -8.256108849411650e-01 -1.696570384383008e-17
 1.429999999999999e+00 -8.256108849411650e-01 -1.696570384383008e-17
 1.429999999999999e+00 -8.256108849411650e-01 -1.696570384383008e-17
 1.429999999999999e+00 -8.256108849411650e-01 -1.696570384383008e-17
 1.429999999999999e+00 -8.256108849411650e-01 -1.696570384383008e-17
 1.429999999999999e+00 -8.256108849411650e-01 -1.696570384383008e-17
 1.429999999999999e+00 -8.256108849411650e-01 -1.696570384383008e-17
 1.429999999999999e+00 -8.256108849411650e-01 -1.696570384383008e-17
 1.429999999999999e+00 -8.256108849411650e-01 -1.696570384383008e-17
 1.429999999999999e+00 -8.256108849411650e-01 -1.696570384383008e-17
 1.429999999999999e+00 -8.256108849411650e-01 -1.696570384383008e-17
 1.429999999999999e+00 -8.256108849411650e-01 -1.696570384383008e-17
 1.429999999999999e+00 -8.256108849411650e-01 -1.696570384383008e-17
 1.429999999999999e+00 -8.256108849411650e-01 -1.696570384383008e-17
 1.429999999999999e+00 -8.256108849411650e-01 -1.696570384383008e-17
 1.429999999999999e+00 -8.256108849411650e-01 -1.696570384383008e-17
 1.429999999999999e+00 -8.256108849411650e-01 -1.696570384383008e-17
 1.429999999999999e+00 -8.256108849411650e-01 -1.696570384383008e-17
 1.429999999999999e+00 -8.256108849411650e-01 -1.696570384383008e-17
 1.429999999999999e+00 -8.256108849411650e-01 -1.696570384383008e-17
 1.429999999999999e+00 -8.256108849411650e-01 -1.696570384383008e-17
 1.429999999999999e+00 -8.256108849411650e-01 -1.696570384383008e-17
 1.429999999999999e+00 -8.256108849411650e-01 -1.696570384383008e-17
 1.429999999999999e+00 -8.256108849411650e-01 -1.696570384383008e-17
 1.429999999999999e+00 -8.256108849411650e-01 -1.696570384383008e-17
 1.429999999999999e+00 -8.256108849411650e-01 -1.696570384383008e-17
 1.429999999999999e+00 -8.256108849411650e-01 -1.696570384383008e-17
 1.429999999999999e+00 -8.256108849411650e-01 -1.696570384383008e-17
 1.429999999999999e+00 -8.256108849411650e-01 -1.696570384383008e-17
 1.429999999999999e+00 -8.256108849411650e-01 -1.696570384383008e-17
 1.429999999999999e+00 -8.256108849411650e-01 -1.696570384383008e-17
 1.429999999999999e+00 -8.256108849411650e-01 -1.696570384383008e-17
 1.429999999999999e+00 -8.256108849411650e-01 -1.696570384383008e-17
 1.429999999999999e+00 -8.256108849411650e-01 -1.696570384383008e-17
 1.429999999999999e+00 -8.256108849411650e-01 -1.696570384383008e-17
 1.429999999999999e+00 -8.256108849411650e-01 -1.696570384383008e-17
 1.429999999999999e+00 -8.256108849411650e-01 -1.696570384383008e-17
 1.429999999999999e+00 -8.256108849411650e-01 -1.696570384383008e-17
 1.429999999999999e+00 -8.256108849411650e-01 -1.696570384383008e-17
 1.429999999999999e+00 -8.256108849411650e-01 -1.696570384383008e-17
 1.429999999999999e+00 -8.256108849411650e-01 -1.696570384383008e-17
 1.429999999999999e+00 -8.256108849411650e-01 -1.696570384383008e-17
 1.429999999999999e+00 -8.256108849411650e-01 -1.696570384383008e-17
 1.429999999999999e+00 -8.256108849411650e-01 -1.696570384383008e-17
 1.429999999999999e+00 -8.256108849411650e-01 -1.696570384383008e-17
 1.429999999999999e+00 -8.256108849411650e-01 -1.696570384383008e-17
 1.429999999999999e+00 -8.256108849411650e-01 -1.696570384383008e-17
 1.429999999999999e+00 -8.256108849411650e-01 -1.696570384383008e-17
 1.429999999999999e+00 -8.256108849411650e-01 -1.696570384383008e-17
 1.429999999999999e+00 -8.256108849411650e-01 -1.696570384383008e-17
 1.429999999999999e+00 -8.256108849411650e-01 -1.696570384383008e-17
 1.429999999999999e+00 -8.256108849411650e-01 -1.696570384383008e-17
 1.429999999999999e+00 -8.256108849411650e-01 -1.696570384383008e-17
 1.429999999999999e+00 -8.256108849411650e-01 -1.696570384383008e-17
 1.429999999999999e+00 -8.256108849411650e-01 -1.696570384383008e-17
 1.429999999999999e+00 -8.256108849411650e-01 -1.696570384383008e-17
 1.429999999999999e+00 -8.256108849411650e-01 -1.696570384383008e-17
 1.429999999999999e+00 -8.256108849411650e-01 -1.696570384383008e-17
 1.429999999999999e+00 -8.256108849411650e-01 -1.696570384383008e-17
 1.429999999999999e+00 -8.256108849411650e-01 -1.696570384383008e-17
 1.429999999999999e+00 -8.256108849411650e-01 -1.696570384383008e-17
 1.429999999999999e+00 -8.256108849411650e-01 -1.696570384383008e-17
 1.429999999999999e+00 -8.256108849411650e-01 -1.696570384383008e-17
 1.429999999999999e+00 -8.256108849411650e-01 -1.696570384383008e-17
 1.429999999999999e+00 -8.256108849411650e-01 -1.696570384383008e-17
 1.429999999999999e+00 -8.256108849411650e-01 -1.696570384383008e-17
 1.429999999999999e+00 -8.256108849411650e-01 -1.696570384383008e-17
 1.429999999999999e+00 -8.256108849411650e-01 -1.696570384383008e-17
 1.429999999999999e+00 -8.256108849411650e-01 -1.696570384383008e-17
 1.429999999999999e+00 -8.256108849411650e-01 -1.696570384383008e-17
 1.429999999999999e+00 -8.256108849411650e-01 -1.696570384383008e-17
 1.429999999999999e+00 -8.256108849411650e-01 -1.696570384383008e-17
 1.429999999999999e+00 -8.256108849411650e-01 -1.696570384383008e-17
 1.429999999999999e+00 -8.256108849411650e-01 -1.696570384383008e-17
 1.429999999999999e+00 -8.256108849411650e-01 -1.696570384383008e-17
 1.429999999999999e+00 -8.256108849411650e-01 -1.696570384383008e-17
 1.429999999999999e+00 -8.256108849411650e-01 -1.696570384383008e-17
 1.429999999999999e+00 -8.256108849411650e-01 -1.696570384383008e-17
 1.429999999999999e+00 -8.256108849411650e-01 -1.696570384383008e-17
 1.429999999999999e+00 -8.256108849411650e-01 -1.696570384383008e-17
 1.429999999999999e+00 -8.256108849411650e-01 -1.696570384383008e-17
 1.429999999999999e+00 -8.256108849411650e-01 -1.696570384383008e-17
 1.429999999999999e+00 -8.256108849411650e-01 -1.696570384383008e-17
 1.429999999999999e+00 -8.256108849411650e-01 -1.696570384383008e-17
 1.429999999999999e+00 -8.256108849411650e-01 -1.696570384383008e-17
 1.429999999999999e+00 -8.256108849411650e-01 -1.696570384383008e-17
 1.429999999999999e+00 -8.256108849411650e-01 -1.696570384383008e-17
 1.429999999999999e+00 -8.256108849411650e-01 -1.696570384383008e-17
 1.429999999999999e+00 -8.256108849411650e-01 -1.696570384383008e-17
 1.429999999999999e+00 -8.256108849411650e-01 -1.696570384383008e-17
 1.429999999999999e+00 -8.256108849411650e-01 -1.696570384383008e-17
 1.429999999999999e+00 -8.256108849411650e-01 -1.696570384383008e-17
 1.429999999999999e+00 -8.256108849411650e-01 -1.696570384383008e-17
 1.429999999999999e+00 -8.256108849411650e-01 -1.696570384383008e-17
 1.429999999999999e+00 -8.256108849411650e-01 -1.696570384383008e-17
 1.429999999999999e+00 -8.256108849411650e-01 -1.696570384383008e-17
 1.429999999999999e+00 -8.256108849411650e-01 -1.696570384383008e-17
 1.429999999999999e+00 -8.256108849411650e-01 -1.696570384383008e-17
 1.429999999999999e+00 -8.256108849411650e-01 -1.696570384383008e-17
 1.429999999999999e+00 -8.256108849411650e-01 -1.696570384383008e-17
 1.429999999999999e+00 -8.256108849411650e-01 -1.696570384383008e-17
 1.429999999999999e+00 -8.256108849411650e-01 -1.696570384383008e-17
 1.429999999999999e+00 -8.256108849411650e-01 -1.696570384383008e-17
 1.429999999999999e+00 -8.256108849411650e-01 -1.696570384383008e-17
 1.429999999999999e+00 -8.256108849411650e-01 -1.696570384383008e-17
 1.429999999999999e+00 -8.256108849411650e-01 -1.696570384383008e-17
 1.429999999999999e+00 -8.256108849411650e-01 -1.696570384383008e-17
 1.429999999999999e+00 -8.256108849411650e-01 -1.696570384383008e-17
 1.429999999999999e+00 -8.256108849411650e-01 -1.696570384383008e-17
 1.429999999999999e+00 -8.256108849411650e-01 -1.696570384383008e-17
 1.429999999999999e+00 -8.256108849411650e-01 -1.696570384383008e-17
 1.429999999999999e+00 -8.256108849411650e-01 -1.696570384383008e-17
 1.429999999999999e+00 -8.256108849411650e-01 -1.696570384383008e-17
 1.429999999999999e+00 -8.256108849411650e-01 -1.696570384383008e-17
 1.429999999999999e+00 -8.256108849411650e-01 -1.696570384383008e-17
 1.429999999999999e+00 -8.256108849411650e-01 -1.696570384383008e-17
 1.429999999999999e+00 -8.256108849411650e-01 -1.696570384383008e-17
 1.429999999999999e+00 -8.256108849411650e-01 -1.696570384383008e-17
 1.429999999999999e+00 -8.256108849411650e-01 -1.696570384383008e-17
 1.429999999999999e+00 -8.256108849411650e-01 -1.696570384383008e-17
 1.429999999999999e+00 -8.256108849411650e-01 -1.696570384383008e-17
 1.429999999999999e+00 -8.256108849411650e-01 -1.696570384383008e-17
 1.429999999999999e+00 -8.256108849411650e-01 -1.696570384383008e-17
 1.429999999999999e+00 -8.256108849411650e-01 -1.696570384383008e-17
 1.429999999999999e+00 -8.256108849411650e-01 -1.696570384383008e-17
 1.429999999999999e+00 -8.256108849411650e-01 -1.696570384383008e-17
 1.429999999999999e+00 -8.256108849411650e-01 -1.696570384383008e-17
 1.429999999999999e+00 -8.256108849411650e-01 -1.696570384383008e-17
 1.429999999999999e+00 -8.256108849411650e-01 -1.696570384383008e-17
 1.429999999999999e+00 -8.256108849411650e-01 -1.696570384383008e-17
 1.429999999999999e+00 -8.256108849411650e-01 -1.696570384383008e-17
 1.429999999999999e+00 -8.256108849411650e-01 -1.696570384383008e-17
 1.429999999999999e+00 -8.256108849411650e-01 -1.696570384383008e-17
 1.429999999999999e+00 -8.256108849411650e-01 -1.696570384383008e-17
 1.429999999999999e+00 -8.256108849411650e-01 -1.696570384383008e-17
 1.429999999999999e+00 -8.256108849411650e-01 -1.696570384383008e-17
 1.429999999999999e+00 -8.256108849411650e-01 -1.696570384383008e-17
 1.429999999999999e+00 -8.256108849411650e-01 -1.696570384383008e-17
 1.429999999999999e+00 -8.256108849411650e-01 -1.696570384383008e-17
 1.429999999999999e+00 -8.256108849411650e-01 -1.696570384383008e-17
 1.429999999999999e+00 -8.256108849411650e-01 -1.696570384383008e-17
 1.429999999999999e+00 -8.256108849411650e-01 -1.696570384383008e-17
 1.429999999999999e+00 -8.256108849411650e-01 -1.696570384383008e-17
 1.429999999999999e+00 -8.256108849411650e-01 -1.696570384383008e-17
 1.429999999999999e+00 -8.256108849411650e-01 -1.696570384383008e-17
 1.429999999999999e+00 -8.256108849411650e-01 -1.696570384383008e-17
 1.429999999999999e+00 -8.256108849411650e-01 -1.696570384383008e-17
 1.429999999999999e+00 -8.256108849411650e-01 -1.696570384383008e-17
 1.429999999999999e+00 -8.256108849411650e-01 -1.696570384383008e-17
 1.429999999999999e+00 -8.256108849411650e-01 -1.696570384383008e-17
 1.429999999999999e+00 -8.256108849411650e-01 -1.696570384383008e-17
 1.429999999999999e+00 -8.256108849411650e-01 -1.696570384383008e-17
 1.429999999999999e+00 -8.256108849411650e-01 -1.696570384383008e-17
 1.429999999999999e+00 -8.256108849411650e-01 -1.696570384383008e-17
 1.429999999999999e+00 -8.256108849411650e-01 -1.696570384383008e-17
 1.429999999999999e+00 -8.256108849411650e-01 -1.696570384383008e-17
 1.429999999999999e+00 -8.256108849411650e-01 -1.696570384383008e-17
 1.429999999999999e+00 -8.256108849411650e-01 -1.696570384383008e-17
 1.429999999999999e+00 -8.256108849411650e-01 -1.696570384383008e-17
 1.429999999999999e+00 -8.256108849411650e-01 -1.696570384383008e-17
 1.429999999999999e+00 -8.256108849411650e-01 -1.696570384383008e-17
 1.429999999999999e+00 -8.256108849411650e-01 -1.696570384383008e-17
 1.429999999999999e+00 -8.256108849411650e-01 -1.696570384383008e-17
 1.429999999999999e+00 -8.256108849411650e-01 -1.696570384383008e-17
 1.429999999999999e+00 -8.256108849411650e-01 -1.696570384383008e-17
 1.429999999999999e+00 -8.256108849411650e-01 -1.696570384383008e-17
 1.429999999999999e+00 -8.256108849411650e-01 -1.696570384383008e-17
 1.429999999999999e+00 -8.256108849411650e-01 -1.696570384383008e-17
 1.429999999999999e+00 -8.256108849411650e-01 -1.696570384383008e-17
 1.429999999999999e+00 -8.256108849411650e-01 -1.696570384383008e-17
 1.429999999999999e+00 -8.256108849411650e-01 -1.696570384383008e-17
 1.429999999999999e+00 -8.256108849411650e-01 -1.696570384383008e-17
 1.429999999999999e+00 -8.256108849411650e-01 -1.696570384383008e-17
 1.429999999999999e+00 -8.256108849411650e-01 -1.696570384383008e-17
 1.429999999999999e+00 -8.256108849411650e-01 -1.696570384383008e-17
 1.429999999999999e+00 -8.256108849411650e-01 -1.696570384383008e-17
 1.429999999999999e+00 -8.256108849411650e-01 -1.696570384383008e-17
 1.429999999999999e+00 -8.256108849411650e-01 -1.696570384383008e-17
 1.429999999999999e+00 -8.256108849411650e-01 -1.696570384383008e-17
 1.429999999999999e+00 -8.256108849411650e-01 -1.696570384383008e-17
 1.429999999999999e+00 -8.256108849411650e-01 -1.696570384383008e-17
 1.429999999999999e+00 -8.256108849411650e-01 -1.696570384383008e-17
 1.429999999999999e+00 -8.256108849411650e-01 -1.696570384383008e-17
 1.429999999999999e+00 -8.256108849411650e-01 -1.696570384383008e-17
 1.429999999999999e+00 -8.256108849411650e-01 -1.696570384383008e-17
 1.429999999999999e+00 -8.256108849411650e-01 -1.696570384383008e-17
 1.429999999999999e+00 -8.256108849411650e-01 -1.696570384383008e-17
 1.429999999999999e+00 -8.256108849411650e-01 -1.696570384383008e-17
 1.429999999999999e+00 -8.256108849411650e-01 -1.696570384383008e-17
 1.429999999999999e+00 -8.256108849411650e-01 -1.696570384383008e-17
 1.429999999999999e+00 -8.256108849411650e-01 -1.696570384383008e-17
 1.429999999999999e+00 -8.256108849411650e-01 -1.696570384383008e-17
 1.429999999999999e+00 -8.256108849411650e-01 -1.696570384383008e-17
 1.429999999999999e+00 -8.256108849411650e-01 -1.696570384383008e-17
 1.429999999999999e+00 -8.256108849411650e-01 -1.696570384383008e-17
 1.429999999999999e+00 -8.256108849411650e-01 -1.696570384383008e-17
 1.429999999999999e+00 -8.256108849411650e-01 -1.696570384383008e-17
 1.429999999999999e+00 -8.256108849411650e-01 -1.696570384383008e-17
 1.429999999999999e+00 -8.256108849411650e-01 -1.696570384383008e-17
 1.429999999999999e+00 -8.256108849411650e-01 -1.696570384383008e-17
 1.429999999999999e+00 -8.256108849411650e-01 -1.696570384383008e-17
 1.429999999999999e+00 -8.256108849411650e-01 -1.696570384383008e-17
 1.429999999999999e+00 -8.256108849411650e-01 -1.696570384383008e-17
 1.429999999999999e+00 -8.256108849411650e-01 -1.696570384383008e-17
 1.429999999999999e+00 -8.256108849411650e-01 -1.696570384383008e-17
 1.429999999999999e+00 -8.256108849411650e-01 -1.696570384383008e-17
 1.429999999999999e+00 -8.256108849411650e-01 -1.696570384383008e-17
 1.429999999999999e+00 -8.256108849411650e-01 -1.696570384383008e-17
 1.429999999999999e+00 -8.256108849411650e-01 -1.696570384383008e-17
 1.429999999999999e+00 -8.256108849411650e-01 -1.696570384383008e-17
 1.429999999999999e+00 -8.256108849411650e-01 -1.696570384383008e-17
 1.429999999999999e+00 -8.256108849411650e-01 -1.696570384383008e-17
 1.429999999999999e+00 -8.256108849411650e-01 -1.696570384383008e-17
 1.429999999999999e+00 -8.256108849411650e-01 -1.696570384383008e-17
 1.429999999999999e+00 -8.256108849411650e-01 -1.696570384383008e-17
 1.429999999999999e+00 -8.256108849411650e-01 -1.696570384383008e-17
 1.429999999999999e+00 -8.256108849411650e-01 -1.696570384383008e-17
 1.429999999999999e+00 -8.256108849411650e-01 -1.696570384383008e-17
 1.429999999999999e+00 -8.256108849411650e-01 -1.696570384383008e-17
 1.429999999999999e+00 -8.256108849411650e-01 -1.696570384383008e-17
 1.429999999999999e+00 -8.256108849411650e-01 -1.696570384383008e-17
 1.429999999999999e+00 -8.256108849411650e-01 -1.696570384383008e-17
 1.429999999999999e+00 -8.256108849411650e-01 -1.696570384383008e-17
 1.429999999999999e+00 -8.256108849411650e-01 -1.696570384383008e-17
 1.429999999999999e+00 -8.256108849411650e-01 -1.696570384383008e-17
 1.429999999999999e+00 -8.256108849411650e-01 -1.696570384383008e-17
 1.429999999999999e+00 -8.256108849411650e-01 -1.696570384383008e-17
 1.429999999999999e+00 -8.256108849411650e-01 -1.696570384383008e-17
 1.429999999999999e+00 -8.256108849411650e-01 -1.696570384383008e-17
 1.429999999999999e+00 -8.256108849411650e-01 -1.696570384383008e-17
 1.429999999999999e+00 -8.256108849411650e-01 -1.696570384383008e-17
 1.429999999999999e+00 -8.256108849411650e-01 -1.696570384383008e-17
 1.429999999999999e+00 -8.256108849411650e-01 -1.696570384383008e-17
 1.429999999999999e+00 -8.256108849411650e-01 -1.696570384383008e-17
 1.429999999999999e+00 -8.256108849411650e-01 -1.696570384383008e-17
 1.429999999999999e+00 -8.256108849411650e-01 -1.696570384383008e-17
 1.429999999999999e+00 -8.256108849411650e-01 -1.696570384383008e-17
 1.429999999999999e+00 -8.256108849411650e-01 -1.696570384383008e-17
 1.429999999999999e+00 -8.256108849411650e-01 -1.696570384383008e-17
 1.429999999999999e+00 -8.256108849411650e-01 -1.696570384383008e-17
 1.429999999999999e+00 -8.256108849411650e-01 -1.696570384383008e-17
 1.429999999999999e+00 -8.256108849411650e-01 -1.696570384383008e-17
 1.429999999999999e+00 -8.256108849411650e-01 -1.696570384383008e-17
 1.429999999999999e+00 -8.256108849411650e-01 -1.696570384383008e-17
 1.429999999999999e+00 -8.256108849411650e-01 -1.696570384383008e-17
 1.429999999999999e+00 -8.256108849411650e-01 -1.696570384383008e-17
 1.429999999999999e+00 -8.256108849411650e-01 -1.696570384383008e-17
 1.429999999999999e+00 -8.256108849411650e-01 -1.696570384383008e-17
 1.429999999999999e+00 -8.256108849411650e-01 -1.696570384383008e-17
 1.429999999999999e+00 -8.256108849411650e-01 -1.696570384383008e-17
 1.429999999999999e+00 -8.256108849411650e-01 -1.696570384383008e-17
 1.429999999999999e+00 -8.256108849411650e-01 -1.696570384383008e-17
 1.429999999999999e+00 -8.256108849411650e-01 -1.696570384383008e-17
 1.429999999999999e+00 -8.256108849411650e-01 -1.696570384383008e-17
 1.429999999999999e+00 -8.256108849411650e-01 -1.696570384383008e-17
 1.429999999999999e+00 -8.256108849411650e-01 -1.696570384383008e-17
 1.429999999999999e+00 -8.256108849411650e-01 -1.696570384383008e-17
 1.429999999999999e+00 -8.256108849411650e-01 -1.696570384383008e-17
 1.429999999999999e+00 -8.256108849411650e-01 -1.696570384383008e-17
 1.429999999999999e+00 -8.256108849411650e-01 -1.696570384383008e-17
 1.429999999999999e+00 -8.256108849411650e-01 -1.696570384383008e-17
 1.429999999999999e+00 -8.256108849411650e-01 -1.696570384383008e-17
 1.429999999999999e+00 -8.256108849411650e-01 -1.696570384383008e-17
 1.429999999999999e+00 -8.256108849411650e-01 -1.696570384383008e-17
 1.429999999999999e+00 -8.256108849411650e-01 -1.696570384383008e-17
 1.429999999999999e+00 -8.256108849411650e-01 -1.696570384383008e-17
 1.429999999999999e+00 -8.256108849411650e-01 -1.696570384383008e-17
 1.429999999999999e+00 -8.256108849411650e-01 -1.696570384383008e-17
 1.429999999999999e+00 -8.256108849411650e-01 -1.696570384383008e-17
 1.429999999999999e+00 -8.256108849411650e-01 -1.696570384383008e-17
 1.429999999999999e+00 -8.256108849411650e-01 -1.696570384383008e-17
 1.429999999999999e+00 -8.256108849411650e-01 -1.696570384383008e-17
 1.429999999999999e+00 -8.256108849411650e-01 -1.696570384383008e-17
 1.429999999999999e+00 -8.256108849411650e-01 -1.696570384383008e-17
 1.429999999999999e+00 -8.256108849411650e-01 -1.696570384383008e-17
 1.429999999999999e+00 -8.256108849411650e-01 -1.696570384383008e-17
 1.429999999999999e+00 -8.256108849411650e-01 -1.696570384383008e-17
 1.429999999999999e+00 -8.256108849411650e-01 -1.696570384383008e-17
 1.429999999999999e+00 -8.256108849411650e-01 -1.696570384383008e-17
 1.429999999999999e+00 -8.256108849411650e-01 -1.696570384383008e-17
 1.429999999999999e+00 -8.256108849411650e-01 -1.696570384383008e-17
 1.429999999999999e+00 -8.256108849411650e-01 -1.696570384383008e-17
 1.429999999999999e+00 -8.256108849411650e-01 -1.696570384383008e-17
 1.429999999999999e+00 -8.256108849411650e-01 -1.696570384383008e-17
 1.429999999999999e+00 -8.256108849411650e-01 -1.696570384383008e-17
 1.429999999999999e+00 -8.256108849411650e-01 -1.696570384383008e-17
 1.429999999999999e+00 -8.256108849411650e-01 -1.696570384383008e-17
 1.429999999999999e+00 -8.256108849411650e-01 -1.696570384383008e-17
 1.429999999999999e+00 -8.256108849411650e-01 -1.696570384383008e-17
 1.429999999999999e+00 -8.256108849411650e-01 -1.696570384383008e-17
 1.429999999999999e+00 -8.256108849411650e-01 -1.696570384383008e-17
 1.429999999999999e+00 -8.256108849411650e-01 -1.696570384383008e-17
 1.429999999999999e+00 -8.256108849411650e-01 -1.696570384383008e-17
 1.429999999999999e+00 -8.256108849411650e-01 -1.696570384383008e-17
 1.429999999999999e+00 -8.256108849411650e-01 -1.696570384383008e-17
 1.429999999999999e+00 -8.256108849411650e-01 -1.696570384383008e-17
 1.429999999999999e+00 -8.256108849411650e-01 -1.696570384383008e-17
 1.429999999999999e+00 -8.256108849411650e-01 -1.696570384383008e-17
 1.429999999999999e+00 -8.256108849411650e-01 -1.696570384383008e-17
 1.429999999999999e+00 -8.256108849411650e-01 -1.696570384383008e-17

VECTORS burgers_vector_local double
-1.666666666666667e-01 -3.333333333333333e-01 -1.666666666666665e-01
1.666666666666667e-01 3.333333333333333e-01 1.666666666666665e-01
-1.666666666666667e-01 -3.333333333333333e-01 -1.666666666666665e-01
-1.666666666666667e-01 -3.333333333333333e-01 -1.666666666666665e-01
-1.666666666666667e-01 -3.333333333333333e-01 -1.666666666666665e-01
-1.666666666666667e-01 -3.333333333333333e-01 -1.666666666666665e-01
-1.666666666666667e-01 -3.333333333333333e-01 -1.666666666666665e-01
-1.666666666666667e-01 -3.333333333333333e-01 -1.666666666666665e-01
-1.666666666666667e-01 -3.333333333333333e-01 -1.666666666666665e-01
-1.666666666666667e-01 -3.333333333333333e-01 -1.666666666666665e-01
-1.666666666666667e-01 -3.333333333333333e-01 -1.666666666666665e-01
-1.666666666666667e-01 -3.333333333333333e-01 -1.666666666666665e-01
-1.666666666666667e-01 -3.333333333333333e-01 -1.666666666666665e-01
-1.666666666666667e-01 -3.333333333333333e-01 -1.666666666666665e-01
-1.666666666666667e-01 -3.333333333333333e-01 -1.666666666666665e-01
-1.666666666666667e-01 -3.333333333333333e-01 -1.666666666666665e-01
-1.666666666666667e-01 -3.333333333333333e-01 -1.666666666666665e-01
-1.666666666666667e-01 -3.333333333333333e-01 -1.666666666666665e-01
-1.666666666666667e-01 -3.333333333333333e-01 -1.666666666666665e-01
-1.666666666666667e-01 -3.333333333333333e-01 -1.666666666666665e-01
-1.666666666666667e-01 -3.333333333333333e-01 -1.666666666666665e-01
-1.666666666666667e-01 -3.333333333333333e-01 -1.666666666666665e-01
-1.666666666666667e-01 -3.333333333333333e-01 -1.666666666666665e-01
-1.666666666666667e-01 -3.333333333333333e-01 -1.666666666666665e-01
-1.666666666666667e-01 -3.333333333333333e-01 -1.666666666666665e-01
-1.666666666666667e-01 -3.333333333333333e-01 -1.666666666666665e-01
-1.666666666666667e-01 -3.333333333333333e-01 -1.666666666666665e-01
-1.666666666666667e-01 -3.333333333333333e-01 -1.666666666666665e-01
-1.666666666666667e-01 -3.333333333333333e-01 -1.666666666666665e-01
-1.666666666666667e-01 -3.333333333333333e-01 -1.666666666666665e-01
-1.666666666666667e-01 -3.333333333333333e-01 -1.666666666666665e-01
-1.666666666666667e-01 -3.333333333333333e-01 -1.666666666666665e-01
-1.666666666666667e-01 -3.333333333333333e-01 -1.666666666666665e-01
-1.666666666666667e-01 -3.333333333333333e-01 -1.666666666666665e-01
-1.666666666666667e-01 -3.333333333333333e-01 -1.666666666666665e-01
-1.666666666666667e-01 -3.333333333333333e-01 -1.666666666666665e-01
-1.666666666666667e-01 -3.333333333333333e-01 -1.666666666666665e-01
-1.666666666666667e-01 -3.333333333333333e-01 -1.666666666666665e-01
-1.666666666666667e-01 -3.333333333333333e-01 -1.666666666666665e-01
-1.666666666666667e-01 -3.333333333333333e-01 -1.666666666666665e-01
-1.666666666666667e-01 -3.333333333333333e-01 -1.666666666666665e-01
-1.666666666666667e-01 -3.333333333333333e-01 -1.666666666666665e-01
-1.666666666666667e-01 -3.333333333333333e-01 -1.666666666666665e-01
-1.666666666666667e-01 -3.333333333333333e-01 -1.666666666666665e-01
-1.666666666666667e-01 -3.333333333333333e-01 -1.666666666666665e-01
-1.666666666666667e-01 -3.333333333333333e-01 -1.666666666666665e-01
-1.666666666666667e-01 -3.333333333333333e-01 -1.666666666666665e-01
-1.666666666666667e-01 -3.333333333333333e-01 -1.666666666666665e-01
-1.666666666666667e-01 -3.333333333333333e-01 -1.666666666666665e-01
-1.666666666666667e-01 -3.333333333333333e-01 -1.666666666666665e-01
-1.666666666666667e-01 -3.333333333333333e-01 -1.666666666666665e-01
-1.666666666666667e-01 -3.333333333333333e-01 -1.666666666666665e-01
-1.666666666666667e-01 -3.333333333333333e-01 -1.666666666666665e-01
-1.666666666666667e-01 -3.333333333333333e-01 -1.666666666666665e-01
-1.666666666666667e-01 -3.333333333333333e-01 -1.666666666666665e-01
-1.666666666666667e-01 -3.333333333333333e-01 -1.666666666666665e-01
-1.666666666666667e-01 -3.333333333333333e-01 -1.666666666666665e-01
-1.666666666666667e-01 -3.333333333333333e-01 -1.666666666666665e-01
-1.666666666666667e-01 -3.333333333333333e-01 -1.666666666666665e-01
-1.666666666666667e-01 -3.333333333333333e-01 -1.666666666666665e-01
-1.666666666666667e-01 -3.333333333333333e-01 -1.666666666666665e-01
-1.666666666666667e-01 -3.333333333333333e-01 -1.666666666666665e-01
-1.666666666666667e-01 -3.333333333333333e-01 -1.666666666666665e-01
-1.666666666666667e-01 -3.333333333333333e-01 -1.666666666666665e-01
-1.666666666666667e-01 -3.333333333333333e-01 -1.666666666666665e-01
-1.666666666666667e-01 -3.333333333333333e-01 -1.666666666666665e-01
-1.666666666666667e-01 -3.333333333333333e-01 -1.666666666666665e-01
-1.666666666666667e-01 -3.333333333333333e-01 -1.666666666666665e-01
-1.666666666666667e-01 -3.333333333333333e-01 -1.666666666666665e-01
-1.666666666666667e-01 -3.333333333333333e-01 -1.666666666666665e-01
-1.666666666666667e-01 -3.333333333333333e-01 -1.666666666666665e-01
-1.666666666666667e-01 -3.333333333333333e-01 -1.666666666666665e-01
-1.666666666666667e-01 -3.333333333333333e-01 -1.666666666666665e-01
-1.666666666666667e-01 -3.333333333333333e-01 -1.666666666666665e-01
-1.666666666666667e-01 -3.333333333333333e-01 -1.666666666666665e-01
-1.666666666666667e-01 -3.333333333333333e-01 -1.666666666666665e-01
-1.666666666666667e-01 -3.333333333333333e-01 -1.666666666666665e-01
-1.666666666666667e-01 -3.333333333333333e-01 -1.666666666666665e-01
-1.666666666666667e-01 -3.333333333333333e-01 -1.666666666666665e-01
-1.666666666666667e-01 -3.333333333333333e-01 -1.666666666666665e-01
-1.666666666666667e-01 -3.333333333333333e-01 -1.666666666666665e-01
-1.666666666666667e-01 -3.333333333333333e-01 -1.666666666666665e-01
-1.666666666666667e-01 -3.333333333333333e-01 -1.666666666666665e-01
-1.666666666666667e-01 -3.333333333333333e-01 -1.666666666666665e-01
-1.666666666666667e-01 -3.333333333333333e-01 -1.666666666666665e-01
-1.666666666666667e-01 -3.333333333333333e-01 -1.666666666666665e-01
-1.666666666666667e-01 -3.333333333333333e-01 -1.666666666666665e-01
-1.666666666666667e-01 -3.333333333333333e-01 -1.666666666666665e-01
-1.666666666666667e-01 -3.333333333333333e-01 -1.666666666666665e-01
-1.666666666666667e-01 -3.333333333333333e-01 -1.666666666666665e-01
-1.666666666666667e-01 -3.333333333333333e-01 -1.666666666666665e-01
-1.666666666666667e-01 -3.333333333333333e-01 -1.666666666666665e-01
-1.666666666666667e-01 -3.333333333333333e-01 -1.666666666666665e-01
-1.666666666666667e-01 -3.333333333333333e-01 -1.666666666666665e-01
-1.666666666666667e-01 -3.333333333333333e-01 -1.666666666666665e-01
-1.666666666666667e-01 -3.333333333333333e-01 -1.666666666666665e-01
-1.666666666666667e-01 -3.333333333333333e-01 -1.666666666666665e-01
-1.666666666666667e-01 -3.333333333333333e-01 -1.666666666666665e-01
-1.666666666666667e-01 -3.333333333333333e-01 -1.666666666666665e-01
-1.666666666666667e-01 -3.333333333333333e-01 -1.666666666666665e-01
-1.666666666666667e-01 -3.333333333333333e-01 -1.666666666666665e-01
-1.666666666666667e-01 -3.333333333333333e-01 -1.666666666666665e-01
-1.666666666666667e-01 -3.333333333333333e-01 -1.666666666666665e-01
-1.666666666666667e-01 -3.333333333333333e-01 -1.666666666666665e-01
-1.666666666666667e-01 -3.333333333333333e-01 -1.666666666666665e-01
-1.666666666666667e-01 -3.333333333333333e-01 -1.666666666666665e-01
-1.666666666666667e-01 -3.333333333333333e-01 -1.666666666666665e-01
-1.666666666666667e-01 -3.333333333333333e-01 -1.666666666666665e-01
-1.666666666666667e-01 -3.333333333333333e-01 -1.666666666666665e-01
-1.666666666666667e-01 -3.333333333333333e-01 -1.666666666666665e-01
-1.666666666666667e-01 -3.333333333333333e-01 -1.666666666666665e-01
-1.666666666666667e-01 -3.333333333333333e-01 -1.666666666666665e-01
-1.666666666666667e-01 -3.333333333333333e-01 -1.666666666666665e-01
-1.666666666666667e-01 -3.333333333333333e-01 -1.666666666666665e-01
-1.666666666666667e-01 -3.333333333333333e-01 -1.666666666666665e-01
-1.666666666666667e-01 -3.333333333333333e-01 -1.666666666666665e-01
-1.666666666666667e-01 -3.333333333333333e-01 -1.666666666666665e-01
-1.666666666666667e-01 -3.333333333333333e-01 -1.666666666666665e-01
-1.666666666666667e-01 -3.333333333333333e-01 -1.666666666666665e-01
-1.666666666666667e-01 -3.333333333333333e-01 -1.666666666666665e-01
-1.666666666666667e-01 -3.333333333333333e-01 -1.666666666666665e-01
-1.666666666666667e-01 -3.333333333333333e-01 -1.666666666666665e-01
-1.666666666666667e-01 -3.333333333333333e-01 -1.666666666666665e-01
-1.666666666666667e-01 -3.333333333333333e-01 -1.666666666666665e-01
-1.666666666666667e-01 -3.333333333333333e-01 -1.666666666666665e-01
-1.666666666666667e-01 -3.333333333333333e-01 -1.666666666666665e-01
-1.666666666666667e-01 -3.333333333333333e-01 -1.666666666666665e-01
-1.666666666666667e-01 -3.333333333333333e-01 -1.666666666666665e-01
-1.666666666666667e-01 -3.333333333333333e-01 -1.666666666666665e-01
-1.666666666666667e-01 -3.333333333333333e-01 -1.666666666666665e-01
-1.666666666666667e-01 -3.333333333333333e-01 -1.666666666666665e-01
-1.666666666666667e-01 -3.333333333333333e-01 -1.666666666666665e-01
-1.666666666666667e-01 -3.333333333333333e-01 -1.666666666666665e-01
-1.666666666666667e-01 -3.333333333333333e-01 -1.666666666666665e-01
-1.666666666666667e-01 -3.333333333333333e-01 -1.666666666666665e-01
-1.666666666666667e-01 -3.333333333333333e-01 -1.666666666666665e-01
-1.666666666666667e-01 -3.333333333333333e-01 -1.666666666666665e-01
-1.666666666666667e-01 -3.333333333333333e-01 -1.666666666666665e-01
-1.666666666666667e-01 -3.333333333333333e-01 -1.666666666666665e-01
-1.666666666666667e-01 -3.333333333333333e-01 -1.666666666666665e-01
-1.666666666666667e-01 -3.333333333333333e-01 -1.666666666666665e-01
-1.666666666666667e-01 -3.333333333333333e-01 -1.666666666666665e-01
-1.666666666666667e-01 -3.333333333333333e-01 -1.666666666666665e-01
-1.666666666666667e-01 -3.333333333333333e-01 -1.666666666666665e-01
-1.666666666666667e-01 -3.333333333333333e-01 -1.666666666666665e-01
-1.666666666666667e-01 -3.333333333333333e-01 -1.666666666666665e-01
-1.666666666666667e-01 -3.333333333333333e-01 -1.666666666666665e-01
-1.666666666666667e-01 -3.333333333333333e-01 -1.666666666666665e-01
-1.666666666666667e-01 -3.333333333333333e-01 -1.666666666666665e-01
-1.666666666666667e-01 -3.333333333333333e-01 -1.666666666666665e-01
-1.666666666666667e-01 -3.333333333333333e-01 -1.666666666666665e-01
-1.666666666666667e-01 -3.333333333333333e-01 -1.666666666666665e-01
-1.666666666666667e-01 -3.333333333333333e-01 -1.666666666666665e-01
-1.666666666666667e-01 -3.333333333333333e-01 -1.666666666666665e-01
-1.666666666666667e-01 -3.333333333333333e-01 -1.666666666666665e-01
-1.666666666666667e-01 -3.333333333333333e-01 -1.666666666666665e-01
-1.666666666666667e-01 -3.333333333333333e-01 -1.666666666666665e-01
-1.666666666666667e-01 -3.333333333333333e-01 -1.666666666666665e-01
-1.666666666666667e-01 -3.333333333333333e-01 -1.666666666666665e-01
-1.666666666666667e-01 -3.333333333333333e-01 -1.666666666666665e-01
-1.666666666666667e-01 -3.333333333333333e-01 -1.666666666666665e-01
-1.666666666666667e-01 -3.333333333333333e-01 -1.666666666666665e-01
-1.666666666666667e-01 -3.333333333333333e-01 -1.666666666666665e-01
-1.666666666666667e-01 -3.333333333333333e-01 -1.666666666666665e-01
-1.666666666666667e-01 -3.333333333333333e-01 -1.666666666666665e-01
-1.666666666666667e-01 -3.333333333333333e-01 -1.666666666666665e-01
-1.666666666666667e-01 -3.333333333333333e-01 -1.666666666666665e-01
-1.666666666666667e-01 -3.333333333333333e-01 -1.666666666666665e-01
-1.666666666666667e-01 -3.333333333333333e-01 -1.666666666666665e-01
-1.666666666666667e-01 -3.333333333333333e-01 -1.666666666666665e-01
-1.666666666666667e-01 -3.333333333333333e-01 -1.666666666666665e-01
-1.666666666666667e-01 -3.333333333333333e-01 -1.666666666666665e-01
-1.666666666666667e-01 -3.333333333333333e-01 -1.666666666666665e-01
-1.666666666666667e-01 -3.333333333333333e-01 -1.666666666666665e-01
-1.666666666666667e-01 -3.333333333333333e-01 -1.666666666666665e-01
-1.666666666666667e-01 -3.333333333333333e-01 -1.666666666666665e-01
-1.666666666666667e-01 -3.333333333333333e-01 -1.666666666666665e-01
-1.666666666666667e-01 -3.333333333333333e-01 -1.666666666666665e-01
-1.666666666666667e-01 -3.333333333333333e-01 -1.666666666666665e-01
-1.666666666666667e-01 -3.333333333333333e-01 -1.666666666666665e-01
-1.666666666666667e-01 -3.333333333333333e-01 -1.666666666666665e-01
-1.666666666666667e-01 -3.333333333333333e-01 -1.666666666666665e-01
-1.666666666666667e-01 -3.333333333333333e-01 -1.666666666666665e-01
-1.666666666666667e-01 -3.333333333333333e-01 -1.666666666666665e-01
-1.666666666666667e-01 -3.333333333333333e-01 -1.666666666666665e-01
-1.666666666666667e-01 -3.333333333333333e-01 -1.666666666666665e-01
-1.666666666666667e-01 -3.333333333333333e-01 -1.666666666666665e-01
-1.666666666666667e-01 -3.333333333333333e-01 -1.666666666666665e-01
-1.666666666666667e-01 -3.333333333333333e-01 -1.666666666666665e-01
-1.666666666666667e-01 -3.333333333333333e-01 -1.666666666666665e-01
-1.666666666666667e-01 -3.333333333333333e-01 -1.666666666666665e-01
-1.666666666666667e-01 -3.333333333333333e-01 -1.666666666666665e-01
-1.666666666666667e-01 -3.333333333333333e-01 -1.666666666666665e-01
-1.666666666666667e-01 -3.333333333333333e-01 -1.666666666666665e-01
-1.666666666666667e-01 -3.333333333333333e-01 -1.666666666666665e-01
-1.666666666666667e-01 -3.333333333333333e-01 -1.666666666666665e-01
-1.666666666666667e-01 -3.333333333333333e-01 -1.666666666666665e-01
-1.666666666666667e-01 -3.333333333333333e-01 -1.666666666666665e-01
-1.666666666666667e-01 -3.333333333333333e-01 -1.666666666666665e-01
-1.666666666666667e-01 -3.333333333333333e-01 -1.666666666666665e-01
-1.666666666666667e-01 -3.333333333333333e-01 -1.666666666666665e-01
-1.666666666666667e-01 -3.333333333333333e-01 -1.666666666666665e-01
-1.666666666666667e-01 -3.333333333333333e-01 -1.666666666666665e-01
-1.666666666666667e-01 -3.333333333333333e-01 -1.666666666666665e-01
-1.666666666666667e-01 -3.333333333333333e-01 -1.666666666666665e-01
-1.666666666666667e-01 -3.333333333333333e-01 -1.666666666666665e-01
-1.666666666666667e-01 -3.333333333333333e-01 -1.666666666666665e-01
-1.666666666666667e-01 -3.333333333333333e-01 -1.666666666666665e-01
-1.666666666666667e-01 -3.333333333333333e-01 -1.666666666666665e-01
-1.666666666666667e-01 -3.333333333333333e-01 -1.666666666666665e-01
-1.666666666666667e-01 -3.333333333333333e-01 -1.666666666666665e-01
-1.666666666666667e-01 -3.333333333333333e-01 -1.666666666666665e-01
-1.666666666666667e-01 -3.333333333333333e-01 -1.666666666666665e-01
-1.666666666666667e-01 -3.333333333333333e-01 -1.666666666666665e-01
-1.666666666666667e-01 -3.333333333333333e-01 -1.666666666666665e-01
-1.666666666666667e-01 -3.333333333333333e-01 -1.666666666666665e-01
-1.666666666666667e-01 -3.333333333333333e-01 -1.666666666666665e-01
-1.666666666666667e-01 -3.333333333333333e-01 -1.666666666666665e-01
-1.666666666666667e-01 -3.333333333333333e-01 -1.666666666666665e-01
-1.666666666666667e-01 -3.333333333333333e-01 -1.666666666666665e-01
-1.666666666666667e-01 -3.333333333333333e-01 -1.666666666666665e-01
-1.666666666666667e-01 -3.333333333333333e-01 -1.666666666666665e-01
-1.666666666666667e-01 -3.333333333333333e-01 -1.666666666666665e-01
-1.666666666666667e-01 -3.333333333333333e-01 -1.666666666666665e-01
-1.666666666666667e-01 -3.333333333333333e-01 -1.666666666666665e-01
-1.666666666666667e-01 -3.333333333333333e-01 -1.666666666666665e-01
-1.666666666666667e-01 -3.333333333333333e-01 -1.666666666666665e-01
-1.666666666666667e-01 -3.333333333333333e-01 -1.666666666666665e-01
-1.666666666666667e-01 -3.333333333333333e-01 -1.666666666666665e-01
-1.666666666666667e-01 -3.333333333333333e-01 -1.666666666666665e-01
-1.666666666666667e-01 -3.333333333333333e-01 -1.666666666666665e-01
-1.666666666666667e-01 -3.333333333333333e-01 -1.666666666666665e-01
-1.666666666666667e-01 -3.333333333333333e-01 -1.666666666666665e-01
-1.666666666666667e-01 -3.333333333333333e-01 -1.666666666666665e-01
-1.666666666666667e-01 -3.333333333333333e-01 -1.666666666666665e-01
-1.666666666666667e-01 -3.333333333333333e-01 -1.666666666666665e-01
-1.666666666666667e-01 -3.333333333333333e-01 -1.666666666666665e-01
-1.666666666666667e-01 -3.333333333333333e-01 -1.666666666666665e-01
-1.666666666666667e-01 -3.333333333333333e-01 -1.666666666666665e-01
-1.666666666666667e-01 -3.333333333333333e-01 -1.666666666666665e-01
-1.666666666666667e-01 -3.333333333333333e-01 -1.666666666666665e-01
-1.666666666666667e-01 -3.333333333333333e-01 -1.666666666666665e-01
-1.666666666666667e-01 -3.333333333333333e-01 -1.666666666666665e-01
-1.666666666666667e-01 -3.333333333333333e-01 -1.666666666666665e-01
-1.666666666666667e-01 -3.333333333333333e-01 -1.666666666666665e-01
-1.666666666666667e-01 -3.333333333333333e-01 -1.666666666666665e-01
-1.666666666666667e-01 -3.333333333333333e-01 -1.666666666666665e-01
-1.666666666666667e-01 -3.333333333333333e-01 -1.666666666666665e-01
-1.666666666666667e-01 -3.333333333333333e-01 -1.666666666666665e-01
-1.666666666666667e-01 -3.333333333333333e-01 -1.666666666666665e-01
-1.666666666666667e-01 -3.333333333333333e-01 -1.666666666666665e-01
-1.666666666666667e-01 -3.333333333333333e-01 -1.666666666666665e-01
-1.666666666666667e-01 -3.333333333333333e-01 -1.666666666666665e-01
-1.666666666666667e-01 -3.333333333333333e-01 -1.666666666666665e-01
-1.666666666666667e-01 -3.333333333333333e-01 -1.666666666666665e-01
-1.666666666666667e-01 -3.333333333333333e-01 -1.666666666666665e-01
-1.666666666666667e-01 -3.333333333333333e-01 -1.666666666666665e-01
-1.666666666666667e-01 -3.333333333333333e-01 -1.666666666666665e-01
-1.666666666666667e-01 -3.333333333333333e-01 -1.666666666666665e-01
-1.666666666666667e-01 -3.333333333333333e-01 -1.666666666666665e-01
-1.666666666666667e-01 -3.333333333333333e-01 -1.666666666666665e-01
-1.666666666666667e-01 -3.333333333333333e-01 -1.666666666666665e-01
-1.666666666666667e-01 -3.333333333333333e-01 -1.666666666666665e-01
-1.666666666666667e-01 -3.333333333333333e-01 -1.666666666666665e-01
-1.666666666666667e-01 -3.333333333333333e-01 -1.666666666666665e-01
-1.666666666666667e-01 -3.333333333333333e-01 -1.666666666666665e-01
-1.666666666666667e-01 -3.333333333333333e-01 -1.666666666666665e-01
-1.666666666666667e-01 -3.333333333333333e-01 -1.666666666666665e-01
-1.666666666666667e-01 -3.333333333333333e-01 -1.666666666666665e-01
-1.666666666666667e-01 -3.333333333333333e-01 -1.666666666666665e-01
-1.666666666666667e-01 -3.333333333333333e-01 -1.666666666666665e-01
-1.666666666666667e-01 -3.333333333333333e-01 -1.666666666666665e-01
-1.666666666666667e-01 -3.333333333333333e-01 -1.666666666666665e-01
-1.666666666666667e-01 -3.333333333333333e-01 -1.666666666666665e-01
-1.666666666666667e-01 -3.333333333333333e-01 -1.666666666666665e-01
-1.666666666666667e-01 -3.333333333333333e-01 -1.666666666666665e-01
-1.666666666666667e-01 -3.333333333333333e-01 -1.666666666666665e-01
-1.666666666666667e-01 -3.333333333333333e-01 -1.666666666666665e-01
-1.666666666666667e-01 -3.333333333333333e-01 -1.666666666666665e-01
-1.666666666666667e-01 -3.333333333333333e-01 -1.666666666666665e-01
-1.666666666666667e-01 -3.333333333333333e-01 -1.666666666666665e-01
-1.666666666666667e-01 -3.333333333333333e-01 -1.666666666666665e-01
-1.666666666666667e-01 -3.333333333333333e-01 -1.666666666666665e-01
-1.666666666666667e-01 -3.333333333333333e-01 -1.666666666666665e-01
-1.666666666666667e-01 -3.333333333333333e-01 -1.666666666666665e-01
-1.666666666666667e-01 -3.333333333333333e-01 -1.666666666666665e-01
-1.666666666666667e-01 -3.333333333333333e-01 -1.666666666666665e-01
-1.666666666666667e-01 -3.333333333333333e-01 -1.666666666666665e-01
-1.666666666666667e-01 -3.333333333333333e-01 -1.666666666666665e-01
-1.666666666666667e-01 -3.333333333333333e-01 -1.666666666666665e-01
-1.666666666666667e-01 -3.333333333333333e-01 -1.666666666666665e-01
-1.666666666666667e-01 -3.333333333333333e-01 -1.666666666666665e-01
-1.666666666666667e-01 -3.333333333333333e-01 -1.666666666666665e-01
-1.666666666666667e-01 -3.333333333333333e-01 -1.666666666666665e-01
-1.666666666666667e-01 -3.333333333333333e-01 -1.666666666666665e-01
-1.666666666666667e-01 -3.333333333333333e-01 -1.666666666666665e-01
-1.666666666666667e-01 -3.333333333333333e-01 -1.666666666666665e-01
-1.666666666666667e-01 -3.333333333333333e-01 -1.666666666666665e-01
-1.666666666666667e-01 -3.333333333333333e-01 -1.666666666666665e-01
-1.666666666666667e-01 -3.333333333333333e-01 -1.666666666666665e-01
-1.666666666666667e-01 -3.333333333333333e-01 -1.666666666666665e-01
-1.666666666666667e-01 -3.333333333333333e-01 -1.666666666666665e-01
-1.666666666666667e-01 -3.333333333333333e-01 -1.666666666666665e-01
-1.666666666666667e-01 -3.333333333333333e-01 -1.666666666666665e-01
-1.666666666666667e-01 -3.333333333333333e-01 -1.666666666666665e-01
-1.666666666666667e-01 -3.333333333333333e-01 -1.666666666666665e-01
-1.666666666666667e-01 -3.333333333333333e-01 -1.666666666666665e-01
-1.666666666666667e-01 -3.333333333333333e-01 -1.666666666666665e-01
-1.666666666666667e-01 -3.333333333333333e-01 -1.666666666666665e-01
-1.666666666666667e-01 -3.333333333333333e-01 -1.666666666666665e-01
-1.666666666666667e-01 -3.333333333333333e-01 -1.666666666666665e-01
-1.666666666666667e-01 -3.333333333333333e-01 -1.666666666666665e-01
-1.666666666666667e-01 -3.333333333333333e-01 -1.666666666666665e-01
-1.666666666666667e-01 -3.333333333333333e-01 -1.666666666666665e-01
1.666666666666667e-01 3.333333333333333e-01 1.666666666666665e-01
-1.666666666666667e-01 -3.333333333333333e-01 -1.666666666666665e-01
-1.666666666666667e-01 -3.333333333333333e-01 -1.666666666666665e-01
-1.666666666666667e-01 -3.333333333333333e-01 -1.666666666666665e-01
-1.666666666666667e-01 -3.333333333333333e-01 -1.666666666666665e-01
-1.666666666666667e-01 -3.333333333333333e-01 -1.666666666666665e-01
-1.666666666666667e-01 -3.333333333333333e-01 -1.666666666666665e-01
-1.666666666666667e-01 -3.333333333333333e-01 -1.666666666666665e-01
-1.666666666666667e-01 -3.333333333333333e-01 -1.666666666666665e-01
-1.666666666666667e-01 -3.333333333333333e-01 -1.666666666666665e-01
-1.666666666666667e-01 -3.333333333333333e-01 -1.666666666666665e-01
-1.666666666666667e-01 -3.333333333333333e-01 -1.666666666666665e-01
-1.666666666666667e-01 -3.333333333333333e-01 -1.666666666666665e-01
-1.666666666666667e-01 -3.333333333333333e-01 -1.666666666666665e-01
-1.666666666666667e-01 -3.333333333333333e-01 -1.666666666666665e-01
-1.666666666666667e-01 -3.333333333333333e-01 -1.666666666666665e-01
-1.666666666666667e-01 -3.333333333333333e-01 -1.666666666666665e-01
-1.666666666666667e-01 -3.333333333333333e-01 -1.666666666666665e-01
-1.666666666666667e-01 -3.333333333333333e-01 -1.666666666666665e-01
-1.666666666666667e-01 -3.333333333333333e-01 -1.666666666666665e-01
-1.666666666666667e-01 -3.333333333333333e-01 -1.666666666666665e-01
-1.666666666666667e-01 -3.333333333333333e-01 -1.666666666666665e-01
-1.666666666666667e-01 -3.333333333333333e-01 -1.666666666666665e-01
-1.666666666666667e-01 -3.333333333333333e-01 -1.666666666666665e-01
-1.666666666666667e-01 -3.333333333333333e-01 -1.666666666666665e-01
-1.666666666666667e-01 -3.333333333333333e-01 -1.666666666666665e-01
-1.666666666666667e-01 -3.333333333333333e-01 -1.666666666666665e-01
-1.666666666666667e-01 -3.333333333333333e-01 -1.666666666666665e-01
-1.666666666666667e-01 -3.333333333333333e-01 -1.666666666666665e-01
-1.666666666666667e-01 -3.333333333333333e-01 -1.666666666666665e-01
-1.666666666666667e-01 -3.333333333333333e-01 -1.666666666666665e-01
-1.666666666666667e-01 -3.333333333333333e-01 -1.666666666666665e-01
-1.666666666666667e-01 -3.333333333333333e-01 -1.666666666666665e-01
-1.666666666666667e-01 -3.333333333333333e-01 -1.666666666666665e-01
-1.666666666666667e-01 -3.333333333333333e-01 -1.666666666666665e-01
-1.666666666666667e-01 -3.333333333333333e-01 -1.666666666666665e-01
-1.666666666666667e-01 -3.333333333333333e-01 -1.666666666666665e-01
-1.666666666666667e-01 -3.333333333333333e-01 -1.666666666666665e-01
-1.666666666666667e-01 -3.333333333333333e-01 -1.666666666666665e-01
-1.666666666666667e-01 -3.333333333333333e-01 -1.666666666666665e-01
-1.666666666666667e-01 -3.333333333333333e-01 -1.666666666666665e-01
-1.666666666666667e-01 -3.333333333333333e-01 -1.666666666666665e-01
-1.666666666666667e-01 -3.333333333333333e-01 -1.666666666666665e-01
-1.666666666666667e-01 -3.333333333333333e-01 -1.666666666666665e-01
-1.666666666666667e-01 -3.333333333333333e-01 -1.666666666666665e-01
-1.666666666666667e-01 -3.333333333333333e-01 -1.666666666666665e-01
-1.666666666666667e-01 -3.333333333333333e-01 -1.666666666666665e-01
-1.666666666666667e-01 -3.333333333333333e-01 -1.666666666666665e-01
-1.666666666666667e-01 -3.333333333333333e-01 -1.666666666666665e-01
-1.666666666666667e-01 -3.333333333333333e-01 -1.666666666666665e-01
-1.666666666666667e-01 -3.333333333333333e-01 -1.666666666666665e-01
-1.666666666666667e-01 -3.333333333333333e-01 -1.666666666666665e-01
-1.666666666666667e-01 -3.333333333333333e-01 -1.666666666666665e-01
-1.666666666666667e-01 -3.333333333333333e-01 -1.666666666666665e-01
-1.666666666666667e-01 -3.333333333333333e-01 -1.666666666666665e-01
-1.666666666666667e-01 -3.333333333333333e-01 -1.666666666666665e-01
-1.666666666666667e-01 -3.333333333333333e-01 -1.666666666666665e-01
-1.666666666666667e-01 -3.333333333333333e-01 -1.666666666666665e-01
-1.666666666666667e-01 -3.333333333333333e-01 -1.666666666666665e-01
-1.666666666666667e-01 -3.333333333333333e-01 -1.666666666666665e-01
-1.666666666666667e-01 -3.333333333333333e-01 -1.666666666666665e-01
-1.666666666666667e-01 -3.333333333333333e-01 -1.666666666666665e-01
-1.666666666666667e-01 -3.333333333333333e-01 -1.666666666666665e-01
-1.666666666666667e-01 -3.333333333333333e-01 -1.666666666666665e-01
-1.666666666666667e-01 -3.333333333333333e-01 -1.666666666666665e-01
-1.666666666666667e-01 -3.333333333333333e-01 -1.666666666666665e-01
-1.666666666666667e-01 -3.333333333333333e-01 -1.666666666666665e-01
-1.666666666666667e-01 -3.333333333333333e-01 -1.666666666666665e-01
-1.666666666666667e-01 -3.333333333333333e-01 -1.666666666666665e-01
-1.666666666666667e-01 -3.333333333333333e-01 -1.666666666666665e-01
-1.666666666666667e-01 -3.333333333333333e-01 -1.666666666666665e-01
-1.666666666666667e-01 -3.333333333333333e-01 -1.666666666666665e-01
-1.666666666666667e-01 -3.333333333333333e-01 -1.666666666666665e-01
-1.666666666666667e-01 -3.333333333333333e-01 -1.666666666666665e-01
-1.666666666666667e-01 -3.333333333333333e-01 -1.666666666666665e-01
-1.666666666666667e-01 -3.333333333333333e-01 -1.666666666666665e-01
-1.666666666666667e-01 -3.333333333333333e-01 -1.666666666666665e-01
-1.666666666666667e-01 -3.333333333333333e-01 -1.666666666666665e-01
-1.666666666666667e-01 -3.333333333333333e-01 -1.666666666666665e-01
-1.666666666666667e-01 -3.333333333333333e-01 -1.666666666666665e-01
-1.666666666666667e-01 -3.333333333333333e-01 -1.666666666666665e-01
-1.666666666666667e-01 -3.333333333333333e-01 -1.666666666666665e-01
-1.666666666666667e-01 -3.333333333333333e-01 -1.666666666666665e-01
-1.666666666666667e-01 -3.333333333333333e-01 -1.666666666666665e-01
-1.666666666666667e-01 -3.333333333333333e-01 -1.666666666666665e-01
-1.666666666666667e-01 -3.333333333333333e-01 -1.666666666666665e-01
-1.666666666666667e-01 -3.333333333333333e-01 -1.666666666666665e-01
-1.666666666666667e-01 -3.333333333333333e-01 -1.666666666666665e-01
-1.666666666666667e-01 -3.333333333333333e-01 -1.666666666666665e-01
-1.666666666666667e-01 -3.333333333333333e-01 -1.666666666666665e-01
-1.666666666666667e-01 -3.333333333333333e-01 -1.666666666666665e-01
-1.666666666666667e-01 -3.333333333333333e-01 -1.666666666666665e-01
-1.666666666666667e-01 -3.333333333333333e-01 -1.666666666666665e-01
-1.666666666666667e-01 -3.333333333333333e-01 -1.666666666666665e-01
-1.666666666666667e-01 -3.333333333333333e-01 -1.666666666666665e-01
-1.666666666666667e-01 -3.333333333333333e-01 -1.666666666666665e-01
-1.666666666666667e-01 -3.333333333333333e-01 -1.666666666666665e-01
-1.666666666666667e-01 -3.333333333333333e-01 -1.666666666666665e-01
-1.666666666666667e-01 -3.333333333333333e-01 -1.666666666666665e-01
-1.666666666666667e-01 -3.333333333333333e-01 -1.666666666666665e-01
-1.666666666666667e-01 -3.333333333333333e-01 -1.666666666666665e-01
-1.666666666666667e-01 -3.333333333333333e-01 -1.666666666666665e-01
-1.666666666666667e-01 -3.333333333333333e-01 -1.666666666666665e-01
-1.666666666666667e-01 -3.333333333333333e-01 -1.666666666666665e-01
-1.666666666666667e-01 -3.333333333333333e-01 -1.666666666666665e-01
-1.666666666666667e-01 -3.333333333333333e-01 -1.666666666666665e-01
-1.666666666666667e-01 -3.333333333333333e-01 -1.666666666666665e-01
-1.666666666666667e-01 -3.333333333333333e-01 -1.666666666666665e-01
-1.666666666666667e-01 -3.333333333333333e-01 -1.666666666666665e-01
-1.666666666666667e-01 -3.333333333333333e-01 -1.666666666666665e-01
-1.666666666666667e-01 -3.333333333333333e-01 -1.666666666666665e-01
-1.666666666666667e-01 -3.333333333333333e-01 -1.666666666666665e-01
-1.666666666666667e-01 -3.333333333333333e-01 -1.666666666666665e-01
-1.666666666666667e-01 -3.333333333333333e-01 -1.666666666666665e-01
-1.666666666666667e-01 -3.333333333333333e-01 -1.666666666666665e-01
-1.666666666666667e-01 -3.333333333333333e-01 -1.666666666666665e-01
-1.666666666666667e-01 -3.333333333333333e-01 -1.666666666666665e-01
-1.666666666666667e-01 -3.333333333333333e-01 -1.666666666666665e-01
-1.666666666666667e-01 -3.333333333333333e-01 -1.666666666666665e-01
-1.666666666666667e-01 -3.333333333333333e-01 -1.666666666666665e-01
-1.666666666666667e-01 -3.333333333333333e-01 -1.666666666666665e-01
-1.666666666666667e-01 -3.333333333333333e-01 -1.666666666666665e-01
-1.666666666666667e-01 -3.333333333333333e-01 -1.666666666666665e-01
-1.666666666666667e-01 -3.333333333333333e-01 -1.666666666666665e-01
-1.666666666666667e-01 -3.333333333333333e-01 -1.666666666666665e-01
-1.666666666666667e-01 -3.333333333333333e-01 -1.666666666666665e-01
-1.666666666666667e-01 -3.333333333333333e-01 -1.666666666666665e-01
-1.666666666666667e-01 -3.333333333333333e-01 -1.666666666666665e-01
-1.666666666666667e-01 -3.333333333333333e-01 -1.666666666666665e-01
-1.666666666666667e-01 -3.333333333333333e-01 -1.666666666666665e-01
-1.666666666666667e-01 -3.333333333333333e-01 -1.666666666666665e-01
-1.666666666666667e-01 -3.333333333333333e-01 -1.666666666666665e-01
-1.666666666666667e-01 -3.333333333333333e-01 -1.666666666666665e-01
-1.666666666666667e-01 -3.333333333333333e-01 -1.666666666666665e-01
-1.666666666666667e-01 -3.333333333333333e-01 -1.666666666666665e-01
-1.666666666666667e-01 -3.333333333333333e-01 -1.666666666666665e-01
-1.666666666666667e-01 -3.333333333333333e-01 -1.666666666666665e-01
-1.666666666666667e-01 -3.333333333333333e-01 -1.666666666666665e-01
-1.666666666666667e-01 -3.333333333333333e-01 -1.666666666666665e-01
-1.666666666666667e-01 -3.333333333333333e-01 -1.666666666666665e-01
-1.666666666666667e-01 -3.333333333333333e-01 -1.666666666666665e-01
-1.666666666666667e-01 -3.333333333333333e-01 -1.666666666666665e-01
-1.666666666666667e-01 -3.333333333333333e-01 -1.666666666666665e-01
-1.666666666666667e-01 -3.333333333333333e-01 -1.666666666666665e-01
-1.666666666666667e-01 -3.333333333333333e-01 -1.666666666666665e-01
-1.666666666666667e-01 -3.333333333333333e-01 -1.666666666666665e-01
-1.666666666666667e-01 -3.333333333333333e-01 -1.666666666666665e-01
-1.666666666666667e-01 -3.333333333333333e-01 -1.666666666666665e-01
-1.666666666666667e-01 -3.333333333333333e-01 -1.666666666666665e-01
-1.666666666666667e-01 -3.333333333333333e-01 -1.666666666666665e-01
-1.666666666666667e-01 -3.333333333333333e-01 -1.666666666666665e-01
-1.666666666666667e-01 -3.333333333333333e-01 -1.666666666666665e-01
-1.666666666666667e-01 -3.333333333333333e-01 -1.666666666666665e-01
-1.666666666666667e-01 -3.333333333333333e-01 -1.666666666666665e-01
-1.666666666666667e-01 -3.333333333333333e-01 -1.666666666666665e-01
-1.666666666666667e-01 -3.333333333333333e-01 -1.666666666666665e-01
-1.666666666666667e-01 -3.333333333333333e-01 -1.666666666666665e-01
-1.666666666666667e-01 -3.333333333333333e-01 -1.666666666666665e-01
-1.666666666666667e-01 -3.333333333333333e-01 -1.666666666666665e-01
-1.666666666666667e-01 -3.333333333333333e-01 -1.666666666666665e-01
-1.666666666666667e-01 -3.333333333333333e-01 -1.666666666666665e-01
-1.666666666666667e-01 -3.333333333333333e-01 -1.666666666666665e-01
-1.666666666666667e-01 -3.333333333333333e-01 -1.666666666666665e-01
-1.666666666666667e-01 -3.333333333333333e-01 -1.666666666666665e-01
-1.666666666666667e-01 -3.333333333333333e-01 -1.666666666666665e-01
-1.666666666666667e-01 -3.333333333333333e-01 -1.666666666666665e-01
-1.666666666666667e-01 -3.333333333333333e-01 -1.666666666666665e-01
-1.666666666666667e-01 -3.333333333333333e-01 -1.666666666666665e-01
-1.666666666666667e-01 -3.333333333333333e-01 -1.666666666666665e-01
-1.666666666666667e-01 -3.333333333333333e-01 -1.666666666666665e-01
-1.666666666666667e-01 -3.333333333333333e-01 -1.666666666666665e-01
-1.666666666666667e-01 -3.333333333333333e-01 -1.666666666666665e-01
-1.666666666666667e-01 -3.333333333333333e-01 -1.666666666666665e-01
-1.666666666666667e-01 -3.333333333333333e-01 -1.666666666666665e-01
-1.666666666666667e-01 -3.333333333333333e-01 -1.666666666666665e-01
-1.666666666666667e-01 -3.333333333333333e-01 -1.666666666666665e-01
-1.666666666666667e-01 -3.333333333333333e-01 -1.666666666666665e-01
-1.666666666666667e-01 -3.333333333333333e-01 -1.666666666666665e-01
-1.666666666666667e-01 -3.333333333333333e-01 -1.666666666666665e-01
-1.666666666666667e-01 -3.333333333333333e-01 -1.666666666666665e-01
-1.666666666666667e-01 -3.333333333333333e-01 -1.666666666666665e-01
-1.666666666666667e-01 -3.333333333333333e-01 -1.666666666666665e-01
-1.666666666666667e-01 -3.333333333333333e-01 -1.666666666666665e-01
-1.666666666666667e-01 -3.333333333333333e-01 -1.666666666666665e-01
-1.666666666666667e-01 -3.333333333333333e-01 -1.666666666666665e-01
-1.666666666666667e-01 -3.333333333333333e-01 -1.666666666666665e-01
-1.666666666666667e-01 -3.333333333333333e-01 -1.666666666666665e-01
-1.666666666666667e-01 -3.333333333333333e-01 -1.666666666666665e-01
-1.666666666666667e-01 -3.333333333333333e-01 -1.666666666666665e-01
-1.666666666666667e-01 -3.333333333333333e-01 -1.666666666666665e-01
-1.666666666666667e-01 -3.333333333333333e-01 -1.666666666666665e-01
-1.666666666666667e-01 -3.333333333333333e-01 -1.666666666666665e-01
-1.666666666666667e-01 -3.333333333333333e-01 -1.666666666666665e-01
-1.666666666666667e-01 -3.333333333333333e-01 -1.666666666666665e-01
-1.666666666666667e-01 -3.333333333333333e-01 -1.666666666666665e-01
-1.666666666666667e-01 -3.333333333333333e-01 -1.666666666666665e-01
-1.666666666666667e-01 -3.333333333333333e-01 -1.666666666666665e-01
-1.666666666666667e-01 -3.333333333333333e-01 -1.666666666666665e-01
-1.666666666666667e-01 -3.333333333333333e-01 -1.666666666666665e-01
-1.666666666666667e-01 -3.333333333333333e-01 -1.666666666666665e-01
-1.666666666666667e-01 -3.333333333333333e-01 -1.666666666666665e-01
-1.666666666666667e-01 -3.333333333333333e-01 -1.666666666666665e-01
-1.666666666666667e-01 -3.333333333333333e-01 -1.666666666666665e-01
-1.666666666666667e-01 -3.333333333333333e-01 -1.666666666666665e-01
-1.666666666666667e-01 -3.333333333333333e-01 -1.666666666666665e-01
-1.666666666666667e-01 -3.333333333333333e-01 -1.666666666666665e-01
-1.666666666666667e-01 -3.333333333333333e-01 -1.666666666666665e-01
-1.666666666666667e-01 -3.333333333333333e-01 -1.666666666666665e-01
-1.666666666666667e-01 -3.333333333333333e-01 -1.666666666666665e-01
-1.666666666666667e-01 -3.333333333333333e-01 -1.666666666666665e-01
-1.666666666666667e-01 -3.333333333333333e-01 -1.666666666666665e-01
-1.666666666666667e-01 -3.333333333333333e-01 -1.666666666666665e-01
-1.666666666666667e-01 -3.333333333333333e-01 -1.666666666666665e-01
-1.666666666666667e-01 -3.333333333333333e-01 -1.666666666666665e-01
-1.666666666666667e-01 -3.333333333333333e-01 -1.666666666666665e-01
-1.666666666666667e-01 -3.333333333333333e-01 -1.666666666666665e-01
-1.666666666666667e-01 -3.333333333333333e-01 -1.666666666666665e-01
-1.666666666666667e-01 -3.333333333333333e-01 -1.666666666666665e-01
-1.666666666666667e-01 -3.333333333333333e-01 -1.666666666666665e-01
-1.666666666666667e-01 -3.333333333333333e-01 -1.666666666666665e-01
-1.666666666666667e-01 -3.333333333333333e-01 -1.666666666666665e-01
-1.666666666666667e-01 -3.333333333333333e-01 -1.666666666666665e-01
-1.666666666666667e-01 -3.333333333333333e-01 -1.666666666666665e-01
-1.666666666666667e-01 -3.333333333333333e-01 -1.666666666666665e-01
-1.666666666666667e-01 -3.333333333333333e-01 -1.666666666666665e-01
-1.666666666666667e-01 -3.333333333333333e-01 -1.666666666666665e-01
-1.666666666666667e-01 -3.333333333333333e-01 -1.666666666666665e-01
-1.666666666666667e-01 -3.333333333333333e-01 -1.666666666666665e-01
-1.666666666666667e-01 -3.333333333333333e-01 -1.666666666666665e-01
-1.666666666666667e-01 -3.333333333333333e-01 -1.666666666666665e-01
-1.666666666666667e-01 -3.333333333333333e-01 -1.666666666666665e-01
-1.666666666666667e-01 -3.333333333333333e-01 -1.666666666666665e-01
-1.666666666666667e-01 -3.333333333333333e-01 -1.666666666666665e-01
-1.666666666666667e-01 -3.333333333333333e-01 -1.666666666666665e-01
-1.666666666666667e-01 -3.333333333333333e-01 -1.666666666666665e-01
-1.666666666666667e-01 -3.333333333333333e-01 -1.666666666666665e-01
-1.666666666666667e-01 -3.333333333333333e-01 -1.666666666666665e-01
-1.666666666666667e-01 -3.333333333333333e-01 -1.666666666666665e-01
-1.666666666666667e-01 -3.333333333333333e-01 -1.666666666666665e-01
-1.666666666666667e-01 -3.333333333333333e-01 -1.666666666666665e-01
-1.666666666666667e-01 -3.333333333333333e-01 -1.666666666666665e-01
-1.666666666666667e-01 -3.333333333333333e-01 -1.666666666666665e-01
-1.666666666666667e-01 -3.333333333333333e-01 -1.666666666666665e-01
-1.666666666666667e-01 -3.333333333333333e-01 -1.666666666666665e-01
-1.666666666666667e-01 -3.333333333333333e-01 -1.666666666666665e-01
-1.666666666666667e-01 -3.333333333333333e-01 -1.666666666666665e-01
-1.666666666666667e-01 -3.333333333333333e-01 -1.666666666666665e-01
-1.666666666666667e-01 -3.333333333333333e-01 -1.666666666666665e-01
-1.666666666666667e-01 -3.333333333333333e-01 -1.666666666666665e-01
-1.666666666666667e-01 -3.333333333333333e-01 -1.666666666666665e-01
-1.666666666666667e-01 -3.333333333333333e-01 -1.666666666666665e-01
-1.666666666666667e-01 -3.333333333333333e-01 -1.666666666666665e-01
-1.666666666666667e-01 -3.333333333333333e-01 -1.666666666666665e-01
-1.666666666666667e-01 -3.333333333333333e-01 -1.666666666666665e-01
-1.666666666666667e-01 -3.333333333333333e-01 -1.666666666666665e-01
-1.666666666666667e-01 -3.333333333333333e-01 -1.666666666666665e-01
-1.666666666666667e-01 -3.333333333333333e-01 -1.666666666666665e-01
-1.666666666666667e-01 -3.333333333333333e-01 -1.666666666666665e-01
-1.666666666666667e-01 -3.333333333333333e-01 -1.666666666666665e-01
-1.666666666666667e-01 -3.333333333333333e-01 -1.666666666666665e-01
-1.666666666666667e-01 -3.333333333333333e-01 -1.666666666666665e-01
-1.666666666666667e-01 -3.333333333333333e-01 -1.666666666666665e-01
-1.666666666666667e-01 -3.333333333333333e-01 -1.666666666666665e-01
-1.666666666666667e-01 -3.333333333333333e-01 -1.666666666666665e-01
-1.666666666666667e-01 -3.333333333333333e-01 -1.666666666666665e-01
-1.666666666666667e-01 -3.333333333333333e-01 -1.666666666666665e-01
-1.666666666666667e-01 -3.333333333333333e-01 -1.666666666666665e-01
-1.666666666666667e-01 -3.333333333333333e-01 -1.666666666666665e-01
-1.666666666666667e-01 -3.333333333333333e-01 -1.666666666666665e-01
-1.666666666666667e-01 -3.333333333333333e-01 -1.666666666666665e-01
-1.666666666666667e-01 -3.333333333333333e-01 -1.666666666666665e-01
-1.666666666666667e-01 -3.333333333333333e-01 -1.666666666666665e-01
-1.666666666666667e-01 -3.333333333333333e-01 -1.666666666666665e-01
-1.666666666666667e-01 -3.333333333333333e-01 -1.666666666666665e-01
-1.666666666666667e-01 -3.333333333333333e-01 -1.666666666666665e-01
-1.666666666666667e-01 -3.333333333333333e-01 -1.666666666666665e-01
-1.666666666666667e-01 -3.333333333333333e-01 -1.666666666666665e-01
-1.666666666666667e-01 -3.333333333333333e-01 -1.666666666666665e-01
-1.666666666666667e-01 -3.333333333333333e-01 -1.666666666666665e-01
-1.666666666666667e-01 -3.333333333333333e-01 -1.666666666666665e-01
-1.666666666666667e-01 -3.333333333333333e-01 -1.666666666666665e-01
-1.666666666666667e-01 -3.333333333333333e-01 -1.666666666666665e-01
-1.666666666666667e-01 -3.333333333333333e-01 -1.666666666666665e-01
-1.666666666666667e-01 -3.333333333333333e-01 -1.666666666666665e-01
-1.666666666666667e-01 -3.333333333333333e-01 -1.666666666666665e-01
-1.666666666666667e-01 -3.333333333333333e-01 -1.666666666666665e-01
-1.666666666666667e-01 -3.333333333333333e-01 -1.666666666666665e-01
-1.666666666666667e-01 -3.333333333333333e-01 -1.666666666666665e-01
-1.666666666666667e-01 -3.333333333333333e-01 -1.666666666666665e-01
-1.666666666666667e-01 -3.333333333333333e-01 -1.666666666666665e-01
-1.666666666666667e-01 -3.333333333333333e-01 -1.666666666666665e-01
-1.666666666666667e-01 -3.333333333333333e-01 -1.666666666666665e-01
-1.666666666666667e-01 -3.333333333333333e-01 -1.666666666666665e-01
1.666666666666667e-01 3.333333333333333e-01 1.666666666666665e-01
-1.666666666666667e-01 -3.333333333333333e-01 -1.666666666666665e-01
1.666666666666667e-01 3.333333333333333e-01 1.666666666666665e-01
1.666666666666667e-01 3.333333333333333e-01 1.666666666666665e-01
1.666666666666667e-01 3.333333333333333e-01 1.666666666666665e-01
1.666666666666667e-01 3.333333333333333e-01 1.666666666666665e-01
1.666666666666667e-01 3.333333333333333e-01 1.666666666666665e-01
1.666666666666667e-01 3.333333333333333e-01 1.666666666666665e-01
1.666666666666667e-01 3.333333333333333e-01 1.666666666666665e-01
1.666666666666667e-01 3.333333333333333e-01 1.666666666666665e-01
1.666666666666667e-01 3.333333333333333e-01 1.666666666666665e-01
1.666666666666667e-01 3.333333333333333e-01 1.666666666666665e-01
1.666666666666667e-01 3.333333333333333e-01 1.666666666666665e-01
1.666666666666667e-01 3.333333333333333e-01 1.666666666666665e-01
1.666666666666667e-01 3.333333333333333e-01 1.666666666666665e-01
1.666666666666667e-01 3.333333333333333e-01 1.666666666666665e-01
1.666666666666667e-01 3.333333333333333e-01 1.666666666666665e-01
1.666666666666667e-01 3.333333333333333e-01 1.666666666666665e-01
1.666666666666667e-01 3.333333333333333e-01 1.666666666666665e-01
1.666666666666667e-01 3.333333333333333e-01 1.666666666666665e-01
1.666666666666667e-01 3.333333333333333e-01 1.666666666666665e-01
1.666666666666667e-01 3.333333333333333e-01 1.666666666666665e-01
1.666666666666667e-01 3.333333333333333e-01 1.666666666666665e-01
1.666666666666667e-01 3.333333333333333e-01 1.666666666666665e-01
1.666666666666667e-01 3.333333333333333e-01 1.666666666666665e-01
1.666666666666667e-01 3.333333333333333e-01 1.666666666666665e-01
1.666666666666667e-01 3.333333333333333e-01 1.666666666666665e-01
1.666666666666667e-01 3.333333333333333e-01 1.666666666666665e-01
1.666666666666667e-01 3.333333333333333e-01 1.666666666666665e-01
1.666666666666667e-01 3.333333333333333e-01 1.666666666666665e-01
1.666666666666667e-01 3.333333333333333e-01 1.666666666666665e-01
1.666666666666667e-01 3.333333333333333e-01 1.666666666666665e-01
1.666666666666667e-01 3.333333333333333e-01 1.666666666666665e-01
1.666666666666667e-01 3.333333333333333e-01 1.666666666666665e-01
1.666666666666667e-01 3.333333333333333e-01 1.666666666666665e-01
1.666666666666667e-01 3.333333333333333e-01 1.666666666666665e-01
1.666666666666667e-01 3.333333333333333e-01 1.666666666666665e-01
1.666666666666667e-01 3.333333333333333e-01 1.666666666666665e-01
1.666666666666667e-01 3.333333333333333e-01 1.666666666666665e-01
1.666666666666667e-01 3.333333333333333e-01 1.666666666666665e-01
1.666666666666667e-01 3.333333333333333e-01 1.666666666666665e-01
1.666666666666667e-01 3.333333333333333e-01 1.666666666666665e-01
1.666666666666667e-01 3.333333333333333e-01 1.666666666666665e-01
1.666666666666667e-01 3.333333333333333e-01 1.666666666666665e-01
1.666666666666667e-01 3.333333333333333e-01 1.666666666666665e-01
1.666666666666667e-01 3.333333333333333e-01 1.666666666666665e-01
1.666666666666667e-01 3.333333333333333e-01 1.666666666666665e-01
1.666666666666667e-01 3.333333333333333e-01 1.666666666666665e-01
1.666666666666667e-01 3.333333333333333e-01 1.666666666666665e-01
1.666666666666667e-01 3.333333333333333e-01 1.666666666666665e-01
1.666666666666667e-01 3.333333333333333e-01 1.666666666666665e-01
1.666666666666667e-01 3.333333333333333e-01 1.666666666666665e-01
1.666666666666667e-01 3.333333333333333e-01 1.666666666666665e-01
1.666666666666667e-01 3.333333333333333e-01 1.666666666666665e-01
1.666666666666667e-01 3.333333333333333e-01 1.666666666666665e-01
1.666666666666667e-01 3.333333333333333e-01 1.666666666666665e-01
1.666666666666667e-01 3.333333333333333e-01 1.666666666666665e-01
1.666666666666667e-01 3.333333333333333e-01 1.666666666666665e-01
1.666666666666667e-01 3.333333333333333e-01 1.666666666666665e-01
1.666666666666667e-01 3.333333333333333e-01 1.666666666666665e-01
1.666666666666667e-01 3.333333333333333e-01 1.666666666666665e-01
1.666666666666667e-01 3.333333333333333e-01 1.666666666666665e-01
1.666666666666667e-01 3.333333333333333e-01 1.666666666666665e-01
1.666666666666667e-01 3.333333333333333e-01 1.666666666666665e-01
1.666666666666667e-01 3.333333333333333e-01 1.666666666666665e-01
1.666666666666667e-01 3.333333333333333e-01 1.666666666666665e-01
1.666666666666667e-01 3.333333333333333e-01 1.666666666666665e-01
1.666666666666667e-01 3.333333333333333e-01 1.666666666666665e-01
1.666666666666667e-01 3.333333333333333e-01 1.666666666666665e-01
1.666666666666667e-01 3.333333333333333e-01 1.666666666666665e-01
1.666666666666667e-01 3.333333333333333e-01 1.666666666666665e-01
1.666666666666667e-01 3.333333333333333e-01 1.666666666666665e-01
1.666666666666667e-01 3.333333333333333e-01 1.666666666666665e-01
1.666666666666667e-01 3.333333333333333e-01 1.666666666666665e-01
1.666666666666667e-01 3.333333333333333e-01 1.666666666666665e-01
1.666666666666667e-01 3.333333333333333e-01 1.666666666666665e-01
1.666666666666667e-01 3.333333333333333e-01 1.666666666666665e-01
1.666666666666667e-01 3.333333333333333e-01 1.666666666666665e-01
1.666666666666667e-01 3.333333333333333e-01 1.666666666666665e-01
1.666666666666667e-01 3.333333333333333e-01 1.666666666666665e-01
1.666666666666667e-01 3.333333333333333e-01 1.666666666666665e-01
1.666666666666667e-01 3.333333333333333e-01 1.666666666666665e-01
1.666666666666667e-01 3.333333333333333e-01 1.666666666666665e-01
1.666666666666667e-01 3.333333333333333e-01 1.666666666666665e-01
1.666666666666667e-01 3.333333333333333e-01 1.666666666666665e-01
1.666666666666667e-01 3.333333333333333e-01 1.666666666666665e-01
1.666666666666667e-01 3.333333333333333e-01 1.666666666666665e-01
1.666666666666667e-01 3.333333333333333e-01 1.666666666666665e-01
1.666666666666667e-01 3.333333333333333e-01 1.666666666666665e-01
1.666666666666667e-01 3.333333333333333e-01 1.666666666666665e-01
1.666666666666667e-01 3.333333333333333e-01 1.666666666666665e-01
1.666666666666667e-01 3.333333333333333e-01 1.666666666666665e-01
1.666666666666667e-01 3.333333333333333e-01 1.666666666666665e-01
1.666666666666667e-01 3.333333333333333e-01 1.666666666666665e-01
1.666666666666667e-01 3.333333333333333e-01 1.666666666666665e-01
1.666666666666667e-01 3.333333333333333e-01 1.666666666666665e-01
1.666666666666667e-01 3.333333333333333e-01 1.666666666666665e-01
1.666666666666667e-01 3.333333333333333e-01 1.666666666666665e-01
1.666666666666667e-01 3.333333333333333e-01 1.666666666666665e-01
1.666666666666667e-01 3.333333333333333e-01 1.666666666666665e-01
1.666666666666667e-01 3.333333333333333e-01 1.666666666666665e-01
1.666666666666667e-01 3.333333333333333e-01 1.666666666666665e-01
1.666666666666667e-01 3.333333333333333e-01 1.666666666666665e-01
1.666666666666667e-01 3.333333333333333e-01 1.666666666666665e-01
1.666666666666667e-01 3.333333333333333e-01 1.666666666666665e-01
1.666666666666667e-01 3.333333333333333e-01 1.666666666666665e-01
1.666666666666667e-01 3.333333333333333e-01 1.666666666666665e-01
1.666666666666667e-01 3.333333333333333e-01 1.666666666666665e-01
1.666666666666667e-01 3.333333333333333e-01 1.666666666666665e-01
1.666666666666667e-01 3.333333333333333e-01 1.666666666666665e-01
1.666666666666667e-01 3.333333333333333e-01 1.666666666666665e-01
1.666666666666667e-01 3.333333333333333e-01 1.666666666666665e-01
1.666666666666667e-01 3.333333333333333e-01 1.666666666666665e-01
1.666666666666667e-01 3.333333333333333e-01 1.666666666666665e-01
1.666666666666667e-01 3.333333333333333e-01 1.666666666666665e-01
1.666666666666667e-01 3.333333333333333e-01 1.666666666666665e-01
1.666666666666667e-01 3.333333333333333e-01 1.666666666666665e-01
1.666666666666667e-01 3.333333333333333e-01 1.666666666666665e-01
1.666666666666667e-01 3.333333333333333e-01 1.666666666666665e-01
1.666666666666667e-01 3.333333333333333e-01 1.666666666666665e-01
1.666666666666667e-01 3.333333333333333e-01 1.666666666666665e-01
1.666666666666667e-01 3.333333333333333e-01 1.666666666666665e-01
1.666666666666667e-01 3.333333333333333e-01 1.666666666666665e-01
1.666666666666667e-01 3.333333333333333e-01 1.666666666666665e-01
1.666666666666667e-01 3.333333333333333e-01 1.666666666666665e-01
1.666666666666667e-01 3.333333333333333e-01 1.666666666666665e-01
1.666666666666667e-01 3.333333333333333e-01 1.666666666666665e-01
1.666666666666667e-01 3.333333333333333e-01 1.666666666666665e-01
1.666666666666667e-01 3.333333333333333e-01 1.666666666666665e-01
1.666666666666667e-01 3.333333333333333e-01 1.666666666666665e-01
1.666666666666667e-01 3.333333333333333e-01 1.666666666666665e-01
1.666666666666667e-01 3.333333333333333e-01 1.666666666666665e-01
1.666666666666667e-01 3.333333333333333e-01 1.666666666666665e-01
1.666666666666667e-01 3.333333333333333e-01 1.666666666666665e-01
1.666666666666667e-01 3.333333333333333e-01 1.666666666666665e-01
1.666666666666667e-01 3.333333333333333e-01 1.666666666666665e-01
1.666666666666667e-01 3.333333333333333e-01 1.666666666666665e-01
1.666666666666667e-01 3.333333333333333e-01 1.666666666666665e-01
1.666666666666667e-01 3.333333333333333e-01 1.666666666666665e-01
1.666666666666667e-01 3.333333333333333e-01 1.666666666666665e-01
1.666666666666667e-01 3.333333333333333e-01 1.666666666666665e-01
1.666666666666667e-01 3.333333333333333e-01 1.666666666666665e-01
1.666666666666667e-01 3.333333333333333e-01 1.666666666666665e-01
1.666666666666667e-01 3.333333333333333e-01 1.666666666666665e-01
1.666666666666667e-01 3.333333333333333e-01 1.666666666666665e-01
1.666666666666667e-01 3.333333333333333e-01 1.666666666666665e-01
1.666666666666667e-01 3.333333333333333e-01 1.666666666666665e-01
1.666666666666667e-01 3.333333333333333e-01 1.666666666666665e-01
1.666666666666667e-01 3.333333333333333e-01 1.666666666666665e-01
1.666666666666667e-01 3.333333333333333e-01 1.666666666666665e-01
1.666666666666667e-01 3.333333333333333e-01 1.666666666666665e-01
1.666666666666667e-01 3.333333333333333e-01 1.666666666666665e-01
1.666666666666667e-01 3.333333333333333e-01 1.666666666666665e-01
1.666666666666667e-01 3.333333333333333e-01 1.666666666666665e-01
1.666666666666667e-01 3.333333333333333e-01 1.666666666666665e-01
1.666666666666667e-01 3.333333333333333e-01 1.666666666666665e-01
1.666666666666667e-01 3.333333333333333e-01 1.666666666666665e-01
1.666666666666667e-01 3.333333333333333e-01 1.666666666666665e-01
1.666666666666667e-01 3.333333333333333e-01 1.666666666666665e-01
1.666666666666667e-01 3.333333333333333e-01 1.666666666666665e-01
1.666666666666667e-01 3.333333333333333e-01 1.666666666666665e-01
1.666666666666667e-01 3.333333333333333e-01 1.666666666666665e-01
1.666666666666667e-01 3.333333333333333e-01 1.666666666666665e-01
1.666666666666667e-01 3.333333333333333e-01 1.666666666666665e-01
1.666666666666667e-01 3.333333333333333e-01 1.666666666666665e-01
1.666666666666667e-01 3.333333333333333e-01 1.666666666666665e-01
1.666666666666667e-01 3.333333333333333e-01 1.666666666666665e-01
1.666666666666667e-01 3.333333333333333e-01 1.666666666666665e-01
1.666666666666667e-01 3.333333333333333e-01 1.666666666666665e-01
1.666666666666667e-01 3.333333333333333e-01 1.666666666666665e-01
1.666666666666667e-01 3.333333333333333e-01 1.666666666666665e-01
1.666666666666667e-01 3.333333333333333e-01 1.666666666666665e-01
1.666666666666667e-01 3.333333333333333e-01 1.666666666666665e-01
1.666666666666667e-01 3.333333333333333e-01 1.666666666666665e-01
1.666666666666667e-01 3.333333333333333e-01 1.666666666666665e-01
1.666666666666667e-01 3.333333333333333e-01 1.666666666666665e-01
1.666666666666667e-01 3.333333333333333e-01 1.666666666666665e-01
1.666666666666667e-01 3.333333333333333e-01 1.666666666666665e-01
1.666666666666667e-01 3.333333333333333e-01 1.666666666666665e-01
1.666666666666667e-01 3.333333333333333e-01 1.666666666666665e-01
1.666666666666667e-01 3.333333333333333e-01 1.666666666666665e-01
1.666666666666667e-01 3.333333333333333e-01 1.666666666666665e-01
1.666666666666667e-01 3.333333333333333e-01 1.666666666666665e-01
1.666666666666667e-01 3.333333333333333e-01 1.666666666666665e-01
1.666666666666667e-01 3.333333333333333e-01 1.666666666666665e-01
1.666666666666667e-01 3.333333333333333e-01 1.666666666666665e-01
1.666666666666667e-01 3.333333333333333e-01 1.666666666666665e-01
1.666666666666667e-01 3.333333333333333e-01 1.666666666666665e-01
1.666666666666667e-01 3.333333333333333e-01 1.666666666666665e-01
1.666666666666667e-01 3.333333333333333e-01 1.666666666666665e-01
1.666666666666667e-01 3.333333333333333e-01 1.666666666666665e-01
1.666666666666667e-01 3.333333333333333e-01 1.666666666666665e-01
1.666666666666667e-01 3.333333333333333e-01 1.666666666666665e-01
1.666666666666667e-01 3.333333333333333e-01 1.666666666666665e-01
1.666666666666667e-01 3.333333333333333e-01 1.666666666666665e-01
1.666666666666667e-01 3.333333333333333e-01 1.666666666666665e-01
1.666666666666667e-01 3.333333333333333e-01 1.666666666666665e-01
1.666666666666667e-01 3.333333333333333e-01 1.666666666666665e-01
1.666666666666667e-01 3.333333333333333e-01 1.666666666666665e-01
1.666666666666667e-01 3.333333333333333e-01 1.666666666666665e-01
1.666666666666667e-01 3.333333333333333e-01 1.666666666666665e-01
1.666666666666667e-01 3.333333333333333e-01 1.666666666666665e-01
1.666666666666667e-01 3.333333333333333e-01 1.666666666666665e-01
1.666666666666667e-01 3.333333333333333e-01 1.666666666666665e-01
1.666666666666667e-01 3.333333333333333e-01 1.666666666666665e-01
1.666666666666667e-01 3.333333333333333e-01 1.666666666666665e-01
1.666666666666667e-01 3.333333333333333e-01 1.666666666666665e-01
1.666666666666667e-01 3.333333333333333e-01 1.666666666666665e-01
1.666666666666667e-01 3.333333333333333e-01 1.666666666666665e-01
1.666666666666667e-01 3.333333333333333e-01 1.666666666666665e-01
1.666666666666667e-01 3.333333333333333e-01 1.666666666666665e-01
1.666666666666667e-01 3.333333333333333e-01 1.666666666666665e-01
1.666666666666667e-01 3.333333333333333e-01 1.666666666666665e-01
1.666666666666667e-01 3.333333333333333e-01 1.666666666666665e-01
1.666666666666667e-01 3.333333333333333e-01 1.666666666666665e-01
1.666666666666667e-01 3.333333333333333e-01 1.666666666666665e-01
1.666666666666667e-01 3.333333333333333e-01 1.666666666666665e-01
1.666666666666667e-01 3.333333333333333e-01 1.666666666666665e-01
1.666666666666667e-01 3.333333333333333e-01 1.666666666666665e-01
1.666666666666667e-01 3.333333333333333e-01 1.666666666666665e-01
1.666666666666667e-01 3.333333333333333e-01 1.666666666666665e-01
1.666666666666667e-01 3.333333333333333e-01 1.666666666666665e-01
1.666666666666667e-01 3.333333333333333e-01 1.666666666666665e-01
1.666666666666667e-01 3.333333333333333e-01 1.666666666666665e-01
1.666666666666667e-01 3.333333333333333e-01 1.666666666666665e-01
1.666666666666667e-01 3.333333333333333e-01 1.666666666666665e-01
1.666666666666667e-01 3.333333333333333e-01 1.666666666666665e-01
1.666666666666667e-01 3.333333333333333e-01 1.666666666666665e-01
1.666666666666667e-01 3.333333333333333e-01 1.666666666666665e-01
1.666666666666667e-01 3.333333333333333e-01 1.666666666666665e-01
1.666666666666667e-01 3.333333333333333e-01 1.666666666666665e-01
1.666666666666667e-01 3.333333333333333e-01 1.666666666666665e-01
1.666666666666667e-01 3.333333333333333e-01 1.666666666666665e-01
1.666666666666667e-01 3.333333333333333e-01 1.666666666666665e-01
1.666666666666667e-01 3.333333333333333e-01 1.666666666666665e-01
1.666666666666667e-01 3.333333333333333e-01 1.666666666666665e-01
1.666666666666667e-01 3.333333333333333e-01 1.666666666666665e-01
1.666666666666667e-01 3.333333333333333e-01 1.666666666666665e-01
1.666666666666667e-01 3.333333333333333e-01 1.666666666666665e-01
1.666666666666667e-01 3.333333333333333e-01 1.666666666666665e-01
1.666666666666667e-01 3.333333333333333e-01 1.666666666666665e-01
1.666666666666667e-01 3.333333333333333e-01 1.666666666666665e-01
1.666666666666667e-01 3.333333333333333e-01 1.666666666666665e-01
1.666666666666667e-01 3.333333333333333e-01 1.666666666666665e-01
1.666666666666667e-01 3.333333333333333e-01 1.666666666666665e-01
1.666666666666667e-01 3.333333333333333e-01 1.666666666666665e-01
1.666666666666667e-01 3.333333333333333e-01 1.666666666666665e-01
1.666666666666667e-01 3.333333333333333e-01 1.666666666666665e-01
1.666666666666667e-01 3.333333333333333e-01 1.666666666666665e-01
1.666666666666667e-01 3.333333333333333e-01 1.666666666666665e-01
1.666666666666667e-01 3.333333333333333e-01 1.666666666666665e-01
1.666666666666667e-01 3.333333333333333e-01 1.666666666666665e-01
1.666666666666667e-01 3.333333333333333e-01 1.666666666666665e-01
1.666666666666667e-01 3.333333333333333e-01 1.666666666666665e-01
1.666666666666667e-01 3.333333333333333e-01 1.666666666666665e-01
1.666666666666667e-01 3.333333333333333e-01 1.666666666666665e-01
1.666666666666667e-01 3.333333333333333e-01 1.666666666666665e-01
1.666666666666667e-01 3.333333333333333e-01 1.666666666666665e-01
1.666666666666667e-01 3.333333333333333e-01 1.666666666666665e-01
1.666666666666667e-01 3.333333333333333e-01 1.666666666666665e-01
1.666666666666667e-01 3.333333333333333e-01 1.666666666666665e-01
1.666666666666667e-01 3.333333333333333e-01 1.666666666666665e-01
1.666666666666667e-01 3.333333333333333e-01 1.666666666666665e-01
1.666666666666667e-01 3.333333333333333e-01 1.666666666666665e-01
1.666666666666667e-01 3.333333333333333e-01 1.666666666666665e-01
1.666666666666667e-01 3.333333333333333e-01 1.666666666666665e-01
1.666666666666667e-01 3.333333333333333e-01 1.666666666666665e-01
1.666666666666667e-01 3.333333333333333e-01 1.666666666666665e-01
1.666666666666667e-01 3.333333333333333e-01 1.666666666666665e-01
1.666666666666667e-01 3.333333333333333e-01 1.666666666666665e-01
1.666666666666667e-01 3.333333333333333e-01 1.666666666666665e-01
1.666666666666667e-01 3.333333333333333e-01 1.666666666666665e-01
1.666666666666667e-01 3.333333333333333e-01 1.666666666666665e-01
1.666666666666667e-01 3.333333333333333e-01 1.666666666666665e-01
1.666666666666667e-01 3.333333333333333e-01 1.666666666666665e-01
1.666666666666667e-01 3.333333333333333e-01 1.666666666666665e-01
1.666666666666667e-01 3.333333333333333e-01 1.666666666666665e-01
1.666666666666667e-01 3.333333333333333e-01 1.666666666666665e-01
1.666666666666667e-01 3.333333333333333e-01 1.666666666666665e-01
1.666666666666667e-01 3.333333333333333e-01 1.666666666666665e-01
1.666666666666667e-01 3.333333333333333e-01 1.666666666666665e-01
1.666666666666667e-01 3.333333333333333e-01 1.666666666666665e-01
1.666666666666667e-01 3.333333333333333e-01 1.666666666666665e-01
1.666666666666667e-01 3.333333333333333e-01 1.666666666666665e-01
1.666666666666667e-01 3.333333333333333e-01 1.666666666666665e-01
1.666666666666667e-01 3.333333333333333e-01 1.666666666666665e-01
1.666666666666667e-01 3.333333333333333e-01 1.666666666666665e-01
1.666666666666667e-01 3.333333333333333e-01 1.666666666666665e-01
1.666666666666667e-01 3.333333333333333e-01 1.666666666666665e-01
1.666666666666667e-01 3.333333333333333e-01 1.666666666666665e-01
1.666666666666667e-01 3.333333333333333e-01 1.666666666666665e-01
1.666666666666667e-01 3.333333333333333e-01 1.666666666666665e-01
1.666666666666667e-01 3.333333333333333e-01 1.666666666666665e-01
1.666666666666667e-01 3.333333333333333e-01 1.666666666666665e-01
1.666666666666667e-01 3.333333333333333e-01 1.666666666666665e-01
1.666666666666667e-01 3.333333333333333e-01 1.666666666666665e-01
1.666666666666667e-01 3.333333333333333e-01 1.666666666666665e-01
1.666666666666667e-01 3.333333333333333e-01 1.666666666666665e-01
1.666666666666667e-01 3.333333333333333e-01 1.666666666666665e-01
1.666666666666667e-01 3.333333333333333e-01 1.666666666666665e-01
1.666666666666667e-01 3.333333333333333e-01 1.666666666666665e-01
1.666666666666667e-01 3.333333333333333e-01 1.666666666666665e-01
1.666666666666667e-01 3.333333333333333e-01 1.666666666666665e-01
1.666666666666667e-01 3.333333333333333e-01 1.666666666666665e-01
1.666666666666667e-01 3.333333333333333e-01 1.666666666666665e-01
1.666666666666667e-01 3.333333333333333e-01 1.666666666666665e-01
1.666666666666667e-01 3.333333333333333e-01 1.666666666666665e-01
1.666666666666667e-01 3.333333333333333e-01 1.666666666666665e-01
-1.666666666666667e-01 -3.333333333333333e-01 -1.666666666666665e-01
1.666666666666667e-01 3.333333333333333e-01 1.666666666666665e-01
1.666666666666667e-01 3.333333333333333e-01 1.666666666666665e-01
1.666666666666667e-01 3.333333333333333e-01 1.666666666666665e-01
1.666666666666667e-01 3.333333333333333e-01 1.666666666666665e-01
1.666666666666667e-01 3.333333333333333e-01 1.666666666666665e-01
1.666666666666667e-01 3.333333333333333e-01 1.666666666666665e-01
1.666666666666667e-01 3.333333333333333e-01 1.666666666666665e-01
1.666666666666667e-01 3.333333333333333e-01 1.666666666666665e-01
1.666666666666667e-01 3.333333333333333e-01 1.666666666666665e-01
1.666666666666667e-01 3.333333333333333e-01 1.666666666666665e-01
1.666666666666667e-01 3.333333333333333e-01 1.666666666666665e-01
1.666666666666667e-01 3.333333333333333e-01 1.666666666666665e-01
1.666666666666667e-01 3.333333333333333e-01 1.666666666666665e-01
1.666666666666667e-01 3.333333333333333e-01 1.666666666666665e-01
1.666666666666667e-01 3.333333333333333e-01 1.666666666666665e-01
1.666666666666667e-01 3.333333333333333e-01 1.666666666666665e-01
1.666666666666667e-01 3.333333333333333e-01 1.666666666666665e-01
1.666666666666667e-01 3.333333333333333e-01 1.666666666666665e-01
1.666666666666667e-01 3.333333333333333e-01 1.666666666666665e-01
1.666666666666667e-01 3.333333333333333e-01 1.666666666666665e-01
1.666666666666667e-01 3.333333333333333e-01 1.666666666666665e-01
1.666666666666667e-01 3.333333333333333e-01 1.666666666666665e-01
1.666666666666667e-01 3.333333333333333e-01 1.666666666666665e-01
1.666666666666667e-01 3.333333333333333e-01 1.666666666666665e-01
1.666666666666667e-01 3.333333333333333e-01 1.666666666666665e-01
1.666666666666667e-01 3.333333333333333e-01 1.666666666666665e-01
1.666666666666667e-01 3.333333333333333e-01 1.666666666666665e-01
1.666666666666667e-01 3.333333333333333e-01 1.666666666666665e-01
1.666666666666667e-01 3.333333333333333e-01 1.666666666666665e-01
1.666666666666667e-01 3.333333333333333e-01 1.666666666666665e-01
1.666666666666667e-01 3.333333333333333e-01 1.666666666666665e-01
1.666666666666667e-01 3.333333333333333e-01 1.666666666666665e-01
1.666666666666667e-01 3.333333333333333e-01 1.666666666666665e-01
1.666666666666667e-01 3.333333333333333e-01 1.666666666666665e-01
1.666666666666667e-01 3.333333333333333e-01 1.666666666666665e-01
1.666666666666667e-01 3.333333333333333e-01 1.666666666666665e-01
1.666666666666667e-01 3.333333333333333e-01 1.666666666666665e-01
1.666666666666667e-01 3.333333333333333e-01 1.666666666666665e-01
1.666666666666667e-01 3.333333333333333e-01 1.666666666666665e-01
1.666666666666667e-01 3.333333333333333e-01 1.666666666666665e-01
1.666666666666667e-01 3.333333333333333e-01 1.666666666666665e-01
1.666666666666667e-01 3.333333333333333e-01 1.666666666666665e-01
1.666666666666667e-01 3.333333333333333e-01 1.666666666666665e-01
1.666666666666667e-01 3.333333333333333e-01 1.666666666666665e-01
1.666666666666667e-01 3.333333333333333e-01 1.666666666666665e-01
1.666666666666667e-01 3.333333333333333e-01 1.666666666666665e-01
1.666666666666667e-01 3.333333333333333e-01 1.666666666666665e-01
1.666666666666667e-01 3.333333333333333e-01 1.666666666666665e-01
1.666666666666667e-01 3.333333333333333e-01 1.666666666666665e-01
1.666666666666667e-01 3.333333333333333e-01 1.666666666666665e-01
1.666666666666667e-01 3.333333333333333e-01 1.666666666666665e-01
1.666666666666667e-01 3.333333333333333e-01 1.666666666666665e-01
1.666666666666667e-01 3.333333333333333e-01 1.666666666666665e-01
1.666666666666667e-01 3.333333333333333e-01 1.666666666666665e-01
1.666666666666667e-01 3.333333333333333e-01 1.666666666666665e-01
1.666666666666667e-01 3.333333333333333e-01 1.666666666666665e-01
1.666666666666667e-01 3.333333333333333e-01 1.666666666666665e-01
1.666666666666667e-01 3.333333333333333e-01 1.666666666666665e-01
1.666666666666667e-01 3.333333333333333e-01 1.666666666666665e-01
1.666666666666667e-01 3.333333333333333e-01 1.666666666666665e-01
1.666666666666667e-01 3.333333333333333e-01 1.666666666666665e-01
1.666666666666667e-01 3.333333333333333e-01 1.666666666666665e-01
1.666666666666667e-01 3.333333333333333e-01 1.666666666666665e-01
1.666666666666667e-01 3.333333333333333e-01 1.666666666666665e-01
1.666666666666667e-01 3.333333333333333e-01 1.666666666666665e-01
1.666666666666667e-01 3.333333333333333e-01 1.666666666666665e-01
1.666666666666667e-01 3.333333333333333e-01 1.666666666666665e-01
1.666666666666667e-01 3.333333333333333e-01 1.666666666666665e-01
1.666666666666667e-01 3.333333333333333e-01 1.666666666666665e-01
1.666666666666667e-01 3.333333333333333e-01 1.666666666666665e-01
1.666666666666667e-01 3.333333333333333e-01 1.666666666666665e-01
1.666666666666667e-01 3.333333333333333e-01 1.666666666666665e-01
1.666666666666667e-01 3.333333333333333e-01 1.666666666666665e-01
1.666666666666667e-01 3.333333333333333e-01 1.666666666666665e-01
1.666666666666667e-01 3.333333333333333e-01 1.666666666666665e-01
1.666666666666667e-01 3.333333333333333e-01 1.666666666666665e-01
1.666666666666667e-01 3.333333333333333e-01 1.666666666666665e-01
1.666666666666667e-01 3.333333333333333e-01 1.666666666666665e-01
1.666666666666667e-01 3.333333333333333e-01 1.666666666666665e-01
1.666666666666667e-01 3.333333333333333e-01 1.666666666666665e-01
1.666666666666667e-01 3.333333333333333e-01 1.666666666666665e-01
1.666666666666667e-01 3.333333333333333e-01 1.666666666666665e-01
1.666666666666667e-01 3.333333333333333e-01 1.666666666666665e-01
1.666666666666667e-01 3.333333333333333e-01 1.666666666666665e-01
1.666666666666667e-01 3.333333333333333e-01 1.666666666666665e-01
1.666666666666667e-01 3.333333333333333e-01 1.666666666666665e-01
1.666666666666667e-01 3.333333333333333e-01 1.666666666666665e-01
1.666666666666667e-01 3.333333333333333e-01 1.666666666666665e-01
1.666666666666667e-01 3.333333333333333e-01 1.666666666666665e-01
1.666666666666667e-01 3.333333333333333e-01 1.666666666666665e-01
1.666666666666667e-01 3.333333333333333e-01 1.666666666666665e-01
1.666666666666667e-01 3.333333333333333e-01 1.666666666666665e-01
1.666666666666667e-01 3.333333333333333e-01 1.666666666666665e-01
1.666666666666667e-01 3.333333333333333e-01 1.666666666666665e-01
1.666666666666667e-01 3.333333333333333e-01 1.666666666666665e-01
1.666666666666667e-01 3.333333333333333e-01 1.666666666666665e-01
1.666666666666667e-01 3.333333333333333e-01 1.666666666666665e-01
1.666666666666667e-01 3.333333333333333e-01 1.666666666666665e-01
1.666666666666667e-01 3.333333333333333e-01 1.666666666666665e-01
1.666666666666667e-01 3.333333333333333e-01 1.666666666666665e-01
1.666666666666667e-01 3.333333333333333e-01 1.666666666666665e-01
1.666666666666667e-01 3.333333333333333e-01 1.666666666666665e-01
1.666666666666667e-01 3.333333333333333e-01 1.666666666666665e-01
1.666666666666667e-01 3.333333333333333e-01 1.666666666666665e-01
1.666666666666667e-01 3.333333333333333e-01 1.666666666666665e-01
1.666666666666667e-01 3.333333333333333e-01 1.666666666666665e-01
1.666666666666667e-01 3.333333333333333e-01 1.666666666666665e-01
1.666666666666667e-01 3.333333333333333e-01 1.666666666666665e-01
1.666666666666667e-01 3.333333333333333e-01 1.666666666666665e-01
1.666666666666667e-01 3.333333333333333e-01 1.666666666666665e-01
1.666666666666667e-01 3.333333333333333e-01 1.666666666666665e-01
1.666666666666667e-01 3.333333333333333e-01 1.666666666666665e-01
1.666666666666667e-01 3.333333333333333e-01 1.666666666666665e-01
1.666666666666667e-01 3.333333333333333e-01 1.666666666666665e-01
1.666666666666667e-01 3.333333333333333e-01 1.666666666666665e-01
1.666666666666667e-01 3.333333333333333e-01 1.666666666666665e-01
1.666666666666667e-01 3.333333333333333e-01 1.666666666666665e-01
1.666666666666667e-01 3.333333333333333e-01 1.666666666666665e-01
1.666666666666667e-01 3.333333333333333e-01 1.666666666666665e-01
1.666666666666667e-01 3.333333333333333e-01 1.666666666666665e-01
1.666666666666667e-01 3.333333333333333e-01 1.666666666666665e-01
1.666666666666667e-01 3.333333333333333e-01 1.666666666666665e-01
1.666666666666667e-01 3.333333333333333e-01 1.666666666666665e-01
1.666666666666667e-01 3.333333333333333e-01 1.666666666666665e-01
1.666666666666667e-01 3.333333333333333e-01 1.666666666666665e-01
1.666666666666667e-01 3.333333333333333e-01 1.666666666666665e-01
1.666666666666667e-01 3.333333333333333e-01 1.666666666666665e-01
1.666666666666667e-01 3.333333333333333e-01 1.666666666666665e-01
1.666666666666667e-01 3.333333333333333e-01 1.666666666666665e-01
1.666666666666667e-01 3.333333333333333e-01 1.666666666666665e-01
1.666666666666667e-01 3.333333333333333e-01 1.666666666666665e-01
1.666666666666667e-01 3.333333333333333e-01 1.666666666666665e-01
1.666666666666667e-01 3.333333333333333e-01 1.666666666666665e-01
1.666666666666667e-01 3.333333333333333e-01 1.666666666666665e-01
1.666666666666667e-01 3.333333333333333e-01 1.666666666666665e-01
1.666666666666667e-01 3.333333333333333e-01 1.666666666666665e-01
1.666666666666667e-01 3.333333333333333e-01 1.666666666666665e-01
1.666666666666667e-01 3.333333333333333e-01 1.666666666666665e-01
1.666666666666667e-01 3.333333333333333e-01 1.666666666666665e-01
1.666666666666667e-01 3.333333333333333e-01 1.666666666666665e-01
1.666666666666667e-01 3.333333333333333e-01 1.666666666666665e-01
1.666666666666667e-01 3.333333333333333e-01 1.666666666666665e-01
1.666666666666667e-01 3.333333333333333e-01 1.666666666666665e-01
1.666666666666667e-01 3.333333333333333e-01 1.666666666666665e-01
1.666666666666667e-01 3.333333333333333e-01 1.666666666666665e-01
1.666666666666667e-01 3.333333333333333e-01 1.666666666666665e-01
1.666666666666667e-01 3.333333333333333e-01 1.666666666666665e-01
1.666666666666667e-01 3.333333333333333e-01 1.666666666666665e-01
1.666666666666667e-01 3.333333333333333e-01 1.666666666666665e-01
1.666666666666667e-01 3.333333333333333e-01 1.666666666666665e-01
1.666666666666667e-01 3.333333333333333e-01 1.666666666666665e-01
1.666666666666667e-01 3.333333333333333e-01 1.666666666666665e-01
1.666666666666667e-01 3.333333333333333e-01 1.666666666666665e-01
1.666666666666667e-01 3.333333333333333e-01 1.666666666666665e-01
1.666666666666667e-01 3.333333333333333e-01 1.666666666666665e-01
1.666666666666667e-01 3.333333333333333e-01 1.666666666666665e-01
1.666666666666667e-01 3.333333333333333e-01 1.666666666666665e-01
1.666666666666667e-01 3.333333333333333e-01 1.666666666666665e-01
1.666666666666667e-01 3.333333333333333e-01 1.666666666666665e-01
1.666666666666667e-01 3.333333333333333e-01 1.666666666666665e-01
1.666666666666667e-01 3.333333333333333e-01 1.666666666666665e-01
1.666666666666667e-01 3.333333333333333e-01 1.666666666666665e-01
1.666666666666667e-01 3.333333333333333e-01 1.666666666666665e-01
1.666666666666667e-01 3.333333333333333e-01 1.666666666666665e-01
1.666666666666667e-01 3.333333333333333e-01 1.666666666666665e-01
1.666666666666667e-01 3.333333333333333e-01 1.666666666666665e-01
1.666666666666667e-01 3.333333333333333e-01 1.666666666666665e-01
1.666666666666667e-01 3.333333333333333e-01 1.666666666666665e-01
1.666666666666667e-01 3.333333333333333e-01 1.666666666666665e-01
1.666666666666667e-01 3.333333333333333e-01 1.666666666666665e-01
1.666666666666667e-01 3.333333333333333e-01 1.666666666666665e-01
1.666666666666667e-01 3.333333333333333e-01 1.666666666666665e-01
1.666666666666667e-01 3.333333333333333e-01 1.666666666666665e-01
1.666666666666667e-01 3.333333333333333e-01 1.666666666666665e-01
1.666666666666667e-01 3.333333333333333e-01 1.666666666666665e-01
1.666666666666667e-01 3.333333333333333e-01 1.666666666666665e-01
1.666666666666667e-01 3.333333333333333e-01 1.666666666666665e-01
1.666666666666667e-01 3.333333333333333e-01 1.666666666666665e-01
1.666666666666667e-01 3.333333333333333e-01 1.666666666666665e-01
1.666666666666667e-01 3.333333333333333e-01 1.666666666666665e-01
1.666666666666667e-01 3.333333333333333e-01 1.666666666666665e-01
1.666666666666667e-01 3.333333333333333e-01 1.666666666666665e-01
1.666666666666667e-01 3.333333333333333e-01 1.666666666666665e-01
1.666666666666667e-01 3.333333333333333e-01 1.666666666666665e-01
1.666666666666667e-01 3.333333333333333e-01 1.666666666666665e-01
1.666666666666667e-01 3.333333333333333e-01 1.666666666666665e-01
1.666666666666667e-01 3.333333333333333e-01 1.666666666666665e-01
1.666666666666667e-01 3.333333333333333e-01 1.666666666666665e-01
1.666666666666667e-01 3.333333333333333e-01 1.666666666666665e-01
1.666666666666667e-01 3.333333333333333e-01 1.666666666666665e-01
1.666666666666667e-01 3.333333333333333e-01 1.666666666666665e-01
1.666666666666667e-01 3.333333333333333e-01 1.666666666666665e-01
1.666666666666667e-01 3.333333333333333e-01 1.666666666666665e-01
1.666666666666667e-01 3.333333333333333e-01 1.666666666666665e-01
1.666666666666667e-01 3.333333333333333e-01 1.666666666666665e-01
1.666666666666667e-01 3.333333333333333e-01 1.666666666666665e-01
1.666666666666667e-01 3.333333333333333e-01 1.666666666666665e-01
1.666666666666667e-01 3.333333333333333e-01 1.666666666666665e-01
1.666666666666667e-01 3.333333333333333e-01 1.666666666666665e-01
1.666666666666667e-01 3.333333333333333e-01 1.666666666666665e-01
1.666666666666667e-01 3.333333333333333e-01 1.666666666666665e-01
1.666666666666667e-01 3.333333333333333e-01 1.666666666666665e-01
1.666666666666667e-01 3.333333333333333e-01 1.666666666666665e-01
1.666666666666667e-01 3.333333333333333e-01 1.666666666666665e-01
1.666666666666667e-01 3.333333333333333e-01 1.666666666666665e-01
1.666666666666667e-01 3.333333333333333e-01 1.666666666666665e-01
1.666666666666667e-01 3.333333333333333e-01 1.666666666666665e-01
1.666666666666667e-01 3.333333333333333e-01 1.666666666666665e-01
1.666666666666667e-01 3.333333333333333e-01 1.666666666666665e-01
1.666666666666667e-01 3.333333333333333e-01 1.666666666666665e-01
1.666666666666667e-01 3.333333333333333e-01 1.666666666666665e-01
1.666666666666667e-01 3.333333333333333e-01 1.666666666666665e-01
1.666666666666667e-01 3.333333333333333e-01 1.666666666666665e-01
1.666666666666667e-01 3.333333333333333e-01 1.666666666666665e-01
1.666666666666667e-01 3.333333333333333e-01 1.666666666666665e-01
1.666666666666667e-01 3.333333333333333e-01 1.666666666666665e-01
1.666666666666667e-01 3.333333333333333e-01 1.666666666666665e-01
1.666666666666667e-01 3.333333333333333e-01 1.666666666666665e-01
1.666666666666667e-01 3.333333333333333e-01 1.666666666666665e-01
1.666666666666667e-01 3.333333333333333e-01 1.666666666666665e-01
1.666666666666667e-01 3.333333333333333e-01 1.666666666666665e-01
1.666666666666667e-01 3.333333333333333e-01 1.666666666666665e-01
1.666666666666667e-01 3.333333333333333e-01 1.666666666666665e-01
1.666666666666667e-01 3.333333333333333e-01 1.666666666666665e-01
1.666666666666667e-01 3.333333333333333e-01 1.666666666666665e-01
1.666666666666667e-01 3.333333333333333e-01 1.666666666666665e-01
1.666666666666667e-01 3.333333333333333e-01 1.666666666666665e-01
1.666666666666667e-01 3.333333333333333e-01 1.666666666666665e-01
1.666666666666667e-01 3.333333333333333e-01 1.666666666666665e-01
1.666666666666667e-01 3.333333333333333e-01 1.666666666666665e-01
1.666666666666667e-01 3.333333333333333e-01 1.666666666666665e-01
1.666666666666667e-01 3.333333333333333e-01 1.666666666666665e-01
1.666666666666667e-01 3.333333333333333e-01 1.666666666666665e-01
1.666666666666667e-01 3.333333333333333e-01 1.666666666666665e-01
1.666666666666667e-01 3.333333333333333e-01 1.666666666666665e-01
1.666666666666667e-01 3.333333333333333e-01 1.666666666666665e-01
1.666666666666667e-01 3.333333333333333e-01 1.666666666666665e-01
1.666666666666667e-01 3.333333333333333e-01 1.666666666666665e-01
1.666666666666667e-01 3.333333333333333e-01 1.666666666666665e-01
1.666666666666667e-01 3.333333333333333e-01 1.666666666666665e-01
1.666666666666667e-01 3.333333333333333e-01 1.666666666666665e-01
1.666666666666667e-01 3.333333333333333e-01 1.666666666666665e-01
1.666666666666667e-01 3.333333333333333e-01 1.666666666666665e-01
1.666666666666667e-01 3.333333333333333e-01 1.666666666666665e-01
1.666666666666667e-01 3.333333333333333e-01 1.666666666666665e-01
1.666666666666667e-01 3.333333333333333e-01 1.666666666666665e-01
1.666666666666667e-01 3.333333333333333e-01 1.666666666666665e-01
1.666666666666667e-01 3.333333333333333e-01 1.666666666666665e-01
1.666666666666667e-01 3.333333333333333e-01 1.666666666666665e-01
1.666666666666667e-01 3.333333333333333e-01 1.666666666666665e-01
1.666666666666667e-01 3.333333333333333e-01 1.666666666666665e-01
1.666666666666667e-01 3.333333333333333e-01 1.666666666666665e-01
1.666666666666667e-01 3.333333333333333e-01 1.666666666666665e-01
1.666666666666667e-01 3.333333333333333e-01 1.666666666666665e-01
1.666666666666667e-01 3.333333333333333e-01 1.666666666666665e-01
1.666666666666667e-01 3.333333333333333e-01 1.666666666666665e-01
1.666666666666667e-01 3.333333333333333e-01 1.666666666666665e-01
1.666666666666667e-01 3.333333333333333e-01 1.666666666666665e-01
1.666666666666667e-01 3.333333333333333e-01 1.666666666666665e-01
1.666666666666667e-01 3.333333333333333e-01 1.666666666666665e-01
1.666666666666667e-01 3.333333333333333e-01 1.666666666666665e-01
1.666666666666667e-01 3.333333333333333e-01 1.666666666666665e-01
1.666666666666667e-01 3.333333333333333e-01 1.666666666666665e-01
1.666666666666667e-01 3.333333333333333e-01 1.666666666666665e-01
1.666666666666667e-01 3.333333333333333e-01 1.666666666666665e-01
1.666666666666667e-01 3.333333333333333e-01 1.666666666666665e-01
1.666666666666667e-01 3.333333333333333e-01 1.666666666666665e-01
1.666666666666667e-01 3.333333333333333e-01 1.666666666666665e-01
1.666666666666667e-01 3.333333333333333e-01 1.666666666666665e-01
1.666666666666667e-01 3.333333333333333e-01 1.666666666666665e-01
1.666666666666667e-01 3.333333333333333e-01 1.666666666666665e-01
1.666666666666667e-01 3.333333333333333e-01 1.666666666666665e-01
1.666666666666667e-01 3.333333333333333e-01 1.666666666666665e-01
1.666666666666667e-01 3.333333333333333e-01 1.666666666666665e-01
1.666666666666667e-01 3.333333333333333e-01 1.666666666666665e-01
1.666666666666667e-01 3.333333333333333e-01 1.666666666666665e-01
1.666666666666667e-01 3.333333333333333e-01 1.666666666666665e-01
1.666666666666667e-01 3.333333333333333e-01 1.666666666666665e-01
1.666666666666667e-01 3.333333333333333e-01 1.666666666666665e-01
1.666666666666667e-01 3.333333333333333e-01 1.666666666666665e-01
1.666666666666667e-01 3.333333333333333e-01 1.666666666666665e-01
1.666666666666667e-01 3.333333333333333e-01 1.666666666666665e-01
1.666666666666667e-01 3.333333333333333e-01 1.666666666666665e-01
1.666666666666667e-01 3.333333333333333e-01 1.666666666666665e-01
1.666666666666667e-01 3.333333333333333e-01 1.666666666666665e-01
1.666666666666667e-01 3.333333333333333e-01 1.666666666666665e-01
1.666666666666667e-01 3.333333333333333e-01 1.666666666666665e-01
1.666666666666667e-01 3.333333333333333e-01 1.666666666666665e-01
1.666666666666667e-01 3.333333333333333e-01 1.666666666666665e-01
1.666666666666667e-01 3.333333333333333e-01 1.666666666666665e-01
1.666666666666667e-01 3.333333333333333e-01 1.666666666666665e-01
1.666666666666667e-01 3.333333333333333e-01 1.666666666666665e-01
1.666666666666667e-01 3.333333333333333e-01 1.666666666666665e-01
1.666666666666667e-01 3.333333333333333e-01 1.666666666666665e-01
1.666666666666667e-01 3.333333333333333e-01 1.666666666666665e-01
1.666666666666667e-01 3.333333333333333e-01 1.666666666666665e-01
1.666666666666667e-01 3.333333333333333e-01 1.666666666666665e-01
1.666666666666667e-01 3.333333333333333e-01 1.666666666666665e-01
1.666666666666667e-01 3.333333333333333e-01 1.666666666666665e-01
1.666666666666667e-01 3.333333333333333e-01 1.666666666666665e-01
1.666666666666667e-01 3.333333333333333e-01 1.666666666666665e-01
1.666666666666667e-01 3.333333333333333e-01 1.666666666666665e-01
1.666666666666667e-01 3.333333333333333e-01 1.666666666666665e-01
1.666666666666667e-01 3.333333333333333e-01 1.666666666666665e-01
1.666666666666667e-01 3.333333333333333e-01 1.666666666666665e-01
1.666666666666667e-01 3.333333333333333e-01 1.666666666666665e-01
1.666666666666667e-01 3.333333333333333e-01 1.666666666666665e-01
1.666666666666667e-01 3.333333333333333e-01 1.666666666666665e-01
1.666666666666667e-01 3.333333333333333e-01 1.666666666666665e-01
1.666666666666667e-01 3.333333333333333e-01 1.666666666666665e-01
1.666666666666667e-01 3.333333333333333e-01 1.666666666666665e-01
1.666666666666667e-01 3.333333333333333e-01 1.666666666666665e-01
1.666666666666667e-01 3.333333333333333e-01 1.666666666666665e-01
1.666666666666667e-01 3.333333333333333e-01 1.666666666666665e-01
1.666666666666667e-01 3.333333333333333e-01 1.666666666666665e-01
 1.666666666666667e-01 -1.666666666666665e-01 -3.333333333333333e-01
-1.666666666666667e-01  1.666666666666665e-01  3.333333333333333e-01
 1.666666666666667e-01 -1.666666666666665e-01 -3.333333333333333e-01
 1.666666666666667e-01 -1.666666666666665e-01 -3.333333333333333e-01
 1.666666666666667e-01 -1.666666666666665e-01 -3.333333333333333e-01
 1.666666666666667e-01 -1.666666666666665e-01 -3.333333333333333e-01
 1.666666666666667e-01 -1.666666666666665e-01 -3.333333333333333e-01
 1.666666666666667e-01 -1.666666666666665e-01 -3.333333333333333e-01
 1.666666666666667e-01 -1.666666666666665e-01 -3.333333333333333e-01
 1.666666666666667e-01 -1.666666666666665e-01 -3.333333333333333e-01
 1.666666666666667e-01 -1.666666666666665e-01 -3.333333333333333e-01
 1.666666666666667e-01 -1.666666666666665e-01 -3.333333333333333e-01
 1.666666666666667e-01 -1.666666666666665e-01 -3.333333333333333e-01
 1.666666666666667e-01 -1.666666666666665e-01 -3.333333333333333e-01
 1.666666666666667e-01 -1.666666666666665e-01 -3.333333333333333e-01
 1.666666666666667e-01 -1.666666666666665e-01 -3.333333333333333e-01
 1.666666666666667e-01 -1.666666666666665e-01 -3.333333333333333e-01
 1.666666666666667e-01 -1.666666666666665e-01 -3.333333333333333e-01
 1.666666666666667e-01 -1.666666666666665e-01 -3.333333333333333e-01
 1.666666666666667e-01 -1.666666666666665e-01 -3.333333333333333e-01
 1.666666666666667e-01 -1.666666666666665e-01 -3.333333333333333e-01
 1.666666666666667e-01 -1.666666666666665e-01 -3.333333333333333e-01
 1.666666666666667e-01 -1.666666666666665e-01 -3.333333333333333e-01
 1.666666666666667e-01 -1.666666666666665e-01 -3.333333333333333e-01
 1.666666666666667e-01 -1.666666666666665e-01 -3.333333333333333e-01
 1.666666666666667e-01 -1.666666666666665e-01 -3.333333333333333e-01
 1.666666666666667e-01 -1.666666666666665e-01 -3.333333333333333e-01
 1.666666666666667e-01 -1.666666666666665e-01 -3.333333333333333e-01
 1.666666666666667e-01 -1.666666666666665e-01 -3.333333333333333e-01
 1.666666666666667e-01 -1.666666666666665e-01 -3.333333333333333e-01
 1.666666666666667e-01 -1.666666666666665e-01 -3.333333333333333e-01
 1.666666666666667e-01 -1.666666666666665e-01 -3.333333333333333e-01
 1.666666666666667e-01 -1.666666666666665e-01 -3.333333333333333e-01
 1.666666666666667e-01 -1.666666666666665e-01 -3.333333333333333e-01
 1.666666666666667e-01 -1.666666666666665e-01 -3.333333333333333e-01
 1.666666666666667e-01 -1.666666666666665e-01 -3.333333333333333e-01
 1.666666666666667e-01 -1.666666666666665e-01 -3.333333333333333e-01
 1.666666666666667e-01 -1.666666666666665e-01 -3.333333333333333e-01
 1.666666666666667e-01 -1.666666666666665e-01 -3.333333333333333e-01
 1.666666666666667e-01 -1.666666666666665e-01 -3.333333333333333e-01
 1.666666666666667e-01 -1.666666666666665e-01 -3.333333333333333e-01
 1.666666666666667e-01 -1.666666666666665e-01 -3.333333333333333e-01
 1.666666666666667e-01 -1.666666666666665e-01 -3.333333333333333e-01
 1.666666666666667e-01 -1.666666666666665e-01 -3.333333333333333e-01
 1.666666666666667e-01 -1.666666666666665e-01 -3.333333333333333e-01
 1.666666666666667e-01 -1.666666666666665e-01 -3.333333333333333e-01
 1.666666666666667e-01 -1.666666666666665e-01 -3.333333333333333e-01
 1.666666666666667e-01 -1.666666666666665e-01 -3.333333333333333e-01
 1.666666666666667e-01 -1.666666666666665e-01 -3.333333333333333e-01
 1.666666666666667e-01 -1.666666666666665e-01 -3.333333333333333e-01
 1.666666666666667e-01 -1.666666666666665e-01 -3.333333333333333e-01
 1.666666666666667e-01 -1.666666666666665e-01 -3.333333333333333e-01
 1.666666666666667e-01 -1.666666666666665e-01 -3.333333333333333e-01
 1.666666666666667e-01 -1.666666666666665e-01 -3.333333333333333e-01
 1.666666666666667e-01 -1.666666666666665e-01 -3.333333333333333e-01
 1.666666666666667e-01 -1.666666666666665e-01 -3.333333333333333e-01
 1.666666666666667e-01 -1.666666666666665e-01 -3.333333333333333e-01
 1.666666666666667e-01 -1.666666666666665e-01 -3.333333333333333e-01
 1.666666666666667e-01 -1.666666666666665e-01 -3.333333333333333e-01
 1.666666666666667e-01 -1.666666666666665e-01 -3.333333333333333e-01
 1.666666666666667e-01 -1.666666666666665e-01 -3.333333333333333e-01
 1.666666666666667e-01 -1.666666666666665e-01 -3.333333333333333e-01
 1.666666666666667e-01 -1.666666666666665e-01 -3.333333333333333e-01
 1.666666666666667e-01 -1.666666666666665e-01 -3.333333333333333e-01
 1.666666666666667e-01 -1.666666666666665e-01 -3.333333333333333e-01
 1.666666666666667e-01 -1.666666666666665e-01 -3.333333333333333e-01
 1.666666666666667e-01 -1.666666666666665e-01 -3.333333333333333e-01
 1.666666666666667e-01 -1.666666666666665e-01 -3.333333333333333e-01
 1.666666666666667e-01 -1.666666666666665e-01 -3.333333333333333e-01
 1.666666666666667e-01 -1.666666666666665e-01 -3.333333333333333e-01
 1.666666666666667e-01 -1.666666666666665e-01 -3.333333333333333e-01
 1.666666666666667e-01 -1.666666666666665e-01 -3.333333333333333e-01
 1.666666666666667e-01 -1.666666666666665e-01 -3.333333333333333e-01
 1.666666666666667e-01 -1.666666666666665e-01 -3.333333333333333e-01
 1.666666666666667e-01 -1.666666666666665e-01 -3.333333333333333e-01
 1.666666666666667e-01 -1.666666666666665e-01 -3.333333333333333e-01
 1.666666666666667e-01 -1.666666666666665e-01 -3.333333333333333e-01
 1.666666666666667e-01 -1.666666666666665e-01 -3.333333333333333e-01
 1.666666666666667e-01 -1.666666666666665e-01 -3.333333333333333e-01
 1.666666666666667e-01 -1.666666666666665e-01 -3.333333333333333e-01
 1.666666666666667e-01 -1.666666666666665e-01 -3.333333333333333e-01
 1.666666666666667e-01 -1.666666666666665e-01 -3.333333333333333e-01
 1.666666666666667e-01 -1.666666666666665e-01 -3.333333333333333e-01
 1.666666666666667e-01 -1.666666666666665e-01 -3.333333333333333e-01
 1.666666666666667e-01 -1.666666666666665e-01 -3.333333333333333e-01
 1.666666666666667e-01 -1.666666666666665e-01 -3.333333333333333e-01
 1.666666666666667e-01 -1.666666666666665e-01 -3.333333333333333e-01
 1.666666666666667e-01 -1.666666666666665e-01 -3.333333333333333e-01
 1.666666666666667e-01 -1.666666666666665e-01 -3.333333333333333e-01
 1.666666666666667e-01 -1.666666666666665e-01 -3.333333333333333e-01
 1.666666666666667e-01 -1.666666666666665e-01 -3.333333333333333e-01
 1.666666666666667e-01 -1.666666666666665e-01 -3.333333333333333e-01
 1.666666666666667e-01 -1.666666666666665e-01 -3.333333333333333e-01
 1.666666666666667e-01 -1.666666666666665e-01 -3.333333333333333e-01
 1.666666666666667e-01 -1.666666666666665e-01 -3.333333333333333e-01
 1.666666666666667e-01 -1.666666666666665e-01 -3.333333333333333e-01
 1.666666666666667e-01 -1.666666666666665e-01 -3.333333333333333e-01
 1.666666666666667e-01 -1.666666666666665e-01 -3.333333333333333e-01
 1.666666666666667e-01 -1.666666666666665e-01 -3.333333333333333e-01
 1.666666666666667e-01 -1.666666666666665e-01 -3.333333333333333e-01
 1.666666666666667e-01 -1.666666666666665e-01 -3.333333333333333e-01
 1.666666666666667e-01 -1.666666666666665e-01 -3.333333333333333e-01
 1.666666666666667e-01 -1.666666666666665e-01 -3.333333333333333e-01
 1.666666666666667e-01 -1.666666666666665e-01 -3.333333333333333e-01
 1.666666666666667e-01 -1.666666666666665e-01 -3.333333333333333e-01
 1.666666666666667e-01 -1.666666666666665e-01 -3.333333333333333e-01
 1.666666666666667e-01 -1.666666666666665e-01 -3.333333333333333e-01
 1.666666666666667e-01 -1.666666666666665e-01 -3.333333333333333e-01
 1.666666666666667e-01 -1.666666666666665e-01 -3.333333333333333e-01
 1.666666666666667e-01 -1.666666666666665e-01 -3.333333333333333e-01
 1.666666666666667e-01 -1.666666666666665e-01 -3.333333333333333e-01
 1.666666666666667e-01 -1.666666666666665e-01 -3.333333333333333e-01
 1.666666666666667e-01 -1.666666666666665e-01 -3.333333333333333e-01
 1.666666666666667e-01 -1.666666666666665e-01 -3.333333333333333e-01
 1.666666666666667e-01 -1.666666666666665e-01 -3.333333333333333e-01
 1.666666666666667e-01 -1.666666666666665e-01 -3.333333333333333e-01
 1.666666666666667e-01 -1.666666666666665e-01 -3.333333333333333e-01
 1.666666666666667e-01 -1.666666666666665e-01 -3.333333333333333e-01
 1.666666666666667e-01 -1.666666666666665e-01 -3.333333333333333e-01
 1.666666666666667e-01 -1.666666666666665e-01 -3.333333333333333e-01
 1.666666666666667e-01 -1.666666666666665e-01 -3.333333333333333e-01
 1.666666666666667e-01 -1.666666666666665e-01 -3.333333333333333e-01
 1.666666666666667e-01 -1.666666666666665e-01 -3.333333333333333e-01
 1.666666666666667e-01 -1.666666666666665e-01 -3.333333333333333e-01
 1.666666666666667e-01 -1.666666666666665e-01 -3.333333333333333e-01
 1.666666666666667e-01 -1.666666666666665e-01 -3.333333333333333e-01
 1.666666666666667e-01 -1.666666666666665e-01 -3.333333333333333e-01
 1.666666666666667e-01 -1.666666666666665e-01 -3.333333333333333e-01
 1.666666666666667e-01 -1.666666666666665e-01 -3.333333333333333e-01
 1.666666666666667e-01 -1.666666666666665e-01 -3.333333333333333e-01
 1.666666666666667e-01 -1.666666666666665e-01 -3.333333333333333e-01
 1.666666666666667e-01 -1.666666666666665e-01 -3.333333333333333e-01
 1.666666666666667e-01 -1.666666666666665e-01 -3.333333333333333e-01
 1.666666666666667e-01 -1.666666666666665e-01 -3.333333333333333e-01
 1.666666666666667e-01 -1.666666666666665e-01 -3.333333333333333e-01
 1.666666666666667e-01 -1.666666666666665e-01 -3.333333333333333e-01
 1.666666666666667e-01 -1.666666666666665e-01 -3.333333333333333e-01
 1.666666666666667e-01 -1.666666666666665e-01 -3.333333333333333e-01
 1.666666666666667e-01 -1.666666666666665e-01 -3.333333333333333e-01
 1.666666666666667e-01 -1.666666666666665e-01 -3.333333333333333e-01
 1.666666666666667e-01 -1.666666666666665e-01 -3.333333333333333e-01
 1.666666666666667e-01 -1.666666666666665e-01 -3.333333333333333e-01
 1.666666666666667e-01 -1.666666666666665e-01 -3.333333333333333e-01
 1.666666666666667e-01 -1.666666666666665e-01 -3.333333333333333e-01
 1.666666666666667e-01 -1.666666666666665e-01 -3.333333333333333e-01
 1.666666666666667e-01 -1.666666666666665e-01 -3.333333333333333e-01
 1.666666666666667e-01 -1.666666666666665e-01 -3.333333333333333e-01
 1.666666666666667e-01 -1.666666666666665e-01 -3.333333333333333e-01
 1.666666666666667e-01 -1.666666666666665e-01 -3.333333333333333e-01
 1.666666666666667e-01 -1.666666666666665e-01 -3.333333333333333e-01
 1.666666666666667e-01 -1.666666666666665e-01 -3.333333333333333e-01
 1.666666666666667e-01 -1.666666666666665e-01 -3.333333333333333e-01
 1.666666666666667e-01 -1.666666666666665e-01 -3.333333333333333e-01
 1.666666666666667e-01 -1.666666666666665e-01 -3.333333333333333e-01
 1.666666666666667e-01 -1.666666666666665e-01 -3.333333333333333e-01
 1.666666666666667e-01 -1.666666666666665e-01 -3.333333333333333e-01
 1.666666666666667e-01 -1.666666666666665e-01 -3.333333333333333e-01
 1.666666666666667e-01 -1.666666666666665e-01 -3.333333333333333e-01
 1.666666666666667e-01 -1.666666666666665e-01 -3.333333333333333e-01
 1.666666666666667e-01 -1.666666666666665e-01 -3.333333333333333e-01
 1.666666666666667e-01 -1.666666666666665e-01 -3.333333333333333e-01
 1.666666666666667e-01 -1.666666666666665e-01 -3.333333333333333e-01
 1.666666666666667e-01 -1.666666666666665e-01 -3.333333333333333e-01
 1.666666666666667e-01 -1.666666666666665e-01 -3.333333333333333e-01
 1.666666666666667e-01 -1.666666666666665e-01 -3.333333333333333e-01
 1.666666666666667e-01 -1.666666666666665e-01 -3.333333333333333e-01
 1.666666666666667e-01 -1.666666666666665e-01 -3.333333333333333e-01
 1.666666666666667e-01 -1.666666666666665e-01 -3.333333333333333e-01
 1.666666666666667e-01 -1.666666666666665e-01 -3.333333333333333e-01
 1.666666666666667e-01 -1.666666666666665e-01 -3.333333333333333e-01
 1.666666666666667e-01 -1.666666666666665e-01 -3.333333333333333e-01
 1.666666666666667e-01 -1.666666666666665e-01 -3.333333333333333e-01
 1.666666666666667e-01 -1.666666666666665e-01 -3.333333333333333e-01
 1.666666666666667e-01 -1.666666666666665e-01 -3.333333333333333e-01
 1.666666666666667e-01 -1.666666666666665e-01 -3.333333333333333e-01
 1.666666666666667e-01 -1.666666666666665e-01 -3.333333333333333e-01
 1.666666666666667e-01 -1.666666666666665e-01 -3.333333333333333e-01
 1.666666666666667e-01 -1.666666666666665e-01 -3.333333333333333e-01
 1.666666666666667e-01 -1.666666666666665e-01 -3.333333333333333e-01
 1.666666666666667e-01 -1.666666666666665e-01 -3.333333333333333e-01
 1.666666666666667e-01 -1.666666666666665e-01 -3.333333333333333e-01
 1.666666666666667e-01 -1.666666666666665e-01 -3.333333333333333e-01
 1.666666666666667e-01 -1.666666666666665e-01 -3.333333333333333e-01
 1.666666666666667e-01 -1.666666666666665e-01 -3.333333333333333e-01
 1.666666666666667e-01 -1.666666666666665e-01 -3.333333333333333e-01
 1.666666666666667e-01 -1.666666666666665e-01 -3.333333333333333e-01
 1.666666666666667e-01 -1.666666666666665e-01 -3.333333333333333e-01
 1.666666666666667e-01 -1.666666666666665e-01 -3.333333333333333e-01
 1.666666666666667e-01 -1.666666666666665e-01 -3.333333333333333e-01
 1.666666666666667e-01 -1.666666666666665e-01 -3.333333333333333e-01
 1.666666666666667e-01 -1.666666666666665e-01 -3.333333333333333e-01
 1.666666666666667e-01 -1.666666666666665e-01 -3.333333333333333e-01
 1.666666666666667e-01 -1.666666666666665e-01 -3.333333333333333e-01
 1.666666666666667e-01 -1.666666666666665e-01 -3.333333333333333e-01
 1.666666666666667e-01 -1.666666666666665e-01 -3.333333333333333e-01
 1.666666666666667e-01 -1.666666666666665e-01 -3.333333333333333e-01
 1.666666666666667e-01 -1.666666666666665e-01 -3.333333333333333e-01
 1.666666666666667e-01 -1.666666666666665e-01 -3.333333333333333e-01
 1.666666666666667e-01 -1.666666666666665e-01 -3.333333333333333e-01
 1.666666666666667e-01 -1.666666666666665e-01 -3.333333333333333e-01
 1.666666666666667e-01 -1.666666666666665e-01 -3.333333333333333e-01
 1.666666666666667e-01 -1.666666666666665e-01 -3.333333333333333e-01
 1.666666666666667e-01 -1.666666666666665e-01 -3.333333333333333e-01
 1.666666666666667e-01 -1.666666666666665e-01 -3.333333333333333e-01
 1.666666666666667e-01 -1.666666666666665e-01 -3.333333333333333e-01
 1.666666666666667e-01 -1.666666666666665e-01 -3.333333333333333e-01
 1.666666666666667e-01 -1.666666666666665e-01 -3.333333333333333e-01
 1.666666666666667e-01 -1.666666666666665e-01 -3.333333333333333e-01
 1.666666666666667e-01 -1.666666666666665e-01 -3.333333333333333e-01
 1.666666666666667e-01 -1.666666666666665e-01 -3.333333333333333e-01
 1.666666666666667e-01 -1.666666666666665e-01 -3.333333333333333e-01
 1.666666666666667e-01 -1.666666666666665e-01 -3.333333333333333e-01
 1.666666666666667e-01 -1.666666666666665e-01 -3.333333333333333e-01
 1.666666666666667e-01 -1.666666666666665e-01 -3.333333333333333e-01
 1.666666666666667e-01 -1.666666666666665e-01 -3.333333333333333e-01
 1.666666666666667e-01 -1.666666666666665e-01 -3.333333333333333e-01
 1.666666666666667e-01 -1.666666666666665e-01 -3.333333333333333e-01
 1.666666666666667e-01 -1.666666666666665e-01 -3.333333333333333e-01
 1.666666666666667e-01 -1.666666666666665e-01 -3.333333333333333e-01
 1.666666666666667e-01 -1.666666666666665e-01 -3.333333333333333e-01
 1.666666666666667e-01 -1.666666666666665e-01 -3.333333333333333e-01
 1.666666666666667e-01 -1.666666666666665e-01 -3.333333333333333e-01
 1.666666666666667e-01 -1.666666666666665e-01 -3.333333333333333e-01
 1.666666666666667e-01 -1.666666666666665e-01 -3.333333333333333e-01
 1.666666666666667e-01 -1.666666666666665e-01 -3.333333333333333e-01
 1.666666666666667e-01 -1.666666666666665e-01 -3.333333333333333e-01
 1.666666666666667e-01 -1.666666666666665e-01 -3.333333333333333e-01
 1.666666666666667e-01 -1.666666666666665e-01 -3.333333333333333e-01
 1.666666666666667e-01 -1.666666666666665e-01 -3.333333333333333e-01
 1.666666666666667e-01 -1.666666666666665e-01 -3.333333333333333e-01
 1.666666666666667e-01 -1.666666666666665e-01 -3.333333333333333e-01
 1.666666666666667e-01 -1.666666666666665e-01 -3.333333333333333e-01
 1.666666666666667e-01 -1.666666666666665e-01 -3.333333333333333e-01
 1.666666666666667e-01 -1.666666666666665e-01 -3.333333333333333e-01
 1.666666666666667e-01 -1.666666666666665e-01 -3.333333333333333e-01
 1.666666666666667e-01 -1.666666666666665e-01 -3.333333333333333e-01
 1.666666666666667e-01 -1.666666666666665e-01 -3.333333333333333e-01
 1.666666666666667e-01 -1.666666666666665e-01 -3.333333333333333e-01
 1.666666666666667e-01 -1.666666666666665e-01 -3.333333333333333e-01
 1.666666666666667e-01 -1.666666666666665e-01 -3.333333333333333e-01
 1.666666666666667e-01 -1.666666666666665e-01 -3.333333333333333e-01
 1.666666666666667e-01 -1.666666666666665e-01 -3.333333333333333e-01
 1.666666666666667e-01 -1.666666666666665e-01 -3.333333333333333e-01
 1.666666666666667e-01 -1.666666666666665e-01 -3.333333333333333e-01
 1.666666666666667e-01 -1.666666666666665e-01 -3.333333333333333e-01
 1.666666666666667e-01 -1.666666666666665e-01 -3.333333333333333e-01
 1.666666666666667e-01 -1.666666666666665e-01 -3.333333333333333e-01
 1.666666666666667e-01 -1.666666666666665e-01 -3.333333333333333e-01
 1.666666666666667e-01 -1.666666666666665e-01 -3.333333333333333e-01
 1.666666666666667e-01 -1.666666666666665e-01 -3.333333333333333e-01
 1.666666666666667e-01 -1.666666666666665e-01 -3.333333333333333e-01
 1.666666666666667e-01 -1.666666666666665e-01 -3.333333333333333e-01
 1.666666666666667e-01 -1.666666666666665e-01 -3.333333333333333e-01
 1.666666666666667e-01 -1.666666666666665e-01 -3.333333333333333e-01
 1.666666666666667e-01 -1.666666666666665e-01 -3.333333333333333e-01
 1.666666666666667e-01 -1.666666666666665e-01 -3.333333333333333e-01
 1.666666666666667e-01 -1.666666666666665e-01 -3.333333333333333e-01
 1.666666666666667e-01 -1.666666666666665e-01 -3.333333333333333e-01
 1.666666666666667e-01 -1.666666666666665e-01 -3.333333333333333e-01
 1.666666666666667e-01 -1.666666666666665e-01 -3.333333333333333e-01
 1.666666666666667e-01 -1.666666666666665e-01 -3.333333333333333e-01
 1.666666666666667e-01 -1.666666666666665e-01 -3.333333333333333e-01
 1.666666666666667e-01 -1.666666666666665e-01 -3.333333333333333e-01
 1.666666666666667e-01 -1.666666666666665e-01 -3.333333333333333e-01
 1.666666666666667e-01 -1.666666666666665e-01 -3.333333333333333e-01
 1.666666666666667e-01 -1.666666666666665e-01 -3.333333333333333e-01
 1.666666666666667e-01 -1.666666666666665e-01 -3.333333333333333e-01
 1.666666666666667e-01 -1.666666666666665e-01 -3.333333333333333e-01
 1.666666666666667e-01 -1.666666666666665e-01 -3.333333333333333e-01
 1.666666666666667e-01 -1.666666666666665e-01 -3.333333333333333e-01
 1.666666666666667e-01 -1.666666666666665e-01 -3.333333333333333e-01
 1.666666666666667e-01 -1.666666666666665e-01 -3.333333333333333e-01
 1.666666666666667e-01 -1.666666666666665e-01 -3.333333333333333e-01
 1.666666666666667e-01 -1.666666666666665e-01 -3.333333333333333e-01
 1.666666666666667e-01 -1.666666666666665e-01 -3.333333333333333e-01
 1.666666666666667e-01 -1.666666666666665e-01 -3.333333333333333e-01
 1.666666666666667e-01 -1.666666666666665e-01 -3.333333333333333e-01
 1.666666666666667e-01 -1.666666666666665e-01 -3.333333333333333e-01
 1.666666666666667e-01 -1.666666666666665e-01 -3.333333333333333e-01
 1.666666666666667e-01 -1.666666666666665e-01 -3.333333333333333e-01
 1.666666666666667e-01 -1.666666666666665e-01 -3.333333333333333e-01
 1.666666666666667e-01 -1.666666666666665e-01 -3.333333333333333e-01
 1.666666666666667e-01 -1.666666666666665e-01 -3.333333333333333e-01
 1.666666666666667e-01 -1.666666666666665e-01 -3.333333333333333e-01
 1.666666666666667e-01 -1.666666666666665e-01 -3.333333333333333e-01
 1.666666666666667e-01 -1.666666666666665e-01 -3.333333333333333e-01
 1.666666666666667e-01 -1.666666666666665e-01 -3.333333333333333e-01
 1.666666666666667e-01 -1.666666666666665e-01 -3.333333333333333e-01
 1.666666666666667e-01 -1.666666666666665e-01 -3.333333333333333e-01
 1.666666666666667e-01 -1.666666666666665e-01 -3.333333333333333e-01
 1.666666666666667e-01 -1.666666666666665e-01 -3.333333333333333e-01
 1.666666666666667e-01 -1.666666666666665e-01 -3.333333333333333e-01
 1.666666666666667e-01 -1.666666666666665e-01 -3.333333333333333e-01
 1.666666666666667e-01 -1.666666666666665e-01 -3.333333333333333e-01
 1.666666666666667e-01 -1.666666666666665e-01 -3.333333333333333e-01
 1.666666666666667e-01 -1.666666666666665e-01 -3.333333333333333e-01
 1.666666666666667e-01 -1.666666666666665e-01 -3.333333333333333e-01
 1.666666666666667e-01 -1.666666666666665e-01 -3.333333333333333e-01
 1.666666666666667e-01 -1.666666666666665e-01 -3.333333333333333e-01
 1.666666666666667e-01 -1.666666666666665e-01 -3.333333333333333e-01
 1.666666666666667e-01 -1.666666666666665e-01 -3.333333333333333e-01
 1.666666666666667e-01 -1.666666666666665e-01 -3.333333333333333e-01
 1.666666666666667e-01 -1.666666666666665e-01 -3.333333333333333e-01
 1.666666666666667e-01 -1.666666666666665e-01 -3.333333333333333e-01
 1.666666666666667e-01 -1.666666666666665e-01 -3.333333333333333e-01
 1.666666666666667e-01 -1.666666666666665e-01 -3.333333333333333e-01
 1.666666666666667e-01 -1.666666666666665e-01 -3.333333333333333e-01
 1.666666666666667e-01 -1.666666666666665e-01 -3.333333333333333e-01
 1.666666666666667e-01 -1.666666666666665e-01 -3.333333333333333e-01
 1.666666666666667e-01 -1.666666666666665e-01 -3.333333333333333e-01
 1.666666666666667e-01 -1.666666666666665e-01 -3.333333333333333e-01
 1.666666666666667e-01 -1.666666666666665e-01 -3.333333333333333e-01
 1.666666666666667e-01 -1.666666666666665e-01 -3.333333333333333e-01
 1.666666666666667e-01 -1.666666666666665e-01 -3.333333333333333e-01
 1.666666666666667e-01 -1.666666666666665e-01 -3.333333333333333e-01
 1.666666666666667e-01 -1.666666666666665e-01 -3.333333333333333e-01
 1.666666666666667e-01 -1.666666666666665e-01 -3.333333333333333e-01
-1.666666666666667e-01  1.666666666666665e-01  3.333333333333333e-01
 1.666666666666667e-01 -1.666666666666665e-01 -3.333333333333333e-01
 1.666666666666667e-01 -1.666666666666665e-01 -3.333333333333333e-01
 1.666666666666667e-01 -1.666666666666665e-01 -3.333333333333333e-01
 1.666666666666667e-01 -1.666666666666665e-01 -3.333333333333333e-01
 1.666666666666667e-01 -1.666666666666665e-01 -3.333333333333333e-01
 1.666666666666667e-01 -1.666666666666665e-01 -3.333333333333333e-01
 1.666666666666667e-01 -1.666666666666665e-01 -3.333333333333333e-01
 1.666666666666667e-01 -1.666666666666665e-01 -3.333333333333333e-01
 1.666666666666667e-01 -1.666666666666665e-01 -3.333333333333333e-01
 1.666666666666667e-01 -1.666666666666665e-01 -3.333333333333333e-01
 1.666666666666667e-01 -1.666666666666665e-01 -3.333333333333333e-01
 1.666666666666667e-01 -1.666666666666665e-01 -3.333333333333333e-01
 1.666666666666667e-01 -1.666666666666665e-01 -3.333333333333333e-01
 1.666666666666667e-01 -1.666666666666665e-01 -3.333333333333333e-01
 1.666666666666667e-01 -1.666666666666665e-01 -3.333333333333333e-01
 1.666666666666667e-01 -1.666666666666665e-01 -3.333333333333333e-01
 1.666666666666667e-01 -1.666666666666665e-01 -3.333333333333333e-01
 1.666666666666667e-01 -1.666666666666665e-01 -3.333333333333333e-01
 1.666666666666667e-01 -1.666666666666665e-01 -3.333333333333333e-01
 1.666666666666667e-01 -1.666666666666665e-01 -3.333333333333333e-01
 1.666666666666667e-01 -1.666666666666665e-01 -3.333333333333333e-01
 1.666666666666667e-01 -1.666666666666665e-01 -3.333333333333333e-01
 1.666666666666667e-01 -1.666666666666665e-01 -3.333333333333333e-01
 1.666666666666667e-01 -1.666666666666665e-01 -3.333333333333333e-01
 1.666666666666667e-01 -1.666666666666665e-01 -3.333333333333333e-01
 1.666666666666667e-01 -1.666666666666665e-01 -3.333333333333333e-01
 1.666666666666667e-01 -1.666666666666665e-01 -3.333333333333333e-01
 1.666666666666667e-01 -1.666666666666665e-01 -3.333333333333333e-01
 1.666666666666667e-01 -1.666666666666665e-01 -3.333333333333333e-01
 1.666666666666667e-01 -1.666666666666665e-01 -3.333333333333333e-01
 1.666666666666667e-01 -1.666666666666665e-01 -3.333333333333333e-01
 1.666666666666667e-01 -1.666666666666665e-01 -3.333333333333333e-01
 1.666666666666667e-01 -1.666666666666665e-01 -3.333333333333333e-01
 1.666666666666667e-01 -1.666666666666665e-01 -3.333333333333333e-01
 1.666666666666667e-01 -1.666666666666665e-01 -3.333333333333333e-01
 1.666666666666667e-01 -1.666666666666665e-01 -3.333333333333333e-01
 1.666666666666667e-01 -1.666666666666665e-01 -3.333333333333333e-01
 1.666666666666667e-01 -1.666666666666665e-01 -3.333333333333333e-01
 1.666666666666667e-01 -1.666666666666665e-01 -3.333333333333333e-01
 1.666666666666667e-01 -1.666666666666665e-01 -3.333333333333333e-01
 1.666666666666667e-01 -1.666666666666665e-01 -3.333333333333333e-01
 1.666666666666667e-01 -1.666666666666665e-01 -3.333333333333333e-01
 1.666666666666667e-01 -1.666666666666665e-01 -3.333333333333333e-01
 1.666666666666667e-01 -1.666666666666665e-01 -3.333333333333333e-01
 1.666666666666667e-01 -1.666666666666665e-01 -3.333333333333333e-01
 1.666666666666667e-01 -1.666666666666665e-01 -3.333333333333333e-01
 1.666666666666667e-01 -1.666666666666665e-01 -3.333333333333333e-01
 1.666666666666667e-01 -1.666666666666665e-01 -3.333333333333333e-01
 1.666666666666667e-01 -1.666666666666665e-01 -3.333333333333333e-01
 1.666666666666667e-01 -1.666666666666665e-01 -3.333333333333333e-01
 1.666666666666667e-01 -1.666666666666665e-01 -3.333333333333333e-01
 1.666666666666667e-01 -1.666666666666665e-01 -3.333333333333333e-01
 1.666666666666667e-01 -1.666666666666665e-01 -3.333333333333333e-01
 1.666666666666667e-01 -1.666666666666665e-01 -3.333333333333333e-01
 1.666666666666667e-01 -1.666666666666665e-01 -3.333333333333333e-01
 1.666666666666667e-01 -1.666666666666665e-01 -3.333333333333333e-01
 1.666666666666667e-01 -1.666666666666665e-01 -3.333333333333333e-01
 1.666666666666667e-01 -1.666666666666665e-01 -3.333333333333333e-01
 1.666666666666667e-01 -1.666666666666665e-01 -3.333333333333333e-01
 1.666666666666667e-01 -1.666666666666665e-01 -3.333333333333333e-01
 1.666666666666667e-01 -1.666666666666665e-01 -3.333333333333333e-01
 1.666666666666667e-01 -1.666666666666665e-01 -3.333333333333333e-01
 1.666666666666667e-01 -1.666666666666665e-01 -3.333333333333333e-01
 1.666666666666667e-01 -1.666666666666665e-01 -3.333333333333333e-01
 1.666666666666667e-01 -1.666666666666665e-01 -3.333333333333333e-01
 1.666666666666667e-01 -1.666666666666665e-01 -3.333333333333333e-01
 1.666666666666667e-01 -1.666666666666665e-01 -3.333333333333333e-01
 1.666666666666667e-01 -1.666666666666665e-01 -3.333333333333333e-01
 1.666666666666667e-01 -1.666666666666665e-01 -3.333333333333333e-01
 1.666666666666667e-01 -1.666666666666665e-01 -3.333333333333333e-01
 1.666666666666667e-01 -1.666666666666665e-01 -3.333333333333333e-01
 1.666666666666667e-01 -1.666666666666665e-01 -3.333333333333333e-01
 1.666666666666667e-01 -1.666666666666665e-01 -3.333333333333333e-01
 1.666666666666667e-01 -1.666666666666665e-01 -3.333333333333333e-01
 1.666666666666667e-01 -1.666666666666665e-01 -3.333333333333333e-01
 1.666666666666667e-01 -1.666666666666665e-01 -3.333333333333333e-01
 1.666666666666667e-01 -1.666666666666665e-01 -3.333333333333333e-01
 1.666666666666667e-01 -1.666666666666665e-01 -3.333333333333333e-01
 1.666666666666667e-01 -1.666666666666665e-01 -3.333333333333333e-01
 1.666666666666667e-01 -1.666666666666665e-01 -3.333333333333333e-01
 1.666666666666667e-01 -1.666666666666665e-01 -3.333333333333333e-01
 1.666666666666667e-01 -1.666666666666665e-01 -3.333333333333333e-01
 1.666666666666667e-01 -1.666666666666665e-01 -3.333333333333333e-01
 1.666666666666667e-01 -1.666666666666665e-01 -3.333333333333333e-01
 1.666666666666667e-01 -1.666666666666665e-01 -3.333333333333333e-01
 1.666666666666667e-01 -1.666666666666665e-01 -3.333333333333333e-01
 1.666666666666667e-01 -1.666666666666665e-01 -3.333333333333333e-01
 1.666666666666667e-01 -1.666666666666665e-01 -3.333333333333333e-01
 1.666666666666667e-01 -1.666666666666665e-01 -3.333333333333333e-01
 1.666666666666667e-01 -1.666666666666665e-01 -3.333333333333333e-01
 1.666666666666667e-01 -1.666666666666665e-01 -3.333333333333333e-01
 1.666666666666667e-01 -1.666666666666665e-01 -3.333333333333333e-01
 1.666666666666667e-01 -1.666666666666665e-01 -3.333333333333333e-01
 1.666666666666667e-01 -1.666666666666665e-01 -3.333333333333333e-01
 1.666666666666667e-01 -1.666666666666665e-01 -3.333333333333333e-01
 1.666666666666667e-01 -1.666666666666665e-01 -3.333333333333333e-01
 1.666666666666667e-01 -1.666666666666665e-01 -3.333333333333333e-01
 1.666666666666667e-01 -1.666666666666665e-01 -3.333333333333333e-01
 1.666666666666667e-01 -1.666666666666665e-01 -3.333333333333333e-01
 1.666666666666667e-01 -1.666666666666665e-01 -3.333333333333333e-01
 1.666666666666667e-01 -1.666666666666665e-01 -3.333333333333333e-01
 1.666666666666667e-01 -1.666666666666665e-01 -3.333333333333333e-01
 1.666666666666667e-01 -1.666666666666665e-01 -3.333333333333333e-01
 1.666666666666667e-01 -1.666666666666665e-01 -3.333333333333333e-01
 1.666666666666667e-01 -1.666666666666665e-01 -3.333333333333333e-01
 1.666666666666667e-01 -1.666666666666665e-01 -3.333333333333333e-01
 1.666666666666667e-01 -1.666666666666665e-01 -3.333333333333333e-01
 1.666666666666667e-01 -1.666666666666665e-01 -3.333333333333333e-01
 1.666666666666667e-01 -1.666666666666665e-01 -3.333333333333333e-01
 1.666666666666667e-01 -1.666666666666665e-01 -3.333333333333333e-01
 1.666666666666667e-01 -1.666666666666665e-01 -3.333333333333333e-01
 1.666666666666667e-01 -1.666666666666665e-01 -3.333333333333333e-01
 1.666666666666667e-01 -1.666666666666665e-01 -3.333333333333333e-01
 1.666666666666667e-01 -1.666666666666665e-01 -3.333333333333333e-01
 1.666666666666667e-01 -1.666666666666665e-01 -3.333333333333333e-01
 1.666666666666667e-01 -1.666666666666665e-01 -3.333333333333333e-01
 1.666666666666667e-01 -1.666666666666665e-01 -3.333333333333333e-01
 1.666666666666667e-01 -1.666666666666665e-01 -3.333333333333333e-01
 1.666666666666667e-01 -1.666666666666665e-01 -3.333333333333333e-01
 1.666666666666667e-01 -1.666666666666665e-01 -3.333333333333333e-01
 1.666666666666667e-01 -1.666666666666665e-01 -3.333333333333333e-01
 1.666666666666667e-01 -1.666666666666665e-01 -3.333333333333333e-01
 1.666666666666667e-01 -1.666666666666665e-01 -3.333333333333333e-01
 1.666666666666667e-01 -1.666666666666665e-01 -3.333333333333333e-01
 1.666666666666667e-01 -1.666666666666665e-01 -3.333333333333333e-01
 1.666666666666667e-01 -1.666666666666665e-01 -3.333333333333333e-01
 1.666666666666667e-01 -1.666666666666665e-01 -3.333333333333333e-01
 1.666666666666667e-01 -1.666666666666665e-01 -3.333333333333333e-01
 1.666666666666667e-01 -1.666666666666665e-01 -3.333333333333333e-01
 1.666666666666667e-01 -1.666666666666665e-01 -3.333333333333333e-01
 1.666666666666667e-01 -1.666666666666665e-01 -3.333333333333333e-01
 1.666666666666667e-01 -1.666666666666665e-01 -3.333333333333333e-01
 1.666666666666667e-01 -1.666666666666665e-01 -3.333333333333333e-01
 1.666666666666667e-01 -1.666666666666665e-01 -3.333333333333333e-01
 1.666666666666667e-01 -1.666666666666665e-01 -3.333333333333333e-01
 1.666666666666667e-01 -1.666666666666665e-01 -3.333333333333333e-01
 1.666666666666667e-01 -1.666666666666665e-01 -3.333333333333333e-01
 1.666666666666667e-01 -1.666666666666665e-01 -3.333333333333333e-01
 1.666666666666667e-01 -1.666666666666665e-01 -3.333333333333333e-01
 1.666666666666667e-01 -1.666666666666665e-01 -3.333333333333333e-01
 1.666666666666667e-01 -1.666666666666665e-01 -3.333333333333333e-01
 1.666666666666667e-01 -1.666666666666665e-01 -3.333333333333333e-01
 1.666666666666667e-01 -1.666666666666665e-01 -3.333333333333333e-01
 1.666666666666667e-01 -1.666666666666665e-01 -3.333333333333333e-01
 1.666666666666667e-01 -1.666666666666665e-01 -3.333333333333333e-01
 1.666666666666667e-01 -1.666666666666665e-01 -3.333333333333333e-01
 1.666666666666667e-01 -1.666666666666665e-01 -3.333333333333333e-01
 1.666666666666667e-01 -1.666666666666665e-01 -3.333333333333333e-01
 1.666666666666667e-01 -1.666666666666665e-01 -3.333333333333333e-01
 1.666666666666667e-01 -1.666666666666665e-01 -3.333333333333333e-01
 1.666666666666667e-01 -1.666666666666665e-01 -3.333333333333333e-01
 1.666666666666667e-01 -1.666666666666665e-01 -3.333333333333333e-01
 1.666666666666667e-01 -1.666666666666665e-01 -3.333333333333333e-01
 1.666666666666667e-01 -1.666666666666665e-01 -3.333333333333333e-01
 1.666666666666667e-01 -1.666666666666665e-01 -3.333333333333333e-01
 1.666666666666667e-01 -1.666666666666665e-01 -3.333333333333333e-01
 1.666666666666667e-01 -1.666666666666665e-01 -3.333333333333333e-01
 1.666666666666667e-01 -1.666666666666665e-01 -3.333333333333333e-01
 1.666666666666667e-01 -1.666666666666665e-01 -3.333333333333333e-01
 1.666666666666667e-01 -1.666666666666665e-01 -3.333333333333333e-01
 1.666666666666667e-01 -1.666666666666665e-01 -3.333333333333333e-01
 1.666666666666667e-01 -1.666666666666665e-01 -3.333333333333333e-01
 1.666666666666667e-01 -1.666666666666665e-01 -3.333333333333333e-01
 1.666666666666667e-01 -1.666666666666665e-01 -3.333333333333333e-01
 1.666666666666667e-01 -1.666666666666665e-01 -3.333333333333333e-01
 1.666666666666667e-01 -1.666666666666665e-01 -3.333333333333333e-01
 1.666666666666667e-01 -1.666666666666665e-01 -3.333333333333333e-01
 1.666666666666667e-01 -1.666666666666665e-01 -3.333333333333333e-01
 1.666666666666667e-01 -1.666666666666665e-01 -3.333333333333333e-01
 1.666666666666667e-01 -1.666666666666665e-01 -3.333333333333333e-01
 1.666666666666667e-01 -1.666666666666665e-01 -3.333333333333333e-01
 1.666666666666667e-01 -1.666666666666665e-01 -3.333333333333333e-01
 1.666666666666667e-01 -1.666666666666665e-01 -3.333333333333333e-01
 1.666666666666667e-01 -1.666666666666665e-01 -3.333333333333333e-01
 1.666666666666667e-01 -1.666666666666665e-01 -3.333333333333333e-01
 1.666666666666667e-01 -1.666666666666665e-01 -3.333333333333333e-01
 1.666666666666667e-01 -1.666666666666665e-01 -3.333333333333333e-01
 1.666666666666667e-01 -1.666666666666665e-01 -3.333333333333333e-01
 1.666666666666667e-01 -1.666666666666665e-01 -3.333333333333333e-01
 1.666666666666667e-01 -1.666666666666665e-01 -3.333333333333333e-01
 1.666666666666667e-01 -1.666666666666665e-01 -3.333333333333333e-01
 1.666666666666667e-01 -1.666666666666665e-01 -3.333333333333333e-01
 1.666666666666667e-01 -1.666666666666665e-01 -3.333333333333333e-01
 1.666666666666667e-01 -1.666666666666665e-01 -3.333333333333333e-01
 1.666666666666667e-01 -1.666666666666665e-01 -3.333333333333333e-01
 1.666666666666667e-01 -1.666666666666665e-01 -3.333333333333333e-01
 1.666666666666667e-01 -1.666666666666665e-01 -3.333333333333333e-01
 1.666666666666667e-01 -1.666666666666665e-01 -3.333333333333333e-01
 1.666666666666667e-01 -1.666666666666665e-01 -3.333333333333333e-01
 1.666666666666667e-01 -1.666666666666665e-01 -3.333333333333333e-01
 1.666666666666667e-01 -1.666666666666665e-01 -3.333333333333333e-01
 1.666666666666667e-01 -1.666666666666665e-01 -3.333333333333333e-01
 1.666666666666667e-01 -1.666666666666665e-01 -3.333333333333333e-01
 1.666666666666667e-01 -1.666666666666665e-01 -3.333333333333333e-01
 1.666666666666667e-01 -1.666666666666665e-01 -3.333333333333333e-01
 1.666666666666667e-01 -1.666666666666665e-01 -3.333333333333333e-01
 1.666666666666667e-01 -1.666666666666665e-01 -3.333333333333333e-01
 1.666666666666667e-01 -1.666666666666665e-01 -3.333333333333333e-01
 1.666666666666667e-01 -1.666666666666665e-01 -3.333333333333333e-01
 1.666666666666667e-01 -1.666666666666665e-01 -3.333333333333333e-01
 1.666666666666667e-01 -1.666666666666665e-01 -3.333333333333333e-01
 1.666666666666667e-01 -1.666666666666665e-01 -3.333333333333333e-01
 1.666666666666667e-01 -1.666666666666665e-01 -3.333333333333333e-01
 1.666666666666667e-01 -1.666666666666665e-01 -3.333333333333333e-01
 1.666666666666667e-01 -1.666666666666665e-01 -3.333333333333333e-01
 1.666666666666667e-01 -1.666666666666665e-01 -3.333333333333333e-01
 1.666666666666667e-01 -1.666666666666665e-01 -3.333333333333333e-01
 1.666666666666667e-01 -1.666666666666665e-01 -3.333333333333333e-01
 1.666666666666667e-01 -1.666666666666665e-01 -3.333333333333333e-01
 1.666666666666667e-01 -1.666666666666665e-01 -3.333333333333333e-01
 1.666666666666667e-01 -1.666666666666665e-01 -3.333333333333333e-01
 1.666666666666667e-01 -1.666666666666665e-01 -3.333333333333333e-01
 1.666666666666667e-01 -1.666666666666665e-01 -3.333333333333333e-01
 1.666666666666667e-01 -1.666666666666665e-01 -3.333333333333333e-01
 1.666666666666667e-01 -1.666666666666665e-01 -3.333333333333333e-01
 1.666666666666667e-01 -1.666666666666665e-01 -3.333333333333333e-01
 1.666666666666667e-01 -1.666666666666665e-01 -3.333333333333333e-01
 1.666666666666667e-01 -1.666666666666665e-01 -3.333333333333333e-01
 1.666666666666667e-01 -1.666666666666665e-01 -3.333333333333333e-01
 1.666666666666667e-01 -1.666666666666665e-01 -3.333333333333333e-01
 1.666666666666667e-01 -1.666666666666665e-01 -3.333333333333333e-01
 1.666666666666667e-01 -1.666666666666665e-01 -3.333333333333333e-01
 1.666666666666667e-01 -1.666666666666665e-01 -3.333333333333333e-01
 1.666666666666667e-01 -1.666666666666665e-01 -3.333333333333333e-01
 1.666666666666667e-01 -1.666666666666665e-01 -3.333333333333333e-01
 1.666666666666667e-01 -1.666666666666665e-01 -3.333333333333333e-01
 1.666666666666667e-01 -1.666666666666665e-01 -3.333333333333333e-01
 1.666666666666667e-01 -1.666666666666665e-01 -3.333333333333333e-01
 1.666666666666667e-01 -1.666666666666665e-01 -3.333333333333333e-01
 1.666666666666667e-01 -1.666666666666665e-01 -3.333333333333333e-01
 1.666666666666667e-01 -1.666666666666665e-01 -3.333333333333333e-01
 1.666666666666667e-01 -1.666666666666665e-01 -3.333333333333333e-01
 1.666666666666667e-01 -1.666666666666665e-01 -3.333333333333333e-01
 1.666666666666667e-01 -1.666666666666665e-01 -3.333333333333333e-01
 1.666666666666667e-01 -1.666666666666665e-01 -3.333333333333333e-01
 1.666666666666667e-01 -1.666666666666665e-01 -3.333333333333333e-01
 1.666666666666667e-01 -1.666666666666665e-01 -3.333333333333333e-01
 1.666666666666667e-01 -1.666666666666665e-01 -3.333333333333333e-01
 1.666666666666667e-01 -1.666666666666665e-01 -3.333333333333333e-01
 1.666666666666667e-01 -1.666666666666665e-01 -3.333333333333333e-01
 1.666666666666667e-01 -1.666666666666665e-01 -3.333333333333333e-01
 1.666666666666667e-01 -1.666666666666665e-01 -3.333333333333333e-01
 1.666666666666667e-01 -1.666666666666665e-01 -3.333333333333333e-01
 1.666666666666667e-01 -1.666666666666665e-01 -3.333333333333333e-01
 1.666666666666667e-01 -1.666666666666665e-01 -3.333333333333333e-01
 1.666666666666667e-01 -1.666666666666665e-01 -3.333333333333333e-01
 1.666666666666667e-01 -1.666666666666665e-01 -3.333333333333333e-01
 1.666666666666667e-01 -1.666666666666665e-01 -3.333333333333333e-01
 1.666666666666667e-01 -1.666666666666665e-01 -3.333333333333333e-01
 1.666666666666667e-01 -1.666666666666665e-01 -3.333333333333333e-01
 1.666666666666667e-01 -1.666666666666665e-01 -3.333333333333333e-01
 1.666666666666667e-01 -1.666666666666665e-01 -3.333333333333333e-01
 1.666666666666667e-01 -1.666666666666665e-01 -3.333333333333333e-01
 1.666666666666667e-01 -1.666666666666665e-01 -3.333333333333333e-01
 1.666666666666667e-01 -1.666666666666665e-01 -3.333333333333333e-01
 1.666666666666667e-01 -1.666666666666665e-01 -3.333333333333333e-01
 1.666666666666667e-01 -1.666666666666665e-01 -3.333333333333333e-01
 1.666666666666667e-01 -1.666666666666665e-01 -3.333333333333333e-01
 1.666666666666667e-01 -1.666666666666665e-01 -3.333333333333333e-01
 1.666666666666667e-01 -1.666666666666665e-01 -3.333333333333333e-01
 1.666666666666667e-01 -1.666666666666665e-01 -3.333333333333333e-01
 1.666666666666667e-01 -1.666666666666665e-01 -3.333333333333333e-01
 1.666666666666667e-01 -1.666666666666665e-01 -3.333333333333333e-01
 1.666666666666667e-01 -1.666666666666665e-01 -3.333333333333333e-01
 1.666666666666667e-01 -1.666666666666665e-01 -3.333333333333333e-01
 1.666666666666667e-01 -1.666666666666665e-01 -3.333333333333333e-01
 1.666666666666667e-01 -1.666666666666665e-01 -3.333333333333333e-01
 1.666666666666667e-01 -1.666666666666665e-01 -3.333333333333333e-01
 1.666666666666667e-01 -1.666666666666665e-01 -3.333333333333333e-01
 1.666666666666667e-01 -1.666666666666665e-01 -3.333333333333333e-01
 1.666666666666667e-01 -1.666666666666665e-01 -3.333333333333333e-01
 1.666666666666667e-01 -1.666666666666665e-01 -3.333333333333333e-01
 1.666666666666667e-01 -1.666666666666665e-01 -3.333333333333333e-01
 1.666666666666667e-01 -1.666666666666665e-01 -3.333333333333333e-01
 1.666666666666667e-01 -1.666666666666665e-01 -3.333333333333333e-01
 1.666666666666667e-01 -1.666666666666665e-01 -3.333333333333333e-01
 1.666666666666667e-01 -1.666666666666665e-01 -3.333333333333333e-01
 1.666666666666667e-01 -1.666666666666665e-01 -3.333333333333333e-01
 1.666666666666667e-01 -1.666666666666665e-01 -3.333333333333333e-01
 1.666666666666667e-01 -1.666666666666665e-01 -3.333333333333333e-01
 1.666666666666667e-01 -1.666666666666665e-01 -3.333333333333333e-01
 1.666666666666667e-01 -1.666666666666665e-01 -3.333333333333333e-01
 1.666666666666667e-01 -1.666666666666665e-01 -3.333333333333333e-01
 1.666666666666667e-01 -1.666666666666665e-01 -3.333333333333333e-01
 1.666666666666667e-01 -1.666666666666665e-01 -3.333333333333333e-01
 1.666666666666667e-01 -1.666666666666665e-01 -3.333333333333333e-01
 1.666666666666667e-01 -1.666666666666665e-01 -3.333333333333333e-01
 1.666666666666667e-01 -1.666666666666665e-01 -3.333333333333333e-01
 1.666666666666667e-01 -1.666666666666665e-01 -3.333333333333333e-01
 1.666666666666667e-01 -1.666666666666665e-01 -3.333333333333333e-01
 1.666666666666667e-01 -1.666666666666665e-01 -3.333333333333333e-01
 1.666666666666667e-01 -1.666666666666665e-01 -3.333333333333333e-01
 1.666666666666667e-01 -1.666666666666665e-01 -3.333333333333333e-01
 1.666666666666667e-01 -1.666666666666665e-01 -3.333333333333333e-01
 1.666666666666667e-01 -1.666666666666665e-01 -3.333333333333333e-01
 1.666666666666667e-01 -1.666666666666665e-01 -3.333333333333333e-01
 1.666666666666667e-01 -1.666666666666665e-01 -3.333333333333333e-01
 1.666666666666667e-01 -1.666666666666665e-01 -3.333333333333333e-01
 1.666666666666667e-01 -1.666666666666665e-01 -3.333333333333333e-01
 1.666666666666667e-01 -1.666666666666665e-01 -3.333333333333333e-01
 1.666666666666667e-01 -1.666666666666665e-01 -3.333333333333333e-01
-1.666666666666667e-01  1.666666666666665e-01  3.333333333333333e-01
 1.666666666666667e-01 -1.666666666666665e-01 -3.333333333333333e-01
-1.666666666666667e-01  1.666666666666665e-01  3.333333333333333e-01
-1.666666666666667e-01  1.666666666666665e-01  3.333333333333333e-01
-1.666666666666667e-01  1.666666666666665e-01  3.333333333333333e-01
-1.666666666666667e-01  1.666666666666665e-01  3.333333333333333e-01
-1.666666666666667e-01  1.666666666666665e-01  3.333333333333333e-01
-1.666666666666667e-01  1.666666666666665e-01  3.333333333333333e-01
-1.666666666666667e-01  1.666666666666665e-01  3.333333333333333e-01
-1.666666666666667e-01  1.666666666666665e-01  3.333333333333333e-01
-1.666666666666667e-01  1.666666666666665e-01  3.333333333333333e-01
-1.666666666666667e-01  1.666666666666665e-01  3.333333333333333e-01
-1.666666666666667e-01  1.666666666666665e-01  3.333333333333333e-01
-1.666666666666667e-01  1.666666666666665e-01  3.333333333333333e-01
-1.666666666666667e-01  1.666666666666665e-01  3.333333333333333e-01
-1.666666666666667e-01  1.666666666666665e-01  3.333333333333333e-01
-1.666666666666667e-01  1.666666666666665e-01  3.333333333333333e-01
-1.666666666666667e-01  1.666666666666665e-01  3.333333333333333e-01
-1.666666666666667e-01  1.666666666666665e-01  3.333333333333333e-01
-1.666666666666667e-01  1.666666666666665e-01  3.333333333333333e-01
-1.666666666666667e-01  1.666666666666665e-01  3.333333333333333e-01
-1.666666666666667e-01  1.666666666666665e-01  3.333333333333333e-01
-1.666666666666667e-01  1.666666666666665e-01  3.333333333333333e-01
-1.666666666666667e-01  1.666666666666665e-01  3.333333333333333e-01
-1.666666666666667e-01  1.666666666666665e-01  3.333333333333333e-01
-1.666666666666667e-01  1.666666666666665e-01  3.333333333333333e-01
-1.666666666666667e-01  1.666666666666665e-01  3.333333333333333e-01
-1.666666666666667e-01  1.666666666666665e-01  3.333333333333333e-01
-1.666666666666667e-01  1.666666666666665e-01  3.333333333333333e-01
-1.666666666666667e-01  1.666666666666665e-01  3.333333333333333e-01
-1.666666666666667e-01  1.666666666666665e-01  3.333333333333333e-01
-1.666666666666667e-01  1.666666666666665e-01  3.333333333333333e-01
-1.666666666666667e-01  1.666666666666665e-01  3.333333333333333e-01
-1.666666666666667e-01  1.666666666666665e-01  3.333333333333333e-01
-1.666666666666667e-01  1.666666666666665e-01  3.333333333333333e-01
-1.666666666666667e-01  1.666666666666665e-01  3.333333333333333e-01
-1.666666666666667e-01  1.666666666666665e-01  3.333333333333333e-01
-1.666666666666667e-01  1.666666666666665e-01  3.333333333333333e-01
-1.666666666666667e-01  1.666666666666665e-01  3.333333333333333e-01
-1.666666666666667e-01  1.666666666666665e-01  3.333333333333333e-01
-1.666666666666667e-01  1.666666666666665e-01  3.333333333333333e-01
-1.666666666666667e-01  1.666666666666665e-01  3.333333333333333e-01
-1.666666666666667e-01  1.666666666666665e-01  3.333333333333333e-01
-1.666666666666667e-01  1.666666666666665e-01  3.333333333333333e-01
-1.666666666666667e-01  1.666666666666665e-01  3.333333333333333e-01
-1.666666666666667e-01  1.666666666666665e-01  3.333333333333333e-01
-1.666666666666667e-01  1.666666666666665e-01  3.333333333333333e-01
-1.666666666666667e-01  1.666666666666665e-01  3.333333333333333e-01
-1.666666666666667e-01  1.666666666666665e-01  3.333333333333333e-01
-1.666666666666667e-01  1.666666666666665e-01  3.333333333333333e-01
-1.666666666666667e-01  1.666666666666665e-01  3.333333333333333e-01
-1.666666666666667e-01  1.666666666666665e-01  3.333333333333333e-01
-1.666666666666667e-01  1.666666666666665e-01  3.333333333333333e-01
-1.666666666666667e-01  1.666666666666665e-01  3.333333333333333e-01
-1.666666666666667e-01  1.666666666666665e-01  3.333333333333333e-01
-1.666666666666667e-01  1.666666666666665e-01  3.333333333333333e-01
-1.666666666666667e-01  1.666666666666665e-01  3.333333333333333e-01
-1.666666666666667e-01  1.666666666666665e-01  3.333333333333333e-01
-1.666666666666667e-01  1.666666666666665e-01  3.333333333333333e-01
-1.666666666666667e-01  1.666666666666665e-01  3.333333333333333e-01
-1.666666666666667e-01  1.666666666666665e-01  3.333333333333333e-01
-1.666666666666667e-01  1.666666666666665e-01  3.333333333333333e-01
-1.666666666666667e-01  1.666666666666665e-01  3.333333333333333e-01
-1.666666666666667e-01  1.666666666666665e-01  3.333333333333333e-01
-1.666666666666667e-01  1.666666666666665e-01  3.333333333333333e-01
-1.666666666666667e-01  1.666666666666665e-01  3.333333333333333e-01
-1.666666666666667e-01  1.666666666666665e-01  3.333333333333333e-01
-1.666666666666667e-01  1.666666666666665e-01  3.333333333333333e-01
-1.666666666666667e-01  1.666666666666665e-01  3.333333333333333e-01
-1.666666666666667e-01  1.666666666666665e-01  3.333333333333333e-01
-1.666666666666667e-01  1.666666666666665e-01  3.333333333333333e-01
-1.666666666666667e-01  1.666666666666665e-01  3.333333333333333e-01
-1.666666666666667e-01  1.666666666666665e-01  3.333333333333333e-01
-1.666666666666667e-01  1.666666666666665e-01  3.333333333333333e-01
-1.666666666666667e-01  1.666666666666665e-01  3.333333333333333e-01
-1.666666666666667e-01  1.666666666666665e-01  3.333333333333333e-01
-1.666666666666667e-01  1.666666666666665e-01  3.333333333333333e-01
-1.666666666666667e-01  1.666666666666665e-01  3.333333333333333e-01
-1.666666666666667e-01  1.666666666666665e-01  3.333333333333333e-01
-1.666666666666667e-01  1.666666666666665e-01  3.333333333333333e-01
-1.666666666666667e-01  1.666666666666665e-01  3.333333333333333e-01
-1.666666666666667e-01  1.666666666666665e-01  3.333333333333333e-01
-1.666666666666667e-01  1.666666666666665e-01  3.333333333333333e-01
-1.666666666666667e-01  1.666666666666665e-01  3.333333333333333e-01
-1.666666666666667e-01  1.666666666666665e-01  3.333333333333333e-01
-1.666666666666667e-01  1.666666666666665e-01  3.333333333333333e-01
-1.666666666666667e-01  1.666666666666665e-01  3.333333333333333e-01
-1.666666666666667e-01  1.666666666666665e-01  3.333333333333333e-01
-1.666666666666667e-01  1.666666666666665e-01  3.333333333333333e-01
-1.666666666666667e-01  1.666666666666665e-01  3.333333333333333e-01
-1.666666666666667e-01  1.666666666666665e-01  3.333333333333333e-01
-1.666666666666667e-01  1.666666666666665e-01  3.333333333333333e-01
-1.666666666666667e-01  1.666666666666665e-01  3.333333333333333e-01
-1.666666666666667e-01  1.666666666666665e-01  3.333333333333333e-01
-1.666666666666667e-01  1.666666666666665e-01  3.333333333333333e-01
-1.666666666666667e-01  1.666666666666665e-01  3.333333333333333e-01
-1.666666666666667e-01  1.666666666666665e-01  3.333333333333333e-01
-1.666666666666667e-01  1.666666666666665e-01  3.333333333333333e-01
-1.666666666666667e-01  1.666666666666665e-01  3.333333333333333e-01
-1.666666666666667e-01  1.666666666666665e-01  3.333333333333333e-01
-1.666666666666667e-01  1.666666666666665e-01  3.333333333333333e-01
-1.666666666666667e-01  1.666666666666665e-01  3.333333333333333e-01
-1.666666666666667e-01  1.666666666666665e-01  3.333333333333333e-01
-1.666666666666667e-01  1.666666666666665e-01  3.333333333333333e-01
-1.666666666666667e-01  1.666666666666665e-01  3.333333333333333e-01
-1.666666666666667e-01  1.666666666666665e-01  3.333333333333333e-01
-1.666666666666667e-01  1.666666666666665e-01  3.333333333333333e-01
-1.666666666666667e-01  1.666666666666665e-01  3.333333333333333e-01
-1.666666666666667e-01  1.666666666666665e-01  3.333333333333333e-01
-1.666666666666667e-01  1.666666666666665e-01  3.333333333333333e-01
-1.666666666666667e-01  1.666666666666665e-01  3.333333333333333e-01
-1.666666666666667e-01  1.666666666666665e-01  3.333333333333333e-01
-1.666666666666667e-01  1.666666666666665e-01  3.333333333333333e-01
-1.666666666666667e-01  1.666666666666665e-01  3.333333333333333e-01
-1.666666666666667e-01  1.666666666666665e-01  3.333333333333333e-01
-1.666666666666667e-01  1.666666666666665e-01  3.333333333333333e-01
-1.666666666666667e-01  1.666666666666665e-01  3.333333333333333e-01
-1.666666666666667e-01  1.666666666666665e-01  3.333333333333333e-01
-1.666666666666667e-01  1.666666666666665e-01  3.333333333333333e-01
-1.666666666666667e-01  1.666666666666665e-01  3.333333333333333e-01
-1.666666666666667e-01  1.666666666666665e-01  3.333333333333333e-01
-1.666666666666667e-01  1.666666666666665e-01  3.333333333333333e-01
-1.666666666666667e-01  1.666666666666665e-01  3.333333333333333e-01
-1.666666666666667e-01  1.666666666666665e-01  3.333333333333333e-01
-1.666666666666667e-01  1.666666666666665e-01  3.333333333333333e-01
-1.666666666666667e-01  1.666666666666665e-01  3.333333333333333e-01
-1.666666666666667e-01  1.666666666666665e-01  3.333333333333333e-01
-1.666666666666667e-01  1.666666666666665e-01  3.333333333333333e-01
-1.666666666666667e-01  1.666666666666665e-01  3.333333333333333e-01
-1.666666666666667e-01  1.666666666666665e-01  3.333333333333333e-01
-1.666666666666667e-01  1.666666666666665e-01  3.333333333333333e-01
-1.666666666666667e-01  1.666666666666665e-01  3.333333333333333e-01
-1.666666666666667e-01  1.666666666666665e-01  3.333333333333333e-01
-1.666666666666667e-01  1.666666666666665e-01  3.333333333333333e-01
-1.666666666666667e-01  1.666666666666665e-01  3.333333333333333e-01
-1.666666666666667e-01  1.666666666666665e-01  3.333333333333333e-01
-1.666666666666667e-01  1.666666666666665e-01  3.333333333333333e-01
-1.666666666666667e-01  1.666666666666665e-01  3.333333333333333e-01
-1.666666666666667e-01  1.666666666666665e-01  3.333333333333333e-01
-1.666666666666667e-01  1.666666666666665e-01  3.333333333333333e-01
-1.666666666666667e-01  1.666666666666665e-01  3.333333333333333e-01
-1.666666666666667e-01  1.666666666666665e-01  3.333333333333333e-01
-1.666666666666667e-01  1.666666666666665e-01  3.333333333333333e-01
-1.666666666666667e-01  1.666666666666665e-01  3.333333333333333e-01
-1.666666666666667e-01  1.666666666666665e-01  3.333333333333333e-01
-1.666666666666667e-01  1.666666666666665e-01  3.333333333333333e-01
-1.666666666666667e-01  1.666666666666665e-01  3.333333333333333e-01
-1.666666666666667e-01  1.666666666666665e-01  3.333333333333333e-01
-1.666666666666667e-01  1.666666666666665e-01  3.333333333333333e-01
-1.666666666666667e-01  1.666666666666665e-01  3.333333333333333e-01
-1.666666666666667e-01  1.666666666666665e-01  3.333333333333333e-01
-1.666666666666667e-01  1.666666666666665e-01  3.333333333333333e-01
-1.666666666666667e-01  1.666666666666665e-01  3.333333333333333e-01
-1.666666666666667e-01  1.666666666666665e-01  3.333333333333333e-01
-1.666666666666667e-01  1.666666666666665e-01  3.333333333333333e-01
-1.666666666666667e-01  1.666666666666665e-01  3.333333333333333e-01
-1.666666666666667e-01  1.666666666666665e-01  3.333333333333333e-01
-1.666666666666667e-01  1.666666666666665e-01  3.333333333333333e-01
-1.666666666666667e-01  1.666666666666665e-01  3.333333333333333e-01
-1.666666666666667e-01  1.666666666666665e-01  3.333333333333333e-01
-1.666666666666667e-01  1.666666666666665e-01  3.333333333333333e-01
-1.666666666666667e-01  1.666666666666665e-01  3.333333333333333e-01
-1.666666666666667e-01  1.666666666666665e-01  3.333333333333333e-01
-1.666666666666667e-01  1.666666666666665e-01  3.333333333333333e-01
-1.666666666666667e-01  1.666666666666665e-01  3.333333333333333e-01
-1.666666666666667e-01  1.666666666666665e-01  3.333333333333333e-01
-1.666666666666667e-01  1.666666666666665e-01  3.333333333333333e-01
-1.666666666666667e-01  1.666666666666665e-01  3.333333333333333e-01
-1.666666666666667e-01  1.666666666666665e-01  3.333333333333333e-01
-1.666666666666667e-01  1.666666666666665e-01  3.333333333333333e-01
-1.666666666666667e-01  1.666666666666665e-01  3.333333333333333e-01
-1.666666666666667e-01  1.666666666666665e-01  3.333333333333333e-01
-1.666666666666667e-01  1.666666666666665e-01  3.333333333333333e-01
-1.666666666666667e-01  1.666666666666665e-01  3.333333333333333e-01
-1.666666666666667e-01  1.666666666666665e-01  3.333333333333333e-01
-1.666666666666667e-01  1.666666666666665e-01  3.333333333333333e-01
-1.666666666666667e-01  1.666666666666665e-01  3.333333333333333e-01
-1.666666666666667e-01  1.666666666666665e-01  3.333333333333333e-01
-1.666666666666667e-01  1.666666666666665e-01  3.333333333333333e-01
-1.666666666666667e-01  1.666666666666665e-01  3.333333333333333e-01
-1.666666666666667e-01  1.666666666666665e-01  3.333333333333333e-01
-1.666666666666667e-01  1.666666666666665e-01  3.333333333333333e-01
-1.666666666666667e-01  1.666666666666665e-01  3.333333333333333e-01
-1.666666666666667e-01  1.666666666666665e-01  3.333333333333333e-01
-1.666666666666667e-01  1.666666666666665e-01  3.333333333333333e-01
-1.666666666666667e-01  1.666666666666665e-01  3.333333333333333e-01
-1.666666666666667e-01  1.666666666666665e-01  3.333333333333333e-01
-1.666666666666667e-01  1.666666666666665e-01  3.333333333333333e-01
-1.666666666666667e-01  1.666666666666665e-01  3.333333333333333e-01
-1.666666666666667e-01  1.666666666666665e-01  3.333333333333333e-01
-1.666666666666667e-01  1.666666666666665e-01  3.333333333333333e-01
-1.666666666666667e-01  1.666666666666665e-01  3.333333333333333e-01
-1.666666666666667e-01  1.666666666666665e-01  3.333333333333333e-01
-1.666666666666667e-01  1.666666666666665e-01  3.333333333333333e-01
-1.666666666666667e-01  1.666666666666665e-01  3.333333333333333e-01
-1.666666666666667e-01  1.666666666666665e-01  3.333333333333333e-01
-1.666666666666667e-01  1.666666666666665e-01  3.333333333333333e-01
-1.666666666666667e-01  1.666666666666665e-01  3.333333333333333e-01
-1.666666666666667e-01  1.666666666666665e-01  3.333333333333333e-01
-1.666666666666667e-01  1.666666666666665e-01  3.333333333333333e-01
-1.666666666666667e-01  1.666666666666665e-01  3.333333333333333e-01
-1.666666666666667e-01  1.666666666666665e-01  3.333333333333333e-01
-1.666666666666667e-01  1.666666666666665e-01  3.333333333333333e-01
-1.666666666666667e-01  1.666666666666665e-01  3.333333333333333e-01
-1.666666666666667e-01  1.666666666666665e-01  3.333333333333333e-01
-1.666666666666667e-01  1.666666666666665e-01  3.333333333333333e-01
-1.666666666666667e-01  1.666666666666665e-01  3.333333333333333e-01
-1.666666666666667e-01  1.666666666666665e-01  3.333333333333333e-01
-1.666666666666667e-01  1.666666666666665e-01  3.333333333333333e-01
-1.666666666666667e-01  1.666666666666665e-01  3.333333333333333e-01
-1.666666666666667e-01  1.666666666666665e-01  3.333333333333333e-01
-1.666666666666667e-01  1.666666666666665e-01  3.333333333333333e-01
-1.666666666666667e-01  1.666666666666665e-01  3.333333333333333e-01
-1.666666666666667e-01  1.666666666666665e-01  3.333333333333333e-01
-1.666666666666667e-01  1.666666666666665e-01  3.333333333333333e-01
-1.666666666666667e-01  1.666666666666665e-01  3.333333333333333e-01
-1.666666666666667e-01  1.666666666666665e-01  3.333333333333333e-01
-1.666666666666667e-01  1.666666666666665e-01  3.333333333333333e-01
-1.666666666666667e-01  1.666666666666665e-01  3.333333333333333e-01
-1.666666666666667e-01  1.666666666666665e-01  3.333333333333333e-01
-1.666666666666667e-01  1.666666666666665e-01  3.333333333333333e-01
-1.666666666666667e-01  1.666666666666665e-01  3.333333333333333e-01
-1.666666666666667e-01  1.666666666666665e-01  3.333333333333333e-01
-1.666666666666667e-01  1.666666666666665e-01  3.333333333333333e-01
-1.666666666666667e-01  1.666666666666665e-01  3.333333333333333e-01
-1.666666666666667e-01  1.666666666666665e-01  3.333333333333333e-01
-1.666666666666667e-01  1.666666666666665e-01  3.333333333333333e-01
-1.666666666666667e-01  1.666666666666665e-01  3.333333333333333e-01
-1.666666666666667e-01  1.666666666666665e-01  3.333333333333333e-01
-1.666666666666667e-01  1.666666666666665e-01  3.333333333333333e-01
-1.666666666666667e-01  1.666666666666665e-01  3.333333333333333e-01
-1.666666666666667e-01  1.666666666666665e-01  3.333333333333333e-01
-1.666666666666667e-01  1.666666666666665e-01  3.333333333333333e-01
-1.666666666666667e-01  1.666666666666665e-01  3.333333333333333e-01
-1.666666666666667e-01  1.666666666666665e-01  3.333333333333333e-01
-1.666666666666667e-01  1.666666666666665e-01  3.333333333333333e-01
-1.666666666666667e-01  1.666666666666665e-01  3.333333333333333e-01
-1.666666666666667e-01  1.666666666666665e-01  3.333333333333333e-01
-1.666666666666667e-01  1.666666666666665e-01  3.333333333333333e-01
-1.666666666666667e-01  1.666666666666665e-01  3.333333333333333e-01
-1.666666666666667e-01  1.666666666666665e-01  3.333333333333333e-01
-1.666666666666667e-01  1.666666666666665e-01  3.333333333333333e-01
-1.666666666666667e-01  1.666666666666665e-01  3.333333333333333e-01
-1.666666666666667e-01  1.666666666666665e-01  3.333333333333333e-01
-1.666666666666667e-01  1.666666666666665e-01  3.333333333333333e-01
-1.666666666666667e-01  1.666666666666665e-01  3.333333333333333e-01
-1.666666666666667e-01  1.666666666666665e-01  3.333333333333333e-01
-1.666666666666667e-01  1.666666666666665e-01  3.333333333333333e-01
-1.666666666666667e-01  1.666666666666665e-01  3.333333333333333e-01
-1.666666666666667e-01  1.666666666666665e-01  3.333333333333333e-01
-1.666666666666667e-01  1.666666666666665e-01  3.333333333333333e-01
-1.666666666666667e-01  1.666666666666665e-01  3.333333333333333e-01
-1.666666666666667e-01  1.666666666666665e-01  3.333333333333333e-01
-1.666666666666667e-01  1.666666666666665e-01  3.333333333333333e-01
-1.666666666666667e-01  1.666666666666665e-01  3.333333333333333e-01
-1.666666666666667e-01  1.666666666666665e-01  3.333333333333333e-01
-1.666666666666667e-01  1.666666666666665e-01  3.333333333333333e-01
-1.666666666666667e-01  1.666666666666665e-01  3.333333333333333e-01
-1.666666666666667e-01  1.666666666666665e-01  3.333333333333333e-01
-1.666666666666667e-01  1.666666666666665e-01  3.333333333333333e-01
-1.666666666666667e-01  1.666666666666665e-01  3.333333333333333e-01
-1.666666666666667e-01  1.666666666666665e-01  3.333333333333333e-01
-1.666666666666667e-01  1.666666666666665e-01  3.333333333333333e-01
-1.666666666666667e-01  1.666666666666665e-01  3.333333333333333e-01
-1.666666666666667e-01  1.666666666666665e-01  3.333333333333333e-01
-1.666666666666667e-01  1.666666666666665e-01  3.333333333333333e-01
-1.666666666666667e-01  1.666666666666665e-01  3.333333333333333e-01
-1.666666666666667e-01  1.666666666666665e-01  3.333333333333333e-01
-1.666666666666667e-01  1.666666666666665e-01  3.333333333333333e-01
-1.666666666666667e-01  1.666666666666665e-01  3.333333333333333e-01
-1.666666666666667e-01  1.666666666666665e-01  3.333333333333333e-01
-1.666666666666667e-01  1.666666666666665e-01  3.333333333333333e-01
-1.666666666666667e-01  1.666666666666665e-01  3.333333333333333e-01
-1.666666666666667e-01  1.666666666666665e-01  3.333333333333333e-01
-1.666666666666667e-01  1.666666666666665e-01  3.333333333333333e-01
-1.666666666666667e-01  1.666666666666665e-01  3.333333333333333e-01
-1.666666666666667e-01  1.666666666666665e-01  3.333333333333333e-01
-1.666666666666667e-01  1.666666666666665e-01  3.333333333333333e-01
-1.666666666666667e-01  1.666666666666665e-01  3.333333333333333e-01
-1.666666666666667e-01  1.666666666666665e-01  3.333333333333333e-01
-1.666666666666667e-01  1.666666666666665e-01  3.333333333333333e-01
-1.666666666666667e-01  1.666666666666665e-01  3.333333333333333e-01
-1.666666666666667e-01  1.666666666666665e-01  3.333333333333333e-01
-1.666666666666667e-01  1.666666666666665e-01  3.333333333333333e-01
-1.666666666666667e-01  1.666666666666665e-01  3.333333333333333e-01
-1.666666666666667e-01  1.666666666666665e-01  3.333333333333333e-01
-1.666666666666667e-01  1.666666666666665e-01  3.333333333333333e-01
-1.666666666666667e-01  1.666666666666665e-01  3.333333333333333e-01
-1.666666666666667e-01  1.666666666666665e-01  3.333333333333333e-01
-1.666666666666667e-01  1.666666666666665e-01  3.333333333333333e-01
-1.666666666666667e-01  1.666666666666665e-01  3.333333333333333e-01
-1.666666666666667e-01  1.666666666666665e-01  3.333333333333333e-01
-1.666666666666667e-01  1.666666666666665e-01  3.333333333333333e-01
-1.666666666666667e-01  1.666666666666665e-01  3.333333333333333e-01
-1.666666666666667e-01  1.666666666666665e-01  3.333333333333333e-01
-1.666666666666667e-01  1.666666666666665e-01  3.333333333333333e-01
-1.666666666666667e-01  1.666666666666665e-01  3.333333333333333e-01
-1.666666666666667e-01  1.666666666666665e-01  3.333333333333333e-01
-1.666666666666667e-01  1.666666666666665e-01  3.333333333333333e-01
-1.666666666666667e-01  1.666666666666665e-01  3.333333333333333e-01
-1.666666666666667e-01  1.666666666666665e-01  3.333333333333333e-01
-1.666666666666667e-01  1.666666666666665e-01  3.333333333333333e-01
-1.666666666666667e-01  1.666666666666665e-01  3.333333333333333e-01
-1.666666666666667e-01  1.666666666666665e-01  3.333333333333333e-01
-1.666666666666667e-01  1.666666666666665e-01  3.333333333333333e-01
-1.666666666666667e-01  1.666666666666665e-01  3.333333333333333e-01
-1.666666666666667e-01  1.666666666666665e-01  3.333333333333333e-01
-1.666666666666667e-01  1.666666666666665e-01  3.333333333333333e-01
-1.666666666666667e-01  1.666666666666665e-01  3.333333333333333e-01
-1.666666666666667e-01  1.666666666666665e-01  3.333333333333333e-01
-1.666666666666667e-01  1.666666666666665e-01  3.333333333333333e-01
-1.666666666666667e-01  1.666666666666665e-01  3.333333333333333e-01
-1.666666666666667e-01  1.666666666666665e-01  3.333333333333333e-01
-1.666666666666667e-01  1.666666666666665e-01  3.333333333333333e-01
-1.666666666666667e-01  1.666666666666665e-01  3.333333333333333e-01
-1.666666666666667e-01  1.666666666666665e-01  3.333333333333333e-01
-1.666666666666667e-01  1.666666666666665e-01  3.333333333333333e-01
-1.666666666666667e-01  1.666666666666665e-01  3.333333333333333e-01
-1.666666666666667e-01  1.666666666666665e-01  3.333333333333333e-01
-1.666666666666667e-01  1.666666666666665e-01  3.333333333333333e-01
-1.666666666666667e-01  1.666666666666665e-01  3.333333333333333e-01
-1.666666666666667e-01  1.666666666666665e-01  3.333333333333333e-01
-1.666666666666667e-01  1.666666666666665e-01  3.333333333333333e-01
-1.666666666666667e-01  1.666666666666665e-01  3.333333333333333e-01
-1.666666666666667e-01  1.666666666666665e-01  3.333333333333333e-01
-1.666666666666667e-01  1.666666666666665e-01  3.333333333333333e-01
-1.666666666666667e-01  1.666666666666665e-01  3.333333333333333e-01
-1.666666666666667e-01  1.666666666666665e-01  3.333333333333333e-01
-1.666666666666667e-01  1.666666666666665e-01  3.333333333333333e-01
-1.666666666666667e-01  1.666666666666665e-01  3.333333333333333e-01
-1.666666666666667e-01  1.666666666666665e-01  3.333333333333333e-01
-1.666666666666667e-01  1.666666666666665e-01  3.333333333333333e-01
-1.666666666666667e-01  1.666666666666665e-01  3.333333333333333e-01
-1.666666666666667e-01  1.666666666666665e-01  3.333333333333333e-01
-1.666666666666667e-01  1.666666666666665e-01  3.333333333333333e-01
-1.666666666666667e-01  1.666666666666665e-01  3.333333333333333e-01
-1.666666666666667e-01  1.666666666666665e-01  3.333333333333333e-01
-1.666666666666667e-01  1.666666666666665e-01  3.333333333333333e-01
-1.666666666666667e-01  1.666666666666665e-01  3.333333333333333e-01
-1.666666666666667e-01  1.666666666666665e-01  3.333333333333333e-01
-1.666666666666667e-01  1.666666666666665e-01  3.333333333333333e-01
-1.666666666666667e-01  1.666666666666665e-01  3.333333333333333e-01
-1.666666666666667e-01  1.666666666666665e-01  3.333333333333333e-01
-1.666666666666667e-01  1.666666666666665e-01  3.333333333333333e-01
-1.666666666666667e-01  1.666666666666665e-01  3.333333333333333e-01
-1.666666666666667e-01  1.666666666666665e-01  3.333333333333333e-01
-1.666666666666667e-01  1.666666666666665e-01  3.333333333333333e-01
-1.666666666666667e-01  1.666666666666665e-01  3.333333333333333e-01
-1.666666666666667e-01  1.666666666666665e-01  3.333333333333333e-01
-1.666666666666667e-01  1.666666666666665e-01  3.333333333333333e-01
-1.666666666666667e-01  1.666666666666665e-01  3.333333333333333e-01
 1.666666666666667e-01 -1.666666666666665e-01 -3.333333333333333e-01
-1.666666666666667e-01  1.666666666666665e-01  3.333333333333333e-01
-1.666666666666667e-01  1.666666666666665e-01  3.333333333333333e-01
-1.666666666666667e-01  1.666666666666665e-01  3.333333333333333e-01
-1.666666666666667e-01  1.666666666666665e-01  3.333333333333333e-01
-1.666666666666667e-01  1.666666666666665e-01  3.333333333333333e-01
-1.666666666666667e-01  1.666666666666665e-01  3.333333333333333e-01
-1.666666666666667e-01  1.666666666666665e-01  3.333333333333333e-01
-1.666666666666667e-01  1.666666666666665e-01  3.333333333333333e-01
-1.666666666666667e-01  1.666666666666665e-01  3.333333333333333e-01
-1.666666666666667e-01  1.666666666666665e-01  3.333333333333333e-01
-1.666666666666667e-01  1.666666666666665e-01  3.333333333333333e-01
-1.666666666666667e-01  1.666666666666665e-01  3.333333333333333e-01
-1.666666666666667e-01  1.666666666666665e-01  3.333333333333333e-01
-1.666666666666667e-01  1.666666666666665e-01  3.333333333333333e-01
-1.666666666666667e-01  1.666666666666665e-01  3.333333333333333e-01
-1.666666666666667e-01  1.666666666666665e-01  3.333333333333333e-01
-1.666666666666667e-01  1.666666666666665e-01  3.333333333333333e-01
-1.666666666666667e-01  1.666666666666665e-01  3.333333333333333e-01
-1.666666666666667e-01  1.666666666666665e-01  3.333333333333333e-01
-1.666666666666667e-01  1.666666666666665e-01  3.333333333333333e-01
-1.666666666666667e-01  1.666666666666665e-01  3.333333333333333e-01
-1.666666666666667e-01  1.666666666666665e-01  3.333333333333333e-01
-1.666666666666667e-01  1.666666666666665e-01  3.333333333333333e-01
-1.666666666666667e-01  1.666666666666665e-01  3.333333333333333e-01
-1.666666666666667e-01  1.666666666666665e-01  3.333333333333333e-01
-1.666666666666667e-01  1.666666666666665e-01  3.333333333333333e-01
-1.666666666666667e-01  1.666666666666665e-01  3.333333333333333e-01
-1.666666666666667e-01  1.666666666666665e-01  3.333333333333333e-01
-1.666666666666667e-01  1.666666666666665e-01  3.333333333333333e-01
-1.666666666666667e-01  1.666666666666665e-01  3.333333333333333e-01
-1.666666666666667e-01  1.666666666666665e-01  3.333333333333333e-01
-1.666666666666667e-01  1.666666666666665e-01  3.333333333333333e-01
-1.666666666666667e-01  1.666666666666665e-01  3.333333333333333e-01
-1.666666666666667e-01  1.666666666666665e-01  3.333333333333333e-01
-1.666666666666667e-01  1.666666666666665e-01  3.333333333333333e-01
-1.666666666666667e-01  1.666666666666665e-01  3.333333333333333e-01
-1.666666666666667e-01  1.666666666666665e-01  3.333333333333333e-01
-1.666666666666667e-01  1.666666666666665e-01  3.333333333333333e-01
-1.666666666666667e-01  1.666666666666665e-01  3.333333333333333e-01
-1.666666666666667e-01  1.666666666666665e-01  3.333333333333333e-01
-1.666666666666667e-01  1.666666666666665e-01  3.333333333333333e-01
-1.666666666666667e-01  1.666666666666665e-01  3.333333333333333e-01
-1.666666666666667e-01  1.666666666666665e-01  3.333333333333333e-01
-1.666666666666667e-01  1.666666666666665e-01  3.333333333333333e-01
-1.666666666666667e-01  1.666666666666665e-01  3.333333333333333e-01
-1.666666666666667e-01  1.666666666666665e-01  3.333333333333333e-01
-1.666666666666667e-01  1.666666666666665e-01  3.333333333333333e-01
-1.666666666666667e-01  1.666666666666665e-01  3.333333333333333e-01
-1.666666666666667e-01  1.666666666666665e-01  3.333333333333333e-01
-1.666666666666667e-01  1.666666666666665e-01  3.333333333333333e-01
-1.666666666666667e-01  1.666666666666665e-01  3.333333333333333e-01
-1.666666666666667e-01  1.666666666666665e-01  3.333333333333333e-01
-1.666666666666667e-01  1.666666666666665e-01  3.333333333333333e-01
-1.666666666666667e-01  1.666666666666665e-01  3.333333333333333e-01
-1.666666666666667e-01  1.666666666666665e-01  3.333333333333333e-01
-1.666666666666667e-01  1.666666666666665e-01  3.333333333333333e-01
-1.666666666666667e-01  1.666666666666665e-01  3.333333333333333e-01
-1.666666666666667e-01  1.666666666666665e-01  3.333333333333333e-01
-1.666666666666667e-01  1.666666666666665e-01  3.333333333333333e-01
-1.666666666666667e-01  1.666666666666665e-01  3.333333333333333e-01
-1.666666666666667e-01  1.666666666666665e-01  3.333333333333333e-01
-1.666666666666667e-01  1.666666666666665e-01  3.333333333333333e-01
-1.666666666666667e-01  1.666666666666665e-01  3.333333333333333e-01
-1.666666666666667e-01  1.666666666666665e-01  3.333333333333333e-01
-1.666666666666667e-01  1.666666666666665e-01  3.333333333333333e-01
-1.666666666666667e-01  1.666666666666665e-01  3.333333333333333e-01
-1.666666666666667e-01  1.666666666666665e-01  3.333333333333333e-01
-1.666666666666667e-01  1.666666666666665e-01  3.333333333333333e-01
-1.666666666666667e-01  1.666666666666665e-01  3.333333333333333e-01
-1.666666666666667e-01  1.666666666666665e-01  3.333333333333333e-01
-1.666666666666667e-01  1.666666666666665e-01  3.333333333333333e-01
-1.666666666666667e-01  1.666666666666665e-01  3.333333333333333e-01
-1.666666666666667e-01  1.666666666666665e-01  3.333333333333333e-01
-1.666666666666667e-01  1.666666666666665e-01  3.333333333333333e-01
-1.666666666666667e-01  1.666666666666665e-01  3.333333333333333e-01
-1.666666666666667e-01  1.666666666666665e-01  3.333333333333333e-01
-1.666666666666667e-01  1.666666666666665e-01  3.333333333333333e-01
-1.666666666666667e-01  1.666666666666665e-01  3.333333333333333e-01
-1.666666666666667e-01  1.666666666666665e-01  3.333333333333333e-01
-1.666666666666667e-01  1.666666666666665e-01  3.333333333333333e-01
-1.666666666666667e-01  1.666666666666665e-01  3.333333333333333e-01
-1.666666666666667e-01  1.666666666666665e-01  3.333333333333333e-01
-1.666666666666667e-01  1.666666666666665e-01  3.333333333333333e-01
-1.666666666666667e-01  1.666666666666665e-01  3.333333333333333e-01
-1.666666666666667e-01  1.666666666666665e-01  3.333333333333333e-01
-1.666666666666667e-01  1.666666666666665e-01  3.333333333333333e-01
-1.666666666666667e-01  1.666666666666665e-01  3.333333333333333e-01
-1.666666666666667e-01  1.666666666666665e-01  3.333333333333333e-01
-1.666666666666667e-01  1.666666666666665e-01  3.333333333333333e-01
-1.666666666666667e-01  1.666666666666665e-01  3.333333333333333e-01
-1.666666666666667e-01  1.666666666666665e-01  3.333333333333333e-01
-1.666666666666667e-01  1.666666666666665e-01  3.333333333333333e-01
-1.666666666666667e-01  1.666666666666665e-01  3.333333333333333e-01
-1.666666666666667e-01  1.666666666666665e-01  3.333333333333333e-01
-1.666666666666667e-01  1.666666666666665e-01  3.333333333333333e-01
-1.666666666666667e-01  1.666666666666665e-01  3.333333333333333e-01
-1.666666666666667e-01  1.666666666666665e-01  3.333333333333333e-01
-1.666666666666667e-01  1.666666666666665e-01  3.333333333333333e-01
-1.666666666666667e-01  1.666666666666665e-01  3.333333333333333e-01
-1.666666666666667e-01  1.666666666666665e-01  3.333333333333333e-01
-1.666666666666667e-01  1.666666666666665e-01  3.333333333333333e-01
-1.666666666666667e-01  1.666666666666665e-01  3.333333333333333e-01
-1.666666666666667e-01  1.666666666666665e-01  3.333333333333333e-01
-1.666666666666667e-01  1.666666666666665e-01  3.333333333333333e-01
-1.666666666666667e-01  1.666666666666665e-01  3.333333333333333e-01
-1.666666666666667e-01  1.666666666666665e-01  3.333333333333333e-01
-1.666666666666667e-01  1.666666666666665e-01  3.333333333333333e-01
-1.666666666666667e-01  1.666666666666665e-01  3.333333333333333e-01
-1.666666666666667e-01  1.666666666666665e-01  3.333333333333333e-01
-1.666666666666667e-01  1.666666666666665e-01  3.333333333333333e-01
-1.666666666666667e-01  1.666666666666665e-01  3.333333333333333e-01
-1.666666666666667e-01  1.666666666666665e-01  3.333333333333333e-01
-1.666666666666667e-01  1.666666666666665e-01  3.333333333333333e-01
-1.666666666666667e-01  1.666666666666665e-01  3.333333333333333e-01
-1.666666666666667e-01  1.666666666666665e-01  3.333333333333333e-01
-1.666666666666667e-01  1.666666666666665e-01  3.333333333333333e-01
-1.666666666666667e-01  1.666666666666665e-01  3.333333333333333e-01
-1.666666666666667e-01  1.666666666666665e-01  3.333333333333333e-01
-1.666666666666667e-01  1.666666666666665e-01  3.333333333333333e-01
-1.666666666666667e-01  1.666666666666665e-01  3.333333333333333e-01
-1.666666666666667e-01  1.666666666666665e-01  3.333333333333333e-01
-1.666666666666667e-01  1.666666666666665e-01  3.333333333333333e-01
-1.666666666666667e-01  1.666666666666665e-01  3.333333333333333e-01
-1.666666666666667e-01  1.666666666666665e-01  3.333333333333333e-01
-1.666666666666667e-01  1.666666666666665e-01  3.333333333333333e-01
-1.666666666666667e-01  1.666666666666665e-01  3.333333333333333e-01
-1.666666666666667e-01  1.666666666666665e-01  3.333333333333333e-01
-1.666666666666667e-01  1.666666666666665e-01  3.333333333333333e-01
-1.666666666666667e-01  1.666666666666665e-01  3.333333333333333e-01
-1.666666666666667e-01  1.666666666666665e-01  3.333333333333333e-01
-1.666666666666667e-01  1.666666666666665e-01  3.333333333333333e-01
-1.666666666666667e-01  1.666666666666665e-01  3.333333333333333e-01
-1.666666666666667e-01  1.666666666666665e-01  3.333333333333333e-01
-1.666666666666667e-01  1.666666666666665e-01  3.333333333333333e-01
-1.666666666666667e-01  1.666666666666665e-01  3.333333333333333e-01
-1.666666666666667e-01  1.666666666666665e-01  3.333333333333333e-01
-1.666666666666667e-01  1.666666666666665e-01  3.333333333333333e-01
-1.666666666666667e-01  1.666666666666665e-01  3.333333333333333e-01
-1.666666666666667e-01  1.666666666666665e-01  3.333333333333333e-01
-1.666666666666667e-01  1.666666666666665e-01  3.333333333333333e-01
-1.666666666666667e-01  1.666666666666665e-01  3.333333333333333e-01
-1.666666666666667e-01  1.666666666666665e-01  3.333333333333333e-01
-1.666666666666667e-01  1.666666666666665e-01  3.333333333333333e-01
-1.666666666666667e-01  1.666666666666665e-01  3.333333333333333e-01
-1.666666666666667e-01  1.666666666666665e-01  3.333333333333333e-01
-1.666666666666667e-01  1.666666666666665e-01  3.333333333333333e-01
-1.666666666666667e-01  1.666666666666665e-01  3.333333333333333e-01
-1.666666666666667e-01  1.666666666666665e-01  3.333333333333333e-01
-1.666666666666667e-01  1.666666666666665e-01  3.333333333333333e-01
-1.666666666666667e-01  1.666666666666665e-01  3.333333333333333e-01
-1.666666666666667e-01  1.666666666666665e-01  3.333333333333333e-01
-1.666666666666667e-01  1.666666666666665e-01  3.333333333333333e-01
-1.666666666666667e-01  1.666666666666665e-01  3.333333333333333e-01
-1.666666666666667e-01  1.666666666666665e-01  3.333333333333333e-01
-1.666666666666667e-01  1.666666666666665e-01  3.333333333333333e-01
-1.666666666666667e-01  1.666666666666665e-01  3.333333333333333e-01
-1.666666666666667e-01  1.666666666666665e-01  3.333333333333333e-01
-1.666666666666667e-01  1.666666666666665e-01  3.333333333333333e-01
-1.666666666666667e-01  1.666666666666665e-01  3.333333333333333e-01
-1.666666666666667e-01  1.666666666666665e-01  3.333333333333333e-01
-1.666666666666667e-01  1.666666666666665e-01  3.333333333333333e-01
-1.666666666666667e-01  1.666666666666665e-01  3.333333333333333e-01
-1.666666666666667e-01  1.666666666666665e-01  3.333333333333333e-01
-1.666666666666667e-01  1.666666666666665e-01  3.333333333333333e-01
-1.666666666666667e-01  1.666666666666665e-01  3.333333333333333e-01
-1.666666666666667e-01  1.666666666666665e-01  3.333333333333333e-01
-1.666666666666667e-01  1.666666666666665e-01  3.333333333333333e-01
-1.666666666666667e-01  1.666666666666665e-01  3.333333333333333e-01
-1.666666666666667e-01  1.666666666666665e-01  3.333333333333333e-01
-1.666666666666667e-01  1.666666666666665e-01  3.333333333333333e-01
-1.666666666666667e-01  1.666666666666665e-01  3.333333333333333e-01
-1.666666666666667e-01  1.666666666666665e-01  3.333333333333333e-01
-1.666666666666667e-01  1.666666666666665e-01  3.333333333333333e-01
-1.666666666666667e-01  1.666666666666665e-01  3.333333333333333e-01
-1.666666666666667e-01  1.666666666666665e-01  3.333333333333333e-01
-1.666666666666667e-01  1.666666666666665e-01  3.333333333333333e-01
-1.666666666666667e-01  1.666666666666665e-01  3.333333333333333e-01
-1.666666666666667e-01  1.666666666666665e-01  3.333333333333333e-01
-1.666666666666667e-01  1.666666666666665e-01  3.333333333333333e-01
-1.666666666666667e-01  1.666666666666665e-01  3.333333333333333e-01
-1.666666666666667e-01  1.666666666666665e-01  3.333333333333333e-01
-1.666666666666667e-01  1.666666666666665e-01  3.333333333333333e-01
-1.666666666666667e-01  1.666666666666665e-01  3.333333333333333e-01
-1.666666666666667e-01  1.666666666666665e-01  3.333333333333333e-01
-1.666666666666667e-01  1.666666666666665e-01  3.333333333333333e-01
-1.666666666666667e-01  1.666666666666665e-01  3.333333333333333e-01
-1.666666666666667e-01  1.666666666666665e-01  3.333333333333333e-01
-1.666666666666667e-01  1.666666666666665e-01  3.333333333333333e-01
-1.666666666666667e-01  1.666666666666665e-01  3.333333333333333e-01
-1.666666666666667e-01  1.666666666666665e-01  3.333333333333333e-01
-1.666666666666667e-01  1.666666666666665e-01  3.333333333333333e-01
-1.666666666666667e-01  1.666666666666665e-01  3.333333333333333e-01
-1.666666666666667e-01  1.666666666666665e-01  3.333333333333333e-01
-1.666666666666667e-01  1.666666666666665e-01  3.333333333333333e-01
-1.666666666666667e-01  1.666666666666665e-01  3.333333333333333e-01
-1.666666666666667e-01  1.666666666666665e-01  3.333333333333333e-01
-1.666666666666667e-01  1.666666666666665e-01  3.333333333333333e-01
-1.666666666666667e-01  1.666666666666665e-01  3.333333333333333e-01
-1.666666666666667e-01  1.666666666666665e-01  3.333333333333333e-01
-1.666666666666667e-01  1.666666666666665e-01  3.333333333333333e-01
-1.666666666666667e-01  1.666666666666665e-01  3.333333333333333e-01
-1.666666666666667e-01  1.666666666666665e-01  3.333333333333333e-01
-1.666666666666667e-01  1.666666666666665e-01  3.333333333333333e-01
-1.666666666666667e-01  1.666666666666665e-01  3.333333333333333e-01
-1.666666666666667e-01  1.666666666666665e-01  3.333333333333333e-01
-1.666666666666667e-01  1.666666666666665e-01  3.333333333333333e-01
-1.666666666666667e-01  1.666666666666665e-01  3.333333333333333e-01
-1.666666666666667e-01  1.666666666666665e-01  3.333333333333333e-01
-1.666666666666667e-01  1.666666666666665e-01  3.333333333333333e-01
-1.666666666666667e-01  1.666666666666665e-01  3.333333333333333e-01
-1.666666666666667e-01  1.666666666666665e-01  3.333333333333333e-01
-1.666666666666667e-01  1.666666666666665e-01  3.333333333333333e-01
-1.666666666666667e-01  1.666666666666665e-01  3.333333333333333e-01
-1.666666666666667e-01  1.666666666666665e-01  3.333333333333333e-01
-1.666666666666667e-01  1.666666666666665e-01  3.333333333333333e-01
-1.666666666666667e-01  1.666666666666665e-01  3.333333333333333e-01
-1.666666666666667e-01  1.666666666666665e-01  3.333333333333333e-01
-1.666666666666667e-01  1.666666666666665e-01  3.333333333333333e-01
-1.666666666666667e-01  1.666666666666665e-01  3.333333333333333e-01
-1.666666666666667e-01  1.666666666666665e-01  3.333333333333333e-01
-1.666666666666667e-01  1.666666666666665e-01  3.333333333333333e-01
-1.666666666666667e-01  1.666666666666665e-01  3.333333333333333e-01
-1.666666666666667e-01  1.666666666666665e-01  3.333333333333333e-01
-1.666666666666667e-01  1.666666666666665e-01  3.333333333333333e-01
-1.666666666666667e-01  1.666666666666665e-01  3.333333333333333e-01
-1.666666666666667e-01  1.666666666666665e-01  3.333333333333333e-01
-1.666666666666667e-01  1.666666666666665e-01  3.333333333333333e-01
-1.666666666666667e-01  1.666666666666665e-01  3.333333333333333e-01
-1.666666666666667e-01  1.666666666666665e-01  3.333333333333333e-01
-1.666666666666667e-01  1.666666666666665e-01  3.333333333333333e-01
-1.666666666666667e-01  1.666666666666665e-01  3.333333333333333e-01
-1.666666666666667e-01  1.666666666666665e-01  3.333333333333333e-01
-1.666666666666667e-01  1.666666666666665e-01  3.333333333333333e-01
-1.666666666666667e-01  1.666666666666665e-01  3.333333333333333e-01
-1.666666666666667e-01  1.666666666666665e-01  3.333333333333333e-01
-1.666666666666667e-01  1.666666666666665e-01  3.333333333333333e-01
-1.666666666666667e-01  1.666666666666665e-01  3.333333333333333e-01
-1.666666666666667e-01  1.666666666666665e-01  3.333333333333333e-01
-1.666666666666667e-01  1.666666666666665e-01  3.333333333333333e-01
-1.666666666666667e-01  1.666666666666665e-01  3.333333333333333e-01
-1.666666666666667e-01  1.666666666666665e-01  3.333333333333333e-01
-1.666666666666667e-01  1.666666666666665e-01  3.333333333333333e-01
-1.666666666666667e-01  1.666666666666665e-01  3.333333333333333e-01
-1.666666666666667e-01  1.666666666666665e-01  3.333333333333333e-01
-1.666666666666667e-01  1.666666666666665e-01  3.333333333333333e-01
-1.666666666666667e-01  1.666666666666665e-01  3.333333333333333e-01
-1.666666666666667e-01  1.666666666666665e-01  3.333333333333333e-01
-1.666666666666667e-01  1.666666666666665e-01  3.333333333333333e-01
-1.666666666666667e-01  1.666666666666665e-01  3.333333333333333e-01
-1.666666666666667e-01  1.666666666666665e-01  3.333333333333333e-01
-1.666666666666667e-01  1.666666666666665e-01  3.333333333333333e-01
-1.666666666666667e-01  1.666666666666665e-01  3.333333333333333e-01
-1.666666666666667e-01  1.666666666666665e-01  3.333333333333333e-01
-1.666666666666667e-01  1.666666666666665e-01  3.333333333333333e-01
-1.666666666666667e-01  1.666666666666665e-01  3.333333333333333e-01
-1.666666666666667e-01  1.666666666666665e-01  3.333333333333333e-01
-1.666666666666667e-01  1.666666666666665e-01  3.333333333333333e-01
-1.666666666666667e-01  1.666666666666665e-01  3.333333333333333e-01
-1.666666666666667e-01  1.666666666666665e-01  3.333333333333333e-01
-1.666666666666667e-01  1.666666666666665e-01  3.333333333333333e-01
-1.666666666666667e-01  1.666666666666665e-01  3.333333333333333e-01
-1.666666666666667e-01  1.666666666666665e-01  3.333333333333333e-01
-1.666666666666667e-01  1.666666666666665e-01  3.333333333333333e-01
-1.666666666666667e-01  1.666666666666665e-01  3.333333333333333e-01
-1.666666666666667e-01  1.666666666666665e-01  3.333333333333333e-01
-1.666666666666667e-01  1.666666666666665e-01  3.333333333333333e-01
-1.666666666666667e-01  1.666666666666665e-01  3.333333333333333e-01
-1.666666666666667e-01  1.666666666666665e-01  3.333333333333333e-01
-1.666666666666667e-01  1.666666666666665e-01  3.333333333333333e-01
-1.666666666666667e-01  1.666666666666665e-01  3.333333333333333e-01
-1.666666666666667e-01  1.666666666666665e-01  3.333333333333333e-01
-1.666666666666667e-01  1.666666666666665e-01  3.333333333333333e-01
-1.666666666666667e-01  1.666666666666665e-01  3.333333333333333e-01
-1.666666666666667e-01  1.666666666666665e-01  3.333333333333333e-01
-1.666666666666667e-01  1.666666666666665e-01  3.333333333333333e-01
-1.666666666666667e-01  1.666666666666665e-01  3.333333333333333e-01
-1.666666666666667e-01  1.666666666666665e-01  3.333333333333333e-01
-1.666666666666667e-01  1.666666666666665e-01  3.333333333333333e-01
-1.666666666666667e-01  1.666666666666665e-01  3.333333333333333e-01
-1.666666666666667e-01  1.666666666666665e-01  3.333333333333333e-01
-1.666666666666667e-01  1.666666666666665e-01  3.333333333333333e-01
-1.666666666666667e-01  1.666666666666665e-01  3.333333333333333e-01
-1.666666666666667e-01  1.666666666666665e-01  3.333333333333333e-01
-1.666666666666667e-01  1.666666666666665e-01  3.333333333333333e-01
-1.666666666666667e-01  1.666666666666665e-01  3.333333333333333e-01
-1.666666666666667e-01  1.666666666666665e-01  3.333333333333333e-01
-1.666666666666667e-01  1.666666666666665e-01  3.333333333333333e-01
-1.666666666666667e-01  1.666666666666665e-01  3.333333333333333e-01
-1.666666666666667e-01  1.666666666666665e-01  3.333333333333333e-01
-1.666666666666667e-01  1.666666666666665e-01  3.333333333333333e-01
-1.666666666666667e-01  1.666666666666665e-01  3.333333333333333e-01
-1.666666666666667e-01  1.666666666666665e-01  3.333333333333333e-01
-1.666666666666667e-01  1.666666666666665e-01  3.333333333333333e-01
-1.666666666666667e-01  1.666666666666665e-01  3.333333333333333e-01
-1.666666666666667e-01  1.666666666666665e-01  3.333333333333333e-01
-1.666666666666667e-01  1.666666666666665e-01  3.333333333333333e-01
-1.666666666666667e-01  1.666666666666665e-01  3.333333333333333e-01
-1.666666666666667e-01  1.666666666666665e-01  3.333333333333333e-01
-1.666666666666667e-01  1.666666666666665e-01  3.333333333333333e-01
-1.666666666666667e-01  1.666666666666665e-01  3.333333333333333e-01
-1.666666666666667e-01  1.666666666666665e-01  3.333333333333333e-01
-1.666666666666667e-01  1.666666666666665e-01  3.333333333333333e-01
-1.666666666666667e-01  1.666666666666665e-01  3.333333333333333e-01
-1.666666666666667e-01  1.666666666666665e-01  3.333333333333333e-01
-1.666666666666667e-01  1.666666666666665e-01  3.333333333333333e-01
-1.666666666666667e-01  1.666666666666665e-01  3.333333333333333e-01
-1.666666666666667e-01  1.666666666666665e-01  3.333333333333333e-01
-1.666666666666667e-01  1.666666666666665e-01  3.333333333333333e-01
-1.666666666666667e-01  1.666666666666665e-01  3.333333333333333e-01
-1.666666666666667e-01  1.666666666666665e-01  3.333333333333333e-01
-1.666666666666667e-01  1.666666666666665e-01  3.333333333333333e-01
-1.666666666666667e-01  1.666666666666665e-01  3.333333333333333e-01
-1.666666666666667e-01  1.666666666666665e-01  3.333333333333333e-01
-1.666666666666667e-01  1.666666666666665e-01  3.333333333333333e-01
-1.666666666666667e-01  1.666666666666665e-01  3.333333333333333e-01
-1.666666666666667e-01  1.666666666666665e-01  3.333333333333333e-01
-1.666666666666667e-01  1.666666666666665e-01  3.333333333333333e-01
-1.666666666666667e-01  1.666666666666665e-01  3.333333333333333e-01
-1.666666666666667e-01  1.666666666666665e-01  3.333333333333333e-01
-1.666666666666667e-01  1.666666666666665e-01  3.333333333333333e-01
-1.666666666666667e-01  1.666666666666665e-01  3.333333333333333e-01
-1.666666666666667e-01  1.666666666666665e-01  3.333333333333333e-01
-1.666666666666667e-01  1.666666666666665e-01  3.333333333333333e-01
-1.666666666666667e-01  1.666666666666665e-01  3.333333333333333e-01
-1.666666666666667e-01  1.666666666666665e-01  3.333333333333333e-01
-1.666666666666667e-01  1.666666666666665e-01  3.333333333333333e-01
-1.666666666666667e-01  1.666666666666665e-01  3.333333333333333e-01
-1.666666666666667e-01  1.666666666666665e-01  3.333333333333333e-01
-1.666666666666667e-01  1.666666666666665e-01  3.333333333333333e-01
-1.666666666666667e-01  1.666666666666665e-01  3.333333333333333e-01
-1.666666666666667e-01  1.666666666666665e-01  3.333333333333333e-01
-1.666666666666667e-01  1.666666666666665e-01  3.333333333333333e-01
-1.666666666666667e-01  1.666666666666665e-01  3.333333333333333e-01
-1.666666666666667e-01  1.666666666666665e-01  3.333333333333333e-01
-1.666666666666667e-01  1.666666666666665e-01  3.333333333333333e-01
-1.666666666666667e-01  1.666666666666665e-01  3.333333333333333e-01
-1.666666666666667e-01  1.666666666666665e-01  3.333333333333333e-01
-1.666666666666667e-01  1.666666666666665e-01  3.333333333333333e-01
-1.666666666666667e-01  1.666666666666665e-01  3.333333333333333e-01
-1.666666666666667e-01  1.666666666666665e-01  3.333333333333333e-01
-1.666666666666667e-01  1.666666666666665e-01  3.333333333333333e-01
-1.666666666666667e-01  1.666666666666665e-01  3.333333333333333e-01
-1.666666666666667e-01  1.666666666666665e-01  3.333333333333333e-01
-1.666666666666667e-01  1.666666666666665e-01  3.333333333333333e-01
-1.666666666666667e-01  1.666666666666665e-01  3.333333333333333e-01
