# vtk DataFile Version 3.0
# Dislocation lines converted from MoDELib file
ASCII
DATASET UNSTRUCTURED_GRID
POINTS 6202 double
-1.429999999999877e+00  3.863858941524650e+02 -2.918975276816622e+03
-1.429999999999897e+00 -3.863858941524674e+02 -2.918975276816622e+03
-1.429999999999897e+00  0.000000000000000e+00 -2.918975276816622e+03
-1.430000000000221e+00  0.000000000000000e+00  2.918975276816619e+03
-1.430000000000221e+00 -3.863858941524674e+02  2.918975276816619e+03
-1.430000000000201e+00  3.863858941524653e+02  2.918975276816619e+03
-1.147444031603952e+03  9.358436052973504e-03 -2.918975276816622e+03
-1.148420870174218e+03 -1.014947611719904e+00 -2.918975276816622e+03
-1.149410415919510e+03 -1.999020469697912e+00 -2.918975276816622e+03
-1.148048361076573e+03 -2.990792030472538e+00 -2.918975276816622e+03
-1.147438784935229e+03 -3.996943044013245e+00 -2.918975276816622e+03
-1.148345362945735e+03 -4.980496758053230e+00 -2.918975276816622e+03
-1.148927788079792e+03 -5.990937780323963e+00 -2.918975276816622e+03
-1.147812347479931e+03 -6.983415971429111e+00 -2.918975276816622e+03
-1.147725539524738e+03 -7.987286665296267e+00 -2.918975276816622e+03
-1.148559933831421e+03 -8.988811978111409e+00 -2.918975276816622e+03
-1.148798642922876e+03 -9.979259382200599e+00 -2.918975276816622e+03
-1.147935234831314e+03 -1.098361545527016e+01 -2.918975276816622e+03
-1.147582959218774e+03 -1.197952286906940e+01 -2.918975276816622e+03
-1.148136014602913e+03 -1.298247127098512e+01 -2.918975276816622e+03
-1.148955373296916e+03 -1.398178847457767e+01 -2.918975276816622e+03
-1.148319699903036e+03 -1.496911856170685e+01 -2.918975276816622e+03
-1.147831952680126e+03 -1.597571361184082e+01 -2.918975276816622e+03
-1.148014106425096e+03 -1.697242110407995e+01 -2.918975276816622e+03
-1.148274354478433e+03 -1.797197086392291e+01 -2.918975276816622e+03
-1.148214640011873e+03 -1.896982849874503e+01 -2.918975276816622e+03
-1.148179491501288e+03 -1.996830178271120e+01 -2.918975276816622e+03
-1.148182207479474e+03 -2.096671260829928e+01 -2.918975276816622e+03
-1.148186775528336e+03 -2.196514688865473e+01 -2.918975276816622e+03
-1.148195281246150e+03 -2.296352255113611e+01 -2.918975276816622e+03
-1.148186425058884e+03 -2.396188692642463e+01 -2.918975276816622e+03
-1.148174963821148e+03 -2.496033509200347e+01 -2.918975276816622e+03
-1.148181381534001e+03 -2.595878995589030e+01 -2.918975276816622e+03
-1.148188570379760e+03 -2.695718470645880e+01 -2.918975276816622e+03
-1.148185799436672e+03 -2.795558095287504e+01 -2.918975276816622e+03
-1.148183668399314e+03 -2.895399961157172e+01 -2.918975276816622e+03
-1.148184758289387e+03 -2.995241529225694e+01 -2.918975276816622e+03
-1.148185474742613e+03 -3.095082549605684e+01 -2.918975276816622e+03
-1.148184828968571e+03 -3.194923583602331e+01 -2.918975276816622e+03
-1.148183892516431e+03 -3.294765158243384e+01 -2.918975276816622e+03
-1.148184366908387e+03 -3.394606971102559e+01 -2.918975276816622e+03
-1.148185867161435e+03 -3.494448168609292e+01 -2.918975276816622e+03
-1.148185873517290e+03 -3.594288693152657e+01 -2.918975276816622e+03
-1.148184441956973e+03 -3.694129900707166e+01 -2.918975276816622e+03
-1.148183993328077e+03 -3.793971725190638e+01 -2.918975276816622e+03
-1.148184900384844e+03 -3.893813304804323e+01 -2.918975276816622e+03
-1.148185547606338e+03 -3.993654349767405e+01 -2.918975276816622e+03
-1.148184903980423e+03 -4.093495400704461e+01 -2.918975276816622e+03
-1.148184044176661e+03 -4.193336998507434e+01 -2.918975276816622e+03
-1.148184258603430e+03 -4.293178817099194e+01 -2.918975276816622e+03
-1.148185279616500e+03 -4.393020296550468e+01 -2.918975276816622e+03
-1.148186072228626e+03 -4.492861225381869e+01 -2.918975276816622e+03
-1.148186090821124e+03 -4.592701974638189e+01 -2.918975276816622e+03
-1.148185326327943e+03 -4.692542903409601e+01 -2.918975276816622e+03
-1.148184327766522e+03 -4.792384388728430e+01 -2.918975276816622e+03
-1.148184151473653e+03 -4.892226213078499e+01 -2.918975276816622e+03
-1.148185052851301e+03 -4.992067805663164e+01 -2.918975276816622e+03
-1.148185716536476e+03 -5.091908851545136e+01 -2.918975276816622e+03
-1.148185088531876e+03 -5.191749905108189e+01 -2.918975276816622e+03
-1.148184219639533e+03 -5.291591494219760e+01 -2.918975276816622e+03
-1.148184704968867e+03 -5.391433318296935e+01 -2.918975276816622e+03
-1.148186161576110e+03 -5.491274523762193e+01 -2.918975276816622e+03
-1.148186174551663e+03 -5.591115053808662e+01 -2.918975276816622e+03
-1.148184745420265e+03 -5.690956266343533e+01 -2.918975276816622e+03
-1.148184299572879e+03 -5.790798095710287e+01 -2.918975276816622e+03
-1.148185211381578e+03 -5.890639678626754e+01 -2.918975276816622e+03
-1.148185860774343e+03 -5.990480725291771e+01 -2.918975276816622e+03
-1.148185216557228e+03 -6.090321778616913e+01 -2.918975276816622e+03
-1.148184357766385e+03 -6.190163379421362e+01 -2.918975276816622e+03
-1.148184574738669e+03 -6.290005200092906e+01 -2.918975276816622e+03
-1.148185597198697e+03 -6.389846680825411e+01 -2.918975276816622e+03
-1.148186390044022e+03 -6.489687610955700e+01 -2.918975276816622e+03
-1.148186408878371e+03 -6.589528361813520e+01 -2.918975276816622e+03
-1.148185645276800e+03 -6.689369292284850e+01 -2.918975276816622e+03
-1.148184648096526e+03 -6.789210779080712e+01 -2.918975276816622e+03
-1.148184473307786e+03 -6.889052604431963e+01 -2.918975276816622e+03
-1.148185375367765e+03 -6.988894197499891e+01 -2.918975276816622e+03
-1.148186037845934e+03 -7.088735244174241e+01 -2.918975276816622e+03
-1.148185409327795e+03 -7.188576299785021e+01 -2.918975276816622e+03
-1.148184543577965e+03 -7.288417890653771e+01 -2.918975276816622e+03
-1.148185031553131e+03 -7.388259714546166e+01 -2.918975276816622e+03
-1.148186486382812e+03 -7.488100919867257e+01 -2.918975276816622e+03
-1.148186497681619e+03 -7.587941451680233e+01 -2.918975276816622e+03
-1.148185070857970e+03 -7.687782666133913e+01 -2.918975276816622e+03
-1.148184627803468e+03 -7.787624495819794e+01 -2.918975276816622e+03
-1.148185539272136e+03 -7.887466078585328e+01 -2.918975276816622e+03
-1.148186187201776e+03 -7.987307126238164e+01 -2.918975276816622e+03
-1.148185543748649e+03 -8.087148181200671e+01 -2.918975276816622e+03
-1.148184687252878e+03 -8.186989782930870e+01 -2.918975276816622e+03
-1.148184905047998e+03 -8.286831603770678e+01 -2.918975276816622e+03
-1.148185926633503e+03 -8.386673085098586e+01 -2.918975276816622e+03
-1.148186719799897e+03 -8.486514016532867e+01 -2.918975276816622e+03
-1.148186740773229e+03 -8.586354768247831e+01 -2.918975276816622e+03
-1.148185978340774e+03 -8.686195698792810e+01 -2.918975276816622e+03
-1.148184980677877e+03 -8.786037186035254e+01 -2.918975276816622e+03
-1.148184806211462e+03 -8.885879012372442e+01 -2.918975276816622e+03
-1.148185708665336e+03 -8.985720605985117e+01 -2.918975276816622e+03
-1.148186370643773e+03 -9.085561653774776e+01 -2.918975276816622e+03
-1.148185744183280e+03 -9.185402710955287e+01 -2.918975276816622e+03
-1.148184880128231e+03 -9.285244301838571e+01 -2.918975276816622e+03
-1.148185365838171e+03 -9.385086126450707e+01 -2.918975276816622e+03
-1.148186823091201e+03 -9.484927334042995e+01 -2.918975276816622e+03
-1.148186841343996e+03 -9.584767864987025e+01 -2.918975276816622e+03
-1.148185412295345e+03 -9.684609076579400e+01 -2.918975276816622e+03
-1.148184959597452e+03 -9.784450907648380e+01 -2.918975276816622e+03
-1.148185869894964e+03 -9.884292495736788e+01 -2.918975276816622e+03
-1.148186528503717e+03 -9.984133546170229e+01 -2.918975276816622e+03
-1.148185892046553e+03 -1.008397459843788e+02 -2.918975276816622e+03
-1.148185030321300e+03 -1.018381619806608e+02 -2.918975276816622e+03
-1.148185244093404e+03 -1.028365802110194e+02 -2.918975276816622e+03
-1.148186268800081e+03 -1.038349950401919e+02 -2.918975276816622e+03
-1.148187063304553e+03 -1.048334043550094e+02 -2.918975276816622e+03
-1.148187083899677e+03 -1.058318118825299e+02 -2.918975276816622e+03
-1.148186323263280e+03 -1.068302211979157e+02 -2.918975276816622e+03
-1.148185326562777e+03 -1.078286360720540e+02 -2.918975276816622e+03
-1.148185150701481e+03 -1.088270543431510e+02 -2.918975276816622e+03
-1.148186054225423e+03 -1.098254702971444e+02 -2.918975276816622e+03
-1.148186720316630e+03 -1.108238807780434e+02 -2.918975276816622e+03
-1.148186093891270e+03 -1.118222913398867e+02 -2.918975276816622e+03
-1.148185227710600e+03 -1.128207072585744e+02 -2.918975276816622e+03
-1.148185715424305e+03 -1.138191255164188e+02 -2.918975276816622e+03
-1.148187172098911e+03 -1.148175375887632e+02 -2.918975276816622e+03
-1.148187186382723e+03 -1.158159429213131e+02 -2.918975276816622e+03
-1.148185762042407e+03 -1.168143550756318e+02 -2.918975276816622e+03
-1.148185319194722e+03 -1.178127733790212e+02 -2.918975276816622e+03
-1.148186229291613e+03 -1.188111892228807e+02 -2.918975276816622e+03
-1.148186879388621e+03 -1.198095997264354e+02 -2.918975276816622e+03
-1.148186241116050e+03 -1.208080102874429e+02 -2.918975276816622e+03
-1.148185385206065e+03 -1.218064263027400e+02 -2.918975276816622e+03
-1.148185600794255e+03 -1.228048445281717e+02 -2.918975276816622e+03
-1.148186624839451e+03 -1.238032593661764e+02 -2.918975276816622e+03
-1.148187421793973e+03 -1.248016686872419e+02 -2.918975276816622e+03
-1.148187442612538e+03 -1.258000762102243e+02 -2.918975276816622e+03
-1.148186679783231e+03 -1.267984855380612e+02 -2.918975276816622e+03
-1.148185684841841e+03 -1.277969004336422e+02 -2.918975276816622e+03
-1.148185512939496e+03 -1.287953187078127e+02 -2.918975276816622e+03
-1.148186416475564e+03 -1.297937346546071e+02 -2.918975276816622e+03
-1.148187080754494e+03 -1.307921451441556e+02 -2.918975276816622e+03
-1.148186455719356e+03 -1.317905557213529e+02 -2.918975276816622e+03
-1.148185591413907e+03 -1.327889716447912e+02 -2.918975276816622e+03
-1.148186079275848e+03 -1.337873899078211e+02 -2.918975276816622e+03
-1.148187537050537e+03 -1.347858019880524e+02 -2.918975276816622e+03
-1.148187552498389e+03 -1.357842073232282e+02 -2.918975276816622e+03
-1.148186127576396e+03 -1.367826194845136e+02 -2.918975276816622e+03
-1.148185685298303e+03 -1.377810378022739e+02 -2.918975276816622e+03
-1.148186598052447e+03 -1.387794536525508e+02 -2.918975276816622e+03
-1.148187248984926e+03 -1.397778641536611e+02 -2.918975276816622e+03
-1.148186609244432e+03 -1.407762747219752e+02 -2.918975276816622e+03
-1.148185754056655e+03 -1.417746907548018e+02 -2.918975276816622e+03
-1.148185972840648e+03 -1.427731089871754e+02 -2.918975276816622e+03
-1.148186997619958e+03 -1.437715238209431e+02 -2.918975276816622e+03
-1.148187792817039e+03 -1.447699331487375e+02 -2.918975276816622e+03
-1.148187814601604e+03 -1.457683406892468e+02 -2.918975276816622e+03
-1.148187055185381e+03 -1.467667500236611e+02 -2.918975276816622e+03
-1.148186061012933e+03 -1.477651649160696e+02 -2.918975276816622e+03
-1.148185887338610e+03 -1.487635831964715e+02 -2.918975276816622e+03
-1.148186790962487e+03 -1.497619991593986e+02 -2.918975276816622e+03
-1.148187457944160e+03 -1.507604096601242e+02 -2.918975276816622e+03
-1.148186835111268e+03 -1.517588202390286e+02 -2.918975276816622e+03
-1.148185970763932e+03 -1.527572361633962e+02 -2.918975276816622e+03
-1.148186457967516e+03 -1.537556544341082e+02 -2.918975276816622e+03
-1.148187916593359e+03 -1.547540665249522e+02 -2.918975276816622e+03
-1.148187933470481e+03 -1.557524718675257e+02 -2.918975276816622e+03
-1.148186509318305e+03 -1.567508840368255e+02 -2.918975276816622e+03
-1.148186068260265e+03 -1.577493023624905e+02 -2.918975276816622e+03
-1.148186981859667e+03 -1.587477182149219e+02 -2.918975276816622e+03
-1.148187632250354e+03 -1.597461287226504e+02 -2.918975276816622e+03
-1.148186993494880e+03 -1.607445393057260e+02 -2.918975276816622e+03
-1.148186141002117e+03 -1.617429553447587e+02 -2.918975276816622e+03
-1.148186360055757e+03 -1.627413735751560e+02 -2.918975276816622e+03
-1.148187383417068e+03 -1.637397884176315e+02 -2.918975276816622e+03
-1.148188180190817e+03 -1.647381977611075e+02 -2.918975276816622e+03
-1.148188204896895e+03 -1.657366053044937e+02 -2.918975276816622e+03
-1.148187444825468e+03 -1.667350146383689e+02 -2.918975276816622e+03
-1.148186449393309e+03 -1.677334295468122e+02 -2.918975276816622e+03
-1.148186278675544e+03 -1.687318478427921e+02 -2.918975276816622e+03
-1.148187184979835e+03 -1.697302638015730e+02 -2.918975276816622e+03
-1.148187850219779e+03 -1.707286743014949e+02 -2.918975276816622e+03
-1.148187226678302e+03 -1.717270848987786e+02 -2.918975276816622e+03
-1.148186365469142e+03 -1.727255008357774e+02 -2.918975276816622e+03
-1.148186854044452e+03 -1.737239191037637e+02 -2.918975276816622e+03
-1.148188311236185e+03 -1.747223311999333e+02 -2.918975276816622e+03
-1.148188329040491e+03 -1.757207365586905e+02 -2.918975276816622e+03
-1.148186907512862e+03 -1.767191487349416e+02 -2.918975276816622e+03
-1.148186466714465e+03 -1.777175670614841e+02 -2.918975276816622e+03
-1.148187379875064e+03 -1.787159829221560e+02 -2.918975276816622e+03
-1.148188031302038e+03 -1.797143934394682e+02 -2.918975276816622e+03
-1.148187393644421e+03 -1.807128040301262e+02 -2.918975276816622e+03
-1.148186541769985e+03 -1.817112200773544e+02 -2.918975276816622e+03
-1.148186761162198e+03 -1.827096383150340e+02 -2.918975276816622e+03
-1.148187785422413e+03 -1.837080531665267e+02 -2.918975276816622e+03
-1.148188583791353e+03 -1.847064625155786e+02 -2.918975276816622e+03
-1.148188608600098e+03 -1.857048700620329e+02 -2.918975276816622e+03
-1.148187848242286e+03 -1.867032794082353e+02 -2.918975276816622e+03
-1.148186854434879e+03 -1.877016943286328e+02 -2.918975276816622e+03
-1.148186685070664e+03 -1.887001126278450e+02 -2.918975276816622e+03
-1.148187591364648e+03 -1.896985285911477e+02 -2.918975276816622e+03
-1.148188256550886e+03 -1.906969390991718e+02 -2.918975276816622e+03
-1.148187633305044e+03 -1.916953497083832e+02 -2.918975276816622e+03
-1.148186773328279e+03 -1.926937656582252e+02 -2.918975276816622e+03
-1.148187263695623e+03 -1.936921839317263e+02 -2.918975276816622e+03
-1.148188721667632e+03 -1.946905960283212e+02 -2.918975276816622e+03
-1.148188738798881e+03 -1.956890013925457e+02 -2.918975276816622e+03
-1.148187316802187e+03 -1.966874135830797e+02 -2.918975276816622e+03
-1.148186877369651e+03 -1.976858319234997e+02 -2.918975276816622e+03
-1.148187792444438e+03 -1.986842477895722e+02 -2.918975276816622e+03
-1.148188444278783e+03 -1.996826583090177e+02 -2.918975276816622e+03
-1.148187805882759e+03 -2.006810689080312e+02 -2.918975276816622e+03
-1.148186953979257e+03 -2.016794849693638e+02 -2.918975276816622e+03
-1.148187175099679e+03 -2.026779032185607e+02 -2.918975276816622e+03
-1.148188201196876e+03 -2.036763180721616e+02 -2.918975276816622e+03
-1.148188998964323e+03 -2.046747274217381e+02 -2.918975276816622e+03
-1.148189022214932e+03 -2.056731349810674e+02 -2.918975276816622e+03
-1.148188262983120e+03 -2.066715443464504e+02 -2.918975276816622e+03
-1.148187271955691e+03 -2.076699592743727e+02 -2.918975276816622e+03
-1.148187102396095e+03 -2.086683775717111e+02 -2.918975276816622e+03
-1.148188006507750e+03 -2.096667935455625e+02 -2.918975276816622e+03
-1.148188673165028e+03 -2.106652040729814e+02 -2.918975276816622e+03
-1.148188052778310e+03 -2.116636146859069e+02 -2.918975276816622e+03
-1.148187191460966e+03 -2.126620306353529e+02 -2.918975276816622e+03
-1.148187679986592e+03 -2.136604489240557e+02 -2.918975276816622e+03
-1.148189139482516e+03 -2.146588610360837e+02 -2.918975276816622e+03
-1.148189158306310e+03 -2.156572664078040e+02 -2.918975276816622e+03
-1.148187736664426e+03 -2.166556786048692e+02 -2.918975276816622e+03
-1.148187296698665e+03 -2.176540969502984e+02 -2.918975276816622e+03
-1.148188210241304e+03 -2.186525128259665e+02 -2.918975276816622e+03
-1.148188862165154e+03 -2.196509233644703e+02 -2.918975276816622e+03
-1.148188226292145e+03 -2.206493339760117e+02 -2.918975276816622e+03
-1.148187375067351e+03 -2.216477500370355e+02 -2.918975276816622e+03
-1.148187593903597e+03 -2.226461682916467e+02 -2.918975276816622e+03
-1.148188619036218e+03 -2.236445831625495e+02 -2.918975276816622e+03
-1.148189418343844e+03 -2.246429925265336e+02 -2.918975276816622e+03
-1.148189442518921e+03 -2.256414000923353e+02 -2.918975276816622e+03
-1.148188682363186e+03 -2.266398094655361e+02 -2.918975276816622e+03
-1.148187689984000e+03 -2.276382244068079e+02 -2.918975276816622e+03
-1.148187520362106e+03 -2.286366427196407e+02 -2.918975276816622e+03
-1.148188425589337e+03 -2.296350587031088e+02 -2.918975276816622e+03
-1.148189091847231e+03 -2.306334692356807e+02 -2.918975276816622e+03
-1.148188469763073e+03 -2.316318798623533e+02 -2.918975276816622e+03
-1.148187608673004e+03 -2.326302958283797e+02 -2.918975276816622e+03
-1.148188097662068e+03 -2.336287141226217e+02 -2.918975276816622e+03
-1.148189555298527e+03 -2.346271262426105e+02 -2.918975276816622e+03
-1.148189572982953e+03 -2.356255316346754e+02 -2.918975276816622e+03
-1.148188152009340e+03 -2.366239438474597e+02 -2.918975276816622e+03
-1.148187711497735e+03 -2.376223621996692e+02 -2.918975276816622e+03
-1.148188623231491e+03 -2.386207780860417e+02 -2.918975276816622e+03
-1.148189274426580e+03 -2.396191886411246e+02 -2.918975276816622e+03
-1.148188638174683e+03 -2.406175992655862e+02 -2.918975276816622e+03
-1.148187785087510e+03 -2.416160153381348e+02 -2.918975276816622e+03
-1.148188002515949e+03 -2.426144336089368e+02 -2.918975276816622e+03
-1.148189027319675e+03 -2.436128484922725e+02 -2.918975276816622e+03
-1.148189824834899e+03 -2.446112578671107e+02 -2.918975276816622e+03
-1.148189846550497e+03 -2.456096654513125e+02 -2.918975276816622e+03
-1.148189084523912e+03 -2.466080748436162e+02 -2.918975276816622e+03
-1.148188089857485e+03 -2.476064898009664e+02 -2.918975276816622e+03
-1.148187917681794e+03 -2.486049081270749e+02 -2.918975276816622e+03
-1.148188819140250e+03 -2.496033241193053e+02 -2.918975276816622e+03
-1.148189481034967e+03 -2.506017346680541e+02 -2.918975276816622e+03
-1.148188843306414e+03 -2.516001453086585e+02 -2.918975276816622e+03
-1.148187991849057e+03 -2.525985613967970e+02 -2.918975276816622e+03
-1.148188210578617e+03 -2.535969796745263e+02 -2.918975276816622e+03
-1.148189234768087e+03 -2.545953945648877e+02 -2.918975276816622e+03
-1.148190031362313e+03 -2.555938039518593e+02 -2.918975276816622e+03
-1.148190051881685e+03 -2.565922115477989e+02 -2.918975276816622e+03
-1.148189288157057e+03 -2.575906209554526e+02 -2.918975276816622e+03
-1.148188293339244e+03 -2.585890359289033e+02 -2.918975276816622e+03
-1.148188121405410e+03 -2.595874542617728e+02 -2.918975276816622e+03
-1.148189021313265e+03 -2.605858702633723e+02 -2.918975276816622e+03
-1.148189681326237e+03 -2.615842808346978e+02 -2.918975276816622e+03
-1.148189055521201e+03 -2.625826915043430e+02 -2.918975276816622e+03
-1.148188190519051e+03 -2.635811074984814e+02 -2.918975276816622e+03
-1.148188673841502e+03 -2.645795258178841e+02 -2.918975276816622e+03
-1.148190125133375e+03 -2.655779379689176e+02 -2.918975276816622e+03
-1.148190134931532e+03 -2.665763434008963e+02 -2.918975276816622e+03
-1.148188705473344e+03 -2.675747556557491e+02 -2.918975276816622e+03
-1.148188259307073e+03 -2.685731740432064e+02 -2.918975276816622e+03
-1.148189175991205e+03 -2.695715899602372e+02 -2.918975276816622e+03
-1.148189441420689e+03 -2.705700005730807e+02 -2.918975276816622e+03
-1.148188798110567e+03 -2.715684146840451e+02 -2.918975276816622e+03
-1.148189080950185e+03 -2.725668307756949e+02 -2.918975276816622e+03
-1.148189290655990e+03 -2.735652421986824e+02 -2.918975276816622e+03
-1.148189109042145e+03 -2.745636571245661e+02 -2.918975276816622e+03
-1.148189905232141e+03 -2.755620700009996e+02 -2.918975276816622e+03
-1.148189973436818e+03 -2.765604776702651e+02 -2.918975276816622e+03
-1.148189197917359e+03 -2.775588905544000e+02 -2.918975276816622e+03
-1.148189306877495e+03 -2.785573054915623e+02 -2.918975276816622e+03
-1.148189112462157e+03 -2.795557172514709e+02 -2.918975276816622e+03
-1.148189053926633e+03 -2.805541333921776e+02 -2.918975276816622e+03
-1.148189727838416e+03 -2.815525460410584e+02 -2.918975276816622e+03
-1.148188904403485e+03 -2.825509566623147e+02 -2.918975276816622e+03
-1.148187987027436e+03 -2.835493759874891e+02 -2.918975276816622e+03
-1.148189393288908e+03 -2.845477944692269e+02 -2.918975276816622e+03
-1.148190478460014e+03 -2.855462023999212e+02 -2.918975276816622e+03
-1.148189566500437e+03 -2.865446112930186e+02 -2.918975276816622e+03
-1.148189267876687e+03 -2.875430267980059e+02 -2.918975276816622e+03
-1.148189350018001e+03 -2.885414382925031e+02 -2.918975276816622e+03
-1.148189089757113e+03 -2.895398529757399e+02 -2.918975276816622e+03
-1.148189166239256e+03 -2.905382671794234e+02 -2.918975276816622e+03
-1.148188522025467e+03 -2.915366816053904e+02 -2.918975276816622e+03
-1.148188806847158e+03 -2.925351011800752e+02 -2.918975276816622e+03
-1.148190123724835e+03 -2.935335126426938e+02 -2.918975276816622e+03
-1.148189976693387e+03 -2.945319208515876e+02 -2.918975276816622e+03
-1.148189327220000e+03 -2.955303339019074e+02 -2.918975276816622e+03
-1.148189353771641e+03 -2.965287478560398e+02 -2.918975276816622e+03
-1.148189322765251e+03 -2.975271607316892e+02 -2.918975276816622e+03
-1.148189396877289e+03 -2.985255747961916e+02 -2.918975276816622e+03
-1.148190119812572e+03 -2.995239864710705e+02 -2.918975276816622e+03
-1.148189875885613e+03 -3.005223939097251e+02 -2.918975276816622e+03
-1.148188114417135e+03 -3.015208080732920e+02 -2.918975276816622e+03
-1.148187392580676e+03 -3.025192304767190e+02 -2.918975276816622e+03
-1.148189423377187e+03 -3.035176501421619e+02 -2.918975276816622e+03
-1.148190635127270e+03 -3.045160552988540e+02 -2.918975276816622e+03
-1.148188459368735e+03 -3.055144641968371e+02 -2.918975276816622e+03
-1.148188043568980e+03 -3.065128872018347e+02 -2.918975276816622e+03
-1.148190158134701e+03 -3.075112995608225e+02 -2.918975276816622e+03
-1.148190028969995e+03 -3.085097048366270e+02 -2.918975276816622e+03
-1.148187935453552e+03 -3.095081177405283e+02 -2.918975276816622e+03
-1.148187424438257e+03 -3.105065401828847e+02 -2.918975276816622e+03
-1.148189093968936e+03 -3.115049578688856e+02 -2.918975276816622e+03
-1.148189650379102e+03 -3.125033655548522e+02 -2.918975276816622e+03
-1.148188830210567e+03 -3.135017773984983e+02 -2.918975276816622e+03
-1.148188594831984e+03 -3.145001917666844e+02 -2.918975276816622e+03
-1.148188571257367e+03 -3.154986049914061e+02 -2.918975276816622e+03
-1.148188492253605e+03 -3.164970185465222e+02 -2.918975276816622e+03
-1.148188357997277e+03 -3.174954317978809e+02 -2.918975276816622e+03
-1.148188050459949e+03 -3.184938462970716e+02 -2.918975276816622e+03
-1.148188334497902e+03 -3.194922617858678e+02 -2.918975276816622e+03
-1.148188763082476e+03 -3.204906730670202e+02 -2.918975276816622e+03
-1.148188048966559e+03 -3.214890841800286e+02 -2.918975276816622e+03
-1.148187232262924e+03 -3.224875001768362e+02 -2.918975276816622e+03
-1.148187624808892e+03 -3.234859168719256e+02 -2.918975276816622e+03
-1.148187903370552e+03 -3.244843294877361e+02 -2.918975276816622e+03
-1.148186725814494e+03 -3.254827424308114e+02 -2.918975276816622e+03
-1.148186548911247e+03 -3.264811625141724e+02 -2.918975276816622e+03
-1.148188137225007e+03 -3.274795756137188e+02 -2.918975276816622e+03
-1.148187524246844e+03 -3.284779817376091e+02 -2.918975276816622e+03
-1.148185637177633e+03 -3.294763987434745e+02 -2.918975276816622e+03
-1.148186014964259e+03 -3.304748185703390e+02 -2.918975276816622e+03
-1.148186659473248e+03 -3.314732304441224e+02 -2.918975276816622e+03
-1.148185835541077e+03 -3.324716425945140e+02 -2.918975276816622e+03
-1.148185158237766e+03 -3.334700589717128e+02 -2.918975276816622e+03
-1.148185087005391e+03 -3.344684744700959e+02 -2.918975276816622e+03
-1.148184727965441e+03 -3.354668890140971e+02 -2.918975276816622e+03
-1.148184317050747e+03 -3.364653047262004e+02 -2.918975276816622e+03
-1.148184158318381e+03 -3.374637197032648e+02 -2.918975276816622e+03
-1.148183452747955e+03 -3.384621335990775e+02 -2.918975276816622e+03
-1.148182397987935e+03 -3.394605508637252e+02 -2.918975276816622e+03
-1.148182352279768e+03 -3.404589695382409e+02 -2.918975276816622e+03
-1.148182390607465e+03 -3.414573832859295e+02 -2.918975276816622e+03
-1.148181046274540e+03 -3.424557972888733e+02 -2.918975276816622e+03
-1.148179784753533e+03 -3.434542168107959e+02 -2.918975276816622e+03
-1.148179519234154e+03 -3.444526357179356e+02 -2.918975276816622e+03
-1.148178925345056e+03 -3.454510517773643e+02 -2.918975276816622e+03
-1.148177545066157e+03 -3.464494689862778e+02 -2.918975276816622e+03
-1.148176101552896e+03 -3.474478890040335e+02 -2.918975276816622e+03
-1.148175338102173e+03 -3.484463101199818e+02 -2.918975276816622e+03
-1.148174511303933e+03 -3.494447278936574e+02 -2.918975276816622e+03
-1.148171977613814e+03 -3.504431461008543e+02 -2.918975276816622e+03
-1.148169539661262e+03 -3.514415728754265e+02 -2.918975276816622e+03
-1.148169269973025e+03 -3.524399989571166e+02 -2.918975276816622e+03
-1.148167639910097e+03 -3.534384159821672e+02 -2.918975276816622e+03
-1.148162885784700e+03 -3.544368393112925e+02 -2.918975276816622e+03
-1.148159638082978e+03 -3.554352753652155e+02 -2.918975276816622e+03
-1.148158816835245e+03 -3.564337070381442e+02 -2.918975276816622e+03
-1.148155347425237e+03 -3.574321303771973e+02 -2.918975276816622e+03
-1.148148435010019e+03 -3.584305621123490e+02 -2.918975276816622e+03
-1.148142671258132e+03 -3.594290073229613e+02 -2.918975276816622e+03
-1.148138642135076e+03 -3.604274526075154e+02 -2.918975276816622e+03
-1.148131831817573e+03 -3.614258930732235e+02 -2.918975276816622e+03
-1.148121205445052e+03 -3.624243399719082e+02 -2.918975276816622e+03
-1.148109664778778e+03 -3.634227979679422e+02 -2.918975276816622e+03
-1.148096741760658e+03 -3.644212594719002e+02 -2.918975276816622e+03
-1.148079236525977e+03 -3.654197188676926e+02 -2.918975276816622e+03
-1.148055762689212e+03 -3.664181715199576e+02 -2.918975276816622e+03
-1.148024619030295e+03 -3.674165985549653e+02 -2.918975276816622e+03
-1.147992401264814e+03 -3.684150042833263e+02 -2.918975276816622e+03
-1.147973458046516e+03 -3.694134556443618e+02 -2.918975276816622e+03
-1.147909831841322e+03 -3.704116315247422e+02 -2.918975276816622e+03
-1.147772387568899e+03 -3.714084868069819e+02 -2.918975276816622e+03
-1.147665391587510e+03 -3.724036273687759e+02 -2.918975276816622e+03
-1.147615621838023e+03 -3.733989940771053e+02 -2.918975276816622e+03
-1.147906722140609e+03 -3.744145358255760e+02 -2.918975276816622e+03
-1.148526706136161e+03 -3.754187223102870e+02 -2.918975276816622e+03
-1.147985639450053e+03 -3.764025422985118e+02 -2.918975276816622e+03
-1.146889570553918e+03 -3.774571223033299e+02 -2.918975276816622e+03
-1.146471239015799e+03 -3.778369075652666e+02 -2.918975276816622e+03
-1.146819709451071e+03 -3.793522992425709e+02 -2.918975276816622e+03
-1.146887680462471e+03 -3.803398704827325e+02 -2.918975276816622e+03
-1.147336312705124e+03 -3.815990190080635e+02 -2.918975276816622e+03
-1.148065883813362e+03 -3.818660545331803e+02 -2.918975276816622e+03
-1.146873619200270e+03 -3.831680433313996e+02 -2.918975276816622e+03
-1.145994031816188e+03 -3.847044552698699e+02 -2.918975276816622e+03
-1.147478726790201e+03 -3.855798112173439e+02 -2.918975276816622e+03
-1.146108901741547e+03  3.851964576632876e+02 -2.918975276816622e+03
-1.145277489555605e+03  3.849348343622296e+02 -2.918975276816622e+03
-1.146797242884955e+03  3.833145610009092e+02 -2.918975276816622e+03
-1.146906100677481e+03  3.818560921367232e+02 -2.918975276816622e+03
-1.147365762882616e+03  3.811151954960138e+02 -2.918975276816622e+03
-1.148902796230040e+03  3.801392078288247e+02 -2.918975276816622e+03
-1.148940291845800e+03  3.796065523917850e+02 -2.918975276816622e+03
-1.148153777526593e+03  3.783038521132822e+02 -2.918975276816622e+03
-1.147744424689564e+03  3.777825143793369e+02 -2.918975276816622e+03
-1.146818641034444e+03  3.763638931528116e+02 -2.918975276816622e+03
-1.147470927733198e+03  3.753955194387807e+02 -2.918975276816622e+03
-1.147717113268461e+03  3.744025078111046e+02 -2.918975276816622e+03
-1.147874029583869e+03  3.734056001915217e+02 -2.918975276816622e+03
-1.148068080062787e+03  3.724073543895445e+02 -2.918975276816622e+03
-1.148071805808744e+03  3.714093013712376e+02 -2.918975276816622e+03
-1.148003728959417e+03  3.704108530288681e+02 -2.918975276816622e+03
-1.148018320431676e+03  3.694125089151214e+02 -2.918975276816622e+03
-1.148054494093318e+03  3.684141864149996e+02 -2.918975276816622e+03
-1.148078473697836e+03  3.674158339566146e+02 -2.918975276816622e+03
-1.148092446030262e+03  3.664174657020932e+02 -2.918975276816622e+03
-1.148100793110893e+03  3.654190772956243e+02 -2.918975276816622e+03
-1.148115742739594e+03  3.644206782127180e+02 -2.918975276816622e+03
-1.148129896112138e+03  3.634223198096262e+02 -2.918975276816622e+03
-1.148120114699091e+03  3.624239349270937e+02 -2.918975276816622e+03
-1.148116169529594e+03  3.614254617996903e+02 -2.918975276816622e+03
-1.148142766232523e+03  3.604270392083232e+02 -2.918975276816622e+03
-1.148153038728852e+03  3.594287030650310e+02 -2.918975276816622e+03
-1.148139273174957e+03  3.584303011631682e+02 -2.918975276816622e+03
-1.148139618857758e+03  3.574318467339955e+02 -2.918975276816622e+03
-1.148148652981006e+03  3.564334260191379e+02 -2.918975276816622e+03
-1.148157541336766e+03  3.554350143066763e+02 -2.918975276816622e+03
-1.148165084014136e+03  3.544366412588067e+02 -2.918975276816622e+03
-1.148156866454861e+03  3.534382637905662e+02 -2.918975276816622e+03
-1.148148092470215e+03  3.524398126379161e+02 -2.918975276816622e+03
-1.148156791767155e+03  3.514413654305508e+02 -2.918975276816622e+03
-1.148165351236021e+03  3.504429698402899e+02 -2.918975276816622e+03
-1.148164216115016e+03  3.494445736671395e+02 -2.918975276816622e+03
-1.148163310267760e+03  3.484461581281864e+02 -2.918975276816622e+03
-1.148164937380885e+03  3.474477444569683e+02 -2.918975276816622e+03
-1.148166179774897e+03  3.464493331529181e+02 -2.918975276816622e+03
-1.148167123019648e+03  3.454509216298709e+02 -2.918975276816622e+03
-1.148167622291963e+03  3.444525108436606e+02 -2.918975276816622e+03
-1.148167498006359e+03  3.434540967425851e+02 -2.918975276816622e+03
-1.148168651036471e+03  3.424556792405134e+02 -2.918975276816622e+03
-1.148170908899059e+03  3.414572692279162e+02 -2.918975276816622e+03
-1.148170828475491e+03  3.404588642109188e+02 -2.918975276816622e+03
-1.148169182603107e+03  3.394604487067683e+02 -2.918975276816622e+03
-1.148170201154590e+03  3.384620264798070e+02 -2.918975276816622e+03
-1.148173098456632e+03  3.374636155655244e+02 -2.918975276816622e+03
-1.148173156463211e+03  3.364652128827607e+02 -2.918975276816622e+03
-1.148171057848682e+03  3.354667987009602e+02 -2.918975276816622e+03
-1.148171787040833e+03  3.344683760412829e+02 -2.918975276816622e+03
-1.148174361283287e+03  3.334699651297166e+02 -2.918975276816622e+03
-1.148174149229456e+03  3.324715604330709e+02 -2.918975276816622e+03
-1.148172755929181e+03  3.314731446585073e+02 -2.918975276816622e+03
-1.148173723680665e+03  3.304747263753841e+02 -2.918975276816622e+03
-1.148174963014414e+03  3.294763162131155e+02 -2.918975276816622e+03
-1.148174602612374e+03  3.284779058728061e+02 -2.918975276816622e+03
-1.148174305907869e+03  3.274794912238673e+02 -2.918975276816622e+03
-1.148174847874673e+03  3.264810769653576e+02 -2.918975276816622e+03
-1.148175476591001e+03  3.254826650538011e+02 -2.918975276816622e+03
-1.148175400700788e+03  3.244842538572454e+02 -2.918975276816622e+03
-1.148175028478010e+03  3.234858392124124e+02 -2.918975276816622e+03
-1.148175733363414e+03  3.224874235295081e+02 -2.918975276816622e+03
-1.148176559894471e+03  3.214890132679608e+02 -2.918975276816622e+03
-1.148176093863290e+03  3.204906029048978e+02 -2.918975276816622e+03
-1.148175784975714e+03  3.194921871177551e+02 -2.918975276816622e+03
-1.148176431587671e+03  3.184937726066931e+02 -2.918975276816622e+03
-1.148176692691662e+03  3.174953613652795e+02 -2.918975276816622e+03
-1.148176494740948e+03  3.164969487603258e+02 -2.918975276816622e+03
-1.148176701575916e+03  3.154985352531618e+02 -2.918975276816622e+03
-1.148176800524741e+03  3.145001228285562e+02 -2.918975276816622e+03
-1.148176509703576e+03  3.135017091409907e+02 -2.918975276816622e+03
-1.148179056365178e+03  3.125032938974533e+02 -2.918975276816622e+03
-1.148180159893718e+03  3.115049019210571e+02 -2.918975276816622e+03
-1.148171920759473e+03  3.105064944206497e+02 -2.918975276816622e+03
-1.148170121161080e+03  3.095080336217850e+02 -2.918975276816622e+03
-1.148182163120591e+03  3.085096114073665e+02 -2.918975276816622e+03
-1.148184057210692e+03  3.075112454290685e+02 -2.918975276816622e+03
-1.148173746789454e+03  3.065128374499540e+02 -2.918975276816622e+03
-1.148173825429042e+03  3.055143847700465e+02 -2.918975276816622e+03
-1.148184281493630e+03  3.045159773302078e+02 -2.918975276816622e+03
-1.148183042350376e+03  3.035176114711812e+02 -2.918975276816622e+03
-1.148171175951804e+03  3.025191917926693e+02 -2.918975276816622e+03
-1.148171876173877e+03  3.015207310006460e+02 -2.918975276816622e+03
-1.148180268497027e+03  3.005223171761645e+02 -2.918975276816622e+03
-1.148180495015695e+03  2.995239249582345e+02 -2.918975276816622e+03
-1.148178175680818e+03  2.985255131324340e+02 -2.918975276816622e+03
-1.148178195782823e+03  2.975270993318475e+02 -2.918975276816622e+03
-1.148178326314325e+03  2.965286867924210e+02 -2.918975276816622e+03
-1.148178425537155e+03  2.955302739333181e+02 -2.918975276816622e+03
-1.148178809749440e+03  2.945318613927218e+02 -2.918975276816622e+03
-1.148178911474224e+03  2.935334511499370e+02 -2.918975276816622e+03
-1.148178474678228e+03  2.925350398320525e+02 -2.918975276816622e+03
-1.148178369174342e+03  2.915366251464163e+02 -2.918975276816622e+03
-1.148178205120601e+03  2.905382116324193e+02 -2.918975276816622e+03
-1.148177769624722e+03  2.895397955796500e+02 -2.918975276816622e+03
-1.148178528289766e+03  2.885413784828761e+02 -2.918975276816622e+03
-1.148179587860800e+03  2.875429683484672e+02 -2.918975276816622e+03
-1.148179115450146e+03  2.865445595561054e+02 -2.918975276816622e+03
-1.148177882212917e+03  2.855461450149317e+02 -2.918975276816622e+03
-1.148178006794818e+03  2.845477253641650e+02 -2.918975276816622e+03
-1.148179645929952e+03  2.835493114935330e+02 -2.918975276816622e+03
-1.148180084595313e+03  2.825509059327276e+02 -2.918975276816622e+03
-1.148179064623215e+03  2.815524953139915e+02 -2.918975276816622e+03
-1.148178478272280e+03  2.805540799913789e+02 -2.918975276816622e+03
-1.148178216075971e+03  2.795556641724855e+02 -2.918975276816622e+03
-1.148178430890219e+03  2.785572463684295e+02 -2.918975276816622e+03
-1.148179441608319e+03  2.775588316558138e+02 -2.918975276816622e+03
-1.148180259532423e+03  2.765604224259133e+02 -2.918975276816622e+03
-1.148180303085532e+03  2.755620149879048e+02 -2.918975276816622e+03
-1.148179561179469e+03  2.745636057731982e+02 -2.918975276816622e+03
-1.148178579976545e+03  2.735651910140336e+02 -2.918975276816622e+03
-1.148178420850469e+03  2.725667728626817e+02 -2.918975276816622e+03
-1.148179344461536e+03  2.715683570270298e+02 -2.918975276816622e+03
-1.148180028536532e+03  2.705699466585807e+02 -2.918975276816622e+03
-1.148179414570078e+03  2.695715362000452e+02 -2.918975276816622e+03
-1.148178560960039e+03  2.685731203873517e+02 -2.918975276816622e+03
-1.148179065096967e+03  2.675747022479499e+02 -2.918975276816622e+03
-1.148180539784918e+03  2.665762902859062e+02 -2.918975276816622e+03
-1.148180568341101e+03  2.655778850504014e+02 -2.918975276816622e+03
-1.148179151847487e+03  2.645794730062763e+02 -2.918975276816622e+03
-1.148178718417032e+03  2.635810548083782e+02 -2.918975276816622e+03
-1.148179645905313e+03  2.625826390690271e+02 -2.918975276816622e+03
-1.148180310775302e+03  2.615842286856246e+02 -2.918975276816622e+03
-1.148179677928638e+03  2.605858182305740e+02 -2.918975276816622e+03
-1.148178830333959e+03  2.595874023063199e+02 -2.918975276816622e+03
-1.148179061170352e+03  2.585889841967631e+02 -2.918975276816622e+03
-1.148180096989306e+03  2.575905694874710e+02 -2.918975276816622e+03
-1.148180901013739e+03  2.565921602645813e+02 -2.918975276816622e+03
-1.148180931301453e+03  2.555937528218805e+02 -2.918975276816622e+03
-1.148180179030442e+03  2.545953435945851e+02 -2.918975276816622e+03
-1.148179188990835e+03  2.535969288225079e+02 -2.918975276816622e+03
-1.148179019975668e+03  2.525985106573297e+02 -2.918975276816622e+03
-1.148179933028056e+03  2.516000948061729e+02 -2.918975276816622e+03
-1.148180608195632e+03  2.506016844283232e+02 -2.918975276816622e+03
-1.148179973928924e+03  2.496032739729676e+02 -2.918975276816622e+03
-1.148179124889453e+03  2.486048580461409e+02 -2.918975276816622e+03
-1.148179353501098e+03  2.476064399275958e+02 -2.918975276816622e+03
-1.148180387898586e+03  2.466080252082757e+02 -2.918975276816622e+03
-1.148181190907661e+03  2.456096159829047e+02 -2.918975276816622e+03
-1.148181218784106e+03  2.446112085415436e+02 -2.918975276816622e+03
-1.148180463986528e+03  2.436127993089883e+02 -2.918975276816622e+03
-1.148179473415746e+03  2.426143845296900e+02 -2.918975276816622e+03
-1.148179303895684e+03  2.416159663623925e+02 -2.918975276816622e+03
-1.148180215651023e+03  2.406175505051883e+02 -2.918975276816622e+03
-1.148180890050721e+03  2.396191401185178e+02 -2.918975276816622e+03
-1.148180267695002e+03  2.386207296516257e+02 -2.918975276816622e+03
-1.148179404873730e+03  2.376223138261479e+02 -2.918975276816622e+03
-1.148179899596919e+03  2.366238956664317e+02 -2.918975276816622e+03
-1.148181364810620e+03  2.356254836882508e+02 -2.918975276816622e+03
-1.148181384868012e+03  2.346270784425105e+02 -2.918975276816622e+03
-1.148179961987364e+03  2.336286663864884e+02 -2.918975276816622e+03
-1.148179521538616e+03  2.326302481775571e+02 -2.918975276816622e+03
-1.148180440000850e+03  2.316318324236978e+02 -2.918975276816622e+03
-1.148181097165982e+03  2.306334220237972e+02 -2.918975276816622e+03
-1.148180458565264e+03  2.296350115595095e+02 -2.918975276816622e+03
-1.148179604394141e+03  2.286365956259758e+02 -2.918975276816622e+03
-1.148179827917859e+03  2.276381774995622e+02 -2.918975276816622e+03
-1.148180857266573e+03  2.266397627727796e+02 -2.918975276816622e+03
-1.148181655749111e+03  2.256413535393350e+02 -2.918975276816622e+03
-1.148181680707345e+03  2.246429460915803e+02 -2.918975276816622e+03
-1.148180923017148e+03  2.236445368590250e+02 -2.918975276816622e+03
-1.148179928048946e+03  2.226461220753597e+02 -2.918975276816622e+03
-1.148179755193646e+03  2.216477038943651e+02 -2.918975276816622e+03
-1.148180665174180e+03  2.206492880295880e+02 -2.918975276816622e+03
-1.148181336049862e+03  2.196508776430072e+02 -2.918975276816622e+03
-1.148180709558713e+03  2.186524671682333e+02 -2.918975276816622e+03
-1.148179844811415e+03  2.176540513313728e+02 -2.918975276816622e+03
-1.148180337756136e+03  2.166556331666202e+02 -2.918975276816622e+03
-1.148181799898272e+03  2.156572211847345e+02 -2.918975276816622e+03
-1.148181816939332e+03  2.146588159364520e+02 -2.918975276816622e+03
-1.148180391146117e+03  2.136604038754990e+02 -2.918975276816622e+03
-1.148179948388478e+03  2.126619856558337e+02 -2.918975276816622e+03
-1.148180865174407e+03  2.116635698949149e+02 -2.918975276816622e+03
-1.148181519830411e+03  2.106651594924137e+02 -2.918975276816622e+03
-1.148180878815764e+03  2.096667490231640e+02 -2.918975276816622e+03
-1.148180022725396e+03  2.086683330849941e+02 -2.918975276816622e+03
-1.148180243506197e+03  2.076699149525072e+02 -2.918975276816622e+03
-1.148181270398977e+03  2.066715002156698e+02 -2.918975276816622e+03
-1.148182067675652e+03  2.056730909763749e+02 -2.918975276816622e+03
-1.148182091053087e+03  2.046746835295527e+02 -2.918975276816622e+03
-1.148181330234916e+03  2.036762742961679e+02 -2.918975276816622e+03
-1.148180332124622e+03  2.026778595018814e+02 -2.918975276816622e+03
-1.148180158475436e+03  2.016794413065763e+02 -2.918975276816622e+03
-1.148181068880881e+03  2.006810254384444e+02 -2.918975276816622e+03
-1.148181737728624e+03  1.996826150590126e+02 -2.918975276816622e+03
-1.148181106897117e+03  1.986842045827348e+02 -2.918975276816622e+03
-1.148180239660986e+03  1.976857887307376e+02 -2.918975276816622e+03
-1.148180732972209e+03  1.966873705549420e+02 -2.918975276816622e+03
-1.148182194341850e+03  1.956889585752518e+02 -2.918975276816622e+03
-1.148182207944767e+03  1.946905533278621e+02 -2.918975276816622e+03
-1.148180779657674e+03  1.936921412563062e+02 -2.918975276816622e+03
-1.148180336563578e+03  1.926937230268192e+02 -2.918975276816622e+03
-1.148181252650345e+03  1.916953072629130e+02 -2.918975276816622e+03
-1.148181905317326e+03  1.906968968598002e+02 -2.918975276816622e+03
-1.148181262051583e+03  1.896984863867256e+02 -2.918975276816622e+03
-1.148180404925123e+03  1.887000704405853e+02 -2.918975276816622e+03
-1.148180625351666e+03  1.877016523050449e+02 -2.918975276816622e+03
-1.148181649844491e+03  1.867032375689476e+02 -2.918975276816622e+03
-1.148182443458961e+03  1.857048283207753e+02 -2.918975276816622e+03
-1.148182465992169e+03  1.847064208583123e+02 -2.918975276816622e+03
-1.148181707050057e+03  1.837080116214797e+02 -2.918975276816622e+03
-1.148180708625167e+03  1.827095968373352e+02 -2.918975276816622e+03
-1.148180530471898e+03  1.817111786442712e+02 -2.918975276816622e+03
-1.148181437007185e+03  1.807127627583468e+02 -2.918975276816622e+03
-1.148182106752458e+03  1.797143523613354e+02 -2.918975276816622e+03
-1.148181477890584e+03  1.787159418874897e+02 -2.918975276816622e+03
-1.148180608949831e+03  1.777175260442197e+02 -2.918975276816622e+03
-1.148181098226156e+03  1.767191078644307e+02 -2.918975276816622e+03
-1.148182557277504e+03  1.757206958693797e+02 -2.918975276816622e+03
-1.148182571752724e+03  1.747222906115538e+02 -2.918975276816622e+03
-1.148181144156819e+03  1.737238785434776e+02 -2.918975276816622e+03
-1.148180698580177e+03  1.727254603163700e+02 -2.918975276816622e+03
-1.148181612158510e+03  1.717270445424526e+02 -2.918975276816622e+03
-1.148182264757566e+03  1.707286341313091e+02 -2.918975276816622e+03
-1.148181621076508e+03  1.697302236588968e+02 -2.918975276816622e+03
-1.148180761654742e+03  1.687318077101430e+02 -2.918975276816622e+03
-1.148180980163137e+03  1.677333895629059e+02 -2.918975276816622e+03
-1.148182005470743e+03  1.667349748159627e+02 -2.918975276816622e+03
-1.148182800123028e+03  1.657365655726773e+02 -2.918975276816622e+03
-1.148182819518485e+03  1.647381581184194e+02 -2.918975276816622e+03
-1.148182056664715e+03  1.637397488695369e+02 -2.918975276816622e+03
-1.148181058627466e+03  1.627413340685307e+02 -2.918975276816622e+03
-1.148180882245816e+03  1.617429158734330e+02 -2.918975276816622e+03
-1.148181787971781e+03  1.607444999921613e+02 -2.918975276816622e+03
-1.148182454463677e+03  1.597460895945562e+02 -2.918975276816622e+03
-1.148181823339256e+03  1.587476791076775e+02 -2.918975276816622e+03
-1.148180955504201e+03  1.577492632528710e+02 -2.918975276816622e+03
-1.148181445526340e+03  1.567508450749269e+02 -2.918975276816622e+03
-1.148182902630217e+03  1.557524330813618e+02 -2.918975276816622e+03
-1.148182915425189e+03  1.547540278191672e+02 -2.918975276816622e+03
-1.148181486567906e+03  1.537556157470993e+02 -2.918975276816622e+03
-1.148181039199103e+03  1.527571975106337e+02 -2.918975276816622e+03
-1.148181953200604e+03  1.517587817232271e+02 -2.918975276816622e+03
-1.148182607070977e+03  1.507603713132235e+02 -2.918975276816622e+03
-1.148181961555730e+03  1.497619608464488e+02 -2.918975276816622e+03
-1.148181100090414e+03  1.487635448903901e+02 -2.918975276816622e+03
-1.148181318350989e+03  1.477651267369794e+02 -2.918975276816622e+03
-1.148182342109301e+03  1.467667119864815e+02 -2.918975276816622e+03
-1.148183135443394e+03  1.457683027317042e+02 -2.918975276816622e+03
-1.148183156014120e+03  1.447698952715188e+02 -2.918975276816622e+03
-1.148182392594240e+03  1.437714860279001e+02 -2.918975276816622e+03
-1.148181392191351e+03  1.427730712212182e+02 -2.918975276816622e+03
-1.148181216057973e+03  1.417746530159857e+02 -2.918975276816622e+03
-1.148182121481655e+03  1.407762371363570e+02 -2.918975276816622e+03
-1.148182785737220e+03  1.397778267333392e+02 -2.918975276816622e+03
-1.148182154680070e+03  1.387794162372739e+02 -2.918975276816622e+03
-1.148181286742830e+03  1.377810003830728e+02 -2.918975276816622e+03
-1.148181774729603e+03  1.367825821991272e+02 -2.918975276816622e+03
-1.148183231624595e+03  1.357841701947406e+02 -2.918975276816622e+03
-1.148183244475096e+03  1.347857649323679e+02 -2.918975276816622e+03
-1.148181814226731e+03  1.337873528566427e+02 -2.918975276816622e+03
-1.148181367315395e+03  1.327889346122222e+02 -2.918975276816622e+03
-1.148182280981223e+03  1.317905188291347e+02 -2.918975276816622e+03
-1.148182931341147e+03  1.307921084147375e+02 -2.918975276816622e+03
-1.148182285280949e+03  1.297936979295274e+02 -2.918975276816622e+03
-1.148181426047614e+03  1.287952819696528e+02 -2.918975276816622e+03
-1.148181643320241e+03  1.277968638201104e+02 -2.918975276816622e+03
-1.148182664886508e+03  1.267984490623705e+02 -2.918975276816622e+03
-1.148183458219660e+03  1.258000397996697e+02 -2.918975276816622e+03
-1.148183478401422e+03  1.248016323379520e+02 -2.918975276816622e+03
-1.148182713489028e+03  1.238032230885630e+02 -2.918975276816622e+03
-1.148181713154611e+03  1.228048082731318e+02 -2.918975276816622e+03
-1.148181537366509e+03  1.218063900664358e+02 -2.918975276816622e+03
-1.148182440943786e+03  1.208079741846914e+02 -2.918975276816622e+03
-1.148183103472155e+03  1.198095637702818e+02 -2.918975276816622e+03
-1.148182473122089e+03  1.188111532636152e+02 -2.918975276816622e+03
-1.148181606225542e+03  1.178127374085953e+02 -2.918975276816622e+03
-1.148182092738763e+03  1.168143192263701e+02 -2.918975276816622e+03
-1.148183546475402e+03  1.158159072129217e+02 -2.918975276816622e+03
-1.148183559184554e+03  1.148175019320984e+02 -2.918975276816622e+03
-1.148182132240753e+03  1.138190898524487e+02 -2.918975276816622e+03
-1.148181684504816e+03  1.128206716206639e+02 -2.918975276816622e+03
-1.148182593211571e+03  1.118222558300598e+02 -2.918975276816622e+03
-1.148183243172032e+03  1.108238453923305e+02 -2.918975276816622e+03
-1.148182599658235e+03  1.098254349021532e+02 -2.918975276816622e+03
-1.148181738210712e+03  1.088270189442805e+02 -2.918975276816622e+03
-1.148181952159087e+03  1.078286007744432e+02 -2.918975276816622e+03
-1.148182977793730e+03  1.068301859950764e+02 -2.918975276816622e+03
-1.148183774278122e+03  1.058317767514788e+02 -2.918975276816622e+03
-1.148183787709397e+03  1.048333693011366e+02 -2.918975276816622e+03
-1.148183019043818e+03  1.038349600233940e+02 -2.918975276816622e+03
-1.148182019001265e+03  1.028365451958235e+02 -2.918975276816622e+03
-1.148181839260664e+03  1.018381269688002e+02 -2.918975276816622e+03
-1.148182746413868e+03  1.008397110480118e+02 -2.918975276816622e+03
-1.148183415477454e+03  9.984130064857578e+01 -2.918975276816622e+03
-1.148182777799812e+03  9.884289016514002e+01 -2.918975276816622e+03
-1.148181898955661e+03  9.784447427667976e+01 -2.918975276816622e+03
-1.148182410197290e+03  9.684605603912239e+01 -2.918975276816622e+03
-1.148183899432213e+03  9.584764424605071e+01 -2.918975276816622e+03
-1.148183758001975e+03  9.484923922251568e+01 -2.918975276816622e+03
-1.148182172155859e+03  9.385082603286348e+01 -2.918975276816622e+03
-1.148181731895837e+03  9.285240664937453e+01 -2.918975276816622e+03
-1.148183037210736e+03  9.185398948056179e+01 -2.918975276816622e+03
-1.148184360074257e+03  9.085558118334303e+01 -2.918975276816622e+03
-1.148183189325221e+03  8.985717540721396e+01 -2.918975276816622e+03
-1.148181465514024e+03  8.885875724007896e+01 -2.918975276816622e+03
-1.148182057208278e+03  8.786033669814684e+01 -2.918975276816622e+03
-1.148183282334648e+03  8.686192291299567e+01 -2.918975276816622e+03
-1.148183912201705e+03  8.586351325150794e+01 -2.918975276816622e+03
-1.148183653031291e+03  8.486510536192331e+01 -2.918975276816622e+03
-1.148182485132384e+03  8.386669252860979e+01 -2.918975276816622e+03
-1.148182551424420e+03  8.286827406803074e+01 -2.918975276816622e+03
-1.148183552977214e+03  8.186986209473672e+01 -2.918975276816622e+03
-1.148183337029066e+03  8.087145218646671e+01 -2.918975276816622e+03
-1.148182757824702e+03  7.987303755206287e+01 -2.918975276816622e+03
-1.148182458996833e+03  7.887462260624778e+01 -2.918975276816622e+03
-1.148182820675430e+03  7.787620587266514e+01 -2.918975276816622e+03
-1.148188522603937e+03  7.687779159364861e+01 -2.918975276816622e+03
-1.148139382301265e+03  7.587936175065363e+01 -2.918975276816622e+03
-1.148127231921878e+03  7.488054583679937e+01 -2.918975276816622e+03
-1.148389515024342e+03  7.388175603545935e+01 -2.918975276816622e+03
-1.148393762513243e+03  7.288521316611286e+01 -2.918975276816622e+03
-1.147844275811212e+03  7.188632592097457e+01 -2.918975276816622e+03
-1.147850782539968e+03  7.088582831892050e+01 -2.918975276816622e+03
-1.148580327104624e+03  6.988702746125117e+01 -2.918975276816622e+03
-1.148562355986009e+03  6.889252448270739e+01 -2.918975276816622e+03
-1.147953764606623e+03  6.789304540049288e+01 -2.918975276816622e+03
-1.147936512674934e+03  6.689379987320933e+01 -2.918975276816622e+03
-1.148185443700759e+03  6.589440973152983e+01 -2.918975276816622e+03
-1.148434512308249e+03  6.489585101632535e+01 -2.918975276816622e+03
-1.148389722435910e+03  6.389949514720903e+01 -2.918975276816622e+03
-1.147843723209899e+03  6.290059752108998e+01 -2.918975276816622e+03
-1.147850266416123e+03  6.190011318138548e+01 -2.918975276816622e+03
-1.148580303612327e+03  6.090129894946623e+01 -2.918975276816622e+03
-1.148563872447807e+03  5.990680472812478e+01 -2.918975276816622e+03
-1.147954831190377e+03  5.890733389111757e+01 -2.918975276816622e+03
-1.147938991187611e+03  5.790807077926545e+01 -2.918975276816622e+03
-1.148134735138452e+03  5.690893700182007e+01 -2.918975276816622e+03
-1.148415061520896e+03  5.590824240482595e+01 -2.918975276816622e+03
-1.148645010092654e+03  5.491747351117607e+01 -2.918975276816622e+03
-1.147870969961352e+03  5.391094014551484e+01 -2.918975276816622e+03
-1.147502462612377e+03  5.291958779097399e+01 -2.918975276816622e+03
-1.148399274733589e+03  5.191340350517075e+01 -2.918975276816622e+03
-1.149233343367282e+03  5.092058210791635e+01 -2.918975276816622e+03
-1.147941079254464e+03  4.992822858562888e+01 -2.918975276816622e+03
-1.147593779919708e+03  4.891927817347619e+01 -2.918975276816622e+03
-1.148370139694672e+03  4.792730811762836e+01 -2.918975276816622e+03
-1.148648059224103e+03  4.692597424760225e+01 -2.918975276816622e+03
-1.147839918707400e+03  4.592863578272841e+01 -2.918975276816622e+03
-1.147828894907900e+03  4.492724602963494e+01 -2.918975276816622e+03
-1.148586201954403e+03  4.392814673224111e+01 -2.918975276816622e+03
-1.148563365858112e+03  4.293378224899260e+01 -2.918975276816622e+03
-1.147951209866672e+03  4.193430468049250e+01 -2.918975276816622e+03
-1.147961992903388e+03  4.093491722019851e+01 -2.918975276816622e+03
-1.148241891254987e+03  3.993609389383262e+01 -2.918975276816622e+03
-1.148226091059766e+03  3.893817834782273e+01 -2.918975276816622e+03
-1.148177206998171e+03  3.793968337550417e+01 -2.918975276816622e+03
-1.148182539021748e+03  3.694126453391216e+01 -2.918975276816622e+03
-1.148183712739332e+03  3.594284996426438e+01 -2.918975276816622e+03
-1.148184999477939e+03  3.494443917988477e+01 -2.918975276816622e+03
-1.148184709997498e+03  3.394603487404907e+01 -2.918975276816622e+03
-1.148183040914767e+03  3.294762070957604e+01 -2.918975276816622e+03
-1.148183565126690e+03  3.194920218549042e+01 -2.918975276816622e+03
-1.148184679998248e+03  3.095079226928265e+01 -2.918975276816622e+03
-1.148184073289779e+03  2.995238234409178e+01 -2.918975276816622e+03
-1.148183362092674e+03  2.895396703747799e+01 -2.918975276816622e+03
-1.148184113542575e+03  2.795555161458056e+01 -2.918975276816622e+03
-1.148184840066863e+03  2.695714314495336e+01 -2.918975276816622e+03
-1.148183813404617e+03  2.595873351905886e+01 -2.918975276816622e+03
-1.148182970390509e+03  2.496031571944950e+01 -2.918975276816622e+03
-1.148183619727407e+03  2.396189897818370e+01 -2.918975276816622e+03
-1.148184941428782e+03  2.296348743239470e+01 -2.918975276816622e+03
-1.148184605679928e+03  2.196508253627631e+01 -2.918975276816622e+03
-1.148178867005191e+03  2.096667059159825e+01 -2.918975276816622e+03
-1.148222850062036e+03  1.996819572875092e+01 -2.918975276816622e+03
-1.148278492213289e+03  1.897043743834021e+01 -2.918975276816622e+03
-1.147996242075403e+03  1.797083475152501e+01 -2.918975276816622e+03
-1.147824818198858e+03  1.697413377214615e+01 -2.918975276816622e+03
-1.148333585626579e+03  1.596745617056347e+01 -2.918975276816622e+03
-1.148957179426314e+03  1.497991322678757e+01 -2.918975276816622e+03
-1.148123369289519e+03  1.398080856782736e+01 -2.918975276816622e+03
-1.147604533874518e+03  1.297776399130850e+01 -2.918975276816622e+03
-1.147971302903353e+03  1.198251676508976e+01 -2.918975276816622e+03
-1.148605482190460e+03  1.097894119039281e+01 -2.918975276816622e+03
-1.148311604096691e+03  9.986247540723301e+00 -2.918975276816622e+03
-1.148102443781921e+03  8.985670346433446e+00 -2.918975276816622e+03
-1.148303265066016e+03  7.987754775508382e+00 -2.918975276816622e+03
-1.148265459150864e+03  6.989849691787746e+00 -2.918975276816622e+03
-1.147808424431925e+03  5.990378927909402e+00 -2.918975276816622e+03
-1.147737753911145e+03  4.993922874332211e+00 -2.918975276816622e+03
-1.148593144540137e+03  3.983250813403822e+00 -2.918975276816622e+03
-1.149248831388561e+03  3.005576958245484e+00 -2.918975276816622e+03
-1.148279380838398e+03  2.007098728173942e+00 -2.918975276816622e+03
-1.147458479403410e+03  9.899136638663365e-01 -2.918975276816622e+03
1.146313809443224e+03 1.885132705927617e-02 2.918975276816622e+03
 1.145136802785003e+03 -9.992254016597873e-01  2.918975276816622e+03
 1.144595198716985e+03 -2.001631618845524e+00  2.918975276816622e+03
 1.144980915048028e+03 -2.993251116989908e+00  2.918975276816622e+03
 1.145883666537018e+03 -4.001623095978267e+00  2.918975276816622e+03
 1.145794440023061e+03 -4.990067097616961e+00  2.918975276816622e+03
 1.145260612324240e+03 -5.988767560114315e+00  2.918975276816622e+03
 1.145208648896868e+03 -6.989071788828249e+00  2.918975276816622e+03
 1.145414615476636e+03 -7.986877237279265e+00  2.918975276816622e+03
 1.145196144686534e+03 -8.986358220837811e+00  2.918975276816622e+03
 1.145002453108346e+03 -9.983071832568145e+00  2.918975276816622e+03
 1.145489226865111e+03 -1.098941009344059e+01  2.918975276816622e+03
 1.146108533789215e+03 -1.197696525806137e+01  2.918975276816622e+03
 1.145281571994376e+03 -1.297636751765449e+01  2.918975276816622e+03
 1.144774265613351e+03 -1.397943954758585e+01  2.918975276816622e+03
 1.145142027366569e+03 -1.497465976446417e+01  2.918975276816622e+03
 1.145764527924216e+03 -1.597805890079797e+01  2.918975276816622e+03
 1.145485942137700e+03 -1.697088543555428e+01  2.918975276816622e+03
 1.145254178312618e+03 -1.797128816064559e+01  2.918975276816622e+03
 1.145326275721925e+03 -1.896979508354382e+01  2.918975276816622e+03
 1.145352937890639e+03 -1.996817773452614e+01  2.918975276816622e+03
 1.145337257225004e+03 -2.096665925176193e+01  2.918975276816622e+03
 1.145350802898578e+03 -2.196511161755296e+01  2.918975276816622e+03
 1.145357225138421e+03 -2.296347567081980e+01  2.918975276816622e+03
 1.145346320338556e+03 -2.396187323051101e+01  2.918975276816622e+03
 1.145345167553846e+03 -2.496032497756664e+01  2.918975276816622e+03
 1.145351787919181e+03 -2.595873423733526e+01  2.918975276816622e+03
 1.145350680596272e+03 -2.695712973133983e+01  2.918975276816622e+03
 1.145348537492973e+03 -2.795554901156783e+01  2.918975276816622e+03
 1.145349591787738e+03 -2.895396398514277e+01  2.918975276816622e+03
 1.145349497809639e+03 -2.995237420559201e+01  2.918975276816622e+03
 1.145348745407640e+03 -3.095079033417917e+01  2.918975276816622e+03
 1.145349391406622e+03 -3.194920654315050e+01  2.918975276816622e+03
 1.145349596550089e+03 -3.294761689832656e+01  2.918975276816622e+03
 1.145349153427581e+03 -3.394603157920297e+01  2.918975276816622e+03
 1.145349909096375e+03 -3.494444591839198e+01  2.918975276816622e+03
 1.145349834911439e+03 -3.594285343038256e+01  2.918975276816622e+03
 1.145349042434721e+03 -3.694126778443198e+01  2.918975276816622e+03
 1.145349521349058e+03 -3.793968251027717e+01  2.918975276816622e+03
 1.145349299125235e+03 -3.893809277066030e+01  2.918975276816622e+03
 1.145348550514313e+03 -3.993650886070812e+01  2.918975276816622e+03
 1.145349260152429e+03 -4.093492504696940e+01  2.918975276816622e+03
 1.145349470015525e+03 -4.193333525330478e+01  2.918975276816622e+03
 1.145348502210268e+03 -4.293174995257654e+01  2.918975276816622e+03
 1.145348965523874e+03 -4.393016851654860e+01  2.918975276816622e+03
 1.145350478193239e+03 -4.492857881182948e+01  2.918975276816622e+03
 1.145350466693401e+03 -4.592698369438708e+01  2.918975276816622e+03
 1.145348918840092e+03 -4.692539390312237e+01  2.918975276816622e+03
 1.145348412480038e+03 -4.792381247397512e+01  2.918975276816622e+03
 1.145349358328393e+03 -4.892222724825930e+01  2.918975276816622e+03
 1.145349130319972e+03 -4.992063738001860e+01  2.918975276816622e+03
 1.145348372346077e+03 -5.091905346972924e+01  2.918975276816622e+03
 1.145349075103471e+03 -5.191746964357068e+01  2.918975276816622e+03
 1.145349281273457e+03 -5.291587994536938e+01  2.918975276816622e+03
 1.145348780851236e+03 -5.391429458042354e+01  2.918975276816622e+03
 1.145349534423357e+03 -5.491270889714770e+01  2.918975276816622e+03
 1.145349514690421e+03 -5.591111638640513e+01  2.918975276816622e+03
 1.145348721921722e+03 -5.690953070569729e+01  2.918975276816622e+03
 1.145349198055079e+03 -5.790794540376863e+01  2.918975276816622e+03
 1.145348973627426e+03 -5.890635564935024e+01  2.918975276816622e+03
 1.145348225117329e+03 -5.990477172453374e+01  2.918975276816622e+03
 1.145348934080770e+03 -6.090318788997799e+01  2.918975276816622e+03
 1.145349142294107e+03 -6.190159808213804e+01  2.918975276816622e+03
 1.145348174613604e+03 -6.290001276795599e+01  2.918975276816622e+03
 1.145348637005454e+03 -6.389843131105509e+01  2.918975276816622e+03
 1.145350146773033e+03 -6.489684159650977e+01  2.918975276816622e+03
 1.145350135154389e+03 -6.589524647682876e+01  2.918975276816622e+03
 1.145348588268422e+03 -6.689365666907985e+01  2.918975276816622e+03
 1.145348079243282e+03 -6.789207522275458e+01  2.918975276816622e+03
 1.145349023074576e+03 -6.889048999783148e+01  2.918975276816622e+03
 1.145348796905155e+03 -6.988890012455981e+01  2.918975276816622e+03
 1.145348038749393e+03 -7.088731619296310e+01  2.918975276816622e+03
 1.145348738523203e+03 -7.188573235677705e+01  2.918975276816622e+03
 1.145348944012913e+03 -7.288414265726286e+01  2.918975276816622e+03
 1.145348444061558e+03 -7.388255728159146e+01  2.918975276816622e+03
 1.145349196124394e+03 -7.488097158714172e+01  2.918975276816622e+03
 1.145349174968024e+03 -7.587937907329565e+01  2.918975276816622e+03
 1.145348382559078e+03 -7.687779338645755e+01  2.918975276816622e+03
 1.145348858027142e+03 -7.787620807209309e+01  2.918975276816622e+03
 1.145348631783982e+03 -7.887461831116332e+01  2.918975276816622e+03
 1.145347882906434e+03 -7.987303438150708e+01  2.918975276816622e+03
 1.145348591755153e+03 -8.087145053779494e+01  2.918975276816622e+03
 1.145348798809345e+03 -8.186986072161048e+01  2.918975276816622e+03
 1.145347829648781e+03 -8.286827540036663e+01  2.918975276816622e+03
 1.145348291130752e+03 -8.386669394007122e+01  2.918975276816622e+03
 1.145349800771247e+03 -8.486510422230633e+01  2.918975276816622e+03
 1.145349788940593e+03 -8.586350909544871e+01  2.918975276816622e+03
 1.145348241889910e+03 -8.686191927734461e+01  2.918975276816622e+03
 1.145347732084757e+03 -8.786033781675137e+01  2.918975276816622e+03
 1.145348673451073e+03 -8.885875258312740e+01  2.918975276816622e+03
 1.145348445522547e+03 -8.985716271066275e+01  2.918975276816622e+03
 1.145347688092463e+03 -9.085557877727904e+01  2.918975276816622e+03
 1.145348388100790e+03 -9.185399492944698e+01  2.918975276816622e+03
 1.145348590016458e+03 -9.285240522061997e+01  2.918975276816622e+03
 1.145348087552358e+03 -9.385081985650682e+01  2.918975276816622e+03
 1.145348845141864e+03 -9.484923416748370e+01  2.918975276816622e+03
 1.145348828102946e+03 -9.584764161335197e+01  2.918975276816622e+03
 1.145348027690221e+03 -9.684605588882961e+01  2.918975276816622e+03
 1.145348494347578e+03 -9.784447059090054e+01  2.918975276816622e+03
 1.145348269065831e+03 -9.884288085775242e+01  2.918975276816622e+03
 1.145347525394244e+03 -9.984129692867170e+01  2.918975276816622e+03
 1.145348236715964e+03 -1.008397130643590e+02  2.918975276816622e+03
 1.145348441151079e+03 -1.018381232248926e+02  2.918975276816622e+03
 1.145347468347331e+03 -1.028365378975224e+02  2.918975276816622e+03
 1.145347929531925e+03 -1.038349564363211e+02  2.918975276816622e+03
 1.145349438980397e+03 -1.048333667093862e+02  2.918975276816622e+03
 1.145349424871014e+03 -1.058317715764767e+02  2.918975276816622e+03
 1.145347876506158e+03 -1.068301817580439e+02  2.918975276816622e+03
 1.145347367076609e+03 -1.078286002924961e+02  2.918975276816622e+03
 1.145348307845673e+03 -1.088270150496553e+02  2.918975276816622e+03
 1.145348078407390e+03 -1.098254251712330e+02  2.918975276816622e+03
 1.145347320272226e+03 -1.108238412317131e+02  2.918975276816622e+03
 1.145348019530109e+03 -1.118222573757843e+02  2.918975276816622e+03
 1.145348221081541e+03 -1.128206676608411e+02  2.918975276816622e+03
 1.145347718799772e+03 -1.138190822822596e+02  2.918975276816622e+03
 1.145348472047438e+03 -1.148174965769156e+02  2.918975276816622e+03
 1.145348448758702e+03 -1.158159040382802e+02  2.918975276816622e+03
 1.145347651472950e+03 -1.168143183414647e+02  2.918975276816622e+03
 1.145348126855467e+03 -1.178127330268245e+02  2.918975276816622e+03
 1.145347901035175e+03 -1.188111432436409e+02  2.918975276816622e+03
 1.145347147606466e+03 -1.198095592929208e+02  2.918975276816622e+03
 1.145347853762508e+03 -1.208079754493140e+02  2.918975276816622e+03
 1.145348061330712e+03 -1.218063856221719e+02  2.918975276816622e+03
 1.145347089807021e+03 -1.228048002791963e+02  2.918975276816622e+03
 1.145347548704844e+03 -1.238032188103964e+02  2.918975276816622e+03
 1.145349058205518e+03 -1.248016290817883e+02  2.918975276816622e+03
 1.145349043447648e+03 -1.258000339341878e+02  2.918975276816622e+03
 1.145347491333297e+03 -1.267984441088798e+02  2.918975276816622e+03
 1.145346980839694e+03 -1.277968626496492e+02  2.918975276816622e+03
 1.145347923644932e+03 -1.287952774010904e+02  2.918975276816622e+03
 1.145347693435028e+03 -1.297936875041014e+02  2.918975276816622e+03
 1.145346931401779e+03 -1.307921035549677e+02  2.918975276816622e+03
 1.145347628765760e+03 -1.317905197045908e+02  2.918975276816622e+03
 1.145347832379591e+03 -1.327889299886548e+02  2.918975276816622e+03
 1.145347330328829e+03 -1.337873445884145e+02  2.918975276816622e+03
 1.145348078717787e+03 -1.347857588712645e+02  2.918975276816622e+03
 1.145348052984540e+03 -1.357841663434314e+02  2.918975276816622e+03
 1.145347258072673e+03 -1.367825806442986e+02  2.918975276816622e+03
 1.145347732901924e+03 -1.377809953110488e+02  2.918975276816622e+03
 1.145347503609855e+03 -1.387794055216429e+02  2.918975276816622e+03
 1.145346749450380e+03 -1.397778215705098e+02  2.918975276816622e+03
 1.145347455528497e+03 -1.407762377175867e+02  2.918975276816622e+03
 1.145347660994165e+03 -1.417746478826837e+02  2.918975276816622e+03
 1.145346688030930e+03 -1.427730625365803e+02  2.918975276816622e+03
 1.145347146471853e+03 -1.437714810613906e+02  2.918975276816622e+03
 1.145348654551614e+03 -1.447698913269149e+02  2.918975276816622e+03
 1.145348638580449e+03 -1.457682961764896e+02  2.918975276816622e+03
 1.145347086097747e+03 -1.467667063425321e+02  2.918975276816622e+03
 1.145346574052163e+03 -1.477651248709623e+02  2.918975276816622e+03
 1.145347514137623e+03 -1.487635396182185e+02  2.918975276816622e+03
 1.145347282534211e+03 -1.497619497230048e+02  2.918975276816622e+03
 1.145346521456396e+03 -1.507603657692362e+02  2.918975276816622e+03
 1.145347218811393e+03 -1.517587819021826e+02  2.918975276816622e+03
 1.145347418345248e+03 -1.527571921730455e+02  2.918975276816622e+03
 1.145346912723147e+03 -1.537556067784822e+02  2.918975276816622e+03
 1.145347662439787e+03 -1.547540210673187e+02  2.918975276816622e+03
 1.145347638176459e+03 -1.557524285254797e+02  2.918975276816622e+03
 1.145346840744663e+03 -1.567508428076491e+02  2.918975276816622e+03
 1.145347311812809e+03 -1.577492574698753e+02  2.918975276816622e+03
 1.145347081006316e+03 -1.587476676836181e+02  2.918975276816622e+03
 1.145346327467791e+03 -1.597460837278205e+02  2.918975276816622e+03
 1.145347032659446e+03 -1.607444998615957e+02  2.918975276816622e+03
 1.145347235039937e+03 -1.617429100202893e+02  2.918975276816622e+03
 1.145346260825794e+03 -1.627413246737587e+02  2.918975276816622e+03
 1.145346719274715e+03 -1.637397431902613e+02  2.918975276816622e+03
 1.145348225555499e+03 -1.647381534474323e+02  2.918975276816622e+03
 1.145348207756690e+03 -1.657365582937347e+02  2.918975276816622e+03
 1.145346653721783e+03 -1.667349684517858e+02  2.918975276816622e+03
 1.145346139579686e+03 -1.677333869754019e+02  2.918975276816622e+03
 1.145347079729667e+03 -1.687318017219513e+02  2.918975276816622e+03
 1.145346848024254e+03 -1.697302118112197e+02  2.918975276816622e+03
 1.145346082501398e+03 -1.707286278435180e+02  2.918975276816622e+03
 1.145346776804995e+03 -1.717270439856081e+02  2.918975276816622e+03
 1.145346978369627e+03 -1.727254542580050e+02  2.918975276816622e+03
 1.145346472869283e+03 -1.737238688425607e+02  2.918975276816622e+03
 1.145347218568615e+03 -1.747222831191737e+02  2.918975276816622e+03
 1.145347191340574e+03 -1.757206905790921e+02  2.918975276816622e+03
 1.145346393258936e+03 -1.767191048594147e+02  2.918975276816622e+03
 1.145346863803369e+03 -1.777175195150336e+02  2.918975276816622e+03
 1.145346631388747e+03 -1.787159297197367e+02  2.918975276816622e+03
 1.145345875664036e+03 -1.797143457562485e+02  2.918975276816622e+03
 1.145346579542185e+03 -1.807127618861262e+02  2.918975276816622e+03
 1.145346780832399e+03 -1.817111720372118e+02  2.918975276816622e+03
 1.145345804328239e+03 -1.827095866807037e+02  2.918975276816622e+03
 1.145346260686043e+03 -1.837080051935039e+02  2.918975276816622e+03
 1.145347765808363e+03 -1.847064154483359e+02  2.918975276816622e+03
 1.145347746263199e+03 -1.857048202893953e+02  2.918975276816622e+03
 1.145346190851215e+03 -1.867032304421462e+02  2.918975276816622e+03
 1.145345676108177e+03 -1.877016489542798e+02  2.918975276816622e+03
 1.145346613201013e+03 -1.887000636885869e+02  2.918975276816622e+03
 1.145346377941379e+03 -1.896984737797366e+02  2.918975276816622e+03
 1.145345612872300e+03 -1.906968898123682e+02  2.918975276816622e+03
 1.145346307037549e+03 -1.916953059378698e+02  2.918975276816622e+03
 1.145346504155783e+03 -1.926937161996257e+02  2.918975276816622e+03
 1.145345996183663e+03 -1.936921307884726e+02  2.918975276816622e+03
 1.145346742770743e+03 -1.946905450597747e+02  2.918975276816622e+03
 1.145346713246398e+03 -1.956889525039099e+02  2.918975276816622e+03
 1.145345911034708e+03 -1.966873667804859e+02  2.918975276816622e+03
 1.145346381122593e+03 -1.976857814379256e+02  2.918975276816622e+03
 1.145346148547041e+03 -1.986841916294558e+02  2.918975276816622e+03
 1.145345388833844e+03 -1.996826076509934e+02  2.918975276816622e+03
 1.145346089076563e+03 -2.006810237836329e+02  2.918975276816622e+03
 1.145346289969641e+03 -2.016794339374210e+02  2.918975276816622e+03
 1.145345313083317e+03 -2.026778485692822e+02  2.918975276816622e+03
 1.145345767571975e+03 -2.036762670689642e+02  2.918975276816622e+03
 1.145347269758120e+03 -2.046746773157381e+02  2.918975276816622e+03
 1.145347246922444e+03 -2.056730821543966e+02  2.918975276816622e+03
 1.145345689697253e+03 -2.066714923051209e+02  2.918975276816622e+03
 1.145345173824810e+03 -2.076699108078638e+02  2.918975276816622e+03
 1.145346108637326e+03 -2.086683255337613e+02  2.918975276816622e+03
 1.145345871046571e+03 -2.096667356200410e+02  2.918975276816622e+03
 1.145345103895216e+03 -2.106651516428441e+02  2.918975276816622e+03
 1.145345795329250e+03 -2.116635677614607e+02  2.918975276816622e+03
 1.145345990239133e+03 -2.126619780211123e+02  2.918975276816622e+03
 1.145345480484430e+03 -2.136603926015217e+02  2.918975276816622e+03
 1.145346224361545e+03 -2.146588068656391e+02  2.918975276816622e+03
 1.145346192369357e+03 -2.156572143077282e+02  2.918975276816622e+03
 1.145345388874424e+03 -2.166556285761460e+02  2.918975276816622e+03
 1.145345856858055e+03 -2.176540432209466e+02  2.918975276816622e+03
 1.145345620356829e+03 -2.186524534038284e+02  2.918975276816622e+03
 1.145344857025536e+03 -2.196508694226732e+02  2.918975276816622e+03
 1.145345556168497e+03 -2.206492855555445e+02  2.918975276816622e+03
 1.145345756804319e+03 -2.216476956981658e+02  2.918975276816622e+03
 1.145344775759104e+03 -2.226461103090819e+02  2.918975276816622e+03
 1.145345224495926e+03 -2.236445288079766e+02  2.918975276816622e+03
 1.145346726182965e+03 -2.246429390649734e+02  2.918975276816622e+03
 1.145346703626145e+03 -2.256413438891832e+02  2.918975276816622e+03
 1.145345140998886e+03 -2.266397540206398e+02  2.918975276816622e+03
 1.145344620540059e+03 -2.276381725247537e+02  2.918975276816622e+03
 1.145345555047991e+03 -2.286365872482318e+02  2.918975276816622e+03
 1.145345314785216e+03 -2.296349973185779e+02  2.918975276816622e+03
 1.145344542827823e+03 -2.306334133334484e+02  2.918975276816622e+03
 1.145345232004908e+03 -2.316318294501499e+02  2.918975276816622e+03
 1.145345424606054e+03 -2.326302396998140e+02  2.918975276816622e+03
 1.145344910659210e+03 -2.336286542706440e+02  2.918975276816622e+03
 1.145345651742016e+03 -2.346270685328405e+02  2.918975276816622e+03
 1.145345617793959e+03 -2.356254759662977e+02  2.918975276816622e+03
 1.145344809906426e+03 -2.366238902193228e+02  2.918975276816622e+03
 1.145345272902576e+03 -2.376223048616868e+02  2.918975276816622e+03
 1.145345034196551e+03 -2.386207150451359e+02  2.918975276816622e+03
 1.145344269272833e+03 -2.396191310481468e+02  2.918975276816622e+03
 1.145344963431668e+03 -2.406175471637344e+02  2.918975276816622e+03
 1.145345158157474e+03 -2.416159573062251e+02  2.918975276816622e+03
 1.145344175056095e+03 -2.426143719157160e+02  2.918975276816622e+03
 1.145344621610370e+03 -2.436127903956181e+02  2.918975276816622e+03
 1.145346116738812e+03 -2.446112006424987e+02  2.918975276816622e+03
 1.145346089159146e+03 -2.456096054742846e+02  2.918975276816622e+03
 1.145344524613016e+03 -2.466080155965549e+02  2.918975276816622e+03
 1.145343998725705e+03 -2.476064340766924e+02  2.918975276816622e+03
 1.145344925285966e+03 -2.486048487947169e+02  2.918975276816622e+03
 1.145344678831865e+03 -2.496032588646412e+02  2.918975276816622e+03
 1.145343899705979e+03 -2.506016748668633e+02  2.918975276816622e+03
 1.145344595717965e+03 -2.516000909786051e+02  2.918975276816622e+03
 1.145344790010106e+03 -2.525985011120366e+02  2.918975276816622e+03
 1.145343803959798e+03 -2.535969157164930e+02  2.918975276816622e+03
 1.145344249499322e+03 -2.545953341985995e+02  2.918975276816622e+03
 1.145345745018825e+03 -2.555937444393450e+02  2.918975276816622e+03
 1.145345714282674e+03 -2.565921492578241e+02  2.918975276816622e+03
 1.145344145206960e+03 -2.575905593768643e+02  2.918975276816622e+03
 1.145343618119366e+03 -2.585889778560189e+02  2.918975276816622e+03
 1.145344544296204e+03 -2.595873925646484e+02  2.918975276816622e+03
 1.145344295937046e+03 -2.605858026265306e+02  2.918975276816622e+03
 1.145343516764248e+03 -2.615842186234044e+02  2.918975276816622e+03
 1.145344198506694e+03 -2.625826347220402e+02  2.918975276816622e+03
 1.145344382750094e+03 -2.635810449573437e+02  2.918975276816622e+03
 1.145343859984195e+03 -2.645794595078664e+02  2.918975276816622e+03
 1.145344591796425e+03 -2.655778737543467e+02  2.918975276816622e+03
 1.145344548361862e+03 -2.665762811811193e+02  2.918975276816622e+03
 1.145343732615788e+03 -2.675746954162114e+02  2.918975276816622e+03
 1.145344186751299e+03 -2.685731100318817e+02  2.918975276816622e+03
 1.145343935055254e+03 -2.695715201972733e+02  2.918975276816622e+03
 1.145343158913833e+03 -2.705699361904297e+02  2.918975276816622e+03
 1.145343845169254e+03 -2.715683522867798e+02  2.918975276816622e+03
 1.145344027029305e+03 -2.725667624010246e+02  2.918975276816622e+03
 1.145343027518371e+03 -2.735651769909379e+02  2.918975276816622e+03
 1.145343464202996e+03 -2.745635954589472e+02  2.918975276816622e+03
 1.145344961756117e+03 -2.755620056871495e+02  2.918975276816622e+03
 1.145344542764130e+03 -2.765604105044760e+02  2.918975276816622e+03
 1.145342962467793e+03 -2.775588240388550e+02  2.918975276816622e+03
 1.145343595315849e+03 -2.785572425456937e+02  2.918975276816622e+03
 1.145344518439276e+03 -2.795556500871729e+02  2.918975276816622e+03
 1.145342924954476e+03 -2.805540600543106e+02  2.918975276816622e+03
 1.145342114389297e+03 -2.815524808757661e+02  2.918975276816622e+03
 1.145343714733270e+03 -2.825508970458752e+02  2.918975276816622e+03
 1.145343892582579e+03 -2.835493040168727e+02  2.918975276816622e+03
 1.145342453648876e+03 -2.845477184194763e+02  2.918975276816622e+03
 1.145342788080070e+03 -2.855461368855073e+02  2.918975276816622e+03
 1.145343638081091e+03 -2.865445477826592e+02  2.918975276816622e+03
 1.145343930434907e+03 -2.875429588292112e+02  2.918975276816622e+03
 1.145343825529483e+03 -2.885413666186963e+02  2.918975276816622e+03
 1.145342458259129e+03 -2.895397780517265e+02  2.918975276816622e+03
 1.145341478621494e+03 -2.905381973410668e+02  2.918975276816622e+03
 1.145342126137012e+03 -2.915366166052915e+02  2.918975276816622e+03
 1.145343392357664e+03 -2.925350302446288e+02  2.918975276816622e+03
 1.145343532352869e+03 -2.935334379905348e+02  2.918975276816622e+03
 1.145342774559748e+03 -2.945318493736405e+02  2.918975276816622e+03
 1.145342641867012e+03 -2.955302629185040e+02  2.918975276816622e+03
 1.145342624183422e+03 -2.965286753376751e+02  2.918975276816622e+03
 1.145342468604140e+03 -2.975270889770442e+02  2.918975276816622e+03
 1.145343071371784e+03 -2.985255015577554e+02  2.918975276816622e+03
 1.145343099372076e+03 -2.995239092107313e+02  2.918975276816622e+03
 1.145341637225708e+03 -3.005223209860526e+02  2.918975276816622e+03
 1.145341665830898e+03 -3.015207405200554e+02  2.918975276816622e+03
 1.145342313852768e+03 -3.025191519501354e+02  2.918975276816622e+03
 1.145341056078767e+03 -3.035175654071318e+02  2.918975276816622e+03
 1.145341223339547e+03 -3.045159862681992e+02  2.918975276816622e+03
 1.145343201364610e+03 -3.055143971227339e+02  2.918975276816622e+03
 1.145342731410987e+03 -3.065128010940516e+02  2.918975276816622e+03
 1.145340585749615e+03 -3.075112152342247e+02  2.918975276816622e+03
 1.145341397255263e+03 -3.085096361621291e+02  2.918975276816622e+03
 1.145342489121103e+03 -3.095080427898768e+02  2.918975276816622e+03
 1.145340502226680e+03 -3.105064539859113e+02  2.918975276816622e+03
 1.145340275641724e+03 -3.115048769785229e+02  2.918975276816622e+03
 1.145341944032411e+03 -3.125032888997637e+02  2.918975276816622e+03
 1.145341789884718e+03 -3.135016964814710e+02  2.918975276816622e+03
 1.145340940595165e+03 -3.145001088473101e+02  2.918975276816622e+03
 1.145340704441526e+03 -3.154985224133280e+02  2.918975276816622e+03
 1.145340579505965e+03 -3.164969354595474e+02  2.918975276816622e+03
 1.145340512910478e+03 -3.174953489888286e+02  2.918975276816622e+03
 1.145340727377766e+03 -3.184937613994785e+02  2.918975276816622e+03
 1.145340307351201e+03 -3.194921724422663e+02  2.918975276816622e+03
 1.145339534012558e+03 -3.204905875718904e+02  2.918975276816622e+03
 1.145340623966015e+03 -3.214890036329529e+02  2.918975276816622e+03
 1.145341193946590e+03 -3.224874081497148e+02  2.918975276816622e+03
 1.145338315015885e+03 -3.234858180329784e+02  2.918975276816622e+03
 1.145337567506148e+03 -3.244842455309434e+02  2.918975276816622e+03
 1.145340568467645e+03 -3.254826597510199e+02  2.918975276816622e+03
 1.145340364101628e+03 -3.264810603285711e+02  2.918975276816622e+03
 1.145337715029194e+03 -3.274794742842863e+02  2.918975276816622e+03
 1.145338070677741e+03 -3.284778949935466e+02  2.918975276816622e+03
 1.145339404202345e+03 -3.294763050067781e+02  2.918975276816622e+03
 1.145338339285780e+03 -3.304747127609104e+02  2.918975276816622e+03
 1.145337125325037e+03 -3.314731286398973e+02  2.918975276816622e+03
 1.145337462892099e+03 -3.324715437471094e+02  2.918975276816622e+03
 1.145337479651013e+03 -3.334699546327987e+02  2.918975276816622e+03
 1.145336829208401e+03 -3.344683669195732e+02  2.918975276816622e+03
 1.145336498128074e+03 -3.354667803331513e+02  2.918975276816622e+03
 1.145336147139738e+03 -3.364651924831094e+02  2.918975276816622e+03
 1.145335442952984e+03 -3.374636056536090e+02  2.918975276816622e+03
 1.145335281505298e+03 -3.384620201925671e+02  2.918975276816622e+03
 1.145335412588116e+03 -3.394604311494278e+02  2.918975276816622e+03
 1.145334336066136e+03 -3.404588408061317e+02  2.918975276816622e+03
 1.145333059391956e+03 -3.414572561747919e+02  2.918975276816622e+03
 1.145333201067020e+03 -3.424556716860577e+02  2.918975276816622e+03
 1.145333179671926e+03 -3.434540813617024e+02  2.918975276816622e+03
 1.145331892388079e+03 -3.444524917571246e+02  2.918975276816622e+03
 1.145330616252870e+03 -3.454509058559945e+02  2.918975276816622e+03
 1.145331674037760e+03 -3.464493202069451e+02  2.918975276816622e+03
 1.145332879076143e+03 -3.474477176290386e+02  2.918975276816622e+03
 1.145325061983823e+03 -3.484461140873807e+02  2.918975276816622e+03
 1.145316880373046e+03 -3.494445620518032e+02  2.918975276816622e+03
 1.145326378198812e+03 -3.504430156644943e+02  2.918975276816622e+03
 1.145335522720908e+03 -3.514413892689174e+02  2.918975276816622e+03
 1.145327561300159e+03 -3.524397595706879e+02  2.918975276816622e+03
 1.145318993365805e+03 -3.534381784607648e+02  2.918975276816622e+03
 1.145312814673288e+03 -3.544366032854186e+02  2.918975276816622e+03
 1.145312486305358e+03 -3.554350531799327e+02  2.918975276816622e+03
 1.145325576600536e+03 -3.564334671001745e+02  2.918975276816622e+03
 1.145324305027491e+03 -3.574318053420085e+02  2.918975276816622e+03
 1.145300821767371e+03 -3.584301981644545e+02  2.918975276816622e+03
 1.145291530658779e+03 -3.594286732928963e+02  2.918975276816622e+03
 1.145303653957639e+03 -3.604271161396137e+02  2.918975276816622e+03
 1.145308248920430e+03 -3.614254899337176e+02  2.918975276816622e+03
 1.145296506127643e+03 -3.624238608754921e+02  2.918975276816622e+03
 1.145284651311929e+03 -3.634222671355756e+02  2.918975276816622e+03
 1.145278585969898e+03 -3.644206743726131e+02  2.918975276816622e+03
 1.145271956812358e+03 -3.654190676984925e+02  2.918975276816622e+03
 1.145261017234034e+03 -3.664174497589815e+02  2.918975276816622e+03
 1.145244458310408e+03 -3.674158248022256e+02  2.918975276816622e+03
 1.145231558898690e+03 -3.684142048384171e+02  2.918975276816622e+03
 1.145218304554295e+03 -3.694125450084321e+02  2.918975276816622e+03
 1.145191938777875e+03 -3.704108379066014e+02  2.918975276816622e+03
 1.145227801590448e+03 -3.714092575232617e+02  2.918975276816622e+03
 1.145262066717017e+03 -3.724072138883302e+02  2.918975276816622e+03
 1.145130623763720e+03 -3.734053482468197e+02  2.918975276816622e+03
 1.144720932050375e+03 -3.744056959569269e+02  2.918975276816622e+03
 1.144320222595552e+03 -3.753713513557267e+02  2.918975276816622e+03
 1.144558489661924e+03 -3.763620846401797e+02  2.918975276816622e+03
 1.146249661938878e+03 -3.776018512542122e+02  2.918975276816622e+03
 1.147360762767988e+03 -3.775642519630192e+02  2.918975276816622e+03
 1.146134685604213e+03 -3.796538083970840e+02  2.918975276816622e+03
 1.145863467704586e+03 -3.800918460163061e+02  2.918975276816622e+03
 1.144508069935055e+03 -3.811290285934076e+02  2.918975276816622e+03
 1.144077400970129e+03 -3.819909612285781e+02  2.918975276816622e+03
 1.143932642683052e+03 -3.833109750126110e+02  2.918975276816622e+03
 1.142431294875696e+03 -3.849312669875467e+02  2.918975276816622e+03
 1.143254806654983e+03 -3.851940818239225e+02  2.918975276816622e+03
1.144581551683246e+03 3.855257795192063e+02 2.918975276816622e+03
1.143180111406426e+03 3.844681864652927e+02 2.918975276816622e+03
1.143796235960905e+03 3.830563435622103e+02 2.918975276816622e+03
1.144261677717325e+03 3.821267511164907e+02 2.918975276816622e+03
1.144364156083852e+03 3.815862629476412e+02 2.918975276816622e+03
1.144010903207718e+03 3.804167391638168e+02 2.918975276816622e+03
1.144105384914056e+03 3.793692167571738e+02 2.918975276816622e+03
1.143972922710034e+03 3.780160570210261e+02 2.918975276816622e+03
1.144962361483853e+03 3.780653726855168e+02 2.918975276816622e+03
1.146405750073367e+03 3.764802998477755e+02 2.918975276816622e+03
1.144901066147997e+03 3.754036303498493e+02 2.918975276816622e+03
1.144774358614918e+03 3.743969830520397e+02 2.918975276816622e+03
1.144840608773224e+03 3.734010070982137e+02 2.918975276816622e+03
1.144844144611570e+03 3.724039928254643e+02 2.918975276816622e+03
1.144944043351818e+03 3.714085811715536e+02 2.918975276816622e+03
1.145080336482948e+03 3.704116750141410e+02 2.918975276816622e+03
1.145145869079437e+03 3.694135034779129e+02 2.918975276816622e+03
1.145162722555205e+03 3.684150278512661e+02 2.918975276816622e+03
1.145194322278941e+03 3.674166123918253e+02 2.918975276816622e+03
1.145223009699735e+03 3.664181729727750e+02 2.918975276816622e+03
1.145245277371809e+03 3.654197099867660e+02 2.918975276816622e+03
1.145264782447399e+03 3.644212507194763e+02 2.918975276816622e+03
1.145278630307778e+03 3.634227959610265e+02 2.918975276816622e+03
1.145287106522441e+03 3.624243379578095e+02 2.918975276816622e+03
1.145295125422324e+03 3.614258798854387e+02 2.918975276816622e+03
1.145303986112225e+03 3.604274328839261e+02 2.918975276816622e+03
1.145310557749141e+03 3.594289954071791e+02 2.918975276816622e+03
1.145314650294133e+03 3.584305578927879e+02 2.918975276816622e+03
1.145318686139357e+03 3.574321206544497e+02 2.918975276816622e+03
1.145322862803616e+03 3.564336883969770e+02 2.918975276816622e+03
1.145326058645273e+03 3.554352599328645e+02 2.918975276816622e+03
1.145328442405063e+03 3.544368316853587e+02 2.918975276816622e+03
1.145331156224414e+03 3.534384041787124e+02 2.918975276816622e+03
1.145333899277607e+03 3.524399816289624e+02 2.918975276816622e+03
1.145335221870202e+03 3.514415611031193e+02 2.918975276816622e+03
1.145336176643914e+03 3.504431362806517e+02 2.918975276816622e+03
1.145338380256962e+03 3.494447126963364e+02 2.918975276816622e+03
1.145340313265641e+03 3.484462952827914e+02 2.918975276816622e+03
1.145341041667636e+03 3.474478775738142e+02 2.918975276816622e+03
1.145341763930481e+03 3.464494577502196e+02 2.918975276816622e+03
1.145342647153723e+03 3.454510383940639e+02 2.918975276816622e+03
1.145343874614726e+03 3.444526189263634e+02 2.918975276816622e+03
1.145345535153872e+03 3.434542034648221e+02 2.918975276816622e+03
1.145345715109931e+03 3.424557915565587e+02 2.918975276816622e+03
1.145344808025905e+03 3.414573721672182e+02 2.918975276816622e+03
1.145346091154008e+03 3.404589480849775e+02 2.918975276816622e+03
1.145348815969037e+03 3.394605349994135e+02 2.918975276816622e+03
1.145348763425223e+03 3.384621287713260e+02 2.918975276816622e+03
1.145346807697505e+03 3.374637113241274e+02 2.918975276816622e+03
1.145347597938739e+03 3.364652860514997e+02 2.918975276816622e+03
1.145350387402940e+03 3.354668722655302e+02 2.918975276816622e+03
1.145350359562349e+03 3.344684667111093e+02 2.918975276816622e+03
1.145348571176401e+03 3.334700498579670e+02 2.918975276816622e+03
1.145349544806960e+03 3.324716274227791e+02 2.918975276816622e+03
1.145351387632939e+03 3.314732158860591e+02 2.918975276816622e+03
1.145350891242545e+03 3.304748063562128e+02 2.918975276816622e+03
1.145350245095868e+03 3.294763888748664e+02 2.918975276816622e+03
1.145351039087539e+03 3.284779722470051e+02 2.918975276816622e+03
1.145351615024662e+03 3.274795600249808e+02 2.918975276816622e+03
1.145351408978570e+03 3.264811470933487e+02 2.918975276816622e+03
1.145351273053263e+03 3.254827316894768e+02 2.918975276816622e+03
1.145351873080005e+03 3.244843158040838e+02 2.918975276816622e+03
1.145352611410302e+03 3.234859037372912e+02 2.918975276816622e+03
1.145352170521136e+03 3.224874927433359e+02 2.918975276816622e+03
1.145351579848255e+03 3.214890759577128e+02 2.918975276816622e+03
1.145352416053373e+03 3.204906591639790e+02 2.918975276816622e+03
1.145353114245654e+03 3.194922482720037e+02 2.918975276816622e+03
1.145352647944228e+03 3.184938363424243e+02 2.918975276816622e+03
1.145352419774529e+03 3.174954208116304e+02 2.918975276816622e+03
1.145352754915413e+03 3.164970066128885e+02 2.918975276816622e+03
1.145352883644365e+03 3.154985935514013e+02 2.918975276816622e+03
1.145352946498905e+03 3.145001793102372e+02 2.918975276816622e+03
1.145353318595327e+03 3.135017661617557e+02 2.918975276816622e+03
1.145353496642241e+03 3.125033544729256e+02 2.918975276816622e+03
1.145353324557201e+03 3.115049421329491e+02 2.918975276816622e+03
1.145353484020120e+03 3.105065289994725e+02 2.918975276816622e+03
1.145353120850943e+03 3.095081170080471e+02 2.918975276816622e+03
1.145352012556680e+03 3.085096995423585e+02 2.918975276816622e+03
1.145352690801370e+03 3.075112782926361e+02 2.918975276816622e+03
1.145354753217154e+03 3.065128670369194e+02 2.918975276816622e+03
1.145354790031114e+03 3.055144625381794e+02 2.918975276816622e+03
1.145352797360724e+03 3.045160513005362e+02 2.918975276816622e+03
1.145352594431800e+03 3.035176300421771e+02 2.918975276816622e+03
1.145353801129740e+03 3.025192161489916e+02 2.918975276816622e+03
1.145353098047022e+03 3.015208043676057e+02 2.918975276816622e+03
1.145353015608886e+03 3.005223844001639e+02 2.918975276816622e+03
1.145354434248087e+03 2.995239721529258e+02 2.918975276816622e+03
1.145354428339062e+03 2.985255641700444e+02 2.918975276816622e+03
1.145353725608752e+03 2.975271513804873e+02 2.918975276816622e+03
1.145353635036466e+03 2.965287374091966e+02 2.918975276816622e+03
1.145353713111738e+03 2.955303239648906e+02 2.918975276816622e+03
1.145353828223210e+03 2.945319100496004e+02 2.918975276816622e+03
1.145354497708251e+03 2.935334971486014e+02 2.918975276816622e+03
1.145354646746861e+03 2.925350891191978e+02 2.918975276816622e+03
1.145353278581119e+03 2.915366777275006e+02 2.918975276816622e+03
1.145353003978088e+03 2.905382577652515e+02 2.918975276816622e+03
1.145354264316230e+03 2.895398435594128e+02 2.918975276816622e+03
1.145353645048809e+03 2.885414343011426e+02 2.918975276816622e+03
1.145352648082413e+03 2.875430149970630e+02 2.918975276816622e+03
1.145354252217127e+03 2.865445974123601e+02 2.918975276816622e+03
1.145355134382410e+03 2.855461921137841e+02 2.918975276816622e+03
1.145353989311089e+03 2.845477818260387e+02 2.918975276816622e+03
1.145353541599051e+03 2.835493661246597e+02 2.918975276816622e+03
1.145353464620725e+03 2.825509524875025e+02 2.918975276816622e+03
1.145353340659508e+03 2.815525364906862e+02 2.918975276816622e+03
1.145354025626660e+03 2.805541215629567e+02 2.918975276816622e+03
1.145354060309224e+03 2.795557111291178e+02 2.918975276816622e+03
1.145353128455583e+03 2.785572960257891e+02 2.918975276816622e+03
1.145353637138423e+03 2.775588773787534e+02 2.918975276816622e+03
1.145355155056523e+03 2.765604669555435e+02 2.918975276816622e+03
1.145355156653382e+03 2.755620619176252e+02 2.918975276816622e+03
1.145353627383775e+03 2.745636515822591e+02 2.918975276816622e+03
1.145353131928000e+03 2.735652329114801e+02 2.918975276816622e+03
1.145354083843193e+03 2.725668180004109e+02 2.918975276816622e+03
1.145353871651500e+03 2.715684077197508e+02 2.918975276816622e+03
1.145353130249690e+03 2.705699915341121e+02 2.918975276816622e+03
1.145353838072072e+03 2.695715752617156e+02 2.918975276816622e+03
1.145354051300269e+03 2.685731648190227e+02 2.918975276816622e+03
1.145353564734222e+03 2.675747500603139e+02 2.918975276816622e+03
1.145354327806587e+03 2.665763356381783e+02 2.918975276816622e+03
1.145354316491745e+03 2.655779280300373e+02 2.918975276816622e+03
1.145353533637108e+03 2.645795136015047e+02 2.918975276816622e+03
1.145354016327802e+03 2.635810987914365e+02 2.918975276816622e+03
1.145353801421541e+03 2.625826884224879e+02 2.918975276816622e+03
1.145353064184287e+03 2.615842722491762e+02 2.918975276816622e+03
1.145353777319059e+03 2.605858559870805e+02 2.918975276816622e+03
1.145353990388023e+03 2.595874456699324e+02 2.918975276816622e+03
1.145353033675525e+03 2.585890308686267e+02 2.918975276816622e+03
1.145353504280667e+03 2.575906122304935e+02 2.918975276816622e+03
1.145355017583440e+03 2.565922018438906e+02 2.918975276816622e+03
1.145355011214943e+03 2.555937968522324e+02 2.918975276816622e+03
1.145353473028201e+03 2.545953865543848e+02 2.918975276816622e+03
1.145352969778135e+03 2.535969679075488e+02 2.918975276816622e+03
1.145353914567271e+03 2.525985530269973e+02 2.918975276816622e+03
1.145353693278427e+03 2.516001427832057e+02 2.918975276816622e+03
1.145352941576688e+03 2.506017266214245e+02 2.918975276816622e+03
1.145353655635906e+03 2.496033103681077e+02 2.918975276816622e+03
1.145353869031582e+03 2.486049000662771e+02 2.918975276816622e+03
1.145352910764488e+03 2.476064852773666e+02 2.918975276816622e+03
1.145353380082258e+03 2.466080666440549e+02 2.918975276816622e+03
1.145354893227847e+03 2.456096562678746e+02 2.918975276816622e+03
1.145354885962141e+03 2.446112512935378e+02 2.918975276816622e+03
1.145353346112950e+03 2.436128410095284e+02 2.918975276816622e+03
1.145352841686400e+03 2.426144223701830e+02 2.918975276816622e+03
1.145353786499106e+03 2.416160074971794e+02 2.918975276816622e+03
1.145353566254499e+03 2.406175972647190e+02 2.918975276816622e+03
1.145352816262617e+03 2.396191811126987e+02 2.918975276816622e+03
1.145353517636747e+03 2.386207648701536e+02 2.918975276816622e+03
1.145353724209092e+03 2.376223544720146e+02 2.918975276816622e+03
1.145353229222580e+03 2.366239397469582e+02 2.918975276816622e+03
1.145353986566930e+03 2.356255253486372e+02 2.918975276816622e+03
1.145353970853919e+03 2.346271177837908e+02 2.918975276816622e+03
1.145353180168677e+03 2.336287033927699e+02 2.918975276816622e+03
1.145353655904020e+03 2.326302886027601e+02 2.918975276816622e+03
1.145353437440584e+03 2.316318782627416e+02 2.918975276816622e+03
1.145352695218466e+03 2.306334621219859e+02 2.918975276816622e+03
1.145353402293227e+03 2.296350458836700e+02 2.918975276816622e+03
1.145353611245572e+03 2.286366355935192e+02 2.918975276816622e+03
1.145352650171050e+03 2.276382208214262e+02 2.918975276816622e+03
1.145353115362214e+03 2.266398022035198e+02 2.918975276816622e+03
1.145354625103259e+03 2.256413918374381e+02 2.918975276816622e+03
1.145354616501084e+03 2.246429868772103e+02 2.918975276816622e+03
1.145353074634762e+03 2.236445766105012e+02 2.918975276816622e+03
1.145352567297718e+03 2.226461579812625e+02 2.918975276816622e+03
1.145353510395882e+03 2.216477431171335e+02 2.918975276816622e+03
1.145353289006439e+03 2.206493328985821e+02 2.918975276816622e+03
1.145352537054779e+03 2.196509167592941e+02 2.918975276816622e+03
1.145353236141898e+03 2.186525005262472e+02 2.918975276816622e+03
1.145353441358399e+03 2.176540901365818e+02 2.918975276816622e+03
1.145352945832000e+03 2.166556754222981e+02 2.918975276816622e+03
1.145353701611258e+03 2.156572610384238e+02 2.918975276816622e+03
1.145353683928026e+03 2.146588534840594e+02 2.918975276816622e+03
1.145352892350961e+03 2.136604391013040e+02 2.918975276816622e+03
1.145353366504658e+03 2.126620243227002e+02 2.918975276816622e+03
1.145353146688109e+03 2.116636139884635e+02 2.918975276816622e+03
1.145352405041541e+03 2.106651978562864e+02 2.918975276816622e+03
1.145353110688820e+03 2.096667816358645e+02 2.918975276816622e+03
1.145353316476217e+03 2.086683713523141e+02 2.918975276816622e+03
1.145352355545602e+03 2.076699565797024e+02 2.918975276816622e+03
1.145352821570406e+03 2.066715379753748e+02 2.918975276816622e+03
1.145354328993986e+03 2.056731276243762e+02 2.918975276816622e+03
1.145354318760931e+03 2.046747226677442e+02 2.918975276816622e+03
1.145352777698258e+03 2.036763124077457e+02 2.918975276816622e+03
1.145352269621606e+03 2.026778937921807e+02 2.918975276816622e+03
1.145353210263853e+03 2.016794789344788e+02 2.918975276816622e+03
1.145352988759728e+03 2.006810687159408e+02 2.918975276816622e+03
1.145352238312206e+03 1.996826525868841e+02 2.918975276816622e+03
1.145352936411758e+03 1.986842363711566e+02 2.918975276816622e+03
1.145353139219842e+03 1.976858259891161e+02 2.918975276816622e+03
1.145352643134440e+03 1.966874112760478e+02 2.918975276816622e+03
1.145353399146434e+03 1.956889968991017e+02 2.918975276816622e+03
1.145353380798082e+03 1.946905893529453e+02 2.918975276816622e+03
1.145352589166837e+03 1.936921749747910e+02 2.918975276816622e+03
1.145353063693902e+03 1.926937602068539e+02 2.918975276816622e+03
1.145352842158766e+03 1.916953498841565e+02 2.918975276816622e+03
1.145352098915991e+03 1.906969337511962e+02 2.918975276816622e+03
1.145352806554329e+03 1.896985175321522e+02 2.918975276816622e+03
1.145353013615915e+03 1.887001072676465e+02 2.918975276816622e+03
1.145352049383928e+03 1.877016925088591e+02 2.918975276816622e+03
1.145352513452167e+03 1.867032738981524e+02 2.918975276816622e+03
1.145354023253186e+03 1.857048635483282e+02 2.918975276816622e+03
1.145354013601166e+03 1.847064586082028e+02 2.918975276816622e+03
1.145352470443291e+03 1.837080483551276e+02 2.918975276816622e+03
1.145351962495137e+03 1.827096297390424e+02 2.918975276816622e+03
1.145352904215848e+03 1.817112148914514e+02 2.918975276816622e+03
1.145352681644850e+03 1.807128046837960e+02 2.918975276816622e+03
1.145351930152340e+03 1.797143885567890e+02 2.918975276816622e+03
1.145352628534000e+03 1.787159723443719e+02 2.918975276816622e+03
1.145352831632627e+03 1.777175619686288e+02 2.918975276816622e+03
1.145352335990139e+03 1.767191472621781e+02 2.918975276816622e+03
1.145353091863434e+03 1.757207328961550e+02 2.918975276816622e+03
1.145353071788150e+03 1.747223253566426e+02 2.918975276816622e+03
1.145352279934175e+03 1.737239109750485e+02 2.918975276816622e+03
1.145352756816711e+03 1.727254962125349e+02 2.918975276816622e+03
1.145352535442637e+03 1.717270859070539e+02 2.918975276816622e+03
1.145351789671404e+03 1.707286697808373e+02 2.918975276816622e+03
1.145352496676835e+03 1.697302535585432e+02 2.918975276816622e+03
1.145352705030843e+03 1.687318432962716e+02 2.918975276816622e+03
1.145351741772215e+03 1.677334285445833e+02 2.918975276816622e+03
1.145352206109502e+03 1.667350099440937e+02 2.918975276816622e+03
1.145353715054759e+03 1.657365996042843e+02 2.918975276816622e+03
1.145353704786678e+03 1.647381946676028e+02 2.918975276816622e+03
1.145352161834463e+03 1.637397844183783e+02 2.918975276816622e+03
1.145351653307655e+03 1.627413658067723e+02 2.918975276816622e+03
1.145352595315739e+03 1.617429509592256e+02 2.918975276816622e+03
1.145352374485680e+03 1.607445407584261e+02 2.918975276816622e+03
1.145351622854502e+03 1.597461246445966e+02 2.918975276816622e+03
1.145352319797950e+03 1.587477084376857e+02 2.918975276816622e+03
1.145352522711950e+03 1.577492980633973e+02 2.918975276816622e+03
1.145352027390014e+03 1.567508833600076e+02 2.918975276816622e+03
1.145352784100774e+03 1.557524689977249e+02 2.918975276816622e+03
1.145352764961205e+03 1.547540614677580e+02 2.918975276816622e+03
1.145351971790524e+03 1.537556470960826e+02 2.918975276816622e+03
1.145352447664326e+03 1.527572323319048e+02 2.918975276816622e+03
1.145352228387645e+03 1.517588220279412e+02 2.918975276816622e+03
1.145351483077942e+03 1.507604059163790e+02 2.918975276816622e+03
1.145352188169777e+03 1.497619896988642e+02 2.918975276816622e+03
1.145352397215961e+03 1.487635794344707e+02 2.918975276816622e+03
1.145351435284930e+03 1.477651646917856e+02 2.918975276816622e+03
1.145351898833550e+03 1.467667460997484e+02 2.918975276816622e+03
1.145353407142226e+03 1.457683357627099e+02 2.918975276816622e+03
1.145353396891520e+03 1.447699308278668e+02 2.918975276816622e+03
1.145351855223822e+03 1.437715205795371e+02 2.918975276816622e+03
1.145351348693541e+03 1.427731019795602e+02 2.918975276816622e+03
1.145352288992338e+03 1.417746871490455e+02 2.918975276816622e+03
1.145352065220103e+03 1.407762769443954e+02 2.918975276816622e+03
1.145351315437787e+03 1.397778608215515e+02 2.918975276816622e+03
1.145352015320768e+03 1.387794446258897e+02 2.918975276816622e+03
1.145352217682110e+03 1.377810342663576e+02 2.918975276816622e+03
1.145351720913744e+03 1.367826195678054e+02 2.918975276816622e+03
1.145352477469943e+03 1.357842052070903e+02 2.918975276816622e+03
1.145352459019132e+03 1.347857976798247e+02 2.918975276816622e+03
1.145351666817475e+03 1.337873833141338e+02 2.918975276816622e+03
1.145352142374106e+03 1.327889685596496e+02 2.918975276816622e+03
1.145351921821222e+03 1.317905582577959e+02 2.918975276816622e+03
1.145351177835803e+03 1.307921421434819e+02 2.918975276816622e+03
1.145351884768373e+03 1.297937259382728e+02 2.918975276816622e+03
1.145352092095953e+03 1.287953156861522e+02 2.918975276816622e+03
1.145351128978100e+03 1.277969009399696e+02 2.918975276816622e+03
1.145351594324281e+03 1.267984823489875e+02 2.918975276816622e+03
1.145353103847934e+03 1.258000720229044e+02 2.918975276816622e+03
1.145353093122317e+03 1.248016670976924e+02 2.918975276816622e+03
1.145351550228141e+03 1.238032568538900e+02 2.918975276816622e+03
1.145351043392237e+03 1.228048382520383e+02 2.918975276816622e+03
1.145351985761820e+03 1.218064234233874e+02 2.918975276816622e+03
1.145351763280355e+03 1.208080132332442e+02 2.918975276816622e+03
1.145351011821552e+03 1.198095971213620e+02 2.918975276816622e+03
1.145351710323121e+03 1.188111809249360e+02 2.918975276816622e+03
1.145351913220592e+03 1.178127705636118e+02 2.918975276816622e+03
1.145351418280370e+03 1.168143558676269e+02 2.918975276816622e+03
1.145352176210356e+03 1.158159415193270e+02 2.918975276816622e+03
1.145352156474254e+03 1.148175340044397e+02 2.918975276816622e+03
1.145351363276136e+03 1.138191196393091e+02 2.918975276816622e+03
1.145351840173933e+03 1.128207048885035e+02 2.918975276816622e+03
1.145351620103733e+03 1.118222945970818e+02 2.918975276816622e+03
1.145350875101370e+03 1.108238784888369e+02 2.918975276816622e+03
1.145351581964625e+03 1.098254622847802e+02 2.918975276816622e+03
1.145351789574904e+03 1.088270520363318e+02 2.918975276816622e+03
1.145350826258393e+03 1.078286372911473e+02 2.918975276816622e+03
1.145351294911473e+03 1.068302187010763e+02 2.918975276816622e+03
1.145352806945035e+03 1.058318084030255e+02 2.918975276816622e+03
1.145352791457003e+03 1.048334034985067e+02 2.918975276816622e+03
1.145351246528666e+03 1.038349932434325e+02 2.918975276816622e+03
1.145350741083189e+03 1.028365746469060e+02 2.918975276816622e+03
1.145351681094966e+03 1.018381598190237e+02 2.918975276816622e+03
1.145351461737376e+03 1.008397496133552e+02 2.918975276816622e+03
1.145350716042112e+03 9.984133352382632e+01 2.918975276816622e+03
1.145351412465441e+03 9.884291735641138e+01 2.918975276816622e+03
1.145351612911126e+03 9.784450699912253e+01 2.918975276816622e+03
1.145351117590907e+03 9.684609231041829e+01 2.918975276816622e+03
1.145351874976278e+03 9.584767796326840e+01 2.918975276816622e+03
1.145351857705383e+03 9.484927045086003e+01 2.918975276816622e+03
1.145351065590526e+03 9.385085610608370e+01 2.918975276816622e+03
1.145351540213670e+03 9.285244136684942e+01 2.918975276816622e+03
1.145351319849582e+03 9.185403107551646e+01 2.918975276816622e+03
1.145350576843076e+03 9.085561497431097e+01 2.918975276816622e+03
1.145351285577296e+03 8.985719878659012e+01 2.918975276816622e+03
1.145351496870473e+03 8.885878856012376e+01 2.918975276816622e+03
1.145350508421304e+03 8.786037385537037e+01 2.918975276816622e+03
1.145350939321336e+03 8.686195505166093e+01 2.918975276816622e+03
1.145352599960971e+03 8.586354446909648e+01 2.918975276816622e+03
1.145352753067117e+03 8.486514065563205e+01 2.918975276816622e+03
1.145350830429891e+03 8.386673154173586e+01 2.918975276816622e+03
1.145349937174781e+03 8.286831087623585e+01 2.918975276816622e+03
1.145351392584832e+03 8.186989398108574e+01 2.918975276816622e+03
1.145351628089350e+03 8.087148593083852e+01 2.918975276816622e+03
1.145350489780543e+03 7.987307196801838e+01 2.918975276816622e+03
1.145350865625302e+03 7.887465471466619e+01 2.918975276816622e+03
1.145351235319564e+03 7.787624335348893e+01 2.918975276816622e+03
1.145350838907408e+03 7.687782901457139e+01 2.918975276816622e+03
1.145351513561231e+03 7.587941499967778e+01 2.918975276816622e+03
1.145351471116594e+03 7.488100759878218e+01 2.918975276816622e+03
1.145350787719040e+03 7.388259338089216e+01 2.918975276816622e+03
1.145351373040872e+03 7.288417880286737e+01 2.918975276816622e+03
1.145350739368696e+03 7.188576893067926e+01 2.918975276816622e+03
1.145350018065087e+03 7.088735003128473e+01 2.918975276816622e+03
1.145351956317872e+03 6.988893444616595e+01 2.918975276816622e+03
1.145352153200503e+03 6.889053193358262e+01 2.918975276816622e+03
1.145349903029974e+03 6.789211847404694e+01 2.918975276816622e+03
1.145349937321320e+03 6.689369735359162e+01 2.918975276816622e+03
1.145346732585288e+03 6.589528646001587e+01 2.918975276816622e+03
1.145393262319705e+03 6.489680885064620e+01 2.918975276816622e+03
1.145407041319078e+03 6.389887787270509e+01 2.918975276816622e+03
1.145130687250960e+03 6.290005606936448e+01 2.918975276816622e+03
1.145120016643517e+03 6.190069036560335e+01 2.918975276816622e+03
1.145723827529656e+03 6.090121149994313e+01 2.918975276816622e+03
1.145742672451166e+03 5.990665392320915e+01 2.918975276816622e+03
1.145019383766859e+03 5.890785814118628e+01 2.918975276816622e+03
1.145041404577924e+03 5.790676739437227e+01 2.918975276816622e+03
1.145576469539393e+03 5.690892850395058e+01 2.918975276816622e+03
1.145271586433029e+03 5.591257257208139e+01 2.918975276816622e+03
1.145293704082121e+03 5.490575422046452e+01 2.918975276816622e+03
1.145944082006932e+03 5.391937361887871e+01 2.918975276816622e+03
1.145138526409361e+03 5.291214595745856e+01 2.918975276816622e+03
1.144685102862890e+03 5.191793678732987e+01 2.918975276816622e+03
1.145563921400105e+03 5.092264510334593e+01 2.918975276816622e+03
1.146202586117022e+03 4.992066609239427e+01 2.918975276816622e+03
1.145052205774199e+03 4.893014601915638e+01 2.918975276816622e+03
1.144917684230056e+03 4.792307993186277e+01 2.918975276816622e+03
1.145363346683380e+03 4.692491023363983e+01 2.918975276816622e+03
1.145428685130902e+03 4.592566136318563e+01 2.918975276816622e+03
1.145703627221744e+03 4.492859450078794e+01 2.918975276816622e+03
1.145437604417885e+03 4.392730695563953e+01 2.918975276816622e+03
1.144995956718098e+03 4.293148349212832e+01 2.918975276816622e+03
1.145484858121630e+03 4.193677571722215e+01 2.918975276816622e+03
1.145547911962494e+03 4.093073955052771e+01 2.918975276816622e+03
1.144926117118393e+03 3.993867649652738e+01 2.918975276816622e+03
1.145110541642974e+03 3.893995726615317e+01 2.918975276816622e+03
1.145711516356142e+03 3.793565339837421e+01 2.918975276816622e+03
1.145751091022793e+03 3.694238658505060e+01 2.918975276816622e+03
1.145520949640910e+03 3.594464806321415e+01 2.918975276816622e+03
1.145023170999291e+03 3.494490794810487e+01 2.918975276816622e+03
1.145036970024331e+03 3.394531513318994e+01 2.918975276816622e+03
1.145553859049334e+03 3.294666945290472e+01 2.918975276816622e+03
1.145552911366872e+03 3.195003192822687e+01 2.918975276816622e+03
1.145294675449705e+03 3.095124351537389e+01 2.918975276816622e+03
1.145307341326925e+03 2.995243398855880e+01 2.918975276816622e+03
1.145355354668842e+03 2.895400526199407e+01 2.918975276816622e+03
1.145349775412470e+03 2.795558724098741e+01 2.918975276816622e+03
1.145350150876062e+03 2.695717115423135e+01 2.918975276816622e+03
1.145350743171022e+03 2.595875911633376e+01 2.918975276816622e+03
1.145349969658294e+03 2.496034876386648e+01 2.918975276816622e+03
1.145347976813486e+03 2.396192963797443e+01 2.918975276816622e+03
1.145349426616786e+03 2.296350177835869e+01 2.918975276816622e+03
1.145353182807515e+03 2.196509520835131e+01 2.918975276816622e+03
1.145358506647759e+03 2.096669820278575e+01 2.918975276816622e+03
1.145313653356802e+03 1.996827866238308e+01 2.918975276816622e+03
1.145246321620994e+03 1.896972193993278e+01 2.918975276816622e+03
1.145488224436132e+03 1.796930357087487e+01 2.918975276816622e+03
1.145767144390646e+03 1.697649068316948e+01 2.918975276816622e+03
1.145138514190187e+03 1.597310396662403e+01 2.918975276816622e+03
1.144776844280436e+03 1.497776457917013e+01 2.918975276816622e+03
1.145290429398554e+03 1.397475619324633e+01 2.918975276816622e+03
1.146113692602361e+03 1.297578509090397e+01 2.918975276816622e+03
1.145499130778961e+03 1.198803733536751e+01 2.918975276816622e+03
1.144997966550626e+03 1.098145962701261e+01 2.918975276816622e+03
1.145170801156043e+03 9.984746567325365e+00 2.918975276816622e+03
1.145403808854341e+03 8.985244352207792e+00 2.918975276816622e+03
1.145226198875758e+03 7.987423352634494e+00 2.918975276816622e+03
1.145275904581928e+03 6.987198823368479e+00 2.918975276816622e+03
1.145794801627917e+03 5.988601272363878e+00 2.918975276816622e+03
1.145884515013974e+03 5.000222735891317e+00 2.918975276816622e+03
1.144978741391143e+03 3.991678037183611e+00 2.918975276816622e+03
1.144598885220654e+03 2.999742909582919e+00 2.918975276816622e+03
1.145139189576979e+03 1.997553910170689e+00 2.918975276816622e+03
1.146304818659810e+03 9.799705619731436e-01 2.918975276816622e+03
-1.157715960052287e+03  9.357881337518848e-03 -2.918975276816622e+03
-1.156739162624914e+03 -1.014947677345415e+00 -2.918975276816622e+03
-1.155749596621535e+03 -1.999020991989971e+00 -2.918975276816622e+03
-1.157111621113408e+03 -2.990792644590239e+00 -2.918975276816622e+03
-1.157721212770824e+03 -3.996942897471985e+00 -2.918975276816622e+03
-1.156814648622633e+03 -4.980496921671397e+00 -2.918975276816622e+03
-1.156232203701464e+03 -5.990937566338984e+00 -2.918975276816622e+03
-1.157347639291417e+03 -6.983415980501292e+00 -2.918975276816622e+03
-1.157434467340749e+03 -7.987286549188518e+00 -2.918975276816622e+03
-1.156600113154956e+03 -8.988811801544692e+00 -2.918975276816622e+03
-1.156361360202843e+03 -9.979260154755295e+00 -2.918975276816622e+03
-1.157224733182813e+03 -1.098361537612092e+01 -2.918975276816622e+03
-1.157577026647602e+03 -1.197952308370954e+01 -2.918975276816622e+03
-1.157024029764768e+03 -1.298247123984409e+01 -2.918975276816622e+03
-1.156204656829605e+03 -1.398178875246099e+01 -2.918975276816622e+03
-1.156840263751086e+03 -1.496911888481775e+01 -2.918975276816622e+03
-1.157328020688214e+03 -1.597571343068339e+01 -2.918975276816622e+03
-1.157145908258590e+03 -1.697242115703231e+01 -2.918975276816622e+03
-1.156885706973464e+03 -1.797197078512807e+01 -2.918975276816622e+03
-1.156945367622575e+03 -1.896982887865052e+01 -2.918975276816622e+03
-1.156980435683796e+03 -1.996830186900126e+01 -2.918975276816622e+03
-1.156977761618568e+03 -2.096671231290303e+01 -2.918975276816622e+03
-1.156973281519426e+03 -2.196514672456413e+01 -2.918975276816622e+03
-1.156964751740299e+03 -2.296352272861420e+01 -2.918975276816622e+03
-1.156973548690265e+03 -2.396188704209896e+01 -2.918975276816622e+03
-1.156985024331965e+03 -2.496033504454865e+01 -2.918975276816622e+03
-1.156978620320206e+03 -2.595878997253313e+01 -2.918975276816622e+03
-1.156971407681812e+03 -2.695718467902572e+01 -2.918975276816622e+03
-1.156974203966890e+03 -2.795558078233976e+01 -2.918975276816622e+03
-1.156976387004727e+03 -2.895399961209782e+01 -2.918975276816622e+03
-1.156975253423784e+03 -2.995241558287064e+01 -2.918975276816622e+03
-1.156974454514715e+03 -3.095082559271348e+01 -2.918975276816622e+03
-1.156975138710558e+03 -3.194923554073760e+01 -2.918975276816622e+03
-1.156976167071943e+03 -3.294765141508074e+01 -2.918975276816622e+03
-1.156975675048202e+03 -3.394606991325072e+01 -2.918975276816622e+03
-1.156974095905529e+03 -3.494448186798063e+01 -2.918975276816622e+03
-1.156974078659556e+03 -3.594288682041792e+01 -2.918975276816622e+03
-1.156975573861264e+03 -3.694129878337655e+01 -2.918975276816622e+03
-1.156976069326711e+03 -3.793971727406075e+01 -2.918975276816622e+03
-1.156975108059769e+03 -3.893813334850879e+01 -2.918975276816622e+03
-1.156974380818799e+03 -3.993654358917486e+01 -2.918975276816622e+03
-1.156975065597137e+03 -4.093495371466861e+01 -2.918975276816622e+03
-1.156976011846967e+03 -4.193336982879956e+01 -2.918975276816622e+03
-1.156975773551218e+03 -4.293178834301671e+01 -2.918975276816622e+03
-1.156974695023734e+03 -4.393020307379269e+01 -2.918975276816622e+03
-1.156973916961149e+03 -4.492861221458777e+01 -2.918975276816622e+03
-1.156973910137546e+03 -4.592701976362689e+01 -2.918975276816622e+03
-1.156974651180760e+03 -4.692542900193728e+01 -2.918975276816622e+03
-1.156975677106125e+03 -4.792384371738337e+01 -2.918975276816622e+03
-1.156975904264883e+03 -4.892226213929271e+01 -2.918975276816622e+03
-1.156974956900552e+03 -4.992067834892373e+01 -2.918975276816622e+03
-1.156974212361579e+03 -5.091908860358727e+01 -2.918975276816622e+03
-1.156974880821082e+03 -5.191749875457526e+01 -2.918975276816622e+03
-1.156975839870353e+03 -5.291591478062101e+01 -2.918975276816622e+03
-1.156975335941798e+03 -5.391433338337823e+01 -2.918975276816622e+03
-1.156973802227142e+03 -5.491274541629819e+01 -2.918975276816622e+03
-1.156973778321931e+03 -5.591115043098047e+01 -2.918975276816622e+03
-1.156975269598916e+03 -5.690956244246495e+01 -2.918975276816622e+03
-1.156975762420823e+03 -5.790798097691553e+01 -2.918975276816622e+03
-1.156974797275706e+03 -5.890639708398596e+01 -2.918975276816622e+03
-1.156974068212972e+03 -5.990480734376791e+01 -2.918975276816622e+03
-1.156974753274920e+03 -6.090321749567703e+01 -2.918975276816622e+03
-1.156975697860189e+03 -6.190163363935743e+01 -2.918975276816622e+03
-1.156975457148151e+03 -6.290005217147249e+01 -2.918975276816622e+03
-1.156974377880457e+03 -6.389846691563012e+01 -2.918975276816622e+03
-1.156973599372964e+03 -6.489687607248631e+01 -2.918975276816622e+03
-1.156973591634944e+03 -6.589528363644179e+01 -2.918975276816622e+03
-1.156974332012788e+03 -6.689369288925818e+01 -2.918975276816622e+03
-1.156975356615811e+03 -6.789210762012976e+01 -2.918975276816622e+03
-1.156975582460439e+03 -6.889052604994203e+01 -2.918975276816622e+03
-1.156974635895556e+03 -6.988894226691319e+01 -2.918975276816622e+03
-1.156973891239099e+03 -7.088735253954975e+01 -2.918975276816622e+03
-1.156974557082135e+03 -7.188576270226015e+01 -2.918975276816622e+03
-1.156975515691944e+03 -7.288417873042035e+01 -2.918975276816622e+03
-1.156975012902799e+03 -7.388259734499266e+01 -2.918975276816622e+03
-1.156973477730100e+03 -7.488100939210645e+01 -2.918975276816622e+03
-1.156973451945929e+03 -7.587941441130238e+01 -2.918975276816622e+03
-1.156974943441709e+03 -7.687782642797391e+01 -2.918975276816622e+03
-1.156975436739965e+03 -7.787624497361854e+01 -2.918975276816622e+03
-1.156974470873343e+03 -7.887466109248325e+01 -2.918975276816622e+03
-1.156973740249818e+03 -7.987307136113158e+01 -2.918975276816622e+03
-1.156974424048824e+03 -8.087148151752771e+01 -2.918975276816622e+03
-1.156975368854752e+03 -8.186989766561022e+01 -2.918975276816622e+03
-1.156975128756109e+03 -8.286831620854120e+01 -2.918975276816622e+03
-1.156974048427186e+03 -8.386673096540548e+01 -2.918975276816622e+03
-1.156973268291825e+03 -8.486514012828140e+01 -2.918975276816622e+03
-1.156973259875567e+03 -8.586354769678920e+01 -2.918975276816622e+03
-1.156973999500428e+03 -8.686195695542634e+01 -2.918975276816622e+03
-1.156975023687030e+03 -8.786037169028549e+01 -2.918975276816622e+03
-1.156975249709964e+03 -8.885879012770027e+01 -2.918975276816622e+03
-1.156974302833133e+03 -8.985720635358108e+01 -2.918975276816622e+03
-1.156973557852298e+03 -9.085561663555640e+01 -2.918975276816622e+03
-1.156974222639728e+03 -9.185402681086941e+01 -2.918975276816622e+03
-1.156975179884279e+03 -9.285244284580462e+01 -2.918975276816622e+03
-1.156974677444097e+03 -9.385086146701248e+01 -2.918975276816622e+03
-1.156973140603866e+03 -9.484927352768480e+01 -2.918975276816622e+03
-1.156973109982552e+03 -9.584767854402628e+01 -2.918975276816622e+03
-1.156974601960490e+03 -9.684609054054602e+01 -2.918975276816622e+03
-1.156975102829908e+03 -9.784450909147849e+01 -2.918975276816622e+03
-1.156974139751186e+03 -9.884292525448772e+01 -2.918975276816622e+03
-1.156973400967110e+03 -9.984133555554223e+01 -2.918975276816622e+03
-1.156974077552613e+03 -1.008397456970292e+02 -2.918975276816622e+03
-1.156975024643044e+03 -1.018381618268304e+02 -2.918975276816622e+03
-1.156974787568477e+03 -1.028365803794257e+02 -2.918975276816622e+03
-1.156973706610692e+03 -1.038349951469384e+02 -2.918975276816622e+03
-1.156972925893187e+03 -1.048334043186004e+02 -2.918975276816622e+03
-1.156972916373621e+03 -1.058318118984522e+02 -2.918975276816622e+03
-1.156973654604879e+03 -1.068302211628928e+02 -2.918975276816622e+03
-1.156974678729090e+03 -1.078286359036403e+02 -2.918975276816622e+03
-1.156974904877533e+03 -1.088270543522469e+02 -2.918975276816622e+03
-1.156973955919521e+03 -1.098254705896976e+02 -2.918975276816622e+03
-1.156973208345127e+03 -1.108238808697348e+02 -2.918975276816622e+03
-1.156973874353040e+03 -1.118222910415148e+02 -2.918975276816622e+03
-1.156974832296522e+03 -1.128207070918530e+02 -2.918975276816622e+03
-1.156974326588878e+03 -1.138191257193206e+02 -2.918975276816622e+03
-1.156972791237169e+03 -1.148175377712595e+02 -2.918975276816622e+03
-1.156972765585025e+03 -1.158159428126131e+02 -2.918975276816622e+03
-1.156974253142862e+03 -1.168143548508670e+02 -2.918975276816622e+03
-1.156974743925034e+03 -1.178127733989620e+02 -2.918975276816622e+03
-1.156973779299166e+03 -1.188111895262310e+02 -2.918975276816622e+03
-1.156973048089415e+03 -1.198095998163330e+02 -2.918975276816622e+03
-1.156973729222492e+03 -1.208080099899270e+02 -2.918975276816622e+03
-1.156974672083954e+03 -1.218064261514464e+02 -2.918975276816622e+03
-1.156974430037041e+03 -1.228048447055708e+02 -2.918975276816622e+03
-1.156973348856329e+03 -1.238032594682369e+02 -2.918975276816622e+03
-1.156972569068922e+03 -1.248016686455337e+02 -2.918975276816622e+03
-1.156972558724558e+03 -1.258000762353898e+02 -2.918975276816622e+03
-1.156973295779168e+03 -1.267984855067056e+02 -2.918975276816622e+03
-1.156974319519126e+03 -1.277969002555528e+02 -2.918975276816622e+03
-1.156974544265832e+03 -1.287953187129773e+02 -2.918975276816622e+03
-1.156973594415270e+03 -1.297937349507750e+02 -2.918975276816622e+03
-1.156972847896949e+03 -1.307921452378954e+02 -2.918975276816622e+03
-1.156973512485823e+03 -1.317905554263446e+02 -2.918975276816622e+03
-1.156974467543179e+03 -1.327889714797792e+02 -2.918975276816622e+03
-1.156973962120969e+03 -1.337873901056899e+02 -2.918975276816622e+03
-1.156972427068236e+03 -1.347858021672482e+02 -2.918975276816622e+03
-1.156972400070221e+03 -1.357842072158411e+02 -2.918975276816622e+03
-1.156973887768321e+03 -1.367826192614297e+02 -2.918975276816622e+03
-1.156974377663672e+03 -1.377810378247756e+02 -2.918975276816622e+03
-1.156973409905314e+03 -1.387794539561082e+02 -2.918975276816622e+03
-1.156972678529890e+03 -1.397778642409166e+02 -2.918975276816622e+03
-1.156973361411290e+03 -1.407762744251002e+02 -2.918975276816622e+03
-1.156974302789591e+03 -1.417746906035879e+02 -2.918975276816622e+03
-1.156974058464168e+03 -1.427731091617171e+02 -2.918975276816622e+03
-1.156972976921227e+03 -1.437715239271151e+02 -2.918975276816622e+03
-1.156972196416068e+03 -1.447699331110172e+02 -2.918975276816622e+03
-1.156972185566769e+03 -1.457683407047728e+02 -2.918975276816622e+03
-1.156972922909133e+03 -1.467667499865410e+02 -2.918975276816622e+03
-1.156973945101140e+03 -1.477651647492813e+02 -2.918975276816622e+03
-1.156974167847189e+03 -1.487635832104436e+02 -2.918975276816622e+03
-1.156973217714814e+03 -1.497619994502939e+02 -2.918975276816622e+03
-1.156972470903476e+03 -1.507604097442511e+02 -2.918975276816622e+03
-1.156973135039051e+03 -1.517588199404969e+02 -2.918975276816622e+03
-1.156974089508552e+03 -1.527572360050963e+02 -2.918975276816622e+03
-1.156973582292368e+03 -1.537556546391032e+02 -2.918975276816622e+03
-1.156972046221777e+03 -1.547540667011996e+02 -2.918975276816622e+03
-1.156972019523149e+03 -1.557524717564671e+02 -2.918975276816622e+03
-1.156973506206315e+03 -1.567508838144655e+02 -2.918975276816622e+03
-1.156973994696117e+03 -1.577493023830935e+02 -2.918975276816622e+03
-1.156973027027657e+03 -1.587477185193038e+02 -2.918975276816622e+03
-1.156972294750663e+03 -1.597461288154362e+02 -2.918975276816622e+03
-1.156972975550671e+03 -1.607445390051496e+02 -2.918975276816622e+03
-1.156973917118150e+03 -1.617429551859364e+02 -2.918975276816622e+03
-1.156973673109766e+03 -1.627413737566555e+02 -2.918975276816622e+03
-1.156972589166590e+03 -1.637397885313484e+02 -2.918975276816622e+03
-1.156971807574920e+03 -1.647381977139964e+02 -2.918975276816622e+03
-1.156971797757996e+03 -1.657366053156003e+02 -2.918975276816622e+03
-1.156972533940002e+03 -1.667350146126347e+02 -2.918975276816622e+03
-1.156973553875584e+03 -1.677334293811599e+02 -2.918975276816622e+03
-1.156973776366784e+03 -1.687318478446985e+02 -2.918975276816622e+03
-1.156972826408839e+03 -1.697302640924578e+02 -2.918975276816622e+03
-1.156972078534425e+03 -1.707286743958108e+02 -2.918975276816622e+03
-1.156972741365670e+03 -1.717270845993002e+02 -2.918975276816622e+03
-1.156973695231301e+03 -1.727255006702809e+02 -2.918975276816622e+03
-1.156973187599577e+03 -1.737239193114012e+02 -2.918975276816622e+03
-1.156971650912937e+03 -1.747223313803189e+02 -2.918975276816622e+03
-1.156971623487216e+03 -1.757207364448344e+02 -2.918975276816622e+03
-1.156973108532103e+03 -1.767191485130118e+02 -2.918975276816622e+03
-1.156973595557382e+03 -1.777175670835985e+02 -2.918975276816622e+03
-1.156972628823013e+03 -1.787159832212839e+02 -2.918975276816622e+03
-1.156971897305771e+03 -1.797143935321662e+02 -2.918975276816622e+03
-1.156972575730696e+03 -1.807128037376516e+02 -2.918975276816622e+03
-1.156973514724922e+03 -1.817112199209613e+02 -2.918975276816622e+03
-1.156973271061472e+03 -1.827096384908597e+02 -2.918975276816622e+03
-1.156972188191070e+03 -1.837080532750817e+02 -2.918975276816622e+03
-1.156971405150602e+03 -1.847064624715092e+02 -2.918975276816622e+03
-1.156971393317378e+03 -1.857048700776704e+02 -2.918975276816622e+03
-1.156972129457956e+03 -1.867032793791127e+02 -2.918975276816622e+03
-1.156973149345716e+03 -1.877016941582832e+02 -2.918975276816622e+03
-1.156973371171407e+03 -1.887001126305815e+02 -2.918975276816622e+03
-1.156972420272608e+03 -1.896985288872989e+02 -2.918975276816622e+03
-1.156971671016004e+03 -1.906969391961231e+02 -2.918975276816622e+03
-1.156972333919896e+03 -1.916953494042561e+02 -2.918975276816622e+03
-1.156973288110381e+03 -1.926937654888106e+02 -2.918975276816622e+03
-1.156972778890247e+03 -1.936921841408380e+02 -2.918975276816622e+03
-1.156971240725446e+03 -1.946905962126055e+02 -2.918975276816622e+03
-1.156971212818647e+03 -1.956890012821419e+02 -2.918975276816622e+03
-1.156972698000312e+03 -1.966874133574675e+02 -2.918975276816622e+03
-1.156973185706694e+03 -1.976858319390995e+02 -2.918975276816622e+03
-1.156972217689578e+03 -1.986842480917844e+02 -2.918975276816622e+03
-1.156971483750381e+03 -1.996826584068399e+02 -2.918975276816622e+03
-1.156972162308965e+03 -2.006810686137918e+02 -2.918975276816622e+03
-1.156973102172561e+03 -2.016794848086964e+02 -2.918975276816622e+03
-1.156972857987420e+03 -2.026779033899931e+02 -2.918975276816622e+03
-1.156971774161025e+03 -2.036763181832397e+02 -2.918975276816622e+03
-1.156970989959770e+03 -2.046747273877449e+02 -2.918975276816622e+03
-1.156970977349744e+03 -2.056731349992010e+02 -2.918975276816622e+03
-1.156971713787425e+03 -2.066715443080631e+02 -2.918975276816622e+03
-1.156972733827838e+03 -2.076699590994743e+02 -2.918975276816622e+03
-1.156972954754133e+03 -2.086683775821505e+02 -2.918975276816622e+03
-1.156972003335718e+03 -2.096667938444989e+02 -2.918975276816622e+03
-1.156971254086856e+03 -2.106652041625763e+02 -2.918975276816622e+03
-1.156971916249664e+03 -2.116636143820907e+02 -2.918975276816622e+03
-1.156972869861204e+03 -2.126620304738602e+02 -2.918975276816622e+03
-1.156972360671770e+03 -2.136604491327828e+02 -2.918975276816622e+03
-1.156970822492400e+03 -2.146588612121522e+02 -2.918975276816622e+03
-1.156970795047517e+03 -2.156572662931598e+02 -2.918975276816622e+03
-1.156972279719811e+03 -2.166556783854618e+02 -2.918975276816622e+03
-1.156972765300959e+03 -2.176540969747798e+02 -2.918975276816622e+03
-1.156971797643300e+03 -2.186525131251861e+02 -2.918975276816622e+03
-1.156971066124276e+03 -2.196509234524593e+02 -2.918975276816622e+03
-1.156971743971111e+03 -2.206493336811357e+02 -2.918975276816622e+03
-1.156972681791199e+03 -2.216477498840586e+02 -2.918975276816622e+03
-1.156972437803034e+03 -2.226461684684351e+02 -2.918975276816622e+03
-1.156971354674035e+03 -2.236445832697457e+02 -2.918975276816622e+03
-1.156970571063522e+03 -2.246429924843348e+02 -2.918975276816622e+03
-1.156970558799508e+03 -2.256414001108962e+02 -2.918975276816622e+03
-1.156971294571717e+03 -2.266398094335819e+02 -2.918975276816622e+03
-1.156972314764667e+03 -2.276382242337684e+02 -2.918975276816622e+03
-1.156972536168385e+03 -2.286366427280314e+02 -2.918975276816622e+03
-1.156971584420260e+03 -2.296350589988013e+02 -2.918975276816622e+03
-1.156970836088410e+03 -2.306334693248021e+02 -2.918975276816622e+03
-1.156971499141891e+03 -2.316318795611526e+02 -2.918975276816622e+03
-1.156972452248351e+03 -2.326302956655695e+02 -2.918975276816622e+03
-1.156971943665475e+03 -2.336287143307603e+02 -2.918975276816622e+03
-1.156970406603243e+03 -2.346271264228077e+02 -2.918975276816622e+03
-1.156970379343969e+03 -2.356255315193184e+02 -2.918975276816622e+03
-1.156971864555354e+03 -2.366239436244806e+02 -2.918975276816622e+03
-1.156972350961855e+03 -2.376223622252574e+02 -2.918975276816622e+03
-1.156971384363008e+03 -2.386207783855822e+02 -2.918975276816622e+03
-1.156970654195900e+03 -2.396191887280773e+02 -2.918975276816622e+03
-1.156971332221211e+03 -2.406175989743411e+02 -2.918975276816622e+03
-1.156972270439036e+03 -2.416160151856837e+02 -2.918975276816622e+03
-1.156972029115509e+03 -2.426144337786641e+02 -2.918975276816622e+03
-1.156970948013503e+03 -2.436128485997132e+02 -2.918975276816622e+03
-1.156970164344663e+03 -2.446112578316803e+02 -2.918975276816622e+03
-1.156970153744413e+03 -2.456096654688973e+02 -2.918975276816622e+03
-1.156970892652596e+03 -2.466080748107834e+02 -2.918975276816622e+03
-1.156971914259680e+03 -2.476064896297847e+02 -2.918975276816622e+03
-1.156972138345746e+03 -2.486049081305224e+02 -2.918975276816622e+03
-1.156971192380437e+03 -2.496033244138776e+02 -2.918975276816622e+03
-1.156970448141055e+03 -2.506017347657362e+02 -2.918975276816622e+03
-1.156971125134188e+03 -2.516001450186053e+02 -2.918975276816622e+03
-1.156972062782508e+03 -2.525985612407381e+02 -2.918975276816622e+03
-1.156971820299515e+03 -2.535969798402078e+02 -2.918975276816622e+03
-1.156970740732748e+03 -2.545953946647496e+02 -2.918975276816622e+03
-1.156969959828205e+03 -2.555938039165987e+02 -2.918975276816622e+03
-1.156969947921478e+03 -2.565922115774260e+02 -2.918975276816622e+03
-1.156970685561507e+03 -2.575906209218541e+02 -2.918975276816622e+03
-1.156971710619011e+03 -2.585890357458194e+02 -2.918975276816622e+03
-1.156971936347619e+03 -2.595874542692076e+02 -2.918975276816622e+03
-1.156970987981185e+03 -2.605858705677161e+02 -2.918975276816622e+03
-1.156970243561776e+03 -2.615842809277163e+02 -2.918975276816622e+03
-1.156970910291410e+03 -2.625826912003279e+02 -2.918975276816622e+03
-1.156971867040210e+03 -2.635811073316225e+02 -2.918975276816622e+03
-1.156971364083198e+03 -2.645795260188776e+02 -2.918975276816622e+03
-1.156969833732807e+03 -2.655779381487816e+02 -2.918975276816622e+03
-1.156969810627415e+03 -2.665763432964847e+02 -2.918975276816622e+03
-1.156971299270751e+03 -2.675747554351296e+02 -2.918975276816622e+03
-1.156971792747958e+03 -2.685731740588541e+02 -2.918975276816622e+03
-1.156970834542867e+03 -2.695715902568641e+02 -2.918975276816622e+03
-1.156970110941330e+03 -2.705700006487613e+02 -2.918975276816622e+03
-1.156970796166305e+03 -2.715684109397353e+02 -2.918975276816622e+03
-1.156971743534160e+03 -2.725668271907036e+02 -2.918975276816622e+03
-1.156971511198287e+03 -2.735652458227869e+02 -2.918975276816622e+03
-1.156970437755550e+03 -2.745636606841708e+02 -2.918975276816622e+03
-1.156969651967392e+03 -2.755620699653346e+02 -2.918975276816622e+03
-1.156970027931394e+03 -2.765604776777724e+02 -2.918975276816622e+03
-1.156970771985485e+03 -2.775588905202455e+02 -2.918975276816622e+03
-1.156970688704501e+03 -2.785573053301233e+02 -2.918975276816622e+03
-1.156970934451336e+03 -2.795557172587272e+02 -2.918975276816622e+03
-1.156970951734449e+03 -2.805541336797762e+02 -2.918975276816622e+03
-1.156970198004459e+03 -2.815525461353724e+02 -2.918975276816622e+03
-1.156971059563708e+03 -2.825509563688814e+02 -2.918975276816622e+03
-1.156972069794096e+03 -2.835493758144239e+02 -2.918975276816622e+03
-1.156970648814092e+03 -2.845477946669814e+02 -2.918975276816622e+03
-1.156969484669136e+03 -2.855462025888021e+02 -2.918975276816622e+03
-1.156970383003717e+03 -2.865446111889664e+02 -2.918975276816622e+03
-1.156970745542764e+03 -2.875430265698118e+02 -2.918975276816622e+03
-1.156970712919985e+03 -2.885414383103315e+02 -2.918975276816622e+03
-1.156970918785992e+03 -2.895398532794516e+02 -2.918975276816622e+03
-1.156970760613354e+03 -2.905382672699112e+02 -2.918975276816622e+03
-1.156971446999454e+03 -2.915366813087983e+02 -2.918975276816622e+03
-1.156971250518833e+03 -2.925351010230337e+02 -2.918975276816622e+03
-1.156969908939914e+03 -2.935335128221542e+02 -2.918975276816622e+03
-1.156970049446113e+03 -2.945319209668178e+02 -2.918975276816622e+03
-1.156970713853439e+03 -2.955303338577579e+02 -2.918975276816622e+03
-1.156970648210762e+03 -2.965287478679271e+02 -2.918975276816622e+03
-1.156970655317666e+03 -2.975271607040584e+02 -2.918975276816622e+03
-1.156970606665296e+03 -2.985255746265905e+02 -2.918975276816622e+03
-1.156969935950828e+03 -2.995239864749054e+02 -2.918975276816622e+03
-1.156970135428101e+03 -3.005223942020532e+02 -2.918975276816622e+03
-1.156971813836944e+03 -3.015208081672950e+02 -2.918975276816622e+03
-1.156972574837152e+03 -3.025192301814891e+02 -2.918975276816622e+03
-1.156970636629590e+03 -3.035176499739298e+02 -2.918975276816622e+03
-1.156969406992783e+03 -3.045160555002718e+02 -2.918975276816622e+03
-1.156971503677666e+03 -3.055144643785073e+02 -2.918975276816622e+03
-1.156971908515984e+03 -3.065128870941944e+02 -2.918975276816622e+03
-1.156969857187672e+03 -3.075112993396841e+02 -2.918975276816622e+03
-1.156970033039772e+03 -3.085097048579403e+02 -2.918975276816622e+03
-1.156972073021550e+03 -3.095081180334495e+02 -2.918975276816622e+03
-1.156972504650235e+03 -3.105065402736546e+02 -2.918975276816622e+03
-1.156970875512017e+03 -3.115049575836186e+02 -2.918975276816622e+03
-1.156970405075855e+03 -3.125033653971246e+02 -2.918975276816622e+03
-1.156971202632199e+03 -3.135017775686039e+02 -2.918975276816622e+03
-1.156971380190083e+03 -3.145001918782292e+02 -2.918975276816622e+03
-1.156971416747449e+03 -3.154986049542541e+02 -2.918975276816622e+03
-1.156971508146193e+03 -3.164970185591583e+02 -2.918975276816622e+03
-1.156971673574771e+03 -3.174954317649429e+02 -2.918975276816622e+03
-1.156972008365620e+03 -3.184938461294344e+02 -2.918975276816622e+03
-1.156971721793288e+03 -3.194922617945298e+02 -2.918975276816622e+03
-1.156971246988738e+03 -3.204906733597964e+02 -2.918975276816622e+03
-1.156971878560650e+03 -3.214890842713911e+02 -2.918975276816622e+03
-1.156972735586651e+03 -3.224874998795004e+02 -2.918975276816622e+03
-1.156972435821369e+03 -3.234859167041610e+02 -2.918975276816622e+03
-1.156972139290959e+03 -3.244843296877874e+02 -2.918975276816622e+03
-1.156973237515990e+03 -3.254827426132293e+02 -2.918975276816622e+03
-1.156973402516357e+03 -3.264811624111978e+02 -2.918975276816622e+03
-1.156971877476221e+03 -3.274795753915529e+02 -2.918975276816622e+03
-1.156972538982162e+03 -3.284779817536265e+02 -2.918975276816622e+03
-1.156974372017705e+03 -3.294763990404111e+02 -2.918975276816622e+03
-1.156973912024048e+03 -3.304748186639906e+02 -2.918975276816622e+03
-1.156973309507627e+03 -3.314732301521767e+02 -2.918975276816622e+03
-1.156974223075468e+03 -3.324716424365545e+02 -2.918975276816622e+03
-1.156974874930690e+03 -3.334700591513703e+02 -2.918975276816622e+03
-1.156974884432631e+03 -3.344684745814504e+02 -2.918975276816622e+03
-1.156975259940927e+03 -3.354668889636593e+02 -2.918975276816622e+03
-1.156975686591367e+03 -3.364653047381535e+02 -2.918975276816622e+03
-1.156975819968721e+03 -3.374637196828846e+02 -2.918975276816622e+03
-1.156976550432039e+03 -3.384621334368506e+02 -2.918975276816622e+03
-1.156977657635644e+03 -3.394605508621953e+02 -2.918975276816622e+03
-1.156977658350400e+03 -3.404589698178700e+02 -2.918975276816622e+03
-1.156977537828642e+03 -3.414573833793651e+02 -2.918975276816622e+03
-1.156978922651873e+03 -3.424557970073014e+02 -2.918975276816622e+03
-1.156980275648740e+03 -3.434542166495849e+02 -2.918975276816622e+03
-1.156980521740284e+03 -3.444526359060927e+02 -2.918975276816622e+03
-1.156981037458368e+03 -3.454510519501021e+02 -2.918975276816622e+03
-1.156982407971467e+03 -3.464494688907970e+02 -2.918975276816622e+03
-1.156983914141882e+03 -3.474478887967840e+02 -2.918975276816622e+03
-1.156984723702453e+03 -3.484463101277232e+02 -2.918975276816622e+03
-1.156985496878509e+03 -3.494447281645589e+02 -2.918975276816622e+03
-1.156987950854918e+03 -3.504431462001098e+02 -2.918975276816622e+03
-1.156990430051172e+03 -3.514415726184280e+02 -2.918975276816622e+03
-1.156990786930874e+03 -3.524399987987702e+02 -2.918975276816622e+03
-1.156992393125837e+03 -3.534384161280258e+02 -2.918975276816622e+03
-1.156997087834037e+03 -3.544368394221513e+02 -2.918975276816622e+03
-1.157000349232558e+03 -3.554352753342763e+02 -2.918975276816622e+03
-1.157001183960865e+03 -3.564337070456208e+02 -2.918975276816622e+03
-1.157004631548029e+03 -3.574321303608653e+02 -2.918975276816622e+03
-1.157011571097058e+03 -3.584305619749892e+02 -2.918975276816622e+03
-1.157017384259202e+03 -3.594290072879471e+02 -2.918975276816622e+03
-1.157021366671594e+03 -3.604274528200758e+02 -2.918975276816622e+03
-1.157028095938486e+03 -3.614258932167675e+02 -2.918975276816622e+03
-1.157038763401594e+03 -3.624243398063074e+02 -2.918975276816622e+03
-1.157050396937173e+03 -3.634227977643254e+02 -2.918975276816622e+03
-1.157063301155940e+03 -3.644212595109895e+02 -2.918975276816622e+03
-1.157080724545092e+03 -3.654197190563282e+02 -2.918975276816622e+03
-1.157104186512781e+03 -3.664181716245588e+02 -2.918975276816622e+03
-1.157135398243786e+03 -3.674165984248775e+02 -2.918975276816622e+03
-1.157167667266678e+03 -3.684150039435414e+02 -2.918975276816622e+03
-1.157186550732492e+03 -3.694134556191319e+02 -2.918975276816622e+03
-1.157250125415191e+03 -3.704116318518810e+02 -2.918975276816622e+03
-1.157387593668436e+03 -3.714084872870829e+02 -2.918975276816622e+03
-1.157494637838201e+03 -3.724036269226725e+02 -2.918975276816622e+03
-1.157544395091989e+03 -3.733989932567726e+02 -2.918975276816622e+03
-1.157253254347385e+03 -3.744145363400247e+02 -2.918975276816622e+03
-1.156633283042690e+03 -3.754187229452140e+02 -2.918975276816622e+03
-1.157174359431441e+03 -3.764025419955289e+02 -2.918975276816622e+03
-1.158270425973951e+03 -3.774571230891441e+02 -2.918975276816622e+03
-1.158688760635107e+03 -3.778369082352980e+02 -2.918975276816622e+03
-1.158340290248881e+03 -3.793522994445032e+02 -2.918975276816622e+03
-1.158272319523733e+03 -3.803398706421969e+02 -2.918975276816622e+03
-1.157823687106932e+03 -3.815990189085887e+02 -2.918975276816622e+03
-1.157094115881114e+03 -3.818660545142471e+02 -2.918975276816622e+03
-1.158286380686286e+03 -3.831680434034147e+02 -2.918975276816622e+03
-1.159165968160722e+03 -3.847044552291666e+02 -2.918975276816622e+03
-1.157681273202850e+03 -3.855798112262142e+02 -2.918975276816622e+03
-1.159051098190914e+03  3.851964577063292e+02 -2.918975276816622e+03
-1.159882510469938e+03  3.849348343891556e+02 -2.918975276816622e+03
-1.158362757113871e+03  3.833145609789015e+02 -2.918975276816622e+03
-1.158253899256974e+03  3.818560921512849e+02 -2.918975276816622e+03
-1.157794237286650e+03  3.811151952614604e+02 -2.918975276816622e+03
-1.156257204106066e+03  3.801392069585782e+02 -2.918975276816622e+03
-1.156219707431135e+03  3.796065501836198e+02 -2.918975276816622e+03
-1.157006221575454e+03  3.783038515658920e+02 -2.918975276816622e+03
-1.157415574711031e+03  3.777825136160021e+02 -2.918975276816622e+03
-1.158341361613477e+03  3.763638926965249e+02 -2.918975276816622e+03
-1.157689071830309e+03  3.753955194077471e+02 -2.918975276816622e+03
-1.157442874348365e+03  3.744025078166533e+02 -2.918975276816622e+03
-1.157285974260303e+03  3.734056001645659e+02 -2.918975276816622e+03
-1.157091978968200e+03  3.724073543514396e+02 -2.918975276816622e+03
-1.157088200915272e+03  3.714093012293950e+02 -2.918975276816622e+03
-1.157156191344869e+03  3.704108531825993e+02 -2.918975276816622e+03
-1.157141646324064e+03  3.694125090571890e+02 -2.918975276816622e+03
-1.157105569247154e+03  3.684141863926827e+02 -2.918975276816622e+03
-1.157081565878756e+03  3.674158338068086e+02 -2.918975276816622e+03
-1.157067512445156e+03  3.664174656426353e+02 -2.918975276816622e+03
-1.157059156460864e+03  3.654190774155902e+02 -2.918975276816622e+03
-1.157044269840396e+03  3.644206783796965e+02 -2.918975276816622e+03
-1.157030163049923e+03  3.634223197677052e+02 -2.918975276816622e+03
-1.157039887806988e+03  3.624239347348097e+02 -2.918975276816622e+03
-1.157043747336939e+03  3.614254617954186e+02 -2.918975276816622e+03
-1.157017191221559e+03  3.604270395133010e+02 -2.918975276816622e+03
-1.157007006210143e+03  3.594287032700701e+02 -2.918975276816622e+03
-1.157020745933125e+03  3.584303010990404e+02 -2.918975276816622e+03
-1.157020360437727e+03  3.574318467860257e+02 -2.918975276816622e+03
-1.157011462431679e+03  3.564334261255607e+02 -2.918975276816622e+03
-1.157000924317770e+03  3.554350137612943e+02 -2.918975276816622e+03
-1.156993165810627e+03  3.544366554019517e+02 -2.918975276816622e+03
-1.157009673870067e+03  3.534382742987611e+02 -2.918975276816622e+03
-1.157018619177194e+03  3.524397755419552e+02 -2.918975276816622e+03
-1.156993329043714e+03  3.514413320846182e+02 -2.918975276816622e+03
-1.156984631300447e+03  3.504430068925852e+02 -2.918975276816622e+03
-1.157002313687691e+03  3.494446107048167e+02 -2.918975276816622e+03
-1.157003248150242e+03  3.484461435250387e+02 -2.918975276816622e+03
-1.156993377815626e+03  3.474477307868867e+02 -2.918975276816622e+03
-1.156992247019299e+03  3.464493335842682e+02 -2.918975276816622e+03
-1.156992954492347e+03  3.454509216343334e+02 -2.918975276816622e+03
-1.156992400401459e+03  3.444525109059609e+02 -2.918975276816622e+03
-1.156992552194813e+03  3.434540965932033e+02 -2.918975276816622e+03
-1.156991343673573e+03  3.424556788598125e+02 -2.918975276816622e+03
-1.156989008058114e+03  3.414572690835589e+02 -2.918975276816622e+03
-1.156989133052819e+03  3.404588644520829e+02 -2.918975276816622e+03
-1.156990921567747e+03  3.394604488192057e+02 -2.918975276816622e+03
-1.156989881075797e+03  3.384620262829877e+02 -2.918975276816622e+03
-1.156986873314031e+03  3.374636154392540e+02 -2.918975276816622e+03
-1.156986829881669e+03  3.364652129042327e+02 -2.918975276816622e+03
-1.156988940901919e+03  3.354667986720782e+02 -2.918975276816622e+03
-1.156988188554738e+03  3.344683760633512e+02 -2.918975276816622e+03
-1.156985642214863e+03  3.334699652912122e+02 -2.918975276816622e+03
-1.156985907248088e+03  3.324715604193292e+02 -2.918975276816622e+03
-1.156987255583966e+03  3.314731443605942e+02 -2.918975276816622e+03
-1.156986204322772e+03  3.304747262738356e+02 -2.918975276816622e+03
-1.156985003860715e+03  3.294763164982821e+02 -2.918975276816622e+03
-1.156985457902842e+03  3.284779060332181e+02 -2.918975276816622e+03
-1.156985738299159e+03  3.274794910167738e+02 -2.918975276816622e+03
-1.156985116900553e+03  3.264810767751172e+02 -2.918975276816622e+03
-1.156984476717332e+03  3.254826651504926e+02 -2.918975276816622e+03
-1.156984617553491e+03  3.244842540638273e+02 -2.918975276816622e+03
-1.156985037459539e+03  3.234858391700295e+02 -2.918975276816622e+03
-1.156984277681712e+03  3.224874232117953e+02 -2.918975276816622e+03
-1.156983372703218e+03  3.214890131592039e+02 -2.918975276816622e+03
-1.156983936845908e+03  3.204906031591312e+02 -2.918975276816622e+03
-1.156984387244182e+03  3.194921872175296e+02 -2.918975276816622e+03
-1.156983664355350e+03  3.184937723724631e+02 -2.918975276816622e+03
-1.156983242141651e+03  3.174953611777673e+02 -2.918975276816622e+03
-1.156983458761682e+03  3.164969486837828e+02 -2.918975276816622e+03
-1.156983372272246e+03  3.154985350735141e+02 -2.918975276816622e+03
-1.156983232792717e+03  3.145001226590732e+02 -2.918975276816622e+03
-1.156983381277092e+03  3.135017091529246e+02 -2.918975276816622e+03
-1.156982540676785e+03  3.125032942570616e+02 -2.918975276816622e+03
-1.156981581153874e+03  3.115048869540219e+02 -2.918975276816622e+03
-1.156981496345321e+03  3.105064798961362e+02 -2.918975276816622e+03
-1.156983100661773e+03  3.095080728961971e+02 -2.918975276816622e+03
-1.156989244243061e+03  3.085096503905056e+02 -2.918975276816622e+03
-1.156987628271288e+03  3.075111914268400e+02 -2.918975276816622e+03
-1.156973247741456e+03  3.065127833230212e+02 -2.918975276816622e+03
-1.156973053036526e+03  3.055144395961117e+02 -2.918975276816622e+03
-1.156987270823480e+03  3.045160307927526e+02 -2.918975276816622e+03
-1.156988472786677e+03  3.035175717046527e+02 -2.918975276816622e+03
-1.156982196361044e+03  3.025191528630643e+02 -2.918975276816622e+03
-1.156981546610830e+03  3.015207458710253e+02 -2.918975276816622e+03
-1.156981434852189e+03  3.005223320014118e+02 -2.918975276816622e+03
-1.156981105281093e+03  2.995239247360732e+02 -2.918975276816622e+03
-1.156981750819818e+03  2.985255131324632e+02 -2.918975276816622e+03
-1.156981739833598e+03  2.975270994258140e+02 -2.918975276816622e+03
-1.156981586546647e+03  2.965286869862165e+02 -2.918975276816622e+03
-1.156981538958518e+03  2.955302740314110e+02 -2.918975276816622e+03
-1.156981614164147e+03  2.945318614996978e+02 -2.918975276816622e+03
-1.156981483267800e+03  2.935334479262868e+02 -2.918975276816622e+03
-1.156980771359217e+03  2.925350364565026e+02 -2.918975276816622e+03
-1.156980883369755e+03  2.915366283603165e+02 -2.918975276816622e+03
-1.156982107715271e+03  2.905382149920270e+02 -2.918975276816622e+03
-1.156982571552671e+03  2.895397958844385e+02 -2.918975276816622e+03
-1.156981903417578e+03  2.885413786688905e+02 -2.918975276816622e+03
-1.156980832733374e+03  2.875429646891042e+02 -2.918975276816622e+03
-1.156980088300262e+03  2.865445559554358e+02 -2.918975276816622e+03
-1.156980930059289e+03  2.855461486142098e+02 -2.918975276816622e+03
-1.156982016149573e+03  2.845477324738359e+02 -2.918975276816622e+03
-1.156981624025559e+03  2.835493149074929e+02 -2.918975276816622e+03
-1.156980750959876e+03  2.825509021672025e+02 -2.918975276816622e+03
-1.156980500023480e+03  2.815524917793237e+02 -2.918975276816622e+03
-1.156981124004845e+03  2.805540803037575e+02 -2.918975276816622e+03
-1.156981851004055e+03  2.795556643379600e+02 -2.918975276816622e+03
-1.156981600711681e+03  2.785572461949959e+02 -2.918975276816622e+03
-1.156980528082056e+03  2.775588315383600e+02 -2.918975276816622e+03
-1.156979723736694e+03  2.765604224693678e+02 -2.918975276816622e+03
-1.156979696093987e+03  2.755620149830556e+02 -2.918975276816622e+03
-1.156980416785455e+03  2.745636058054808e+02 -2.918975276816622e+03
-1.156981423561770e+03  2.735651911791113e+02 -2.918975276816622e+03
-1.156981633912470e+03  2.725667728572687e+02 -2.918975276816622e+03
-1.156980665920471e+03  2.715683567353811e+02 -2.918975276816622e+03
-1.156979899347154e+03  2.705699465666305e+02 -2.918975276816622e+03
-1.156980553388587e+03  2.695715365012276e+02 -2.918975276816622e+03
-1.156981499801424e+03  2.685731205532822e+02 -2.918975276816622e+03
-1.156980976650095e+03  2.675747020429424e+02 -2.918975276816622e+03
-1.156979422876439e+03  2.665762901061952e+02 -2.918975276816622e+03
-1.156979383804431e+03  2.655778851615439e+02 -2.918975276816622e+03
-1.156980863621563e+03  2.645794732309472e+02 -2.918975276816622e+03
-1.156981345128608e+03  2.635810547892502e+02 -2.918975276816622e+03
-1.156980363539144e+03  2.625826387646234e+02 -2.918975276816622e+03
-1.156979616488794e+03  2.615842285903177e+02 -2.918975276816622e+03
-1.156980290527981e+03  2.605858185268478e+02 -2.918975276816622e+03
-1.156981226322318e+03  2.595874024668759e+02 -2.918975276816622e+03
-1.156980971883729e+03  2.585889840253301e+02 -2.918975276816622e+03
-1.156979878033419e+03  2.575905693779432e+02 -2.918975276816622e+03
-1.156979088328568e+03  2.565921603012217e+02 -2.918975276816622e+03
-1.156979069202930e+03  2.555937528021904e+02 -2.918975276816622e+03
-1.156979797517723e+03  2.545953436284280e+02 -2.918975276816622e+03
-1.156980815863167e+03  2.535969289975975e+02 -2.918975276816622e+03
-1.156981037267758e+03  2.525985106508099e+02 -2.918975276816622e+03
-1.156980077583589e+03  2.516000945085045e+02 -2.918975276816622e+03
-1.156979319750984e+03  2.506016843361386e+02 -2.918975276816622e+03
-1.156979995660379e+03  2.496032742698299e+02 -2.918975276816622e+03
-1.156980932195781e+03  2.486048582005722e+02 -2.918975276816622e+03
-1.156980678379469e+03  2.476064397529611e+02 -2.918975276816622e+03
-1.156979586432224e+03  2.466080251018403e+02 -2.918975276816622e+03
-1.156978798755206e+03  2.456096160217956e+02 -2.918975276816622e+03
-1.156978781810652e+03  2.446112085220824e+02 -2.918975276816622e+03
-1.156979512749350e+03  2.436127993441332e+02 -2.918975276816622e+03
-1.156980532210147e+03  2.426143847034078e+02 -2.918975276816622e+03
-1.156980753188577e+03  2.416159663507250e+02 -2.918975276816622e+03
-1.156979793607250e+03  2.406175502071096e+02 -2.918975276816622e+03
-1.156979036932237e+03  2.396191400322684e+02 -2.918975276816622e+03
-1.156979701769880e+03  2.386207299569610e+02 -2.918975276816622e+03
-1.156980657152813e+03  2.376223139876718e+02 -2.918975276816622e+03
-1.156980141831133e+03  2.366238954556553e+02 -2.918975276816622e+03
-1.156978596817599e+03  2.356254835067594e+02 -2.918975276816622e+03
-1.156978566679429e+03  2.346270785567607e+02 -2.918975276816622e+03
-1.156980054017559e+03  2.336286666146351e+02 -2.918975276816622e+03
-1.156980542672753e+03  2.326302481567195e+02 -2.918975276816622e+03
-1.156979568856976e+03  2.316318321164009e+02 -2.918975276816622e+03
-1.156978829479604e+03  2.306334219312376e+02 -2.918975276816622e+03
-1.156979510752116e+03  2.296350118585357e+02 -2.918975276816622e+03
-1.156980453107504e+03  2.286365957825441e+02 -2.918975276816622e+03
-1.156980204587860e+03  2.276381773231226e+02 -2.918975276816622e+03
-1.156979116588975e+03  2.266397626627908e+02 -2.918975276816622e+03
-1.156978332876039e+03  2.256413535803738e+02 -2.918975276816622e+03
-1.156978320614194e+03  2.246429460770554e+02 -2.918975276816622e+03
-1.156979054989473e+03  2.236445368899312e+02 -2.918975276816622e+03
-1.156980076196306e+03  2.226461222435542e+02 -2.918975276816622e+03
-1.156980300526197e+03  2.216477038899207e+02 -2.918975276816622e+03
-1.156979346052068e+03  2.206492877368046e+02 -2.918975276816622e+03
-1.156978592180268e+03  2.196508775473888e+02 -2.918975276816622e+03
-1.156979257773486e+03  2.186524674686852e+02 -2.918975276816622e+03
-1.156980216096374e+03  2.176540515011863e+02 -2.918975276816622e+03
-1.156979705056999e+03  2.166556329596996e+02 -2.918975276816622e+03
-1.156978162381265e+03  2.156572209996230e+02 -2.918975276816622e+03
-1.156978134316001e+03  2.146588160491376e+02 -2.918975276816622e+03
-1.156979624833031e+03  2.136604041027040e+02 -2.918975276816622e+03
-1.156980115524218e+03  2.126619856337142e+02 -2.918975276816622e+03
-1.156979143191586e+03  2.116635695886621e+02 -2.918975276816622e+03
-1.156978406830016e+03  2.106651594023172e+02 -2.918975276816622e+03
-1.156979091180998e+03  2.096667493231539e+02 -2.918975276816622e+03
-1.156980035102202e+03  2.086683332384697e+02 -2.918975276816622e+03
-1.156979788046704e+03  2.076699147742815e+02 -2.918975276816622e+03
-1.156978702972121e+03  2.066715001104050e+02 -2.918975276816622e+03
-1.156977922274040e+03  2.056730910197001e+02 -2.918975276816622e+03
-1.156977911103977e+03  2.046746835084235e+02 -2.918975276816622e+03
-1.156978646295070e+03  2.036762743220058e+02 -2.918975276816622e+03
-1.156979670495234e+03  2.026778596757296e+02 -2.918975276816622e+03
-1.156979898048872e+03  2.016794413104575e+02 -2.918975276816622e+03
-1.156978944366194e+03  2.006810251444518e+02 -2.918975276816622e+03
-1.156978190944580e+03  1.996826149548431e+02 -2.918975276816622e+03
-1.156978858699867e+03  1.986842048784718e+02 -2.918975276816622e+03
-1.156979819446229e+03  1.976857889066979e+02 -2.918975276816622e+03
-1.156979310969401e+03  1.966873703581117e+02 -2.918975276816622e+03
-1.156977770638673e+03  1.956889583865442e+02 -2.918975276816622e+03
-1.156977742776156e+03  1.946905534282575e+02 -2.918975276816622e+03
-1.156979233631936e+03  1.936921414845930e+02 -2.918975276816622e+03
-1.156979727388915e+03  1.926937230146052e+02 -2.918975276816622e+03
-1.156978757738761e+03  1.916953069570087e+02 -2.918975276816622e+03
-1.156978021346705e+03  1.906968967625284e+02 -2.918975276816622e+03
-1.156978705986194e+03  1.896984866873501e+02 -2.918975276816622e+03
-1.156979653015138e+03  1.887000706036400e+02 -2.918975276816622e+03
-1.156979409214294e+03  1.877016521265270e+02 -2.918975276816622e+03
-1.156978324237164e+03  1.867032374479100e+02 -2.918975276816622e+03
-1.156977542490387e+03  1.857048283575377e+02 -2.918975276816622e+03
-1.156977533348210e+03  1.847064208548980e+02 -2.918975276816622e+03
-1.156978272954709e+03  1.837080116642960e+02 -2.918975276816622e+03
-1.156979298736066e+03  1.827095969999087e+02 -2.918975276816622e+03
-1.156979524499896e+03  1.817111786262615e+02 -2.918975276816622e+03
-1.156978571338892e+03  1.807127624662172e+02 -2.918975276816622e+03
-1.156977821507050e+03  1.797143522757792e+02 -2.918975276816622e+03
-1.156978491446621e+03  1.787159421884216e+02 -2.918975276816622e+03
-1.156979452089442e+03  1.777175262075569e+02 -2.918975276816622e+03
-1.156978943304679e+03  1.767191076565298e+02 -2.918975276816622e+03
-1.156977404584667e+03  1.757206956881153e+02 -2.918975276816622e+03
-1.156977380264353e+03  1.747222907270636e+02 -2.918975276816622e+03
-1.156978872731419e+03  1.737238787685490e+02 -2.918975276816622e+03
-1.156979364803363e+03  1.727254602896078e+02 -2.918975276816622e+03
-1.156978395028296e+03  1.717270442382921e+02 -2.918975276816622e+03
-1.156977662495548e+03  1.707286340460052e+02 -2.918975276816622e+03
-1.156978350032212e+03  1.697302239561999e+02 -2.918975276816622e+03
-1.156979295552274e+03  1.687318078593683e+02 -2.918975276816622e+03
-1.156979050294748e+03  1.677333893868799e+02 -2.918975276816622e+03
-1.156977968392199e+03  1.667349747152886e+02 -2.918975276816622e+03
-1.156977190958931e+03  1.657365656140344e+02 -2.918975276816622e+03
-1.156977181872560e+03  1.647381580928643e+02 -2.918975276816622e+03
-1.156977918970310e+03  1.637397489001743e+02 -2.918975276816622e+03
-1.156978945677226e+03  1.627413342453130e+02 -2.918975276816622e+03
-1.156979174941237e+03  1.617429158681679e+02 -2.918975276816622e+03
-1.156978222977250e+03  1.607444996953276e+02 -2.918975276816622e+03
-1.156977473234894e+03  1.597460894998713e+02 -2.918975276816622e+03
-1.156978144022040e+03  1.587476794089052e+02 -2.918975276816622e+03
-1.156979105347429e+03  1.577492634239278e+02 -2.918975276816622e+03
-1.156978597796257e+03  1.567508448689067e+02 -2.918975276816622e+03
-1.156977059944483e+03  1.557524328928353e+02 -2.918975276816622e+03
-1.156977035286518e+03  1.547540279302860e+02 -2.918975276816622e+03
-1.156978529251191e+03  1.537556159754264e+02 -2.918975276816622e+03
-1.156979024388838e+03  1.527571974881643e+02 -2.918975276816622e+03
-1.156978054637594e+03  1.517587814203011e+02 -2.918975276816622e+03
-1.156977320368986e+03  1.507603712267641e+02 -2.918975276816622e+03
-1.156978009300132e+03  1.497619611438791e+02 -2.918975276816622e+03
-1.156978957690414e+03  1.487635450409823e+02 -2.918975276816622e+03
-1.156978713155263e+03  1.477651265562564e+02 -2.918975276816622e+03
-1.156977630573811e+03  1.467667118781391e+02 -2.918975276816622e+03
-1.156976853287019e+03  1.457683027778590e+02 -2.918975276816622e+03
-1.156976846070109e+03  1.447698952574862e+02 -2.918975276816622e+03
-1.156977585186680e+03  1.437714860574180e+02 -2.918975276816622e+03
-1.156978611991485e+03  1.427730713920016e+02 -2.918975276816622e+03
-1.156978840711639e+03  1.417746530108462e+02 -2.918975276816622e+03
-1.156977889628828e+03  1.407762368370652e+02 -2.918975276816622e+03
-1.156977141029990e+03  1.397778266374590e+02 -2.918975276816622e+03
-1.156977812557136e+03  1.387794165434100e+02 -2.918975276816622e+03
-1.156978774898414e+03  1.377810005537258e+02 -2.918975276816622e+03
-1.156978268037191e+03  1.367825819914799e+02 -2.918975276816622e+03
-1.156976730978294e+03  1.357841700102192e+02 -2.918975276816622e+03
-1.156976707322216e+03  1.347857650416401e+02 -2.918975276816622e+03
-1.156978200884040e+03  1.337873530802754e+02 -2.918975276816622e+03
-1.156978695374933e+03  1.327889345937920e+02 -2.918975276816622e+03
-1.156977728098138e+03  1.317905185287208e+02 -2.918975276816622e+03
-1.156976996721666e+03  1.307921083217433e+02 -2.918975276816622e+03
-1.156977683932005e+03  1.297936982240195e+02 -2.918975276816622e+03
-1.156978630703200e+03  1.287952821271105e+02 -2.918975276816622e+03
-1.156978389347866e+03  1.277968636448085e+02 -2.918975276816622e+03
-1.156977308910570e+03  1.267984489512648e+02 -2.918975276816622e+03
-1.156976530392659e+03  1.258000398420985e+02 -2.918975276816622e+03
-1.156976523350665e+03  1.248016323221217e+02 -2.918975276816622e+03
-1.156977263643451e+03  1.238032231171305e+02 -2.918975276816622e+03
-1.156978290533178e+03  1.228048084472924e+02 -2.918975276816622e+03
-1.156978520160573e+03  1.218063900639917e+02 -2.918975276816622e+03
-1.156977570743376e+03  1.208079738821588e+02 -2.918975276816622e+03
-1.156976822528632e+03  1.198095636720378e+02 -2.918975276816622e+03
-1.156977493380989e+03  1.188111535727852e+02 -2.918975276816622e+03
-1.156978456220732e+03  1.178127375828860e+02 -2.918975276816622e+03
-1.156977951173514e+03  1.168143190145980e+02 -2.918975276816622e+03
-1.156976414786515e+03  1.158159070221852e+02 -2.918975276816622e+03
-1.156976390964773e+03  1.148175020481508e+02 -2.918975276816622e+03
-1.156977884808394e+03  1.138190900829995e+02 -2.918975276816622e+03
-1.156978379658279e+03  1.128206715924225e+02 -2.918975276816622e+03
-1.156977413177249e+03  1.118222555238778e+02 -2.918975276816622e+03
-1.156976683456108e+03  1.108238453112506e+02 -2.918975276816622e+03
-1.156977372311214e+03  1.098254352022530e+02 -2.918975276816622e+03
-1.156978319768217e+03  1.088270190902495e+02 -2.918975276816622e+03
-1.156978077996325e+03  1.078286005937826e+02 -2.918975276816622e+03
-1.156976994996502e+03  1.068301858921812e+02 -2.918975276816622e+03
-1.156976215528830e+03  1.058317767957459e+02 -2.918975276816622e+03
-1.156976213745826e+03  1.048333692824222e+02 -2.918975276816622e+03
-1.156976958055121e+03  1.038349600544589e+02 -2.918975276816622e+03
-1.156977985347062e+03  1.028365453654282e+02 -2.918975276816622e+03
-1.156978215987807e+03  1.018381269615966e+02 -2.918975276816622e+03
-1.156977263405019e+03  1.008397107574013e+02 -2.918975276816622e+03
-1.156976513219135e+03  9.984130055802794e+01 -2.918975276816622e+03
-1.156977190559674e+03  9.884289046041921e+01 -2.918975276816622e+03
-1.156978159907148e+03  9.784447443906203e+01 -2.918975276816622e+03
-1.156977629867683e+03  9.684605583778065e+01 -2.918975276816622e+03
-1.156976063023425e+03  9.584764406833263e+01 -2.918975276816622e+03
-1.156976193570001e+03  9.484923933037389e+01 -2.918975276816622e+03
-1.156977841158575e+03  9.385082625432970e+01 -2.918975276816622e+03
-1.156978328511311e+03  9.285240663159725e+01 -2.918975276816622e+03
-1.156976968939920e+03  9.185398917837946e+01 -2.918975276816622e+03
-1.156975617192289e+03  9.085558108887786e+01 -2.918975276816622e+03
-1.156976828502303e+03  8.985717570179344e+01 -2.918975276816622e+03
-1.156978531090915e+03  8.885875739383420e+01 -2.918975276816622e+03
-1.156977911755570e+03  8.786033652087909e+01 -2.918975276816622e+03
-1.156976681437143e+03  8.686192280575783e+01 -2.918975276816622e+03
-1.156976078176841e+03  8.586351329381506e+01 -2.918975276816622e+03
-1.156975972301455e+03  8.486510535856002e+01 -2.918975276816622e+03
-1.156977117709538e+03  8.386669599602725e+01 -2.918975276816622e+03
-1.156978220776261e+03  8.286827767821549e+01 -2.918975276816622e+03
-1.156977271354588e+03  8.186985864054614e+01 -2.918975276816622e+03
-1.156976299255066e+03  8.087144843444553e+01 -2.918975276816622e+03
-1.156976793522133e+03  7.987303746698105e+01 -2.918975276816622e+03
-1.156977510084823e+03  7.887462290717146e+01 -2.918975276816622e+03
-1.156977230393895e+03  7.787620603961670e+01 -2.918975276816622e+03
-1.156971510071317e+03  7.687779137881988e+01 -2.918975276816622e+03
-1.157020572190433e+03  7.587936160289600e+01 -2.918975276816622e+03
-1.157032712878142e+03  7.488054589106726e+01 -2.918975276816622e+03
-1.156770491007153e+03  7.388175649926799e+01 -2.918975276816622e+03
-1.156766293441825e+03  7.288521277978707e+01 -2.918975276816622e+03
-1.157315731403678e+03  7.188632600353358e+01 -2.918975276816622e+03
-1.157309179345432e+03  7.088582805420324e+01 -2.918975276816622e+03
-1.156579635120157e+03  6.988702730977681e+01 -2.918975276816622e+03
-1.156597695529084e+03  6.889252485170559e+01 -2.918975276816622e+03
-1.157206253984849e+03  6.789304505263037e+01 -2.918975276816622e+03
-1.157223472411377e+03  6.689379998163395e+01 -2.918975276816622e+03
-1.156974541167510e+03  6.589440970399009e+01 -2.918975276816622e+03
-1.156725488336474e+03  6.489585093074801e+01 -2.918975276816622e+03
-1.156770258032324e+03  6.389949538192686e+01 -2.918975276816622e+03
-1.157316277560917e+03  6.290059743644419e+01 -2.918975276816622e+03
-1.157309761345722e+03  6.190011341158410e+01 -2.918975276816622e+03
-1.156579712294722e+03  6.090129876578241e+01 -2.918975276816622e+03
-1.156596063395500e+03  5.990680469451429e+01 -2.918975276816622e+03
-1.157205151856963e+03  5.890733425688740e+01 -2.918975276816622e+03
-1.157221042803757e+03  5.790807064764344e+01 -2.918975276816622e+03
-1.157025307011142e+03  5.690893703392740e+01 -2.918975276816622e+03
-1.156744906970890e+03  5.590824196346752e+01 -2.918975276816622e+03
-1.156514951101214e+03  5.491747396215131e+01 -2.918975276816622e+03
-1.157289034738938e+03  5.391093990735410e+01 -2.918975276816622e+03
-1.157657563215150e+03  5.291958825889510e+01 -2.918975276816622e+03
-1.156760740549498e+03  5.191340321974733e+01 -2.918975276816622e+03
-1.155926612811982e+03  5.092058216680260e+01 -2.918975276816622e+03
-1.157218909050559e+03  4.992822888520095e+01 -2.918975276816622e+03
-1.157566247536352e+03  4.891927799507923e+01 -2.918975276816622e+03
-1.156789893978760e+03  4.792730867258477e+01 -2.918975276816622e+03
-1.156511916693782e+03  4.692597388076560e+01 -2.918975276816622e+03
-1.157320074713940e+03  4.592863600055497e+01 -2.918975276816622e+03
-1.157331106346848e+03  4.492724584237713e+01 -2.918975276816622e+03
-1.156573781710891e+03  4.392814691663372e+01 -2.918975276816622e+03
-1.156596641316157e+03  4.293378229141353e+01 -2.918975276816622e+03
-1.157208820070301e+03  4.193430465689159e+01 -2.918975276816622e+03
-1.157198013806140e+03  4.093491720040277e+01 -2.918975276816622e+03
-1.156918039580517e+03  3.993609374364358e+01 -2.918975276816622e+03
-1.156933876935379e+03  3.893817873079757e+01 -2.918975276816622e+03
-1.156982852867997e+03  3.793968353865447e+01 -2.918975276816622e+03
-1.156977504789550e+03  3.694126433517874e+01 -2.918975276816622e+03
-1.156976251148489e+03  3.594284977447504e+01 -2.918975276816622e+03
-1.156974951525960e+03  3.494443928395342e+01 -2.918975276816622e+03
-1.156975304506604e+03  3.394603510027247e+01 -2.918975276816622e+03
-1.156977022026784e+03  3.294762069228422e+01 -2.918975276816622e+03
-1.156976443796456e+03  3.194920188546964e+01 -2.918975276816622e+03
-1.156975248184980e+03  3.095079217825392e+01 -2.918975276816622e+03
-1.156975896621243e+03  2.995238263851880e+01 -2.918975276816622e+03
-1.156976641172639e+03  2.895396719220866e+01 -2.918975276816622e+03
-1.156975865274408e+03  2.795555144002128e+01 -2.918975276816622e+03
-1.156975134706612e+03  2.695714303613112e+01 -2.918975276816622e+03
-1.156976175558944e+03  2.595873355595397e+01 -2.918975276816622e+03
-1.156977029397460e+03  2.496031570273188e+01 -2.918975276816622e+03
-1.156976357574359e+03  2.396189901611374e+01 -2.918975276816622e+03
-1.156975064491277e+03  2.296348760621069e+01 -2.918975276816622e+03
-1.156975450858571e+03  2.196508252464394e+01 -2.918975276816622e+03
-1.156981142978409e+03  2.096667030467494e+01 -2.918975276816622e+03
-1.156937079175039e+03  1.996819566074860e+01 -2.918975276816622e+03
-1.156881476525079e+03  1.897043782196373e+01 -2.918975276816622e+03
-1.157163817301740e+03  1.797083482291338e+01 -2.918975276816622e+03
-1.157335205001249e+03  1.697413383822198e+01 -2.918975276816622e+03
-1.156826387413140e+03  1.596745584283162e+01 -2.918975276816622e+03
-1.156202787104396e+03  1.497991362519702e+01 -2.918975276816622e+03
-1.157036645349355e+03  1.398080844044068e+01 -2.918975276816622e+03
-1.157555494214143e+03  1.297776397900927e+01 -2.918975276816622e+03
-1.157188700407972e+03  1.198251678394000e+01 -2.918975276816622e+03
-1.156554457226688e+03  1.097894071357349e+01 -2.918975276816622e+03
-1.156848374890557e+03  9.986248131633504e+00 -2.918975276816622e+03
-1.157057614539370e+03  8.985670336918421e+00 -2.918975276816622e+03
-1.156856767319127e+03  7.987754508559662e+00 -2.918975276816622e+03
-1.156894518217015e+03  6.989849572459115e+00 -2.918975276816622e+03
-1.157351567989597e+03  5.990379066626388e+00 -2.918975276816622e+03
-1.157422236299917e+03  4.993922500922451e+00 -2.918975276816622e+03
-1.156566840677434e+03  3.983251530719419e+00 -2.918975276816622e+03
-1.155911199491318e+03  3.005576875191911e+00 -2.918975276816622e+03
-1.156880633866402e+03  2.007098764685702e+00 -2.918975276816622e+03
-1.157701497987495e+03  9.899141482156756e-01 -2.918975276816622e+03
1.153126166603205e+03 1.885264625023865e-02 2.918975276816622e+03
 1.154303216843682e+03 -9.992254004817890e-01  2.918975276816622e+03
 1.154844818033097e+03 -2.001631684246036e+00  2.918975276816622e+03
 1.154459074155896e+03 -2.993250920327968e+00  2.918975276816622e+03
 1.153556319415373e+03 -4.001623465195290e+00  2.918975276816622e+03
 1.153645576880431e+03 -4.990067037038340e+00  2.918975276816622e+03
 1.154179393317942e+03 -5.988767711253767e+00  2.918975276816622e+03
 1.154231326024560e+03 -6.989071724200279e+00  2.918975276816622e+03
 1.154025387757498e+03 -7.986877108815382e+00  2.918975276816622e+03
 1.154243924759876e+03 -8.986358244291125e+00  2.918975276816622e+03
 1.154437567095967e+03 -9.983071740962625e+00  2.918975276816622e+03
 1.153950725606808e+03 -1.098941041767974e+01  2.918975276816622e+03
 1.153331434340686e+03 -1.197696491491084e+01  2.918975276816622e+03
 1.154158378225257e+03 -1.297636484042887e+01  2.918975276816622e+03
 1.154666457872906e+03 -1.397942764460730e+01  2.918975276816622e+03
 1.154298753531545e+03 -1.497467949156434e+01  2.918975276816622e+03
 1.153670039892302e+03 -1.597807930128997e+01  2.918975276816622e+03
 1.153948619119641e+03 -1.697084549928258e+01  2.918975276816622e+03
 1.154195921053666e+03 -1.797127034771902e+01  2.918975276816622e+03
 1.154123770425239e+03 -1.896982791679906e+01  2.918975276816622e+03
 1.154080564891816e+03 -1.996822025054680e+01  2.918975276816622e+03
 1.154096343218039e+03 -2.096664277250110e+01  2.918975276816622e+03
 1.154090945323275e+03 -2.196509769971271e+01  2.918975276816622e+03
 1.154084311014996e+03 -2.296347605308162e+01  2.918975276816622e+03
 1.154093526900769e+03 -2.396187322831337e+01  2.918975276816622e+03
 1.154094813491579e+03 -2.496032477090847e+01  2.918975276816622e+03
 1.154088232002063e+03 -2.595873412207712e+01  2.918975276816622e+03
 1.154089309150251e+03 -2.695712964018854e+01  2.918975276816622e+03
 1.154091467696884e+03 -2.795554876391741e+01  2.918975276816622e+03
 1.154090529752966e+03 -2.895396389122223e+01  2.918975276816622e+03
 1.154090638425258e+03 -2.995237448867472e+01  2.918975276816622e+03
 1.154091181935832e+03 -3.095079046006499e+01  2.918975276816622e+03
 1.154090516275810e+03 -3.194920620714763e+01  2.918975276816622e+03
 1.154090468877878e+03 -3.294761668382753e+01  2.918975276816622e+03
 1.154090895959159e+03 -3.394603177198430e+01  2.918975276816622e+03
 1.154090059926924e+03 -3.494444610793651e+01  2.918975276816622e+03
 1.154090114729777e+03 -3.594285335045397e+01  2.918975276816622e+03
 1.154090962664732e+03 -3.694126753446069e+01  2.918975276816622e+03
 1.154090547976394e+03 -3.793968246582310e+01  2.918975276816622e+03
 1.154090723744248e+03 -3.893809309652422e+01  2.918975276816622e+03
 1.154091370850247e+03 -3.993650900351867e+01  2.918975276816622e+03
 1.154090700945940e+03 -4.093492471894071e+01  2.918975276816622e+03
 1.154090594271021e+03 -4.193333506855905e+01  2.918975276816622e+03
 1.154091533587284e+03 -4.293175015421387e+01  2.918975276816622e+03
 1.154091001945414e+03 -4.393016862885768e+01  2.918975276816622e+03
 1.154089511023446e+03 -4.492857873979833e+01  2.918975276816622e+03
 1.154089543767729e+03 -4.592698371297072e+01  2.918975276816622e+03
 1.154091057034802e+03 -4.692539391678558e+01  2.918975276816622e+03
 1.154091579736453e+03 -4.792381228847507e+01  2.918975276816622e+03
 1.154090702472653e+03 -4.892222719459944e+01  2.918975276816622e+03
 1.154090893646117e+03 -4.992063769905089e+01  2.918975276816622e+03
 1.154091549326239e+03 -5.091905361608551e+01  2.918975276816622e+03
 1.154090883598276e+03 -5.191746931526655e+01  2.918975276816622e+03
 1.154090784064821e+03 -5.291587974671398e+01  2.918975276816622e+03
 1.154091266099157e+03 -5.391429479538036e+01  2.918975276816622e+03
 1.154090430407348e+03 -5.491270909436984e+01  2.918975276816622e+03
 1.154090433731395e+03 -5.591111630381069e+01  2.918975276816622e+03
 1.154091283507022e+03 -5.690953046117900e+01  2.918975276816622e+03
 1.154090870272425e+03 -5.790794536573486e+01  2.918975276816622e+03
 1.154091049010013e+03 -5.890635597785332e+01  2.918975276816622e+03
 1.154091696254820e+03 -5.990477187651856e+01  2.918975276816622e+03
 1.154091024421801e+03 -6.090318756867294e+01  2.918975276816622e+03
 1.154090919879151e+03 -6.190159788828861e+01  2.918975276816622e+03
 1.154091863410848e+03 -6.290001296120195e+01  2.918975276816622e+03
 1.154091332889870e+03 -6.389843143493604e+01  2.918975276816622e+03
 1.154089840269874e+03 -6.489684153840000e+01  2.918975276816622e+03
 1.154089872490844e+03 -6.589524649070235e+01  2.918975276816622e+03
 1.154091388192375e+03 -6.689365667467884e+01  2.918975276816622e+03
 1.154091914051071e+03 -6.789207503874401e+01  2.918975276816622e+03
 1.154091037639655e+03 -6.889048994629285e+01  2.918975276816622e+03
 1.154091227143745e+03 -6.988890044517750e+01  2.918975276816622e+03
 1.154091882782205e+03 -7.088731634283482e+01  2.918975276816622e+03
 1.154091219174686e+03 -7.188573202979565e+01  2.918975276816622e+03
 1.154091120649811e+03 -7.288414245437667e+01  2.918975276816622e+03
 1.154091604019473e+03 -7.388255749272624e+01  2.918975276816622e+03
 1.154090769476515e+03 -7.488097179007241e+01  2.918975276816622e+03
 1.154090772093279e+03 -7.587937899362065e+01  2.918975276816622e+03
 1.154091623064887e+03 -7.687779313682211e+01  2.918975276816622e+03
 1.154091211330866e+03 -7.787620803902036e+01  2.918975276816622e+03
 1.154091388851731e+03 -7.887461864337504e+01  2.918975276816622e+03
 1.154092037748862e+03 -7.987303452237653e+01  2.918975276816622e+03
 1.154091369343376e+03 -8.087145021445967e+01  2.918975276816622e+03
 1.154091263832585e+03 -8.186986053806847e+01  2.918975276816622e+03
 1.154092206716861e+03 -8.286827559577317e+01  2.918975276816622e+03
 1.154091678467979e+03 -8.386669406089645e+01  2.918975276816622e+03
 1.154090186216244e+03 -8.486510416415166e+01  2.918975276816622e+03
 1.154090218177827e+03 -8.586350910605331e+01  2.918975276816622e+03
 1.154091735620133e+03 -8.686191927873035e+01  2.918975276816622e+03
 1.154092262509737e+03 -8.786033763824125e+01  2.918975276816622e+03
 1.154091385921795e+03 -8.885875253793981e+01  2.918975276816622e+03
 1.154091577003711e+03 -8.985716302546099e+01  2.918975276816622e+03
 1.154092234985090e+03 -9.085557892087871e+01  2.918975276816622e+03
 1.154091571643564e+03 -9.185399460986031e+01  2.918975276816622e+03
 1.154091472948212e+03 -9.285240502905339e+01  2.918975276816622e+03
 1.154091956878501e+03 -9.385082006108895e+01  2.918975276816622e+03
 1.154091121631169e+03 -9.484923435142797e+01  2.918975276816622e+03
 1.154091123540121e+03 -9.584764153692745e+01  2.918975276816622e+03
 1.154091977264392e+03 -9.684605565817968e+01  2.918975276816622e+03
 1.154091571531586e+03 -9.784447055542435e+01  2.918975276816622e+03
 1.154091752301011e+03 -9.884288117987492e+01  2.918975276816622e+03
 1.154092396595293e+03 -9.984129707317138e+01  2.918975276816622e+03
 1.154091723746235e+03 -1.008397127425874e+02  2.918975276816622e+03
 1.154091621446378e+03 -1.018381230400224e+02  2.918975276816622e+03
 1.154092567647801e+03 -1.028365380937246e+02  2.918975276816622e+03
 1.154092040065801e+03 -1.038349565526623e+02  2.918975276816622e+03
 1.154090549549442e+03 -1.048333666521764e+02  2.918975276816622e+03
 1.154090581978433e+03 -1.058317715953588e+02  2.918975276816622e+03
 1.154092099213858e+03 -1.068301817583466e+02  2.918975276816622e+03
 1.154092627568049e+03 -1.078286001076079e+02  2.918975276816622e+03
 1.154091752522597e+03 -1.088270150037263e+02  2.918975276816622e+03
 1.154091944443100e+03 -1.098254254879935e+02  2.918975276816622e+03
 1.154092602646303e+03 -1.108238413774301e+02  2.918975276816622e+03
 1.154091939423555e+03 -1.118222570567355e+02  2.918975276816622e+03
 1.154091841616182e+03 -1.128206674644942e+02  2.918975276816622e+03
 1.154092327347842e+03 -1.138190824849647e+02  2.918975276816622e+03
 1.154091495472856e+03 -1.148174967705273e+02  2.918975276816622e+03
 1.154091500331377e+03 -1.158159039665085e+02  2.918975276816622e+03
 1.154092352161507e+03 -1.168143180994197e+02  2.918975276816622e+03
 1.154091941395660e+03 -1.178127329850122e+02  2.918975276816622e+03
 1.154092121665499e+03 -1.188111435740289e+02  2.918975276816622e+03
 1.154092772753272e+03 -1.198095594422755e+02  2.918975276816622e+03
 1.154092105952998e+03 -1.208079751222773e+02  2.918975276816622e+03
 1.154092002638740e+03 -1.218063854358109e+02  2.918975276816622e+03
 1.154092945994574e+03 -1.228048004815606e+02  2.918975276816622e+03
 1.154092418946500e+03 -1.238032189236325e+02  2.918975276816622e+03
 1.154090931593575e+03 -1.248016290141915e+02  2.918975276816622e+03
 1.154090966225948e+03 -1.258000339601509e+02  2.918975276816622e+03
 1.154092482720153e+03 -1.267984441222663e+02  2.918975276816622e+03
 1.154093011033059e+03 -1.277968624582637e+02  2.918975276816622e+03
 1.154092137964474e+03 -1.287952773453841e+02  2.918975276816622e+03
 1.154092331183504e+03 -1.297936878247519e+02  2.918975276816622e+03
 1.154092990494413e+03 -1.307921037060008e+02  2.918975276816622e+03
 1.154092328809599e+03 -1.317905193809235e+02  2.918975276816622e+03
 1.154092231630925e+03 -1.327889297856389e+02  2.918975276816622e+03
 1.154092717728315e+03 -1.337873447970759e+02  2.918975276816622e+03
 1.154091887516243e+03 -1.347857590739913e+02  2.918975276816622e+03
 1.154091894323784e+03 -1.357841662672289e+02  2.918975276816622e+03
 1.154092746391411e+03 -1.367825803967750e+02  2.918975276816622e+03
 1.154092335928402e+03 -1.377809952715636e+02  2.918975276816622e+03
 1.154092518696481e+03 -1.387794058515288e+02  2.918975276816622e+03
 1.154093171372681e+03 -1.397778217191340e+02  2.918975276816622e+03
 1.154092504108660e+03 -1.407762373937979e+02  2.918975276816622e+03
 1.154092402126109e+03 -1.417746476947600e+02  2.918975276816622e+03
 1.154093348503616e+03 -1.427730627349590e+02  2.918975276816622e+03
 1.154092822270868e+03 -1.437714811792399e+02  2.918975276816622e+03
 1.154091333830507e+03 -1.447698912649060e+02  2.918975276816622e+03
 1.154091369565677e+03 -1.457682961955327e+02  2.918975276816622e+03
 1.154092889627851e+03 -1.467667063487680e+02  2.918975276816622e+03
 1.154093419543980e+03 -1.477651246865853e+02  2.918975276816622e+03
 1.154092545939116e+03 -1.487635395695721e+02  2.918975276816622e+03
 1.154092740284697e+03 -1.497619500376601e+02  2.918975276816622e+03
 1.154093401717182e+03 -1.507603659121375e+02  2.918975276816622e+03
 1.154092741211128e+03 -1.517587815832764e+02  2.918975276816622e+03
 1.154092645062182e+03 -1.527571919825031e+02  2.918975276816622e+03
 1.154093132143336e+03 -1.537556069871237e+02  2.918975276816622e+03
 1.154092302938645e+03 -1.547540212562266e+02  2.918975276816622e+03
 1.154092311778940e+03 -1.557524284421205e+02  2.918975276816622e+03
 1.154093165840895e+03 -1.567508425682710e+02  2.918975276816622e+03
 1.154092755664519e+03 -1.577492574405629e+02  2.918975276816622e+03
 1.154092939038117e+03 -1.587476680098468e+02  2.918975276816622e+03
 1.154093594455334e+03 -1.597460838678433e+02  2.918975276816622e+03
 1.154092928770129e+03 -1.607444995436569e+02  2.918975276816622e+03
 1.154092826409990e+03 -1.617429098388058e+02  2.918975276816622e+03
 1.154093774454345e+03 -1.627413248642623e+02  2.918975276816622e+03
 1.154093250987414e+03 -1.637397433041200e+02  2.918975276816622e+03
 1.154091763400656e+03 -1.647381533900167e+02  2.918975276816622e+03
 1.154091799909000e+03 -1.657365583136764e+02  2.918975276816622e+03
 1.154093321942236e+03 -1.667349684585579e+02  2.918975276816622e+03
 1.154093853365817e+03 -1.677333867911432e+02  2.918975276816622e+03
 1.154092980542871e+03 -1.687318016683802e+02  2.918975276816622e+03
 1.154093176507492e+03 -1.697302121276899e+02  2.918975276816622e+03
 1.154093840047148e+03 -1.707286279960133e+02  2.918975276816622e+03
 1.154093180537275e+03 -1.717270436636850e+02  2.918975276816622e+03
 1.154093085399853e+03 -1.727254540546766e+02  2.918975276816622e+03
 1.154093574742604e+03 -1.737238690505838e+02  2.918975276816622e+03
 1.154092747654978e+03 -1.747222833179055e+02  2.918975276816622e+03
 1.154092757161882e+03 -1.757206905024627e+02  2.918975276816622e+03
 1.154093611461965e+03 -1.767191046178012e+02  2.918975276816622e+03
 1.154093203778629e+03 -1.777175194769923e+02  2.918975276816622e+03
 1.154093390451416e+03 -1.787159300448918e+02  2.918975276816622e+03
 1.154094046042391e+03 -1.797143459026594e+02  2.918975276816622e+03
 1.154093380562827e+03 -1.807127615653755e+02  2.918975276816622e+03
 1.154093281752741e+03 -1.817111718507695e+02  2.918975276816622e+03
 1.154094232140221e+03 -1.827095868773344e+02  2.918975276816622e+03
 1.154093708300896e+03 -1.837080053124297e+02  2.918975276816622e+03
 1.154092222128932e+03 -1.847064153871645e+02  2.918975276816622e+03
 1.154092261737653e+03 -1.857048203062222e+02  2.918975276816622e+03
 1.154093784854821e+03 -1.867032304479370e+02  2.918975276816622e+03
 1.154094317254493e+03 -1.877016487672412e+02  2.918975276816622e+03
 1.154093448086608e+03 -1.887000636371861e+02  2.918975276816622e+03
 1.154093645772125e+03 -1.896984741018789e+02  2.918975276816622e+03
 1.154094308377541e+03 -1.906968899605433e+02  2.918975276816622e+03
 1.154093651415696e+03 -1.916953056107775e+02  2.918975276816622e+03
 1.154093560496274e+03 -1.926937160011494e+02  2.918975276816622e+03
 1.154094050699056e+03 -1.936921309987528e+02  2.918975276816622e+03
 1.154093223471242e+03 -1.946905452572560e+02  2.918975276816622e+03
 1.154093235321613e+03 -1.956889524295598e+02  2.918975276816622e+03
 1.154094092899270e+03 -1.966873665380953e+02  2.918975276816622e+03
 1.154093686765369e+03 -1.976857813954630e+02  2.918975276816622e+03
 1.154093874586450e+03 -1.986841919561098e+02  2.918975276816622e+03
 1.154094532953677e+03 -1.996826078039836e+02  2.918975276816622e+03
 1.154093869604918e+03 -2.006810234657139e+02  2.918975276816622e+03
 1.154093771128598e+03 -2.016794337457917e+02  2.918975276816622e+03
 1.154094723851910e+03 -2.026778487559369e+02  2.918975276816622e+03
 1.154094204059180e+03 -2.036762671862642e+02  2.918975276816622e+03
 1.154092719338612e+03 -2.046746772661288e+02  2.918975276816622e+03
 1.154092759109116e+03 -2.056730821788982e+02  2.918975276816622e+03
 1.154094284508894e+03 -2.066714923062290e+02  2.918975276816622e+03
 1.154094819976024e+03 -2.076699106164347e+02  2.918975276816622e+03
 1.154093952972039e+03 -2.086683254815646e+02  2.918975276816622e+03
 1.154094153125851e+03 -2.096667359399778e+02  2.918975276816622e+03
 1.154094818347065e+03 -2.106651517937192e+02  2.918975276816622e+03
 1.154094162695788e+03 -2.116635674407432e+02  2.918975276816622e+03
 1.154094073076028e+03 -2.126619778214450e+02  2.918975276816622e+03
 1.154094566532304e+03 -2.136603928065694e+02  2.918975276816622e+03
 1.154093742548027e+03 -2.146588070634273e+02  2.918975276816622e+03
 1.154093755565144e+03 -2.156572142344264e+02  2.918975276816622e+03
 1.154094614827413e+03 -2.166556283290838e+02  2.918975276816622e+03
 1.154094212545280e+03 -2.176540431772323e+02  2.918975276816622e+03
 1.154094403229419e+03 -2.186524537379896e+02  2.918975276816622e+03
 1.154095062571550e+03 -2.196508695781305e+02  2.918975276816622e+03
 1.154094401885957e+03 -2.206492852269376e+02  2.918975276816622e+03
 1.154094307520344e+03 -2.216476955035663e+02  2.918975276816622e+03
 1.154095261896865e+03 -2.226461105116361e+02  2.918975276816622e+03
 1.154094743031353e+03 -2.236445289284709e+02  2.918975276816622e+03
 1.154093262336468e+03 -2.246429389974194e+02  2.918975276816622e+03
 1.154093306128424e+03 -2.256413439117983e+02  2.918975276816622e+03
 1.154094833172583e+03 -2.266397540344922e+02  2.918975276816622e+03
 1.154095371189209e+03 -2.276381723312275e+02  2.918975276816622e+03
 1.154094507568031e+03 -2.286365871912301e+02  2.918975276816622e+03
 1.154094709924686e+03 -2.296349976441514e+02  2.918975276816622e+03
 1.154095377907511e+03 -2.306334134841333e+02  2.918975276816622e+03
 1.154094726462885e+03 -2.316318291230066e+02  2.918975276816622e+03
 1.154094640267701e+03 -2.326302395033420e+02  2.918975276816622e+03
 1.154095135161782e+03 -2.336286544817125e+02  2.918975276816622e+03
 1.154094313799010e+03 -2.346270687236641e+02  2.918975276816622e+03
 1.154094332338218e+03 -2.356254758873552e+02  2.918975276816622e+03
 1.154095195185487e+03 -2.366238899832517e+02  2.918975276816622e+03
 1.154094793610749e+03 -2.376223048234538e+02  2.918975276816622e+03
 1.154094988055459e+03 -2.386207153656463e+02  2.918975276816622e+03
 1.154095653747452e+03 -2.396191311976836e+02  2.918975276816622e+03
 1.154094995919762e+03 -2.406175468499083e+02  2.918975276816622e+03
 1.154094902743279e+03 -2.416159571160728e+02  2.918975276816622e+03
 1.154095862350557e+03 -2.426143721038039e+02  2.918975276816622e+03
 1.154095349263832e+03 -2.436127905179833e+02  2.918975276816622e+03
 1.154093870479872e+03 -2.446112005880227e+02  2.918975276816622e+03
 1.154093917857924e+03 -2.456096054875941e+02  2.918975276816622e+03
 1.154095452124371e+03 -2.466080155999111e+02  2.918975276816622e+03
 1.154095995064368e+03 -2.476064338940741e+02  2.918975276816622e+03
 1.154095135213473e+03 -2.486048487431939e+02  2.918975276816622e+03
 1.154095345230894e+03 -2.496032591820143e+02  2.918975276816622e+03
 1.154096023188250e+03 -2.506016750163143e+02  2.918975276816622e+03
 1.154095364455618e+03 -2.516000906608594e+02  2.918975276816622e+03
 1.154095272013737e+03 -2.525985009276274e+02  2.918975276816622e+03
 1.154096231563135e+03 -2.535969159081949e+02  2.918975276816622e+03
 1.154095720532398e+03 -2.545953343090365e+02  2.918975276816622e+03
 1.154094245533964e+03 -2.555937443787878e+02  2.918975276816622e+03
 1.154094294725421e+03 -2.565921492835196e+02  2.918975276816622e+03
 1.154095829737983e+03 -2.575905593868668e+02  2.918975276816622e+03
 1.154096375341778e+03 -2.585889776663209e+02  2.918975276816622e+03
 1.154095518145870e+03 -2.595873925110496e+02  2.918975276816622e+03
 1.154095729129664e+03 -2.605858029452758e+02  2.918975276816622e+03
 1.154096406961645e+03 -2.615842187695698e+02  2.918975276816622e+03
 1.154095762811583e+03 -2.625826344003242e+02  2.918975276816622e+03
 1.154095684076978e+03 -2.635810447623991e+02  2.918975276816622e+03
 1.154096189976148e+03 -2.645794597153911e+02  2.918975276816622e+03
 1.154095379597173e+03 -2.655778739483288e+02  2.918975276816622e+03
 1.154095407909228e+03 -2.665762811043712e+02  2.918975276816622e+03
 1.154096281750961e+03 -2.675746951758360e+02  2.918975276816622e+03
 1.154095890441255e+03 -2.685731099953143e+02  2.918975276816622e+03
 1.154096085035833e+03 -2.695715205205656e+02  2.918975276816622e+03
 1.154097139242411e+03 -2.705699363159546e+02  2.918975276816622e+03
 1.154096490747496e+03 -2.715683554186863e+02  2.918975276816622e+03
 1.154095268289045e+03 -2.725667656939867e+02  2.918975276816622e+03
 1.154096239571260e+03 -2.735651737664934e+02  2.918975276816622e+03
 1.154096931983497e+03 -2.745635921095214e+02  2.918975276816622e+03
 1.154095457985455e+03 -2.755620055922392e+02  2.918975276816622e+03
 1.154095464674067e+03 -2.765604105307177e+02  2.918975276816622e+03
 1.154097021234904e+03 -2.775588240465278e+02  2.918975276816622e+03
 1.154096407465099e+03 -2.785572423530534e+02  2.918975276816622e+03
 1.154095551077714e+03 -2.795556500377740e+02  2.918975276816622e+03
 1.154097103898205e+03 -2.805540603791861e+02  2.918975276816622e+03
 1.154097810097441e+03 -2.815524810242842e+02  2.918975276816622e+03
 1.154096245917809e+03 -2.825508967181987e+02  2.918975276816622e+03
 1.154096174635716e+03 -2.835493038136559e+02  2.918975276816622e+03
 1.154097595996504e+03 -2.845477186303925e+02  2.918975276816622e+03
 1.154097178585746e+03 -2.855461370861188e+02  2.918975276816622e+03
 1.154096310631012e+03 -2.865445477041416e+02  2.918975276816622e+03
 1.154096075977861e+03 -2.875429585834431e+02  2.918975276816622e+03
 1.154096243781393e+03 -2.885413665838553e+02  2.918975276816622e+03
 1.154097563701043e+03 -2.895397783801631e+02  2.918975276816622e+03
 1.154098442761242e+03 -2.905381974864414e+02  2.918975276816622e+03
 1.154097834245233e+03 -2.915366162851362e+02  2.918975276816622e+03
 1.154096670585736e+03 -2.925350300563868e+02  2.918975276816622e+03
 1.154096504389421e+03 -2.935334381838758e+02  2.918975276816622e+03
 1.154097141919870e+03 -2.945318494936400e+02  2.918975276816622e+03
 1.154097346990741e+03 -2.955302628621154e+02  2.918975276816622e+03
 1.154097436441494e+03 -2.965286753576061e+02  2.918975276816622e+03
 1.154097452737129e+03 -2.975270889816383e+02  2.918975276816622e+03
 1.154096869539478e+03 -2.985255013696050e+02  2.918975276816622e+03
 1.154096962615841e+03 -2.995239091625261e+02  2.918975276816622e+03
 1.154098386248384e+03 -3.005223213070739e+02  2.918975276816622e+03
 1.154098256128403e+03 -3.015207406672710e+02  2.918975276816622e+03
 1.154097644694397e+03 -3.025191516338226e+02  2.918975276816622e+03
 1.154099006965579e+03 -3.035175652087410e+02  2.918975276816622e+03
 1.154098823483314e+03 -3.045159864658311e+02  2.918975276816622e+03
 1.154096766308736e+03 -3.055143973191087e+02  2.918975276816622e+03
 1.154097216893487e+03 -3.065128010236235e+02  2.918975276816622e+03
 1.154099418054403e+03 -3.075112149910509e+02  2.918975276816622e+03
 1.154098671797609e+03 -3.085096361192869e+02  2.918975276816622e+03
 1.154097533235392e+03 -3.095080431170448e+02  2.918975276816622e+03
 1.154099418068906e+03 -3.105064541351421e+02  2.918975276816622e+03
 1.154099684388930e+03 -3.115048766578217e+02  2.918975276816622e+03
 1.154098119089333e+03 -3.125032887139083e+02  2.918975276816622e+03
 1.154098246166893e+03 -3.135016966760982e+02  2.918975276816622e+03
 1.154099028577530e+03 -3.145001089630402e+02  2.918975276816622e+03
 1.154099284309460e+03 -3.154985223537662e+02  2.918975276816622e+03
 1.154099428461935e+03 -3.164969354795285e+02  2.918975276816622e+03
 1.154099409015832e+03 -3.174953489987302e+02  2.918975276816622e+03
 1.154099212394766e+03 -3.184937612190783e+02  2.918975276816622e+03
 1.154099753194086e+03 -3.194921723893954e+02  2.918975276816622e+03
 1.154100489635285e+03 -3.204905878842748e+02  2.918975276816622e+03
 1.154099298710551e+03 -3.214890037799906e+02  2.918975276816622e+03
 1.154098765093458e+03 -3.224874078348453e+02  2.918975276816622e+03
 1.154101748887837e+03 -3.234858178391563e+02  2.918975276816622e+03
 1.154102478398725e+03 -3.244842457345051e+02  2.918975276816622e+03
 1.154099397074635e+03 -3.254826599414227e+02  2.918975276816622e+03
 1.154099585165129e+03 -3.264810602501711e+02  2.918975276816622e+03
 1.154102290576986e+03 -3.274794740475132e+02  2.918975276816622e+03
 1.154101997777551e+03 -3.284778949548774e+02  2.918975276816622e+03
 1.154100617820663e+03 -3.294763053310466e+02  2.918975276816622e+03
 1.154101580796324e+03 -3.304747129113665e+02  2.918975276816622e+03
 1.154102833611662e+03 -3.314731283205028e+02  2.918975276816622e+03
 1.154102601265917e+03 -3.324715435573246e+02  2.918975276816622e+03
 1.154102557840695e+03 -3.334699548280889e+02  2.918975276816622e+03
 1.154103138498137e+03 -3.344683670393065e+02  2.918975276816622e+03
 1.154103489915643e+03 -3.354667802688165e+02  2.918975276816622e+03
 1.154103862170045e+03 -3.364651925016877e+02  2.918975276816622e+03
 1.154104532092615e+03 -3.374636056665474e+02  2.918975276816622e+03
 1.154104710840636e+03 -3.384620200100654e+02  2.918975276816622e+03
 1.154104649076072e+03 -3.394604310923166e+02  2.918975276816622e+03
 1.154105688163429e+03 -3.404588411143242e+02  2.918975276816622e+03
 1.154106861965925e+03 -3.414572563242460e+02  2.918975276816622e+03
 1.154106757425552e+03 -3.424556713779476e+02  2.918975276816622e+03
 1.154106884948145e+03 -3.434540811680578e+02  2.918975276816622e+03
 1.154108153760733e+03 -3.444524919537573e+02  2.918975276816622e+03
 1.154109348932072e+03 -3.454509060424090e+02  2.918975276816622e+03
 1.154108275126148e+03 -3.464493201344243e+02  2.918975276816622e+03
 1.154107126780998e+03 -3.474477174014095e+02  2.918975276816622e+03
 1.154115006454861e+03 -3.484461140504052e+02  2.918975276816622e+03
 1.154123140900805e+03 -3.494445623515267e+02  2.918975276816622e+03
 1.154113542376673e+03 -3.504430158174634e+02  2.918975276816622e+03
 1.154104437812133e+03 -3.514413889786451e+02  2.918975276816622e+03
 1.154112502062468e+03 -3.524397593838373e+02  2.918975276816622e+03
 1.154121042716181e+03 -3.534381786343202e+02  2.918975276816622e+03
 1.154127154425615e+03 -3.544366033944722e+02  2.918975276816622e+03
 1.154127502625551e+03 -3.554350531279010e+02  2.918975276816622e+03
 1.154114430602487e+03 -3.564334671218821e+02  2.918975276816622e+03
 1.154115668963578e+03 -3.574318053450415e+02  2.918975276816622e+03
 1.154139172384644e+03 -3.584301980088865e+02  2.918975276816622e+03
 1.154148533401466e+03 -3.594286732205309e+02  2.918975276816622e+03
 1.154136370872861e+03 -3.604271163965821e+02  2.918975276816622e+03
 1.154131670239925e+03 -3.614254901082222e+02  2.918975276816622e+03
 1.154143449900555e+03 -3.624238606345935e+02  2.918975276816622e+03
 1.154155414734090e+03 -3.634222669410573e+02  2.918975276816622e+03
 1.154161464327243e+03 -3.644206744859189e+02  2.918975276816622e+03
 1.154168009009170e+03 -3.654190678682796e+02  2.918975276816622e+03
 1.154178927491435e+03 -3.664174497640550e+02  2.918975276816622e+03
 1.154195545477877e+03 -3.674158246591890e+02  2.918975276816622e+03
 1.154208514076847e+03 -3.684142047075538e+02  2.918975276816622e+03
 1.154221720025214e+03 -3.694125450918614e+02  2.918975276816622e+03
 1.154247976713379e+03 -3.704108381300884e+02  2.918975276816622e+03
 1.154212153016291e+03 -3.714092573612613e+02  2.918975276816622e+03
 1.154177997713148e+03 -3.724072138525153e+02  2.918975276816622e+03
 1.154309415415587e+03 -3.734053483324401e+02  2.918975276816622e+03
 1.154719056101081e+03 -3.744056960064821e+02  2.918975276816622e+03
 1.155119773363032e+03 -3.753713514913042e+02  2.918975276816622e+03
 1.154881511220907e+03 -3.763620848152560e+02  2.918975276816622e+03
 1.153190335037089e+03 -3.776018503846801e+02  2.918975276816622e+03
 1.152079237531786e+03 -3.775642502364624e+02  2.918975276816622e+03
 1.153305314159809e+03 -3.796538070785738e+02  2.918975276816622e+03
 1.153576532374500e+03 -3.800918456147965e+02  2.918975276816622e+03
 1.154931929979631e+03 -3.811290285861853e+02  2.918975276816622e+03
 1.155362598989854e+03 -3.819909613154172e+02  2.918975276816622e+03
 1.155507357357598e+03 -3.833109749524781e+02  2.918975276816622e+03
 1.157008705154877e+03 -3.849312670082786e+02  2.918975276816622e+03
 1.156185193310470e+03 -3.851940818589269e+02  2.918975276816622e+03
1.154858448315739e+03 3.855257795214043e+02 2.918975276816622e+03
1.156259888579743e+03 3.844681864959830e+02 2.918975276816622e+03
1.155643763923514e+03 3.830563435506327e+02 2.918975276816622e+03
1.155178322157575e+03 3.821267508501655e+02 2.918975276816622e+03
1.155075843854027e+03 3.815862628749185e+02 2.918975276816622e+03
1.155429096790370e+03 3.804167393641609e+02 2.918975276816622e+03
1.155334614620775e+03 3.793692169177139e+02 2.918975276816622e+03
1.155467075933144e+03 3.780160578203755e+02 2.918975276816622e+03
1.154477637151609e+03 3.780653751437746e+02 2.918975276816622e+03
1.153034259397621e+03 3.764803000053329e+02 2.918975276816622e+03
1.154538938066910e+03 3.754036302430334e+02 2.918975276816622e+03
1.154665627178463e+03 3.743969836075728e+02 2.918975276816622e+03
1.154599387277571e+03 3.734010069649631e+02 2.918975276816622e+03
1.154595887520148e+03 3.724039921454115e+02 2.918975276816622e+03
1.154495967736278e+03 3.714085812173173e+02 2.918975276816622e+03
1.154359617100347e+03 3.704116754681664e+02 2.918975276816622e+03
1.154294085125766e+03 3.694135038048923e+02 2.918975276816622e+03
1.154277346129620e+03 3.684150275443417e+02 2.918975276816622e+03
1.154245728479391e+03 3.674166121287419e+02 2.918975276816622e+03
1.154216954173137e+03 3.664181729957672e+02 2.918975276816622e+03
1.154194668872707e+03 3.654197101562731e+02 2.918975276816622e+03
1.154175223497776e+03 3.644212508587499e+02 2.918975276816622e+03
1.154161439190329e+03 3.634227958728290e+02 2.918975276816622e+03
1.154152915037026e+03 3.624243376957652e+02 2.918975276816622e+03
1.154144794357442e+03 3.614258798688072e+02 2.918975276816622e+03
1.154135973216438e+03 3.604274331748779e+02 2.918975276816622e+03
1.154129506953477e+03 3.594289955049671e+02 2.918975276816622e+03
1.154125387643011e+03 3.584305576963234e+02 2.918975276816622e+03
1.154121280549854e+03 3.574321205706237e+02 2.918975276816622e+03
1.154117123310658e+03 3.564336884650296e+02 2.918975276816622e+03
1.154113950901700e+03 3.554352599200357e+02 2.918975276816622e+03
1.154111534983125e+03 3.544368316860503e+02 2.918975276816622e+03
1.154108837416522e+03 3.534384043427069e+02 2.918975276816622e+03
1.154106161309345e+03 3.524399816506049e+02 2.918975276816622e+03
1.154104800311593e+03 3.514415608036281e+02 2.918975276816622e+03
1.154103744120660e+03 3.504431361725523e+02 2.918975276816622e+03
1.154101579435998e+03 3.494447130113877e+02 2.918975276816622e+03
1.154099752416149e+03 3.484462954496361e+02 2.918975276816622e+03
1.154099004659143e+03 3.474478773631597e+02 2.918975276816622e+03
1.154098200613809e+03 3.464494575719343e+02 2.918975276816622e+03
1.154097301195676e+03 3.454510384803424e+02 2.918975276816622e+03
1.154096131597112e+03 3.444526191578066e+02 2.918975276816622e+03
1.154094533258144e+03 3.434542034866528e+02 2.918975276816622e+03
1.154094305411901e+03 3.424557912398188e+02 2.918975276816622e+03
1.154095113042248e+03 3.414573720405264e+02 2.918975276816622e+03
1.154093870070685e+03 3.404589483990790e+02 2.918975276816622e+03
1.154091246936906e+03 3.394605351682385e+02 2.918975276816622e+03
1.154091271829939e+03 3.384621285753614e+02 2.918975276816622e+03
1.154093160369884e+03 3.374637112163669e+02 2.918975276816622e+03
1.154092390953242e+03 3.364652861174530e+02 2.918975276816622e+03
1.154089622067588e+03 3.354668722447085e+02 2.918975276816622e+03
1.154089615639205e+03 3.344684667005296e+02 2.918975276816622e+03
1.154091420897059e+03 3.334700500411629e+02 2.918975276816622e+03
1.154090570022485e+03 3.324716274747514e+02 2.918975276816622e+03
1.154088690289128e+03 3.314732155695858e+02 2.918975276816622e+03
1.154089030286061e+03 3.304748062122046e+02 2.918975276816622e+03
1.154089713067056e+03 3.294763891964116e+02 2.918975276816622e+03
1.154089024810545e+03 3.284779724387776e+02 2.918975276816622e+03
1.154088431538519e+03 3.274795598205168e+02 2.918975276816622e+03
1.154088557863987e+03 3.264811469021185e+02 2.918975276816622e+03
1.154088675679286e+03 3.254827317623853e+02 2.918975276816622e+03
1.154088130644426e+03 3.244843160430497e+02 2.918975276816622e+03
1.154087456683219e+03 3.234859037768572e+02 2.918975276816622e+03
1.154087851791222e+03 3.224874924175591e+02 2.918975276816622e+03
1.154088341015182e+03 3.214890758142437e+02 2.918975276816622e+03
1.154087544159959e+03 3.204906594850054e+02 2.918975276816622e+03
1.154086948446273e+03 3.194922484526276e+02 2.918975276816622e+03
1.154087387553963e+03 3.184938361469939e+02 2.918975276816622e+03
1.154087549489707e+03 3.174954206993120e+02 2.918975276816622e+03
1.154087233948231e+03 3.164970066719716e+02 2.918975276816622e+03
1.154087123808476e+03 3.154985935306382e+02 2.918975276816622e+03
1.154087028975067e+03 3.145001793056083e+02 2.918975276816622e+03
1.154086675116581e+03 3.135017663437408e+02 2.918975276816622e+03
1.154086562774769e+03 3.125033545196091e+02 2.918975276816622e+03
1.154086697691850e+03 3.115049418210910e+02 2.918975276816622e+03
1.154086439499356e+03 3.105065288604422e+02 2.918975276816622e+03
1.154086838403834e+03 3.095081173214310e+02 2.918975276816622e+03
1.154088048791754e+03 3.085096997342332e+02 2.918975276816622e+03
1.154087354741260e+03 3.075112780958622e+02 2.918975276816622e+03
1.154085214519921e+03 3.065128668411186e+02 2.918975276816622e+03
1.154085157385087e+03 3.055144626053394e+02 2.918975276816622e+03
1.154087203532283e+03 3.045160515421135e+02 2.918975276816622e+03
1.154087472252217e+03 3.035176300899091e+02 2.918975276816622e+03
1.154086220526913e+03 3.025192158223736e+02 2.918975276816622e+03
1.154086819731558e+03 3.015208042133333e+02 2.918975276816622e+03
1.154086938974593e+03 3.005223847232984e+02 2.918975276816622e+03
1.154085623283156e+03 2.995239723429668e+02 2.918975276816622e+03
1.154085601117488e+03 2.985255639721452e+02 2.918975276816622e+03
1.154086233584635e+03 2.975271512624296e+02 2.918975276816622e+03
1.154086343248469e+03 2.965287374701249e+02 2.918975276816622e+03
1.154086294777971e+03 2.955303239414972e+02 2.918975276816622e+03
1.154085769382230e+03 2.945319100322887e+02 2.918975276816622e+03
1.154085119851361e+03 2.935335008056845e+02 2.918975276816622e+03
1.154086177375759e+03 2.925350926125193e+02 2.918975276816622e+03
1.154087506253809e+03 2.915366739543203e+02 2.918975276816622e+03
1.154086541054210e+03 2.905382541883362e+02 2.918975276816622e+03
1.154085329722674e+03 2.895398438702682e+02 2.918975276816622e+03
1.154086056784707e+03 2.885414345011135e+02 2.918975276816622e+03
1.154087026471305e+03 2.875430182228492e+02 2.918975276816622e+03
1.154086471548246e+03 2.865446006850021e+02 2.918975276816622e+03
1.154085954286607e+03 2.855461887641745e+02 2.918975276816622e+03
1.154086018456983e+03 2.845477751401490e+02 2.918975276816622e+03
1.154085336772464e+03 2.835493626963646e+02 2.918975276816622e+03
1.154085745376854e+03 2.825509556015475e+02 2.918975276816622e+03
1.154086942196645e+03 2.815525398034887e+02 2.918975276816622e+03
1.154086674936315e+03 2.805541219053337e+02 2.918975276816622e+03
1.154086364923962e+03 2.795557078751293e+02 2.918975276816622e+03
1.154086144688976e+03 2.785572923526776e+02 2.918975276816622e+03
1.154085572327833e+03 2.775588806972733e+02 2.918975276816622e+03
1.154085210486392e+03 2.765604704833643e+02 2.918975276816622e+03
1.154085227371278e+03 2.755620619000423e+02 2.918975276816622e+03
1.154086348469048e+03 2.745636515820071e+02 2.918975276816622e+03
1.154086873551570e+03 2.735652331005467e+02 2.918975276816622e+03
1.154085987806314e+03 2.725668180474138e+02 2.918975276816622e+03
1.154086158984623e+03 2.715684073967654e+02 2.918975276816622e+03
1.154086796546889e+03 2.705699913884137e+02 2.918975276816622e+03
1.154086124849836e+03 2.695715755901134e+02 2.918975276816622e+03
1.154086017260899e+03 2.685731650173660e+02 2.918975276816622e+03
1.154086484841719e+03 2.675747498437801e+02 2.918975276816622e+03
1.154085638201791e+03 2.665763354374049e+02 2.918975276816622e+03
1.154085632361453e+03 2.655779281152771e+02 2.918975276816622e+03
1.154086473670251e+03 2.645795138498975e+02 2.918975276816622e+03
1.154086053407102e+03 2.635810988254020e+02 2.918975276816622e+03
1.154086220861299e+03 2.625826880930758e+02 2.918975276816622e+03
1.154086857998029e+03 2.615842721014322e+02 2.918975276816622e+03
1.154086182787698e+03 2.605858563053735e+02 2.918975276816622e+03
1.154086071365914e+03 2.595874458583574e+02 2.918975276816622e+03
1.154087003249182e+03 2.585890306785236e+02 2.918975276816622e+03
1.154086466421768e+03 2.575906121126358e+02 2.918975276816622e+03
1.154084971002322e+03 2.565922019003194e+02 2.918975276816622e+03
1.154084996410203e+03 2.555937968329699e+02 2.918975276816622e+03
1.154086502615728e+03 2.545953865485849e+02 2.918975276816622e+03
1.154087023508568e+03 2.535969680942951e+02 2.918975276816622e+03
1.154086146634721e+03 2.525985530795319e+02 2.918975276816622e+03
1.154086330869691e+03 2.516001424618544e+02 2.918975276816622e+03
1.154086980100230e+03 2.506017264723490e+02 2.918975276816622e+03
1.154086304176934e+03 2.496033106937863e+02 2.918975276816622e+03
1.154086194680517e+03 2.486049002526154e+02 2.918975276816622e+03
1.154087125362752e+03 2.476064850757196e+02 2.918975276816622e+03
1.154086587767509e+03 2.466080665283520e+02 2.918975276816622e+03
1.154085095724957e+03 2.456096563350218e+02 2.918975276816622e+03
1.154085123699166e+03 2.446112512722184e+02 2.918975276816622e+03
1.154086628881366e+03 2.436128409960892e+02 2.918975276816622e+03
1.154087150001369e+03 2.426144225592573e+02 2.918975276816622e+03
1.154086275155084e+03 2.416160075546214e+02 2.918975276816622e+03
1.154086458799137e+03 2.406175969410599e+02 2.918975276816622e+03
1.154087104629603e+03 2.396191809602977e+02 2.918975276816622e+03
1.154086440378086e+03 2.386207652000692e+02 2.918975276816622e+03
1.154086341293993e+03 2.376223546700913e+02 2.918975276816622e+03
1.154086816728660e+03 2.366239395310907e+02 2.918975276816622e+03
1.154085978071628e+03 2.356255251578233e+02 2.918975276816622e+03
1.154085979467684e+03 2.346271178669191e+02 2.918975276816622e+03
1.154086825659075e+03 2.336287036280528e+02 2.918975276816622e+03
1.154086410356884e+03 2.326302886376562e+02 2.918975276816622e+03
1.154086584198375e+03 2.316318779413809e+02 2.918975276816622e+03
1.154087227507062e+03 2.306334619746337e+02 2.918975276816622e+03
1.154086557370714e+03 2.296350462012641e+02 2.918975276816622e+03
1.154086450570042e+03 2.286366357824648e+02 2.918975276816622e+03
1.154087386765376e+03 2.276382206266751e+02 2.918975276816622e+03
1.154086853779916e+03 2.266398020833090e+02 2.918975276816622e+03
1.154085362683229e+03 2.256413919003639e+02 2.918975276816622e+03
1.154085392282554e+03 2.246429868607531e+02 2.918975276816622e+03
1.154086901493693e+03 2.236445765999977e+02 2.918975276816622e+03
1.154087425050782e+03 2.226461581655180e+02 2.918975276816622e+03
1.154086549993259e+03 2.216477431717737e+02 2.918975276816622e+03
1.154086735536740e+03 2.206493325802889e+02 2.918975276816622e+03
1.154087385265407e+03 2.196509166080184e+02 2.918975276816622e+03
1.154086721717863e+03 2.186525008497008e+02 2.918975276816622e+03
1.154086622670122e+03 2.176540903369220e+02 2.918975276816622e+03
1.154087101043029e+03 2.166556752120701e+02 2.918975276816622e+03
1.154086263885525e+03 2.156572608423946e+02 2.918975276816622e+03
1.154086265104304e+03 2.146588535656775e+02 2.918975276816622e+03
1.154087113668490e+03 2.136604393419443e+02 2.918975276816622e+03
1.154086700668444e+03 2.126620243544981e+02 2.918975276816622e+03
1.154086873980776e+03 2.116636136646642e+02 2.918975276816622e+03
1.154087517558846e+03 2.106651977136098e+02 2.918975276816622e+03
1.154086849876863e+03 2.096667819522094e+02 2.918975276816622e+03
1.154086744649676e+03 2.086683715385321e+02 2.918975276816622e+03
1.154087681132060e+03 2.076699563891815e+02 2.918975276816622e+03
1.154087148816195e+03 2.066715378544611e+02 2.918975276816622e+03
1.154085658179471e+03 2.056731276812378e+02 2.918975276816622e+03
1.154085688548738e+03 2.046747226556563e+02 2.918975276816622e+03
1.154087199935643e+03 2.036763124032867e+02 2.918975276816622e+03
1.154087724079546e+03 2.026778939681274e+02 2.918975276816622e+03
1.154086847644489e+03 2.016794789838208e+02 2.918975276816622e+03
1.154087034308107e+03 2.006810684099780e+02 2.918975276816622e+03
1.154087686715535e+03 1.996826524429222e+02 2.918975276816622e+03
1.154087023153006e+03 1.986842366844068e+02 2.918975276816622e+03
1.154086923144784e+03 1.976858261820896e+02 2.918975276816622e+03
1.154087402393885e+03 1.966874110695087e+02 2.918975276816622e+03
1.154086566834198e+03 1.956889967071537e+02 2.918975276816622e+03
1.154086568824780e+03 1.946905894341992e+02 2.918975276816622e+03
1.154087416940711e+03 1.936921752145183e+02 2.918975276816622e+03
1.154087003761880e+03 1.926937602373385e+02 2.918975276816622e+03
1.154087177923982e+03 1.916953495570249e+02 2.918975276816622e+03
1.154087822347820e+03 1.906969336123023e+02 2.918975276816622e+03
1.154087155229737e+03 1.896985178564235e+02 2.918975276816622e+03
1.154087049859947e+03 1.887001074475064e+02 2.918975276816622e+03
1.154087985740813e+03 1.877016923064850e+02 2.918975276816622e+03
1.154087454054483e+03 1.867032737835761e+02 2.918975276816622e+03
1.154085965359758e+03 1.857048636173453e+02 2.918975276816622e+03
1.154085996126622e+03 1.847064585904340e+02 2.918975276816622e+03
1.154087505677516e+03 1.837080483426450e+02 2.918975276816622e+03
1.154088029830312e+03 1.827096299220655e+02 2.918975276816622e+03
1.154087155673903e+03 1.817112149443843e+02 2.918975276816622e+03
1.154087342304085e+03 1.807128043682955e+02 2.918975276816622e+03
1.154087992964171e+03 1.797143884086865e+02 2.918975276816622e+03
1.154087329937347e+03 1.787159726642219e+02 2.918975276816622e+03
1.154087231500003e+03 1.777175621670715e+02 2.918975276816622e+03
1.154087710914143e+03 1.767191470555603e+02 2.918975276816622e+03
1.154086874631650e+03 1.757207326977938e+02 2.918975276816622e+03
1.154086876079536e+03 1.747223254335528e+02 2.918975276816622e+03
1.154087724652866e+03 1.737239112231373e+02 2.918975276816622e+03
1.154087312345732e+03 1.727254962514365e+02 2.918975276816622e+03
1.154087486959604e+03 1.717270855741948e+02 2.918975276816622e+03
1.154088131213895e+03 1.707286696309832e+02 2.918975276816622e+03
1.154087462756087e+03 1.697302538799442e+02 2.918975276816622e+03
1.154087356606159e+03 1.687318434846255e+02 2.918975276816622e+03
1.154088294408019e+03 1.677334283547485e+02 2.918975276816622e+03
1.154087764629551e+03 1.667350098295196e+02 2.918975276816622e+03
1.154086274479592e+03 1.657365996592190e+02 2.918975276816622e+03
1.154086302538754e+03 1.647381946421999e+02 2.918975276816622e+03
1.154087812473849e+03 1.637397844118009e+02 2.918975276816622e+03
1.154088339484880e+03 1.627413659970750e+02 2.918975276816622e+03
1.154087465648652e+03 1.617429510137789e+02 2.918975276816622e+03
1.154087649815628e+03 1.607445404411450e+02 2.918975276816622e+03
1.154088300394979e+03 1.597461244954734e+02 2.918975276816622e+03
1.154087639120900e+03 1.587477087547925e+02 2.918975276816622e+03
1.154087539555979e+03 1.577492982570201e+02 2.918975276816622e+03
1.154088017661389e+03 1.567508831577844e+02 2.918975276816622e+03
1.154087183317976e+03 1.557524688099687e+02 2.918975276816622e+03
1.154087185594394e+03 1.547540615415190e+02 2.918975276816622e+03
1.154088032294584e+03 1.537556473324589e+02 2.918975276816622e+03
1.154087619321998e+03 1.527572323717106e+02 2.918975276816622e+03
1.154087794243362e+03 1.517588217013728e+02 2.918975276816622e+03
1.154088438332876e+03 1.507604057655331e+02 2.918975276816622e+03
1.154087770567366e+03 1.497619900222267e+02 2.918975276816622e+03
1.154087665402532e+03 1.487635796276916e+02 2.918975276816622e+03
1.154088602697544e+03 1.477651644959778e+02 2.918975276816622e+03
1.154088070924787e+03 1.467667459749844e+02 2.918975276816622e+03
1.154086579848925e+03 1.457683358194154e+02 2.918975276816622e+03
1.154086609929026e+03 1.447699308133592e+02 2.918975276816622e+03
1.154088120909944e+03 1.437715205790087e+02 2.918975276816622e+03
1.154088645907056e+03 1.427731021656318e+02 2.918975276816622e+03
1.154087771969474e+03 1.417746871947810e+02 2.918975276816622e+03
1.154087957428929e+03 1.407762766230227e+02 2.918975276816622e+03
1.154088606328371e+03 1.397778606774079e+02 2.918975276816622e+03
1.154087944177551e+03 1.387794449511807e+02 2.918975276816622e+03
1.154087846457417e+03 1.377810344599795e+02 2.918975276816622e+03
1.154088324417258e+03 1.367826193581215e+02 2.918975276816622e+03
1.154087488588818e+03 1.357842050170729e+02 2.918975276816622e+03
1.154087491101512e+03 1.347857977575280e+02 2.918975276816622e+03
1.154088337938370e+03 1.337873835518039e+02 2.918975276816622e+03
1.154087924629295e+03 1.327889685975998e+02 2.918975276816622e+03
1.154088100081513e+03 1.317905579323879e+02 2.918975276816622e+03
1.154088743929666e+03 1.307921419971696e+02 2.918975276816622e+03
1.154088075653668e+03 1.297937262600159e+02 2.918975276816622e+03
1.154087970553243e+03 1.287953158697567e+02 2.918975276816622e+03
1.154088906473226e+03 1.277969007420182e+02 2.918975276816622e+03
1.154088374283274e+03 1.267984822355768e+02 2.918975276816622e+03
1.154086885404465e+03 1.258000720872849e+02 2.918975276816622e+03
1.154086915911936e+03 1.248016670757439e+02 2.918975276816622e+03
1.154088424912985e+03 1.238032568425057e+02 2.918975276816622e+03
1.154088948653775e+03 1.228048384390682e+02 2.918975276816622e+03
1.154088074974363e+03 1.218064234795284e+02 2.918975276816622e+03
1.154088261704377e+03 1.208080129144684e+02 2.918975276816622e+03
1.154088910561263e+03 1.198095969679706e+02 2.918975276816622e+03
1.154088246783838e+03 1.188111812477052e+02 2.918975276816622e+03
1.154088150170824e+03 1.178127707681699e+02 2.918975276816622e+03
1.154088629930045e+03 1.168143556620482e+02 2.918975276816622e+03
1.154087791272713e+03 1.158159413163885e+02 2.918975276816622e+03
1.154087790862689e+03 1.148175340741982e+02 2.918975276816622e+03
1.154088639439560e+03 1.138191198871201e+02 2.918975276816622e+03
1.154088228569491e+03 1.128207049353994e+02 2.918975276816622e+03
1.154088403737366e+03 1.118222942671620e+02 2.918975276816622e+03
1.154089046168935e+03 1.108238783351425e+02 2.918975276816622e+03
1.154088376799461e+03 1.098254626061126e+02 2.918975276816622e+03
1.154088272375368e+03 1.088270522265741e+02 2.918975276816622e+03
1.154089210663465e+03 1.078286370988115e+02 2.918975276816622e+03
1.154088675548129e+03 1.068302185820969e+02 2.918975276816622e+03
1.154087181123527e+03 1.058318084575223e+02 2.918975276816622e+03
1.154087215067053e+03 1.048334034809665e+02 2.918975276816622e+03
1.154088729683596e+03 1.038349932431463e+02 2.918975276816622e+03
1.154089253504583e+03 1.028365748292704e+02 2.918975276816622e+03
1.154088378488183e+03 1.018381598650501e+02 2.918975276816622e+03
1.154088560936308e+03 1.008397492995327e+02 2.918975276816622e+03
1.154089207348825e+03 9.984133337981987e+01 2.918975276816622e+03
1.154088547115232e+03 9.884291767588066e+01 2.918975276816622e+03
1.154088450332723e+03 9.784450719198938e+01 2.918975276816622e+03
1.154088927468756e+03 9.684609210238278e+01 2.918975276816622e+03
1.154088091003759e+03 9.584767777501536e+01 2.918975276816622e+03
1.154088092889410e+03 9.484927053087189e+01 2.918975276816622e+03
1.154088940010819e+03 9.385085634148531e+01 2.918975276816622e+03
1.154088526310591e+03 9.285244140008308e+01 2.918975276816622e+03
1.154088700878885e+03 9.185403075188077e+01 2.918975276816622e+03
1.154089345266865e+03 9.085561483315965e+01 2.918975276816622e+03
1.154088675959340e+03 8.985719910724943e+01 2.918975276816622e+03
1.154088565573809e+03 8.885878873945875e+01 2.918975276816622e+03
1.154089526280048e+03 8.786037365798856e+01 2.918975276816622e+03
1.154089029443222e+03 8.686195494021511e+01 2.918975276816622e+03
1.154087389387725e+03 8.586354453272200e+01 2.918975276816622e+03
1.154087255548819e+03 8.486514063485338e+01 2.918975276816622e+03
1.154089145161729e+03 8.386673153321546e+01 2.918975276816622e+03
1.154090055797470e+03 8.286831106071141e+01 2.918975276816622e+03
1.154088667615314e+03 8.186989403289782e+01 2.918975276816622e+03
1.154088395806186e+03 8.087148561442820e+01 2.918975276816622e+03
1.154089433232559e+03 7.987307181928340e+01 2.918975276816622e+03
1.154089092746696e+03 7.887465503454187e+01 2.918975276816622e+03
1.154088827529930e+03 7.787624355132593e+01 2.918975276816622e+03
1.154089207285961e+03 7.687782881026628e+01 2.918975276816622e+03
1.154088453568211e+03 7.587941480742772e+01 2.918975276816622e+03
1.154088478960303e+03 7.488100767286926e+01 2.918975276816622e+03
1.154089216387391e+03 7.388259361645017e+01 2.918975276816622e+03
1.154088692985472e+03 7.288417884248686e+01 2.918975276816622e+03
1.154089282879528e+03 7.188576861239288e+01 2.918975276816622e+03
1.154089905361030e+03 7.088734988329755e+01 2.918975276816622e+03
1.154088003876237e+03 6.988893476072195e+01 2.918975276816622e+03
1.154087907479817e+03 6.889053211760036e+01 2.918975276816622e+03
1.154090132333585e+03 6.789211828286075e+01 2.918975276816622e+03
1.154090033168068e+03 6.689369724279184e+01 2.918975276816622e+03
1.154093257267743e+03 6.589528651498281e+01 2.918975276816622e+03
1.154046745553758e+03 6.489680878294497e+01 2.918975276816622e+03
1.154032933223339e+03 6.389887795426399e+01 2.918975276816622e+03
1.154309308490659e+03 6.290005595996185e+01 2.918975276816622e+03
1.154320017277678e+03 6.190069065526632e+01 2.918975276816622e+03
1.153716204369108e+03 6.090121087006860e+01 2.918975276816622e+03
1.153697255602698e+03 5.990665430965981e+01 2.918975276816622e+03
1.154420590823863e+03 5.890785852172515e+01 2.918975276816622e+03
1.154398628453746e+03 5.790676725839102e+01 2.918975276816622e+03
1.153863577106525e+03 5.690892891398492e+01 2.918975276816622e+03
1.154168380936055e+03 5.591257213211296e+01 2.918975276816622e+03
1.154146247860892e+03 5.490575430293868e+01 2.918975276816622e+03
1.153495918167092e+03 5.391937402485330e+01 2.918975276816622e+03
1.154301499345696e+03 5.291214596525323e+01 2.918975276816622e+03
1.154754904087460e+03 5.191793668918408e+01 2.918975276816622e+03
1.153876033073778e+03 5.092264553211673e+01 2.918975276816622e+03
1.153237399452666e+03 4.992066650756590e+01 2.918975276816622e+03
1.154387819401765e+03 4.893014633302247e+01 2.918975276816622e+03
1.154522328018566e+03 4.792307998012620e+01 2.918975276816622e+03
1.154076622920820e+03 4.692491009361675e+01 2.918975276816622e+03
1.154011304338293e+03 4.592566172492856e+01 2.918975276816622e+03
1.153736381535591e+03 4.492859438556003e+01 2.918975276816622e+03
1.154002371476768e+03 4.392730718136387e+01 2.918975276816622e+03
1.154444039108303e+03 4.293148380863001e+01 2.918975276816622e+03
1.153955188788058e+03 4.193677531125668e+01 2.918975276816622e+03
1.153892014368524e+03 4.093074198723430e+01 2.918975276816622e+03
1.154513799014057e+03 3.993867736848552e+01 2.918975276816622e+03
1.154329440836912e+03 3.893995705951093e+01 2.918975276816622e+03
1.153728536819126e+03 3.793565412110963e+01 2.918975276816622e+03
1.153688946056854e+03 3.694238574328988e+01 2.918975276816622e+03
1.153919016066131e+03 3.594464824835850e+01 2.918975276816622e+03
1.154416803155105e+03 3.494490816368597e+01 2.918975276816622e+03
1.154403034669972e+03 3.394531525439434e+01 2.918975276816622e+03
1.153886199882878e+03 3.294666965296115e+01 2.918975276816622e+03
1.153887102305266e+03 3.195003144066025e+01 2.918975276816622e+03
1.154145244848737e+03 3.095124340139941e+01 2.918975276816622e+03
1.154132617712023e+03 2.995243420925635e+01 2.918975276816622e+03
1.154084707410382e+03 2.895400545631986e+01 2.918975276816622e+03
1.154090259874300e+03 2.795558704451795e+01 2.918975276816622e+03
1.154089818479164e+03 2.695717104137602e+01 2.918975276816622e+03
1.154089246305655e+03 2.595875917717250e+01 2.918975276816622e+03
1.154090037963201e+03 2.496034874087878e+01 2.918975276816622e+03
1.154091997644148e+03 2.396192963276042e+01 2.918975276816622e+03
1.154090567822242e+03 2.296350197046861e+01 2.918975276816622e+03
1.154086879154098e+03 2.196509525385234e+01 2.918975276816622e+03
1.154081515778402e+03 2.096669785618284e+01 2.918975276816622e+03
1.154126265894810e+03 1.996827851276531e+01 2.918975276816622e+03
1.154193636625627e+03 1.896972215948618e+01 2.918975276816622e+03
1.153951833415437e+03 1.796930381876200e+01 2.918975276816622e+03
1.153672894844794e+03 1.697649021296847e+01 2.918975276816622e+03
1.154301470399384e+03 1.597310401016932e+01 2.918975276816622e+03
1.154663132826449e+03 1.497776445230075e+01 2.918975276816622e+03
1.154149571742412e+03 1.397475662366072e+01 2.918975276816622e+03
1.153326354410402e+03 1.297578517178623e+01 2.918975276816622e+03
1.153940878382497e+03 1.198803702357293e+01 2.918975276816622e+03
1.154441991015029e+03 1.098145984506546e+01 2.918975276816622e+03
1.154269159576294e+03 9.984746474703769e+00 2.918975276816622e+03
1.154036252160679e+03 8.985244686538451e+00 2.918975276816622e+03
1.154213836541248e+03 7.987423296522707e+00 2.918975276816622e+03
1.154164070667764e+03 6.987198733033296e+00 2.918975276816622e+03
1.153645185575150e+03 5.988601092592215e+00 2.918975276816622e+03
1.153555472688959e+03 5.000223230739891e+00 2.918975276816622e+03
1.154461251141659e+03 3.991677709088896e+00 2.918975276816622e+03
1.154841133175124e+03 2.999743045782314e+00 2.918975276816622e+03
1.154300840657736e+03 1.997553830502193e+00 2.918975276816622e+03
1.153135151856088e+03 9.799693221398388e-01 2.918975276816622e+03
-1.146925390860530e+03 -3.863858941524650e+02 -2.918975276816622e+03
-1.146925390860530e+03  3.863858941524653e+02 -2.918975276816622e+03
 1.144025414532822e+03 -3.863858941524653e+02  2.918975276816622e+03
1.144025414532822e+03 3.863858941524650e+02 2.918975276816622e+03
-1.158234609116352e+03 -3.863858941524650e+02 -2.918975276816622e+03
-1.158234609116351e+03  3.863858941524653e+02 -2.918975276816622e+03
 1.155414585460769e+03 -3.863858941524653e+02  2.918975276816622e+03
1.155414585460769e+03 3.863858941524650e+02 2.918975276816622e+03
-1.147932450889085e+03 -5.027945878334651e-01 -2.918975276816622e+03
-1.147451255503681e+03  4.996360499596552e-01 -2.918975276816622e+03
-1.148915643046864e+03 -1.506984040708908e+00 -2.918975276816622e+03
-1.148729388498042e+03 -2.494906250085224e+00 -2.918975276816622e+03
-1.147743573005901e+03 -3.493867537242891e+00 -2.918975276816622e+03
-1.147892073940483e+03 -4.488719901033240e+00 -2.918975276816622e+03
-1.148636575512764e+03 -5.485717269188597e+00 -2.918975276816622e+03
-1.148370067779862e+03 -6.487176875876536e+00 -2.918975276816622e+03
-1.147768943502335e+03 -7.485351318362689e+00 -2.918975276816622e+03
-1.148142736678079e+03 -8.488049321703837e+00 -2.918975276816622e+03
-1.148679288377149e+03 -9.484035680156003e+00 -2.918975276816622e+03
-1.148366938877095e+03 -1.048143741873538e+01 -2.918975276816622e+03
-1.147759097025044e+03 -1.148156916216978e+01 -2.918975276816622e+03
-1.147859486910844e+03 -1.248099707002726e+01 -2.918975276816622e+03
-1.148545693949915e+03 -1.348212987278139e+01 -2.918975276816622e+03
-1.148637536599976e+03 -1.447545351814226e+01 -2.918975276816622e+03
-1.148075826291581e+03 -1.547241608677383e+01 -2.918975276816622e+03
-1.147923029552610e+03 -1.647406735796039e+01 -2.918975276816622e+03
-1.148144230451764e+03 -1.747219598400143e+01 -2.918975276816622e+03
-1.148244497245153e+03 -1.847089968133396e+01 -2.918975276816622e+03
-1.148197065756581e+03 -1.946906514072811e+01 -2.918975276816622e+03
-1.148180849490381e+03 -2.046750719550524e+01 -2.918975276816622e+03
-1.148184491503905e+03 -2.146592974847701e+01 -2.918975276816622e+03
-1.148191028387243e+03 -2.246433471989542e+01 -2.918975276816622e+03
-1.148190853152517e+03 -2.346270473878037e+01 -2.918975276816622e+03
-1.148180694440016e+03 -2.446111100921405e+01 -2.918975276816622e+03
-1.148178172677574e+03 -2.545956252394689e+01 -2.918975276816622e+03
-1.148184975956880e+03 -2.645798733117455e+01 -2.918975276816622e+03
-1.148187184908216e+03 -2.745638282966692e+01 -2.918975276816622e+03
-1.148184733917993e+03 -2.845479028222339e+01 -2.918975276816622e+03
-1.148184213344350e+03 -2.945320745191433e+01 -2.918975276816622e+03
-1.148185116516000e+03 -3.045162039415690e+01 -2.918975276816622e+03
-1.148185151855592e+03 -3.145003066604007e+01 -2.918975276816622e+03
-1.148184360742501e+03 -3.244844370922858e+01 -2.918975276816622e+03
-1.148184129712409e+03 -3.344686064672970e+01 -2.918975276816622e+03
-1.148185117034911e+03 -3.444527569855924e+01 -2.918975276816622e+03
-1.148185870339362e+03 -3.544368430880975e+01 -2.918975276816622e+03
-1.148185157737131e+03 -3.644209296929913e+01 -2.918975276816622e+03
-1.148184217642525e+03 -3.744050812948904e+01 -2.918975276816622e+03
-1.148184446856461e+03 -3.843892514997480e+01 -2.918975276816622e+03
-1.148185223995591e+03 -3.943733827285865e+01 -2.918975276816622e+03
-1.148185225793381e+03 -4.043574875235933e+01 -2.918975276816622e+03
-1.148184474078543e+03 -4.143416199605946e+01 -2.918975276816622e+03
-1.148184151390046e+03 -4.243257907803314e+01 -2.918975276816622e+03
-1.148184769109965e+03 -4.343099556824831e+01 -2.918975276816622e+03
-1.148185675922562e+03 -4.442940760966167e+01 -2.918975276816622e+03
-1.148186081524875e+03 -4.542781600010030e+01 -2.918975276816622e+03
-1.148185708574533e+03 -4.642622439023895e+01 -2.918975276816622e+03
-1.148184827047233e+03 -4.742463646069017e+01 -2.918975276816622e+03
-1.148184239620088e+03 -4.842305300903465e+01 -2.918975276816622e+03
-1.148184602162477e+03 -4.942147009370831e+01 -2.918975276816622e+03
-1.148185384693889e+03 -5.041988328604150e+01 -2.918975276816622e+03
-1.148185402534176e+03 -5.141829378326661e+01 -2.918975276816622e+03
-1.148184654085705e+03 -5.241670699663972e+01 -2.918975276816622e+03
-1.148184462304200e+03 -5.341512406258347e+01 -2.918975276816622e+03
-1.148185433272488e+03 -5.441353921029564e+01 -2.918975276816622e+03
-1.148186168063886e+03 -5.541194788785428e+01 -2.918975276816622e+03
-1.148185459985964e+03 -5.641035660076097e+01 -2.918975276816622e+03
-1.148184522496572e+03 -5.740877181026911e+01 -2.918975276816622e+03
-1.148184755477229e+03 -5.840718887168520e+01 -2.918975276816622e+03
-1.148185536077961e+03 -5.940560201959263e+01 -2.918975276816622e+03
-1.148185538665785e+03 -6.040401251954344e+01 -2.918975276816622e+03
-1.148184787161806e+03 -6.140242579019137e+01 -2.918975276816622e+03
-1.148184466252527e+03 -6.240084289757134e+01 -2.918975276816622e+03
-1.148185085968683e+03 -6.339925940459160e+01 -2.918975276816622e+03
-1.148185993621360e+03 -6.439767145890555e+01 -2.918975276816622e+03
-1.148186399461197e+03 -6.539607986384611e+01 -2.918975276816622e+03
-1.148186027077586e+03 -6.639448827049183e+01 -2.918975276816622e+03
-1.148185146686663e+03 -6.739290035682781e+01 -2.918975276816622e+03
-1.148184560702156e+03 -6.839131691756339e+01 -2.918975276816622e+03
-1.148184924337775e+03 -6.938973400965929e+01 -2.918975276816622e+03
-1.148185706606849e+03 -7.038814720837067e+01 -2.918975276816622e+03
-1.148185723586864e+03 -7.138655771979631e+01 -2.918975276816622e+03
-1.148184976452880e+03 -7.238497095219395e+01 -2.918975276816622e+03
-1.148184787565548e+03 -7.338338802599968e+01 -2.918975276816622e+03
-1.148185758967971e+03 -7.438180317206711e+01 -2.918975276816622e+03
-1.148186492032215e+03 -7.538021185773744e+01 -2.918975276816622e+03
-1.148185784269795e+03 -7.637862058907071e+01 -2.918975276816622e+03
-1.148184849330719e+03 -7.737703580976851e+01 -2.918975276816622e+03
-1.148185083537802e+03 -7.837545287202559e+01 -2.918975276816622e+03
-1.148185863236956e+03 -7.937386602411745e+01 -2.918975276816622e+03
-1.148185865475212e+03 -8.037227653719418e+01 -2.918975276816622e+03
-1.148185115500763e+03 -8.137068982065769e+01 -2.918975276816622e+03
-1.148184796150438e+03 -8.236910693350774e+01 -2.918975276816622e+03
-1.148185415840751e+03 -8.336752344434632e+01 -2.918975276816622e+03
-1.148186323216700e+03 -8.436593550815728e+01 -2.918975276816622e+03
-1.148186730286563e+03 -8.536434392390349e+01 -2.918975276816622e+03
-1.148186359557002e+03 -8.636275233520320e+01 -2.918975276816622e+03
-1.148185479509326e+03 -8.736116442414033e+01 -2.918975276816622e+03
-1.148184893444670e+03 -8.835958099203850e+01 -2.918975276816622e+03
-1.148185257438399e+03 -8.935799809178779e+01 -2.918975276816622e+03
-1.148186039654555e+03 -9.035641129879947e+01 -2.918975276816622e+03
-1.148186057413527e+03 -9.135482182365033e+01 -2.918975276816622e+03
-1.148185312155756e+03 -9.235323506396932e+01 -2.918975276816622e+03
-1.148185122983201e+03 -9.335165214144638e+01 -2.918975276816622e+03
-1.148186094464686e+03 -9.435006730246850e+01 -2.918975276816622e+03
-1.148186832217599e+03 -9.534847599515008e+01 -2.918975276816622e+03
-1.148186126819671e+03 -9.634688470783210e+01 -2.918975276816622e+03
-1.148185185946399e+03 -9.734529992113890e+01 -2.918975276816622e+03
-1.148185414746208e+03 -9.834371701692584e+01 -2.918975276816622e+03
-1.148186199199341e+03 -9.934213020953510e+01 -2.918975276816622e+03
-1.148186210275135e+03 -1.003405407230405e+02 -2.918975276816622e+03
-1.148185461183926e+03 -1.013389539825197e+02 -2.918975276816622e+03
-1.148185137207352e+03 -1.023373710958401e+02 -2.918975276816622e+03
-1.148185756446743e+03 -1.033357876256057e+02 -2.918975276816622e+03
-1.148186666052317e+03 -1.043341996976006e+02 -2.918975276816622e+03
-1.148187073602115e+03 -1.053326081187696e+02 -2.918975276816622e+03
-1.148186703581479e+03 -1.063310165402228e+02 -2.918975276816622e+03
-1.148185824913028e+03 -1.073294286349849e+02 -2.918975276816622e+03
-1.148185238632129e+03 -1.083278452076025e+02 -2.918975276816622e+03
-1.148185602463452e+03 -1.093262623201477e+02 -2.918975276816622e+03
-1.148186387271027e+03 -1.103246755375939e+02 -2.918975276816622e+03
-1.148186407103950e+03 -1.113230860589651e+02 -2.918975276816622e+03
-1.148185660800935e+03 -1.123214992992306e+02 -2.918975276816622e+03
-1.148185471567452e+03 -1.133199163874966e+02 -2.918975276816622e+03
-1.148186443761608e+03 -1.143183315525909e+02 -2.918975276816622e+03
-1.148187179240817e+03 -1.153167402550381e+02 -2.918975276816622e+03
-1.148186474212565e+03 -1.163151489984725e+02 -2.918975276816622e+03
-1.148185540618564e+03 -1.173135642273265e+02 -2.918975276816622e+03
-1.148185774243167e+03 -1.183119813009509e+02 -2.918975276816622e+03
-1.148186554340117e+03 -1.193103944746581e+02 -2.918975276816622e+03
-1.148186560252335e+03 -1.203088050069391e+02 -2.918975276816622e+03
-1.148185813161057e+03 -1.213072182950914e+02 -2.918975276816622e+03
-1.148185493000160e+03 -1.223056354154559e+02 -2.918975276816622e+03
-1.148186112816853e+03 -1.233040519471741e+02 -2.918975276816622e+03
-1.148187023316712e+03 -1.243024640267091e+02 -2.918975276816622e+03
-1.148187432203256e+03 -1.253008724487331e+02 -2.918975276816622e+03
-1.148187061197885e+03 -1.262992808741428e+02 -2.918975276816622e+03
-1.148186182312536e+03 -1.272976929858517e+02 -2.918975276816622e+03
-1.148185598890669e+03 -1.282961095707274e+02 -2.918975276816622e+03
-1.148185964707530e+03 -1.292945266812099e+02 -2.918975276816622e+03
-1.148186748615029e+03 -1.302929398993814e+02 -2.918975276816622e+03
-1.148186768236926e+03 -1.312913504327543e+02 -2.918975276816622e+03
-1.148186023566632e+03 -1.322897636830721e+02 -2.918975276816622e+03
-1.148185835344877e+03 -1.332881807763061e+02 -2.918975276816622e+03
-1.148186808163192e+03 -1.342865959479367e+02 -2.918975276816622e+03
-1.148187544774463e+03 -1.352850046556403e+02 -2.918975276816622e+03
-1.148186840037393e+03 -1.362834134038709e+02 -2.918975276816622e+03
-1.148185906437350e+03 -1.372818286433937e+02 -2.918975276816622e+03
-1.148186141675375e+03 -1.382802457274124e+02 -2.918975276816622e+03
-1.148186923518687e+03 -1.392786589031060e+02 -2.918975276816622e+03
-1.148186929114679e+03 -1.402770694378181e+02 -2.918975276816622e+03
-1.148186181650543e+03 -1.412754827383885e+02 -2.918975276816622e+03
-1.148185863448651e+03 -1.422738998709886e+02 -2.918975276816622e+03
-1.148186485230303e+03 -1.432723164040592e+02 -2.918975276816622e+03
-1.148187395218499e+03 -1.442707284848403e+02 -2.918975276816622e+03
-1.148187803709321e+03 -1.452691369189921e+02 -2.918975276816622e+03
-1.148187434893492e+03 -1.462675453564539e+02 -2.918975276816622e+03
-1.148186558099157e+03 -1.472659574698653e+02 -2.918975276816622e+03
-1.148185974175771e+03 -1.482643740562705e+02 -2.918975276816622e+03
-1.148186339150548e+03 -1.492627911779351e+02 -2.918975276816622e+03
-1.148187124453324e+03 -1.502612044097615e+02 -2.918975276816622e+03
-1.148187146527715e+03 -1.512596149495764e+02 -2.918975276816622e+03
-1.148186402937601e+03 -1.522580282012123e+02 -2.918975276816622e+03
-1.148186214365724e+03 -1.532564452987521e+02 -2.918975276816622e+03
-1.148187187280438e+03 -1.542548604795302e+02 -2.918975276816622e+03
-1.148187925031920e+03 -1.552532691962390e+02 -2.918975276816622e+03
-1.148187221394393e+03 -1.562516779521756e+02 -2.918975276816622e+03
-1.148186288789285e+03 -1.572500931996580e+02 -2.918975276816622e+03
-1.148186525059966e+03 -1.582485102887061e+02 -2.918975276816622e+03
-1.148187307055010e+03 -1.592469234687861e+02 -2.918975276816622e+03
-1.148187312872617e+03 -1.602453340141882e+02 -2.918975276816622e+03
-1.148186567248498e+03 -1.612437473252423e+02 -2.918975276816622e+03
-1.148186250528937e+03 -1.622421644599573e+02 -2.918975276816622e+03
-1.148186871736413e+03 -1.632405809963937e+02 -2.918975276816622e+03
-1.148187781803942e+03 -1.642389930893695e+02 -2.918975276816622e+03
-1.148188192543856e+03 -1.652374015328006e+02 -2.918975276816622e+03
-1.148187824861181e+03 -1.662358099714313e+02 -2.918975276816622e+03
-1.148186947109388e+03 -1.672342220925906e+02 -2.918975276816622e+03
-1.148186364034426e+03 -1.682326386948021e+02 -2.918975276816622e+03
-1.148186731827690e+03 -1.692310558221826e+02 -2.918975276816622e+03
-1.148187517599807e+03 -1.702294690515340e+02 -2.918975276816622e+03
-1.148187538449040e+03 -1.712278796001368e+02 -2.918975276816622e+03
-1.148186796073722e+03 -1.722262928672780e+02 -2.918975276816622e+03
-1.148186609756797e+03 -1.732247099697706e+02 -2.918975276816622e+03
-1.148187582640318e+03 -1.742231251518486e+02 -2.918975276816622e+03
-1.148188320138338e+03 -1.752215338793120e+02 -2.918975276816622e+03
-1.148187618276677e+03 -1.762199426468161e+02 -2.918975276816622e+03
-1.148186687113664e+03 -1.772183578982129e+02 -2.918975276816622e+03
-1.148186923294764e+03 -1.782167749918201e+02 -2.918975276816622e+03
-1.148187705588551e+03 -1.792151881808120e+02 -2.918975276816622e+03
-1.148187712473229e+03 -1.802135987347972e+02 -2.918975276816622e+03
-1.148186967707203e+03 -1.812120120537403e+02 -2.918975276816622e+03
-1.148186651466092e+03 -1.822104291961942e+02 -2.918975276816622e+03
-1.148187273292306e+03 -1.832088457407803e+02 -2.918975276816622e+03
-1.148188184606883e+03 -1.842072578410526e+02 -2.918975276816622e+03
-1.148188596195725e+03 -1.852056662888058e+02 -2.918975276816622e+03
-1.148188228421192e+03 -1.862040747351341e+02 -2.918975276816622e+03
-1.148187351338583e+03 -1.872024868684341e+02 -2.918975276816622e+03
-1.148186769752772e+03 -1.882009034782389e+02 -2.918975276816622e+03
-1.148187138217656e+03 -1.891993206094964e+02 -2.918975276816622e+03
-1.148187923957767e+03 -1.901977338451597e+02 -2.918975276816622e+03
-1.148187944927965e+03 -1.911961444037775e+02 -2.918975276816622e+03
-1.148187203316661e+03 -1.921945576833042e+02 -2.918975276816622e+03
-1.148187018511951e+03 -1.931929747949757e+02 -2.918975276816622e+03
-1.148187992681627e+03 -1.941913899800237e+02 -2.918975276816622e+03
-1.148188730233257e+03 -1.951897987104335e+02 -2.918975276816622e+03
-1.148188027800534e+03 -1.961882074878127e+02 -2.918975276816622e+03
-1.148187097085920e+03 -1.971866227532897e+02 -2.918975276816622e+03
-1.148187334907045e+03 -1.981850398565359e+02 -2.918975276816622e+03
-1.148188118361611e+03 -1.991834530492949e+02 -2.918975276816622e+03
-1.148188125080771e+03 -2.001818636085244e+02 -2.918975276816622e+03
-1.148187379931008e+03 -2.011802769386975e+02 -2.918975276816622e+03
-1.148187064539468e+03 -2.021786940939623e+02 -2.918975276816622e+03
-1.148187688148278e+03 -2.031771106453612e+02 -2.918975276816622e+03
-1.148188600080600e+03 -2.041755227469498e+02 -2.918975276816622e+03
-1.148189010589628e+03 -2.051739312014027e+02 -2.918975276816622e+03
-1.148188642599026e+03 -2.061723396637589e+02 -2.918975276816622e+03
-1.148187767469406e+03 -2.071707518104115e+02 -2.918975276816622e+03
-1.148187187175893e+03 -2.081691684230420e+02 -2.918975276816622e+03
-1.148187554451922e+03 -2.091675855586368e+02 -2.918975276816622e+03
-1.148188339836389e+03 -2.101659988092719e+02 -2.918975276816622e+03
-1.148188362971669e+03 -2.111644093794442e+02 -2.918975276816622e+03
-1.148187622119638e+03 -2.121628226606299e+02 -2.918975276816622e+03
-1.148187435723779e+03 -2.131612397797043e+02 -2.918975276816622e+03
-1.148188409734554e+03 -2.141596549800697e+02 -2.918975276816622e+03
-1.148189148894412e+03 -2.151580637219438e+02 -2.918975276816622e+03
-1.148188447485368e+03 -2.161564725063366e+02 -2.918975276816622e+03
-1.148187516681546e+03 -2.171548877775838e+02 -2.918975276816622e+03
-1.148187753469985e+03 -2.181533048881325e+02 -2.918975276816622e+03
-1.148188536203229e+03 -2.191517180952185e+02 -2.918975276816622e+03
-1.148188544228649e+03 -2.201501286702410e+02 -2.918975276816622e+03
-1.148187800679748e+03 -2.211485420065236e+02 -2.918975276816622e+03
-1.148187484485474e+03 -2.221469591643411e+02 -2.918975276816622e+03
-1.148188106469908e+03 -2.231453757270981e+02 -2.918975276816622e+03
-1.148189018690031e+03 -2.241437878445415e+02 -2.918975276816622e+03
-1.148189430431382e+03 -2.251421963094345e+02 -2.918975276816622e+03
-1.148189062441054e+03 -2.261406047789357e+02 -2.918975276816622e+03
-1.148188186173593e+03 -2.271390169361720e+02 -2.918975276816622e+03
-1.148187605173053e+03 -2.281374335632243e+02 -2.918975276816622e+03
-1.148187972975722e+03 -2.291358507113748e+02 -2.918975276816622e+03
-1.148188758718284e+03 -2.301342639693948e+02 -2.918975276816622e+03
-1.148188780805152e+03 -2.311326745490170e+02 -2.918975276816622e+03
-1.148188039218039e+03 -2.321310878453665e+02 -2.918975276816622e+03
-1.148187853167536e+03 -2.331295049755007e+02 -2.918975276816622e+03
-1.148188826480297e+03 -2.341279201826161e+02 -2.918975276816622e+03
-1.148189564140740e+03 -2.351263289386430e+02 -2.918975276816622e+03
-1.148188862496146e+03 -2.361247377410676e+02 -2.918975276816622e+03
-1.148187931753538e+03 -2.371231530235644e+02 -2.918975276816622e+03
-1.148188167364613e+03 -2.381215701428554e+02 -2.918975276816622e+03
-1.148188948829036e+03 -2.391199833635831e+02 -2.918975276816622e+03
-1.148188956300632e+03 -2.401183939533554e+02 -2.918975276816622e+03
-1.148188211631096e+03 -2.411168073018605e+02 -2.918975276816622e+03
-1.148187893801730e+03 -2.421152244735358e+02 -2.918975276816622e+03
-1.148188514917812e+03 -2.431136410506046e+02 -2.918975276816622e+03
-1.148189426077287e+03 -2.441120531796916e+02 -2.918975276816622e+03
-1.148189835692698e+03 -2.451104616592116e+02 -2.918975276816622e+03
-1.148189465537204e+03 -2.461088701474644e+02 -2.918975276816622e+03
-1.148188587190698e+03 -2.471072823222913e+02 -2.918975276816622e+03
-1.148188003769639e+03 -2.481056989640207e+02 -2.918975276816622e+03
-1.148188368411022e+03 -2.491041161231901e+02 -2.918975276816622e+03
-1.148189150087608e+03 -2.501025293936797e+02 -2.918975276816622e+03
-1.148189162170690e+03 -2.511009399883563e+02 -2.918975276816622e+03
-1.148188417577735e+03 -2.520993533527277e+02 -2.918975276816622e+03
-1.148188101213837e+03 -2.530977705356616e+02 -2.918975276816622e+03
-1.148188722673352e+03 -2.540961871197070e+02 -2.918975276816622e+03
-1.148189633065200e+03 -2.550945992583735e+02 -2.918975276816622e+03
-1.148190041621999e+03 -2.560930077498290e+02 -2.918975276816622e+03
-1.148189670019371e+03 -2.570914162516257e+02 -2.918975276816622e+03
-1.148188790748150e+03 -2.580898284421779e+02 -2.918975276816622e+03
-1.148188207372327e+03 -2.590882450953380e+02 -2.918975276816622e+03
-1.148188571359337e+03 -2.600866622625725e+02 -2.918975276816622e+03
-1.148189351319751e+03 -2.610850755490350e+02 -2.918975276816622e+03
-1.148189368423719e+03 -2.620834861695204e+02 -2.918975276816622e+03
-1.148188623020126e+03 -2.630818995014122e+02 -2.918975276816622e+03
-1.148188432180276e+03 -2.640803166581828e+02 -2.918975276816622e+03
-1.148189399487439e+03 -2.650787318934009e+02 -2.918975276816622e+03
-1.148190130032454e+03 -2.660771406849070e+02 -2.918975276816622e+03
-1.148189420202438e+03 -2.670755495283227e+02 -2.918975276816622e+03
-1.148188482390208e+03 -2.680739648494778e+02 -2.918975276816622e+03
-1.148188717649139e+03 -2.690723820017218e+02 -2.918975276816622e+03
-1.148189308705947e+03 -2.700707952666589e+02 -2.918975276816622e+03
-1.148189119765628e+03 -2.710692076285629e+02 -2.918975276816622e+03
-1.148188939530376e+03 -2.720676227298700e+02 -2.918975276816622e+03
-1.148189185803087e+03 -2.730660364871886e+02 -2.918975276816622e+03
-1.148189199849067e+03 -2.740644496616242e+02 -2.918975276816622e+03
-1.148189507137143e+03 -2.750628635627829e+02 -2.918975276816622e+03
-1.148189939334480e+03 -2.760612738356324e+02 -2.918975276816622e+03
-1.148189585677089e+03 -2.770596841123325e+02 -2.918975276816622e+03
-1.148189252397427e+03 -2.780580980229811e+02 -2.918975276816622e+03
-1.148189209669826e+03 -2.790565113715166e+02 -2.918975276816622e+03
-1.148189083194395e+03 -2.800549253218242e+02 -2.918975276816622e+03
-1.148189390882524e+03 -2.810533397166180e+02 -2.918975276816622e+03
-1.148189316120950e+03 -2.820517513516866e+02 -2.918975276816622e+03
-1.148188445715461e+03 -2.830501663249019e+02 -2.918975276816622e+03
-1.148188690158172e+03 -2.840485852283580e+02 -2.918975276816622e+03
-1.148189935874461e+03 -2.850469984345740e+02 -2.918975276816622e+03
-1.148190022480225e+03 -2.860454068464699e+02 -2.918975276816622e+03
-1.148189417188562e+03 -2.870438190455124e+02 -2.918975276816622e+03
-1.148189308947344e+03 -2.880422325452546e+02 -2.918975276816622e+03
-1.148189219887557e+03 -2.890406456341215e+02 -2.918975276816622e+03
-1.148189127998184e+03 -2.900390600775817e+02 -2.918975276816622e+03
-1.148188844132361e+03 -2.910374743924070e+02 -2.918975276816622e+03
-1.148188664436313e+03 -2.920358913927329e+02 -2.918975276816622e+03
-1.148189465285997e+03 -2.930343069113843e+02 -2.918975276816622e+03
-1.148190050209111e+03 -2.940327167471405e+02 -2.918975276816622e+03
-1.148189651956694e+03 -2.950311273767475e+02 -2.918975276816622e+03
-1.148189340495821e+03 -2.960295408789736e+02 -2.918975276816622e+03
-1.148189338268446e+03 -2.970279542938645e+02 -2.918975276816622e+03
-1.148189359821270e+03 -2.980263677639405e+02 -2.918975276816622e+03
-1.148189758344930e+03 -2.990247806336311e+02 -2.918975276816622e+03
-1.148189997849093e+03 -3.000231901903977e+02 -2.918975276816622e+03
-1.148188995151374e+03 -3.010216009915085e+02 -2.918975276816622e+03
-1.148187753498906e+03 -3.020200192750054e+02 -2.918975276816622e+03
-1.148188407978931e+03 -3.030184403094406e+02 -2.918975276816622e+03
-1.148190029252228e+03 -3.040168527205078e+02 -2.918975276816622e+03
-1.148189547248003e+03 -3.050152597478455e+02 -2.918975276816622e+03
-1.148188251468858e+03 -3.060136756993359e+02 -2.918975276816622e+03
-1.148189100851840e+03 -3.070120933813287e+02 -2.918975276816622e+03
-1.148190093552348e+03 -3.080105021987248e+02 -2.918975276816622e+03
-1.148188982211774e+03 -3.090089112885776e+02 -2.918975276816622e+03
-1.148187679945905e+03 -3.100073289617064e+02 -2.918975276816622e+03
-1.148188259203596e+03 -3.110057490258851e+02 -2.918975276816622e+03
-1.148189372174019e+03 -3.120041617118689e+02 -2.918975276816622e+03
-1.148189240294834e+03 -3.130025714766751e+02 -2.918975276816622e+03
-1.148188712521275e+03 -3.140009845825913e+02 -2.918975276816622e+03
-1.148188583044675e+03 -3.149993983790451e+02 -2.918975276816622e+03
-1.148188531755486e+03 -3.159978117689641e+02 -2.918975276816622e+03
-1.148188425125441e+03 -3.169962251722017e+02 -2.918975276816622e+03
-1.148188204228614e+03 -3.179946390474763e+02 -2.918975276816622e+03
-1.148188192478926e+03 -3.189930540414698e+02 -2.918975276816622e+03
-1.148188548790189e+03 -3.199914674264440e+02 -2.918975276816622e+03
-1.148188406024517e+03 -3.209898786235244e+02 -2.918975276816622e+03
-1.148187640614741e+03 -3.219882921784323e+02 -2.918975276816622e+03
-1.148187428535908e+03 -3.229867085243807e+02 -2.918975276816622e+03
-1.148187764089722e+03 -3.239851231798307e+02 -2.918975276816622e+03
-1.148187314592523e+03 -3.249835359592736e+02 -2.918975276816622e+03
-1.148186637362870e+03 -3.259819524724921e+02 -2.918975276816622e+03
-1.148187343068126e+03 -3.269803690639458e+02 -2.918975276816622e+03
-1.148187830735925e+03 -3.279787786756640e+02 -2.918975276816622e+03
-1.148186580712238e+03 -3.289771902405417e+02 -2.918975276816622e+03
-1.148185826070946e+03 -3.299756086569067e+02 -2.918975276816622e+03
-1.148186337218754e+03 -3.309740245072306e+02 -2.918975276816622e+03
-1.148186247507163e+03 -3.319724365193181e+02 -2.918975276816622e+03
-1.148185496889422e+03 -3.329708507831134e+02 -2.918975276816622e+03
-1.148185122621578e+03 -3.339692667209044e+02 -2.918975276816622e+03
-1.148184907485416e+03 -3.349676817420965e+02 -2.918975276816622e+03
-1.148184522508094e+03 -3.359660968701486e+02 -2.918975276816622e+03
-1.148184237684564e+03 -3.369645122147323e+02 -2.918975276816622e+03
-1.148183805533168e+03 -3.379629266511710e+02 -2.918975276816622e+03
-1.148182925367945e+03 -3.389613422314013e+02 -2.918975276816622e+03
-1.148182375133851e+03 -3.399597602009832e+02 -2.918975276816622e+03
-1.148182371443616e+03 -3.409581764120852e+02 -2.918975276816622e+03
-1.148181718441002e+03 -3.419565902874015e+02 -2.918975276816622e+03
-1.148180415514036e+03 -3.429550070498346e+02 -2.918975276816622e+03
-1.148179651993843e+03 -3.439534262643656e+02 -2.918975276816622e+03
-1.148179222289605e+03 -3.449518437476500e+02 -2.918975276816622e+03
-1.148178235205606e+03 -3.459502603818210e+02 -2.918975276816622e+03
-1.148176823309527e+03 -3.469486789951557e+02 -2.918975276816622e+03
-1.148175719827535e+03 -3.479470995620077e+02 -2.918975276816622e+03
-1.148174924703053e+03 -3.489455190068196e+02 -2.918975276816622e+03
-1.148173244458874e+03 -3.499439369972557e+02 -2.918975276816622e+03
-1.148170758637538e+03 -3.509423594881404e+02 -2.918975276816622e+03
-1.148169404817144e+03 -3.519407859162715e+02 -2.918975276816622e+03
-1.148168454941561e+03 -3.529392074696420e+02 -2.918975276816622e+03
-1.148165262847399e+03 -3.539376276467300e+02 -2.918975276816622e+03
-1.148161261933839e+03 -3.549360573382541e+02 -2.918975276816622e+03
-1.148159227459112e+03 -3.559344912016797e+02 -2.918975276816622e+03
-1.148157082130241e+03 -3.569329187076708e+02 -2.918975276816622e+03
-1.148151891217628e+03 -3.579313462447731e+02 -2.918975276816622e+03
-1.148145553134075e+03 -3.589297847176550e+02 -2.918975276816622e+03
-1.148140656696604e+03 -3.599282299652382e+02 -2.918975276816622e+03
-1.148135236976325e+03 -3.609266728403693e+02 -2.918975276816622e+03
-1.148126518631313e+03 -3.619251165225659e+02 -2.918975276816622e+03
-1.148115435111915e+03 -3.629235689699251e+02 -2.918975276816622e+03
-1.148103203269718e+03 -3.639220287199211e+02 -2.918975276816622e+03
-1.148087989143317e+03 -3.649204891697963e+02 -2.918975276816622e+03
-1.148067499607595e+03 -3.659189451938252e+02 -2.918975276816622e+03
-1.148040190859754e+03 -3.669173850374615e+02 -2.918975276816622e+03
-1.148008510147554e+03 -3.679158014191460e+02 -2.918975276816622e+03
-1.147982929655665e+03 -3.689142299638442e+02 -2.918975276816622e+03
-1.147941644943919e+03 -3.699125435845519e+02 -2.918975276816622e+03
-1.147841109705110e+03 -3.709100591658623e+02 -2.918975276816622e+03
-1.147718889578204e+03 -3.719060570878790e+02 -2.918975276816622e+03
-1.147640506712766e+03 -3.729013107229404e+02 -2.918975276816622e+03
-1.147761171989316e+03 -3.739067649513404e+02 -2.918975276816622e+03
-1.148216714138385e+03 -3.749166290679315e+02 -2.918975276816622e+03
-1.148256172793107e+03 -3.759106323043995e+02 -2.918975276816622e+03
-1.147437605001986e+03 -3.769298323009210e+02 -2.918975276816622e+03
-1.146680404784859e+03 -3.776470149342982e+02 -2.918975276816622e+03
-1.146645474233435e+03 -3.785946034039186e+02 -2.918975276816622e+03
-1.146853694956771e+03 -3.798460848626515e+02 -2.918975276816622e+03
-1.147111996583797e+03 -3.809694447453980e+02 -2.918975276816622e+03
-1.147701098259243e+03 -3.817325367706218e+02 -2.918975276816622e+03
-1.147469751506816e+03 -3.825170489322899e+02 -2.918975276816622e+03
-1.146433825508229e+03 -3.839362493006349e+02 -2.918975276816622e+03
-1.146736379303194e+03 -3.851421332436068e+02 -2.918975276816622e+03
-1.147202058825365e+03 -3.859828526849046e+02 -2.918975276816622e+03
-1.145693195648576e+03  3.850656460127586e+02 -2.918975276816622e+03
-1.146517146301039e+03  3.857911759078763e+02 -2.918975276816622e+03
-1.146037366220281e+03  3.841246976815693e+02 -2.918975276816622e+03
-1.146851671781218e+03  3.825853265688162e+02 -2.918975276816622e+03
-1.147135931780048e+03  3.814856438163685e+02 -2.918975276816622e+03
-1.148134279556328e+03  3.806272016624191e+02 -2.918975276816622e+03
-1.148921544037920e+03  3.798728801103050e+02 -2.918975276816622e+03
-1.148547034686196e+03  3.789552022525334e+02 -2.918975276816622e+03
-1.147949101108078e+03  3.780431832463095e+02 -2.918975276816622e+03
-1.147281532862004e+03  3.770732037660742e+02 -2.918975276816622e+03
-1.147144784383821e+03  3.758797062957959e+02 -2.918975276816622e+03
-1.147594020500829e+03  3.748990136249427e+02 -2.918975276816622e+03
-1.147795571426165e+03  3.739040540013133e+02 -2.918975276816622e+03
-1.147971054823328e+03  3.729064772905329e+02 -2.918975276816622e+03
-1.148069942935765e+03  3.719083278803911e+02 -2.918975276816622e+03
-1.148037767384080e+03  3.709100772000530e+02 -2.918975276816622e+03
-1.148011024695547e+03  3.699116809719948e+02 -2.918975276816622e+03
-1.148036407262497e+03  3.689133476650604e+02 -2.918975276816622e+03
-1.148066483895577e+03  3.679150101858070e+02 -2.918975276816622e+03
-1.148085459864049e+03  3.669166498293540e+02 -2.918975276816622e+03
-1.148096619570578e+03  3.659182714988586e+02 -2.918975276816622e+03
-1.148108267925244e+03  3.649198777541712e+02 -2.918975276816622e+03
-1.148122819425866e+03  3.639214990111721e+02 -2.918975276816622e+03
-1.148125005405615e+03  3.629231273683601e+02 -2.918975276816622e+03
-1.148118142114343e+03  3.619246983633922e+02 -2.918975276816622e+03
-1.148129467881059e+03  3.609262505040069e+02 -2.918975276816622e+03
-1.148147902480687e+03  3.599278711366773e+02 -2.918975276816622e+03
-1.148146155951904e+03  3.589295021140995e+02 -2.918975276816622e+03
-1.148139446016358e+03  3.579310739485819e+02 -2.918975276816622e+03
-1.148144135919382e+03  3.569326363765666e+02 -2.918975276816622e+03
-1.148153097158886e+03  3.559342201629071e+02 -2.918975276816622e+03
-1.148161312675451e+03  3.549358277827416e+02 -2.918975276816622e+03
-1.148160975234499e+03  3.539374525246866e+02 -2.918975276816622e+03
-1.148152479462538e+03  3.529390382142414e+02 -2.918975276816622e+03
-1.148152442118685e+03  3.519405890342334e+02 -2.918975276816622e+03
-1.148161071501588e+03  3.509421676354202e+02 -2.918975276816622e+03
-1.148164783675519e+03  3.499437717537147e+02 -2.918975276816622e+03
-1.148163763191389e+03  3.489453658976631e+02 -2.918975276816622e+03
-1.148164123824323e+03  3.479469512925772e+02 -2.918975276816622e+03
-1.148165558577891e+03  3.469485388049432e+02 -2.918975276816622e+03
-1.148166651397273e+03  3.459501273913946e+02 -2.918975276816622e+03
-1.148167372655806e+03  3.449517162367656e+02 -2.918975276816622e+03
-1.148167560149161e+03  3.439533037931227e+02 -2.918975276816622e+03
-1.148168074521415e+03  3.429548879915492e+02 -2.918975276816622e+03
-1.148169779967765e+03  3.419564742342148e+02 -2.918975276816622e+03
-1.148170868687275e+03  3.409580667194176e+02 -2.918975276816622e+03
-1.148170005539299e+03  3.399596564588435e+02 -2.918975276816622e+03
-1.148169691878849e+03  3.389612375932877e+02 -2.918975276816622e+03
-1.148171649805611e+03  3.379628210226657e+02 -2.918975276816622e+03
-1.148173127459921e+03  3.369644142241426e+02 -2.918975276816622e+03
-1.148172107155947e+03  3.359660057918605e+02 -2.918975276816622e+03
-1.148171422444757e+03  3.349675873711215e+02 -2.918975276816622e+03
-1.148173074162060e+03  3.339691705854999e+02 -2.918975276816622e+03
-1.148174255256372e+03  3.329707627813938e+02 -2.918975276816622e+03
-1.148173452579319e+03  3.319723525457891e+02 -2.918975276816622e+03
-1.148173239804923e+03  3.309739355169456e+02 -2.918975276816622e+03
-1.148174343347539e+03  3.299755212942500e+02 -2.918975276816622e+03
-1.148174782813394e+03  3.289771110429609e+02 -2.918975276816622e+03
-1.148174454260121e+03  3.279786985483368e+02 -2.918975276816622e+03
-1.148174576891271e+03  3.269802840946124e+02 -2.918975276816622e+03
-1.148175162232837e+03  3.259818710095794e+02 -2.918975276816622e+03
-1.148175438645895e+03  3.249834594555231e+02 -2.918975276816622e+03
-1.148175214589399e+03  3.239850465348291e+02 -2.918975276816622e+03
-1.148175380920712e+03  3.229866313709604e+02 -2.918975276816622e+03
-1.148176146628943e+03  3.219882183987345e+02 -2.918975276816622e+03
-1.148176326878881e+03  3.209898080864295e+02 -2.918975276816622e+03
-1.148175939419502e+03  3.199913950113263e+02 -2.918975276816622e+03
-1.148176108281692e+03  3.189929798622241e+02 -2.918975276816622e+03
-1.148176562139666e+03  3.179945669859861e+02 -2.918975276816622e+03
-1.148176593716305e+03  3.169961550628026e+02 -2.918975276816622e+03
-1.148176598158432e+03  3.159977420067437e+02 -2.918975276816622e+03
-1.148176751050329e+03  3.149993290408590e+02 -2.918975276816622e+03
-1.148176655114158e+03  3.140009159847734e+02 -2.918975276816622e+03
-1.148177783034377e+03  3.130025015192221e+02 -2.918975276816622e+03
-1.148179608129448e+03  3.120040979092552e+02 -2.918975276816622e+03
-1.148176040326596e+03  3.110056981708534e+02 -2.918975276816622e+03
-1.148171020960276e+03  3.100072640212173e+02 -2.918975276816622e+03
-1.148176142140836e+03  3.090088225145756e+02 -2.918975276816622e+03
-1.148183110165642e+03  3.080104284182174e+02 -2.918975276816622e+03
-1.148178902000073e+03  3.070120414395114e+02 -2.918975276816622e+03
-1.148173786109248e+03  3.060136111100002e+02 -2.918975276816622e+03
-1.148179053461336e+03  3.050151810501270e+02 -2.918975276816622e+03
-1.148183661922003e+03  3.040167944006944e+02 -2.918975276816622e+03
-1.148177109151090e+03  3.030184016319254e+02 -2.918975276816622e+03
-1.148171526062841e+03  3.020199613966575e+02 -2.918975276816622e+03
-1.148176072335452e+03  3.010215240884054e+02 -2.918975276816622e+03
-1.148180381756361e+03  3.000231210671995e+02 -2.918975276816622e+03
-1.148179335348257e+03  2.990247190453343e+02 -2.918975276816622e+03
-1.148178185731821e+03  2.980263062321408e+02 -2.918975276816622e+03
-1.148178261048574e+03  2.970278930621342e+02 -2.918975276816622e+03
-1.148178375925740e+03  2.960294803628697e+02 -2.918975276816622e+03
-1.148178617643298e+03  2.950310676630200e+02 -2.918975276816622e+03
-1.148178860611832e+03  2.940326562713294e+02 -2.918975276816622e+03
-1.148178693076226e+03  2.930342454909947e+02 -2.918975276816622e+03
-1.148178421926285e+03  2.920358324892343e+02 -2.918975276816622e+03
-1.148178287147472e+03  2.910374183894177e+02 -2.918975276816622e+03
-1.148177987372662e+03  2.900390036060348e+02 -2.918975276816622e+03
-1.148178148957244e+03  2.890405870312632e+02 -2.918975276816622e+03
-1.148179058075283e+03  2.880421734156715e+02 -2.918975276816622e+03
-1.148179351655473e+03  2.870437639522862e+02 -2.918975276816622e+03
-1.148178498831532e+03  2.860453522855185e+02 -2.918975276816622e+03
-1.148177944503867e+03  2.850469351895484e+02 -2.918975276816622e+03
-1.148178826362385e+03  2.840485184288490e+02 -2.918975276816622e+03
-1.148179865262633e+03  2.830501087131303e+02 -2.918975276816622e+03
-1.148179574609264e+03  2.820517006233595e+02 -2.918975276816622e+03
-1.148178771447748e+03  2.810532876526852e+02 -2.918975276816622e+03
-1.148178347174126e+03  2.800548720819323e+02 -2.918975276816622e+03
-1.148178323483095e+03  2.790564552704575e+02 -2.918975276816622e+03
-1.148178936249269e+03  2.780580390121216e+02 -2.918975276816622e+03
-1.148179850570371e+03  2.770596270408636e+02 -2.918975276816622e+03
-1.148180281308977e+03  2.760612187069090e+02 -2.918975276816622e+03
-1.148179932132500e+03  2.750628103805515e+02 -2.918975276816622e+03
-1.148179070578008e+03  2.740643983936159e+02 -2.918975276816622e+03
-1.148178500413507e+03  2.730659819383577e+02 -2.918975276816622e+03
-1.148178882656002e+03  2.720675649448557e+02 -2.918975276816622e+03
-1.148179686499034e+03  2.710691518428052e+02 -2.918975276816622e+03
-1.148179721553305e+03  2.700707414293129e+02 -2.918975276816622e+03
-1.148178987765059e+03  2.690723282936984e+02 -2.918975276816622e+03
-1.148178813028503e+03  2.680739113176508e+02 -2.918975276816622e+03
-1.148179802440942e+03  2.670754962669280e+02 -2.918975276816622e+03
-1.148180554063010e+03  2.660770876681538e+02 -2.918975276816622e+03
-1.148179860094294e+03  2.650786790283389e+02 -2.918975276816622e+03
-1.148178935132260e+03  2.640802639073273e+02 -2.918975276816622e+03
-1.148179182161173e+03  2.630818469387026e+02 -2.918975276816622e+03
-1.148179978340308e+03  2.620834338773259e+02 -2.918975276816622e+03
-1.148179994351970e+03  2.610850234580993e+02 -2.918975276816622e+03
-1.148179254131298e+03  2.600866102684469e+02 -2.918975276816622e+03
-1.148178945752156e+03  2.590881932515414e+02 -2.918975276816622e+03
-1.148179579079829e+03  2.580897768421170e+02 -2.918975276816622e+03
-1.148180499001523e+03  2.570913648760261e+02 -2.918975276816622e+03
-1.148180916157596e+03  2.560929565432309e+02 -2.918975276816622e+03
-1.148180555165948e+03  2.550945482082328e+02 -2.918975276816622e+03
-1.148179684010639e+03  2.540961362085465e+02 -2.918975276816622e+03
-1.148179104483251e+03  2.530977197399188e+02 -2.918975276816622e+03
-1.148179476501862e+03  2.520993027317513e+02 -2.918975276816622e+03
-1.148180270611844e+03  2.511008896172480e+02 -2.918975276816622e+03
-1.148180291062278e+03  2.501024792006454e+02 -2.918975276816622e+03
-1.148179549409188e+03  2.491040660095543e+02 -2.918975276816622e+03
-1.148179239195275e+03  2.481056489868684e+02 -2.918975276816622e+03
-1.148179870699842e+03  2.471072325679358e+02 -2.918975276816622e+03
-1.148180789403124e+03  2.461088205955902e+02 -2.918975276816622e+03
-1.148181204845883e+03  2.451104122622242e+02 -2.918975276816622e+03
-1.148180841385317e+03  2.441120039252660e+02 -2.918975276816622e+03
-1.148179968701137e+03  2.431135919193392e+02 -2.918975276816622e+03
-1.148179388655715e+03  2.421151754460413e+02 -2.918975276816622e+03
-1.148179759773354e+03  2.411167584337904e+02 -2.918975276816622e+03
-1.148180552850872e+03  2.401183453118531e+02 -2.918975276816622e+03
-1.148180578872861e+03  2.391199348850718e+02 -2.918975276816622e+03
-1.148179836284366e+03  2.381215217388868e+02 -2.918975276816622e+03
-1.148179652235325e+03  2.371231047462898e+02 -2.918975276816622e+03
-1.148180632203769e+03  2.361246896773412e+02 -2.918975276816622e+03
-1.148181374839316e+03  2.351262810653807e+02 -2.918975276816622e+03
-1.148180673427688e+03  2.341278724144994e+02 -2.918975276816622e+03
-1.148179741762990e+03  2.331294572820228e+02 -2.918975276816622e+03
-1.148179980769733e+03  2.321310403006275e+02 -2.918975276816622e+03
-1.148180768583416e+03  2.311326272237475e+02 -2.918975276816622e+03
-1.148180777865623e+03  2.301342167916533e+02 -2.918975276816622e+03
-1.148180031479703e+03  2.291358035927426e+02 -2.918975276816622e+03
-1.148179716156000e+03  2.281373865627690e+02 -2.918975276816622e+03
-1.148180342592216e+03  2.271389701361709e+02 -2.918975276816622e+03
-1.148181256507842e+03  2.261405581560573e+02 -2.918975276816622e+03
-1.148181668228228e+03  2.251421498154576e+02 -2.918975276816622e+03
-1.148181301862246e+03  2.241437414753026e+02 -2.918975276816622e+03
-1.148180425533048e+03  2.231453294671923e+02 -2.918975276816622e+03
-1.148179841621296e+03  2.221469129848624e+02 -2.918975276816622e+03
-1.148180210183913e+03  2.211484959619766e+02 -2.918975276816622e+03
-1.148181000612021e+03  2.201500828362976e+02 -2.918975276816622e+03
-1.148181022804288e+03  2.191516724056203e+02 -2.918975276816622e+03
-1.148180277185064e+03  2.181532592498031e+02 -2.918975276816622e+03
-1.148180091283775e+03  2.171548422489965e+02 -2.918975276816622e+03
-1.148181068827204e+03  2.161564271756774e+02 -2.918975276816622e+03
-1.148181808418802e+03  2.151580185605933e+02 -2.918975276816622e+03
-1.148181104042725e+03  2.141596099059755e+02 -2.918975276816622e+03
-1.148180169767297e+03  2.131611947656664e+02 -2.918975276816622e+03
-1.148180406781442e+03  2.121627777753743e+02 -2.918975276816622e+03
-1.148181192502409e+03  2.111643646936643e+02 -2.918975276816622e+03
-1.148181199323087e+03  2.101659542577889e+02 -2.918975276816622e+03
-1.148180450770580e+03  2.091675410540791e+02 -2.918975276816622e+03
-1.148180133115797e+03  2.081691240187506e+02 -2.918975276816622e+03
-1.148180756952588e+03  2.071707075840885e+02 -2.918975276816622e+03
-1.148181669037315e+03  2.061722955960223e+02 -2.918975276816622e+03
-1.148182079364370e+03  2.051738872529638e+02 -2.918975276816622e+03
-1.148181710644001e+03  2.041754789128603e+02 -2.918975276816622e+03
-1.148180831179769e+03  2.031770668990247e+02 -2.918975276816622e+03
-1.148180245300029e+03  2.021786504042289e+02 -2.918975276816622e+03
-1.148180613678159e+03  2.011802333725103e+02 -2.918975276816622e+03
-1.148181403304753e+03  2.001818202487284e+02 -2.918975276816622e+03
-1.148181422312870e+03  1.991834098208737e+02 -2.918975276816622e+03
-1.148180673279052e+03  1.981849966567362e+02 -2.918975276816622e+03
-1.148180486316598e+03  1.971865796428398e+02 -2.918975276816622e+03
-1.148181463657030e+03  1.961881645650969e+02 -2.918975276816622e+03
-1.148182201143309e+03  1.951897559515569e+02 -2.918975276816622e+03
-1.148181493801221e+03  1.941913472920841e+02 -2.918975276816622e+03
-1.148180558110626e+03  1.931929321415627e+02 -2.918975276816622e+03
-1.148180794606961e+03  1.921945151448661e+02 -2.918975276816622e+03
-1.148181578983835e+03  1.911961020613566e+02 -2.918975276816622e+03
-1.148181583684454e+03  1.901976916232629e+02 -2.918975276816622e+03
-1.148180833488353e+03  1.891992784136554e+02 -2.918975276816622e+03
-1.148180515138395e+03  1.882008613728151e+02 -2.918975276816622e+03
-1.148181137598078e+03  1.872024449369963e+02 -2.918975276816622e+03
-1.148182046651726e+03  1.862040329448614e+02 -2.918975276816622e+03
-1.148182454725565e+03  1.852056245895438e+02 -2.918975276816622e+03
-1.148182086521113e+03  1.842072162398960e+02 -2.918975276816622e+03
-1.148181207837612e+03  1.832088042294074e+02 -2.918975276816622e+03
-1.148180619548533e+03  1.822103877408032e+02 -2.918975276816622e+03
-1.148180983739541e+03  1.812119707013090e+02 -2.918975276816622e+03
-1.148181771879821e+03  1.802135575598411e+02 -2.918975276816622e+03
-1.148181792321521e+03  1.792151471244126e+02 -2.918975276816622e+03
-1.148181043420207e+03  1.782167339658547e+02 -2.918975276816622e+03
-1.148180853587993e+03  1.772183169543252e+02 -2.918975276816622e+03
-1.148181827751830e+03  1.762199018669052e+02 -2.918975276816622e+03
-1.148182564515114e+03  1.752214932404667e+02 -2.918975276816622e+03
-1.148181857954771e+03  1.742230845775157e+02 -2.918975276816622e+03
-1.148180921368498e+03  1.732246694299238e+02 -2.918975276816622e+03
-1.148181155369344e+03  1.722262524294113e+02 -2.918975276816622e+03
-1.148181938458038e+03  1.712278393368809e+02 -2.918975276816622e+03
-1.148181942917037e+03  1.702294288951029e+02 -2.918975276816622e+03
-1.148181191365624e+03  1.692310156845199e+02 -2.918975276816622e+03
-1.148180870908939e+03  1.682325986365245e+02 -2.918975276816622e+03
-1.148181492816940e+03  1.672341821894343e+02 -2.918975276816622e+03
-1.148182402796885e+03  1.662357701943200e+02 -2.918975276816622e+03
-1.148182809820756e+03  1.652373618455483e+02 -2.918975276816622e+03
-1.148182438091600e+03  1.642389534939781e+02 -2.918975276816622e+03
-1.148181557646091e+03  1.632405414690338e+02 -2.918975276816622e+03
-1.148180970436641e+03  1.622421249709818e+02 -2.918975276816622e+03
-1.148181335108799e+03  1.612437079327972e+02 -2.918975276816622e+03
-1.148182121217729e+03  1.602452947933588e+02 -2.918975276816622e+03
-1.148182138901467e+03  1.592468843511169e+02 -2.918975276816622e+03
-1.148181389421729e+03  1.582484711802742e+02 -2.918975276816622e+03
-1.148181200515271e+03  1.572500541638989e+02 -2.918975276816622e+03
-1.148182174078278e+03  1.562516390781443e+02 -2.918975276816622e+03
-1.148182909027703e+03  1.552532304502645e+02 -2.918975276816622e+03
-1.148182200996548e+03  1.542548217831332e+02 -2.918975276816622e+03
-1.148181262883504e+03  1.532564066288665e+02 -2.918975276816622e+03
-1.148181496199853e+03  1.522579896169304e+02 -2.918975276816622e+03
-1.148182280135790e+03  1.512595765182253e+02 -2.918975276816622e+03
-1.148182284313353e+03  1.502611660798362e+02 -2.918975276816622e+03
-1.148181530823072e+03  1.492627528684194e+02 -2.918975276816622e+03
-1.148181209220702e+03  1.482643358136848e+02 -2.918975276816622e+03
-1.148181830230145e+03  1.472659193617305e+02 -2.918975276816622e+03
-1.148182738776347e+03  1.462675073590928e+02 -2.918975276816622e+03
-1.148183145728757e+03  1.452690990016115e+02 -2.918975276816622e+03
-1.148182774304180e+03  1.442706906497095e+02 -2.918975276816622e+03
-1.148181892392795e+03  1.432722786245592e+02 -2.918975276816622e+03
-1.148181304124662e+03  1.422738621186020e+02 -2.918975276816622e+03
-1.148181668769814e+03  1.412754450761714e+02 -2.918975276816622e+03
-1.148182453609437e+03  1.402770319348481e+02 -2.918975276816622e+03
-1.148182470208645e+03  1.392786214853066e+02 -2.918975276816622e+03
-1.148181720711450e+03  1.382802083101734e+02 -2.918975276816622e+03
-1.148181530736216e+03  1.372817912911000e+02 -2.918975276816622e+03
-1.148182503177099e+03  1.362833761969339e+02 -2.918975276816622e+03
-1.148183238049846e+03  1.352849675635542e+02 -2.918975276816622e+03
-1.148182529350914e+03  1.342865588945053e+02 -2.918975276816622e+03
-1.148181590771063e+03  1.332881437344325e+02 -2.918975276816622e+03
-1.148181824148309e+03  1.322897267206785e+02 -2.918975276816622e+03
-1.148182606161185e+03  1.312913136219361e+02 -2.918975276816622e+03
-1.148182608311048e+03  1.302929031721325e+02 -2.918975276816622e+03
-1.148181855664282e+03  1.292944899495901e+02 -2.918975276816622e+03
-1.148181534683928e+03  1.282960728948816e+02 -2.918975276816622e+03
-1.148182154103374e+03  1.272976564412404e+02 -2.918975276816622e+03
-1.148183061553084e+03  1.262992444310201e+02 -2.918975276816622e+03
-1.148183468310541e+03  1.253008360688109e+02 -2.918975276816622e+03
-1.148183095945225e+03  1.243024277132575e+02 -2.918975276816622e+03
-1.148182213321819e+03  1.233040156808473e+02 -2.918975276816622e+03
-1.148181625260560e+03  1.223055991697838e+02 -2.918975276816622e+03
-1.148181989155147e+03  1.213071821255636e+02 -2.918975276816622e+03
-1.148182772207971e+03  1.203087689774866e+02 -2.918975276816622e+03
-1.148182788297122e+03  1.193103585169485e+02 -2.918975276816622e+03
-1.148182039673816e+03  1.183119453361053e+02 -2.918975276816622e+03
-1.148181849482153e+03  1.173135283174827e+02 -2.918975276816622e+03
-1.148182819607082e+03  1.163151132196459e+02 -2.918975276816622e+03
-1.148183552829978e+03  1.153167045725100e+02 -2.918975276816622e+03
-1.148182845712654e+03  1.143182958922735e+02 -2.918975276816622e+03
-1.148181908372785e+03  1.133198807365563e+02 -2.918975276816622e+03
-1.148182138858194e+03  1.123214637253618e+02 -2.918975276816622e+03
-1.148182918191802e+03  1.113230506111951e+02 -2.918975276816622e+03
-1.148182921415134e+03  1.103246401472419e+02 -2.918975276816622e+03
-1.148182168934474e+03  1.093262269232169e+02 -2.918975276816622e+03
-1.148181845184900e+03  1.083278098593619e+02 -2.918975276816622e+03
-1.148182464976408e+03  1.073293933847598e+02 -2.918975276816622e+03
-1.148183376035926e+03  1.063309813732776e+02 -2.918975276816622e+03
-1.148183780993759e+03  1.053325730263077e+02 -2.918975276816622e+03
-1.148183403376608e+03  1.043341646622653e+02 -2.918975276816622e+03
-1.148182519022542e+03  1.033357526096088e+02 -2.918975276816622e+03
-1.148181929130965e+03  1.023373360823118e+02 -2.918975276816622e+03
-1.148182292837266e+03  1.013389190084060e+02 -2.918975276816622e+03
-1.148183080945661e+03  1.003405058482938e+02 -2.918975276816622e+03
-1.148183096638633e+03  9.934209540685787e+01 -2.918975276816622e+03
-1.148182338377737e+03  9.834368222090986e+01 -2.918975276816622e+03
-1.148182154576476e+03  9.734526515790105e+01 -2.918975276816622e+03
-1.148183154814752e+03  9.634685014258652e+01 -2.918975276816622e+03
-1.148183828717094e+03  9.534844173428318e+01 -2.918975276816622e+03
-1.148182965078917e+03  9.435003262768961e+01 -2.918975276816622e+03
-1.148181952025848e+03  9.335161634111898e+01 -2.918975276816622e+03
-1.148182384553287e+03  9.235319806496814e+01 -2.918975276816622e+03
-1.148183698642496e+03  9.135478533195240e+01 -2.918975276816622e+03
-1.148183774699739e+03  9.035637829527849e+01 -2.918975276816622e+03
-1.148182327419622e+03  8.935796632364647e+01 -2.918975276816622e+03
-1.148181761361151e+03  8.835954696911290e+01 -2.918975276816622e+03
-1.148182669771463e+03  8.736112980557125e+01 -2.918975276816622e+03
-1.148183597268177e+03  8.636271808225177e+01 -2.918975276816622e+03
-1.148183782616498e+03  8.536430930671561e+01 -2.918975276816622e+03
-1.148183069081837e+03  8.436589894526657e+01 -2.918975276816622e+03
-1.148182518278402e+03  8.336748329832025e+01 -2.918975276816622e+03
-1.148183052200817e+03  8.236906808138372e+01 -2.918975276816622e+03
-1.148183445003140e+03  8.137065714060171e+01 -2.918975276816622e+03
-1.148183047426884e+03  8.037224486926478e+01 -2.918975276816622e+03
-1.148182608410768e+03  7.937383007915533e+01 -2.918975276816622e+03
-1.148182639836131e+03  7.837541423945645e+01 -2.918975276816622e+03
-1.148185671639683e+03  7.737699873315690e+01 -2.918975276816622e+03
-1.148163952452601e+03  7.637857667215113e+01 -2.918975276816622e+03
-1.148133307111572e+03  7.537995379372650e+01 -2.918975276816622e+03
-1.148258373473110e+03  7.438115093612934e+01 -2.918975276816622e+03
-1.148391638768793e+03  7.338348460078609e+01 -2.918975276816622e+03
-1.148119019162227e+03  7.238576954354370e+01 -2.918975276816622e+03
-1.147847529175590e+03  7.138607711994753e+01 -2.918975276816622e+03
-1.148215554822296e+03  7.038642789008581e+01 -2.918975276816622e+03
-1.148571341545317e+03  6.938977597197926e+01 -2.918975276816622e+03
-1.148258060296316e+03  6.839278494160011e+01 -2.918975276816622e+03
-1.147945138640778e+03  6.739342263685111e+01 -2.918975276816622e+03
-1.148060978187846e+03  6.639410480236957e+01 -2.918975276816622e+03
-1.148309978004504e+03  6.539513037392759e+01 -2.918975276816622e+03
-1.148412117372080e+03  6.439767308176719e+01 -2.918975276816622e+03
-1.148116722822905e+03  6.340004633414952e+01 -2.918975276816622e+03
-1.147846994813011e+03  6.240035535123774e+01 -2.918975276816622e+03
-1.148215285014225e+03  6.140070606542584e+01 -2.918975276816622e+03
-1.148572088030067e+03  6.040405183879550e+01 -2.918975276816622e+03
-1.148259351819092e+03  5.940706930962117e+01 -2.918975276816622e+03
-1.147946911188994e+03  5.840770233519153e+01 -2.918975276816622e+03
-1.148036863163032e+03  5.740850389054278e+01 -2.918975276816622e+03
-1.148274898329674e+03  5.640858970332300e+01 -2.918975276816622e+03
-1.148530035806775e+03  5.541285795800101e+01 -2.918975276816622e+03
-1.148257990027003e+03  5.441420682834548e+01 -2.918975276816622e+03
-1.147686716286865e+03  5.341526396824443e+01 -2.918975276816622e+03
-1.147950868672983e+03  5.241649564807235e+01 -2.918975276816622e+03
-1.148816309050435e+03  5.141699280654353e+01 -2.918975276816622e+03
-1.148587211310873e+03  5.042440534677263e+01 -2.918975276816622e+03
-1.147767429587086e+03  4.942375337955255e+01 -2.918975276816622e+03
-1.147981959807190e+03  4.842329314555230e+01 -2.918975276816622e+03
-1.148509099459387e+03  4.742664118261533e+01 -2.918975276816622e+03
-1.148243988965751e+03  4.642730501516534e+01 -2.918975276816622e+03
-1.147834406807650e+03  4.542794090618167e+01 -2.918975276816622e+03
-1.148207548431152e+03  4.442769638093801e+01 -2.918975276816622e+03
-1.148574783906258e+03  4.343096449061685e+01 -2.918975276816622e+03
-1.148257287862392e+03  4.243404346474256e+01 -2.918975276816622e+03
-1.147956601385029e+03  4.143461095034552e+01 -2.918975276816622e+03
-1.148101942079187e+03  4.043550555701557e+01 -2.918975276816622e+03
-1.148233991157377e+03  3.943713612082767e+01 -2.918975276816622e+03
-1.148201649028968e+03  3.843893086166344e+01 -2.918975276816622e+03
-1.148179873009959e+03  3.744047395470817e+01 -2.918975276816622e+03
-1.148183125880540e+03  3.644205724908829e+01 -2.918975276816622e+03
-1.148184356108635e+03  3.544364457207460e+01 -2.918975276816622e+03
-1.148184854737718e+03  3.444523702696694e+01 -2.918975276816622e+03
-1.148183875456133e+03  3.344682779181255e+01 -2.918975276816622e+03
-1.148183303020729e+03  3.244841144753322e+01 -2.918975276816622e+03
-1.148184122562469e+03  3.144999722738654e+01 -2.918975276816622e+03
-1.148184376644014e+03  3.045158730668723e+01 -2.918975276816622e+03
-1.148183717691226e+03  2.945317469078490e+01 -2.918975276816622e+03
-1.148183737817624e+03  2.845475932602928e+01 -2.918975276816622e+03
-1.148184476804719e+03  2.745634737976696e+01 -2.918975276816622e+03
-1.148184326735740e+03  2.645793833200611e+01 -2.918975276816622e+03
-1.148183391897563e+03  2.545952461925418e+01 -2.918975276816622e+03
-1.148183295058958e+03  2.446110734881660e+01 -2.918975276816622e+03
-1.148184280578095e+03  2.346269320528920e+01 -2.918975276816622e+03
-1.148184773554355e+03  2.246428498433550e+01 -2.918975276816622e+03
-1.148181736342559e+03  2.146587656393728e+01 -2.918975276816622e+03
-1.148200858533613e+03  2.046743316017459e+01 -2.918975276816622e+03
-1.148250671137663e+03  1.946931658354556e+01 -2.918975276816622e+03
-1.148137367144346e+03  1.847063609493261e+01 -2.918975276816622e+03
-1.147910530137131e+03  1.747248426183558e+01 -2.918975276816622e+03
-1.148079201912718e+03  1.647079497135481e+01 -2.918975276816622e+03
-1.148645382526446e+03  1.547368469867552e+01 -2.918975276816622e+03
-1.148540274357916e+03  1.448036089730746e+01 -2.918975276816622e+03
-1.147863951582018e+03  1.347928627956794e+01 -2.918975276816622e+03
-1.147787918388936e+03  1.248014037819913e+01 -2.918975276816622e+03
-1.148288392546907e+03  1.148072897774129e+01 -2.918975276816622e+03
-1.148458543143576e+03  1.048259436555806e+01 -2.918975276816622e+03
-1.148207023939306e+03  9.485958943578375e+00 -2.918975276816622e+03
-1.148202854423969e+03  8.486712560970913e+00 -2.918975276816622e+03
-1.148284362108440e+03  7.488802233648064e+00 -2.918975276816622e+03
-1.148036941791394e+03  6.490114309848575e+00 -2.918975276816622e+03
-1.147773089171534e+03  5.492150901120807e+00 -2.918975276816622e+03
-1.148165449225641e+03  4.488586843868015e+00 -2.918975276816622e+03
-1.148920987964349e+03  3.494413885824653e+00 -2.918975276816622e+03
-1.148764106113480e+03  2.506337843209713e+00 -2.918975276816622e+03
-1.147868930120904e+03  1.498506196020139e+00 -2.918975276816622e+03
 1.145725306114114e+03 -4.901870373002554e-01  2.918975276816622e+03
1.146309314051517e+03 4.994109445162098e-01 2.918975276816622e+03
 1.144866000750994e+03 -1.500428510252656e+00  2.918975276816622e+03
 1.144788056882507e+03 -2.497441367917716e+00  2.918975276816622e+03
 1.145432290792523e+03 -3.497437106484087e+00  2.918975276816622e+03
 1.145839053280039e+03 -4.495845096797614e+00  2.918975276816622e+03
 1.145527526173650e+03 -5.489417328865639e+00  2.918975276816622e+03
 1.145234630610554e+03 -6.488919674471283e+00  2.918975276816622e+03
 1.145311632186752e+03 -7.487974513053757e+00  2.918975276816622e+03
 1.145305380081585e+03 -8.486617729058541e+00  2.918975276816622e+03
 1.145099298897440e+03 -9.484715026702979e+00  2.918975276816622e+03
 1.145245839986728e+03 -1.048624096300437e+01  2.918975276816622e+03
 1.145798880327163e+03 -1.148318767575098e+01  2.918975276816622e+03
 1.145695052891795e+03 -1.247666638785793e+01  2.918975276816622e+03
 1.145027918803864e+03 -1.347790353262017e+01  2.918975276816622e+03
 1.144958146489960e+03 -1.447704965602501e+01  2.918975276816622e+03
 1.145453277645392e+03 -1.547635933263107e+01  2.918975276816622e+03
 1.145625235030958e+03 -1.647447216817612e+01  2.918975276816622e+03
 1.145370060225159e+03 -1.747108679809993e+01  2.918975276816622e+03
 1.145290227017271e+03 -1.847054162209470e+01  2.918975276816622e+03
 1.145339606806283e+03 -1.946898640903498e+01  2.918975276816622e+03
 1.145345097557822e+03 -2.046741849314403e+01  2.918975276816622e+03
 1.145344030061791e+03 -2.146588543465744e+01  2.918975276816622e+03
 1.145354014018499e+03 -2.246429364418638e+01  2.918975276816622e+03
 1.145351772738488e+03 -2.346267445066541e+01  2.918975276816622e+03
 1.145345743946201e+03 -2.446109910403883e+01  2.918975276816622e+03
 1.145348477736514e+03 -2.545952960745095e+01  2.918975276816622e+03
 1.145351234257727e+03 -2.645793198433755e+01  2.918975276816622e+03
 1.145349609044623e+03 -2.745633937145384e+01  2.918975276816622e+03
 1.145349064640355e+03 -2.845475649835530e+01  2.918975276816622e+03
 1.145349544798688e+03 -2.945316909536739e+01  2.918975276816622e+03
 1.145349121608639e+03 -3.045158226988561e+01  2.918975276816622e+03
 1.145349068407131e+03 -3.144999843866484e+01  2.918975276816622e+03
 1.145349493978355e+03 -3.244841172073853e+01  2.918975276816622e+03
 1.145349374988835e+03 -3.344682423876477e+01  2.918975276816622e+03
 1.145349531261978e+03 -3.444523874879748e+01  2.918975276816622e+03
 1.145349872003907e+03 -3.544364967438727e+01  2.918975276816622e+03
 1.145349438673080e+03 -3.644206060740729e+01  2.918975276816622e+03
 1.145349281891890e+03 -3.744047514735456e+01  2.918975276816622e+03
 1.145349410237147e+03 -3.843888764046875e+01  2.918975276816622e+03
 1.145348924819774e+03 -3.943730081568423e+01  2.918975276816622e+03
 1.145348905333371e+03 -4.043571695383878e+01  2.918975276816622e+03
 1.145349365083978e+03 -4.143413015013709e+01  2.918975276816622e+03
 1.145348986112896e+03 -4.243254260294066e+01  2.918975276816622e+03
 1.145348733867071e+03 -4.343095923456259e+01  2.918975276816622e+03
 1.145349721858556e+03 -4.442937366418905e+01  2.918975276816622e+03
 1.145350472443320e+03 -4.542778125310829e+01  2.918975276816622e+03
 1.145349692766746e+03 -4.642618879875473e+01  2.918975276816622e+03
 1.145348665660065e+03 -4.742460318854872e+01  2.918975276816622e+03
 1.145348885404216e+03 -4.842301986111721e+01  2.918975276816622e+03
 1.145349244324183e+03 -4.942143231413897e+01  2.918975276816622e+03
 1.145348751333024e+03 -5.041984542487393e+01  2.918975276816622e+03
 1.145348723724774e+03 -5.141826155664995e+01  2.918975276816622e+03
 1.145349178188464e+03 -5.241667479447004e+01  2.918975276816622e+03
 1.145349031062347e+03 -5.341508726289648e+01  2.918975276816622e+03
 1.145349157637297e+03 -5.441350173878561e+01  2.918975276816622e+03
 1.145349524556889e+03 -5.541191264177640e+01  2.918975276816622e+03
 1.145349118306071e+03 -5.641032354605122e+01  2.918975276816622e+03
 1.145348959988400e+03 -5.740873805473296e+01  2.918975276816622e+03
 1.145349085841253e+03 -5.840715052655943e+01  2.918975276816622e+03
 1.145348599372377e+03 -5.940556368694200e+01  2.918975276816622e+03
 1.145348579599049e+03 -6.040397980725586e+01  2.918975276816622e+03
 1.145349038187439e+03 -6.140239298605800e+01  2.918975276816622e+03
 1.145348658453856e+03 -6.240080542504703e+01  2.918975276816622e+03
 1.145348405809529e+03 -6.339922203950552e+01  2.918975276816622e+03
 1.145349391889244e+03 -6.439763645378243e+01  2.918975276816622e+03
 1.145350140963711e+03 -6.539604403666925e+01  2.918975276816622e+03
 1.145349361711406e+03 -6.639445157295431e+01  2.918975276816622e+03
 1.145348333755852e+03 -6.739286594591724e+01  2.918975276816622e+03
 1.145348551158929e+03 -6.839128261029305e+01  2.918975276816622e+03
 1.145348909989865e+03 -6.938969506119565e+01  2.918975276816622e+03
 1.145348417827274e+03 -7.038810815876145e+01  2.918975276816622e+03
 1.145348388636298e+03 -7.138652427487010e+01  2.918975276816622e+03
 1.145348841268058e+03 -7.238493750701996e+01  2.918975276816622e+03
 1.145348694037236e+03 -7.338334996942714e+01  2.918975276816622e+03
 1.145348820092976e+03 -7.438176443436659e+01  2.918975276816622e+03
 1.145349185546209e+03 -7.538017533021869e+01  2.918975276816622e+03
 1.145348778763551e+03 -7.637858622987662e+01  2.918975276816622e+03
 1.145348620293110e+03 -7.737700072927530e+01  2.918975276816622e+03
 1.145348744905562e+03 -7.837541319162821e+01  2.918975276816622e+03
 1.145348257345208e+03 -7.937382634633519e+01  2.918975276816622e+03
 1.145348237330793e+03 -8.037224245965099e+01  2.918975276816622e+03
 1.145348695282249e+03 -8.137065562970270e+01  2.918975276816622e+03
 1.145348314229063e+03 -8.236906806098857e+01  2.918975276816622e+03
 1.145348060389767e+03 -8.336748467021891e+01  2.918975276816622e+03
 1.145349045950999e+03 -8.436589908118874e+01  2.918975276816622e+03
 1.145349794855920e+03 -8.536430665887752e+01  2.918975276816622e+03
 1.145349015415252e+03 -8.636271418639667e+01  2.918975276816622e+03
 1.145347986987334e+03 -8.736112854704798e+01  2.918975276816622e+03
 1.145348202767915e+03 -8.835954519993938e+01  2.918975276816622e+03
 1.145348559486810e+03 -8.935795764689509e+01  2.918975276816622e+03
 1.145348066807505e+03 -9.035637074397087e+01  2.918975276816622e+03
 1.145348038096627e+03 -9.135478685336301e+01  2.918975276816622e+03
 1.145348489058624e+03 -9.235320007503346e+01  2.918975276816622e+03
 1.145348338784408e+03 -9.335161253856340e+01  2.918975276816622e+03
 1.145348466347111e+03 -9.435002701199527e+01  2.918975276816622e+03
 1.145348836622405e+03 -9.534843789041784e+01  2.918975276816622e+03
 1.145348427896583e+03 -9.634684875109079e+01  2.918975276816622e+03
 1.145348261018899e+03 -9.734526323986506e+01  2.918975276816622e+03
 1.145348381706705e+03 -9.834367572432650e+01  2.918975276816622e+03
 1.145347897230037e+03 -9.934208889321209e+01  2.918975276816622e+03
 1.145347881055104e+03 -1.003405049965154e+02  2.918975276816622e+03
 1.145348338933522e+03 -1.013389181446258e+02  2.918975276816622e+03
 1.145347954749205e+03 -1.023373305612075e+02  2.918975276816622e+03
 1.145347698939628e+03 -1.033357471669217e+02  2.918975276816622e+03
 1.145348684256161e+03 -1.043341615728537e+02  2.918975276816622e+03
 1.145349431925705e+03 -1.053325691429314e+02  2.918975276816622e+03
 1.145348650688586e+03 -1.063309766672603e+02  2.918975276816622e+03
 1.145347621791384e+03 -1.073293910252700e+02  2.918975276816622e+03
 1.145347837461141e+03 -1.083278076710756e+02  2.918975276816622e+03
 1.145348193126531e+03 -1.093262201104441e+02  2.918975276816622e+03
 1.145347699339808e+03 -1.103246332014730e+02  2.918975276816622e+03
 1.145347669901168e+03 -1.113230493037487e+02  2.918975276816622e+03
 1.145348120305825e+03 -1.123214625183127e+02  2.918975276816622e+03
 1.145347969940656e+03 -1.133198749715503e+02  2.918975276816622e+03
 1.145348095423605e+03 -1.143182894295876e+02  2.918975276816622e+03
 1.145348460403070e+03 -1.153167003075979e+02  2.918975276816622e+03
 1.145348050115826e+03 -1.163151111898724e+02  2.918975276816622e+03
 1.145347889164209e+03 -1.173135256841446e+02  2.918975276816622e+03
 1.145348013945321e+03 -1.183119381352327e+02  2.918975276816622e+03
 1.145347524320821e+03 -1.193103512682809e+02  2.918975276816622e+03
 1.145347500684487e+03 -1.203087673711174e+02  2.918975276816622e+03
 1.145347957546610e+03 -1.213071805357429e+02  2.918975276816622e+03
 1.145347575568866e+03 -1.223055929506841e+02  2.918975276816622e+03
 1.145347319255932e+03 -1.233040095447964e+02  2.918975276816622e+03
 1.145348303455180e+03 -1.243024239460924e+02  2.918975276816622e+03
 1.145349050826583e+03 -1.253008315079881e+02  2.918975276816622e+03
 1.145348267390472e+03 -1.262992390215338e+02  2.918975276816622e+03
 1.145347236086496e+03 -1.272976533792645e+02  2.918975276816622e+03
 1.145347452242313e+03 -1.282960700253698e+02  2.918975276816622e+03
 1.145347808539981e+03 -1.292944824525959e+02  2.918975276816622e+03
 1.145347312418404e+03 -1.302928955295345e+02  2.918975276816622e+03
 1.145347280083770e+03 -1.312913116297792e+02  2.918975276816622e+03
 1.145347730572676e+03 -1.322897248466228e+02  2.918975276816622e+03
 1.145347581354210e+03 -1.332881372885347e+02  2.918975276816622e+03
 1.145347704523308e+03 -1.342865517298395e+02  2.918975276816622e+03
 1.145348065851163e+03 -1.352849626073479e+02  2.918975276816622e+03
 1.145347655528607e+03 -1.362833734938650e+02  2.918975276816622e+03
 1.145347495487299e+03 -1.372817879776737e+02  2.918975276816622e+03
 1.145347618255890e+03 -1.382802004163458e+02  2.918975276816622e+03
 1.145347126530117e+03 -1.392786135460764e+02  2.918975276816622e+03
 1.145347102489438e+03 -1.402770296440483e+02  2.918975276816622e+03
 1.145347558261331e+03 -1.412754428001352e+02  2.918975276816622e+03
 1.145347174512548e+03 -1.422738552096320e+02  2.918975276816622e+03
 1.145346917251392e+03 -1.432722717989855e+02  2.918975276816622e+03
 1.145347900511734e+03 -1.442706861941528e+02  2.918975276816622e+03
 1.145348646566031e+03 -1.452690937517023e+02  2.918975276816622e+03
 1.145347862339098e+03 -1.462675012595109e+02  2.918975276816622e+03
 1.145346830074955e+03 -1.472659156067472e+02  2.918975276816622e+03
 1.145347044094893e+03 -1.482643322445904e+02  2.918975276816622e+03
 1.145347398335917e+03 -1.492627446706117e+02  2.918975276816622e+03
 1.145346901995304e+03 -1.502611577461205e+02  2.918975276816622e+03
 1.145346870133895e+03 -1.512595738357094e+02  2.918975276816622e+03
 1.145347318578320e+03 -1.522579870376140e+02  2.918975276816622e+03
 1.145347165534198e+03 -1.532563994757639e+02  2.918975276816622e+03
 1.145347287581467e+03 -1.542548139229005e+02  2.918975276816622e+03
 1.145347650308123e+03 -1.552532247963992e+02  2.918975276816622e+03
 1.145347239460561e+03 -1.562516356665644e+02  2.918975276816622e+03
 1.145347076278736e+03 -1.572500501387622e+02  2.918975276816622e+03
 1.145347196409563e+03 -1.582484625767467e+02  2.918975276816622e+03
 1.145346704237053e+03 -1.592468757057193e+02  2.918975276816622e+03
 1.145346680063618e+03 -1.602452917947081e+02  2.918975276816622e+03
 1.145347133849691e+03 -1.612437049409425e+02  2.918975276816622e+03
 1.145346747932865e+03 -1.622421173470240e+02  2.918975276816622e+03
 1.145346490050254e+03 -1.632405339320099e+02  2.918975276816622e+03
 1.145347472415107e+03 -1.642389483188468e+02  2.918975276816622e+03
 1.145348216656095e+03 -1.652373558705835e+02  2.918975276816622e+03
 1.145347430739237e+03 -1.662357633727602e+02  2.918975276816622e+03
 1.145346396650735e+03 -1.672341777135939e+02  2.918975276816622e+03
 1.145346609654677e+03 -1.682325943486766e+02  2.918975276816622e+03
 1.145346963876961e+03 -1.692310067665855e+02  2.918975276816622e+03
 1.145346465262826e+03 -1.702294198273689e+02  2.918975276816622e+03
 1.145346429653197e+03 -1.712278359145631e+02  2.918975276816622e+03
 1.145346877587311e+03 -1.722262491218065e+02  2.918975276816622e+03
 1.145346725619456e+03 -1.732246615502828e+02  2.918975276816622e+03
 1.145346845718949e+03 -1.742230759808672e+02  2.918975276816622e+03
 1.145347204954595e+03 -1.752214868491329e+02  2.918975276816622e+03
 1.145346792299755e+03 -1.762198977192534e+02  2.918975276816622e+03
 1.145346628531152e+03 -1.772183121872241e+02  2.918975276816622e+03
 1.145346747596058e+03 -1.782167246173852e+02  2.918975276816622e+03
 1.145346253526392e+03 -1.792151377379927e+02  2.918975276816622e+03
 1.145346227603110e+03 -1.802135538211874e+02  2.918975276816622e+03
 1.145346680187292e+03 -1.812119669616690e+02  2.918975276816622e+03
 1.145346292580319e+03 -1.822103793589577e+02  2.918975276816622e+03
 1.145346032507141e+03 -1.832087959371038e+02  2.918975276816622e+03
 1.145347013247203e+03 -1.842072103209199e+02  2.918975276816622e+03
 1.145347756035781e+03 -1.852056178688656e+02  2.918975276816622e+03
 1.145346968557207e+03 -1.862040253657707e+02  2.918975276816622e+03
 1.145345933479696e+03 -1.872024396982131e+02  2.918975276816622e+03
 1.145346144654595e+03 -1.882008563214334e+02  2.918975276816622e+03
 1.145346495571196e+03 -1.891992687341618e+02  2.918975276816622e+03
 1.145345995406840e+03 -1.901976817960524e+02  2.918975276816622e+03
 1.145345959954925e+03 -1.911960978751190e+02  2.918975276816622e+03
 1.145346405596666e+03 -1.921945110687477e+02  2.918975276816622e+03
 1.145346250169723e+03 -1.931929234940491e+02  2.918975276816622e+03
 1.145346369477203e+03 -1.941913379241236e+02  2.918975276816622e+03
 1.145346728008570e+03 -1.951897487818423e+02  2.918975276816622e+03
 1.145346312140553e+03 -1.961881596421979e+02  2.918975276816622e+03
 1.145346146078651e+03 -1.971865741092057e+02  2.918975276816622e+03
 1.145346264834817e+03 -1.981849865336907e+02  2.918975276816622e+03
 1.145345768690443e+03 -1.991833996402246e+02  2.918975276816622e+03
 1.145345738955204e+03 -2.001818157173132e+02  2.918975276816622e+03
 1.145346189523102e+03 -2.011802288605270e+02  2.918975276816622e+03
 1.145345801526479e+03 -2.021786412533516e+02  2.918975276816622e+03
 1.145345540327646e+03 -2.031770578191232e+02  2.918975276816622e+03
 1.145346518665047e+03 -2.041754721923511e+02  2.918975276816622e+03
 1.145347258340282e+03 -2.051738797350673e+02  2.918975276816622e+03
 1.145346468309848e+03 -2.061722872297588e+02  2.918975276816622e+03
 1.145345431761032e+03 -2.071707015564923e+02  2.918975276816622e+03
 1.145345641231068e+03 -2.081691181708125e+02  2.918975276816622e+03
 1.145345989841948e+03 -2.091675305769011e+02  2.918975276816622e+03
 1.145345487470893e+03 -2.101659436314425e+02  2.918975276816622e+03
 1.145345449612233e+03 -2.111643597021524e+02  2.918975276816622e+03
 1.145345892784192e+03 -2.121627728912865e+02  2.918975276816622e+03
 1.145345735361782e+03 -2.131611853113170e+02  2.918975276816622e+03
 1.145345852422987e+03 -2.141595997335804e+02  2.918975276816622e+03
 1.145346208365451e+03 -2.151580105866836e+02  2.918975276816622e+03
 1.145345790621891e+03 -2.161564214419371e+02  2.918975276816622e+03
 1.145345622866240e+03 -2.171548358985463e+02  2.918975276816622e+03
 1.145345738607442e+03 -2.181532483123875e+02  2.918975276816622e+03
 1.145345238691183e+03 -2.191516614132508e+02  2.918975276816622e+03
 1.145345206597017e+03 -2.201500774891088e+02  2.918975276816622e+03
 1.145345656486408e+03 -2.211484906268551e+02  2.918975276816622e+03
 1.145345266281711e+03 -2.221469030036238e+02  2.918975276816622e+03
 1.145345000127515e+03 -2.231453195585293e+02  2.918975276816622e+03
 1.145345975339446e+03 -2.241437339364750e+02  2.918975276816622e+03
 1.145346714904555e+03 -2.251421414770783e+02  2.918975276816622e+03
 1.145345922312516e+03 -2.261405489549115e+02  2.918975276816622e+03
 1.145344880769472e+03 -2.271389632726967e+02  2.918975276816622e+03
 1.145345087794025e+03 -2.281373798864928e+02  2.918975276816622e+03
 1.145345434916604e+03 -2.291357922834049e+02  2.918975276816622e+03
 1.145344928806519e+03 -2.301342053260131e+02  2.918975276816622e+03
 1.145344887416365e+03 -2.311326213917991e+02  2.918975276816622e+03
 1.145345328305481e+03 -2.321310345749820e+02  2.918975276816622e+03
 1.145345167632632e+03 -2.331294469852290e+02  2.918975276816622e+03
 1.145345281200613e+03 -2.341278614017423e+02  2.918975276816622e+03
 1.145345634767987e+03 -2.351262722495691e+02  2.918975276816622e+03
 1.145345213850192e+03 -2.361246830928102e+02  2.918975276816622e+03
 1.145345041404501e+03 -2.371230975405048e+02  2.918975276816622e+03
 1.145345153549563e+03 -2.381215099534114e+02  2.918975276816622e+03
 1.145344651734692e+03 -2.391199230466414e+02  2.918975276816622e+03
 1.145344616352251e+03 -2.401183391059406e+02  2.918975276816622e+03
 1.145345060794572e+03 -2.411167522349797e+02  2.918975276816622e+03
 1.145344666606785e+03 -2.421151646109706e+02  2.918975276816622e+03
 1.145344398333233e+03 -2.431135811556671e+02  2.918975276816622e+03
 1.145345369174591e+03 -2.441119955190584e+02  2.918975276816622e+03
 1.145346102948979e+03 -2.451104030583917e+02  2.918975276816622e+03
 1.145345306886081e+03 -2.461088105354198e+02  2.918975276816622e+03
 1.145344261669360e+03 -2.471072248366237e+02  2.918975276816622e+03
 1.145344462005836e+03 -2.481056414357047e+02  2.918975276816622e+03
 1.145344802058915e+03 -2.491040538296790e+02  2.918975276816622e+03
 1.145344289268922e+03 -2.501024668657522e+02  2.918975276816622e+03
 1.145344247711972e+03 -2.511008829227342e+02  2.918975276816622e+03
 1.145344692864036e+03 -2.520992960453208e+02  2.918975276816622e+03
 1.145344296984953e+03 -2.530977084142648e+02  2.918975276816622e+03
 1.145344026729560e+03 -2.540961249575463e+02  2.918975276816622e+03
 1.145344997259073e+03 -2.550945393189723e+02  2.918975276816622e+03
 1.145345729650749e+03 -2.560929468485845e+02  2.918975276816622e+03
 1.145344929744817e+03 -2.570913543173442e+02  2.918975276816622e+03
 1.145343881663163e+03 -2.580897686164416e+02  2.918975276816622e+03
 1.145344081207785e+03 -2.590881852103337e+02  2.918975276816622e+03
 1.145344420116625e+03 -2.600865975955895e+02  2.918975276816622e+03
 1.145343906350647e+03 -2.610850106249675e+02  2.918975276816622e+03
 1.145343857635471e+03 -2.620834266727223e+02  2.918975276816622e+03
 1.145344290628394e+03 -2.630818398396920e+02  2.918975276816622e+03
 1.145344121367144e+03 -2.640802522326051e+02  2.918975276816622e+03
 1.145344225890310e+03 -2.650786666311066e+02  2.918975276816622e+03
 1.145344570079143e+03 -2.660770774677330e+02  2.918975276816622e+03
 1.145344140488825e+03 -2.670754882986653e+02  2.918975276816622e+03
 1.145343959683543e+03 -2.680739027240465e+02  2.918975276816622e+03
 1.145344060903277e+03 -2.690723151145775e+02  2.918975276816622e+03
 1.145343546984544e+03 -2.700707281938515e+02  2.918975276816622e+03
 1.145343502041543e+03 -2.710691442386047e+02  2.918975276816622e+03
 1.145343936099280e+03 -2.720675573439021e+02  2.918975276816622e+03
 1.145343527273838e+03 -2.730659696959812e+02  2.918975276816622e+03
 1.145343245860683e+03 -2.740643862249426e+02  2.918975276816622e+03
 1.145344212979557e+03 -2.750628005730483e+02  2.918975276816622e+03
 1.145344752260124e+03 -2.760612080958127e+02  2.918975276816622e+03
 1.145343752615962e+03 -2.770596172716655e+02  2.918975276816622e+03
 1.145343278891821e+03 -2.780580332922743e+02  2.918975276816622e+03
 1.145344056877563e+03 -2.790564463164333e+02  2.918975276816622e+03
 1.145343721696876e+03 -2.800548550707418e+02  2.918975276816622e+03
 1.145342519671887e+03 -2.810532704650384e+02  2.918975276816622e+03
 1.145342914561283e+03 -2.820516889608206e+02  2.918975276816622e+03
 1.145343803657924e+03 -2.830501005313740e+02  2.918975276816622e+03
 1.145343173115728e+03 -2.840485112181745e+02  2.918975276816622e+03
 1.145342620864473e+03 -2.850469276524918e+02  2.918975276816622e+03
 1.145343213080581e+03 -2.860453423340833e+02  2.918975276816622e+03
 1.145343784257999e+03 -2.870437533059353e+02  2.918975276816622e+03
 1.145343877982195e+03 -2.880421627239539e+02  2.918975276816622e+03
 1.145343141894306e+03 -2.890405723352116e+02  2.918975276816622e+03
 1.145341968440312e+03 -2.900389876963968e+02  2.918975276816622e+03
 1.145341802379253e+03 -2.910374069731791e+02  2.918975276816622e+03
 1.145342759247338e+03 -2.920358234249602e+02  2.918975276816622e+03
 1.145343462355267e+03 -2.930342341175818e+02  2.918975276816622e+03
 1.145343153456309e+03 -2.940326436820876e+02  2.918975276816622e+03
 1.145342708213380e+03 -2.950310561460723e+02  2.918975276816622e+03
 1.145342633025218e+03 -2.960294691280895e+02  2.918975276816622e+03
 1.145342546393782e+03 -2.970278821573594e+02  2.918975276816622e+03
 1.145342769987962e+03 -2.980262952673999e+02  2.918975276816622e+03
 1.145343085371930e+03 -2.990247053842434e+02  2.918975276816622e+03
 1.145342368298892e+03 -3.000231150983921e+02  2.918975276816622e+03
 1.145341651528303e+03 -3.010215307530540e+02  2.918975276816622e+03
 1.145341989841833e+03 -3.020199462350954e+02  2.918975276816622e+03
 1.145341684965767e+03 -3.030183586786336e+02  2.918975276816622e+03
 1.145341139709157e+03 -3.040167758376655e+02  2.918975276816622e+03
 1.145342212352079e+03 -3.050151916954665e+02  2.918975276816622e+03
 1.145342966387798e+03 -3.060135991083926e+02  2.918975276816622e+03
 1.145341658580301e+03 -3.070120081641381e+02  2.918975276816622e+03
 1.145340991502439e+03 -3.080104256981769e+02  2.918975276816622e+03
 1.145341943188183e+03 -3.090088394760029e+02  2.918975276816622e+03
 1.145341495673892e+03 -3.100072483878939e+02  2.918975276816622e+03
 1.145340388934202e+03 -3.110056654822172e+02  2.918975276816622e+03
 1.145341109837068e+03 -3.120040829391434e+02  2.918975276816622e+03
 1.145341866958565e+03 -3.130024926906171e+02  2.918975276816622e+03
 1.145341365239942e+03 -3.140009026643904e+02  2.918975276816622e+03
 1.145340822518345e+03 -3.149993156303190e+02  2.918975276816622e+03
 1.145340641973745e+03 -3.159977289364375e+02  2.918975276816622e+03
 1.145340546208221e+03 -3.169961422241880e+02  2.918975276816622e+03
 1.145340620144122e+03 -3.179945551941536e+02  2.918975276816622e+03
 1.145340517364483e+03 -3.189929669208722e+02  2.918975276816622e+03
 1.145339920681879e+03 -3.199913800070782e+02  2.918975276816622e+03
 1.145340078989287e+03 -3.209897956024217e+02  2.918975276816622e+03
 1.145340908956303e+03 -3.219882058913340e+02  2.918975276816622e+03
 1.145339754481238e+03 -3.229866130913468e+02  2.918975276816622e+03
 1.145337941261017e+03 -3.239850317819610e+02  2.918975276816622e+03
 1.145339067986896e+03 -3.249834526409817e+02  2.918975276816622e+03
 1.145340466284636e+03 -3.259818600397954e+02  2.918975276816622e+03
 1.145339039565411e+03 -3.269802673064287e+02  2.918975276816622e+03
 1.145337892853468e+03 -3.279786846389165e+02  2.918975276816622e+03
 1.145338737440043e+03 -3.289771000001624e+02  2.918975276816622e+03
 1.145338871744063e+03 -3.299755088838443e+02  2.918975276816622e+03
 1.145337732305409e+03 -3.309739207004038e+02  2.918975276816622e+03
 1.145337294108568e+03 -3.319723361935034e+02  2.918975276816622e+03
 1.145337471271556e+03 -3.329707491899540e+02  2.918975276816622e+03
 1.145337154429707e+03 -3.339691607761860e+02  2.918975276816622e+03
 1.145336663668238e+03 -3.349675736263623e+02  2.918975276816622e+03
 1.145336322633906e+03 -3.359659864081304e+02  2.918975276816622e+03
 1.145335795046361e+03 -3.369643990683591e+02  2.918975276816622e+03
 1.145335362229141e+03 -3.379628129230879e+02  2.918975276816622e+03
 1.145335347046707e+03 -3.389612256709974e+02  2.918975276816622e+03
 1.145334874327126e+03 -3.399596359777798e+02  2.918975276816622e+03
 1.145333697729046e+03 -3.409580484904619e+02  2.918975276816622e+03
 1.145333130229488e+03 -3.419564639304248e+02  2.918975276816622e+03
 1.145333190369473e+03 -3.429548765238802e+02  2.918975276816622e+03
 1.145332536030002e+03 -3.439532865594137e+02  2.918975276816622e+03
 1.145331254320474e+03 -3.449516988065597e+02  2.918975276816622e+03
 1.145331145145315e+03 -3.459501130314698e+02  2.918975276816622e+03
 1.145332276556951e+03 -3.469485189179919e+02  2.918975276816622e+03
 1.145328970529983e+03 -3.479469158582097e+02  2.918975276816622e+03
 1.145320971178434e+03 -3.489453380695920e+02  2.918975276816622e+03
 1.145321629285929e+03 -3.499437888581489e+02  2.918975276816622e+03
 1.145330950459860e+03 -3.509422024667059e+02  2.918975276816622e+03
 1.145331542010533e+03 -3.519405744198027e+02  2.918975276816622e+03
 1.145323277332982e+03 -3.529389690157266e+02  2.918975276816622e+03
 1.145315904019546e+03 -3.539373908730918e+02  2.918975276816622e+03
 1.145312650489323e+03 -3.549358282326757e+02  2.918975276816622e+03
 1.145319031452947e+03 -3.559342601400535e+02  2.918975276816622e+03
 1.145324940814013e+03 -3.569326362210915e+02  2.918975276816622e+03
 1.145312563397431e+03 -3.579310017532315e+02  2.918975276816622e+03
 1.145296176213075e+03 -3.589294357286752e+02  2.918975276816622e+03
 1.145297592308209e+03 -3.599278947162550e+02  2.918975276816622e+03
 1.145305951439035e+03 -3.609263030366657e+02  2.918975276816622e+03
 1.145302377524037e+03 -3.619246754046048e+02  2.918975276816622e+03
 1.145290578719786e+03 -3.629230640055337e+02  2.918975276816622e+03
 1.145281618640914e+03 -3.639214707540944e+02  2.918975276816622e+03
 1.145275271391128e+03 -3.649198710355527e+02  2.918975276816622e+03
 1.145266487023196e+03 -3.659182587287370e+02  2.918975276816622e+03
 1.145252737772221e+03 -3.669166372806034e+02  2.918975276816622e+03
 1.145238008604549e+03 -3.679150148203215e+02  2.918975276816622e+03
 1.145224931726492e+03 -3.689133749234248e+02  2.918975276816622e+03
 1.145205121666085e+03 -3.699116914575167e+02  2.918975276816622e+03
 1.145209870184161e+03 -3.709100477149316e+02  2.918975276816622e+03
 1.145244934153733e+03 -3.719082357057960e+02  2.918975276816622e+03
 1.145196345240369e+03 -3.729062810675751e+02  2.918975276816622e+03
 1.144925777907047e+03 -3.739055221018735e+02  2.918975276816622e+03
 1.144520577322964e+03 -3.748885236563269e+02  2.918975276816622e+03
 1.144439356128738e+03 -3.758667179979532e+02  2.918975276816622e+03
 1.145404075800401e+03 -3.769819679471958e+02  2.918975276816622e+03
 1.146805212353433e+03 -3.775830516086157e+02  2.918975276816622e+03
 1.146747724186101e+03 -3.786090301800518e+02  2.918975276816622e+03
 1.145999076654400e+03 -3.798728272066951e+02  2.918975276816622e+03
 1.145185768819821e+03 -3.806104373048569e+02  2.918975276816622e+03
 1.144292735452593e+03 -3.815599949109928e+02  2.918975276816622e+03
 1.144005021826591e+03 -3.826509681205945e+02  2.918975276816622e+03
 1.143181968779374e+03 -3.841211210000790e+02  2.918975276816622e+03
 1.142843050765340e+03 -3.850626744057345e+02  2.918975276816622e+03
 1.143640110593903e+03 -3.857899879881939e+02  2.918975276816622e+03
1.143880831544836e+03 3.849969829922493e+02 2.918975276816622e+03
1.144303483108034e+03 3.859558368358356e+02 2.918975276816622e+03
1.143488173683665e+03 3.837622650137513e+02 2.918975276816622e+03
1.144028956839115e+03 3.825915473393505e+02 2.918975276816622e+03
1.144312916900589e+03 3.818565070320661e+02 2.918975276816622e+03
1.144187529645785e+03 3.810015010557290e+02 2.918975276816622e+03
1.144058144060887e+03 3.798929779604952e+02 2.918975276816622e+03
1.144039153812045e+03 3.786926368891000e+02 2.918975276816622e+03
1.144467642096943e+03 3.780407148532715e+02 2.918975276816622e+03
1.145684055778610e+03 3.772728362666460e+02 2.918975276816622e+03
1.145653408110682e+03 3.759419650988124e+02 2.918975276816622e+03
1.144837712381458e+03 3.749003067009443e+02 2.918975276816622e+03
1.144807483694071e+03 3.738989950751267e+02 2.918975276816622e+03
1.144842376692397e+03 3.729024999618389e+02 2.918975276816622e+03
1.144894093981694e+03 3.719062869985091e+02 2.918975276816622e+03
1.145012189917383e+03 3.709101280928475e+02 2.918975276816622e+03
1.145113102781193e+03 3.699125892460270e+02 2.918975276816622e+03
1.145154295817321e+03 3.689142656645895e+02 2.918975276816622e+03
1.145178522417073e+03 3.679158201215457e+02 2.918975276816622e+03
1.145208665989338e+03 3.669173926823001e+02 2.918975276816622e+03
1.145234143535772e+03 3.659189414797705e+02 2.918975276816622e+03
1.145255029909604e+03 3.649204803531213e+02 2.918975276816622e+03
1.145271706377588e+03 3.639220233402514e+02 2.918975276816622e+03
1.145282868415109e+03 3.629235669594181e+02 2.918975276816622e+03
1.145291115972382e+03 3.619251089216243e+02 2.918975276816622e+03
1.145299555767275e+03 3.609266563846824e+02 2.918975276816622e+03
1.145307271930683e+03 3.599282141455526e+02 2.918975276816622e+03
1.145312604021637e+03 3.589297766499837e+02 2.918975276816622e+03
1.145316668216745e+03 3.579313392736190e+02 2.918975276816622e+03
1.145320774471486e+03 3.569329045257132e+02 2.918975276816622e+03
1.145324460724444e+03 3.559344741649207e+02 2.918975276816622e+03
1.145327250525168e+03 3.549360458091116e+02 2.918975276816622e+03
1.145329799314738e+03 3.539376179320356e+02 2.918975276816622e+03
1.145332527751010e+03 3.529391929038375e+02 2.918975276816622e+03
1.145334560573904e+03 3.519407713660407e+02 2.918975276816622e+03
1.145335699257058e+03 3.509423486918855e+02 2.918975276816622e+03
1.145337278450438e+03 3.499439244884940e+02 2.918975276816622e+03
1.145339346761302e+03 3.489455039895639e+02 2.918975276816622e+03
1.145340677466638e+03 3.479470864283028e+02 2.918975276816622e+03
1.145341402799058e+03 3.469486676620170e+02 2.918975276816622e+03
1.145342205542102e+03 3.459502480721418e+02 2.918975276816622e+03
1.145343260884224e+03 3.449518286602137e+02 2.918975276816622e+03
1.145344704884298e+03 3.439534111955928e+02 2.918975276816622e+03
1.145345625131901e+03 3.429549975106905e+02 2.918975276816622e+03
1.145345261567918e+03 3.419565818618884e+02 2.918975276816622e+03
1.145345449589957e+03 3.409581601260978e+02 2.918975276816622e+03
1.145347453561523e+03 3.399597415421953e+02 2.918975276816622e+03
1.145348789697130e+03 3.389613318853696e+02 2.918975276816622e+03
1.145347785561364e+03 3.379629200477267e+02 2.918975276816622e+03
1.145347202818122e+03 3.369644986878136e+02 2.918975276816622e+03
1.145348992670840e+03 3.359660791585149e+02 2.918975276816622e+03
1.145350373482645e+03 3.349676694883196e+02 2.918975276816622e+03
1.145349465369375e+03 3.339692582845382e+02 2.918975276816622e+03
1.145349057991681e+03 3.329708386403731e+02 2.918975276816622e+03
1.145350466219949e+03 3.319724216544193e+02 2.918975276816622e+03
1.145351139437742e+03 3.309740111211359e+02 2.918975276816622e+03
1.145350568169207e+03 3.299755976155396e+02 2.918975276816622e+03
1.145350642091704e+03 3.289771805609358e+02 2.918975276816622e+03
1.145351327056100e+03 3.279787661359929e+02 2.918975276816622e+03
1.145351512001616e+03 3.269803535591648e+02 2.918975276816622e+03
1.145351341015917e+03 3.259819393914129e+02 2.918975276816622e+03
1.145351573066634e+03 3.249835237467805e+02 2.918975276816622e+03
1.145352242245154e+03 3.239851097706875e+02 2.918975276816622e+03
1.145352390965719e+03 3.229866982403135e+02 2.918975276816622e+03
1.145351875184696e+03 3.219882843505242e+02 2.918975276816622e+03
1.145351997950814e+03 3.209898675608459e+02 2.918975276816622e+03
1.145352765149513e+03 3.199914537179915e+02 2.918975276816622e+03
1.145352881094941e+03 3.189930423072141e+02 2.918975276816622e+03
1.145352533859379e+03 3.179946285770274e+02 2.918975276816622e+03
1.145352587344971e+03 3.169962137122595e+02 2.918975276816622e+03
1.145352819279889e+03 3.159978000821450e+02 2.918975276816622e+03
1.145352915071635e+03 3.149993864308194e+02 2.918975276816622e+03
1.145353132547116e+03 3.140009727359965e+02 2.918975276816622e+03
1.145353407618784e+03 3.130025603173406e+02 2.918975276816622e+03
1.145353410599721e+03 3.120041483029374e+02 2.918975276816622e+03
1.145353404288661e+03 3.110057355662108e+02 2.918975276816622e+03
1.145353302435531e+03 3.100073230037598e+02 2.918975276816622e+03
1.145352566703811e+03 3.090089082752028e+02 2.918975276816622e+03
1.145352351679025e+03 3.080104889174974e+02 2.918975276816622e+03
1.145353722009262e+03 3.070120726647777e+02 2.918975276816622e+03
1.145354771624134e+03 3.060136647875493e+02 2.918975276816622e+03
1.145353793695920e+03 3.050152569193579e+02 2.918975276816622e+03
1.145352695896263e+03 3.040168406713567e+02 2.918975276816622e+03
1.145353197780770e+03 3.030184230955842e+02 2.918975276816622e+03
1.145353449588381e+03 3.020200102582986e+02 2.918975276816622e+03
1.145353056827954e+03 3.010215943838849e+02 2.918975276816622e+03
1.145353724928487e+03 3.000231782765449e+02 2.918975276816622e+03
1.145354431293574e+03 2.990247681614850e+02 2.918975276816622e+03
1.145354076973907e+03 2.980263577752659e+02 2.918975276816622e+03
1.145353680322609e+03 2.970279443948419e+02 2.918975276816622e+03
1.145353674074102e+03 2.960295306870436e+02 2.918975276816622e+03
1.145353770667474e+03 2.950311170072455e+02 2.918975276816622e+03
1.145354162965731e+03 2.940327035991011e+02 2.918975276816622e+03
1.145354572227556e+03 2.930342931338995e+02 2.918975276816622e+03
1.145353962663990e+03 2.920358834233492e+02 2.918975276816622e+03
1.145353141279604e+03 2.910374677463759e+02 2.918975276816622e+03
1.145353634147159e+03 2.900390506623321e+02 2.918975276816622e+03
1.145353954682519e+03 2.890406389302778e+02 2.918975276816622e+03
1.145353146565611e+03 2.880422246491026e+02 2.918975276816622e+03
1.145353450149770e+03 2.870438062047115e+02 2.918975276816622e+03
1.145354693299768e+03 2.860453947630722e+02 2.918975276816622e+03
1.145354561846749e+03 2.850469869699114e+02 2.918975276816622e+03
1.145353765455070e+03 2.840485739753492e+02 2.918975276816622e+03
1.145353503109888e+03 2.830501593060811e+02 2.918975276816622e+03
1.145353402640117e+03 2.820517444890944e+02 2.918975276816622e+03
1.145353683143084e+03 2.810533290268215e+02 2.918975276816622e+03
1.145354042967942e+03 2.800549163460373e+02 2.918975276816622e+03
1.145353594382404e+03 2.790565035774535e+02 2.918975276816622e+03
1.145353382797003e+03 2.780580867022713e+02 2.918975276816622e+03
1.145354396097473e+03 2.770596721671485e+02 2.918975276816622e+03
1.145355155854952e+03 2.760612644365843e+02 2.918975276816622e+03
1.145354392018579e+03 2.750628567499421e+02 2.918975276816622e+03
1.145353379655888e+03 2.740644422468696e+02 2.918975276816622e+03
1.145353607885597e+03 2.730660254559455e+02 2.918975276816622e+03
1.145353977747346e+03 2.720676128600809e+02 2.918975276816622e+03
1.145353500950595e+03 2.710691996269315e+02 2.918975276816622e+03
1.145353484160881e+03 2.700707833979139e+02 2.918975276816622e+03
1.145353944686170e+03 2.690723700403692e+02 2.918975276816622e+03
1.145353808017246e+03 2.680739574396683e+02 2.918975276816622e+03
1.145353946270405e+03 2.670755428492461e+02 2.918975276816622e+03
1.145354322149166e+03 2.660771318341078e+02 2.918975276816622e+03
1.145353925064426e+03 2.650787208157710e+02 2.918975276816622e+03
1.145353774982455e+03 2.640803061964706e+02 2.918975276816622e+03
1.145353908874672e+03 2.630818936069622e+02 2.918975276816622e+03
1.145353432802914e+03 2.620834803358321e+02 2.918975276816622e+03
1.145353420751673e+03 2.610850641181284e+02 2.918975276816622e+03
1.145353883853541e+03 2.600866508285064e+02 2.918975276816622e+03
1.145353512031774e+03 2.590882382692795e+02 2.918975276816622e+03
1.145353268978096e+03 2.580898215495601e+02 2.918975276816622e+03
1.145354260932054e+03 2.570914070371920e+02 2.918975276816622e+03
1.145355014399192e+03 2.560929993480615e+02 2.918975276816622e+03
1.145354242121572e+03 2.550945917033087e+02 2.918975276816622e+03
1.145353221403168e+03 2.540961772309668e+02 2.918975276816622e+03
1.145353442172703e+03 2.530977604672730e+02 2.918975276816622e+03
1.145353803922849e+03 2.520993479051015e+02 2.918975276816622e+03
1.145353317427557e+03 2.511009347023151e+02 2.918975276816622e+03
1.145353298606297e+03 2.501025184947661e+02 2.918975276816622e+03
1.145353762333744e+03 2.491041052171924e+02 2.918975276816622e+03
1.145353389898035e+03 2.481056926718219e+02 2.918975276816622e+03
1.145353145423373e+03 2.471072759607108e+02 2.918975276816622e+03
1.145354136655052e+03 2.461088614559648e+02 2.918975276816622e+03
1.145354889594994e+03 2.451104537807062e+02 2.918975276816622e+03
1.145354116037546e+03 2.441120461515331e+02 2.918975276816622e+03
1.145353093899675e+03 2.431136316898557e+02 2.918975276816622e+03
1.145353314092753e+03 2.421152149336812e+02 2.918975276816622e+03
1.145353676376803e+03 2.411168023809492e+02 2.918975276816622e+03
1.145353191258558e+03 2.401183891887088e+02 2.918975276816622e+03
1.145353166949682e+03 2.391199729914262e+02 2.918975276816622e+03
1.145353620922920e+03 2.381215596710841e+02 2.918975276816622e+03
1.145353476715836e+03 2.371231471094865e+02 2.918975276816622e+03
1.145353607894755e+03 2.361247325477977e+02 2.918975276816622e+03
1.145353978710424e+03 2.351263215662140e+02 2.918975276816622e+03
1.145353575511298e+03 2.341279105882803e+02 2.918975276816622e+03
1.145353418036349e+03 2.331294959977649e+02 2.918975276816622e+03
1.145353546672302e+03 2.321310834327508e+02 2.918975276816622e+03
1.145353066329525e+03 2.311326701923637e+02 2.918975276816622e+03
1.145353048755846e+03 2.301342540028279e+02 2.918975276816622e+03
1.145353506769400e+03 2.291358407385946e+02 2.918975276816622e+03
1.145353130708311e+03 2.281374282074727e+02 2.918975276816622e+03
1.145352882766632e+03 2.271390115124730e+02 2.918975276816622e+03
1.145353870232736e+03 2.261405970204789e+02 2.918975276816622e+03
1.145354620802171e+03 2.251421893573242e+02 2.918975276816622e+03
1.145353845567923e+03 2.241437817438558e+02 2.918975276816622e+03
1.145352820966240e+03 2.231453672958819e+02 2.918975276816622e+03
1.145353038846800e+03 2.221469505491980e+02 2.918975276816622e+03
1.145353399701161e+03 2.211485380078578e+02 2.918975276816622e+03
1.145352913030609e+03 2.201501248289381e+02 2.918975276816622e+03
1.145352886598339e+03 2.191517086427706e+02 2.918975276816622e+03
1.145353338750149e+03 2.181532953314145e+02 2.918975276816622e+03
1.145353193595200e+03 2.171548827794399e+02 2.918975276816622e+03
1.145353323721629e+03 2.161564682303609e+02 2.918975276816622e+03
1.145353692769642e+03 2.151580572612416e+02 2.918975276816622e+03
1.145353288139493e+03 2.141596462926817e+02 2.918975276816622e+03
1.145353129427810e+03 2.131612317120021e+02 2.918975276816622e+03
1.145353256596384e+03 2.121628191555818e+02 2.918975276816622e+03
1.145352775864825e+03 2.111644059223749e+02 2.918975276816622e+03
1.145352757865180e+03 2.101659897460754e+02 2.918975276816622e+03
1.145353213582519e+03 2.091675764940893e+02 2.918975276816622e+03
1.145352836010910e+03 2.081691639660083e+02 2.918975276816622e+03
1.145352588558004e+03 2.071707472775386e+02 2.918975276816622e+03
1.145353575282196e+03 2.061723327998755e+02 2.918975276816622e+03
1.145354323877458e+03 2.051739251460602e+02 2.918975276816622e+03
1.145353548229594e+03 2.041755175377450e+02 2.918975276816622e+03
1.145352523659932e+03 2.031771030999632e+02 2.918975276816622e+03
1.145352739942729e+03 2.021786863633297e+02 2.918975276816622e+03
1.145353099511790e+03 2.011802738252098e+02 2.918975276816622e+03
1.145352613535967e+03 2.001818606514124e+02 2.918975276816622e+03
1.145352587361982e+03 1.991834444790203e+02 2.918975276816622e+03
1.145353037815800e+03 1.981850311801363e+02 2.918975276816622e+03
1.145352891177141e+03 1.971866186325820e+02 2.918975276816622e+03
1.145353021140437e+03 1.961882040875748e+02 2.918975276816622e+03
1.145353389972258e+03 1.951897931260235e+02 2.918975276816622e+03
1.145352984982459e+03 1.941913821638681e+02 2.918975276816622e+03
1.145352826430369e+03 1.931929675908225e+02 2.918975276816622e+03
1.145352952926334e+03 1.921945550455052e+02 2.918975276816622e+03
1.145352470537378e+03 1.911961418176763e+02 2.918975276816622e+03
1.145352452735160e+03 1.901977256416742e+02 2.918975276816622e+03
1.145352910085122e+03 1.891993123998994e+02 2.918975276816622e+03
1.145352531499921e+03 1.882008998882528e+02 2.918975276816622e+03
1.145352281418047e+03 1.872024832035057e+02 2.918975276816622e+03
1.145353268352676e+03 1.862040687232403e+02 2.918975276816622e+03
1.145354018427176e+03 1.852056610782655e+02 2.918975276816622e+03
1.145353242022229e+03 1.842072534816652e+02 2.918975276816622e+03
1.145352216469214e+03 1.832088390470850e+02 2.918975276816622e+03
1.145352433355492e+03 1.822104223152469e+02 2.918975276816622e+03
1.145352792930349e+03 1.812120097876237e+02 2.918975276816622e+03
1.145352305898595e+03 1.802135966202925e+02 2.918975276816622e+03
1.145352279343170e+03 1.792151804505804e+02 2.918975276816622e+03
1.145352730083313e+03 1.782167671565003e+02 2.918975276816622e+03
1.145352583811383e+03 1.772183546154035e+02 2.918975276816622e+03
1.145352713926786e+03 1.762199400791666e+02 2.918975276816622e+03
1.145353081825792e+03 1.752215291263988e+02 2.918975276816622e+03
1.145352675861163e+03 1.742231181658455e+02 2.918975276816622e+03
1.145352518375443e+03 1.732247035937917e+02 2.918975276816622e+03
1.145352646129675e+03 1.722262910597944e+02 2.918975276816622e+03
1.145352162557020e+03 1.712278778439456e+02 2.918975276816622e+03
1.145352143174119e+03 1.702294616696903e+02 2.918975276816622e+03
1.145352600853839e+03 1.692310484274074e+02 2.918975276816622e+03
1.145352223401529e+03 1.682326359204275e+02 2.918975276816622e+03
1.145351973940859e+03 1.672342192443385e+02 2.918975276816622e+03
1.145352960582131e+03 1.662358047741890e+02 2.918975276816622e+03
1.145353709920719e+03 1.652373971359435e+02 2.918975276816622e+03
1.145352933310571e+03 1.642389895429905e+02 2.918975276816622e+03
1.145351907571059e+03 1.632405751125752e+02 2.918975276816622e+03
1.145352124311697e+03 1.622421583829989e+02 2.918975276816622e+03
1.145352484900710e+03 1.612437458588258e+02 2.918975276816622e+03
1.145351998670091e+03 1.602453327015113e+02 2.918975276816622e+03
1.145351971326226e+03 1.592469165411411e+02 2.918975276816622e+03
1.145352421254950e+03 1.582485032505415e+02 2.918975276816622e+03
1.145352275050982e+03 1.572500907117025e+02 2.918975276816622e+03
1.145352405745394e+03 1.562516761788663e+02 2.918975276816622e+03
1.145352774530990e+03 1.552532652327415e+02 2.918975276816622e+03
1.145352368375865e+03 1.542548542819203e+02 2.918975276816622e+03
1.145352209727425e+03 1.532564397139937e+02 2.918975276816622e+03
1.145352338025986e+03 1.522580271799230e+02 2.918975276816622e+03
1.145351855732794e+03 1.512596139721601e+02 2.918975276816622e+03
1.145351835623860e+03 1.502611978076216e+02 2.918975276816622e+03
1.145352292692870e+03 1.492627845666674e+02 2.918975276816622e+03
1.145351916250446e+03 1.482643720631281e+02 2.918975276816622e+03
1.145351667059240e+03 1.472659553957670e+02 2.918975276816622e+03
1.145352652987888e+03 1.462675409312292e+02 2.918975276816622e+03
1.145353402016872e+03 1.452691332952884e+02 2.918975276816622e+03
1.145352626057671e+03 1.442707257037019e+02 2.918975276816622e+03
1.145351601958681e+03 1.432723112795487e+02 2.918975276816622e+03
1.145351818842940e+03 1.422738945643029e+02 2.918975276816622e+03
1.145352177106221e+03 1.412754820467204e+02 2.918975276816622e+03
1.145351690328945e+03 1.402770688829735e+02 2.918975276816622e+03
1.145351665379278e+03 1.392786527237206e+02 2.918975276816622e+03
1.145352116501439e+03 1.382802394461237e+02 2.918975276816622e+03
1.145351969297927e+03 1.372818269170816e+02 2.918975276816622e+03
1.145352099191844e+03 1.362834123874478e+02 2.918975276816622e+03
1.145352468244538e+03 1.352850014434574e+02 2.918975276816622e+03
1.145352062918304e+03 1.342865904969792e+02 2.918975276816622e+03
1.145351904595791e+03 1.332881759368917e+02 2.918975276816622e+03
1.145352032097664e+03 1.322897634087227e+02 2.918975276816622e+03
1.145351549828513e+03 1.312913502006389e+02 2.918975276816622e+03
1.145351531302088e+03 1.302929340408774e+02 2.918975276816622e+03
1.145351988432163e+03 1.292945208122126e+02 2.918975276816622e+03
1.145351610537027e+03 1.282961083130609e+02 2.918975276816622e+03
1.145351361651191e+03 1.272976916444786e+02 2.918975276816622e+03
1.145352349086108e+03 1.262992771859460e+02 2.918975276816622e+03
1.145353098485125e+03 1.253008695602984e+02 2.918975276816622e+03
1.145352321675229e+03 1.243024619757912e+02 2.918975276816622e+03
1.145351296810189e+03 1.233040475529642e+02 2.918975276816622e+03
1.145351514577028e+03 1.223056308377129e+02 2.918975276816622e+03
1.145351874521088e+03 1.213072183283158e+02 2.918975276816622e+03
1.145351387550954e+03 1.203088051773031e+02 2.918975276816622e+03
1.145351361072336e+03 1.193103890231490e+02 2.918975276816622e+03
1.145351811771856e+03 1.183119757442739e+02 2.918975276816622e+03
1.145351665750481e+03 1.173135632156194e+02 2.918975276816622e+03
1.145351797245363e+03 1.163151486934770e+02 2.918975276816622e+03
1.145352166342305e+03 1.153167377618834e+02 2.918975276816622e+03
1.145351759875195e+03 1.143183268218744e+02 2.918975276816622e+03
1.145351601725034e+03 1.133199122639063e+02 2.918975276816622e+03
1.145351730138833e+03 1.123214997427927e+02 2.918975276816622e+03
1.145351247602551e+03 1.113230865429593e+02 2.918975276816622e+03
1.145351228532998e+03 1.103246703868085e+02 2.918975276816622e+03
1.145351685769764e+03 1.093262571605560e+02 2.918975276816622e+03
1.145351307916648e+03 1.083278446637396e+02 2.918975276816622e+03
1.145351060584933e+03 1.073294279961118e+02 2.918975276816622e+03
1.145352050928254e+03 1.063310135520509e+02 2.918975276816622e+03
1.145352799201019e+03 1.053326059507661e+02 2.918975276816622e+03
1.145352018992834e+03 1.043341983709696e+02 2.918975276816622e+03
1.145350993805928e+03 1.033357839451692e+02 2.918975276816622e+03
1.145351211089078e+03 1.023373672329649e+02 2.918975276816622e+03
1.145351571416171e+03 1.013389547161894e+02 2.918975276816622e+03
1.145351088889744e+03 1.003405415685908e+02 2.918975276816622e+03
1.145351064253776e+03 9.934212544011885e+01 2.918975276816622e+03
1.145351512688283e+03 9.834371217776693e+01 2.918975276816622e+03
1.145351365251016e+03 9.734529965477039e+01 2.918975276816622e+03
1.145351496283592e+03 9.634688513684335e+01 2.918975276816622e+03
1.145351866340831e+03 9.534847420706421e+01 2.918975276816622e+03
1.145351461647954e+03 9.435006327847185e+01 2.918975276816622e+03
1.145351302902098e+03 9.335164873646656e+01 2.918975276816622e+03
1.145351430031626e+03 9.235323622118294e+01 2.918975276816622e+03
1.145350948346329e+03 9.135482302491371e+01 2.918975276816622e+03
1.145350931210186e+03 9.035640688045054e+01 2.918975276816622e+03
1.145351391223885e+03 8.935799367335692e+01 2.918975276816622e+03
1.145351002645888e+03 8.835958120774704e+01 2.918975276816622e+03
1.145350723871320e+03 8.736116445351564e+01 2.918975276816622e+03
1.145351769641154e+03 8.636274976037869e+01 2.918975276816622e+03
1.145352676514044e+03 8.536434256236426e+01 2.918975276816622e+03
1.145351791748504e+03 8.436593609868396e+01 2.918975276816622e+03
1.145350383802336e+03 8.336752120898586e+01 2.918975276816622e+03
1.145350664879807e+03 8.236910242866081e+01 2.918975276816622e+03
1.145351510337091e+03 8.137068995596215e+01 2.918975276816622e+03
1.145351058934947e+03 8.037227894942845e+01 2.918975276816622e+03
1.145350677702922e+03 7.937386334134229e+01 2.918975276816622e+03
1.145351050472433e+03 7.837544903407756e+01 2.918975276816622e+03
1.145351037113486e+03 7.737703618403016e+01 2.918975276816622e+03
1.145351176234320e+03 7.637862200712458e+01 2.918975276816622e+03
1.145351492338913e+03 7.538021129922998e+01 2.918975276816622e+03
1.145351129417817e+03 7.438180048983718e+01 2.918975276816622e+03
1.145351080379956e+03 7.338338609187977e+01 2.918975276816622e+03
1.145351056204784e+03 7.238497386677334e+01 2.918975276816622e+03
1.145350378716891e+03 7.138655948098200e+01 2.918975276816622e+03
1.145350987191479e+03 7.038814223872534e+01 2.918975276816622e+03
1.145352054759187e+03 6.938973318987429e+01 2.918975276816622e+03
1.145351028115238e+03 6.839132520381479e+01 2.918975276816622e+03
1.145349920175647e+03 6.739290791381930e+01 2.918975276816622e+03
1.145348334953304e+03 6.639449190680375e+01 2.918975276816622e+03
1.145369997452497e+03 6.539604765533103e+01 2.918975276816622e+03
1.145400151819392e+03 6.439784336167565e+01 2.918975276816622e+03
1.145268864285019e+03 6.339946697103480e+01 2.918975276816622e+03
1.145125351947238e+03 6.240037321748390e+01 2.918975276816622e+03
1.145421922086587e+03 6.140095093277323e+01 2.918975276816622e+03
1.145733249990411e+03 6.040393271157613e+01 2.918975276816622e+03
1.145381028109012e+03 5.940725603219774e+01 2.918975276816622e+03
1.145030394172391e+03 5.840731276777926e+01 2.918975276816622e+03
1.145308937058658e+03 5.740784794916142e+01 2.918975276816622e+03
1.145424027986211e+03 5.641075053801600e+01 2.918975276816622e+03
1.145282645257575e+03 5.540916339627297e+01 2.918975276816622e+03
1.145618893044527e+03 5.441256391967162e+01 2.918975276816622e+03
1.145541304208146e+03 5.341575978816864e+01 2.918975276816622e+03
1.144911814636125e+03 5.241504137239421e+01 2.918975276816622e+03
1.145124512131497e+03 5.142029094533791e+01 2.918975276816622e+03
1.145883253758563e+03 5.042165559787009e+01 2.918975276816622e+03
1.145627395945610e+03 4.942540605577532e+01 2.918975276816622e+03
1.144984945002127e+03 4.842661297550956e+01 2.918975276816622e+03
1.145140515456718e+03 4.742399508275131e+01 2.918975276816622e+03
1.145396015907141e+03 4.642528579841274e+01 2.918975276816622e+03
1.145566156176323e+03 4.542712793198680e+01 2.918975276816622e+03
1.145570615819814e+03 4.442795072821374e+01 2.918975276816622e+03
1.145216780567991e+03 4.342939522388393e+01 2.918975276816622e+03
1.145240407419864e+03 4.243412960467523e+01 2.918975276816622e+03
1.145516385042062e+03 4.143375763387493e+01 2.918975276816622e+03
1.145237014540444e+03 4.043470802352753e+01 2.918975276816622e+03
1.145018329380683e+03 3.943931688134027e+01 2.918975276816622e+03
1.145411028999558e+03 3.843780533226370e+01 2.918975276816622e+03
1.145731303689467e+03 3.743901999171239e+01 2.918975276816622e+03
1.145636020331852e+03 3.644351732413237e+01 2.918975276816622e+03
1.145272060320101e+03 3.544477800565951e+01 2.918975276816622e+03
1.145030070511811e+03 3.444511154064741e+01 2.918975276816622e+03
1.145295414536833e+03 3.344599229304733e+01 2.918975276816622e+03
1.145553385208103e+03 3.244835069056578e+01 2.918975276816622e+03
1.145423793408289e+03 3.145063772180038e+01 2.918975276816622e+03
1.145301008388315e+03 3.045183875196635e+01 2.918975276816622e+03
1.145331347997883e+03 2.945321962527641e+01 2.918975276816622e+03
1.145352565040656e+03 2.845479625149074e+01 2.918975276816622e+03
1.145349963144266e+03 2.745637919760938e+01 2.918975276816622e+03
1.145350447023542e+03 2.645796513528255e+01 2.918975276816622e+03
1.145350356414658e+03 2.545955394010012e+01 2.918975276816622e+03
1.145348973235890e+03 2.446113920092046e+01 2.918975276816622e+03
1.145348701715136e+03 2.346271570816656e+01 2.918975276816622e+03
1.145351304712151e+03 2.246429849335500e+01 2.918975276816622e+03
1.145355844727637e+03 2.146589670556853e+01 2.918975276816622e+03
1.145336080002281e+03 2.046748843258441e+01 2.918975276816622e+03
1.145279987488898e+03 1.946900030115793e+01 2.918975276816622e+03
1.145367273028563e+03 1.846951275540382e+01 2.918975276816622e+03
1.145627684413389e+03 1.747289712702217e+01 2.918975276816622e+03
1.145452829290417e+03 1.647479732489676e+01 2.918975276816622e+03
1.144957679235312e+03 1.547543427289708e+01 2.918975276816622e+03
1.145033636839495e+03 1.447626038620823e+01 2.918975276816622e+03
1.145702061000457e+03 1.347527064207515e+01 2.918975276816622e+03
1.145806411690661e+03 1.248191121313574e+01 2.918975276816622e+03
1.145248548664793e+03 1.148474848119006e+01 2.918975276816622e+03
1.145084383853335e+03 1.048310309716899e+01 2.918975276816622e+03
1.145287305005192e+03 9.484995459766578e+00 2.918975276816622e+03
1.145315003865050e+03 8.486333852421142e+00 2.918975276816622e+03
1.145251051728843e+03 7.487311088001485e+00 2.918975276816622e+03
1.145535353104923e+03 6.487900047866177e+00 2.918975276816622e+03
1.145839658320945e+03 5.494412004127598e+00 2.918975276816622e+03
1.145431628202558e+03 4.495950386537465e+00 2.918975276816622e+03
1.144788813305899e+03 3.495710473383265e+00 2.918975276816622e+03
1.144869037398817e+03 2.498648409876804e+00 2.918975276816622e+03
1.145722004118395e+03 1.488762236071916e+00 2.918975276816622e+03
-1.157227561338600e+03 -5.027948980039481e-01 -2.918975276816622e+03
-1.157708729019891e+03  4.996360147765973e-01 -2.918975276816622e+03
-1.156244379623224e+03 -1.506984334667693e+00 -2.918975276816622e+03
-1.156430608867472e+03 -2.494906818290105e+00 -2.918975276816622e+03
-1.157416416942116e+03 -3.493867771031111e+00 -2.918975276816622e+03
-1.157267930696728e+03 -4.488719909571692e+00 -2.918975276816622e+03
-1.156523426162048e+03 -5.485717244005190e+00 -2.918975276816622e+03
-1.156789921496440e+03 -6.487176773420138e+00 -2.918975276816622e+03
-1.157391053316083e+03 -7.485351264844905e+00 -2.918975276816622e+03
-1.157017290247852e+03 -8.488049175366603e+00 -2.918975276816622e+03
-1.156480736678900e+03 -9.484035978149993e+00 -2.918975276816622e+03
-1.156793046692829e+03 -1.048143776543811e+01 -2.918975276816622e+03
-1.157400879915207e+03 -1.148156922991523e+01 -2.918975276816622e+03
-1.157300528206185e+03 -1.248099716177682e+01 -2.918975276816622e+03
-1.156614343297186e+03 -1.348212999615254e+01 -2.918975276816622e+03
-1.156522460290345e+03 -1.447545381863937e+01 -2.918975276816622e+03
-1.157084142219650e+03 -1.547241615775057e+01 -2.918975276816622e+03
-1.157236964473402e+03 -1.647406729385785e+01 -2.918975276816622e+03
-1.157015807616027e+03 -1.747219597108019e+01 -2.918975276816622e+03
-1.156915537298019e+03 -1.847089983188929e+01 -2.918975276816622e+03
-1.156962901653185e+03 -1.946906537382589e+01 -2.918975276816622e+03
-1.156979098651182e+03 -2.046750709095215e+01 -2.918975276816622e+03
-1.156975521568997e+03 -2.146592951873359e+01 -2.918975276816622e+03
-1.156969016629862e+03 -2.246433472658917e+01 -2.918975276816622e+03
-1.156969150215282e+03 -2.346270488535658e+01 -2.918975276816622e+03
-1.156979286511115e+03 -2.446111104332381e+01 -2.918975276816622e+03
-1.156981822326086e+03 -2.545956250854089e+01 -2.918975276816622e+03
-1.156975014001009e+03 -2.645798732577943e+01 -2.918975276816622e+03
-1.156972805824351e+03 -2.745638273068273e+01 -2.918975276816622e+03
-1.156975295485809e+03 -2.845479019721878e+01 -2.918975276816622e+03
-1.156975820214255e+03 -2.945320759748424e+01 -2.918975276816622e+03
-1.156974853969250e+03 -3.045162058779206e+01 -2.918975276816622e+03
-1.156974796612636e+03 -3.145003056672554e+01 -2.918975276816622e+03
-1.156975652891250e+03 -3.244844347790918e+01 -2.918975276816622e+03
-1.156975921060073e+03 -3.344686066416575e+01 -2.918975276816622e+03
-1.156974885476866e+03 -3.444527589061568e+01 -2.918975276816622e+03
-1.156974087282543e+03 -3.544368434419927e+01 -2.918975276816622e+03
-1.156974826260410e+03 -3.644209280189724e+01 -2.918975276816622e+03
-1.156975821593987e+03 -3.744050802871865e+01 -2.918975276816622e+03
-1.156975588693240e+03 -3.843892531128478e+01 -2.918975276816622e+03
-1.156974744439284e+03 -3.943733846884183e+01 -2.918975276816622e+03
-1.156974723207968e+03 -4.043574865192173e+01 -2.918975276816622e+03
-1.156975538722052e+03 -4.143416177173408e+01 -2.918975276816622e+03
-1.156975892699093e+03 -4.243257908590812e+01 -2.918975276816622e+03
-1.156975234287476e+03 -4.343099570840470e+01 -2.918975276816622e+03
-1.156974305992442e+03 -4.442940764419023e+01 -2.918975276816622e+03
-1.156973913549348e+03 -4.542781598910732e+01 -2.918975276816622e+03
-1.156974280659153e+03 -4.642622438278210e+01 -2.918975276816622e+03
-1.156975164143442e+03 -4.742463635966033e+01 -2.918975276816622e+03
-1.156975790685504e+03 -4.842305292833803e+01 -2.918975276816622e+03
-1.156975430582717e+03 -4.942147024410822e+01 -2.918975276816622e+03
-1.156974584631065e+03 -5.041988347625549e+01 -2.918975276816622e+03
-1.156974546591330e+03 -5.141829367908128e+01 -2.918975276816622e+03
-1.156975360345718e+03 -5.241670676759814e+01 -2.918975276816622e+03
-1.156975587906076e+03 -5.341512408199961e+01 -2.918975276816622e+03
-1.156974569084470e+03 -5.441353939983821e+01 -2.918975276816622e+03
-1.156973790274536e+03 -5.541194792363933e+01 -2.918975276816622e+03
-1.156974523960423e+03 -5.641035643672272e+01 -2.918975276816622e+03
-1.156975516009870e+03 -5.740877170969026e+01 -2.918975276816622e+03
-1.156975279848265e+03 -5.840718903045075e+01 -2.918975276816622e+03
-1.156974432744339e+03 -5.940560221387695e+01 -2.918975276816622e+03
-1.156974410743946e+03 -6.040401241972249e+01 -2.918975276816622e+03
-1.156975225567554e+03 -6.140242556751724e+01 -2.918975276816622e+03
-1.156975577504171e+03 -6.240084290541495e+01 -2.918975276816622e+03
-1.156974917514304e+03 -6.339925954355130e+01 -2.918975276816622e+03
-1.156973988626710e+03 -6.439767149405822e+01 -2.918975276816622e+03
-1.156973595503954e+03 -6.539607985446403e+01 -2.918975276816622e+03
-1.156973961823867e+03 -6.639448826284998e+01 -2.918975276816622e+03
-1.156974844314300e+03 -6.739290025469396e+01 -2.918975276816622e+03
-1.156975469538125e+03 -6.839131683503588e+01 -2.918975276816622e+03
-1.156975109177997e+03 -6.938973415842761e+01 -2.918975276816622e+03
-1.156974263567328e+03 -7.038814740323149e+01 -2.918975276816622e+03
-1.156974224160617e+03 -7.138655762090495e+01 -2.918975276816622e+03
-1.156975036387040e+03 -7.238497071634025e+01 -2.918975276816622e+03
-1.156975264297372e+03 -7.338338803770650e+01 -2.918975276816622e+03
-1.156974245316449e+03 -7.438180336854957e+01 -2.918975276816622e+03
-1.156973464838014e+03 -7.538021190170441e+01 -2.918975276816622e+03
-1.156974197693819e+03 -7.637862041963817e+01 -2.918975276816622e+03
-1.156975190090838e+03 -7.737703570079623e+01 -2.918975276816622e+03
-1.156974953806654e+03 -7.837545303305092e+01 -2.918975276816622e+03
-1.156974105561580e+03 -7.937386622680741e+01 -2.918975276816622e+03
-1.156974082149321e+03 -8.037227643932964e+01 -2.918975276816622e+03
-1.156974896451788e+03 -8.137068959156895e+01 -2.918975276816622e+03
-1.156975248805431e+03 -8.236910693707570e+01 -2.918975276816622e+03
-1.156974588591647e+03 -8.336752358697335e+01 -2.918975276816622e+03
-1.156973658359505e+03 -8.436593554684343e+01 -2.918975276816622e+03
-1.156973264083696e+03 -8.536434391253532e+01 -2.918975276816622e+03
-1.156973629687997e+03 -8.636275232610777e+01 -2.918975276816622e+03
-1.156974511593729e+03 -8.736116432285591e+01 -2.918975276816622e+03
-1.156975136698497e+03 -8.835958090899288e+01 -2.918975276816622e+03
-1.156974776271549e+03 -8.935799824064067e+01 -2.918975276816622e+03
-1.156973930342715e+03 -9.035641149456873e+01 -2.918975276816622e+03
-1.156973890246013e+03 -9.135482172321291e+01 -2.918975276816622e+03
-1.156974701262003e+03 -9.235323482833701e+01 -2.918975276816622e+03
-1.156974928664188e+03 -9.335165215640856e+01 -2.918975276816622e+03
-1.156973909023981e+03 -9.435006749734862e+01 -2.918975276816622e+03
-1.156973125293209e+03 -9.534847603585555e+01 -2.918975276816622e+03
-1.156973855971521e+03 -9.634688454228619e+01 -2.918975276816622e+03
-1.156974852395199e+03 -9.734529981601224e+01 -2.918975276816622e+03
-1.156974621290547e+03 -9.834371717298311e+01 -2.918975276816622e+03
-1.156973770359148e+03 -9.934213040501496e+01 -2.918975276816622e+03
-1.156973739259861e+03 -1.003405406262857e+02 -2.918975276816622e+03
-1.156974551097829e+03 -1.013389537619298e+02 -2.918975276816622e+03
-1.156974906105761e+03 -1.023373711031280e+02 -2.918975276816622e+03
-1.156974247089585e+03 -1.033357877631820e+02 -2.918975276816622e+03
-1.156973316251940e+03 -1.043341997327694e+02 -2.918975276816622e+03
-1.156972921133404e+03 -1.053326081085263e+02 -2.918975276816622e+03
-1.156973285489250e+03 -1.063310165306725e+02 -2.918975276816622e+03
-1.156974166666985e+03 -1.073294285332665e+02 -2.918975276816622e+03
-1.156974791803312e+03 -1.083278451279436e+02 -2.918975276816622e+03
-1.156974430398527e+03 -1.093262624709723e+02 -2.918975276816622e+03
-1.156973582132324e+03 -1.103246757297162e+02 -2.918975276816622e+03
-1.156973541349084e+03 -1.113230859556248e+02 -2.918975276816622e+03
-1.156974353324782e+03 -1.123214990666839e+02 -2.918975276816622e+03
-1.156974579442700e+03 -1.133199164055868e+02 -2.918975276816622e+03
-1.156973558913023e+03 -1.143183317452900e+02 -2.918975276816622e+03
-1.156972778411097e+03 -1.153167402919363e+02 -2.918975276816622e+03
-1.156973509363943e+03 -1.163151488317400e+02 -2.918975276816622e+03
-1.156974498533947e+03 -1.173135641249145e+02 -2.918975276816622e+03
-1.156974261612100e+03 -1.183119814625965e+02 -2.918975276816622e+03
-1.156973413694290e+03 -1.193103946712820e+02 -2.918975276816622e+03
-1.156973388655954e+03 -1.203088049031300e+02 -2.918975276816622e+03
-1.156974200653223e+03 -1.213072180706867e+02 -2.918975276816622e+03
-1.156974551060498e+03 -1.223056354285086e+02 -2.918975276816622e+03
-1.156973889446685e+03 -1.233040520869039e+02 -2.918975276816622e+03
-1.156972958962625e+03 -1.243024640568853e+02 -2.918975276816622e+03
-1.156972563896740e+03 -1.253008724404617e+02 -2.918975276816622e+03
-1.156972927251863e+03 -1.262992808710477e+02 -2.918975276816622e+03
-1.156973807649147e+03 -1.272976928811292e+02 -2.918975276816622e+03
-1.156974431892479e+03 -1.282961094842651e+02 -2.918975276816622e+03
-1.156974069340551e+03 -1.292945268318761e+02 -2.918975276816622e+03
-1.156973221156110e+03 -1.302929400943351e+02 -2.918975276816622e+03
-1.156973180191386e+03 -1.312913503321200e+02 -2.918975276816622e+03
-1.156973990014501e+03 -1.322897634530619e+02 -2.918975276816622e+03
-1.156974214832074e+03 -1.332881807927345e+02 -2.918975276816622e+03
-1.156973194594603e+03 -1.342865961364691e+02 -2.918975276816622e+03
-1.156972413569229e+03 -1.352850046915447e+02 -2.918975276816622e+03
-1.156973143919271e+03 -1.362834132386354e+02 -2.918975276816622e+03
-1.156974132715997e+03 -1.372818285431026e+02 -2.918975276816622e+03
-1.156973893784493e+03 -1.382802458904419e+02 -2.918975276816622e+03
-1.156973044217602e+03 -1.392786590985124e+02 -2.918975276816622e+03
-1.156973019970590e+03 -1.402770693330083e+02 -2.918975276816622e+03
-1.156973832100441e+03 -1.412754825143440e+02 -2.918975276816622e+03
-1.156974180626880e+03 -1.422738998826525e+02 -2.918975276816622e+03
-1.156973517692698e+03 -1.432723165444161e+02 -2.918975276816622e+03
-1.156972586668647e+03 -1.442707285190661e+02 -2.918975276816622e+03
-1.156972190991418e+03 -1.452691369078950e+02 -2.918975276816622e+03
-1.156972554237951e+03 -1.462675453456569e+02 -2.918975276816622e+03
-1.156973434005137e+03 -1.472659573679111e+02 -2.918975276816622e+03
-1.156974056474165e+03 -1.482643739798624e+02 -2.918975276816622e+03
-1.156973692781002e+03 -1.492627913303688e+02 -2.918975276816622e+03
-1.156972844309145e+03 -1.502612045972725e+02 -2.918975276816622e+03
-1.156972802971263e+03 -1.512596148423740e+02 -2.918975276816622e+03
-1.156973612273801e+03 -1.522580279727967e+02 -2.918975276816622e+03
-1.156973835900460e+03 -1.532564453220998e+02 -2.918975276816622e+03
-1.156972814257073e+03 -1.542548606701514e+02 -2.918975276816622e+03
-1.156972032872463e+03 -1.552532692288334e+02 -2.918975276816622e+03
-1.156972762864732e+03 -1.562516777854663e+02 -2.918975276816622e+03
-1.156973750451216e+03 -1.572500930987795e+02 -2.918975276816622e+03
-1.156973510861887e+03 -1.582485104511987e+02 -2.918975276816622e+03
-1.156972660889160e+03 -1.592469236673700e+02 -2.918975276816622e+03
-1.156972635150667e+03 -1.602453339102929e+02 -2.918975276816622e+03
-1.156973446334410e+03 -1.612437470955429e+02 -2.918975276816622e+03
-1.156973795113958e+03 -1.622421644712960e+02 -2.918975276816622e+03
-1.156973131138178e+03 -1.632405811440020e+02 -2.918975276816622e+03
-1.156972198370755e+03 -1.642389931226724e+02 -2.918975276816622e+03
-1.156971802666458e+03 -1.652374015147983e+02 -2.918975276816622e+03
-1.156972165848999e+03 -1.662358099641175e+02 -2.918975276816622e+03
-1.156973043907793e+03 -1.672342219968973e+02 -2.918975276816622e+03
-1.156973665121184e+03 -1.682326386129292e+02 -2.918975276816622e+03
-1.156973301387812e+03 -1.692310559685782e+02 -2.918975276816622e+03
-1.156972452471633e+03 -1.702294692441343e+02 -2.918975276816622e+03
-1.156972409950048e+03 -1.712278794975555e+02 -2.918975276816622e+03
-1.156973218298486e+03 -1.722262926347905e+02 -2.918975276816622e+03
-1.156973441415438e+03 -1.732247099908411e+02 -2.918975276816622e+03
-1.156972419256257e+03 -1.742231253458601e+02 -2.918975276816622e+03
-1.156971637200076e+03 -1.752215339125767e+02 -2.918975276816622e+03
-1.156972366009659e+03 -1.762199424789231e+02 -2.918975276816622e+03
-1.156973352044742e+03 -1.772183577983051e+02 -2.918975276816622e+03
-1.156973112190198e+03 -1.782167751524412e+02 -2.918975276816622e+03
-1.156972263064392e+03 -1.792151883767250e+02 -2.918975276816622e+03
-1.156972236518234e+03 -1.802135986349089e+02 -2.918975276816622e+03
-1.156973045227809e+03 -1.812120118293064e+02 -2.918975276816622e+03
-1.156973392893197e+03 -1.822104292059105e+02 -2.918975276816622e+03
-1.156972729626271e+03 -1.832088458829707e+02 -2.918975276816622e+03
-1.156971796670836e+03 -1.842072578732954e+02 -2.918975276816622e+03
-1.156971399233990e+03 -1.852056662745898e+02 -2.918975276816622e+03
-1.156971761387667e+03 -1.862040747283915e+02 -2.918975276816622e+03
-1.156972639401836e+03 -1.872024867686980e+02 -2.918975276816622e+03
-1.156973260258561e+03 -1.882009033944323e+02 -2.918975276816622e+03
-1.156972895722007e+03 -1.891993207589402e+02 -2.918975276816622e+03
-1.156972045644306e+03 -1.901977340417110e+02 -2.918975276816622e+03
-1.156972002467950e+03 -1.911961443001896e+02 -2.918975276816622e+03
-1.156972811015139e+03 -1.921945574465334e+02 -2.918975276816622e+03
-1.156973033500314e+03 -1.931929748148243e+02 -2.918975276816622e+03
-1.156972009807846e+03 -1.941913901767218e+02 -2.918975276816622e+03
-1.156971226772047e+03 -1.951897987473737e+02 -2.918975276816622e+03
-1.156971955409480e+03 -1.961882073198047e+02 -2.918975276816622e+03
-1.156972941853503e+03 -1.971866226482835e+02 -2.918975276816622e+03
-1.156972701698136e+03 -1.981850400154420e+02 -2.918975276816622e+03
-1.156971850719980e+03 -1.991834532493122e+02 -2.918975276816622e+03
-1.156971823029673e+03 -2.001818635103158e+02 -2.918975276816622e+03
-1.156972632240763e+03 -2.011802767112441e+02 -2.918975276816622e+03
-1.156972980079991e+03 -2.021786940993447e+02 -2.918975276816622e+03
-1.156972316074222e+03 -2.031771107866164e+02 -2.918975276816622e+03
-1.156971382060397e+03 -2.041755227854923e+02 -2.918975276816622e+03
-1.156970983654757e+03 -2.051739311934729e+02 -2.918975276816622e+03
-1.156971345568585e+03 -2.061723396536321e+02 -2.918975276816622e+03
-1.156972223807632e+03 -2.071707517037687e+02 -2.918975276816622e+03
-1.156972844290985e+03 -2.081691683408124e+02 -2.918975276816622e+03
-1.156972479044925e+03 -2.091675857133247e+02 -2.918975276816622e+03
-1.156971628711287e+03 -2.101659990035375e+02 -2.918975276816622e+03
-1.156971585168260e+03 -2.111644092723335e+02 -2.918975276816622e+03
-1.156972393055434e+03 -2.121628224279754e+02 -2.918975276816622e+03
-1.156972615266487e+03 -2.131612398033215e+02 -2.918975276816622e+03
-1.156971591582085e+03 -2.141596551724676e+02 -2.918975276816622e+03
-1.156970808769958e+03 -2.151580637526560e+02 -2.918975276816622e+03
-1.156971537383664e+03 -2.161564723393108e+02 -2.918975276816622e+03
-1.156972522510385e+03 -2.171548876801208e+02 -2.918975276816622e+03
-1.156972281472129e+03 -2.181533050499830e+02 -2.918975276816622e+03
-1.156971431883788e+03 -2.191517182888227e+02 -2.918975276816622e+03
-1.156971405047693e+03 -2.201501285667975e+02 -2.918975276816622e+03
-1.156972212881155e+03 -2.211485417825971e+02 -2.918975276816622e+03
-1.156972559797116e+03 -2.221469591762469e+02 -2.918975276816622e+03
-1.156971896238534e+03 -2.231453758690904e+02 -2.918975276816622e+03
-1.156970962868778e+03 -2.241437878770402e+02 -2.918975276816622e+03
-1.156970564931515e+03 -2.251421962976155e+02 -2.918975276816622e+03
-1.156970926685613e+03 -2.261406047722390e+02 -2.918975276816622e+03
-1.156971804668192e+03 -2.271390168336751e+02 -2.918975276816622e+03
-1.156972425466526e+03 -2.281374334808999e+02 -2.918975276816622e+03
-1.156972060294322e+03 -2.291358508634164e+02 -2.918975276816622e+03
-1.156971210254335e+03 -2.301342641618017e+02 -2.918975276816622e+03
-1.156971167615151e+03 -2.311326744429773e+02 -2.918975276816622e+03
-1.156971975695121e+03 -2.321310876133610e+02 -2.918975276816622e+03
-1.156972197956913e+03 -2.331295049981649e+02 -2.918975276816622e+03
-1.156971175134359e+03 -2.341279203767840e+02 -2.918975276816622e+03
-1.156970392973605e+03 -2.351263289710631e+02 -2.918975276816622e+03
-1.156971121949662e+03 -2.361247375718995e+02 -2.918975276816622e+03
-1.156972107758605e+03 -2.371231529248690e+02 -2.918975276816622e+03
-1.156971867662432e+03 -2.381215703054198e+02 -2.918975276816622e+03
-1.156971019279454e+03 -2.391199835568298e+02 -2.918975276816622e+03
-1.156970993208555e+03 -2.401183938512092e+02 -2.918975276816622e+03
-1.156971801330123e+03 -2.411168070800124e+02 -2.918975276816622e+03
-1.156972149777272e+03 -2.421152244821739e+02 -2.918975276816622e+03
-1.156971488564506e+03 -2.431136411891887e+02 -2.918975276816622e+03
-1.156970556179083e+03 -2.441120532156967e+02 -2.918975276816622e+03
-1.156970159044538e+03 -2.451104616502888e+02 -2.918975276816622e+03
-1.156970523198505e+03 -2.461088701398404e+02 -2.918975276816622e+03
-1.156971403456138e+03 -2.471072822202841e+02 -2.918975276816622e+03
-1.156972026302712e+03 -2.481056988801536e+02 -2.918975276816622e+03
-1.156971665363091e+03 -2.491041162722000e+02 -2.918975276816622e+03
-1.156970820260746e+03 -2.501025295898069e+02 -2.918975276816622e+03
-1.156970786637622e+03 -2.511009398921708e+02 -2.918975276816622e+03
-1.156971593958348e+03 -2.520993531296717e+02 -2.918975276816622e+03
-1.156971941541012e+03 -2.530977705404730e+02 -2.918975276816622e+03
-1.156971280516132e+03 -2.540961872524787e+02 -2.918975276816622e+03
-1.156970350280476e+03 -2.550945992906741e+02 -2.918975276816622e+03
-1.156969953874841e+03 -2.560930077470123e+02 -2.918975276816622e+03
-1.156970316741493e+03 -2.570914162496400e+02 -2.918975276816622e+03
-1.156971198090259e+03 -2.580898283338367e+02 -2.918975276816622e+03
-1.156971823483315e+03 -2.590882450075135e+02 -2.918975276816622e+03
-1.156971462164402e+03 -2.600866624184619e+02 -2.918975276816622e+03
-1.156970615771480e+03 -2.610850757477163e+02 -2.918975276816622e+03
-1.156970576926593e+03 -2.620834860640221e+02 -2.918975276816622e+03
-1.156971388665809e+03 -2.630818992659752e+02 -2.918975276816622e+03
-1.156971615561704e+03 -2.640803166752501e+02 -2.918975276816622e+03
-1.156970598908003e+03 -2.650787320838296e+02 -2.918975276816622e+03
-1.156969822180110e+03 -2.660771407226331e+02 -2.918975276816622e+03
-1.156970554949083e+03 -2.670755493658071e+02 -2.918975276816622e+03
-1.156971546009355e+03 -2.680739647469918e+02 -2.918975276816622e+03
-1.156971313645412e+03 -2.690723821578591e+02 -2.918975276816622e+03
-1.156970472742099e+03 -2.700707954528127e+02 -2.918975276816622e+03
-1.156970453553818e+03 -2.710692057942483e+02 -2.918975276816622e+03
-1.156971269850232e+03 -2.720676190652194e+02 -2.918975276816622e+03
-1.156971627366224e+03 -2.730660365067453e+02 -2.918975276816622e+03
-1.156970974476919e+03 -2.740644532534789e+02 -2.918975276816622e+03
-1.156970044861471e+03 -2.750628653247526e+02 -2.918975276816622e+03
-1.156969839949393e+03 -2.760612738215535e+02 -2.918975276816622e+03
-1.156970399958439e+03 -2.770596840990090e+02 -2.918975276816622e+03
-1.156970730344993e+03 -2.780580979251844e+02 -2.918975276816622e+03
-1.156970811577919e+03 -2.790565112944252e+02 -2.918975276816622e+03
-1.156970943092892e+03 -2.800549254692517e+02 -2.918975276816622e+03
-1.156970574869454e+03 -2.810533399075743e+02 -2.918975276816622e+03
-1.156970628784084e+03 -2.820517512521269e+02 -2.918975276816622e+03
-1.156971564678902e+03 -2.830501660916526e+02 -2.918975276816622e+03
-1.156971359304094e+03 -2.840485852407026e+02 -2.918975276816622e+03
-1.156970066741614e+03 -2.850469986278917e+02 -2.918975276816622e+03
-1.156969933836426e+03 -2.860454068888842e+02 -2.918975276816622e+03
-1.156970564273240e+03 -2.870438188793890e+02 -2.918975276816622e+03
-1.156970729231374e+03 -2.880422324400715e+02 -2.918975276816622e+03
-1.156970815852989e+03 -2.890406457948916e+02 -2.918975276816622e+03
-1.156970839699673e+03 -2.900390602746814e+02 -2.918975276816622e+03
-1.156971103806404e+03 -2.910374742893546e+02 -2.918975276816622e+03
-1.156971348759143e+03 -2.920358911659160e+02 -2.918975276816622e+03
-1.156970579729373e+03 -2.930343069225941e+02 -2.918975276816622e+03
-1.156969979193013e+03 -2.940327168944860e+02 -2.918975276816622e+03
-1.156970381649776e+03 -2.950311274122878e+02 -2.918975276816622e+03
-1.156970681032100e+03 -2.960295408628426e+02 -2.918975276816622e+03
-1.156970651764214e+03 -2.970279542859927e+02 -2.918975276816622e+03
-1.156970630991481e+03 -2.980263676653246e+02 -2.918975276816622e+03
-1.156970271308062e+03 -2.990247805507479e+02 -2.918975276816622e+03
-1.156970035689465e+03 -3.000231903384793e+02 -2.918975276816622e+03
-1.156970974632523e+03 -3.010216011846741e+02 -2.918975276816622e+03
-1.156972194337048e+03 -3.020200191743921e+02 -2.918975276816622e+03
-1.156971605733371e+03 -3.030184400777096e+02 -2.918975276816622e+03
-1.156970021811187e+03 -3.040168527371007e+02 -2.918975276816622e+03
-1.156970455335224e+03 -3.050152599393897e+02 -2.918975276816622e+03
-1.156971706096825e+03 -3.060136757363508e+02 -2.918975276816622e+03
-1.156970882851828e+03 -3.070120932169394e+02 -2.918975276816622e+03
-1.156969945113722e+03 -3.080105020988121e+02 -2.918975276816622e+03
-1.156971053030661e+03 -3.090089114456948e+02 -2.918975276816622e+03
-1.156972288835892e+03 -3.100073291535520e+02 -2.918975276816622e+03
-1.156971690081126e+03 -3.110057489286368e+02 -2.918975276816622e+03
-1.156970640293936e+03 -3.120041614903716e+02 -2.918975276816622e+03
-1.156970803854027e+03 -3.130025714828644e+02 -2.918975276816622e+03
-1.156971291411141e+03 -3.140009847234165e+02 -2.918975276816622e+03
-1.156971398468766e+03 -3.149993984162417e+02 -2.918975276816622e+03
-1.156971462446821e+03 -3.159978117567062e+02 -2.918975276816622e+03
-1.156971590860482e+03 -3.169962251620507e+02 -2.918975276816622e+03
-1.156971840970196e+03 -3.179946389471886e+02 -2.918975276816622e+03
-1.156971865079454e+03 -3.189930539619821e+02 -2.918975276816622e+03
-1.156971484391013e+03 -3.199914675771631e+02 -2.918975276816622e+03
-1.156971562774694e+03 -3.209898788155937e+02 -2.918975276816622e+03
-1.156972307073651e+03 -3.219882920754457e+02 -2.918975276816622e+03
-1.156972585704010e+03 -3.229867082918307e+02 -2.918975276816622e+03
-1.156972287556164e+03 -3.239851231959742e+02 -2.918975276816622e+03
-1.156972688403475e+03 -3.249835361505084e+02 -2.918975276816622e+03
-1.156973320016173e+03 -3.259819525122137e+02 -2.918975276816622e+03
-1.156972639996289e+03 -3.269803689013753e+02 -2.918975276816622e+03
-1.156972208229192e+03 -3.279787785725898e+02 -2.918975276816622e+03
-1.156973455499934e+03 -3.289771903970188e+02 -2.918975276816622e+03
-1.156974142020876e+03 -3.299756088522010e+02 -2.918975276816622e+03
-1.156973610765837e+03 -3.309740244080836e+02 -2.918975276816622e+03
-1.156973766291547e+03 -3.319724362943657e+02 -2.918975276816622e+03
-1.156974549003079e+03 -3.329708507939625e+02 -2.918975276816622e+03
-1.156974879681660e+03 -3.339692668664104e+02 -2.918975276816622e+03
-1.156975072186779e+03 -3.349676817725550e+02 -2.918975276816622e+03
-1.156975473266147e+03 -3.359660968509065e+02 -2.918975276816622e+03
-1.156975753280044e+03 -3.369645122105190e+02 -2.918975276816622e+03
-1.156976185200381e+03 -3.379629265598675e+02 -2.918975276816622e+03
-1.156977104033842e+03 -3.389613421495230e+02 -2.918975276816622e+03
-1.156977657993022e+03 -3.399597603400327e+02 -2.918975276816622e+03
-1.156977598089521e+03 -3.409581765986176e+02 -2.918975276816622e+03
-1.156978230240258e+03 -3.419565901933333e+02 -2.918975276816622e+03
-1.156979599150307e+03 -3.429550068284432e+02 -2.918975276816622e+03
-1.156980398694512e+03 -3.439534262778388e+02 -2.918975276816622e+03
-1.156980779599326e+03 -3.449518439280974e+02 -2.918975276816622e+03
-1.156981722714917e+03 -3.459502604204495e+02 -2.918975276816622e+03
-1.156983161056674e+03 -3.469486788437905e+02 -2.918975276816622e+03
-1.156984318922167e+03 -3.479470994622534e+02 -2.918975276816622e+03
-1.156985110290481e+03 -3.489455191461411e+02 -2.918975276816622e+03
-1.156986723866713e+03 -3.499439371823343e+02 -2.918975276816622e+03
-1.156989190453045e+03 -3.509423594092688e+02 -2.918975276816622e+03
-1.156990608491023e+03 -3.519407857085990e+02 -2.918975276816622e+03
-1.156991590028356e+03 -3.529392074633980e+02 -2.918975276816622e+03
-1.156994740479937e+03 -3.539376277750885e+02 -2.918975276816622e+03
-1.156998718533298e+03 -3.549360573782137e+02 -2.918975276816622e+03
-1.157000766596711e+03 -3.559344911899485e+02 -2.918975276816622e+03
-1.157002907754447e+03 -3.569329187032429e+02 -2.918975276816622e+03
-1.157008101322544e+03 -3.579313461679273e+02 -2.918975276816622e+03
-1.157014477678130e+03 -3.589297846314681e+02 -2.918975276816622e+03
-1.157019375465398e+03 -3.599282300540115e+02 -2.918975276816622e+03
-1.157024731305041e+03 -3.609266730184218e+02 -2.918975276816622e+03
-1.157033429670040e+03 -3.619251165115375e+02 -2.918975276816622e+03
-1.157044580169383e+03 -3.629235687853164e+02 -2.918975276816622e+03
-1.157056849046556e+03 -3.639220286376575e+02 -2.918975276816622e+03
-1.157072012850516e+03 -3.649204892836589e+02 -2.918975276816622e+03
-1.157092455528936e+03 -3.659189453404433e+02 -2.918975276816622e+03
-1.157119792378283e+03 -3.669173850247182e+02 -2.918975276816622e+03
-1.157151532755232e+03 -3.679158011842095e+02 -2.918975276816622e+03
-1.157177108999585e+03 -3.689142297813366e+02 -2.918975276816622e+03
-1.157218338073841e+03 -3.699125437355065e+02 -2.918975276816622e+03
-1.157318859541814e+03 -3.709100595694820e+02 -2.918975276816622e+03
-1.157441115753319e+03 -3.719060571048777e+02 -2.918975276816622e+03
-1.157519516465095e+03 -3.729013100897225e+02 -2.918975276816622e+03
-1.157398824719687e+03 -3.739067647983985e+02 -2.918975276816622e+03
-1.156943268695038e+03 -3.749166296426193e+02 -2.918975276816622e+03
-1.156903821237066e+03 -3.759106324703713e+02 -2.918975276816622e+03
-1.157722392702696e+03 -3.769298325423366e+02 -2.918975276816622e+03
-1.158479593304529e+03 -3.776470156622208e+02 -2.918975276816622e+03
-1.158514525441994e+03 -3.785946038399007e+02 -2.918975276816622e+03
-1.158306304886307e+03 -3.798460850433501e+02 -2.918975276816622e+03
-1.158048003315332e+03 -3.809694447753926e+02 -2.918975276816622e+03
-1.157458901494023e+03 -3.817325367114179e+02 -2.918975276816622e+03
-1.157690248283700e+03 -3.825170489588307e+02 -2.918975276816622e+03
-1.158726174423504e+03 -3.839362493162905e+02 -2.918975276816622e+03
-1.158423620681786e+03 -3.851421332276904e+02 -2.918975276816622e+03
-1.157957941159601e+03 -3.859828526893396e+02 -2.918975276816622e+03
-1.159466804330426e+03  3.850656460477423e+02 -2.918975276816622e+03
-1.158642853653633e+03  3.857911759293972e+02 -2.918975276816622e+03
-1.159122633791905e+03  3.841246976840287e+02 -2.918975276816622e+03
-1.158308328185422e+03  3.825853265650934e+02 -2.918975276816622e+03
-1.158024068271812e+03  3.814856437063726e+02 -2.918975276816622e+03
-1.157025720696358e+03  3.806272011100193e+02 -2.918975276816622e+03
-1.156238455768601e+03  3.798728785710991e+02 -2.918975276816622e+03
-1.156612964503294e+03  3.789552008747559e+02 -2.918975276816622e+03
-1.157210898143243e+03  3.780431825909471e+02 -2.918975276816622e+03
-1.157878468162254e+03  3.770732031562633e+02 -2.918975276816622e+03
-1.158015216721893e+03  3.758797060521360e+02 -2.918975276816622e+03
-1.157565973089337e+03  3.748990136122002e+02 -2.918975276816622e+03
-1.157364424304334e+03  3.739040539906094e+02 -2.918975276816622e+03
-1.157188976614251e+03  3.729064772580027e+02 -2.918975276816622e+03
-1.157090089941736e+03  3.719083277904171e+02 -2.918975276816622e+03
-1.157122196130071e+03  3.709100772059972e+02 -2.918975276816622e+03
-1.157148918834467e+03  3.699116811198941e+02 -2.918975276816622e+03
-1.157123607785609e+03  3.689133477249357e+02 -2.918975276816622e+03
-1.157093567562955e+03  3.679150100997456e+02 -2.918975276816622e+03
-1.157074539161956e+03  3.669166497247219e+02 -2.918975276816622e+03
-1.157063334453010e+03  3.659182715291126e+02 -2.918975276816622e+03
-1.157051713150630e+03  3.649198778976433e+02 -2.918975276816622e+03
-1.157037216445160e+03  3.639214990737008e+02 -2.918975276816622e+03
-1.157035025428456e+03  3.629231272512574e+02 -2.918975276816622e+03
-1.157041817571964e+03  3.619246982651139e+02 -2.918975276816622e+03
-1.157030469279249e+03  3.609262506543597e+02 -2.918975276816622e+03
-1.157012098715851e+03  3.599278713916854e+02 -2.918975276816622e+03
-1.157013876071634e+03  3.589295021845553e+02 -2.918975276816622e+03
-1.157020553185426e+03  3.579310739425330e+02 -2.918975276816622e+03
-1.157015911434703e+03  3.569326364557931e+02 -2.918975276816622e+03
-1.157006193374725e+03  3.559342199434275e+02 -2.918975276816622e+03
-1.156997045064198e+03  3.549358345816228e+02 -2.918975276816622e+03
-1.157001419840347e+03  3.539374648503563e+02 -2.918975276816622e+03
-1.157014146523631e+03  3.529390249203581e+02 -2.918975276816622e+03
-1.157005974110454e+03  3.519405538132867e+02 -2.918975276816622e+03
-1.156988980172081e+03  3.509421694886016e+02 -2.918975276816622e+03
-1.156993472494069e+03  3.499438087987010e+02 -2.918975276816622e+03
-1.157002780918966e+03  3.489453771149277e+02 -2.918975276816622e+03
-1.156998312982935e+03  3.479469371559627e+02 -2.918975276816622e+03
-1.156992812417463e+03  3.469485321855773e+02 -2.918975276816622e+03
-1.156992600755823e+03  3.459501276093008e+02 -2.918975276816622e+03
-1.156992677446902e+03  3.449517162701470e+02 -2.918975276816622e+03
-1.156992476298135e+03  3.439533037495821e+02 -2.918975276816622e+03
-1.156991947934193e+03  3.429548877265079e+02 -2.918975276816622e+03
-1.156990175865843e+03  3.419564739716857e+02 -2.918975276816622e+03
-1.156989070555466e+03  3.409580667678210e+02 -2.918975276816622e+03
-1.156990027310283e+03  3.399596566356445e+02 -2.918975276816622e+03
-1.156990401321772e+03  3.389612375510968e+02 -2.918975276816622e+03
-1.156988377194913e+03  3.379628208611209e+02 -2.918975276816622e+03
-1.156986851597850e+03  3.369644141717434e+02 -2.918975276816622e+03
-1.156987885391794e+03  3.359660057881556e+02 -2.918975276816622e+03
-1.156988564728329e+03  3.349675873677147e+02 -2.918975276816622e+03
-1.156986915384801e+03  3.339691706772815e+02 -2.918975276816622e+03
-1.156985774731475e+03  3.329707628552708e+02 -2.918975276816622e+03
-1.156986581416027e+03  3.319723523899617e+02 -2.918975276816622e+03
-1.156986729953369e+03  3.309739353172149e+02 -2.918975276816622e+03
-1.156985604091743e+03  3.299755213860588e+02 -2.918975276816622e+03
-1.156985230881779e+03  3.289771112657501e+02 -2.918975276816622e+03
-1.156985598101000e+03  3.279786985249958e+02 -2.918975276816622e+03
-1.156985427599855e+03  3.269802838959457e+02 -2.918975276816622e+03
-1.156984796808943e+03  3.259818709628049e+02 -2.918975276816622e+03
-1.156984547135412e+03  3.249834596071598e+02 -2.918975276816622e+03
-1.156984827506515e+03  3.239850466169283e+02 -2.918975276816622e+03
-1.156984657570626e+03  3.229866311909125e+02 -2.918975276816622e+03
-1.156983825192465e+03  3.219882181854996e+02 -2.918975276816622e+03
-1.156983654774563e+03  3.209898081591676e+02 -2.918975276816622e+03
-1.156984162045045e+03  3.199913951883306e+02 -2.918975276816622e+03
-1.156984025799766e+03  3.189929797949964e+02 -2.918975276816622e+03
-1.156983453248501e+03  3.179945667751152e+02 -2.918975276816622e+03
-1.156983350451667e+03  3.169961549307750e+02 -2.918975276816622e+03
-1.156983415516964e+03  3.159977418786482e+02 -2.918975276816622e+03
-1.156983302532482e+03  3.149993288662935e+02 -2.918975276816622e+03
-1.156983307034905e+03  3.140009159059987e+02 -2.918975276816622e+03
-1.156982960976938e+03  3.130025017049931e+02 -2.918975276816622e+03
-1.156982060915329e+03  3.120040906055416e+02 -2.918975276816622e+03
-1.156981538749597e+03  3.110056834250792e+02 -2.918975276816622e+03
-1.156982298503547e+03  3.100072763961668e+02 -2.918975276816622e+03
-1.156986172452416e+03  3.090088616433513e+02 -2.918975276816622e+03
-1.156988436257174e+03  3.080104209086727e+02 -2.918975276816622e+03
-1.156980438006372e+03  3.070119873749305e+02 -2.918975276816622e+03
-1.156973150388991e+03  3.060136114595663e+02 -2.918975276816622e+03
-1.156980161930003e+03  3.050152351944320e+02 -2.918975276816622e+03
-1.156987871805078e+03  3.040168012487028e+02 -2.918975276816622e+03
-1.156985334573860e+03  3.030183622838587e+02 -2.918975276816622e+03
-1.156981871485938e+03  3.020199493670448e+02 -2.918975276816622e+03
-1.156981490731510e+03  3.010215389362187e+02 -2.918975276816622e+03
-1.156981270066641e+03  3.000231283687426e+02 -2.918975276816622e+03
-1.156981428050456e+03  2.990247189342682e+02 -2.918975276816622e+03
-1.156981745326708e+03  2.980263062791386e+02 -2.918975276816622e+03
-1.156981663190122e+03  2.970278932060152e+02 -2.918975276816622e+03
-1.156981562752582e+03  2.960294805088138e+02 -2.918975276816622e+03
-1.156981576561333e+03  2.950310677655544e+02 -2.918975276816622e+03
-1.156981548715974e+03  2.940326547129923e+02 -2.918975276816622e+03
-1.156981127313508e+03  2.930342421913947e+02 -2.918975276816622e+03
-1.156980827364486e+03  2.920358324084095e+02 -2.918975276816622e+03
-1.156981495542513e+03  2.910374216761717e+02 -2.918975276816622e+03
-1.156982339633971e+03  2.900390054382326e+02 -2.918975276816622e+03
-1.156982237485125e+03  2.890405872766647e+02 -2.918975276816622e+03
-1.156981368075476e+03  2.880421716789971e+02 -2.918975276816622e+03
-1.156980460516818e+03  2.870437603222701e+02 -2.918975276816622e+03
-1.156980509179775e+03  2.860453522848230e+02 -2.918975276816622e+03
-1.156981473104431e+03  2.850469405440228e+02 -2.918975276816622e+03
-1.156981820087566e+03  2.840485236906644e+02 -2.918975276816622e+03
-1.156981187492718e+03  2.830501085373477e+02 -2.918975276816622e+03
-1.156980625491678e+03  2.820516969732631e+02 -2.918975276816622e+03
-1.156980812014163e+03  2.810532860415406e+02 -2.918975276816622e+03
-1.156981487504450e+03  2.800548723208587e+02 -2.918975276816622e+03
-1.156981725857868e+03  2.790564552664779e+02 -2.918975276816622e+03
-1.156981064396869e+03  2.780580388666779e+02 -2.918975276816622e+03
-1.156980125909375e+03  2.770596270038639e+02 -2.918975276816622e+03
-1.156979709915340e+03  2.760612187262117e+02 -2.918975276816622e+03
-1.156980056439721e+03  2.750628103942682e+02 -2.918975276816622e+03
-1.156980920173613e+03  2.740643984922960e+02 -2.918975276816622e+03
-1.156981528737120e+03  2.730659820181900e+02 -2.918975276816622e+03
-1.156981149916470e+03  2.720675647963249e+02 -2.918975276816622e+03
-1.156980282633813e+03  2.710691516510058e+02 -2.918975276816622e+03
-1.156980226367871e+03  2.700707415339291e+02 -2.918975276816622e+03
-1.156981026595006e+03  2.690723285272549e+02 -2.918975276816622e+03
-1.156981238225760e+03  2.680739112981123e+02 -2.918975276816622e+03
-1.156980199763267e+03  2.670754960745688e+02 -2.918975276816622e+03
-1.156979403340435e+03  2.660770876338696e+02 -2.918975276816622e+03
-1.156980123712997e+03  2.650786791962455e+02 -2.918975276816622e+03
-1.156981104375085e+03  2.640802640100987e+02 -2.918975276816622e+03
-1.156980854333876e+03  2.630818467769368e+02 -2.918975276816622e+03
-1.156979990013969e+03  2.620834336774705e+02 -2.918975276816622e+03
-1.156979953508388e+03  2.610850235585827e+02 -2.918975276816622e+03
-1.156980758425150e+03  2.600866104968618e+02 -2.918975276816622e+03
-1.156981099103024e+03  2.590881932461029e+02 -2.918975276816622e+03
-1.156980424958574e+03  2.580897767016367e+02 -2.918975276816622e+03
-1.156979483180994e+03  2.570913648395825e+02 -2.918975276816622e+03
-1.156979078765749e+03  2.560929565517061e+02 -2.918975276816622e+03
-1.156979433360327e+03  2.550945482153093e+02 -2.918975276816622e+03
-1.156980306690445e+03  2.540961363130128e+02 -2.918975276816622e+03
-1.156980926565463e+03  2.530977198242037e+02 -2.918975276816622e+03
-1.156980557425673e+03  2.520993025796572e+02 -2.918975276816622e+03
-1.156979698667287e+03  2.511008894223216e+02 -2.918975276816622e+03
-1.156979657705682e+03  2.501024793029842e+02 -2.918975276816622e+03
-1.156980463928080e+03  2.491040662352010e+02 -2.918975276816622e+03
-1.156980805287625e+03  2.481056489767666e+02 -2.918975276816622e+03
-1.156980132405847e+03  2.471072324274007e+02 -2.918975276816622e+03
-1.156979192593715e+03  2.461088205618179e+02 -2.918975276816622e+03
-1.156978790282928e+03  2.451104122719390e+02 -2.918975276816622e+03
-1.156979147280001e+03  2.441120039331078e+02 -2.918975276816622e+03
-1.156980022479749e+03  2.431135920237705e+02 -2.918975276816622e+03
-1.156980642699362e+03  2.421151755270664e+02 -2.918975276816622e+03
-1.156980273397914e+03  2.411167582789173e+02 -2.918975276816622e+03
-1.156979415269744e+03  2.401183451196890e+02 -2.918975276816622e+03
-1.156979369351059e+03  2.391199349946147e+02 -2.918975276816622e+03
-1.156980179461347e+03  2.381215219723164e+02 -2.918975276816622e+03
-1.156980399491973e+03  2.371231047216635e+02 -2.918975276816622e+03
-1.156979369324366e+03  2.361246894812074e+02 -2.918975276816622e+03
-1.156978581748514e+03  2.351262810317601e+02 -2.918975276816622e+03
-1.156979310348494e+03  2.341278725856979e+02 -2.918975276816622e+03
-1.156980298345156e+03  2.331294573856773e+02 -2.918975276816622e+03
-1.156980055764865e+03  2.321310401365602e+02 -2.918975276816622e+03
-1.156979199168290e+03  2.311326270238193e+02 -2.918975276816622e+03
-1.156979170115860e+03  2.301342168948866e+02 -2.918975276816622e+03
-1.156979981929810e+03  2.291358038205399e+02 -2.918975276816622e+03
-1.156980328847682e+03  2.281373865528334e+02 -2.918975276816622e+03
-1.156979660588418e+03  2.271389699929567e+02 -2.918975276816622e+03
-1.156978724732507e+03  2.261405581215823e+02 -2.918975276816622e+03
-1.156978326745116e+03  2.251421498287146e+02 -2.918975276816622e+03
-1.156978687801834e+03  2.241437414834933e+02 -2.918975276816622e+03
-1.156979565592890e+03  2.231453295667427e+02 -2.918975276816622e+03
-1.156980188361251e+03  2.221469130667375e+02 -2.918975276816622e+03
-1.156979823289132e+03  2.211484958133626e+02 -2.918975276816622e+03
-1.156978969116169e+03  2.201500826420967e+02 -2.918975276816622e+03
-1.156978924976877e+03  2.191516725080370e+02 -2.918975276816622e+03
-1.156979736934930e+03  2.181532594849358e+02 -2.918975276816622e+03
-1.156979960576686e+03  2.171548422304429e+02 -2.918975276816622e+03
-1.156978933719132e+03  2.161564269796613e+02 -2.918975276816622e+03
-1.156978148348633e+03  2.151580185243803e+02 -2.918975276816622e+03
-1.156978879574516e+03  2.141596100759208e+02 -2.918975276816622e+03
-1.156979870178624e+03  2.131611948682091e+02 -2.918975276816622e+03
-1.156979629357902e+03  2.121627776111881e+02 -2.918975276816622e+03
-1.156978775010801e+03  2.111643644954897e+02 -2.918975276816622e+03
-1.156978749005507e+03  2.101659543627356e+02 -2.918975276816622e+03
-1.156979563141600e+03  2.091675412808118e+02 -2.918975276816622e+03
-1.156979911574453e+03  2.081691240063756e+02 -2.918975276816622e+03
-1.156979245509413e+03  2.071707074423433e+02 -2.918975276816622e+03
-1.156978312623080e+03  2.061722955650525e+02 -2.918975276816622e+03
-1.156977916689009e+03  2.051738872640618e+02 -2.918975276816622e+03
-1.156978278699524e+03  2.041754789152147e+02 -2.918975276816622e+03
-1.156979158395152e+03  2.031770669988677e+02 -2.918975276816622e+03
-1.156979784272053e+03  2.021786504930936e+02 -2.918975276816622e+03
-1.156979421207533e+03  2.011802332274546e+02 -2.918975276816622e+03
-1.156978567655387e+03  2.001818200496474e+02 -2.918975276816622e+03
-1.156978524822223e+03  1.991834099166575e+02 -2.918975276816622e+03
-1.156979339073048e+03  1.981849968925848e+02 -2.918975276816622e+03
-1.156979565207815e+03  1.971865796324048e+02 -2.918975276816622e+03
-1.156978540804037e+03  1.961881643723279e+02 -2.918975276816622e+03
-1.156977756707415e+03  1.951897559074008e+02 -2.918975276816622e+03
-1.156978488204046e+03  1.941913474564252e+02 -2.918975276816622e+03
-1.156979480510425e+03  1.931929322495991e+02 -2.918975276816622e+03
-1.156979242563838e+03  1.921945149858070e+02 -2.918975276816622e+03
-1.156978389542733e+03  1.911961018597686e+02 -2.918975276816622e+03
-1.156978363666449e+03  1.901976917249393e+02 -2.918975276816622e+03
-1.156979179500666e+03  1.891992786454951e+02 -2.918975276816622e+03
-1.156979531114716e+03  1.882008613650835e+02 -2.918975276816622e+03
-1.156978866725728e+03  1.872024447872185e+02 -2.918975276816622e+03
-1.156977933363775e+03  1.862040329027239e+02 -2.918975276816622e+03
-1.156977537919299e+03  1.852056246062178e+02 -2.918975276816622e+03
-1.156977903151459e+03  1.842072162595970e+02 -2.918975276816622e+03
-1.156978785845387e+03  1.832088043321023e+02 -2.918975276816622e+03
-1.156979411617981e+03  1.822103878130850e+02 -2.918975276816622e+03
-1.156979047919394e+03  1.812119705462393e+02 -2.918975276816622e+03
-1.156978196422971e+03  1.802135573709982e+02 -2.918975276816622e+03
-1.156978156476835e+03  1.792151472321003e+02 -2.918975276816622e+03
-1.156978971768031e+03  1.782167341979892e+02 -2.918975276816622e+03
-1.156979197697060e+03  1.772183169320434e+02 -2.918975276816622e+03
-1.156978173944673e+03  1.762199016723225e+02 -2.918975276816622e+03
-1.156977392424510e+03  1.752214932075894e+02 -2.918975276816622e+03
-1.156978126497886e+03  1.742230847478063e+02 -2.918975276816622e+03
-1.156979118767391e+03  1.732246695290783e+02 -2.918975276816622e+03
-1.156978879915829e+03  1.722262522639499e+02 -2.918975276816622e+03
-1.156978028761922e+03  1.712278391421487e+02 -2.918975276816622e+03
-1.156978006263880e+03  1.702294290011026e+02 -2.918975276816622e+03
-1.156978822792243e+03  1.692310159077841e+02 -2.918975276816622e+03
-1.156979172923511e+03  1.682325986231241e+02 -2.918975276816622e+03
-1.156978509343473e+03  1.672341820510842e+02 -2.918975276816622e+03
-1.156977579675565e+03  1.662357701646615e+02 -2.918975276816622e+03
-1.156977186415746e+03  1.652373618534493e+02 -2.918975276816622e+03
-1.156977550421435e+03  1.642389534965193e+02 -2.918975276816622e+03
-1.156978432323768e+03  1.632405415727436e+02 -2.918975276816622e+03
-1.156979060309231e+03  1.622421250567405e+02 -2.918975276816622e+03
-1.156978698959244e+03  1.612437077817478e+02 -2.918975276816622e+03
-1.156977848106072e+03  1.602452945975994e+02 -2.918975276816622e+03
-1.156977808628467e+03  1.592468844543882e+02 -2.918975276816622e+03
-1.156978624684735e+03  1.582484714164165e+02 -2.918975276816622e+03
-1.156978851571843e+03  1.572500541464172e+02 -2.918975276816622e+03
-1.156977828870370e+03  1.562516388808710e+02 -2.918975276816622e+03
-1.156977047615500e+03  1.552532304115606e+02 -2.918975276816622e+03
-1.156977782268854e+03  1.542548219528562e+02 -2.918975276816622e+03
-1.156978776820014e+03  1.532564067317953e+02 -2.918975276816622e+03
-1.156978539513216e+03  1.522579894542327e+02 -2.918975276816622e+03
-1.156977687503290e+03  1.512595763235326e+02 -2.918975276816622e+03
-1.156977664834559e+03  1.502611661853216e+02 -2.918975276816622e+03
-1.156978483495273e+03  1.492627530924307e+02 -2.918975276816622e+03
-1.156978835422838e+03  1.482643357986193e+02 -2.918975276816622e+03
-1.156978171864536e+03  1.472659192171978e+02 -2.918975276816622e+03
-1.156977241930415e+03  1.462675073279991e+02 -2.918975276816622e+03
-1.156976849678564e+03  1.452690990176726e+02 -2.918975276816622e+03
-1.156977215628395e+03  1.442706906574521e+02 -2.918975276816622e+03
-1.156978098589083e+03  1.432722787247098e+02 -2.918975276816622e+03
-1.156978726351562e+03  1.422738622014239e+02 -2.918975276816622e+03
-1.156978365170233e+03  1.412754449239557e+02 -2.918975276816622e+03
-1.156977515329409e+03  1.402770317372621e+02 -2.918975276816622e+03
-1.156977476793563e+03  1.392786215904345e+02 -2.918975276816622e+03
-1.156978293727775e+03  1.382802085485679e+02 -2.918975276816622e+03
-1.156978521467803e+03  1.372817912726028e+02 -2.918975276816622e+03
-1.156977499507743e+03  1.362833760008496e+02 -2.918975276816622e+03
-1.156976719150255e+03  1.352849675259297e+02 -2.918975276816622e+03
-1.156977454103128e+03  1.342865590609577e+02 -2.918975276816622e+03
-1.156978448129487e+03  1.332881438370337e+02 -2.918975276816622e+03
-1.156978211736536e+03  1.322897265612564e+02 -2.918975276816622e+03
-1.156977362409902e+03  1.312913134252320e+02 -2.918975276816622e+03
-1.156977340326835e+03  1.302929032728814e+02 -2.918975276816622e+03
-1.156978157317602e+03  1.292944901755650e+02 -2.918975276816622e+03
-1.156978510025533e+03  1.282960728859595e+02 -2.918975276816622e+03
-1.156977849129218e+03  1.272976562980366e+02 -2.918975276816622e+03
-1.156976919651614e+03  1.262992443966816e+02 -2.918975276816622e+03
-1.156976526871662e+03  1.253008360821101e+02 -2.918975276816622e+03
-1.156976893497058e+03  1.243024277196261e+02 -2.918975276816622e+03
-1.156977777088315e+03  1.233040157822114e+02 -2.918975276816622e+03
-1.156978405346875e+03  1.223055992556420e+02 -2.918975276816622e+03
-1.156978045451974e+03  1.213071819730753e+02 -2.918975276816622e+03
-1.156977196636004e+03  1.203087687770984e+02 -2.918975276816622e+03
-1.156977157954810e+03  1.193103586224115e+02 -2.918975276816622e+03
-1.156977974800860e+03  1.183119455778356e+02 -2.918975276816622e+03
-1.156978203697123e+03  1.173135282987420e+02 -2.918975276816622e+03
-1.156977182980015e+03  1.163151130183916e+02 -2.918975276816622e+03
-1.156976402875644e+03  1.153167045351680e+02 -2.918975276816622e+03
-1.156977137886584e+03  1.143182960655751e+02 -2.918975276816622e+03
-1.156978132233337e+03  1.133198808377110e+02 -2.918975276816622e+03
-1.156977896417764e+03  1.123214635581502e+02 -2.918975276816622e+03
-1.156977048316679e+03  1.113230504175642e+02 -2.918975276816622e+03
-1.156977027883662e+03  1.103246402567518e+02 -2.918975276816622e+03
-1.156977846039716e+03  1.093262271462513e+02 -2.918975276816622e+03
-1.156978198882271e+03  1.083278098420161e+02 -2.918975276816622e+03
-1.156977536496413e+03  1.073293932429819e+02 -2.918975276816622e+03
-1.156976605262666e+03  1.063309813439636e+02 -2.918975276816622e+03
-1.156976214637328e+03  1.053325730390841e+02 -2.918975276816622e+03
-1.156976585900474e+03  1.043341646684406e+02 -2.918975276816622e+03
-1.156977471701092e+03  1.033357527099435e+02 -2.918975276816622e+03
-1.156978100667435e+03  1.023373361635124e+02 -2.918975276816622e+03
-1.156977739696413e+03  1.013389188594990e+02 -2.918975276816622e+03
-1.156976888312077e+03  1.003405056577146e+02 -2.918975276816622e+03
-1.156976851889404e+03  9.934209550922357e+01 -2.918975276816622e+03
-1.156977675233411e+03  9.834368244974060e+01 -2.918975276816622e+03
-1.156977894887415e+03  9.734526513842137e+01 -2.918975276816622e+03
-1.156976846445554e+03  9.634684995305665e+01 -2.918975276816622e+03
-1.156976128296713e+03  9.534844169935327e+01 -2.918975276816622e+03
-1.156977017364288e+03  9.435003279235180e+01 -2.918975276816622e+03
-1.156978084834943e+03  9.335161644296348e+01 -2.918975276816622e+03
-1.156977648725616e+03  9.235319790498832e+01 -2.918975276816622e+03
-1.156976293066105e+03  9.135478513362865e+01 -2.918975276816622e+03
-1.156976222847296e+03  9.035637839533565e+01 -2.918975276816622e+03
-1.156977679796609e+03  8.935796654781382e+01 -2.918975276816622e+03
-1.156978221423243e+03  8.835954695735664e+01 -2.918975276816622e+03
-1.156977296596357e+03  8.736112966331848e+01 -2.918975276816622e+03
-1.156976379806992e+03  8.636271804978645e+01 -2.918975276816622e+03
-1.156976025239148e+03  8.536430932618755e+01 -2.918975276816622e+03
-1.156976545005496e+03  8.436590067729365e+01 -2.918975276816622e+03
-1.156977669242900e+03  8.336748683712136e+01 -2.918975276816622e+03
-1.156977746065425e+03  8.236906815938082e+01 -2.918975276816622e+03
-1.156976785304827e+03  8.137065353749584e+01 -2.918975276816622e+03
-1.156976546388600e+03  8.037224295071329e+01 -2.918975276816622e+03
-1.156977151803478e+03  7.937383018707625e+01 -2.918975276816622e+03
-1.156977370239359e+03  7.837541447339409e+01 -2.918975276816622e+03
-1.156974370232606e+03  7.737699870921828e+01 -2.918975276816622e+03
-1.156996041130875e+03  7.637857649085795e+01 -2.918975276816622e+03
-1.157026642534288e+03  7.537995374698163e+01 -2.918975276816622e+03
-1.156901601942648e+03  7.438115119516762e+01 -2.918975276816622e+03
-1.156768392224489e+03  7.338348463952755e+01 -2.918975276816622e+03
-1.157041012422752e+03  7.238576939166033e+01 -2.918975276816622e+03
-1.157312455374555e+03  7.138607702886840e+01 -2.918975276816622e+03
-1.156944407232794e+03  7.038642768199003e+01 -2.918975276816622e+03
-1.156588665324620e+03  6.938977608074120e+01 -2.918975276816622e+03
-1.156901974756966e+03  6.839278495216796e+01 -2.918975276816622e+03
-1.157214863198113e+03  6.739342251713214e+01 -2.918975276816622e+03
-1.157099006789443e+03  6.639410484281200e+01 -2.918975276816622e+03
-1.156850014751992e+03  6.539513031736905e+01 -2.918975276816622e+03
-1.156747873184399e+03  6.439767315633743e+01 -2.918975276816622e+03
-1.157043267796620e+03  6.340004640918551e+01 -2.918975276816622e+03
-1.157313019453319e+03  6.240035542401414e+01 -2.918975276816622e+03
-1.156944736820222e+03  6.140070608868327e+01 -2.918975276816622e+03
-1.156587887845111e+03  6.040405173014835e+01 -2.918975276816622e+03
-1.156900607626232e+03  5.940706947570086e+01 -2.918975276816622e+03
-1.157213097330360e+03  5.840770245226542e+01 -2.918975276816622e+03
-1.157123174907450e+03  5.740850384078544e+01 -2.918975276816622e+03
-1.156885106991016e+03  5.640858949869747e+01 -2.918975276816622e+03
-1.156629929036052e+03  5.541285796280940e+01 -2.918975276816622e+03
-1.156901992920076e+03  5.441420693475268e+01 -2.918975276816622e+03
-1.157473298977043e+03  5.341526408312460e+01 -2.918975276816622e+03
-1.157209151882324e+03  5.241649573932120e+01 -2.918975276816622e+03
-1.156343676680740e+03  5.141699269327495e+01 -2.918975276816622e+03
-1.156572760931271e+03  5.042440552600176e+01 -2.918975276816622e+03
-1.157392578293455e+03  4.942375344014010e+01 -2.918975276816622e+03
-1.157178070757556e+03  4.842329333383201e+01 -2.918975276816622e+03
-1.156650905336271e+03  4.742664127667518e+01 -2.918975276816622e+03
-1.156915995703861e+03  4.642730494066027e+01 -2.918975276816622e+03
-1.157325590530394e+03  4.542794092146605e+01 -2.918975276816622e+03
-1.156952444028869e+03  4.442769637950543e+01 -2.918975276816622e+03
-1.156585211513524e+03  4.343096460402363e+01 -2.918975276816622e+03
-1.156902730693229e+03  4.243404347415256e+01 -2.918975276816622e+03
-1.157203416938221e+03  4.143461092864716e+01 -2.918975276816622e+03
-1.157058026693328e+03  4.043550547202317e+01 -2.918975276816622e+03
-1.156925958257948e+03  3.943713623722058e+01 -2.918975276816622e+03
-1.156958364901688e+03  3.843893113472603e+01 -2.918975276816622e+03
-1.156980178828773e+03  3.744047393691660e+01 -2.918975276816622e+03
-1.156976877969020e+03  3.644205705482688e+01 -2.918975276816622e+03
-1.156975601337225e+03  3.544364452921423e+01 -2.918975276816622e+03
-1.156975128016282e+03  3.444523719211295e+01 -2.918975276816622e+03
-1.156976163266694e+03  3.344682789627834e+01 -2.918975276816622e+03
-1.156976732911620e+03  3.244841128887693e+01 -2.918975276816622e+03
-1.156975845990718e+03  3.144999703186178e+01 -2.918975276816622e+03
-1.156975572403112e+03  3.045158740838634e+01 -2.918975276816622e+03
-1.156976268896942e+03  2.945317491536374e+01 -2.918975276816622e+03
-1.156976253223524e+03  2.845475931611498e+01 -2.918975276816622e+03
-1.156975499990510e+03  2.745634723807621e+01 -2.918975276816622e+03
-1.156975655132778e+03  2.645793829604255e+01 -2.918975276816622e+03
-1.156976602478202e+03  2.545952462934292e+01 -2.918975276816622e+03
-1.156976693485910e+03  2.446110735942281e+01 -2.918975276816622e+03
-1.156975711032818e+03  2.346269331116222e+01 -2.918975276816622e+03
-1.156975257674924e+03  2.246428506542732e+01 -2.918975276816622e+03
-1.156978296918490e+03  2.146587641465944e+01 -2.918975276816622e+03
-1.156959111076724e+03  2.046743298271177e+01 -2.918975276816622e+03
-1.156909277850059e+03  1.946931674135617e+01 -2.918975276816622e+03
-1.157022646913409e+03  1.847063632243855e+01 -2.918975276816622e+03
-1.157249511151495e+03  1.747248433056768e+01 -2.918975276816622e+03
-1.157080796207194e+03  1.647079484052680e+01 -2.918975276816622e+03
-1.156514587258768e+03  1.547368473401432e+01 -2.918975276816622e+03
-1.156619716226875e+03  1.448036103281885e+01 -2.918975276816622e+03
-1.157296069781749e+03  1.347928620972497e+01 -2.918975276816622e+03
-1.157372097311057e+03  1.248014038147463e+01 -2.918975276816622e+03
-1.156871578817330e+03  1.148072874875675e+01 -2.918975276816622e+03
-1.156701416058623e+03  1.048259442260350e+01 -2.918975276816622e+03
-1.156952994714963e+03  9.485959234275962e+00 -2.918975276816622e+03
-1.156957190929248e+03  8.486712422739041e+00 -2.918975276816622e+03
-1.156875642768071e+03  7.488802040509388e+00 -2.918975276816622e+03
-1.157123043103306e+03  6.490114319542754e+00 -2.918975276816622e+03
-1.157386902144757e+03  5.492150783774421e+00 -2.918975276816622e+03
-1.156994538488676e+03  4.488587015820934e+00 -2.918975276816622e+03
-1.156239020084376e+03  3.494414202955664e+00 -2.918975276816622e+03
-1.156395916678860e+03  2.506337819938807e+00 -2.918975276816622e+03
-1.157291065926948e+03  1.498506456450689e+00 -2.918975276816622e+03
 1.153714691723444e+03 -4.901863771157753e-01  2.918975276816622e+03
1.153130659229646e+03 4.994109841950387e-01 2.918975276816622e+03
 1.154574017438389e+03 -1.500428542363912e+00  2.918975276816622e+03
 1.154651946094496e+03 -2.497441302287002e+00  2.918975276816622e+03
 1.154007696785634e+03 -3.497437192761629e+00  2.918975276816622e+03
 1.153600948147902e+03 -4.495845251116817e+00  2.918975276816622e+03
 1.153912485099187e+03 -5.489417374146054e+00  2.918975276816622e+03
 1.154205359671251e+03 -6.488919717727024e+00  2.918975276816622e+03
 1.154128356891029e+03 -7.487974416507830e+00  2.918975276816622e+03
 1.154134656258687e+03 -8.486617676553253e+00  2.918975276816622e+03
 1.154340745927922e+03 -9.484714992626873e+00  2.918975276816622e+03
 1.154194146351387e+03 -1.048624107932119e+01  2.918975276816622e+03
 1.153641079973747e+03 -1.148318766629530e+01  2.918975276816622e+03
 1.153744906282971e+03 -1.247666487766985e+01  2.918975276816622e+03
 1.154412418049081e+03 -1.347789624251808e+01  2.918975276816622e+03
 1.154482605702225e+03 -1.447705356808582e+01  2.918975276816622e+03
 1.153984396711923e+03 -1.547637939642715e+01  2.918975276816622e+03
 1.153809329505971e+03 -1.647446240028628e+01  2.918975276816622e+03
 1.154072270086653e+03 -1.747105792350080e+01  2.918975276816622e+03
 1.154159845739453e+03 -1.847054913225904e+01  2.918975276816622e+03
 1.154102167658528e+03 -1.946902408367293e+01  2.918975276816622e+03
 1.154088454054928e+03 -2.046743151152395e+01  2.918975276816622e+03
 1.154093644270657e+03 -2.146587023610691e+01  2.918975276816622e+03
 1.154087628169136e+03 -2.246428687639716e+01  2.918975276816622e+03
 1.154088918957883e+03 -2.346267464069749e+01  2.918975276816622e+03
 1.154094170196174e+03 -2.446109899961091e+01  2.918975276816622e+03
 1.154091522746821e+03 -2.545952944649279e+01  2.918975276816622e+03
 1.154088770576157e+03 -2.645793188113283e+01  2.918975276816622e+03
 1.154090388423568e+03 -2.745633920205297e+01  2.918975276816622e+03
 1.154090998724925e+03 -2.845475632756981e+01  2.918975276816622e+03
 1.154090584089112e+03 -2.945316918994848e+01  2.918975276816622e+03
 1.154090910180546e+03 -3.045158247436985e+01  2.918975276816622e+03
 1.154090849105821e+03 -3.144999833360631e+01  2.918975276816622e+03
 1.154090492576844e+03 -3.244841144548758e+01  2.918975276816622e+03
 1.154090682418518e+03 -3.344682422790592e+01  2.918975276816622e+03
 1.154090477943042e+03 -3.444523893996042e+01  2.918975276816622e+03
 1.154090087328351e+03 -3.544364972919522e+01  2.918975276816622e+03
 1.154090538697254e+03 -3.644206044245733e+01  2.918975276816622e+03
 1.154090755320563e+03 -3.744047500014190e+01  2.918975276816622e+03
 1.154090635860321e+03 -3.843888778117365e+01  2.918975276816622e+03
 1.154091047297247e+03 -3.943730105002145e+01  2.918975276816622e+03
 1.154091035898093e+03 -4.043571686122969e+01  2.918975276816622e+03
 1.154090647608481e+03 -4.143412989374988e+01  2.918975276816622e+03
 1.154091063929153e+03 -4.243254261138644e+01  2.918975276816622e+03
 1.154091267766349e+03 -4.343095939153577e+01  2.918975276816622e+03
 1.154090256484430e+03 -4.442937368432801e+01  2.918975276816622e+03
 1.154089527395587e+03 -4.542778122638452e+01  2.918975276816622e+03
 1.154090300401265e+03 -4.642618881487815e+01  2.918975276816622e+03
 1.154091318385627e+03 -4.742460310263032e+01  2.918975276816622e+03
 1.154091141104553e+03 -4.842301974153723e+01  2.918975276816622e+03
 1.154090798059385e+03 -4.942143244682517e+01  2.918975276816622e+03
 1.154091221486178e+03 -5.041984565756818e+01  2.918975276816622e+03
 1.154091216462258e+03 -5.141826146567602e+01  2.918975276816622e+03
 1.154090833831549e+03 -5.241667453099029e+01  2.918975276816622e+03
 1.154091025081989e+03 -5.341508727104719e+01  2.918975276816622e+03
 1.154090848253253e+03 -5.441350194487510e+01  2.918975276816622e+03
 1.154090432069372e+03 -5.541191269909026e+01  2.918975276816622e+03
 1.154090858619209e+03 -5.641032338249482e+01  2.918975276816622e+03
 1.154091076889723e+03 -5.740873791345692e+01  2.918975276816622e+03
 1.154090959641219e+03 -5.840715067179410e+01  2.918975276816622e+03
 1.154091372632417e+03 -5.940556392718597e+01  2.918975276816622e+03
 1.154091360338311e+03 -6.040397972259577e+01  2.918975276816622e+03
 1.154090972150476e+03 -6.140239272848077e+01  2.918975276816622e+03
 1.154091391644999e+03 -6.240080542474527e+01  2.918975276816622e+03
 1.154091598150359e+03 -6.339922219806902e+01  2.918975276816622e+03
 1.154090586579872e+03 -6.439763648666802e+01  2.918975276816622e+03
 1.154089856380359e+03 -6.539604401455117e+01  2.918975276816622e+03
 1.154090630341610e+03 -6.639445158269061e+01  2.918975276816622e+03
 1.154091651121724e+03 -6.739286585671142e+01  2.918975276816622e+03
 1.154091475845363e+03 -6.839128249251844e+01  2.918975276816622e+03
 1.154091132391700e+03 -6.938969519573517e+01  2.918975276816622e+03
 1.154091554962975e+03 -7.038810839400617e+01  2.918975276816622e+03
 1.154091550978446e+03 -7.138652418631521e+01  2.918975276816622e+03
 1.154091169912249e+03 -7.238493724208615e+01  2.918975276816622e+03
 1.154091362334642e+03 -7.338334997355145e+01  2.918975276816622e+03
 1.154091186747994e+03 -7.438176464139933e+01  2.918975276816622e+03
 1.154090770784897e+03 -7.538017539184654e+01  2.918975276816622e+03
 1.154091197579083e+03 -7.637858606522138e+01  2.918975276816622e+03
 1.154091417197877e+03 -7.737700058792123e+01  2.918975276816622e+03
 1.154091300091299e+03 -7.837541334119771e+01  2.918975276816622e+03
 1.154091713300296e+03 -7.937382658287576e+01  2.918975276816622e+03
 1.154091703546119e+03 -8.037224236841811e+01  2.918975276816622e+03
 1.154091316587980e+03 -8.137065537626405e+01  2.918975276816622e+03
 1.154091735274722e+03 -8.236906806692079e+01  2.918975276816622e+03
 1.154091942592420e+03 -8.336748482833482e+01  2.918975276816622e+03
 1.154090932342112e+03 -8.436589911252406e+01  2.918975276816622e+03
 1.154090202197036e+03 -8.536430663510247e+01  2.918975276816622e+03
 1.154090976898980e+03 -8.636271419239185e+01  2.918975276816622e+03
 1.154091999064934e+03 -8.736112845848582e+01  2.918975276816622e+03
 1.154091824215765e+03 -8.835954508809053e+01  2.918975276816622e+03
 1.154091481462753e+03 -8.935795778170041e+01  2.918975276816622e+03
 1.154091905994400e+03 -9.035637097316985e+01  2.918975276816622e+03
 1.154091903314328e+03 -9.135478676536950e+01  2.918975276816622e+03
 1.154091522295888e+03 -9.235319981945688e+01  2.918975276816622e+03
 1.154091714913357e+03 -9.335161254507116e+01  2.918975276816622e+03
 1.154091539254835e+03 -9.435002720625845e+01  2.918975276816622e+03
 1.154091122585645e+03 -9.534843794417770e+01  2.918975276816622e+03
 1.154091550402257e+03 -9.634684859755356e+01  2.918975276816622e+03
 1.154091774397989e+03 -9.734526310680202e+01  2.918975276816622e+03
 1.154091661916299e+03 -9.834367586764964e+01  2.918975276816622e+03
 1.154092074448152e+03 -9.934208912652312e+01  2.918975276816622e+03
 1.154092060170764e+03 -1.003405049078794e+02  2.918975276816622e+03
 1.154091672596307e+03 -1.013389178913049e+02  2.918975276816622e+03
 1.154092094547090e+03 -1.023373305668735e+02  2.918975276816622e+03
 1.154092303856801e+03 -1.033357473231935e+02  2.918975276816622e+03
 1.154091294807621e+03 -1.043341616024194e+02  2.918975276816622e+03
 1.154090565763937e+03 -1.053325691237676e+02  2.918975276816622e+03
 1.154091340596145e+03 -1.063309766768527e+02  2.918975276816622e+03
 1.154092363390954e+03 -1.073293909329772e+02  2.918975276816622e+03
 1.154092190045323e+03 -1.083278075556671e+02  2.918975276816622e+03
 1.154091848482848e+03 -1.093262202458599e+02  2.918975276816622e+03
 1.154092273544701e+03 -1.103246334327118e+02  2.918975276816622e+03
 1.154092271034929e+03 -1.113230492170828e+02  2.918975276816622e+03
 1.154091890519868e+03 -1.123214622606148e+02  2.918975276816622e+03
 1.154092084482012e+03 -1.133198749747294e+02  2.918975276816622e+03
 1.154091911410349e+03 -1.143182896277460e+02  2.918975276816622e+03
 1.154091497902117e+03 -1.153167003685179e+02  2.918975276816622e+03
 1.154091926246442e+03 -1.163151110329641e+02  2.918975276816622e+03
 1.154092146778583e+03 -1.173135255422160e+02  2.918975276816622e+03
 1.154092031530579e+03 -1.183119382795206e+02  2.918975276816622e+03
 1.154092447209386e+03 -1.193103515081522e+02  2.918975276816622e+03
 1.154092439353135e+03 -1.203087672822764e+02  2.918975276816622e+03
 1.154092054295869e+03 -1.213071802790441e+02  2.918975276816622e+03
 1.154092474316657e+03 -1.223055929586857e+02  2.918975276816622e+03
 1.154092682470537e+03 -1.233040097025966e+02  2.918975276816622e+03
 1.154091675270038e+03 -1.243024239689120e+02  2.918975276816622e+03
 1.154090948909761e+03 -1.253008314871712e+02  2.918975276816622e+03
 1.154091724473050e+03 -1.262992390412086e+02  2.918975276816622e+03
 1.154092746876606e+03 -1.272976532902650e+02  2.918975276816622e+03
 1.154092574498766e+03 -1.282960699018239e+02  2.918975276816622e+03
 1.154092234573989e+03 -1.292944825850680e+02  2.918975276816622e+03
 1.154092660838959e+03 -1.302928957653764e+02  2.918975276816622e+03
 1.154092659652006e+03 -1.312913115434622e+02  2.918975276816622e+03
 1.154092280220262e+03 -1.322897245832812e+02  2.918975276816622e+03
 1.154092474679620e+03 -1.332881372913574e+02  2.918975276816622e+03
 1.154092302622279e+03 -1.342865519355336e+02  2.918975276816622e+03
 1.154091890920013e+03 -1.352849626706102e+02  2.918975276816622e+03
 1.154092320357598e+03 -1.362833733320020e+02  2.918975276816622e+03
 1.154092541159907e+03 -1.372817878341693e+02  2.918975276816622e+03
 1.154092427312442e+03 -1.382802005615462e+02  2.918975276816622e+03
 1.154092845034581e+03 -1.392786137853314e+02  2.918975276816622e+03
 1.154092837740671e+03 -1.402770295564659e+02  2.918975276816622e+03
 1.154092453117385e+03 -1.412754425442789e+02  2.918975276816622e+03
 1.154092875314863e+03 -1.422738552148595e+02  2.918975276816622e+03
 1.154093085387242e+03 -1.432722719570994e+02  2.918975276816622e+03
 1.154092078050687e+03 -1.442706862220730e+02  2.918975276816622e+03
 1.154091351698092e+03 -1.452690937302193e+02  2.918975276816622e+03
 1.154092129596763e+03 -1.462675012721503e+02  2.918975276816622e+03
 1.154093154585915e+03 -1.472659155176767e+02  2.918975276816622e+03
 1.154092982741548e+03 -1.482643321280787e+02  2.918975276816622e+03
 1.154092643111906e+03 -1.492627448036160e+02  2.918975276816622e+03
 1.154093071000940e+03 -1.502611579748987e+02  2.918975276816622e+03
 1.154093071464155e+03 -1.512595737477070e+02  2.918975276816622e+03
 1.154092693136655e+03 -1.522579867828897e+02  2.918975276816622e+03
 1.154092888602759e+03 -1.532563994848134e+02  2.918975276816622e+03
 1.154092717540990e+03 -1.542548141216752e+02  2.918975276816622e+03
 1.154092307358792e+03 -1.552532248491736e+02  2.918975276816622e+03
 1.154092738809917e+03 -1.562516355051958e+02  2.918975276816622e+03
 1.154092960752707e+03 -1.572500500044169e+02  2.918975276816622e+03
 1.154092847351318e+03 -1.582484627252048e+02  2.918975276816622e+03
 1.154093266746725e+03 -1.592468759388450e+02  2.918975276816622e+03
 1.154093261612731e+03 -1.602452917057501e+02  2.918975276816622e+03
 1.154092877590059e+03 -1.612437046912313e+02  2.918975276816622e+03
 1.154093300432168e+03 -1.622421173515340e+02  2.918975276816622e+03
 1.154093512720880e+03 -1.632405340841912e+02  2.918975276816622e+03
 1.154092507194035e+03 -1.642389483470683e+02  2.918975276816622e+03
 1.154091781654828e+03 -1.652373558518465e+02  2.918975276816622e+03
 1.154092560925618e+03 -1.662357633861172e+02  2.918975276816622e+03
 1.154093587654026e+03 -1.672341776248506e+02  2.918975276816622e+03
 1.154093416954344e+03 -1.682325942297617e+02  2.918975276816622e+03
 1.154093078525181e+03 -1.692310068980350e+02  2.918975276816622e+03
 1.154093508277320e+03 -1.702294200618516e+02  2.918975276816622e+03
 1.154093510292211e+03 -1.712278358298491e+02  2.918975276816622e+03
 1.154093132968564e+03 -1.722262488591808e+02  2.918975276816622e+03
 1.154093330071229e+03 -1.732246615526302e+02  2.918975276816622e+03
 1.154093161198791e+03 -1.742230761842447e+02  2.918975276816622e+03
 1.154092752408430e+03 -1.752214869101841e+02  2.918975276816622e+03
 1.154093184311923e+03 -1.762198975601320e+02  2.918975276816622e+03
 1.154093407620297e+03 -1.772183120473968e+02  2.918975276816622e+03
 1.154093297115023e+03 -1.782167247609421e+02  2.918975276816622e+03
 1.154093718246904e+03 -1.792151379737756e+02  2.918975276816622e+03
 1.154093713302610e+03 -1.802135537340175e+02  2.918975276816622e+03
 1.154093331157784e+03 -1.812119667080725e+02  2.918975276816622e+03
 1.154093756946482e+03 -1.822103793640520e+02  2.918975276816622e+03
 1.154093970220559e+03 -1.832087960948820e+02  2.918975276816622e+03
 1.154092965214914e+03 -1.842072103497971e+02  2.918975276816622e+03
 1.154092241933293e+03 -1.852056178466933e+02  2.918975276816622e+03
 1.154093023296237e+03 -1.862040253770796e+02  2.918975276816622e+03
 1.154094051054657e+03 -1.872024396075891e+02  2.918975276816622e+03
 1.154093882670551e+03 -1.882008562022137e+02  2.918975276816622e+03
 1.154093546929367e+03 -1.891992688695325e+02  2.918975276816622e+03
 1.154093977074833e+03 -1.901976820312111e+02  2.918975276816622e+03
 1.154093979896618e+03 -1.911960977856604e+02  2.918975276816622e+03
 1.154093605955985e+03 -1.921945108059634e+02  2.918975276816622e+03
 1.154093805597665e+03 -1.931929234999511e+02  2.918975276816622e+03
 1.154093637085149e+03 -1.941913381280044e+02  2.918975276816622e+03
 1.154093229396428e+03 -1.951897488434079e+02  2.918975276816622e+03
 1.154093664110442e+03 -1.961881594838275e+02  2.918975276816622e+03
 1.154093889832320e+03 -1.971865739667792e+02  2.918975276816622e+03
 1.154093780675910e+03 -1.981849866757864e+02  2.918975276816622e+03
 1.154094203770064e+03 -1.991833998800467e+02  2.918975276816622e+03
 1.154094201279297e+03 -2.001818156348488e+02  2.918975276816622e+03
 1.154093820366758e+03 -2.011802286057528e+02  2.918975276816622e+03
 1.154094247490254e+03 -2.021786412508643e+02  2.918975276816622e+03
 1.154094463955545e+03 -2.031770579711005e+02  2.918975276816622e+03
 1.154093461698896e+03 -2.041754722261965e+02  2.918975276816622e+03
 1.154092739223864e+03 -2.051738797225135e+02  2.918975276816622e+03
 1.154093521809005e+03 -2.061722872425636e+02  2.918975276816622e+03
 1.154094552242459e+03 -2.071707014613319e+02  2.918975276816622e+03
 1.154094386474032e+03 -2.081691180489996e+02  2.918975276816622e+03
 1.154094053048945e+03 -2.091675307107712e+02  2.918975276816622e+03
 1.154094485736458e+03 -2.101659438668485e+02  2.918975276816622e+03
 1.154094490521426e+03 -2.111643596172312e+02  2.918975276816622e+03
 1.154094117885908e+03 -2.121627726310941e+02  2.918975276816622e+03
 1.154094319804166e+03 -2.131611853140072e+02  2.918975276816622e+03
 1.154094154540166e+03 -2.141595999349984e+02  2.918975276816622e+03
 1.154093749056585e+03 -2.151580106489268e+02  2.918975276816622e+03
 1.154094185196278e+03 -2.161564212817551e+02  2.918975276816622e+03
 1.154094413686346e+03 -2.171548357531580e+02  2.918975276816622e+03
 1.154094307887349e+03 -2.181532484576109e+02  2.918975276816622e+03
 1.154094732900485e+03 -2.191516616580601e+02  2.918975276816622e+03
 1.154094732228753e+03 -2.201500774025341e+02  2.918975276816622e+03
 1.154094354703150e+03 -2.211484903652519e+02  2.918975276816622e+03
 1.154094784708605e+03 -2.221469030076012e+02  2.918975276816622e+03
 1.154095002464109e+03 -2.231453197200535e+02  2.918975276816622e+03
 1.154094002683910e+03 -2.241437339629452e+02  2.918975276816622e+03
 1.154093284232446e+03 -2.251421414546089e+02  2.918975276816622e+03
 1.154094069650503e+03 -2.261405489731452e+02  2.918975276816622e+03
 1.154095102180896e+03 -2.271389631828598e+02  2.918975276816622e+03
 1.154094939378620e+03 -2.281373797612288e+02  2.918975276816622e+03
 1.154094608746358e+03 -2.291357924176907e+02  2.918975276816622e+03
 1.154095043916098e+03 -2.301342055641424e+02  2.918975276816622e+03
 1.154095052185198e+03 -2.311326213035699e+02  2.918975276816622e+03
 1.154094683365293e+03 -2.321310343131743e+02  2.918975276816622e+03
 1.154094887714742e+03 -2.331294469925272e+02  2.918975276816622e+03
 1.154094724480397e+03 -2.341278616026883e+02  2.918975276816622e+03
 1.154094323068615e+03 -2.351262723055097e+02  2.918975276816622e+03
 1.154094763761853e+03 -2.361246829353035e+02  2.918975276816622e+03
 1.154094994398118e+03 -2.371230974033527e+02  2.918975276816622e+03
 1.154094890833104e+03 -2.381215100945500e+02  2.918975276816622e+03
 1.154095320901455e+03 -2.391199232816650e+02  2.918975276816622e+03
 1.154095324833607e+03 -2.401183390237960e+02  2.918975276816622e+03
 1.154094949331520e+03 -2.411167519829906e+02  2.918975276816622e+03
 1.154095382546918e+03 -2.421151646099384e+02  2.918975276816622e+03
 1.154095605807194e+03 -2.431135813108936e+02  2.918975276816622e+03
 1.154094609871852e+03 -2.441119955530030e+02  2.918975276816622e+03
 1.154093894168898e+03 -2.451104030378084e+02  2.918975276816622e+03
 1.154094684991148e+03 -2.461088105437526e+02  2.918975276816622e+03
 1.154095723594369e+03 -2.471072247469926e+02  2.918975276816622e+03
 1.154095565138920e+03 -2.481056413186340e+02  2.918975276816622e+03
 1.154095240222184e+03 -2.491040539626041e+02  2.918975276816622e+03
 1.154095684209572e+03 -2.501024670991643e+02  2.918975276816622e+03
 1.154095693821934e+03 -2.511008828385868e+02  2.918975276816622e+03
 1.154095318234678e+03 -2.520992957942434e+02  2.918975276816622e+03
 1.154095751788437e+03 -2.530977084179111e+02  2.918975276816622e+03
 1.154095976047766e+03 -2.540961251086157e+02  2.918975276816622e+03
 1.154094983033181e+03 -2.550945393439121e+02  2.918975276816622e+03
 1.154094270129692e+03 -2.560929468311537e+02  2.918975276816622e+03
 1.154095062231702e+03 -2.570913543351932e+02  2.918975276816622e+03
 1.154096102539880e+03 -2.580897685265938e+02  2.918975276816622e+03
 1.154095946743824e+03 -2.590881850886853e+02  2.918975276816622e+03
 1.154095623637767e+03 -2.600865977281627e+02  2.918975276816622e+03
 1.154096068045655e+03 -2.610850108574227e+02  2.918975276816622e+03
 1.154096084886614e+03 -2.620834265849470e+02  2.918975276816622e+03
 1.154095723444280e+03 -2.630818395813617e+02  2.918975276816622e+03
 1.154095937026563e+03 -2.640802522388951e+02  2.918975276816622e+03
 1.154095784786660e+03 -2.650786668318600e+02  2.918975276816622e+03
 1.154095393753200e+03 -2.660770775263500e+02  2.918975276816622e+03
 1.154095844830094e+03 -2.670754881401036e+02  2.918975276816622e+03
 1.154096086096108e+03 -2.680739025855752e+02  2.918975276816622e+03
 1.154095987738544e+03 -2.690723152579400e+02  2.918975276816622e+03
 1.154096612139122e+03 -2.700707284182601e+02  2.918975276816622e+03
 1.154096814994954e+03 -2.710691458673205e+02  2.918975276816622e+03
 1.154095879518271e+03 -2.720675605563365e+02  2.918975276816622e+03
 1.154095753930153e+03 -2.730659697302401e+02  2.918975276816622e+03
 1.154096585777378e+03 -2.740643829380074e+02  2.918975276816622e+03
 1.154096194984476e+03 -2.750627988508803e+02  2.918975276816622e+03
 1.154095461329761e+03 -2.760612080614785e+02  2.918975276816622e+03
 1.154096242954485e+03 -2.770596172886227e+02  2.918975276816622e+03
 1.154096714350002e+03 -2.780580331997906e+02  2.918975276816622e+03
 1.154095979271407e+03 -2.790564461954137e+02  2.918975276816622e+03
 1.154096327487960e+03 -2.800548552084800e+02  2.918975276816622e+03
 1.154097456997823e+03 -2.810532707017352e+02  2.918975276816622e+03
 1.154097028007625e+03 -2.820516888712414e+02  2.918975276816622e+03
 1.154096210276763e+03 -2.830501002659272e+02  2.918975276816622e+03
 1.154096885316110e+03 -2.840485112220242e+02  2.918975276816622e+03
 1.154097387291125e+03 -2.850469278582557e+02  2.918975276816622e+03
 1.154096744608379e+03 -2.860453423951303e+02  2.918975276816622e+03
 1.154096193304437e+03 -2.870437531437925e+02  2.918975276816622e+03
 1.154096159879627e+03 -2.880421625836492e+02  2.918975276816622e+03
 1.154096903741218e+03 -2.890405724820091e+02  2.918975276816622e+03
 1.154098003231142e+03 -2.900389879333023e+02  2.918975276816622e+03
 1.154098138503238e+03 -2.910374068857887e+02  2.918975276816622e+03
 1.154097252415484e+03 -2.920358231707614e+02  2.918975276816622e+03
 1.154096587487579e+03 -2.930342341201315e+02  2.918975276816622e+03
 1.154096823154645e+03 -2.940326438387581e+02  2.918975276816622e+03
 1.154097244455305e+03 -2.950310561778778e+02  2.918975276816622e+03
 1.154097391716118e+03 -2.960294691098608e+02  2.918975276816622e+03
 1.154097444589311e+03 -2.970278821696220e+02  2.918975276816622e+03
 1.154097161138304e+03 -2.980262951756216e+02  2.918975276816622e+03
 1.154096916077660e+03 -2.990247052660653e+02  2.918975276816622e+03
 1.154097674432113e+03 -3.000231152348001e+02  2.918975276816622e+03
 1.154098321188393e+03 -3.010215309871724e+02  2.918975276816622e+03
 1.154097950411400e+03 -3.020199461505466e+02  2.918975276816622e+03
 1.154098325829988e+03 -3.030183584212820e+02  2.918975276816622e+03
 1.154098915224446e+03 -3.040167758372859e+02  2.918975276816622e+03
 1.154097794896025e+03 -3.050151918924699e+02  2.918975276816622e+03
 1.154096991601112e+03 -3.060135991713661e+02  2.918975276816622e+03
 1.154098317473946e+03 -3.070120080073372e+02  2.918975276816622e+03
 1.154099044926006e+03 -3.080104255551689e+02  2.918975276816622e+03
 1.154098102516501e+03 -3.090088396181658e+02  2.918975276816622e+03
 1.154098475652149e+03 -3.100072486260936e+02  2.918975276816622e+03
 1.154099551228918e+03 -3.110056653964821e+02  2.918975276816622e+03
 1.154098901739131e+03 -3.120040826858649e+02  2.918975276816622e+03
 1.154098182628112e+03 -3.130024926950032e+02  2.918975276816622e+03
 1.154098637372211e+03 -3.140009028195694e+02  2.918975276816622e+03
 1.154099156443495e+03 -3.149993156584034e+02  2.918975276816622e+03
 1.154099356385698e+03 -3.159977289166475e+02  2.918975276816622e+03
 1.154099418738884e+03 -3.169961422391295e+02  2.918975276816622e+03
 1.154099310705300e+03 -3.179945551089044e+02  2.918975276816622e+03
 1.154099482794426e+03 -3.189929668042369e+02  2.918975276816622e+03
 1.154100121414685e+03 -3.199913801368350e+02  2.918975276816622e+03
 1.154099894172917e+03 -3.209897958321326e+02  2.918975276816622e+03
 1.154099031902005e+03 -3.219882058074179e+02  2.918975276816622e+03
 1.154100256990647e+03 -3.229866128370010e+02  2.918975276816622e+03
 1.154102113643281e+03 -3.239850317868307e+02  2.918975276816622e+03
 1.154100937736680e+03 -3.249834528379639e+02  2.918975276816622e+03
 1.154099491119882e+03 -3.259818600957970e+02  2.918975276816622e+03
 1.154100937871058e+03 -3.269802671488421e+02  2.918975276816622e+03
 1.154102144177269e+03 -3.279786845011955e+02  2.918975276816622e+03
 1.154101307799107e+03 -3.289771001429622e+02  2.918975276816622e+03
 1.154101099308493e+03 -3.299755091212065e+02  2.918975276816622e+03
 1.154102207203993e+03 -3.309739206159346e+02  2.918975276816622e+03
 1.154102717438789e+03 -3.319723359389137e+02  2.918975276816622e+03
 1.154102579553306e+03 -3.329707491927068e+02  2.918975276816622e+03
 1.154102848169416e+03 -3.339691609336977e+02  2.918975276816622e+03
 1.154103314206890e+03 -3.349675736540613e+02  2.918975276816622e+03
 1.154103676042844e+03 -3.359659863852521e+02  2.918975276816622e+03
 1.154104197131330e+03 -3.369643990841176e+02  2.918975276816622e+03
 1.154104621466625e+03 -3.379628128383064e+02  2.918975276816622e+03
 1.154104679958354e+03 -3.389612255511911e+02  2.918975276816622e+03
 1.154105168619750e+03 -3.399596361033203e+02  2.918975276816622e+03
 1.154106275064677e+03 -3.409580487192852e+02  2.918975276816622e+03
 1.154106809695739e+03 -3.419564638510969e+02  2.918975276816622e+03
 1.154106821186849e+03 -3.429548762730027e+02  2.918975276816622e+03
 1.154107519354439e+03 -3.439532865609077e+02  2.918975276816622e+03
 1.154108751346402e+03 -3.449516989980830e+02  2.918975276816622e+03
 1.154108812029110e+03 -3.459501130884167e+02  2.918975276816622e+03
 1.154107700953573e+03 -3.469485187679168e+02  2.918975276816622e+03
 1.154111066617930e+03 -3.479469157259072e+02  2.918975276816622e+03
 1.154119073677833e+03 -3.489453382009658e+02  2.918975276816622e+03
 1.154118341638739e+03 -3.499437890844951e+02  2.918975276816622e+03
 1.154108990094403e+03 -3.509422023980541e+02  2.918975276816622e+03
 1.154108469937301e+03 -3.519405741812412e+02  2.918975276816622e+03
 1.154116772389324e+03 -3.529389690090787e+02  2.918975276816622e+03
 1.154124098570898e+03 -3.539373910143963e+02  2.918975276816622e+03
 1.154127328525582e+03 -3.549358282611868e+02  2.918975276816622e+03
 1.154120966614019e+03 -3.559342601248918e+02  2.918975276816622e+03
 1.154115049783033e+03 -3.569326362334618e+02  2.918975276816622e+03
 1.154127420674112e+03 -3.579310016769638e+02  2.918975276816622e+03
 1.154143852893055e+03 -3.589294356147085e+02  2.918975276816622e+03
 1.154142452137163e+03 -3.599278948085564e+02  2.918975276816622e+03
 1.154134020556393e+03 -3.609263032524023e+02  2.918975276816622e+03
 1.154137560070239e+03 -3.619246753714077e+02  2.918975276816622e+03
 1.154149432317322e+03 -3.629230637878254e+02  2.918975276816622e+03
 1.154158439530667e+03 -3.639214707134881e+02  2.918975276816622e+03
 1.154164736668207e+03 -3.649198711770993e+02  2.918975276816622e+03
 1.154173468250302e+03 -3.659182588161675e+02  2.918975276816622e+03
 1.154187236484656e+03 -3.669166372116222e+02  2.918975276816622e+03
 1.154202029777362e+03 -3.679150146833713e+02  2.918975276816622e+03
 1.154215117051031e+03 -3.689133748997076e+02  2.918975276816622e+03
 1.154234848369297e+03 -3.699116916109750e+02  2.918975276816622e+03
 1.154230064864835e+03 -3.709100477456748e+02  2.918975276816622e+03
 1.154195075364719e+03 -3.719082356068882e+02  2.918975276816622e+03
 1.154243706564367e+03 -3.729062810924777e+02  2.918975276816622e+03
 1.154514235758334e+03 -3.739055221694612e+02  2.918975276816622e+03
 1.154919414732057e+03 -3.748885237488931e+02  2.918975276816622e+03
 1.155000642291969e+03 -3.758667181532801e+02  2.918975276816622e+03
 1.154035923128998e+03 -3.769819675999681e+02  2.918975276816622e+03
 1.152634786284437e+03 -3.775830503105713e+02  2.918975276816622e+03
 1.152692275845797e+03 -3.786090286575180e+02  2.918975276816622e+03
 1.153440923267154e+03 -3.798728263466851e+02  2.918975276816622e+03
 1.154254231177065e+03 -3.806104371004910e+02  2.918975276816622e+03
 1.155147264484743e+03 -3.815599949508013e+02  2.918975276816622e+03
 1.155434978173726e+03 -3.826509681339477e+02  2.918975276816622e+03
 1.156258031256238e+03 -3.841211209803785e+02  2.918975276816622e+03
 1.156596949232674e+03 -3.850626744336026e+02  2.918975276816622e+03
 1.155799889385620e+03 -3.857899880056960e+02  2.918975276816622e+03
1.155559168447741e+03 3.849969830086935e+02 2.918975276816622e+03
1.155136516888254e+03 3.859558368369347e+02 2.918975276816622e+03
1.155951826251628e+03 3.837622650233080e+02 2.918975276816622e+03
1.155411043040545e+03 3.825915472003991e+02 2.918975276816622e+03
1.155127083005801e+03 3.818565068625422e+02 2.918975276816622e+03
1.155252470322198e+03 3.810015011195396e+02 2.918975276816622e+03
1.155381855705573e+03 3.798929781409374e+02 2.918975276816622e+03
1.155400845276960e+03 3.786926373690449e+02 2.918975276816622e+03
1.154972356542377e+03 3.780407164820752e+02 2.918975276816622e+03
1.153755948274615e+03 3.772728375745538e+02 2.918975276816622e+03
1.153786598732265e+03 3.759419651241832e+02 2.918975276816622e+03
1.154602282622687e+03 3.749003069253030e+02 2.918975276816622e+03
1.154632507228017e+03 3.738989952862678e+02 2.918975276816622e+03
1.154597637398860e+03 3.729024995551873e+02 2.918975276816622e+03
1.154545927628213e+03 3.719062866813646e+02 2.918975276816622e+03
1.154427792418313e+03 3.709101283427417e+02 2.918975276816622e+03
1.154326851113057e+03 3.699125896365294e+02 2.918975276816622e+03
1.154285715627693e+03 3.689142656746173e+02 2.918975276816622e+03
1.154261537304505e+03 3.679158198365419e+02 2.918975276816622e+03
1.154231341326264e+03 3.669173925622545e+02 2.918975276816622e+03
1.154205811522922e+03 3.659189415760201e+02 2.918975276816622e+03
1.154184946185242e+03 3.649204805075115e+02 2.918975276816622e+03
1.154168331344052e+03 3.639220233657895e+02 2.918975276816622e+03
1.154157177113677e+03 3.629235667842971e+02 2.918975276816622e+03
1.154148854697234e+03 3.619251087822862e+02 2.918975276816622e+03
1.154140383786940e+03 3.609266565218425e+02 2.918975276816622e+03
1.154132740084958e+03 3.599282143399225e+02 2.918975276816622e+03
1.154127447298244e+03 3.589297766006453e+02 2.918975276816622e+03
1.154123334096432e+03 3.579313391334736e+02 2.918975276816622e+03
1.154119201930256e+03 3.569329045178265e+02 2.918975276816622e+03
1.154115537106179e+03 3.559344741925327e+02 2.918975276816622e+03
1.154112742942413e+03 3.549360458030430e+02 2.918975276816622e+03
1.154110186199824e+03 3.539376180143787e+02 2.918975276816622e+03
1.154107499362934e+03 3.529391929966560e+02 2.918975276816622e+03
1.154105480810470e+03 3.519407712271164e+02 2.918975276816622e+03
1.154104272216127e+03 3.509423484880902e+02 2.918975276816622e+03
1.154102661778329e+03 3.499439245919700e+02 2.918975276816622e+03
1.154100665926074e+03 3.489455042305120e+02 2.918975276816622e+03
1.154099378537646e+03 3.479470864063981e+02 2.918975276816622e+03
1.154098602636476e+03 3.469486674675470e+02 2.918975276816622e+03
1.154097750904743e+03 3.459502480261382e+02 2.918975276816622e+03
1.154096716396394e+03 3.449518288190744e+02 2.918975276816622e+03
1.154095332427628e+03 3.439534113222298e+02 2.918975276816622e+03
1.154094419335023e+03 3.429549973632360e+02 2.918975276816622e+03
1.154094709227074e+03 3.419565816401727e+02 2.918975276816622e+03
1.154094491556467e+03 3.409581602198028e+02 2.918975276816622e+03
1.154092558503796e+03 3.399597417836588e+02 2.918975276816622e+03
1.154091259383422e+03 3.389613318718000e+02 2.918975276816622e+03
1.154092216099911e+03 3.379629198958641e+02 2.918975276816622e+03
1.154092775661563e+03 3.369644986669098e+02 2.918975276816622e+03
1.154091006510415e+03 3.359660791810809e+02 2.918975276816622e+03
1.154089618853396e+03 3.349676694726190e+02 2.918975276816622e+03
1.154090518268132e+03 3.339692583708464e+02 2.918975276816622e+03
1.154090995459772e+03 3.329708387579571e+02 2.918975276816622e+03
1.154089630155807e+03 3.319724215221686e+02 2.918975276816622e+03
1.154088860287595e+03 3.309740108908950e+02 2.918975276816622e+03
1.154089371676559e+03 3.299755977043080e+02 2.918975276816622e+03
1.154089368938800e+03 3.289771808175947e+02 2.918975276816622e+03
1.154088728174532e+03 3.279787661296472e+02 2.918975276816622e+03
1.154088494701253e+03 3.269803533613177e+02 2.918975276816622e+03
1.154088616771637e+03 3.259819393322518e+02 2.918975276816622e+03
1.154088403161856e+03 3.249835239027174e+02 2.918975276816622e+03
1.154087793663823e+03 3.239851099099535e+02 2.918975276816622e+03
1.154087654237221e+03 3.229866980972083e+02 2.918975276816622e+03
1.154088096403202e+03 3.219882841159015e+02 2.918975276816622e+03
1.154087942587571e+03 3.209898676496246e+02 2.918975276816622e+03
1.154087246303117e+03 3.199914539688166e+02 2.918975276816622e+03
1.154087168000118e+03 3.189930422998107e+02 2.918975276816622e+03
1.154087468521835e+03 3.179946284231528e+02 2.918975276816622e+03
1.154087391718969e+03 3.169962136856417e+02 2.918975276816622e+03
1.154087178878353e+03 3.159978001013047e+02 2.918975276816622e+03
1.154087076391771e+03 3.149993864181233e+02 2.918975276816622e+03
1.154086852045824e+03 3.140009728246745e+02 2.918975276816622e+03
1.154086618945675e+03 3.130025604316751e+02 2.918975276816622e+03
1.154086630233309e+03 3.120041481703500e+02 2.918975276816622e+03
1.154086568595603e+03 3.110057353407668e+02 2.918975276816622e+03
1.154086638951595e+03 3.100073230909366e+02 2.918975276816622e+03
1.154087443597793e+03 3.090089085278321e+02 2.918975276816622e+03
1.154087701766507e+03 3.080104889150477e+02 2.918975276816622e+03
1.154086284630591e+03 3.070120724684905e+02 2.918975276816622e+03
1.154085185952504e+03 3.060136647232291e+02 2.918975276816622e+03
1.154086180458685e+03 3.050152570737266e+02 2.918975276816622e+03
1.154087337892250e+03 3.040168408160114e+02 2.918975276816622e+03
1.154086846389565e+03 3.030184229561415e+02 2.918975276816622e+03
1.154086520129236e+03 3.020200100178533e+02 2.918975276816622e+03
1.154086879353075e+03 3.010215944683159e+02 2.918975276816622e+03
1.154086281128875e+03 3.000231785331326e+02 2.918975276816622e+03
1.154085612200322e+03 2.990247681575560e+02 2.918975276816622e+03
1.154085917351062e+03 2.980263576172874e+02 2.918975276816622e+03
1.154086288416552e+03 2.970279443662774e+02 2.918975276816622e+03
1.154086319013220e+03 2.960295307058109e+02 2.918975276816622e+03
1.154086032080100e+03 2.950311169868932e+02 2.918975276816622e+03
1.154085444616795e+03 2.940327054189868e+02 2.918975276816622e+03
1.154085648613560e+03 2.930342967091019e+02 2.918975276816622e+03
1.154086841814784e+03 2.920358832834197e+02 2.918975276816622e+03
1.154087023654010e+03 2.910374640713283e+02 2.918975276816622e+03
1.154085935388442e+03 2.900390490293021e+02 2.918975276816622e+03
1.154085693253691e+03 2.890406391856907e+02 2.918975276816622e+03
1.154086541628006e+03 2.880422263619812e+02 2.918975276816622e+03
1.154086749009775e+03 2.870438094539255e+02 2.918975276816622e+03
1.154086212917426e+03 2.860453947245884e+02 2.918975276816622e+03
1.154085986371795e+03 2.850469819521617e+02 2.918975276816622e+03
1.154085677614723e+03 2.840485689182568e+02 2.918975276816622e+03
1.154085541074659e+03 2.830501591489560e+02 2.918975276816622e+03
1.154086343786750e+03 2.820517477025181e+02 2.918975276816622e+03
1.154086808566480e+03 2.810533308544112e+02 2.918975276816622e+03
1.154086519930139e+03 2.800549148902315e+02 2.918975276816622e+03
1.154086254806469e+03 2.790565001139034e+02 2.918975276816622e+03
1.154085858508405e+03 2.780580865249754e+02 2.918975276816622e+03
1.154085391407113e+03 2.770596755903188e+02 2.918975276816622e+03
1.154085218928835e+03 2.760612661917033e+02 2.918975276816622e+03
1.154085787920163e+03 2.750628567410247e+02 2.918975276816622e+03
1.154086611010309e+03 2.740644423412769e+02 2.918975276816622e+03
1.154086430678942e+03 2.730660255739802e+02 2.918975276816622e+03
1.154086073395468e+03 2.720676127220896e+02 2.918975276816622e+03
1.154086477765756e+03 2.710691993925896e+02 2.918975276816622e+03
1.154086460698363e+03 2.700707834892635e+02 2.918975276816622e+03
1.154086071055367e+03 2.690723703037396e+02 2.918975276816622e+03
1.154086251051309e+03 2.680739574305730e+02 2.918975276816622e+03
1.154086061521755e+03 2.670755426405925e+02 2.918975276816622e+03
1.154085635281622e+03 2.660771317763410e+02 2.918975276816622e+03
1.154086053015852e+03 2.650787209825873e+02 2.918975276816622e+03
1.154086263538676e+03 2.640803063376497e+02 2.918975276816622e+03
1.154086137134200e+03 2.630818934592389e+02 2.918975276816622e+03
1.154086539429664e+03 2.620834800972540e+02 2.918975276816622e+03
1.154086520392864e+03 2.610850642034029e+02 2.918975276816622e+03
1.154086127076806e+03 2.600866510818654e+02 2.918975276816622e+03
1.154086537307548e+03 2.590882382684405e+02 2.918975276816622e+03
1.154086734835475e+03 2.580898213955797e+02 2.918975276816622e+03
1.154085718712044e+03 2.570914070064776e+02 2.918975276816622e+03
1.154084983706262e+03 2.560929993666447e+02 2.918975276816622e+03
1.154085749512966e+03 2.550945916907774e+02 2.918975276816622e+03
1.154086763062148e+03 2.540961773214400e+02 2.918975276816622e+03
1.154086585071644e+03 2.530977605869135e+02 2.918975276816622e+03
1.154086238752206e+03 2.520993477706932e+02 2.918975276816622e+03
1.154086655484960e+03 2.511009344671018e+02 2.918975276816622e+03
1.154086642138582e+03 2.501025185830677e+02 2.918975276816622e+03
1.154086249428726e+03 2.491041054732008e+02 2.918975276816622e+03
1.154086660021635e+03 2.481056926641675e+02 2.918975276816622e+03
1.154086856565131e+03 2.471072758020358e+02 2.918975276816622e+03
1.154085841746233e+03 2.461088614316869e+02 2.918975276816622e+03
1.154085109712062e+03 2.451104538036201e+02 2.918975276816622e+03
1.154085876290266e+03 2.441120461341538e+02 2.918975276816622e+03
1.154086889441367e+03 2.431136317776732e+02 2.918975276816622e+03
1.154086712578227e+03 2.421152150569394e+02 2.918975276816622e+03
1.154086366977110e+03 2.411168022478407e+02 2.918975276816622e+03
1.154086781714370e+03 2.401183889506788e+02 2.918975276816622e+03
1.154086772503844e+03 2.391199730801834e+02 2.918975276816622e+03
1.154086390836040e+03 2.381215599350802e+02 2.918975276816622e+03
1.154086579011327e+03 2.371231471005910e+02 2.918975276816622e+03
1.154086397400144e+03 2.361247323444570e+02 2.918975276816622e+03
1.154085978769656e+03 2.351263215123712e+02 2.918975276816622e+03
1.154086402563379e+03 2.341279107474859e+02 2.918975276816622e+03
1.154086618007979e+03 2.331294961328545e+02 2.918975276816622e+03
1.154086497277630e+03 2.321310832895186e+02 2.918975276816622e+03
1.154086905852718e+03 2.311326699580073e+02 2.918975276816622e+03
1.154086892438888e+03 2.301342540879489e+02 2.918975276816622e+03
1.154086503970378e+03 2.291358409918645e+02 2.918975276816622e+03
1.154086918667709e+03 2.281374282045699e+02 2.918975276816622e+03
1.154087120272646e+03 2.271390113549920e+02 2.918975276816622e+03
1.154086108231572e+03 2.261405969918365e+02 2.918975276816622e+03
1.154085377482891e+03 2.251421893805585e+02 2.918975276816622e+03
1.154086146888123e+03 2.241437817303754e+02 2.918975276816622e+03
1.154087163272237e+03 2.231453673827578e+02 2.918975276816622e+03
1.154086987522021e+03 2.221469506686458e+02 2.918975276816622e+03
1.154086642765000e+03 2.211485378760313e+02 2.918975276816622e+03
1.154087060401073e+03 2.201501245941537e+02 2.918975276816622e+03
1.154087053491634e+03 2.191517087288596e+02 2.918975276816622e+03
1.154086672193992e+03 2.181532955933114e+02 2.918975276816622e+03
1.154086861856576e+03 2.171548827744961e+02 2.918975276816622e+03
1.154086682464277e+03 2.161564680272323e+02 2.918975276816622e+03
1.154086264494914e+03 2.151580572040360e+02 2.918975276816622e+03
1.154086689386396e+03 2.141596464538109e+02 2.918975276816622e+03
1.154086907168467e+03 2.131612318482211e+02 2.918975276816622e+03
1.154086787324610e+03 2.121628190095811e+02 2.918975276816622e+03
1.154087195769811e+03 2.111644056891370e+02 2.918975276816622e+03
1.154087183717855e+03 2.101659898329096e+02 2.918975276816622e+03
1.154086797263270e+03 2.091675767453708e+02 2.918975276816622e+03
1.154087212890868e+03 2.081691639638568e+02 2.918975276816622e+03
1.154087414974128e+03 2.071707471218213e+02 2.918975276816622e+03
1.154086403497832e+03 2.061723327678494e+02 2.918975276816622e+03
1.154085673364104e+03 2.051739251684471e+02 2.918975276816622e+03
1.154086444242191e+03 2.041755175294715e+02 2.918975276816622e+03
1.154087462007595e+03 2.031771031857070e+02 2.918975276816622e+03
1.154087285862017e+03 2.021786864759740e+02 2.918975276816622e+03
1.154086940976298e+03 2.011802736968993e+02 2.918975276816622e+03
1.154087360511821e+03 2.001818604264501e+02 2.918975276816622e+03
1.154087354934271e+03 1.991834445636645e+02 2.918975276816622e+03
1.154086973148895e+03 1.981850314332482e+02 2.918975276816622e+03
1.154087162769334e+03 1.971866186257991e+02 2.918975276816622e+03
1.154086984614042e+03 1.961882038883312e+02 2.918975276816622e+03
1.154086567829489e+03 1.951897930706764e+02 2.918975276816622e+03
1.154086992882746e+03 1.941913823243587e+02 2.918975276816622e+03
1.154087210351295e+03 1.931929677259284e+02 2.918975276816622e+03
1.154087090842931e+03 1.921945548971817e+02 2.918975276816622e+03
1.154087500135901e+03 1.911961415846636e+02 2.918975276816622e+03
1.154087488788779e+03 1.901977257343629e+02 2.918975276816622e+03
1.154087102544842e+03 1.891993126519649e+02 2.918975276816622e+03
1.154087517800380e+03 1.882008998769956e+02 2.918975276816622e+03
1.154087719897648e+03 1.872024830450305e+02 2.918975276816622e+03
1.154086709707121e+03 1.862040687004607e+02 2.918975276816622e+03
1.154085980743190e+03 1.852056611038896e+02 2.918975276816622e+03
1.154086750902069e+03 1.842072534665395e+02 2.918975276816622e+03
1.154087767753914e+03 1.832088391323553e+02 2.918975276816622e+03
1.154087592752108e+03 1.822104224332249e+02 2.918975276816622e+03
1.154087248988994e+03 1.812120096563399e+02 2.918975276816622e+03
1.154087667634128e+03 1.802135963884909e+02 2.918975276816622e+03
1.154087661450759e+03 1.792151805364542e+02 2.918975276816622e+03
1.154087280718675e+03 1.782167674156468e+02 2.918975276816622e+03
1.154087471207073e+03 1.772183546113159e+02 2.918975276816622e+03
1.154087292772897e+03 1.762199398766770e+02 2.918975276816622e+03
1.154086875355593e+03 1.752215290656733e+02 2.918975276816622e+03
1.154087300366201e+03 1.742231183283450e+02 2.918975276816622e+03
1.154087518499299e+03 1.732247037372868e+02 2.918975276816622e+03
1.154087399652669e+03 1.722262909128156e+02 2.918975276816622e+03
1.154087809086750e+03 1.712278776025890e+02 2.918975276816622e+03
1.154087796984991e+03 1.702294617554637e+02 2.918975276816622e+03
1.154087409681124e+03 1.692310486822849e+02 2.918975276816622e+03
1.154087825507089e+03 1.682326359196870e+02 2.918975276816622e+03
1.154088029518785e+03 1.672342190921340e+02 2.918975276816622e+03
1.154087019554572e+03 1.662358047443693e+02 2.918975276816622e+03
1.154086288509173e+03 1.652373971507095e+02 2.918975276816622e+03
1.154087057506301e+03 1.642389895270005e+02 2.918975276816622e+03
1.154088075979364e+03 1.632405752044380e+02 2.918975276816622e+03
1.154087902566766e+03 1.622421585054270e+02 2.918975276816622e+03
1.154087557732140e+03 1.612437457274620e+02 2.918975276816622e+03
1.154087975105303e+03 1.602453324683092e+02 2.918975276816622e+03
1.154087969757940e+03 1.592469166251329e+02 2.918975276816622e+03
1.154087589338439e+03 1.582485035059063e+02 2.918975276816622e+03
1.154087778608683e+03 1.572500907074023e+02 2.918975276816622e+03
1.154087600489682e+03 1.562516759838765e+02 2.918975276816622e+03
1.154087184456184e+03 1.552532651757438e+02 2.918975276816622e+03
1.154087608944488e+03 1.542548544369889e+02 2.918975276816622e+03
1.154087825808291e+03 1.532564398520848e+02 2.918975276816622e+03
1.154087706782680e+03 1.522580270365417e+02 2.918975276816622e+03
1.154088116288119e+03 1.512596137334530e+02 2.918975276816622e+03
1.154088104450121e+03 1.502611978938799e+02 2.918975276816622e+03
1.154087717984949e+03 1.492627848249592e+02 2.918975276816622e+03
1.154088134050038e+03 1.482643720618347e+02 2.918975276816622e+03
1.154088336811165e+03 1.472659552354811e+02 2.918975276816622e+03
1.154087325386856e+03 1.462675408971998e+02 2.918975276816622e+03
1.154086594888976e+03 1.452691333163873e+02 2.918975276816622e+03
1.154087365419485e+03 1.442707256961840e+02 2.918975276816622e+03
1.154088383408500e+03 1.432723113723203e+02 2.918975276816622e+03
1.154088208938266e+03 1.422738946802064e+02 2.918975276816622e+03
1.154087864699202e+03 1.412754819089018e+02 2.918975276816622e+03
1.154088281878650e+03 1.402770686502153e+02 2.918975276816622e+03
1.154088275252961e+03 1.392786528142943e+02 2.918975276816622e+03
1.154087895317484e+03 1.382802397055801e+02 2.918975276816622e+03
1.154088085437337e+03 1.372818269090505e+02 2.918975276816622e+03
1.154087906503037e+03 1.362834121875972e+02 2.918975276816622e+03
1.154087489845165e+03 1.352850013873005e+02 2.918975276816622e+03
1.154087914519941e+03 1.342865906546660e+02 2.918975276816622e+03
1.154088131283832e+03 1.332881760747019e+02 2.918975276816622e+03
1.154088012355403e+03 1.322897632649938e+02 2.918975276816622e+03
1.154088422005589e+03 1.312913499647787e+02 2.918975276816622e+03
1.154088409791667e+03 1.302929341285927e+02 2.918975276816622e+03
1.154088023103455e+03 1.292945210648863e+02 2.918975276816622e+03
1.154088438513235e+03 1.282961083058875e+02 2.918975276816622e+03
1.154088640378250e+03 1.272976914887975e+02 2.918975276816622e+03
1.154087629843869e+03 1.262992771614309e+02 2.918975276816622e+03
1.154086900658200e+03 1.253008695815144e+02 2.918975276816622e+03
1.154087670412461e+03 1.243024619591248e+02 2.918975276816622e+03
1.154088686783380e+03 1.233040476407870e+02 2.918975276816622e+03
1.154088511814069e+03 1.223056309592983e+02 2.918975276816622e+03
1.154088168339370e+03 1.213072181969984e+02 2.918975276816622e+03
1.154088586132820e+03 1.203088049412195e+02 2.918975276816622e+03
1.154088578672550e+03 1.193103891078379e+02 2.918975276816622e+03
1.154088198477331e+03 1.183119760079375e+02 2.918975276816622e+03
1.154088390050435e+03 1.173135632151091e+02 2.918975276816622e+03
1.154088210601379e+03 1.163151484892184e+02 2.918975276816622e+03
1.154087791067701e+03 1.153167376952933e+02 2.918975276816622e+03
1.154088215151124e+03 1.143183269806592e+02 2.918975276816622e+03
1.154088434004525e+03 1.133199124112598e+02 2.918975276816622e+03
1.154088316153428e+03 1.123214996012807e+02 2.918975276816622e+03
1.154088724953150e+03 1.113230863011523e+02 2.918975276816622e+03
1.154088711484198e+03 1.103246704706275e+02 2.918975276816622e+03
1.154088324587415e+03 1.093262574163433e+02 2.918975276816622e+03
1.154088741519416e+03 1.083278446626928e+02 2.918975276816622e+03
1.154088943105797e+03 1.073294278404542e+02 2.918975276816622e+03
1.154087928335827e+03 1.063310135198096e+02 2.918975276816622e+03
1.154087198095290e+03 1.053326059692444e+02 2.918975276816622e+03
1.154087972375325e+03 1.043341983620564e+02 2.918975276816622e+03
1.154088991594090e+03 1.033357840362083e+02 2.918975276816622e+03
1.154088815996383e+03 1.023373673471603e+02 2.918975276816622e+03
1.154088469712245e+03 1.013389545822914e+02 2.918975276816622e+03
1.154088884142566e+03 1.003405413396763e+02 2.918975276816622e+03
1.154088877232028e+03 9.934212552785026e+01 2.918975276816622e+03
1.154088498723977e+03 9.834371243393502e+01 2.918975276816622e+03
1.154088688900739e+03 9.734529964718607e+01 2.918975276816622e+03
1.154088509236258e+03 9.634688493869906e+01 2.918975276816622e+03
1.154088091946585e+03 9.534847415294361e+01 2.918975276816622e+03
1.154088516450114e+03 9.435006343617859e+01 2.918975276816622e+03
1.154088733160705e+03 9.335164887078419e+01 2.918975276816622e+03
1.154088613594738e+03 9.235323607598191e+01 2.918975276816622e+03
1.154089023072875e+03 9.135482279252020e+01 2.918975276816622e+03
1.154089010613103e+03 9.035640697020450e+01 2.918975276816622e+03
1.154088620766575e+03 8.935799392335409e+01 2.918975276816622e+03
1.154089045926929e+03 8.835958119872366e+01 2.918975276816622e+03
1.154089277861635e+03 8.736116429910183e+01 2.918975276816622e+03
1.154088209415474e+03 8.636274973646854e+01 2.918975276816622e+03
1.154087322468273e+03 8.536434258378770e+01 2.918975276816622e+03
1.154088200355274e+03 8.436593608403442e+01 2.918975276816622e+03
1.154089600479600e+03 8.336752129696340e+01 2.918975276816622e+03
1.154089361706392e+03 8.236910254680463e+01 2.918975276816622e+03
1.154088531710750e+03 8.137068982366301e+01 2.918975276816622e+03
1.154088914519373e+03 8.037227871685579e+01 2.918975276816622e+03
1.154089262989627e+03 7.937386342691262e+01 2.918975276816622e+03
1.154088960138313e+03 7.837544929293391e+01 2.918975276816622e+03
1.154089017407946e+03 7.737703618079613e+01 2.918975276816622e+03
1.154088830427086e+03 7.637862180884702e+01 2.918975276816622e+03
1.154088466264257e+03 7.538021124014850e+01 2.918975276816622e+03
1.154088847673847e+03 7.438180064465971e+01 2.918975276816622e+03
1.154088954686432e+03 7.338338622946851e+01 2.918975276816622e+03
1.154088987932500e+03 7.238497372743986e+01 2.918975276816622e+03
1.154089594120279e+03 7.138655924784521e+01 2.918975276816622e+03
1.154088954618634e+03 7.038814232200976e+01 2.918975276816622e+03
1.154087955678027e+03 6.938973343916116e+01 2.918975276816622e+03
1.154089019906701e+03 6.839132520023054e+01 2.918975276816622e+03
1.154090082750827e+03 6.739290776282631e+01 2.918975276816622e+03
1.154091645217905e+03 6.639449187888734e+01 2.918975276816622e+03
1.154070001410750e+03 6.539604764896389e+01 2.918975276816622e+03
1.154039839388548e+03 6.439784336860446e+01 2.918975276816622e+03
1.154171120856999e+03 6.339946695711291e+01 2.918975276816622e+03
1.154314662884168e+03 6.240037330761409e+01 2.918975276816622e+03
1.154018110823393e+03 6.140095076266746e+01 2.918975276816622e+03
1.153706729985903e+03 6.040393258986420e+01 2.918975276816622e+03
1.154058923213281e+03 5.940725641569249e+01 2.918975276816622e+03
1.154409609638805e+03 5.840731289005809e+01 2.918975276816622e+03
1.154131102780136e+03 5.740784808618797e+01 2.918975276816622e+03
1.154015979021290e+03 5.641075052304895e+01 2.918975276816622e+03
1.154157314398474e+03 5.540916321752583e+01 2.918975276816622e+03
1.153821083013992e+03 5.441256416389600e+01 2.918975276816622e+03
1.153898708756394e+03 5.341575999505326e+01 2.918975276816622e+03
1.154528201716578e+03 5.241504132721865e+01 2.918975276816622e+03
1.154315468580619e+03 5.142029111065040e+01 2.918975276816622e+03
1.153556716263222e+03 5.042165601984131e+01 2.918975276816622e+03
1.153812609427216e+03 4.942540642029419e+01 2.918975276816622e+03
1.154455073710165e+03 4.842661315657433e+01 2.918975276816622e+03
1.154299475469693e+03 4.742399503687148e+01 2.918975276816622e+03
1.154043963629557e+03 4.642528590927265e+01 2.918975276816622e+03
1.153873842936942e+03 4.542712805524431e+01 2.918975276816622e+03
1.153869376506180e+03 4.442795078346195e+01 2.918975276816622e+03
1.154223205292535e+03 4.342939549499694e+01 2.918975276816622e+03
1.154199613948181e+03 4.243412955994335e+01 2.918975276816622e+03
1.153923601578291e+03 4.143375864924547e+01 2.918975276816622e+03
1.154202906691290e+03 4.043470967785990e+01 2.918975276816622e+03
1.154421619925485e+03 3.943931721399822e+01 2.918975276816622e+03
1.154028988828019e+03 3.843780559031030e+01 2.918975276816622e+03
1.153708741437990e+03 3.743901993219978e+01 2.918975276816622e+03
1.153803981061492e+03 3.644351699582419e+01 2.918975276816622e+03
1.154167909610618e+03 3.544477820602224e+01 2.918975276816622e+03
1.154409918912539e+03 3.444511170904014e+01 2.918975276816622e+03
1.154144617276425e+03 3.344599245367775e+01 2.918975276816622e+03
1.153886651094072e+03 3.244835054681069e+01 2.918975276816622e+03
1.154016173577002e+03 3.145063742102982e+01 2.918975276816622e+03
1.154138931280380e+03 3.045183880532788e+01 2.918975276816622e+03
1.154108662561203e+03 2.945321983278810e+01 2.918975276816622e+03
1.154087483642342e+03 2.845479625041890e+01 2.918975276816622e+03
1.154090039176732e+03 2.745637904294699e+01 2.918975276816622e+03
1.154089532392409e+03 2.645796510927426e+01 2.918975276816622e+03
1.154089642134428e+03 2.545955395902564e+01 2.918975276816622e+03
1.154091017803675e+03 2.446113918681960e+01 2.918975276816622e+03
1.154091282733195e+03 2.346271580161451e+01 2.918975276816622e+03
1.154088723488170e+03 2.246429861216048e+01 2.918975276816622e+03
1.154084197466250e+03 2.146589655501759e+01 2.918975276816622e+03
1.154103890836606e+03 2.046748818447407e+01 2.918975276816622e+03
1.154159951260218e+03 1.946900033612575e+01 2.918975276816622e+03
1.154072735020532e+03 1.846951298912409e+01 2.918975276816622e+03
1.153812364130116e+03 1.747289701586524e+01 2.918975276816622e+03
1.153987182622089e+03 1.647479711156890e+01 2.918975276816622e+03
1.154482301612916e+03 1.547543423123503e+01 2.918975276816622e+03
1.154406352284431e+03 1.447626053798074e+01 2.918975276816622e+03
1.153737963076407e+03 1.347527089772347e+01 2.918975276816622e+03
1.153633616396449e+03 1.248191109767958e+01 2.918975276816622e+03
1.154191434698763e+03 1.148474843431920e+01 2.918975276816622e+03
1.154355575295662e+03 1.048310315988462e+01 2.918975276816622e+03
1.154152705868486e+03 9.484995580621110e+00 2.918975276816622e+03
1.154125044350963e+03 8.486333991530577e+00 2.918975276816622e+03
1.154188953604506e+03 7.487311014778003e+00 2.918975276816622e+03
1.153904628121457e+03 6.487899912812755e+00 2.918975276816622e+03
1.153600329132055e+03 5.494412161666054e+00 2.918975276816622e+03
1.154008361915309e+03 4.495950469914392e+00 2.918975276816622e+03
1.154651192158392e+03 3.495710377435605e+00 2.918975276816622e+03
1.154570986916430e+03 2.498648438142253e+00 2.918975276816622e+03
1.153717996256912e+03 1.488761576321016e+00 2.918975276816622e+03

CELLS 3096 12384
3 6 3106 7
3 6 3107 778
3 7 3108 8
3 8 3109 9
3 9 3110 10
3 10 3111 11
3 11 3112 12
3 12 3113 13
3 13 3114 14
3 14 3115 15
3 15 3116 16
3 16 3117 17
3 17 3118 18
3 18 3119 19
3 19 3120 20
3 20 3121 21
3 21 3122 22
3 22 3123 23
3 23 3124 24
3 24 3125 25
3 25 3126 26
3 26 3127 27
3 27 3128 28
3 28 3129 29
3 29 3130 30
3 30 3131 31
3 31 3132 32
3 32 3133 33
3 33 3134 34
3 34 3135 35
3 35 3136 36
3 36 3137 37
3 37 3138 38
3 38 3139 39
3 39 3140 40
3 40 3141 41
3 41 3142 42
3 42 3143 43
3 43 3144 44
3 44 3145 45
3 45 3146 46
3 46 3147 47
3 47 3148 48
3 48 3149 49
3 49 3150 50
3 50 3151 51
3 51 3152 52
3 52 3153 53
3 53 3154 54
3 54 3155 55
3 55 3156 56
3 56 3157 57
3 57 3158 58
3 58 3159 59
3 59 3160 60
3 60 3161 61
3 61 3162 62
3 62 3163 63
3 63 3164 64
3 64 3165 65
3 65 3166 66
3 66 3167 67
3 67 3168 68
3 68 3169 69
3 69 3170 70
3 70 3171 71
3 71 3172 72
3 72 3173 73
3 73 3174 74
3 74 3175 75
3 75 3176 76
3 76 3177 77
3 77 3178 78
3 78 3179 79
3 79 3180 80
3 80 3181 81
3 81 3182 82
3 82 3183 83
3 83 3184 84
3 84 3185 85
3 85 3186 86
3 86 3187 87
3 87 3188 88
3 88 3189 89
3 89 3190 90
3 90 3191 91
3 91 3192 92
3 92 3193 93
3 93 3194 94
3 94 3195 95
3 95 3196 96
3 96 3197 97
3 97 3198 98
3 98 3199 99
3 99 3200 100
3 100 3201 101
3 101 3202 102
3 102 3203 103
3 103 3204 104
3 104 3205 105
3 105 3206 106
3 106 3207 107
3 107 3208 108
3 108 3209 109
3 109 3210 110
3 110 3211 111
3 111 3212 112
3 112 3213 113
3 113 3214 114
3 114 3215 115
3 115 3216 116
3 116 3217 117
3 117 3218 118
3 118 3219 119
3 119 3220 120
3 120 3221 121
3 121 3222 122
3 122 3223 123
3 123 3224 124
3 124 3225 125
3 125 3226 126
3 126 3227 127
3 127 3228 128
3 128 3229 129
3 129 3230 130
3 130 3231 131
3 131 3232 132
3 132 3233 133
3 133 3234 134
3 134 3235 135
3 135 3236 136
3 136 3237 137
3 137 3238 138
3 138 3239 139
3 139 3240 140
3 140 3241 141
3 141 3242 142
3 142 3243 143
3 143 3244 144
3 144 3245 145
3 145 3246 146
3 146 3247 147
3 147 3248 148
3 148 3249 149
3 149 3250 150
3 150 3251 151
3 151 3252 152
3 152 3253 153
3 153 3254 154
3 154 3255 155
3 155 3256 156
3 156 3257 157
3 157 3258 158
3 158 3259 159
3 159 3260 160
3 160 3261 161
3 161 3262 162
3 162 3263 163
3 163 3264 164
3 164 3265 165
3 165 3266 166
3 166 3267 167
3 167 3268 168
3 168 3269 169
3 169 3270 170
3 170 3271 171
3 171 3272 172
3 172 3273 173
3 173 3274 174
3 174 3275 175
3 175 3276 176
3 176 3277 177
3 177 3278 178
3 178 3279 179
3 179 3280 180
3 180 3281 181
3 181 3282 182
3 182 3283 183
3 183 3284 184
3 184 3285 185
3 185 3286 186
3 186 3287 187
3 187 3288 188
3 188 3289 189
3 189 3290 190
3 190 3291 191
3 191 3292 192
3 192 3293 193
3 193 3294 194
3 194 3295 195
3 195 3296 196
3 196 3297 197
3 197 3298 198
3 198 3299 199
3 199 3300 200
3 200 3301 201
3 201 3302 202
3 202 3303 203
3 203 3304 204
3 204 3305 205
3 205 3306 206
3 206 3307 207
3 207 3308 208
3 208 3309 209
3 209 3310 210
3 210 3311 211
3 211 3312 212
3 212 3313 213
3 213 3314 214
3 214 3315 215
3 215 3316 216
3 216 3317 217
3 217 3318 218
3 218 3319 219
3 219 3320 220
3 220 3321 221
3 221 3322 222
3 222 3323 223
3 223 3324 224
3 224 3325 225
3 225 3326 226
3 226 3327 227
3 227 3328 228
3 228 3329 229
3 229 3330 230
3 230 3331 231
3 231 3332 232
3 232 3333 233
3 233 3334 234
3 234 3335 235
3 235 3336 236
3 236 3337 237
3 237 3338 238
3 238 3339 239
3 239 3340 240
3 240 3341 241
3 241 3342 242
3 242 3343 243
3 243 3344 244
3 244 3345 245
3 245 3346 246
3 246 3347 247
3 247 3348 248
3 248 3349 249
3 249 3350 250
3 250 3351 251
3 251 3352 252
3 252 3353 253
3 253 3354 254
3 254 3355 255
3 255 3356 256
3 256 3357 257
3 257 3358 258
3 258 3359 259
3 259 3360 260
3 260 3361 261
3 261 3362 262
3 262 3363 263
3 263 3364 264
3 264 3365 265
3 265 3366 266
3 266 3367 267
3 267 3368 268
3 268 3369 269
3 269 3370 270
3 270 3371 271
3 271 3372 272
3 272 3373 273
3 273 3374 274
3 274 3375 275
3 275 3376 276
3 276 3377 277
3 277 3378 278
3 278 3379 279
3 279 3380 280
3 280 3381 281
3 281 3382 282
3 282 3383 283
3 283 3384 284
3 284 3385 285
3 285 3386 286
3 286 3387 287
3 287 3388 288
3 288 3389 289
3 289 3390 290
3 290 3391 291
3 291 3392 292
3 292 3393 293
3 293 3394 294
3 294 3395 295
3 295 3396 296
3 296 3397 297
3 297 3398 298
3 298 3399 299
3 299 3400 300
3 300 3401 301
3 301 3402 302
3 302 3403 303
3 303 3404 304
3 304 3405 305
3 305 3406 306
3 306 3407 307
3 307 3408 308
3 308 3409 309
3 309 3410 310
3 310 3411 311
3 311 3412 312
3 312 3413 313
3 313 3414 314
3 314 3415 315
3 315 3416 316
3 316 3417 317
3 317 3418 318
3 318 3419 319
3 319 3420 320
3 320 3421 321
3 321 3422 322
3 322 3423 323
3 323 3424 324
3 324 3425 325
3 325 3426 326
3 326 3427 327
3 327 3428 328
3 328 3429 329
3 329 3430 330
3 330 3431 331
3 331 3432 332
3 332 3433 333
3 333 3434 334
3 334 3435 335
3 335 3436 336
3 336 3437 337
3 337 3438 338
3 338 3439 339
3 339 3440 340
3 340 3441 341
3 341 3442 342
3 342 3443 343
3 343 3444 344
3 344 3445 345
3 345 3446 346
3 346 3447 347
3 347 3448 348
3 348 3449 349
3 349 3450 350
3 350 3451 351
3 351 3452 352
3 352 3453 353
3 353 3454 354
3 354 3455 355
3 355 3456 356
3 356 3457 357
3 357 3458 358
3 358 3459 359
3 359 3460 360
3 360 3461 361
3 361 3462 362
3 362 3463 363
3 363 3464 364
3 364 3465 365
3 365 3466 366
3 366 3467 367
3 367 3468 368
3 368 3469 369
3 369 3470 370
3 370 3471 371
3 371 3472 372
3 372 3473 373
3 373 3474 374
3 374 3475 375
3 375 3476 376
3 376 3477 377
3 377 3478 378
3 378 3479 379
3 379 3480 380
3 380 3481 381
3 381 3482 382
3 382 3483 383
3 383 3484 384
3 384 3485 385
3 385 3486 386
3 386 3487 387
3 387 3488 388
3 388 3489 389
3 389 3490 390
3 390 3491 391
3 391 3492 392
3 392 3493 3098
3 393 3494 394
3 393 3495 3099
3 394 3496 395
3 395 3497 396
3 396 3498 397
3 397 3499 398
3 398 3500 399
3 399 3501 400
3 400 3502 401
3 401 3503 402
3 402 3504 403
3 403 3505 404
3 404 3506 405
3 405 3507 406
3 406 3508 407
3 407 3509 408
3 408 3510 409
3 409 3511 410
3 410 3512 411
3 411 3513 412
3 412 3514 413
3 413 3515 414
3 414 3516 415
3 415 3517 416
3 416 3518 417
3 417 3519 418
3 418 3520 419
3 419 3521 420
3 420 3522 421
3 421 3523 422
3 422 3524 423
3 423 3525 424
3 424 3526 425
3 425 3527 426
3 426 3528 427
3 427 3529 428
3 428 3530 429
3 429 3531 430
3 430 3532 431
3 431 3533 432
3 432 3534 433
3 433 3535 434
3 434 3536 435
3 435 3537 436
3 436 3538 437
3 437 3539 438
3 438 3540 439
3 439 3541 440
3 440 3542 441
3 441 3543 442
3 442 3544 443
3 443 3545 444
3 444 3546 445
3 445 3547 446
3 446 3548 447
3 447 3549 448
3 448 3550 449
3 449 3551 450
3 450 3552 451
3 451 3553 452
3 452 3554 453
3 453 3555 454
3 454 3556 455
3 455 3557 456
3 456 3558 457
3 457 3559 458
3 458 3560 459
3 459 3561 460
3 460 3562 461
3 461 3563 462
3 462 3564 463
3 463 3565 464
3 464 3566 465
3 465 3567 466
3 466 3568 467
3 467 3569 468
3 468 3570 469
3 469 3571 470
3 470 3572 471
3 471 3573 472
3 472 3574 473
3 473 3575 474
3 474 3576 475
3 475 3577 476
3 476 3578 477
3 477 3579 478
3 478 3580 479
3 479 3581 480
3 480 3582 481
3 481 3583 482
3 482 3584 483
3 483 3585 484
3 484 3586 485
3 485 3587 486
3 486 3588 487
3 487 3589 488
3 488 3590 489
3 489 3591 490
3 490 3592 491
3 491 3593 492
3 492 3594 493
3 493 3595 494
3 494 3596 495
3 495 3597 496
3 496 3598 497
3 497 3599 498
3 498 3600 499
3 499 3601 500
3 500 3602 501
3 501 3603 502
3 502 3604 503
3 503 3605 504
3 504 3606 505
3 505 3607 506
3 506 3608 507
3 507 3609 508
3 508 3610 509
3 509 3611 510
3 510 3612 511
3 511 3613 512
3 512 3614 513
3 513 3615 514
3 514 3616 515
3 515 3617 516
3 516 3618 517
3 517 3619 518
3 518 3620 519
3 519 3621 520
3 520 3622 521
3 521 3623 522
3 522 3624 523
3 523 3625 524
3 524 3626 525
3 525 3627 526
3 526 3628 527
3 527 3629 528
3 528 3630 529
3 529 3631 530
3 530 3632 531
3 531 3633 532
3 532 3634 533
3 533 3635 534
3 534 3636 535
3 535 3637 536
3 536 3638 537
3 537 3639 538
3 538 3640 539
3 539 3641 540
3 540 3642 541
3 541 3643 542
3 542 3644 543
3 543 3645 544
3 544 3646 545
3 545 3647 546
3 546 3648 547
3 547 3649 548
3 548 3650 549
3 549 3651 550
3 550 3652 551
3 551 3653 552
3 552 3654 553
3 553 3655 554
3 554 3656 555
3 555 3657 556
3 556 3658 557
3 557 3659 558
3 558 3660 559
3 559 3661 560
3 560 3662 561
3 561 3663 562
3 562 3664 563
3 563 3665 564
3 564 3666 565
3 565 3667 566
3 566 3668 567
3 567 3669 568
3 568 3670 569
3 569 3671 570
3 570 3672 571
3 571 3673 572
3 572 3674 573
3 573 3675 574
3 574 3676 575
3 575 3677 576
3 576 3678 577
3 577 3679 578
3 578 3680 579
3 579 3681 580
3 580 3682 581
3 581 3683 582
3 582 3684 583
3 583 3685 584
3 584 3686 585
3 585 3687 586
3 586 3688 587
3 587 3689 588
3 588 3690 589
3 589 3691 590
3 590 3692 591
3 591 3693 592
3 592 3694 593
3 593 3695 594
3 594 3696 595
3 595 3697 596
3 596 3698 597
3 597 3699 598
3 598 3700 599
3 599 3701 600
3 600 3702 601
3 601 3703 602
3 602 3704 603
3 603 3705 604
3 604 3706 605
3 605 3707 606
3 606 3708 607
3 607 3709 608
3 608 3710 609
3 609 3711 610
3 610 3712 611
3 611 3713 612
3 612 3714 613
3 613 3715 614
3 614 3716 615
3 615 3717 616
3 616 3718 617
3 617 3719 618
3 618 3720 619
3 619 3721 620
3 620 3722 621
3 621 3723 622
3 622 3724 623
3 623 3725 624
3 624 3726 625
3 625 3727 626
3 626 3728 627
3 627 3729 628
3 628 3730 629
3 629 3731 630
3 630 3732 631
3 631 3733 632
3 632 3734 633
3 633 3735 634
3 634 3736 635
3 635 3737 636
3 636 3738 637
3 637 3739 638
3 638 3740 639
3 639 3741 640
3 640 3742 641
3 641 3743 642
3 642 3744 643
3 643 3745 644
3 644 3746 645
3 645 3747 646
3 646 3748 647
3 647 3749 648
3 648 3750 649
3 649 3751 650
3 650 3752 651
3 651 3753 652
3 652 3754 653
3 653 3755 654
3 654 3756 655
3 655 3757 656
3 656 3758 657
3 657 3759 658
3 658 3760 659
3 659 3761 660
3 660 3762 661
3 661 3763 662
3 662 3764 663
3 663 3765 664
3 664 3766 665
3 665 3767 666
3 666 3768 667
3 667 3769 668
3 668 3770 669
3 669 3771 670
3 670 3772 671
3 671 3773 672
3 672 3774 673
3 673 3775 674
3 674 3776 675
3 675 3777 676
3 676 3778 677
3 677 3779 678
3 678 3780 679
3 679 3781 680
3 680 3782 681
3 681 3783 682
3 682 3784 683
3 683 3785 684
3 684 3786 685
3 685 3787 686
3 686 3788 687
3 687 3789 688
3 688 3790 689
3 689 3791 690
3 690 3792 691
3 691 3793 692
3 692 3794 693
3 693 3795 694
3 694 3796 695
3 695 3797 696
3 696 3798 697
3 697 3799 698
3 698 3800 699
3 699 3801 700
3 700 3802 701
3 701 3803 702
3 702 3804 703
3 703 3805 704
3 704 3806 705
3 705 3807 706
3 706 3808 707
3 707 3809 708
3 708 3810 709
3 709 3811 710
3 710 3812 711
3 711 3813 712
3 712 3814 713
3 713 3815 714
3 714 3816 715
3 715 3817 716
3 716 3818 717
3 717 3819 718
3 718 3820 719
3 719 3821 720
3 720 3822 721
3 721 3823 722
3 722 3824 723
3 723 3825 724
3 724 3826 725
3 725 3827 726
3 726 3828 727
3 727 3829 728
3 728 3830 729
3 729 3831 730
3 730 3832 731
3 731 3833 732
3 732 3834 733
3 733 3835 734
3 734 3836 735
3 735 3837 736
3 736 3838 737
3 737 3839 738
3 738 3840 739
3 739 3841 740
3 740 3842 741
3 741 3843 742
3 742 3844 743
3 743 3845 744
3 744 3846 745
3 745 3847 746
3 746 3848 747
3 747 3849 748
3 748 3850 749
3 749 3851 750
3 750 3852 751
3 751 3853 752
3 752 3854 753
3 753 3855 754
3 754 3856 755
3 755 3857 756
3 756 3858 757
3 757 3859 758
3 758 3860 759
3 759 3861 760
3 760 3862 761
3 761 3863 762
3 762 3864 763
3 763 3865 764
3 764 3866 765
3 765 3867 766
3 766 3868 767
3 767 3869 768
3 768 3870 769
3 769 3871 770
3 770 3872 771
3 771 3873 772
3 772 3874 773
3 773 3875 774
3 774 3876 775
3 775 3877 776
3 776 3878 777
3 777 3879 778
3 779 3880 780
3 779 3881 1551
3 780 3882 781
3 781 3883 782
3 782 3884 783
3 783 3885 784
3 784 3886 785
3 785 3887 786
3 786 3888 787
3 787 3889 788
3 788 3890 789
3 789 3891 790
3 790 3892 791
3 791 3893 792
3 792 3894 793
3 793 3895 794
3 794 3896 795
3 795 3897 796
3 796 3898 797
3 797 3899 798
3 798 3900 799
3 799 3901 800
3 800 3902 801
3 801 3903 802
3 802 3904 803
3 803 3905 804
3 804 3906 805
3 805 3907 806
3 806 3908 807
3 807 3909 808
3 808 3910 809
3 809 3911 810
3 810 3912 811
3 811 3913 812
3 812 3914 813
3 813 3915 814
3 814 3916 815
3 815 3917 816
3 816 3918 817
3 817 3919 818
3 818 3920 819
3 819 3921 820
3 820 3922 821
3 821 3923 822
3 822 3924 823
3 823 3925 824
3 824 3926 825
3 825 3927 826
3 826 3928 827
3 827 3929 828
3 828 3930 829
3 829 3931 830
3 830 3932 831
3 831 3933 832
3 832 3934 833
3 833 3935 834
3 834 3936 835
3 835 3937 836
3 836 3938 837
3 837 3939 838
3 838 3940 839
3 839 3941 840
3 840 3942 841
3 841 3943 842
3 842 3944 843
3 843 3945 844
3 844 3946 845
3 845 3947 846
3 846 3948 847
3 847 3949 848
3 848 3950 849
3 849 3951 850
3 850 3952 851
3 851 3953 852
3 852 3954 853
3 853 3955 854
3 854 3956 855
3 855 3957 856
3 856 3958 857
3 857 3959 858
3 858 3960 859
3 859 3961 860
3 860 3962 861
3 861 3963 862
3 862 3964 863
3 863 3965 864
3 864 3966 865
3 865 3967 866
3 866 3968 867
3 867 3969 868
3 868 3970 869
3 869 3971 870
3 870 3972 871
3 871 3973 872
3 872 3974 873
3 873 3975 874
3 874 3976 875
3 875 3977 876
3 876 3978 877
3 877 3979 878
3 878 3980 879
3 879 3981 880
3 880 3982 881
3 881 3983 882
3 882 3984 883
3 883 3985 884
3 884 3986 885
3 885 3987 886
3 886 3988 887
3 887 3989 888
3 888 3990 889
3 889 3991 890
3 890 3992 891
3 891 3993 892
3 892 3994 893
3 893 3995 894
3 894 3996 895
3 895 3997 896
3 896 3998 897
3 897 3999 898
3 898 4000 899
3 899 4001 900
3 900 4002 901
3 901 4003 902
3 902 4004 903
3 903 4005 904
3 904 4006 905
3 905 4007 906
3 906 4008 907
3 907 4009 908
3 908 4010 909
3 909 4011 910
3 910 4012 911
3 911 4013 912
3 912 4014 913
3 913 4015 914
3 914 4016 915
3 915 4017 916
3 916 4018 917
3 917 4019 918
3 918 4020 919
3 919 4021 920
3 920 4022 921
3 921 4023 922
3 922 4024 923
3 923 4025 924
3 924 4026 925
3 925 4027 926
3 926 4028 927
3 927 4029 928
3 928 4030 929
3 929 4031 930
3 930 4032 931
3 931 4033 932
3 932 4034 933
3 933 4035 934
3 934 4036 935
3 935 4037 936
3 936 4038 937
3 937 4039 938
3 938 4040 939
3 939 4041 940
3 940 4042 941
3 941 4043 942
3 942 4044 943
3 943 4045 944
3 944 4046 945
3 945 4047 946
3 946 4048 947
3 947 4049 948
3 948 4050 949
3 949 4051 950
3 950 4052 951
3 951 4053 952
3 952 4054 953
3 953 4055 954
3 954 4056 955
3 955 4057 956
3 956 4058 957
3 957 4059 958
3 958 4060 959
3 959 4061 960
3 960 4062 961
3 961 4063 962
3 962 4064 963
3 963 4065 964
3 964 4066 965
3 965 4067 966
3 966 4068 967
3 967 4069 968
3 968 4070 969
3 969 4071 970
3 970 4072 971
3 971 4073 972
3 972 4074 973
3 973 4075 974
3 974 4076 975
3 975 4077 976
3 976 4078 977
3 977 4079 978
3 978 4080 979
3 979 4081 980
3 980 4082 981
3 981 4083 982
3 982 4084 983
3 983 4085 984
3 984 4086 985
3 985 4087 986
3 986 4088 987
3 987 4089 988
3 988 4090 989
3 989 4091 990
3 990 4092 991
3 991 4093 992
3 992 4094 993
3 993 4095 994
3 994 4096 995
3 995 4097 996
3 996 4098 997
3 997 4099 998
3 998 4100 999
3 999 4101 1000
3 1000 4102 1001
3 1001 4103 1002
3 1002 4104 1003
3 1003 4105 1004
3 1004 4106 1005
3 1005 4107 1006
3 1006 4108 1007
3 1007 4109 1008
3 1008 4110 1009
3 1009 4111 1010
3 1010 4112 1011
3 1011 4113 1012
3 1012 4114 1013
3 1013 4115 1014
3 1014 4116 1015
3 1015 4117 1016
3 1016 4118 1017
3 1017 4119 1018
3 1018 4120 1019
3 1019 4121 1020
3 1020 4122 1021
3 1021 4123 1022
3 1022 4124 1023
3 1023 4125 1024
3 1024 4126 1025
3 1025 4127 1026
3 1026 4128 1027
3 1027 4129 1028
3 1028 4130 1029
3 1029 4131 1030
3 1030 4132 1031
3 1031 4133 1032
3 1032 4134 1033
3 1033 4135 1034
3 1034 4136 1035
3 1035 4137 1036
3 1036 4138 1037
3 1037 4139 1038
3 1038 4140 1039
3 1039 4141 1040
3 1040 4142 1041
3 1041 4143 1042
3 1042 4144 1043
3 1043 4145 1044
3 1044 4146 1045
3 1045 4147 1046
3 1046 4148 1047
3 1047 4149 1048
3 1048 4150 1049
3 1049 4151 1050
3 1050 4152 1051
3 1051 4153 1052
3 1052 4154 1053
3 1053 4155 1054
3 1054 4156 1055
3 1055 4157 1056
3 1056 4158 1057
3 1057 4159 1058
3 1058 4160 1059
3 1059 4161 1060
3 1060 4162 1061
3 1061 4163 1062
3 1062 4164 1063
3 1063 4165 1064
3 1064 4166 1065
3 1065 4167 1066
3 1066 4168 1067
3 1067 4169 1068
3 1068 4170 1069
3 1069 4171 1070
3 1070 4172 1071
3 1071 4173 1072
3 1072 4174 1073
3 1073 4175 1074
3 1074 4176 1075
3 1075 4177 1076
3 1076 4178 1077
3 1077 4179 1078
3 1078 4180 1079
3 1079 4181 1080
3 1080 4182 1081
3 1081 4183 1082
3 1082 4184 1083
3 1083 4185 1084
3 1084 4186 1085
3 1085 4187 1086
3 1086 4188 1087
3 1087 4189 1088
3 1088 4190 1089
3 1089 4191 1090
3 1090 4192 1091
3 1091 4193 1092
3 1092 4194 1093
3 1093 4195 1094
3 1094 4196 1095
3 1095 4197 1096
3 1096 4198 1097
3 1097 4199 1098
3 1098 4200 1099
3 1099 4201 1100
3 1100 4202 1101
3 1101 4203 1102
3 1102 4204 1103
3 1103 4205 1104
3 1104 4206 1105
3 1105 4207 1106
3 1106 4208 1107
3 1107 4209 1108
3 1108 4210 1109
3 1109 4211 1110
3 1110 4212 1111
3 1111 4213 1112
3 1112 4214 1113
3 1113 4215 1114
3 1114 4216 1115
3 1115 4217 1116
3 1116 4218 1117
3 1117 4219 1118
3 1118 4220 1119
3 1119 4221 1120
3 1120 4222 1121
3 1121 4223 1122
3 1122 4224 1123
3 1123 4225 1124
3 1124 4226 1125
3 1125 4227 1126
3 1126 4228 1127
3 1127 4229 1128
3 1128 4230 1129
3 1129 4231 1130
3 1130 4232 1131
3 1131 4233 1132
3 1132 4234 1133
3 1133 4235 1134
3 1134 4236 1135
3 1135 4237 1136
3 1136 4238 1137
3 1137 4239 1138
3 1138 4240 1139
3 1139 4241 1140
3 1140 4242 1141
3 1141 4243 1142
3 1142 4244 1143
3 1143 4245 1144
3 1144 4246 1145
3 1145 4247 1146
3 1146 4248 1147
3 1147 4249 1148
3 1148 4250 1149
3 1149 4251 1150
3 1150 4252 1151
3 1151 4253 1152
3 1152 4254 1153
3 1153 4255 1154
3 1154 4256 1155
3 1155 4257 1156
3 1156 4258 1157
3 1157 4259 1158
3 1158 4260 1159
3 1159 4261 1160
3 1160 4262 1161
3 1161 4263 1162
3 1162 4264 1163
3 1163 4265 1164
3 1164 4266 1165
3 1165 4267 3100
3 1166 4268 1167
3 1166 4269 3101
3 1167 4270 1168
3 1168 4271 1169
3 1169 4272 1170
3 1170 4273 1171
3 1171 4274 1172
3 1172 4275 1173
3 1173 4276 1174
3 1174 4277 1175
3 1175 4278 1176
3 1176 4279 1177
3 1177 4280 1178
3 1178 4281 1179
3 1179 4282 1180
3 1180 4283 1181
3 1181 4284 1182
3 1182 4285 1183
3 1183 4286 1184
3 1184 4287 1185
3 1185 4288 1186
3 1186 4289 1187
3 1187 4290 1188
3 1188 4291 1189
3 1189 4292 1190
3 1190 4293 1191
3 1191 4294 1192
3 1192 4295 1193
3 1193 4296 1194
3 1194 4297 1195
3 1195 4298 1196
3 1196 4299 1197
3 1197 4300 1198
3 1198 4301 1199
3 1199 4302 1200
3 1200 4303 1201
3 1201 4304 1202
3 1202 4305 1203
3 1203 4306 1204
3 1204 4307 1205
3 1205 4308 1206
3 1206 4309 1207
3 1207 4310 1208
3 1208 4311 1209
3 1209 4312 1210
3 1210 4313 1211
3 1211 4314 1212
3 1212 4315 1213
3 1213 4316 1214
3 1214 4317 1215
3 1215 4318 1216
3 1216 4319 1217
3 1217 4320 1218
3 1218 4321 1219
3 1219 4322 1220
3 1220 4323 1221
3 1221 4324 1222
3 1222 4325 1223
3 1223 4326 1224
3 1224 4327 1225
3 1225 4328 1226
3 1226 4329 1227
3 1227 4330 1228
3 1228 4331 1229
3 1229 4332 1230
3 1230 4333 1231
3 1231 4334 1232
3 1232 4335 1233
3 1233 4336 1234
3 1234 4337 1235
3 1235 4338 1236
3 1236 4339 1237
3 1237 4340 1238
3 1238 4341 1239
3 1239 4342 1240
3 1240 4343 1241
3 1241 4344 1242
3 1242 4345 1243
3 1243 4346 1244
3 1244 4347 1245
3 1245 4348 1246
3 1246 4349 1247
3 1247 4350 1248
3 1248 4351 1249
3 1249 4352 1250
3 1250 4353 1251
3 1251 4354 1252
3 1252 4355 1253
3 1253 4356 1254
3 1254 4357 1255
3 1255 4358 1256
3 1256 4359 1257
3 1257 4360 1258
3 1258 4361 1259
3 1259 4362 1260
3 1260 4363 1261
3 1261 4364 1262
3 1262 4365 1263
3 1263 4366 1264
3 1264 4367 1265
3 1265 4368 1266
3 1266 4369 1267
3 1267 4370 1268
3 1268 4371 1269
3 1269 4372 1270
3 1270 4373 1271
3 1271 4374 1272
3 1272 4375 1273
3 1273 4376 1274
3 1274 4377 1275
3 1275 4378 1276
3 1276 4379 1277
3 1277 4380 1278
3 1278 4381 1279
3 1279 4382 1280
3 1280 4383 1281
3 1281 4384 1282
3 1282 4385 1283
3 1283 4386 1284
3 1284 4387 1285
3 1285 4388 1286
3 1286 4389 1287
3 1287 4390 1288
3 1288 4391 1289
3 1289 4392 1290
3 1290 4393 1291
3 1291 4394 1292
3 1292 4395 1293
3 1293 4396 1294
3 1294 4397 1295
3 1295 4398 1296
3 1296 4399 1297
3 1297 4400 1298
3 1298 4401 1299
3 1299 4402 1300
3 1300 4403 1301
3 1301 4404 1302
3 1302 4405 1303
3 1303 4406 1304
3 1304 4407 1305
3 1305 4408 1306
3 1306 4409 1307
3 1307 4410 1308
3 1308 4411 1309
3 1309 4412 1310
3 1310 4413 1311
3 1311 4414 1312
3 1312 4415 1313
3 1313 4416 1314
3 1314 4417 1315
3 1315 4418 1316
3 1316 4419 1317
3 1317 4420 1318
3 1318 4421 1319
3 1319 4422 1320
3 1320 4423 1321
3 1321 4424 1322
3 1322 4425 1323
3 1323 4426 1324
3 1324 4427 1325
3 1325 4428 1326
3 1326 4429 1327
3 1327 4430 1328
3 1328 4431 1329
3 1329 4432 1330
3 1330 4433 1331
3 1331 4434 1332
3 1332 4435 1333
3 1333 4436 1334
3 1334 4437 1335
3 1335 4438 1336
3 1336 4439 1337
3 1337 4440 1338
3 1338 4441 1339
3 1339 4442 1340
3 1340 4443 1341
3 1341 4444 1342
3 1342 4445 1343
3 1343 4446 1344
3 1344 4447 1345
3 1345 4448 1346
3 1346 4449 1347
3 1347 4450 1348
3 1348 4451 1349
3 1349 4452 1350
3 1350 4453 1351
3 1351 4454 1352
3 1352 4455 1353
3 1353 4456 1354
3 1354 4457 1355
3 1355 4458 1356
3 1356 4459 1357
3 1357 4460 1358
3 1358 4461 1359
3 1359 4462 1360
3 1360 4463 1361
3 1361 4464 1362
3 1362 4465 1363
3 1363 4466 1364
3 1364 4467 1365
3 1365 4468 1366
3 1366 4469 1367
3 1367 4470 1368
3 1368 4471 1369
3 1369 4472 1370
3 1370 4473 1371
3 1371 4474 1372
3 1372 4475 1373
3 1373 4476 1374
3 1374 4477 1375
3 1375 4478 1376
3 1376 4479 1377
3 1377 4480 1378
3 1378 4481 1379
3 1379 4482 1380
3 1380 4483 1381
3 1381 4484 1382
3 1382 4485 1383
3 1383 4486 1384
3 1384 4487 1385
3 1385 4488 1386
3 1386 4489 1387
3 1387 4490 1388
3 1388 4491 1389
3 1389 4492 1390
3 1390 4493 1391
3 1391 4494 1392
3 1392 4495 1393
3 1393 4496 1394
3 1394 4497 1395
3 1395 4498 1396
3 1396 4499 1397
3 1397 4500 1398
3 1398 4501 1399
3 1399 4502 1400
3 1400 4503 1401
3 1401 4504 1402
3 1402 4505 1403
3 1403 4506 1404
3 1404 4507 1405
3 1405 4508 1406
3 1406 4509 1407
3 1407 4510 1408
3 1408 4511 1409
3 1409 4512 1410
3 1410 4513 1411
3 1411 4514 1412
3 1412 4515 1413
3 1413 4516 1414
3 1414 4517 1415
3 1415 4518 1416
3 1416 4519 1417
3 1417 4520 1418
3 1418 4521 1419
3 1419 4522 1420
3 1420 4523 1421
3 1421 4524 1422
3 1422 4525 1423
3 1423 4526 1424
3 1424 4527 1425
3 1425 4528 1426
3 1426 4529 1427
3 1427 4530 1428
3 1428 4531 1429
3 1429 4532 1430
3 1430 4533 1431
3 1431 4534 1432
3 1432 4535 1433
3 1433 4536 1434
3 1434 4537 1435
3 1435 4538 1436
3 1436 4539 1437
3 1437 4540 1438
3 1438 4541 1439
3 1439 4542 1440
3 1440 4543 1441
3 1441 4544 1442
3 1442 4545 1443
3 1443 4546 1444
3 1444 4547 1445
3 1445 4548 1446
3 1446 4549 1447
3 1447 4550 1448
3 1448 4551 1449
3 1449 4552 1450
3 1450 4553 1451
3 1451 4554 1452
3 1452 4555 1453
3 1453 4556 1454
3 1454 4557 1455
3 1455 4558 1456
3 1456 4559 1457
3 1457 4560 1458
3 1458 4561 1459
3 1459 4562 1460
3 1460 4563 1461
3 1461 4564 1462
3 1462 4565 1463
3 1463 4566 1464
3 1464 4567 1465
3 1465 4568 1466
3 1466 4569 1467
3 1467 4570 1468
3 1468 4571 1469
3 1469 4572 1470
3 1470 4573 1471
3 1471 4574 1472
3 1472 4575 1473
3 1473 4576 1474
3 1474 4577 1475
3 1475 4578 1476
3 1476 4579 1477
3 1477 4580 1478
3 1478 4581 1479
3 1479 4582 1480
3 1480 4583 1481
3 1481 4584 1482
3 1482 4585 1483
3 1483 4586 1484
3 1484 4587 1485
3 1485 4588 1486
3 1486 4589 1487
3 1487 4590 1488
3 1488 4591 1489
3 1489 4592 1490
3 1490 4593 1491
3 1491 4594 1492
3 1492 4595 1493
3 1493 4596 1494
3 1494 4597 1495
3 1495 4598 1496
3 1496 4599 1497
3 1497 4600 1498
3 1498 4601 1499
3 1499 4602 1500
3 1500 4603 1501
3 1501 4604 1502
3 1502 4605 1503
3 1503 4606 1504
3 1504 4607 1505
3 1505 4608 1506
3 1506 4609 1507
3 1507 4610 1508
3 1508 4611 1509
3 1509 4612 1510
3 1510 4613 1511
3 1511 4614 1512
3 1512 4615 1513
3 1513 4616 1514
3 1514 4617 1515
3 1515 4618 1516
3 1516 4619 1517
3 1517 4620 1518
3 1518 4621 1519
3 1519 4622 1520
3 1520 4623 1521
3 1521 4624 1522
3 1522 4625 1523
3 1523 4626 1524
3 1524 4627 1525
3 1525 4628 1526
3 1526 4629 1527
3 1527 4630 1528
3 1528 4631 1529
3 1529 4632 1530
3 1530 4633 1531
3 1531 4634 1532
3 1532 4635 1533
3 1533 4636 1534
3 1534 4637 1535
3 1535 4638 1536
3 1536 4639 1537
3 1537 4640 1538
3 1538 4641 1539
3 1539 4642 1540
3 1540 4643 1541
3 1541 4644 1542
3 1542 4645 1543
3 1543 4646 1544
3 1544 4647 1545
3 1545 4648 1546
3 1546 4649 1547
3 1547 4650 1548
3 1548 4651 1549
3 1549 4652 1550
3 1550 4653 1551
3 1552 4654 1553
3 1552 4655 2324
3 1553 4656 1554
3 1554 4657 1555
3 1555 4658 1556
3 1556 4659 1557
3 1557 4660 1558
3 1558 4661 1559
3 1559 4662 1560
3 1560 4663 1561
3 1561 4664 1562
3 1562 4665 1563
3 1563 4666 1564
3 1564 4667 1565
3 1565 4668 1566
3 1566 4669 1567
3 1567 4670 1568
3 1568 4671 1569
3 1569 4672 1570
3 1570 4673 1571
3 1571 4674 1572
3 1572 4675 1573
3 1573 4676 1574
3 1574 4677 1575
3 1575 4678 1576
3 1576 4679 1577
3 1577 4680 1578
3 1578 4681 1579
3 1579 4682 1580
3 1580 4683 1581
3 1581 4684 1582
3 1582 4685 1583
3 1583 4686 1584
3 1584 4687 1585
3 1585 4688 1586
3 1586 4689 1587
3 1587 4690 1588
3 1588 4691 1589
3 1589 4692 1590
3 1590 4693 1591
3 1591 4694 1592
3 1592 4695 1593
3 1593 4696 1594
3 1594 4697 1595
3 1595 4698 1596
3 1596 4699 1597
3 1597 4700 1598
3 1598 4701 1599
3 1599 4702 1600
3 1600 4703 1601
3 1601 4704 1602
3 1602 4705 1603
3 1603 4706 1604
3 1604 4707 1605
3 1605 4708 1606
3 1606 4709 1607
3 1607 4710 1608
3 1608 4711 1609
3 1609 4712 1610
3 1610 4713 1611
3 1611 4714 1612
3 1612 4715 1613
3 1613 4716 1614
3 1614 4717 1615
3 1615 4718 1616
3 1616 4719 1617
3 1617 4720 1618
3 1618 4721 1619
3 1619 4722 1620
3 1620 4723 1621
3 1621 4724 1622
3 1622 4725 1623
3 1623 4726 1624
3 1624 4727 1625
3 1625 4728 1626
3 1626 4729 1627
3 1627 4730 1628
3 1628 4731 1629
3 1629 4732 1630
3 1630 4733 1631
3 1631 4734 1632
3 1632 4735 1633
3 1633 4736 1634
3 1634 4737 1635
3 1635 4738 1636
3 1636 4739 1637
3 1637 4740 1638
3 1638 4741 1639
3 1639 4742 1640
3 1640 4743 1641
3 1641 4744 1642
3 1642 4745 1643
3 1643 4746 1644
3 1644 4747 1645
3 1645 4748 1646
3 1646 4749 1647
3 1647 4750 1648
3 1648 4751 1649
3 1649 4752 1650
3 1650 4753 1651
3 1651 4754 1652
3 1652 4755 1653
3 1653 4756 1654
3 1654 4757 1655
3 1655 4758 1656
3 1656 4759 1657
3 1657 4760 1658
3 1658 4761 1659
3 1659 4762 1660
3 1660 4763 1661
3 1661 4764 1662
3 1662 4765 1663
3 1663 4766 1664
3 1664 4767 1665
3 1665 4768 1666
3 1666 4769 1667
3 1667 4770 1668
3 1668 4771 1669
3 1669 4772 1670
3 1670 4773 1671
3 1671 4774 1672
3 1672 4775 1673
3 1673 4776 1674
3 1674 4777 1675
3 1675 4778 1676
3 1676 4779 1677
3 1677 4780 1678
3 1678 4781 1679
3 1679 4782 1680
3 1680 4783 1681
3 1681 4784 1682
3 1682 4785 1683
3 1683 4786 1684
3 1684 4787 1685
3 1685 4788 1686
3 1686 4789 1687
3 1687 4790 1688
3 1688 4791 1689
3 1689 4792 1690
3 1690 4793 1691
3 1691 4794 1692
3 1692 4795 1693
3 1693 4796 1694
3 1694 4797 1695
3 1695 4798 1696
3 1696 4799 1697
3 1697 4800 1698
3 1698 4801 1699
3 1699 4802 1700
3 1700 4803 1701
3 1701 4804 1702
3 1702 4805 1703
3 1703 4806 1704
3 1704 4807 1705
3 1705 4808 1706
3 1706 4809 1707
3 1707 4810 1708
3 1708 4811 1709
3 1709 4812 1710
3 1710 4813 1711
3 1711 4814 1712
3 1712 4815 1713
3 1713 4816 1714
3 1714 4817 1715
3 1715 4818 1716
3 1716 4819 1717
3 1717 4820 1718
3 1718 4821 1719
3 1719 4822 1720
3 1720 4823 1721
3 1721 4824 1722
3 1722 4825 1723
3 1723 4826 1724
3 1724 4827 1725
3 1725 4828 1726
3 1726 4829 1727
3 1727 4830 1728
3 1728 4831 1729
3 1729 4832 1730
3 1730 4833 1731
3 1731 4834 1732
3 1732 4835 1733
3 1733 4836 1734
3 1734 4837 1735
3 1735 4838 1736
3 1736 4839 1737
3 1737 4840 1738
3 1738 4841 1739
3 1739 4842 1740
3 1740 4843 1741
3 1741 4844 1742
3 1742 4845 1743
3 1743 4846 1744
3 1744 4847 1745
3 1745 4848 1746
3 1746 4849 1747
3 1747 4850 1748
3 1748 4851 1749
3 1749 4852 1750
3 1750 4853 1751
3 1751 4854 1752
3 1752 4855 1753
3 1753 4856 1754
3 1754 4857 1755
3 1755 4858 1756
3 1756 4859 1757
3 1757 4860 1758
3 1758 4861 1759
3 1759 4862 1760
3 1760 4863 1761
3 1761 4864 1762
3 1762 4865 1763
3 1763 4866 1764
3 1764 4867 1765
3 1765 4868 1766
3 1766 4869 1767
3 1767 4870 1768
3 1768 4871 1769
3 1769 4872 1770
3 1770 4873 1771
3 1771 4874 1772
3 1772 4875 1773
3 1773 4876 1774
3 1774 4877 1775
3 1775 4878 1776
3 1776 4879 1777
3 1777 4880 1778
3 1778 4881 1779
3 1779 4882 1780
3 1780 4883 1781
3 1781 4884 1782
3 1782 4885 1783
3 1783 4886 1784
3 1784 4887 1785
3 1785 4888 1786
3 1786 4889 1787
3 1787 4890 1788
3 1788 4891 1789
3 1789 4892 1790
3 1790 4893 1791
3 1791 4894 1792
3 1792 4895 1793
3 1793 4896 1794
3 1794 4897 1795
3 1795 4898 1796
3 1796 4899 1797
3 1797 4900 1798
3 1798 4901 1799
3 1799 4902 1800
3 1800 4903 1801
3 1801 4904 1802
3 1802 4905 1803
3 1803 4906 1804
3 1804 4907 1805
3 1805 4908 1806
3 1806 4909 1807
3 1807 4910 1808
3 1808 4911 1809
3 1809 4912 1810
3 1810 4913 1811
3 1811 4914 1812
3 1812 4915 1813
3 1813 4916 1814
3 1814 4917 1815
3 1815 4918 1816
3 1816 4919 1817
3 1817 4920 1818
3 1818 4921 1819
3 1819 4922 1820
3 1820 4923 1821
3 1821 4924 1822
3 1822 4925 1823
3 1823 4926 1824
3 1824 4927 1825
3 1825 4928 1826
3 1826 4929 1827
3 1827 4930 1828
3 1828 4931 1829
3 1829 4932 1830
3 1830 4933 1831
3 1831 4934 1832
3 1832 4935 1833
3 1833 4936 1834
3 1834 4937 1835
3 1835 4938 1836
3 1836 4939 1837
3 1837 4940 1838
3 1838 4941 1839
3 1839 4942 1840
3 1840 4943 1841
3 1841 4944 1842
3 1842 4945 1843
3 1843 4946 1844
3 1844 4947 1845
3 1845 4948 1846
3 1846 4949 1847
3 1847 4950 1848
3 1848 4951 1849
3 1849 4952 1850
3 1850 4953 1851
3 1851 4954 1852
3 1852 4955 1853
3 1853 4956 1854
3 1854 4957 1855
3 1855 4958 1856
3 1856 4959 1857
3 1857 4960 1858
3 1858 4961 1859
3 1859 4962 1860
3 1860 4963 1861
3 1861 4964 1862
3 1862 4965 1863
3 1863 4966 1864
3 1864 4967 1865
3 1865 4968 1866
3 1866 4969 1867
3 1867 4970 1868
3 1868 4971 1869
3 1869 4972 1870
3 1870 4973 1871
3 1871 4974 1872
3 1872 4975 1873
3 1873 4976 1874
3 1874 4977 1875
3 1875 4978 1876
3 1876 4979 1877
3 1877 4980 1878
3 1878 4981 1879
3 1879 4982 1880
3 1880 4983 1881
3 1881 4984 1882
3 1882 4985 1883
3 1883 4986 1884
3 1884 4987 1885
3 1885 4988 1886
3 1886 4989 1887
3 1887 4990 1888
3 1888 4991 1889
3 1889 4992 1890
3 1890 4993 1891
3 1891 4994 1892
3 1892 4995 1893
3 1893 4996 1894
3 1894 4997 1895
3 1895 4998 1896
3 1896 4999 1897
3 1897 5000 1898
3 1898 5001 1899
3 1899 5002 1900
3 1900 5003 1901
3 1901 5004 1902
3 1902 5005 1903
3 1903 5006 1904
3 1904 5007 1905
3 1905 5008 1906
3 1906 5009 1907
3 1907 5010 1908
3 1908 5011 1909
3 1909 5012 1910
3 1910 5013 1911
3 1911 5014 1912
3 1912 5015 1913
3 1913 5016 1914
3 1914 5017 1915
3 1915 5018 1916
3 1916 5019 1917
3 1917 5020 1918
3 1918 5021 1919
3 1919 5022 1920
3 1920 5023 1921
3 1921 5024 1922
3 1922 5025 1923
3 1923 5026 1924
3 1924 5027 1925
3 1925 5028 1926
3 1926 5029 1927
3 1927 5030 1928
3 1928 5031 1929
3 1929 5032 1930
3 1930 5033 1931
3 1931 5034 1932
3 1932 5035 1933
3 1933 5036 1934
3 1934 5037 1935
3 1935 5038 1936
3 1936 5039 1937
3 1937 5040 1938
3 1938 5041 3102
3 1939 5042 1940
3 1939 5043 3103
3 1940 5044 1941
3 1941 5045 1942
3 1942 5046 1943
3 1943 5047 1944
3 1944 5048 1945
3 1945 5049 1946
3 1946 5050 1947
3 1947 5051 1948
3 1948 5052 1949
3 1949 5053 1950
3 1950 5054 1951
3 1951 5055 1952
3 1952 5056 1953
3 1953 5057 1954
3 1954 5058 1955
3 1955 5059 1956
3 1956 5060 1957
3 1957 5061 1958
3 1958 5062 1959
3 1959 5063 1960
3 1960 5064 1961
3 1961 5065 1962
3 1962 5066 1963
3 1963 5067 1964
3 1964 5068 1965
3 1965 5069 1966
3 1966 5070 1967
3 1967 5071 1968
3 1968 5072 1969
3 1969 5073 1970
3 1970 5074 1971
3 1971 5075 1972
3 1972 5076 1973
3 1973 5077 1974
3 1974 5078 1975
3 1975 5079 1976
3 1976 5080 1977
3 1977 5081 1978
3 1978 5082 1979
3 1979 5083 1980
3 1980 5084 1981
3 1981 5085 1982
3 1982 5086 1983
3 1983 5087 1984
3 1984 5088 1985
3 1985 5089 1986
3 1986 5090 1987
3 1987 5091 1988
3 1988 5092 1989
3 1989 5093 1990
3 1990 5094 1991
3 1991 5095 1992
3 1992 5096 1993
3 1993 5097 1994
3 1994 5098 1995
3 1995 5099 1996
3 1996 5100 1997
3 1997 5101 1998
3 1998 5102 1999
3 1999 5103 2000
3 2000 5104 2001
3 2001 5105 2002
3 2002 5106 2003
3 2003 5107 2004
3 2004 5108 2005
3 2005 5109 2006
3 2006 5110 2007
3 2007 5111 2008
3 2008 5112 2009
3 2009 5113 2010
3 2010 5114 2011
3 2011 5115 2012
3 2012 5116 2013
3 2013 5117 2014
3 2014 5118 2015
3 2015 5119 2016
3 2016 5120 2017
3 2017 5121 2018
3 2018 5122 2019
3 2019 5123 2020
3 2020 5124 2021
3 2021 5125 2022
3 2022 5126 2023
3 2023 5127 2024
3 2024 5128 2025
3 2025 5129 2026
3 2026 5130 2027
3 2027 5131 2028
3 2028 5132 2029
3 2029 5133 2030
3 2030 5134 2031
3 2031 5135 2032
3 2032 5136 2033
3 2033 5137 2034
3 2034 5138 2035
3 2035 5139 2036
3 2036 5140 2037
3 2037 5141 2038
3 2038 5142 2039
3 2039 5143 2040
3 2040 5144 2041
3 2041 5145 2042
3 2042 5146 2043
3 2043 5147 2044
3 2044 5148 2045
3 2045 5149 2046
3 2046 5150 2047
3 2047 5151 2048
3 2048 5152 2049
3 2049 5153 2050
3 2050 5154 2051
3 2051 5155 2052
3 2052 5156 2053
3 2053 5157 2054
3 2054 5158 2055
3 2055 5159 2056
3 2056 5160 2057
3 2057 5161 2058
3 2058 5162 2059
3 2059 5163 2060
3 2060 5164 2061
3 2061 5165 2062
3 2062 5166 2063
3 2063 5167 2064
3 2064 5168 2065
3 2065 5169 2066
3 2066 5170 2067
3 2067 5171 2068
3 2068 5172 2069
3 2069 5173 2070
3 2070 5174 2071
3 2071 5175 2072
3 2072 5176 2073
3 2073 5177 2074
3 2074 5178 2075
3 2075 5179 2076
3 2076 5180 2077
3 2077 5181 2078
3 2078 5182 2079
3 2079 5183 2080
3 2080 5184 2081
3 2081 5185 2082
3 2082 5186 2083
3 2083 5187 2084
3 2084 5188 2085
3 2085 5189 2086
3 2086 5190 2087
3 2087 5191 2088
3 2088 5192 2089
3 2089 5193 2090
3 2090 5194 2091
3 2091 5195 2092
3 2092 5196 2093
3 2093 5197 2094
3 2094 5198 2095
3 2095 5199 2096
3 2096 5200 2097
3 2097 5201 2098
3 2098 5202 2099
3 2099 5203 2100
3 2100 5204 2101
3 2101 5205 2102
3 2102 5206 2103
3 2103 5207 2104
3 2104 5208 2105
3 2105 5209 2106
3 2106 5210 2107
3 2107 5211 2108
3 2108 5212 2109
3 2109 5213 2110
3 2110 5214 2111
3 2111 5215 2112
3 2112 5216 2113
3 2113 5217 2114
3 2114 5218 2115
3 2115 5219 2116
3 2116 5220 2117
3 2117 5221 2118
3 2118 5222 2119
3 2119 5223 2120
3 2120 5224 2121
3 2121 5225 2122
3 2122 5226 2123
3 2123 5227 2124
3 2124 5228 2125
3 2125 5229 2126
3 2126 5230 2127
3 2127 5231 2128
3 2128 5232 2129
3 2129 5233 2130
3 2130 5234 2131
3 2131 5235 2132
3 2132 5236 2133
3 2133 5237 2134
3 2134 5238 2135
3 2135 5239 2136
3 2136 5240 2137
3 2137 5241 2138
3 2138 5242 2139
3 2139 5243 2140
3 2140 5244 2141
3 2141 5245 2142
3 2142 5246 2143
3 2143 5247 2144
3 2144 5248 2145
3 2145 5249 2146
3 2146 5250 2147
3 2147 5251 2148
3 2148 5252 2149
3 2149 5253 2150
3 2150 5254 2151
3 2151 5255 2152
3 2152 5256 2153
3 2153 5257 2154
3 2154 5258 2155
3 2155 5259 2156
3 2156 5260 2157
3 2157 5261 2158
3 2158 5262 2159
3 2159 5263 2160
3 2160 5264 2161
3 2161 5265 2162
3 2162 5266 2163
3 2163 5267 2164
3 2164 5268 2165
3 2165 5269 2166
3 2166 5270 2167
3 2167 5271 2168
3 2168 5272 2169
3 2169 5273 2170
3 2170 5274 2171
3 2171 5275 2172
3 2172 5276 2173
3 2173 5277 2174
3 2174 5278 2175
3 2175 5279 2176
3 2176 5280 2177
3 2177 5281 2178
3 2178 5282 2179
3 2179 5283 2180
3 2180 5284 2181
3 2181 5285 2182
3 2182 5286 2183
3 2183 5287 2184
3 2184 5288 2185
3 2185 5289 2186
3 2186 5290 2187
3 2187 5291 2188
3 2188 5292 2189
3 2189 5293 2190
3 2190 5294 2191
3 2191 5295 2192
3 2192 5296 2193
3 2193 5297 2194
3 2194 5298 2195
3 2195 5299 2196
3 2196 5300 2197
3 2197 5301 2198
3 2198 5302 2199
3 2199 5303 2200
3 2200 5304 2201
3 2201 5305 2202
3 2202 5306 2203
3 2203 5307 2204
3 2204 5308 2205
3 2205 5309 2206
3 2206 5310 2207
3 2207 5311 2208
3 2208 5312 2209
3 2209 5313 2210
3 2210 5314 2211
3 2211 5315 2212
3 2212 5316 2213
3 2213 5317 2214
3 2214 5318 2215
3 2215 5319 2216
3 2216 5320 2217
3 2217 5321 2218
3 2218 5322 2219
3 2219 5323 2220
3 2220 5324 2221
3 2221 5325 2222
3 2222 5326 2223
3 2223 5327 2224
3 2224 5328 2225
3 2225 5329 2226
3 2226 5330 2227
3 2227 5331 2228
3 2228 5332 2229
3 2229 5333 2230
3 2230 5334 2231
3 2231 5335 2232
3 2232 5336 2233
3 2233 5337 2234
3 2234 5338 2235
3 2235 5339 2236
3 2236 5340 2237
3 2237 5341 2238
3 2238 5342 2239
3 2239 5343 2240
3 2240 5344 2241
3 2241 5345 2242
3 2242 5346 2243
3 2243 5347 2244
3 2244 5348 2245
3 2245 5349 2246
3 2246 5350 2247
3 2247 5351 2248
3 2248 5352 2249
3 2249 5353 2250
3 2250 5354 2251
3 2251 5355 2252
3 2252 5356 2253
3 2253 5357 2254
3 2254 5358 2255
3 2255 5359 2256
3 2256 5360 2257
3 2257 5361 2258
3 2258 5362 2259
3 2259 5363 2260
3 2260 5364 2261
3 2261 5365 2262
3 2262 5366 2263
3 2263 5367 2264
3 2264 5368 2265
3 2265 5369 2266
3 2266 5370 2267
3 2267 5371 2268
3 2268 5372 2269
3 2269 5373 2270
3 2270 5374 2271
3 2271 5375 2272
3 2272 5376 2273
3 2273 5377 2274
3 2274 5378 2275
3 2275 5379 2276
3 2276 5380 2277
3 2277 5381 2278
3 2278 5382 2279
3 2279 5383 2280
3 2280 5384 2281
3 2281 5385 2282
3 2282 5386 2283
3 2283 5387 2284
3 2284 5388 2285
3 2285 5389 2286
3 2286 5390 2287
3 2287 5391 2288
3 2288 5392 2289
3 2289 5393 2290
3 2290 5394 2291
3 2291 5395 2292
3 2292 5396 2293
3 2293 5397 2294
3 2294 5398 2295
3 2295 5399 2296
3 2296 5400 2297
3 2297 5401 2298
3 2298 5402 2299
3 2299 5403 2300
3 2300 5404 2301
3 2301 5405 2302
3 2302 5406 2303
3 2303 5407 2304
3 2304 5408 2305
3 2305 5409 2306
3 2306 5410 2307
3 2307 5411 2308
3 2308 5412 2309
3 2309 5413 2310
3 2310 5414 2311
3 2311 5415 2312
3 2312 5416 2313
3 2313 5417 2314
3 2314 5418 2315
3 2315 5419 2316
3 2316 5420 2317
3 2317 5421 2318
3 2318 5422 2319
3 2319 5423 2320
3 2320 5424 2321
3 2321 5425 2322
3 2322 5426 2323
3 2323 5427 2324
3 2325 5428 2326
3 2325 5429 3097
3 2326 5430 2327
3 2327 5431 2328
3 2328 5432 2329
3 2329 5433 2330
3 2330 5434 2331
3 2331 5435 2332
3 2332 5436 2333
3 2333 5437 2334
3 2334 5438 2335
3 2335 5439 2336
3 2336 5440 2337
3 2337 5441 2338
3 2338 5442 2339
3 2339 5443 2340
3 2340 5444 2341
3 2341 5445 2342
3 2342 5446 2343
3 2343 5447 2344
3 2344 5448 2345
3 2345 5449 2346
3 2346 5450 2347
3 2347 5451 2348
3 2348 5452 2349
3 2349 5453 2350
3 2350 5454 2351
3 2351 5455 2352
3 2352 5456 2353
3 2353 5457 2354
3 2354 5458 2355
3 2355 5459 2356
3 2356 5460 2357
3 2357 5461 2358
3 2358 5462 2359
3 2359 5463 2360
3 2360 5464 2361
3 2361 5465 2362
3 2362 5466 2363
3 2363 5467 2364
3 2364 5468 2365
3 2365 5469 2366
3 2366 5470 2367
3 2367 5471 2368
3 2368 5472 2369
3 2369 5473 2370
3 2370 5474 2371
3 2371 5475 2372
3 2372 5476 2373
3 2373 5477 2374
3 2374 5478 2375
3 2375 5479 2376
3 2376 5480 2377
3 2377 5481 2378
3 2378 5482 2379
3 2379 5483 2380
3 2380 5484 2381
3 2381 5485 2382
3 2382 5486 2383
3 2383 5487 2384
3 2384 5488 2385
3 2385 5489 2386
3 2386 5490 2387
3 2387 5491 2388
3 2388 5492 2389
3 2389 5493 2390
3 2390 5494 2391
3 2391 5495 2392
3 2392 5496 2393
3 2393 5497 2394
3 2394 5498 2395
3 2395 5499 2396
3 2396 5500 2397
3 2397 5501 2398
3 2398 5502 2399
3 2399 5503 2400
3 2400 5504 2401
3 2401 5505 2402
3 2402 5506 2403
3 2403 5507 2404
3 2404 5508 2405
3 2405 5509 2406
3 2406 5510 2407
3 2407 5511 2408
3 2408 5512 2409
3 2409 5513 2410
3 2410 5514 2411
3 2411 5515 2412
3 2412 5516 2413
3 2413 5517 2414
3 2414 5518 2415
3 2415 5519 2416
3 2416 5520 2417
3 2417 5521 2418
3 2418 5522 2419
3 2419 5523 2420
3 2420 5524 2421
3 2421 5525 2422
3 2422 5526 2423
3 2423 5527 2424
3 2424 5528 2425
3 2425 5529 2426
3 2426 5530 2427
3 2427 5531 2428
3 2428 5532 2429
3 2429 5533 2430
3 2430 5534 2431
3 2431 5535 2432
3 2432 5536 2433
3 2433 5537 2434
3 2434 5538 2435
3 2435 5539 2436
3 2436 5540 2437
3 2437 5541 2438
3 2438 5542 2439
3 2439 5543 2440
3 2440 5544 2441
3 2441 5545 2442
3 2442 5546 2443
3 2443 5547 2444
3 2444 5548 2445
3 2445 5549 2446
3 2446 5550 2447
3 2447 5551 2448
3 2448 5552 2449
3 2449 5553 2450
3 2450 5554 2451
3 2451 5555 2452
3 2452 5556 2453
3 2453 5557 2454
3 2454 5558 2455
3 2455 5559 2456
3 2456 5560 2457
3 2457 5561 2458
3 2458 5562 2459
3 2459 5563 2460
3 2460 5564 2461
3 2461 5565 2462
3 2462 5566 2463
3 2463 5567 2464
3 2464 5568 2465
3 2465 5569 2466
3 2466 5570 2467
3 2467 5571 2468
3 2468 5572 2469
3 2469 5573 2470
3 2470 5574 2471
3 2471 5575 2472
3 2472 5576 2473
3 2473 5577 2474
3 2474 5578 2475
3 2475 5579 2476
3 2476 5580 2477
3 2477 5581 2478
3 2478 5582 2479
3 2479 5583 2480
3 2480 5584 2481
3 2481 5585 2482
3 2482 5586 2483
3 2483 5587 2484
3 2484 5588 2485
3 2485 5589 2486
3 2486 5590 2487
3 2487 5591 2488
3 2488 5592 2489
3 2489 5593 2490
3 2490 5594 2491
3 2491 5595 2492
3 2492 5596 2493
3 2493 5597 2494
3 2494 5598 2495
3 2495 5599 2496
3 2496 5600 2497
3 2497 5601 2498
3 2498 5602 2499
3 2499 5603 2500
3 2500 5604 2501
3 2501 5605 2502
3 2502 5606 2503
3 2503 5607 2504
3 2504 5608 2505
3 2505 5609 2506
3 2506 5610 2507
3 2507 5611 2508
3 2508 5612 2509
3 2509 5613 2510
3 2510 5614 2511
3 2511 5615 2512
3 2512 5616 2513
3 2513 5617 2514
3 2514 5618 2515
3 2515 5619 2516
3 2516 5620 2517
3 2517 5621 2518
3 2518 5622 2519
3 2519 5623 2520
3 2520 5624 2521
3 2521 5625 2522
3 2522 5626 2523
3 2523 5627 2524
3 2524 5628 2525
3 2525 5629 2526
3 2526 5630 2527
3 2527 5631 2528
3 2528 5632 2529
3 2529 5633 2530
3 2530 5634 2531
3 2531 5635 2532
3 2532 5636 2533
3 2533 5637 2534
3 2534 5638 2535
3 2535 5639 2536
3 2536 5640 2537
3 2537 5641 2538
3 2538 5642 2539
3 2539 5643 2540
3 2540 5644 2541
3 2541 5645 2542
3 2542 5646 2543
3 2543 5647 2544
3 2544 5648 2545
3 2545 5649 2546
3 2546 5650 2547
3 2547 5651 2548
3 2548 5652 2549
3 2549 5653 2550
3 2550 5654 2551
3 2551 5655 2552
3 2552 5656 2553
3 2553 5657 2554
3 2554 5658 2555
3 2555 5659 2556
3 2556 5660 2557
3 2557 5661 2558
3 2558 5662 2559
3 2559 5663 2560
3 2560 5664 2561
3 2561 5665 2562
3 2562 5666 2563
3 2563 5667 2564
3 2564 5668 2565
3 2565 5669 2566
3 2566 5670 2567
3 2567 5671 2568
3 2568 5672 2569
3 2569 5673 2570
3 2570 5674 2571
3 2571 5675 2572
3 2572 5676 2573
3 2573 5677 2574
3 2574 5678 2575
3 2575 5679 2576
3 2576 5680 2577
3 2577 5681 2578
3 2578 5682 2579
3 2579 5683 2580
3 2580 5684 2581
3 2581 5685 2582
3 2582 5686 2583
3 2583 5687 2584
3 2584 5688 2585
3 2585 5689 2586
3 2586 5690 2587
3 2587 5691 2588
3 2588 5692 2589
3 2589 5693 2590
3 2590 5694 2591
3 2591 5695 2592
3 2592 5696 2593
3 2593 5697 2594
3 2594 5698 2595
3 2595 5699 2596
3 2596 5700 2597
3 2597 5701 2598
3 2598 5702 2599
3 2599 5703 2600
3 2600 5704 2601
3 2601 5705 2602
3 2602 5706 2603
3 2603 5707 2604
3 2604 5708 2605
3 2605 5709 2606
3 2606 5710 2607
3 2607 5711 2608
3 2608 5712 2609
3 2609 5713 2610
3 2610 5714 2611
3 2611 5715 2612
3 2612 5716 2613
3 2613 5717 2614
3 2614 5718 2615
3 2615 5719 2616
3 2616 5720 2617
3 2617 5721 2618
3 2618 5722 2619
3 2619 5723 2620
3 2620 5724 2621
3 2621 5725 2622
3 2622 5726 2623
3 2623 5727 2624
3 2624 5728 2625
3 2625 5729 2626
3 2626 5730 2627
3 2627 5731 2628
3 2628 5732 2629
3 2629 5733 2630
3 2630 5734 2631
3 2631 5735 2632
3 2632 5736 2633
3 2633 5737 2634
3 2634 5738 2635
3 2635 5739 2636
3 2636 5740 2637
3 2637 5741 2638
3 2638 5742 2639
3 2639 5743 2640
3 2640 5744 2641
3 2641 5745 2642
3 2642 5746 2643
3 2643 5747 2644
3 2644 5748 2645
3 2645 5749 2646
3 2646 5750 2647
3 2647 5751 2648
3 2648 5752 2649
3 2649 5753 2650
3 2650 5754 2651
3 2651 5755 2652
3 2652 5756 2653
3 2653 5757 2654
3 2654 5758 2655
3 2655 5759 2656
3 2656 5760 2657
3 2657 5761 2658
3 2658 5762 2659
3 2659 5763 2660
3 2660 5764 2661
3 2661 5765 2662
3 2662 5766 2663
3 2663 5767 2664
3 2664 5768 2665
3 2665 5769 2666
3 2666 5770 2667
3 2667 5771 2668
3 2668 5772 2669
3 2669 5773 2670
3 2670 5774 2671
3 2671 5775 2672
3 2672 5776 2673
3 2673 5777 2674
3 2674 5778 2675
3 2675 5779 2676
3 2676 5780 2677
3 2677 5781 2678
3 2678 5782 2679
3 2679 5783 2680
3 2680 5784 2681
3 2681 5785 2682
3 2682 5786 2683
3 2683 5787 2684
3 2684 5788 2685
3 2685 5789 2686
3 2686 5790 2687
3 2687 5791 2688
3 2688 5792 2689
3 2689 5793 2690
3 2690 5794 2691
3 2691 5795 2692
3 2692 5796 2693
3 2693 5797 2694
3 2694 5798 2695
3 2695 5799 2696
3 2696 5800 2697
3 2697 5801 2698
3 2698 5802 2699
3 2699 5803 2700
3 2700 5804 2701
3 2701 5805 2702
3 2702 5806 2703
3 2703 5807 2704
3 2704 5808 2705
3 2705 5809 2706
3 2706 5810 2707
3 2707 5811 2708
3 2708 5812 2709
3 2709 5813 2710
3 2710 5814 2711
3 2711 5815 3104
3 2712 5816 2713
3 2712 5817 3105
3 2713 5818 2714
3 2714 5819 2715
3 2715 5820 2716
3 2716 5821 2717
3 2717 5822 2718
3 2718 5823 2719
3 2719 5824 2720
3 2720 5825 2721
3 2721 5826 2722
3 2722 5827 2723
3 2723 5828 2724
3 2724 5829 2725
3 2725 5830 2726
3 2726 5831 2727
3 2727 5832 2728
3 2728 5833 2729
3 2729 5834 2730
3 2730 5835 2731
3 2731 5836 2732
3 2732 5837 2733
3 2733 5838 2734
3 2734 5839 2735
3 2735 5840 2736
3 2736 5841 2737
3 2737 5842 2738
3 2738 5843 2739
3 2739 5844 2740
3 2740 5845 2741
3 2741 5846 2742
3 2742 5847 2743
3 2743 5848 2744
3 2744 5849 2745
3 2745 5850 2746
3 2746 5851 2747
3 2747 5852 2748
3 2748 5853 2749
3 2749 5854 2750
3 2750 5855 2751
3 2751 5856 2752
3 2752 5857 2753
3 2753 5858 2754
3 2754 5859 2755
3 2755 5860 2756
3 2756 5861 2757
3 2757 5862 2758
3 2758 5863 2759
3 2759 5864 2760
3 2760 5865 2761
3 2761 5866 2762
3 2762 5867 2763
3 2763 5868 2764
3 2764 5869 2765
3 2765 5870 2766
3 2766 5871 2767
3 2767 5872 2768
3 2768 5873 2769
3 2769 5874 2770
3 2770 5875 2771
3 2771 5876 2772
3 2772 5877 2773
3 2773 5878 2774
3 2774 5879 2775
3 2775 5880 2776
3 2776 5881 2777
3 2777 5882 2778
3 2778 5883 2779
3 2779 5884 2780
3 2780 5885 2781
3 2781 5886 2782
3 2782 5887 2783
3 2783 5888 2784
3 2784 5889 2785
3 2785 5890 2786
3 2786 5891 2787
3 2787 5892 2788
3 2788 5893 2789
3 2789 5894 2790
3 2790 5895 2791
3 2791 5896 2792
3 2792 5897 2793
3 2793 5898 2794
3 2794 5899 2795
3 2795 5900 2796
3 2796 5901 2797
3 2797 5902 2798
3 2798 5903 2799
3 2799 5904 2800
3 2800 5905 2801
3 2801 5906 2802
3 2802 5907 2803
3 2803 5908 2804
3 2804 5909 2805
3 2805 5910 2806
3 2806 5911 2807
3 2807 5912 2808
3 2808 5913 2809
3 2809 5914 2810
3 2810 5915 2811
3 2811 5916 2812
3 2812 5917 2813
3 2813 5918 2814
3 2814 5919 2815
3 2815 5920 2816
3 2816 5921 2817
3 2817 5922 2818
3 2818 5923 2819
3 2819 5924 2820
3 2820 5925 2821
3 2821 5926 2822
3 2822 5927 2823
3 2823 5928 2824
3 2824 5929 2825
3 2825 5930 2826
3 2826 5931 2827
3 2827 5932 2828
3 2828 5933 2829
3 2829 5934 2830
3 2830 5935 2831
3 2831 5936 2832
3 2832 5937 2833
3 2833 5938 2834
3 2834 5939 2835
3 2835 5940 2836
3 2836 5941 2837
3 2837 5942 2838
3 2838 5943 2839
3 2839 5944 2840
3 2840 5945 2841
3 2841 5946 2842
3 2842 5947 2843
3 2843 5948 2844
3 2844 5949 2845
3 2845 5950 2846
3 2846 5951 2847
3 2847 5952 2848
3 2848 5953 2849
3 2849 5954 2850
3 2850 5955 2851
3 2851 5956 2852
3 2852 5957 2853
3 2853 5958 2854
3 2854 5959 2855
3 2855 5960 2856
3 2856 5961 2857
3 2857 5962 2858
3 2858 5963 2859
3 2859 5964 2860
3 2860 5965 2861
3 2861 5966 2862
3 2862 5967 2863
3 2863 5968 2864
3 2864 5969 2865
3 2865 5970 2866
3 2866 5971 2867
3 2867 5972 2868
3 2868 5973 2869
3 2869 5974 2870
3 2870 5975 2871
3 2871 5976 2872
3 2872 5977 2873
3 2873 5978 2874
3 2874 5979 2875
3 2875 5980 2876
3 2876 5981 2877
3 2877 5982 2878
3 2878 5983 2879
3 2879 5984 2880
3 2880 5985 2881
3 2881 5986 2882
3 2882 5987 2883
3 2883 5988 2884
3 2884 5989 2885
3 2885 5990 2886
3 2886 5991 2887
3 2887 5992 2888
3 2888 5993 2889
3 2889 5994 2890
3 2890 5995 2891
3 2891 5996 2892
3 2892 5997 2893
3 2893 5998 2894
3 2894 5999 2895
3 2895 6000 2896
3 2896 6001 2897
3 2897 6002 2898
3 2898 6003 2899
3 2899 6004 2900
3 2900 6005 2901
3 2901 6006 2902
3 2902 6007 2903
3 2903 6008 2904
3 2904 6009 2905
3 2905 6010 2906
3 2906 6011 2907
3 2907 6012 2908
3 2908 6013 2909
3 2909 6014 2910
3 2910 6015 2911
3 2911 6016 2912
3 2912 6017 2913
3 2913 6018 2914
3 2914 6019 2915
3 2915 6020 2916
3 2916 6021 2917
3 2917 6022 2918
3 2918 6023 2919
3 2919 6024 2920
3 2920 6025 2921
3 2921 6026 2922
3 2922 6027 2923
3 2923 6028 2924
3 2924 6029 2925
3 2925 6030 2926
3 2926 6031 2927
3 2927 6032 2928
3 2928 6033 2929
3 2929 6034 2930
3 2930 6035 2931
3 2931 6036 2932
3 2932 6037 2933
3 2933 6038 2934
3 2934 6039 2935
3 2935 6040 2936
3 2936 6041 2937
3 2937 6042 2938
3 2938 6043 2939
3 2939 6044 2940
3 2940 6045 2941
3 2941 6046 2942
3 2942 6047 2943
3 2943 6048 2944
3 2944 6049 2945
3 2945 6050 2946
3 2946 6051 2947
3 2947 6052 2948
3 2948 6053 2949
3 2949 6054 2950
3 2950 6055 2951
3 2951 6056 2952
3 2952 6057 2953
3 2953 6058 2954
3 2954 6059 2955
3 2955 6060 2956
3 2956 6061 2957
3 2957 6062 2958
3 2958 6063 2959
3 2959 6064 2960
3 2960 6065 2961
3 2961 6066 2962
3 2962 6067 2963
3 2963 6068 2964
3 2964 6069 2965
3 2965 6070 2966
3 2966 6071 2967
3 2967 6072 2968
3 2968 6073 2969
3 2969 6074 2970
3 2970 6075 2971
3 2971 6076 2972
3 2972 6077 2973
3 2973 6078 2974
3 2974 6079 2975
3 2975 6080 2976
3 2976 6081 2977
3 2977 6082 2978
3 2978 6083 2979
3 2979 6084 2980
3 2980 6085 2981
3 2981 6086 2982
3 2982 6087 2983
3 2983 6088 2984
3 2984 6089 2985
3 2985 6090 2986
3 2986 6091 2987
3 2987 6092 2988
3 2988 6093 2989
3 2989 6094 2990
3 2990 6095 2991
3 2991 6096 2992
3 2992 6097 2993
3 2993 6098 2994
3 2994 6099 2995
3 2995 6100 2996
3 2996 6101 2997
3 2997 6102 2998
3 2998 6103 2999
3 2999 6104 3000
3 3000 6105 3001
3 3001 6106 3002
3 3002 6107 3003
3 3003 6108 3004
3 3004 6109 3005
3 3005 6110 3006
3 3006 6111 3007
3 3007 6112 3008
3 3008 6113 3009
3 3009 6114 3010
3 3010 6115 3011
3 3011 6116 3012
3 3012 6117 3013
3 3013 6118 3014
3 3014 6119 3015
3 3015 6120 3016
3 3016 6121 3017
3 3017 6122 3018
3 3018 6123 3019
3 3019 6124 3020
3 3020 6125 3021
3 3021 6126 3022
3 3022 6127 3023
3 3023 6128 3024
3 3024 6129 3025
3 3025 6130 3026
3 3026 6131 3027
3 3027 6132 3028
3 3028 6133 3029
3 3029 6134 3030
3 3030 6135 3031
3 3031 6136 3032
3 3032 6137 3033
3 3033 6138 3034
3 3034 6139 3035
3 3035 6140 3036
3 3036 6141 3037
3 3037 6142 3038
3 3038 6143 3039
3 3039 6144 3040
3 3040 6145 3041
3 3041 6146 3042
3 3042 6147 3043
3 3043 6148 3044
3 3044 6149 3045
3 3045 6150 3046
3 3046 6151 3047
3 3047 6152 3048
3 3048 6153 3049
3 3049 6154 3050
3 3050 6155 3051
3 3051 6156 3052
3 3052 6157 3053
3 3053 6158 3054
3 3054 6159 3055
3 3055 6160 3056
3 3056 6161 3057
3 3057 6162 3058
3 3058 6163 3059
3 3059 6164 3060
3 3060 6165 3061
3 3061 6166 3062
3 3062 6167 3063
3 3063 6168 3064
3 3064 6169 3065
3 3065 6170 3066
3 3066 6171 3067
3 3067 6172 3068
3 3068 6173 3069
3 3069 6174 3070
3 3070 6175 3071
3 3071 6176 3072
3 3072 6177 3073
3 3073 6178 3074
3 3074 6179 3075
3 3075 6180 3076
3 3076 6181 3077
3 3077 6182 3078
3 3078 6183 3079
3 3079 6184 3080
3 3080 6185 3081
3 3081 6186 3082
3 3082 6187 3083
3 3083 6188 3084
3 3084 6189 3085
3 3085 6190 3086
3 3086 6191 3087
3 3087 6192 3088
3 3088 6193 3089
3 3089 6194 3090
3 3090 6195 3091
3 3091 6196 3092
3 3092 6197 3093
3 3093 6198 3094
3 3094 6199 3095
3 3095 6200 3096
3 3096 6201 3097

CELL_TYPES 3096
4
4
4
4
4
4
4
4
4
4
4
4
4
4
4
4
4
4
4
4
4
4
4
4
4
4
4
4
4
4
4
4
4
4
4
4
4
4
4
4
4
4
4
4
4
4
4
4
4
4
4
4
4
4
4
4
4
4
4
4
4
4
4
4
4
4
4
4
4
4
4
4
4
4
4
4
4
4
4
4
4
4
4
4
4
4
4
4
4
4
4
4
4
4
4
4
4
4
4
4
4
4
4
4
4
4
4
4
4
4
4
4
4
4
4
4
4
4
4
4
4
4
4
4
4
4
4
4
4
4
4
4
4
4
4
4
4
4
4
4
4
4
4
4
4
4
4
4
4
4
4
4
4
4
4
4
4
4
4
4
4
4
4
4
4
4
4
4
4
4
4
4
4
4
4
4
4
4
4
4
4
4
4
4
4
4
4
4
4
4
4
4
4
4
4
4
4
4
4
4
4
4
4
4
4
4
4
4
4
4
4
4
4
4
4
4
4
4
4
4
4
4
4
4
4
4
4
4
4
4
4
4
4
4
4
4
4
4
4
4
4
4
4
4
4
4
4
4
4
4
4
4
4
4
4
4
4
4
4
4
4
4
4
4
4
4
4
4
4
4
4
4
4
4
4
4
4
4
4
4
4
4
4
4
4
4
4
4
4
4
4
4
4
4
4
4
4
4
4
4
4
4
4
4
4
4
4
4
4
4
4
4
4
4
4
4
4
4
4
4
4
4
4
4
4
4
4
4
4
4
4
4
4
4
4
4
4
4
4
4
4
4
4
4
4
4
4
4
4
4
4
4
4
4
4
4
4
4
4
4
4
4
4
4
4
4
4
4
4
4
4
4
4
4
4
4
4
4
4
4
4
4
4
4
4
4
4
4
4
4
4
4
4
4
4
4
4
4
4
4
4
4
4
4
4
4
4
4
4
4
4
4
4
4
4
4
4
4
4
4
4
4
4
4
4
4
4
4
4
4
4
4
4
4
4
4
4
4
4
4
4
4
4
4
4
4
4
4
4
4
4
4
4
4
4
4
4
4
4
4
4
4
4
4
4
4
4
4
4
4
4
4
4
4
4
4
4
4
4
4
4
4
4
4
4
4
4
4
4
4
4
4
4
4
4
4
4
4
4
4
4
4
4
4
4
4
4
4
4
4
4
4
4
4
4
4
4
4
4
4
4
4
4
4
4
4
4
4
4
4
4
4
4
4
4
4
4
4
4
4
4
4
4
4
4
4
4
4
4
4
4
4
4
4
4
4
4
4
4
4
4
4
4
4
4
4
4
4
4
4
4
4
4
4
4
4
4
4
4
4
4
4
4
4
4
4
4
4
4
4
4
4
4
4
4
4
4
4
4
4
4
4
4
4
4
4
4
4
4
4
4
4
4
4
4
4
4
4
4
4
4
4
4
4
4
4
4
4
4
4
4
4
4
4
4
4
4
4
4
4
4
4
4
4
4
4
4
4
4
4
4
4
4
4
4
4
4
4
4
4
4
4
4
4
4
4
4
4
4
4
4
4
4
4
4
4
4
4
4
4
4
4
4
4
4
4
4
4
4
4
4
4
4
4
4
4
4
4
4
4
4
4
4
4
4
4
4
4
4
4
4
4
4
4
4
4
4
4
4
4
4
4
4
4
4
4
4
4
4
4
4
4
4
4
4
4
4
4
4
4
4
4
4
4
4
4
4
4
4
4
4
4
4
4
4
4
4
4
4
4
4
4
4
4
4
4
4
4
4
4
4
4
4
4
4
4
4
4
4
4
4
4
4
4
4
4
4
4
4
4
4
4
4
4
4
4
4
4
4
4
4
4
4
4
4
4
4
4
4
4
4
4
4
4
4
4
4
4
4
4
4
4
4
4
4
4
4
4
4
4
4
4
4
4
4
4
4
4
4
4
4
4
4
4
4
4
4
4
4
4
4
4
4
4
4
4
4
4
4
4
4
4
4
4
4
4
4
4
4
4
4
4
4
4
4
4
4
4
4
4
4
4
4
4
4
4
4
4
4
4
4
4
4
4
4
4
4
4
4
4
4
4
4
4
4
4
4
4
4
4
4
4
4
4
4
4
4
4
4
4
4
4
4
4
4
4
4
4
4
4
4
4
4
4
4
4
4
4
4
4
4
4
4
4
4
4
4
4
4
4
4
4
4
4
4
4
4
4
4
4
4
4
4
4
4
4
4
4
4
4
4
4
4
4
4
4
4
4
4
4
4
4
4
4
4
4
4
4
4
4
4
4
4
4
4
4
4
4
4
4
4
4
4
4
4
4
4
4
4
4
4
4
4
4
4
4
4
4
4
4
4
4
4
4
4
4
4
4
4
4
4
4
4
4
4
4
4
4
4
4
4
4
4
4
4
4
4
4
4
4
4
4
4
4
4
4
4
4
4
4
4
4
4
4
4
4
4
4
4
4
4
4
4
4
4
4
4
4
4
4
4
4
4
4
4
4
4
4
4
4
4
4
4
4
4
4
4
4
4
4
4
4
4
4
4
4
4
4
4
4
4
4
4
4
4
4
4
4
4
4
4
4
4
4
4
4
4
4
4
4
4
4
4
4
4
4
4
4
4
4
4
4
4
4
4
4
4
4
4
4
4
4
4
4
4
4
4
4
4
4
4
4
4
4
4
4
4
4
4
4
4
4
4
4
4
4
4
4
4
4
4
4
4
4
4
4
4
4
4
4
4
4
4
4
4
4
4
4
4
4
4
4
4
4
4
4
4
4
4
4
4
4
4
4
4
4
4
4
4
4
4
4
4
4
4
4
4
4
4
4
4
4
4
4
4
4
4
4
4
4
4
4
4
4
4
4
4
4
4
4
4
4
4
4
4
4
4
4
4
4
4
4
4
4
4
4
4
4
4
4
4
4
4
4
4
4
4
4
4
4
4
4
4
4
4
4
4
4
4
4
4
4
4
4
4
4
4
4
4
4
4
4
4
4
4
4
4
4
4
4
4
4
4
4
4
4
4
4
4
4
4
4
4
4
4
4
4
4
4
4
4
4
4
4
4
4
4
4
4
4
4
4
4
4
4
4
4
4
4
4
4
4
4
4
4
4
4
4
4
4
4
4
4
4
4
4
4
4
4
4
4
4
4
4
4
4
4
4
4
4
4
4
4
4
4
4
4
4
4
4
4
4
4
4
4
4
4
4
4
4
4
4
4
4
4
4
4
4
4
4
4
4
4
4
4
4
4
4
4
4
4
4
4
4
4
4
4
4
4
4
4
4
4
4
4
4
4
4
4
4
4
4
4
4
4
4
4
4
4
4
4
4
4
4
4
4
4
4
4
4
4
4
4
4
4
4
4
4
4
4
4
4
4
4
4
4
4
4
4
4
4
4
4
4
4
4
4
4
4
4
4
4
4
4
4
4
4
4
4
4
4
4
4
4
4
4
4
4
4
4
4
4
4
4
4
4
4
4
4
4
4
4
4
4
4
4
4
4
4
4
4
4
4
4
4
4
4
4
4
4
4
4
4
4
4
4
4
4
4
4
4
4
4
4
4
4
4
4
4
4
4
4
4
4
4
4
4
4
4
4
4
4
4
4
4
4
4
4
4
4
4
4
4
4
4
4
4
4
4
4
4
4
4
4
4
4
4
4
4
4
4
4
4
4
4
4
4
4
4
4
4
4
4
4
4
4
4
4
4
4
4
4
4
4
4
4
4
4
4
4
4
4
4
4
4
4
4
4
4
4
4
4
4
4
4
4
4
4
4
4
4
4
4
4
4
4
4
4
4
4
4
4
4
4
4
4
4
4
4
4
4
4
4
4
4
4
4
4
4
4
4
4
4
4
4
4
4
4
4
4
4
4
4
4
4
4
4
4
4
4
4
4
4
4
4
4
4
4
4
4
4
4
4
4
4
4
4
4
4
4
4
4
4
4
4
4
4
4
4
4
4
4
4
4
4
4
4
4
4
4
4
4
4
4
4
4
4
4
4
4
4
4
4
4
4
4
4
4
4
4
4
4
4
4
4
4
4
4
4
4
4
4
4
4
4
4
4
4
4
4
4
4
4
4
4
4
4
4
4
4
4
4
4
4
4
4
4
4
4
4
4
4
4
4
4
4
4
4
4
4
4
4
4
4
4
4
4
4
4
4
4
4
4
4
4
4
4
4
4
4
4
4
4
4
4
4
4
4
4
4
4
4
4
4
4
4
4
4
4
4
4
4
4
4
4
4
4
4
4
4
4
4
4
4
4
4
4
4
4
4
4
4
4
4
4
4
4
4
4
4
4
4
4
4
4
4
4
4
4
4
4
4
4
4
4
4
4
4
4
4
4
4
4
4
4
4
4
4
4
4
4
4
4
4
4
4
4
4
4
4
4
4
4
4
4
4
4
4
4
4
4
4
4
4
4
4
4
4
4
4
4
4
4
4
4
4
4
4
4
4
4
4
4
4
4
4
4
4
4
4
4
4
4
4
4
4
4
4
4
4
4
4
4
4
4
4
4
4
4
4
4
4
4
4
4
4
4
4
4
4
4
4
4
4
4
4
4
4
4
4
4
4
4
4
4
4
4
4
4
4
4
4
4
4
4
4
4
4
4
4
4
4
4
4
4
4
4
4
4
4
4
4
4
4
4
4
4
4
4
4
4
4
4
4
4
4
4
4
4
4
4
4
4
4
4
4
4
4
4
4
4
4
4
4
4
4
4
4
4
4
4
4
4
4
4
4
4
4
4
4
4
4
4
4
4
4
4
4
4
4
4
4
4
4
4
4
4
4
4
4
4
4
4
4
4
4
4
4
4
4
4
4
4
4
4
4
4
4
4
4
4
4
4
4
4
4
4
4
4
4
4
4
4
4
4
4
4
4
4
4
4
4
4
4
4
4
4
4
4
4
4
4
4
4
4
4
4
4
4
4
4
4
4
4
4
4
4
4
4
4
4
4
4
4
4
4
4
4
4
4
4
4
4
4
4
4
4
4
4
4
4
4
4
4
4
4
4
4
4
4
4
4
4
4
4
4
4
4
4
4
4
4
4
4
4
4
4
4
4
4
4
4
4
4
4
4
4
4
4
4
4
4
4
4
4
4
4
4
4
4
4
4
4
4
4
4
4
4
4
4
4
4
4
4
4
4
4
4
4
4
4
4
4
4
4
4
4
4
4
4
4
4
4
4
4
4
4
4
4
4
4
4
4
4
4
4
4
4
4
4
4
4
4
4
4
4
4
4
4
4
4
4
4
4
4
4
4
4
4
4
4
4
4
4
4
4
4
4
4
4
4
4
4
4
4
4
4
4
4
4
4
4
4
4
4
4
4
4
4
4
4
4
4
4
4
4
4
4
4
4
4
4
4
4
4
4
4
4
4
4
4
4
4
4
4
4
4
4
4
4
4
4
4
4
4
4
4
4
4
4
4
4
4
4
4
4
4
4
4
4
4
4
4
4
4
4
4
4
4
4
4
4
4
4
4
4
4
4
4
4
4
4
4
4
4
4
4
4
4
4
4
4
4
4
4
4
4
4
4
4
4
4
4
4
4
4
4
4
4
4
4
4
4
4
4
4
4
4
4
4
4
4
4
4
4
4
4
4
4
4
4
4
4
4
4
4
4
4
4
4
4
4
4
4
4
4
4
4
4
4
4
4
4
4
4
4
4
4
4
4
4
4
4
4
4
4
4
4
4
4
4
4
4
4
4
4
4
4
4
4
4
4
4
4
4
4
4
4
4
4
4
4
4
4
4
4
4
4
4
4
4
4
4
4
4
4
4
4
4
4
4
4
4
4
4
4
4
4
4
4
4
4
4
4
4
4
4
4
4
4
4
4
4
4
4
4
4
4
4
4
4
4
4
4
4
4
4
4
4
4
4
4
4
4
4
4
4
4
4
4
4
4
4
4
4
4
4
4
4
4
4
4
4
4
4
4
4
4
4
4
4
4
4
4
4
4
4
4
4
4
4
4
4
4
4
4
4
4
4
4
4
4
4
4
4
4
4
4
4
4
4
4
4
4
4
4
4
4
4
4
4
4
4
4
4
4
4
4
4
4
4
4
4
4
4
4
4
4
4
4
4
4
4
4
4
4
4
4
4
4
4
4
4
4
4
4
4
4
4
4
4
4
4
4
4
4
4
4
4
4
4
4
4
4
4
4
4
4
4
4
4
4
4
4
4
4
4
4
4
4
4
4
4
4
4
4
4
4
4
4
4
4
4
4
4
4
4
4
4
4
4
4
4
4
4
4
4
4
4
4
4
4
4
4
4
4
4
4
4
4
4
4
4
4
4
4
4
4
4
4
4
4
4
4
4
4
4
4
4
4
4
4
4
4
4
4
4
4
4
4
4
4
4
4
4
4
4
4
4
4
4
4
4
4
4
4
4
4
4
4
4
4
4
4
4
4
4
4
4
4
4
4
4
4
4
4
4
4
4
4
4
4
4
4
4
4
4
4
4
4
4
4
4
4
4
4
4
4
4
4
4
4
4
4
4
4
4
4
4
4
4
4
4
4
4
4
4
4
4
4
4
4
4
4
4
4
4
4
4
4
4
4
4
4
4
4
4
4
4
4
4
4
4
4
4
4
4
4
4
4
4
4
4
4
4
4
4
4
4
4
4
4
4
4
4
4
4
4
4
4
4
4
4
4
4
4
4
4
4
4
4
4
4
4
4
4
4
4
4
4
4
4
4
4
4
4
4
4
4
4
4
4
4
4
4
4
4
4
4
4
4
4
4
4
4
4
4
4
4
4
4
4
4
4
4
4
4
4
4
4
4
4
4
4
4
4
4
4
4
4
4
4
4
4
4
4
4
4
4
4
4
4
4
4
4
4
4
4
4
4
4
4
4
4
4
4
4
4
4
4
4
4
4
4
4
4
4
4
4
4
4
4
4
4
4
4
4
4
4
4
4
4
4
4
4
4
4
4
4
4
4
4
4
4
4
4
4
4
4
4
4
4
4
4
4
4
4
4
4
4
4
4
4
4
4
4
4
4
4
4
4
4
4
4
4
4
4
4
4
4
4
4
4
4
4
4

POINT_DATA 6202
VECTORS PK_force double
0.000000000000000e+00 0.000000000000000e+00 0.000000000000000e+00
0.000000000000000e+00 0.000000000000000e+00 0.000000000000000e+00
0.000000000000000e+00 0.000000000000000e+00 0.000000000000000e+00
0.000000000000000e+00 0.000000000000000e+00 0.000000000000000e+00
0.000000000000000e+00 0.000000000000000e+00 0.000000000000000e+00
0.000000000000000e+00 0.000000000000000e+00 0.000000000000000e+00
0.000000000000000e+00 0.000000000000000e+00 0.000000000000000e+00
0.000000000000000e+00 0.000000000000000e+00 0.000000000000000e+00
0.000000000000000e+00 0.000000000000000e+00 0.000000000000000e+00
0.000000000000000e+00 0.000000000000000e+00 0.000000000000000e+00
0.000000000000000e+00 0.000000000000000e+00 0.000000000000000e+00
0.000000000000000e+00 0.000000000000000e+00 0.000000000000000e+00
0.000000000000000e+00 0.000000000000000e+00 0.000000000000000e+00
0.000000000000000e+00 0.000000000000000e+00 0.000000000000000e+00
0.000000000000000e+00 0.000000000000000e+00 0.000000000000000e+00
0.000000000000000e+00 0.000000000000000e+00 0.000000000000000e+00
0.000000000000000e+00 0.000000000000000e+00 0.000000000000000e+00
0.000000000000000e+00 0.000000000000000e+00 0.000000000000000e+00
0.000000000000000e+00 0.000000000000000e+00 0.000000000000000e+00
0.000000000000000e+00 0.000000000000000e+00 0.000000000000000e+00
0.000000000000000e+00 0.000000000000000e+00 0.000000000000000e+00
0.000000000000000e+00 0.000000000000000e+00 0.000000000000000e+00
0.000000000000000e+00 0.000000000000000e+00 0.000000000000000e+00
0.000000000000000e+00 0.000000000000000e+00 0.000000000000000e+00
0.000000000000000e+00 0.000000000000000e+00 0.000000000000000e+00
0.000000000000000e+00 0.000000000000000e+00 0.000000000000000e+00
0.000000000000000e+00 0.000000000000000e+00 0.000000000000000e+00
0.000000000000000e+00 0.000000000000000e+00 0.000000000000000e+00
0.000000000000000e+00 0.000000000000000e+00 0.000000000000000e+00
0.000000000000000e+00 0.000000000000000e+00 0.000000000000000e+00
0.000000000000000e+00 0.000000000000000e+00 0.000000000000000e+00
0.000000000000000e+00 0.000000000000000e+00 0.000000000000000e+00
0.000000000000000e+00 0.000000000000000e+00 0.000000000000000e+00
0.000000000000000e+00 0.000000000000000e+00 0.000000000000000e+00
0.000000000000000e+00 0.000000000000000e+00 0.000000000000000e+00
0.000000000000000e+00 0.000000000000000e+00 0.000000000000000e+00
0.000000000000000e+00 0.000000000000000e+00 0.000000000000000e+00
0.000000000000000e+00 0.000000000000000e+00 0.000000000000000e+00
0.000000000000000e+00 0.000000000000000e+00 0.000000000000000e+00
0.000000000000000e+00 0.000000000000000e+00 0.000000000000000e+00
0.000000000000000e+00 0.000000000000000e+00 0.000000000000000e+00
0.000000000000000e+00 0.000000000000000e+00 0.000000000000000e+00
0.000000000000000e+00 0.000000000000000e+00 0.000000000000000e+00
0.000000000000000e+00 0.000000000000000e+00 0.000000000000000e+00
0.000000000000000e+00 0.000000000000000e+00 0.000000000000000e+00
0.000000000000000e+00 0.000000000000000e+00 0.000000000000000e+00
0.000000000000000e+00 0.000000000000000e+00 0.000000000000000e+00
0.000000000000000e+00 0.000000000000000e+00 0.000000000000000e+00
0.000000000000000e+00 0.000000000000000e+00 0.000000000000000e+00
0.000000000000000e+00 0.000000000000000e+00 0.000000000000000e+00
0.000000000000000e+00 0.000000000000000e+00 0.000000000000000e+00
0.000000000000000e+00 0.000000000000000e+00 0.000000000000000e+00
0.000000000000000e+00 0.000000000000000e+00 0.000000000000000e+00
0.000000000000000e+00 0.000000000000000e+00 0.000000000000000e+00
0.000000000000000e+00 0.000000000000000e+00 0.000000000000000e+00
0.000000000000000e+00 0.000000000000000e+00 0.000000000000000e+00
0.000000000000000e+00 0.000000000000000e+00 0.000000000000000e+00
0.000000000000000e+00 0.000000000000000e+00 0.000000000000000e+00
0.000000000000000e+00 0.000000000000000e+00 0.000000000000000e+00
0.000000000000000e+00 0.000000000000000e+00 0.000000000000000e+00
0.000000000000000e+00 0.000000000000000e+00 0.000000000000000e+00
0.000000000000000e+00 0.000000000000000e+00 0.000000000000000e+00
0.000000000000000e+00 0.000000000000000e+00 0.000000000000000e+00
0.000000000000000e+00 0.000000000000000e+00 0.000000000000000e+00
0.000000000000000e+00 0.000000000000000e+00 0.000000000000000e+00
0.000000000000000e+00 0.000000000000000e+00 0.000000000000000e+00
0.000000000000000e+00 0.000000000000000e+00 0.000000000000000e+00
0.000000000000000e+00 0.000000000000000e+00 0.000000000000000e+00
0.000000000000000e+00 0.000000000000000e+00 0.000000000000000e+00
0.000000000000000e+00 0.000000000000000e+00 0.000000000000000e+00
0.000000000000000e+00 0.000000000000000e+00 0.000000000000000e+00
0.000000000000000e+00 0.000000000000000e+00 0.000000000000000e+00
0.000000000000000e+00 0.000000000000000e+00 0.000000000000000e+00
0.000000000000000e+00 0.000000000000000e+00 0.000000000000000e+00
0.000000000000000e+00 0.000000000000000e+00 0.000000000000000e+00
0.000000000000000e+00 0.000000000000000e+00 0.000000000000000e+00
0.000000000000000e+00 0.000000000000000e+00 0.000000000000000e+00
0.000000000000000e+00 0.000000000000000e+00 0.000000000000000e+00
0.000000000000000e+00 0.000000000000000e+00 0.000000000000000e+00
0.000000000000000e+00 0.000000000000000e+00 0.000000000000000e+00
0.000000000000000e+00 0.000000000000000e+00 0.000000000000000e+00
0.000000000000000e+00 0.000000000000000e+00 0.000000000000000e+00
0.000000000000000e+00 0.000000000000000e+00 0.000000000000000e+00
0.000000000000000e+00 0.000000000000000e+00 0.000000000000000e+00
0.000000000000000e+00 0.000000000000000e+00 0.000000000000000e+00
0.000000000000000e+00 0.000000000000000e+00 0.000000000000000e+00
0.000000000000000e+00 0.000000000000000e+00 0.000000000000000e+00
0.000000000000000e+00 0.000000000000000e+00 0.000000000000000e+00
0.000000000000000e+00 0.000000000000000e+00 0.000000000000000e+00
0.000000000000000e+00 0.000000000000000e+00 0.000000000000000e+00
0.000000000000000e+00 0.000000000000000e+00 0.000000000000000e+00
0.000000000000000e+00 0.000000000000000e+00 0.000000000000000e+00
0.000000000000000e+00 0.000000000000000e+00 0.000000000000000e+00
0.000000000000000e+00 0.000000000000000e+00 0.000000000000000e+00
0.000000000000000e+00 0.000000000000000e+00 0.000000000000000e+00
0.000000000000000e+00 0.000000000000000e+00 0.000000000000000e+00
0.000000000000000e+00 0.000000000000000e+00 0.000000000000000e+00
0.000000000000000e+00 0.000000000000000e+00 0.000000000000000e+00
0.000000000000000e+00 0.000000000000000e+00 0.000000000000000e+00
0.000000000000000e+00 0.000000000000000e+00 0.000000000000000e+00
0.000000000000000e+00 0.000000000000000e+00 0.000000000000000e+00
0.000000000000000e+00 0.000000000000000e+00 0.000000000000000e+00
0.000000000000000e+00 0.000000000000000e+00 0.000000000000000e+00
0.000000000000000e+00 0.000000000000000e+00 0.000000000000000e+00
0.000000000000000e+00 0.000000000000000e+00 0.000000000000000e+00
0.000000000000000e+00 0.000000000000000e+00 0.000000000000000e+00
0.000000000000000e+00 0.000000000000000e+00 0.000000000000000e+00
0.000000000000000e+00 0.000000000000000e+00 0.000000000000000e+00
0.000000000000000e+00 0.000000000000000e+00 0.000000000000000e+00
0.000000000000000e+00 0.000000000000000e+00 0.000000000000000e+00
0.000000000000000e+00 0.000000000000000e+00 0.000000000000000e+00
0.000000000000000e+00 0.000000000000000e+00 0.000000000000000e+00
0.000000000000000e+00 0.000000000000000e+00 0.000000000000000e+00
0.000000000000000e+00 0.000000000000000e+00 0.000000000000000e+00
0.000000000000000e+00 0.000000000000000e+00 0.000000000000000e+00
0.000000000000000e+00 0.000000000000000e+00 0.000000000000000e+00
0.000000000000000e+00 0.000000000000000e+00 0.000000000000000e+00
0.000000000000000e+00 0.000000000000000e+00 0.000000000000000e+00
0.000000000000000e+00 0.000000000000000e+00 0.000000000000000e+00
0.000000000000000e+00 0.000000000000000e+00 0.000000000000000e+00
0.000000000000000e+00 0.000000000000000e+00 0.000000000000000e+00
0.000000000000000e+00 0.000000000000000e+00 0.000000000000000e+00
0.000000000000000e+00 0.000000000000000e+00 0.000000000000000e+00
0.000000000000000e+00 0.000000000000000e+00 0.000000000000000e+00
0.000000000000000e+00 0.000000000000000e+00 0.000000000000000e+00
0.000000000000000e+00 0.000000000000000e+00 0.000000000000000e+00
0.000000000000000e+00 0.000000000000000e+00 0.000000000000000e+00
0.000000000000000e+00 0.000000000000000e+00 0.000000000000000e+00
0.000000000000000e+00 0.000000000000000e+00 0.000000000000000e+00
0.000000000000000e+00 0.000000000000000e+00 0.000000000000000e+00
0.000000000000000e+00 0.000000000000000e+00 0.000000000000000e+00
0.000000000000000e+00 0.000000000000000e+00 0.000000000000000e+00
0.000000000000000e+00 0.000000000000000e+00 0.000000000000000e+00
0.000000000000000e+00 0.000000000000000e+00 0.000000000000000e+00
0.000000000000000e+00 0.000000000000000e+00 0.000000000000000e+00
0.000000000000000e+00 0.000000000000000e+00 0.000000000000000e+00
0.000000000000000e+00 0.000000000000000e+00 0.000000000000000e+00
0.000000000000000e+00 0.000000000000000e+00 0.000000000000000e+00
0.000000000000000e+00 0.000000000000000e+00 0.000000000000000e+00
0.000000000000000e+00 0.000000000000000e+00 0.000000000000000e+00
0.000000000000000e+00 0.000000000000000e+00 0.000000000000000e+00
0.000000000000000e+00 0.000000000000000e+00 0.000000000000000e+00
0.000000000000000e+00 0.000000000000000e+00 0.000000000000000e+00
0.000000000000000e+00 0.000000000000000e+00 0.000000000000000e+00
0.000000000000000e+00 0.000000000000000e+00 0.000000000000000e+00
0.000000000000000e+00 0.000000000000000e+00 0.000000000000000e+00
0.000000000000000e+00 0.000000000000000e+00 0.000000000000000e+00
0.000000000000000e+00 0.000000000000000e+00 0.000000000000000e+00
0.000000000000000e+00 0.000000000000000e+00 0.000000000000000e+00
0.000000000000000e+00 0.000000000000000e+00 0.000000000000000e+00
0.000000000000000e+00 0.000000000000000e+00 0.000000000000000e+00
0.000000000000000e+00 0.000000000000000e+00 0.000000000000000e+00
0.000000000000000e+00 0.000000000000000e+00 0.000000000000000e+00
0.000000000000000e+00 0.000000000000000e+00 0.000000000000000e+00
0.000000000000000e+00 0.000000000000000e+00 0.000000000000000e+00
0.000000000000000e+00 0.000000000000000e+00 0.000000000000000e+00
0.000000000000000e+00 0.000000000000000e+00 0.000000000000000e+00
0.000000000000000e+00 0.000000000000000e+00 0.000000000000000e+00
0.000000000000000e+00 0.000000000000000e+00 0.000000000000000e+00
0.000000000000000e+00 0.000000000000000e+00 0.000000000000000e+00
0.000000000000000e+00 0.000000000000000e+00 0.000000000000000e+00
0.000000000000000e+00 0.000000000000000e+00 0.000000000000000e+00
0.000000000000000e+00 0.000000000000000e+00 0.000000000000000e+00
0.000000000000000e+00 0.000000000000000e+00 0.000000000000000e+00
0.000000000000000e+00 0.000000000000000e+00 0.000000000000000e+00
0.000000000000000e+00 0.000000000000000e+00 0.000000000000000e+00
0.000000000000000e+00 0.000000000000000e+00 0.000000000000000e+00
0.000000000000000e+00 0.000000000000000e+00 0.000000000000000e+00
0.000000000000000e+00 0.000000000000000e+00 0.000000000000000e+00
0.000000000000000e+00 0.000000000000000e+00 0.000000000000000e+00
0.000000000000000e+00 0.000000000000000e+00 0.000000000000000e+00
0.000000000000000e+00 0.000000000000000e+00 0.000000000000000e+00
0.000000000000000e+00 0.000000000000000e+00 0.000000000000000e+00
0.000000000000000e+00 0.000000000000000e+00 0.000000000000000e+00
0.000000000000000e+00 0.000000000000000e+00 0.000000000000000e+00
0.000000000000000e+00 0.000000000000000e+00 0.000000000000000e+00
0.000000000000000e+00 0.000000000000000e+00 0.000000000000000e+00
0.000000000000000e+00 0.000000000000000e+00 0.000000000000000e+00
0.000000000000000e+00 0.000000000000000e+00 0.000000000000000e+00
0.000000000000000e+00 0.000000000000000e+00 0.000000000000000e+00
0.000000000000000e+00 0.000000000000000e+00 0.000000000000000e+00
0.000000000000000e+00 0.000000000000000e+00 0.000000000000000e+00
0.000000000000000e+00 0.000000000000000e+00 0.000000000000000e+00
0.000000000000000e+00 0.000000000000000e+00 0.000000000000000e+00
0.000000000000000e+00 0.000000000000000e+00 0.000000000000000e+00
0.000000000000000e+00 0.000000000000000e+00 0.000000000000000e+00
0.000000000000000e+00 0.000000000000000e+00 0.000000000000000e+00
0.000000000000000e+00 0.000000000000000e+00 0.000000000000000e+00
0.000000000000000e+00 0.000000000000000e+00 0.000000000000000e+00
0.000000000000000e+00 0.000000000000000e+00 0.000000000000000e+00
0.000000000000000e+00 0.000000000000000e+00 0.000000000000000e+00
0.000000000000000e+00 0.000000000000000e+00 0.000000000000000e+00
0.000000000000000e+00 0.000000000000000e+00 0.000000000000000e+00
0.000000000000000e+00 0.000000000000000e+00 0.000000000000000e+00
0.000000000000000e+00 0.000000000000000e+00 0.000000000000000e+00
0.000000000000000e+00 0.000000000000000e+00 0.000000000000000e+00
0.000000000000000e+00 0.000000000000000e+00 0.000000000000000e+00
0.000000000000000e+00 0.000000000000000e+00 0.000000000000000e+00
0.000000000000000e+00 0.000000000000000e+00 0.000000000000000e+00
0.000000000000000e+00 0.000000000000000e+00 0.000000000000000e+00
0.000000000000000e+00 0.000000000000000e+00 0.000000000000000e+00
0.000000000000000e+00 0.000000000000000e+00 0.000000000000000e+00
0.000000000000000e+00 0.000000000000000e+00 0.000000000000000e+00
0.000000000000000e+00 0.000000000000000e+00 0.000000000000000e+00
0.000000000000000e+00 0.000000000000000e+00 0.000000000000000e+00
0.000000000000000e+00 0.000000000000000e+00 0.000000000000000e+00
0.000000000000000e+00 0.000000000000000e+00 0.000000000000000e+00
0.000000000000000e+00 0.000000000000000e+00 0.000000000000000e+00
0.000000000000000e+00 0.000000000000000e+00 0.000000000000000e+00
0.000000000000000e+00 0.000000000000000e+00 0.000000000000000e+00
0.000000000000000e+00 0.000000000000000e+00 0.000000000000000e+00
0.000000000000000e+00 0.000000000000000e+00 0.000000000000000e+00
0.000000000000000e+00 0.000000000000000e+00 0.000000000000000e+00
0.000000000000000e+00 0.000000000000000e+00 0.000000000000000e+00
0.000000000000000e+00 0.000000000000000e+00 0.000000000000000e+00
0.000000000000000e+00 0.000000000000000e+00 0.000000000000000e+00
0.000000000000000e+00 0.000000000000000e+00 0.000000000000000e+00
0.000000000000000e+00 0.000000000000000e+00 0.000000000000000e+00
0.000000000000000e+00 0.000000000000000e+00 0.000000000000000e+00
0.000000000000000e+00 0.000000000000000e+00 0.000000000000000e+00
0.000000000000000e+00 0.000000000000000e+00 0.000000000000000e+00
0.000000000000000e+00 0.000000000000000e+00 0.000000000000000e+00
0.000000000000000e+00 0.000000000000000e+00 0.000000000000000e+00
0.000000000000000e+00 0.000000000000000e+00 0.000000000000000e+00
0.000000000000000e+00 0.000000000000000e+00 0.000000000000000e+00
0.000000000000000e+00 0.000000000000000e+00 0.000000000000000e+00
0.000000000000000e+00 0.000000000000000e+00 0.000000000000000e+00
0.000000000000000e+00 0.000000000000000e+00 0.000000000000000e+00
0.000000000000000e+00 0.000000000000000e+00 0.000000000000000e+00
0.000000000000000e+00 0.000000000000000e+00 0.000000000000000e+00
0.000000000000000e+00 0.000000000000000e+00 0.000000000000000e+00
0.000000000000000e+00 0.000000000000000e+00 0.000000000000000e+00
0.000000000000000e+00 0.000000000000000e+00 0.000000000000000e+00
0.000000000000000e+00 0.000000000000000e+00 0.000000000000000e+00
0.000000000000000e+00 0.000000000000000e+00 0.000000000000000e+00
0.000000000000000e+00 0.000000000000000e+00 0.000000000000000e+00
0.000000000000000e+00 0.000000000000000e+00 0.000000000000000e+00
0.000000000000000e+00 0.000000000000000e+00 0.000000000000000e+00
0.000000000000000e+00 0.000000000000000e+00 0.000000000000000e+00
0.000000000000000e+00 0.000000000000000e+00 0.000000000000000e+00
0.000000000000000e+00 0.000000000000000e+00 0.000000000000000e+00
0.000000000000000e+00 0.000000000000000e+00 0.000000000000000e+00
0.000000000000000e+00 0.000000000000000e+00 0.000000000000000e+00
0.000000000000000e+00 0.000000000000000e+00 0.000000000000000e+00
0.000000000000000e+00 0.000000000000000e+00 0.000000000000000e+00
0.000000000000000e+00 0.000000000000000e+00 0.000000000000000e+00
0.000000000000000e+00 0.000000000000000e+00 0.000000000000000e+00
0.000000000000000e+00 0.000000000000000e+00 0.000000000000000e+00
0.000000000000000e+00 0.000000000000000e+00 0.000000000000000e+00
0.000000000000000e+00 0.000000000000000e+00 0.000000000000000e+00
0.000000000000000e+00 0.000000000000000e+00 0.000000000000000e+00
0.000000000000000e+00 0.000000000000000e+00 0.000000000000000e+00
0.000000000000000e+00 0.000000000000000e+00 0.000000000000000e+00
0.000000000000000e+00 0.000000000000000e+00 0.000000000000000e+00
0.000000000000000e+00 0.000000000000000e+00 0.000000000000000e+00
0.000000000000000e+00 0.000000000000000e+00 0.000000000000000e+00
0.000000000000000e+00 0.000000000000000e+00 0.000000000000000e+00
0.000000000000000e+00 0.000000000000000e+00 0.000000000000000e+00
0.000000000000000e+00 0.000000000000000e+00 0.000000000000000e+00
0.000000000000000e+00 0.000000000000000e+00 0.000000000000000e+00
0.000000000000000e+00 0.000000000000000e+00 0.000000000000000e+00
0.000000000000000e+00 0.000000000000000e+00 0.000000000000000e+00
0.000000000000000e+00 0.000000000000000e+00 0.000000000000000e+00
0.000000000000000e+00 0.000000000000000e+00 0.000000000000000e+00
0.000000000000000e+00 0.000000000000000e+00 0.000000000000000e+00
0.000000000000000e+00 0.000000000000000e+00 0.000000000000000e+00
0.000000000000000e+00 0.000000000000000e+00 0.000000000000000e+00
0.000000000000000e+00 0.000000000000000e+00 0.000000000000000e+00
0.000000000000000e+00 0.000000000000000e+00 0.000000000000000e+00
0.000000000000000e+00 0.000000000000000e+00 0.000000000000000e+00
0.000000000000000e+00 0.000000000000000e+00 0.000000000000000e+00
0.000000000000000e+00 0.000000000000000e+00 0.000000000000000e+00
0.000000000000000e+00 0.000000000000000e+00 0.000000000000000e+00
0.000000000000000e+00 0.000000000000000e+00 0.000000000000000e+00
0.000000000000000e+00 0.000000000000000e+00 0.000000000000000e+00
0.000000000000000e+00 0.000000000000000e+00 0.000000000000000e+00
0.000000000000000e+00 0.000000000000000e+00 0.000000000000000e+00
0.000000000000000e+00 0.000000000000000e+00 0.000000000000000e+00
0.000000000000000e+00 0.000000000000000e+00 0.000000000000000e+00
0.000000000000000e+00 0.000000000000000e+00 0.000000000000000e+00
0.000000000000000e+00 0.000000000000000e+00 0.000000000000000e+00
0.000000000000000e+00 0.000000000000000e+00 0.000000000000000e+00
0.000000000000000e+00 0.000000000000000e+00 0.000000000000000e+00
0.000000000000000e+00 0.000000000000000e+00 0.000000000000000e+00
0.000000000000000e+00 0.000000000000000e+00 0.000000000000000e+00
0.000000000000000e+00 0.000000000000000e+00 0.000000000000000e+00
0.000000000000000e+00 0.000000000000000e+00 0.000000000000000e+00
0.000000000000000e+00 0.000000000000000e+00 0.000000000000000e+00
0.000000000000000e+00 0.000000000000000e+00 0.000000000000000e+00
0.000000000000000e+00 0.000000000000000e+00 0.000000000000000e+00
0.000000000000000e+00 0.000000000000000e+00 0.000000000000000e+00
0.000000000000000e+00 0.000000000000000e+00 0.000000000000000e+00
0.000000000000000e+00 0.000000000000000e+00 0.000000000000000e+00
0.000000000000000e+00 0.000000000000000e+00 0.000000000000000e+00
0.000000000000000e+00 0.000000000000000e+00 0.000000000000000e+00
0.000000000000000e+00 0.000000000000000e+00 0.000000000000000e+00
0.000000000000000e+00 0.000000000000000e+00 0.000000000000000e+00
0.000000000000000e+00 0.000000000000000e+00 0.000000000000000e+00
0.000000000000000e+00 0.000000000000000e+00 0.000000000000000e+00
0.000000000000000e+00 0.000000000000000e+00 0.000000000000000e+00
0.000000000000000e+00 0.000000000000000e+00 0.000000000000000e+00
0.000000000000000e+00 0.000000000000000e+00 0.000000000000000e+00
0.000000000000000e+00 0.000000000000000e+00 0.000000000000000e+00
0.000000000000000e+00 0.000000000000000e+00 0.000000000000000e+00
0.000000000000000e+00 0.000000000000000e+00 0.000000000000000e+00
0.000000000000000e+00 0.000000000000000e+00 0.000000000000000e+00
0.000000000000000e+00 0.000000000000000e+00 0.000000000000000e+00
0.000000000000000e+00 0.000000000000000e+00 0.000000000000000e+00
0.000000000000000e+00 0.000000000000000e+00 0.000000000000000e+00
0.000000000000000e+00 0.000000000000000e+00 0.000000000000000e+00
0.000000000000000e+00 0.000000000000000e+00 0.000000000000000e+00
0.000000000000000e+00 0.000000000000000e+00 0.000000000000000e+00
0.000000000000000e+00 0.000000000000000e+00 0.000000000000000e+00
0.000000000000000e+00 0.000000000000000e+00 0.000000000000000e+00
0.000000000000000e+00 0.000000000000000e+00 0.000000000000000e+00
0.000000000000000e+00 0.000000000000000e+00 0.000000000000000e+00
0.000000000000000e+00 0.000000000000000e+00 0.000000000000000e+00
0.000000000000000e+00 0.000000000000000e+00 0.000000000000000e+00
0.000000000000000e+00 0.000000000000000e+00 0.000000000000000e+00
0.000000000000000e+00 0.000000000000000e+00 0.000000000000000e+00
0.000000000000000e+00 0.000000000000000e+00 0.000000000000000e+00
0.000000000000000e+00 0.000000000000000e+00 0.000000000000000e+00
0.000000000000000e+00 0.000000000000000e+00 0.000000000000000e+00
0.000000000000000e+00 0.000000000000000e+00 0.000000000000000e+00
0.000000000000000e+00 0.000000000000000e+00 0.000000000000000e+00
0.000000000000000e+00 0.000000000000000e+00 0.000000000000000e+00
0.000000000000000e+00 0.000000000000000e+00 0.000000000000000e+00
0.000000000000000e+00 0.000000000000000e+00 0.000000000000000e+00
0.000000000000000e+00 0.000000000000000e+00 0.000000000000000e+00
0.000000000000000e+00 0.000000000000000e+00 0.000000000000000e+00
0.000000000000000e+00 0.000000000000000e+00 0.000000000000000e+00
0.000000000000000e+00 0.000000000000000e+00 0.000000000000000e+00
0.000000000000000e+00 0.000000000000000e+00 0.000000000000000e+00
0.000000000000000e+00 0.000000000000000e+00 0.000000000000000e+00
0.000000000000000e+00 0.000000000000000e+00 0.000000000000000e+00
0.000000000000000e+00 0.000000000000000e+00 0.000000000000000e+00
0.000000000000000e+00 0.000000000000000e+00 0.000000000000000e+00
0.000000000000000e+00 0.000000000000000e+00 0.000000000000000e+00
0.000000000000000e+00 0.000000000000000e+00 0.000000000000000e+00
0.000000000000000e+00 0.000000000000000e+00 0.000000000000000e+00
0.000000000000000e+00 0.000000000000000e+00 0.000000000000000e+00
0.000000000000000e+00 0.000000000000000e+00 0.000000000000000e+00
0.000000000000000e+00 0.000000000000000e+00 0.000000000000000e+00
0.000000000000000e+00 0.000000000000000e+00 0.000000000000000e+00
0.000000000000000e+00 0.000000000000000e+00 0.000000000000000e+00
0.000000000000000e+00 0.000000000000000e+00 0.000000000000000e+00
0.000000000000000e+00 0.000000000000000e+00 0.000000000000000e+00
0.000000000000000e+00 0.000000000000000e+00 0.000000000000000e+00
0.000000000000000e+00 0.000000000000000e+00 0.000000000000000e+00
0.000000000000000e+00 0.000000000000000e+00 0.000000000000000e+00
0.000000000000000e+00 0.000000000000000e+00 0.000000000000000e+00
0.000000000000000e+00 0.000000000000000e+00 0.000000000000000e+00
0.000000000000000e+00 0.000000000000000e+00 0.000000000000000e+00
0.000000000000000e+00 0.000000000000000e+00 0.000000000000000e+00
0.000000000000000e+00 0.000000000000000e+00 0.000000000000000e+00
0.000000000000000e+00 0.000000000000000e+00 0.000000000000000e+00
0.000000000000000e+00 0.000000000000000e+00 0.000000000000000e+00
0.000000000000000e+00 0.000000000000000e+00 0.000000000000000e+00
0.000000000000000e+00 0.000000000000000e+00 0.000000000000000e+00
0.000000000000000e+00 0.000000000000000e+00 0.000000000000000e+00
0.000000000000000e+00 0.000000000000000e+00 0.000000000000000e+00
0.000000000000000e+00 0.000000000000000e+00 0.000000000000000e+00
0.000000000000000e+00 0.000000000000000e+00 0.000000000000000e+00
0.000000000000000e+00 0.000000000000000e+00 0.000000000000000e+00
0.000000000000000e+00 0.000000000000000e+00 0.000000000000000e+00
0.000000000000000e+00 0.000000000000000e+00 0.000000000000000e+00
0.000000000000000e+00 0.000000000000000e+00 0.000000000000000e+00
0.000000000000000e+00 0.000000000000000e+00 0.000000000000000e+00
0.000000000000000e+00 0.000000000000000e+00 0.000000000000000e+00
0.000000000000000e+00 0.000000000000000e+00 0.000000000000000e+00
0.000000000000000e+00 0.000000000000000e+00 0.000000000000000e+00
0.000000000000000e+00 0.000000000000000e+00 0.000000000000000e+00
0.000000000000000e+00 0.000000000000000e+00 0.000000000000000e+00
0.000000000000000e+00 0.000000000000000e+00 0.000000000000000e+00
0.000000000000000e+00 0.000000000000000e+00 0.000000000000000e+00
0.000000000000000e+00 0.000000000000000e+00 0.000000000000000e+00
0.000000000000000e+00 0.000000000000000e+00 0.000000000000000e+00
0.000000000000000e+00 0.000000000000000e+00 0.000000000000000e+00
0.000000000000000e+00 0.000000000000000e+00 0.000000000000000e+00
0.000000000000000e+00 0.000000000000000e+00 0.000000000000000e+00
0.000000000000000e+00 0.000000000000000e+00 0.000000000000000e+00
0.000000000000000e+00 0.000000000000000e+00 0.000000000000000e+00
0.000000000000000e+00 0.000000000000000e+00 0.000000000000000e+00
0.000000000000000e+00 0.000000000000000e+00 0.000000000000000e+00
0.000000000000000e+00 0.000000000000000e+00 0.000000000000000e+00
0.000000000000000e+00 0.000000000000000e+00 0.000000000000000e+00
0.000000000000000e+00 0.000000000000000e+00 0.000000000000000e+00
0.000000000000000e+00 0.000000000000000e+00 0.000000000000000e+00
0.000000000000000e+00 0.000000000000000e+00 0.000000000000000e+00
0.000000000000000e+00 0.000000000000000e+00 0.000000000000000e+00
0.000000000000000e+00 0.000000000000000e+00 0.000000000000000e+00
0.000000000000000e+00 0.000000000000000e+00 0.000000000000000e+00
0.000000000000000e+00 0.000000000000000e+00 0.000000000000000e+00
0.000000000000000e+00 0.000000000000000e+00 0.000000000000000e+00
0.000000000000000e+00 0.000000000000000e+00 0.000000000000000e+00
0.000000000000000e+00 0.000000000000000e+00 0.000000000000000e+00
0.000000000000000e+00 0.000000000000000e+00 0.000000000000000e+00
0.000000000000000e+00 0.000000000000000e+00 0.000000000000000e+00
0.000000000000000e+00 0.000000000000000e+00 0.000000000000000e+00
0.000000000000000e+00 0.000000000000000e+00 0.000000000000000e+00
0.000000000000000e+00 0.000000000000000e+00 0.000000000000000e+00
0.000000000000000e+00 0.000000000000000e+00 0.000000000000000e+00
0.000000000000000e+00 0.000000000000000e+00 0.000000000000000e+00
0.000000000000000e+00 0.000000000000000e+00 0.000000000000000e+00
0.000000000000000e+00 0.000000000000000e+00 0.000000000000000e+00
0.000000000000000e+00 0.000000000000000e+00 0.000000000000000e+00
0.000000000000000e+00 0.000000000000000e+00 0.000000000000000e+00
0.000000000000000e+00 0.000000000000000e+00 0.000000000000000e+00
0.000000000000000e+00 0.000000000000000e+00 0.000000000000000e+00
0.000000000000000e+00 0.000000000000000e+00 0.000000000000000e+00
0.000000000000000e+00 0.000000000000000e+00 0.000000000000000e+00
0.000000000000000e+00 0.000000000000000e+00 0.000000000000000e+00
0.000000000000000e+00 0.000000000000000e+00 0.000000000000000e+00
0.000000000000000e+00 0.000000000000000e+00 0.000000000000000e+00
0.000000000000000e+00 0.000000000000000e+00 0.000000000000000e+00
0.000000000000000e+00 0.000000000000000e+00 0.000000000000000e+00
0.000000000000000e+00 0.000000000000000e+00 0.000000000000000e+00
0.000000000000000e+00 0.000000000000000e+00 0.000000000000000e+00
0.000000000000000e+00 0.000000000000000e+00 0.000000000000000e+00
0.000000000000000e+00 0.000000000000000e+00 0.000000000000000e+00
0.000000000000000e+00 0.000000000000000e+00 0.000000000000000e+00
0.000000000000000e+00 0.000000000000000e+00 0.000000000000000e+00
0.000000000000000e+00 0.000000000000000e+00 0.000000000000000e+00
0.000000000000000e+00 0.000000000000000e+00 0.000000000000000e+00
0.000000000000000e+00 0.000000000000000e+00 0.000000000000000e+00
0.000000000000000e+00 0.000000000000000e+00 0.000000000000000e+00
0.000000000000000e+00 0.000000000000000e+00 0.000000000000000e+00
0.000000000000000e+00 0.000000000000000e+00 0.000000000000000e+00
0.000000000000000e+00 0.000000000000000e+00 0.000000000000000e+00
0.000000000000000e+00 0.000000000000000e+00 0.000000000000000e+00
0.000000000000000e+00 0.000000000000000e+00 0.000000000000000e+00
0.000000000000000e+00 0.000000000000000e+00 0.000000000000000e+00
0.000000000000000e+00 0.000000000000000e+00 0.000000000000000e+00
0.000000000000000e+00 0.000000000000000e+00 0.000000000000000e+00
0.000000000000000e+00 0.000000000000000e+00 0.000000000000000e+00
0.000000000000000e+00 0.000000000000000e+00 0.000000000000000e+00
0.000000000000000e+00 0.000000000000000e+00 0.000000000000000e+00
0.000000000000000e+00 0.000000000000000e+00 0.000000000000000e+00
0.000000000000000e+00 0.000000000000000e+00 0.000000000000000e+00
0.000000000000000e+00 0.000000000000000e+00 0.000000000000000e+00
0.000000000000000e+00 0.000000000000000e+00 0.000000000000000e+00
0.000000000000000e+00 0.000000000000000e+00 0.000000000000000e+00
0.000000000000000e+00 0.000000000000000e+00 0.000000000000000e+00
0.000000000000000e+00 0.000000000000000e+00 0.000000000000000e+00
0.000000000000000e+00 0.000000000000000e+00 0.000000000000000e+00
0.000000000000000e+00 0.000000000000000e+00 0.000000000000000e+00
0.000000000000000e+00 0.000000000000000e+00 0.000000000000000e+00
0.000000000000000e+00 0.000000000000000e+00 0.000000000000000e+00
0.000000000000000e+00 0.000000000000000e+00 0.000000000000000e+00
0.000000000000000e+00 0.000000000000000e+00 0.000000000000000e+00
0.000000000000000e+00 0.000000000000000e+00 0.000000000000000e+00
0.000000000000000e+00 0.000000000000000e+00 0.000000000000000e+00
0.000000000000000e+00 0.000000000000000e+00 0.000000000000000e+00
0.000000000000000e+00 0.000000000000000e+00 0.000000000000000e+00
0.000000000000000e+00 0.000000000000000e+00 0.000000000000000e+00
0.000000000000000e+00 0.000000000000000e+00 0.000000000000000e+00
0.000000000000000e+00 0.000000000000000e+00 0.000000000000000e+00
0.000000000000000e+00 0.000000000000000e+00 0.000000000000000e+00
0.000000000000000e+00 0.000000000000000e+00 0.000000000000000e+00
0.000000000000000e+00 0.000000000000000e+00 0.000000000000000e+00
0.000000000000000e+00 0.000000000000000e+00 0.000000000000000e+00
0.000000000000000e+00 0.000000000000000e+00 0.000000000000000e+00
0.000000000000000e+00 0.000000000000000e+00 0.000000000000000e+00
0.000000000000000e+00 0.000000000000000e+00 0.000000000000000e+00
0.000000000000000e+00 0.000000000000000e+00 0.000000000000000e+00
0.000000000000000e+00 0.000000000000000e+00 0.000000000000000e+00
0.000000000000000e+00 0.000000000000000e+00 0.000000000000000e+00
0.000000000000000e+00 0.000000000000000e+00 0.000000000000000e+00
0.000000000000000e+00 0.000000000000000e+00 0.000000000000000e+00
0.000000000000000e+00 0.000000000000000e+00 0.000000000000000e+00
0.000000000000000e+00 0.000000000000000e+00 0.000000000000000e+00
0.000000000000000e+00 0.000000000000000e+00 0.000000000000000e+00
0.000000000000000e+00 0.000000000000000e+00 0.000000000000000e+00
0.000000000000000e+00 0.000000000000000e+00 0.000000000000000e+00
0.000000000000000e+00 0.000000000000000e+00 0.000000000000000e+00
0.000000000000000e+00 0.000000000000000e+00 0.000000000000000e+00
0.000000000000000e+00 0.000000000000000e+00 0.000000000000000e+00
0.000000000000000e+00 0.000000000000000e+00 0.000000000000000e+00
0.000000000000000e+00 0.000000000000000e+00 0.000000000000000e+00
0.000000000000000e+00 0.000000000000000e+00 0.000000000000000e+00
0.000000000000000e+00 0.000000000000000e+00 0.000000000000000e+00
0.000000000000000e+00 0.000000000000000e+00 0.000000000000000e+00
0.000000000000000e+00 0.000000000000000e+00 0.000000000000000e+00
0.000000000000000e+00 0.000000000000000e+00 0.000000000000000e+00
0.000000000000000e+00 0.000000000000000e+00 0.000000000000000e+00
0.000000000000000e+00 0.000000000000000e+00 0.000000000000000e+00
0.000000000000000e+00 0.000000000000000e+00 0.000000000000000e+00
0.000000000000000e+00 0.000000000000000e+00 0.000000000000000e+00
0.000000000000000e+00 0.000000000000000e+00 0.000000000000000e+00
0.000000000000000e+00 0.000000000000000e+00 0.000000000000000e+00
0.000000000000000e+00 0.000000000000000e+00 0.000000000000000e+00
0.000000000000000e+00 0.000000000000000e+00 0.000000000000000e+00
0.000000000000000e+00 0.000000000000000e+00 0.000000000000000e+00
0.000000000000000e+00 0.000000000000000e+00 0.000000000000000e+00
0.000000000000000e+00 0.000000000000000e+00 0.000000000000000e+00
0.000000000000000e+00 0.000000000000000e+00 0.000000000000000e+00
0.000000000000000e+00 0.000000000000000e+00 0.000000000000000e+00
0.000000000000000e+00 0.000000000000000e+00 0.000000000000000e+00
0.000000000000000e+00 0.000000000000000e+00 0.000000000000000e+00
0.000000000000000e+00 0.000000000000000e+00 0.000000000000000e+00
0.000000000000000e+00 0.000000000000000e+00 0.000000000000000e+00
0.000000000000000e+00 0.000000000000000e+00 0.000000000000000e+00
0.000000000000000e+00 0.000000000000000e+00 0.000000000000000e+00
0.000000000000000e+00 0.000000000000000e+00 0.000000000000000e+00
0.000000000000000e+00 0.000000000000000e+00 0.000000000000000e+00
0.000000000000000e+00 0.000000000000000e+00 0.000000000000000e+00
0.000000000000000e+00 0.000000000000000e+00 0.000000000000000e+00
0.000000000000000e+00 0.000000000000000e+00 0.000000000000000e+00
0.000000000000000e+00 0.000000000000000e+00 0.000000000000000e+00
0.000000000000000e+00 0.000000000000000e+00 0.000000000000000e+00
0.000000000000000e+00 0.000000000000000e+00 0.000000000000000e+00
0.000000000000000e+00 0.000000000000000e+00 0.000000000000000e+00
0.000000000000000e+00 0.000000000000000e+00 0.000000000000000e+00
0.000000000000000e+00 0.000000000000000e+00 0.000000000000000e+00
0.000000000000000e+00 0.000000000000000e+00 0.000000000000000e+00
0.000000000000000e+00 0.000000000000000e+00 0.000000000000000e+00
0.000000000000000e+00 0.000000000000000e+00 0.000000000000000e+00
0.000000000000000e+00 0.000000000000000e+00 0.000000000000000e+00
0.000000000000000e+00 0.000000000000000e+00 0.000000000000000e+00
0.000000000000000e+00 0.000000000000000e+00 0.000000000000000e+00
0.000000000000000e+00 0.000000000000000e+00 0.000000000000000e+00
0.000000000000000e+00 0.000000000000000e+00 0.000000000000000e+00
0.000000000000000e+00 0.000000000000000e+00 0.000000000000000e+00
0.000000000000000e+00 0.000000000000000e+00 0.000000000000000e+00
0.000000000000000e+00 0.000000000000000e+00 0.000000000000000e+00
0.000000000000000e+00 0.000000000000000e+00 0.000000000000000e+00
0.000000000000000e+00 0.000000000000000e+00 0.000000000000000e+00
0.000000000000000e+00 0.000000000000000e+00 0.000000000000000e+00
0.000000000000000e+00 0.000000000000000e+00 0.000000000000000e+00
0.000000000000000e+00 0.000000000000000e+00 0.000000000000000e+00
0.000000000000000e+00 0.000000000000000e+00 0.000000000000000e+00
0.000000000000000e+00 0.000000000000000e+00 0.000000000000000e+00
0.000000000000000e+00 0.000000000000000e+00 0.000000000000000e+00
0.000000000000000e+00 0.000000000000000e+00 0.000000000000000e+00
0.000000000000000e+00 0.000000000000000e+00 0.000000000000000e+00
0.000000000000000e+00 0.000000000000000e+00 0.000000000000000e+00
0.000000000000000e+00 0.000000000000000e+00 0.000000000000000e+00
0.000000000000000e+00 0.000000000000000e+00 0.000000000000000e+00
0.000000000000000e+00 0.000000000000000e+00 0.000000000000000e+00
0.000000000000000e+00 0.000000000000000e+00 0.000000000000000e+00
0.000000000000000e+00 0.000000000000000e+00 0.000000000000000e+00
0.000000000000000e+00 0.000000000000000e+00 0.000000000000000e+00
0.000000000000000e+00 0.000000000000000e+00 0.000000000000000e+00
0.000000000000000e+00 0.000000000000000e+00 0.000000000000000e+00
0.000000000000000e+00 0.000000000000000e+00 0.000000000000000e+00
0.000000000000000e+00 0.000000000000000e+00 0.000000000000000e+00
0.000000000000000e+00 0.000000000000000e+00 0.000000000000000e+00
0.000000000000000e+00 0.000000000000000e+00 0.000000000000000e+00
0.000000000000000e+00 0.000000000000000e+00 0.000000000000000e+00
0.000000000000000e+00 0.000000000000000e+00 0.000000000000000e+00
0.000000000000000e+00 0.000000000000000e+00 0.000000000000000e+00
0.000000000000000e+00 0.000000000000000e+00 0.000000000000000e+00
0.000000000000000e+00 0.000000000000000e+00 0.000000000000000e+00
0.000000000000000e+00 0.000000000000000e+00 0.000000000000000e+00
0.000000000000000e+00 0.000000000000000e+00 0.000000000000000e+00
0.000000000000000e+00 0.000000000000000e+00 0.000000000000000e+00
0.000000000000000e+00 0.000000000000000e+00 0.000000000000000e+00
0.000000000000000e+00 0.000000000000000e+00 0.000000000000000e+00
0.000000000000000e+00 0.000000000000000e+00 0.000000000000000e+00
0.000000000000000e+00 0.000000000000000e+00 0.000000000000000e+00
0.000000000000000e+00 0.000000000000000e+00 0.000000000000000e+00
0.000000000000000e+00 0.000000000000000e+00 0.000000000000000e+00
0.000000000000000e+00 0.000000000000000e+00 0.000000000000000e+00
0.000000000000000e+00 0.000000000000000e+00 0.000000000000000e+00
0.000000000000000e+00 0.000000000000000e+00 0.000000000000000e+00
0.000000000000000e+00 0.000000000000000e+00 0.000000000000000e+00
0.000000000000000e+00 0.000000000000000e+00 0.000000000000000e+00
0.000000000000000e+00 0.000000000000000e+00 0.000000000000000e+00
0.000000000000000e+00 0.000000000000000e+00 0.000000000000000e+00
0.000000000000000e+00 0.000000000000000e+00 0.000000000000000e+00
0.000000000000000e+00 0.000000000000000e+00 0.000000000000000e+00
0.000000000000000e+00 0.000000000000000e+00 0.000000000000000e+00
0.000000000000000e+00 0.000000000000000e+00 0.000000000000000e+00
0.000000000000000e+00 0.000000000000000e+00 0.000000000000000e+00
0.000000000000000e+00 0.000000000000000e+00 0.000000000000000e+00
0.000000000000000e+00 0.000000000000000e+00 0.000000000000000e+00
0.000000000000000e+00 0.000000000000000e+00 0.000000000000000e+00
0.000000000000000e+00 0.000000000000000e+00 0.000000000000000e+00
0.000000000000000e+00 0.000000000000000e+00 0.000000000000000e+00
0.000000000000000e+00 0.000000000000000e+00 0.000000000000000e+00
0.000000000000000e+00 0.000000000000000e+00 0.000000000000000e+00
0.000000000000000e+00 0.000000000000000e+00 0.000000000000000e+00
0.000000000000000e+00 0.000000000000000e+00 0.000000000000000e+00
0.000000000000000e+00 0.000000000000000e+00 0.000000000000000e+00
0.000000000000000e+00 0.000000000000000e+00 0.000000000000000e+00
0.000000000000000e+00 0.000000000000000e+00 0.000000000000000e+00
0.000000000000000e+00 0.000000000000000e+00 0.000000000000000e+00
0.000000000000000e+00 0.000000000000000e+00 0.000000000000000e+00
0.000000000000000e+00 0.000000000000000e+00 0.000000000000000e+00
0.000000000000000e+00 0.000000000000000e+00 0.000000000000000e+00
0.000000000000000e+00 0.000000000000000e+00 0.000000000000000e+00
0.000000000000000e+00 0.000000000000000e+00 0.000000000000000e+00
0.000000000000000e+00 0.000000000000000e+00 0.000000000000000e+00
0.000000000000000e+00 0.000000000000000e+00 0.000000000000000e+00
0.000000000000000e+00 0.000000000000000e+00 0.000000000000000e+00
0.000000000000000e+00 0.000000000000000e+00 0.000000000000000e+00
0.000000000000000e+00 0.000000000000000e+00 0.000000000000000e+00
0.000000000000000e+00 0.000000000000000e+00 0.000000000000000e+00
0.000000000000000e+00 0.000000000000000e+00 0.000000000000000e+00
0.000000000000000e+00 0.000000000000000e+00 0.000000000000000e+00
0.000000000000000e+00 0.000000000000000e+00 0.000000000000000e+00
0.000000000000000e+00 0.000000000000000e+00 0.000000000000000e+00
0.000000000000000e+00 0.000000000000000e+00 0.000000000000000e+00
0.000000000000000e+00 0.000000000000000e+00 0.000000000000000e+00
0.000000000000000e+00 0.000000000000000e+00 0.000000000000000e+00
0.000000000000000e+00 0.000000000000000e+00 0.000000000000000e+00
0.000000000000000e+00 0.000000000000000e+00 0.000000000000000e+00
0.000000000000000e+00 0.000000000000000e+00 0.000000000000000e+00
0.000000000000000e+00 0.000000000000000e+00 0.000000000000000e+00
0.000000000000000e+00 0.000000000000000e+00 0.000000000000000e+00
0.000000000000000e+00 0.000000000000000e+00 0.000000000000000e+00
0.000000000000000e+00 0.000000000000000e+00 0.000000000000000e+00
0.000000000000000e+00 0.000000000000000e+00 0.000000000000000e+00
0.000000000000000e+00 0.000000000000000e+00 0.000000000000000e+00
0.000000000000000e+00 0.000000000000000e+00 0.000000000000000e+00
0.000000000000000e+00 0.000000000000000e+00 0.000000000000000e+00
0.000000000000000e+00 0.000000000000000e+00 0.000000000000000e+00
0.000000000000000e+00 0.000000000000000e+00 0.000000000000000e+00
0.000000000000000e+00 0.000000000000000e+00 0.000000000000000e+00
0.000000000000000e+00 0.000000000000000e+00 0.000000000000000e+00
0.000000000000000e+00 0.000000000000000e+00 0.000000000000000e+00
0.000000000000000e+00 0.000000000000000e+00 0.000000000000000e+00
0.000000000000000e+00 0.000000000000000e+00 0.000000000000000e+00
0.000000000000000e+00 0.000000000000000e+00 0.000000000000000e+00
0.000000000000000e+00 0.000000000000000e+00 0.000000000000000e+00
0.000000000000000e+00 0.000000000000000e+00 0.000000000000000e+00
0.000000000000000e+00 0.000000000000000e+00 0.000000000000000e+00
0.000000000000000e+00 0.000000000000000e+00 0.000000000000000e+00
0.000000000000000e+00 0.000000000000000e+00 0.000000000000000e+00
0.000000000000000e+00 0.000000000000000e+00 0.000000000000000e+00
0.000000000000000e+00 0.000000000000000e+00 0.000000000000000e+00
0.000000000000000e+00 0.000000000000000e+00 0.000000000000000e+00
0.000000000000000e+00 0.000000000000000e+00 0.000000000000000e+00
0.000000000000000e+00 0.000000000000000e+00 0.000000000000000e+00
0.000000000000000e+00 0.000000000000000e+00 0.000000000000000e+00
0.000000000000000e+00 0.000000000000000e+00 0.000000000000000e+00
0.000000000000000e+00 0.000000000000000e+00 0.000000000000000e+00
0.000000000000000e+00 0.000000000000000e+00 0.000000000000000e+00
0.000000000000000e+00 0.000000000000000e+00 0.000000000000000e+00
0.000000000000000e+00 0.000000000000000e+00 0.000000000000000e+00
0.000000000000000e+00 0.000000000000000e+00 0.000000000000000e+00
0.000000000000000e+00 0.000000000000000e+00 0.000000000000000e+00
0.000000000000000e+00 0.000000000000000e+00 0.000000000000000e+00
0.000000000000000e+00 0.000000000000000e+00 0.000000000000000e+00
0.000000000000000e+00 0.000000000000000e+00 0.000000000000000e+00
0.000000000000000e+00 0.000000000000000e+00 0.000000000000000e+00
0.000000000000000e+00 0.000000000000000e+00 0.000000000000000e+00
0.000000000000000e+00 0.000000000000000e+00 0.000000000000000e+00
0.000000000000000e+00 0.000000000000000e+00 0.000000000000000e+00
0.000000000000000e+00 0.000000000000000e+00 0.000000000000000e+00
0.000000000000000e+00 0.000000000000000e+00 0.000000000000000e+00
0.000000000000000e+00 0.000000000000000e+00 0.000000000000000e+00
0.000000000000000e+00 0.000000000000000e+00 0.000000000000000e+00
0.000000000000000e+00 0.000000000000000e+00 0.000000000000000e+00
0.000000000000000e+00 0.000000000000000e+00 0.000000000000000e+00
0.000000000000000e+00 0.000000000000000e+00 0.000000000000000e+00
0.000000000000000e+00 0.000000000000000e+00 0.000000000000000e+00
0.000000000000000e+00 0.000000000000000e+00 0.000000000000000e+00
0.000000000000000e+00 0.000000000000000e+00 0.000000000000000e+00
0.000000000000000e+00 0.000000000000000e+00 0.000000000000000e+00
0.000000000000000e+00 0.000000000000000e+00 0.000000000000000e+00
0.000000000000000e+00 0.000000000000000e+00 0.000000000000000e+00
0.000000000000000e+00 0.000000000000000e+00 0.000000000000000e+00
0.000000000000000e+00 0.000000000000000e+00 0.000000000000000e+00
0.000000000000000e+00 0.000000000000000e+00 0.000000000000000e+00
0.000000000000000e+00 0.000000000000000e+00 0.000000000000000e+00
0.000000000000000e+00 0.000000000000000e+00 0.000000000000000e+00
0.000000000000000e+00 0.000000000000000e+00 0.000000000000000e+00
0.000000000000000e+00 0.000000000000000e+00 0.000000000000000e+00
0.000000000000000e+00 0.000000000000000e+00 0.000000000000000e+00
0.000000000000000e+00 0.000000000000000e+00 0.000000000000000e+00
0.000000000000000e+00 0.000000000000000e+00 0.000000000000000e+00
0.000000000000000e+00 0.000000000000000e+00 0.000000000000000e+00
0.000000000000000e+00 0.000000000000000e+00 0.000000000000000e+00
0.000000000000000e+00 0.000000000000000e+00 0.000000000000000e+00
0.000000000000000e+00 0.000000000000000e+00 0.000000000000000e+00
0.000000000000000e+00 0.000000000000000e+00 0.000000000000000e+00
0.000000000000000e+00 0.000000000000000e+00 0.000000000000000e+00
0.000000000000000e+00 0.000000000000000e+00 0.000000000000000e+00
0.000000000000000e+00 0.000000000000000e+00 0.000000000000000e+00
0.000000000000000e+00 0.000000000000000e+00 0.000000000000000e+00
0.000000000000000e+00 0.000000000000000e+00 0.000000000000000e+00
0.000000000000000e+00 0.000000000000000e+00 0.000000000000000e+00
0.000000000000000e+00 0.000000000000000e+00 0.000000000000000e+00
0.000000000000000e+00 0.000000000000000e+00 0.000000000000000e+00
0.000000000000000e+00 0.000000000000000e+00 0.000000000000000e+00
0.000000000000000e+00 0.000000000000000e+00 0.000000000000000e+00
0.000000000000000e+00 0.000000000000000e+00 0.000000000000000e+00
0.000000000000000e+00 0.000000000000000e+00 0.000000000000000e+00
0.000000000000000e+00 0.000000000000000e+00 0.000000000000000e+00
0.000000000000000e+00 0.000000000000000e+00 0.000000000000000e+00
0.000000000000000e+00 0.000000000000000e+00 0.000000000000000e+00
0.000000000000000e+00 0.000000000000000e+00 0.000000000000000e+00
0.000000000000000e+00 0.000000000000000e+00 0.000000000000000e+00
0.000000000000000e+00 0.000000000000000e+00 0.000000000000000e+00
0.000000000000000e+00 0.000000000000000e+00 0.000000000000000e+00
0.000000000000000e+00 0.000000000000000e+00 0.000000000000000e+00
0.000000000000000e+00 0.000000000000000e+00 0.000000000000000e+00
0.000000000000000e+00 0.000000000000000e+00 0.000000000000000e+00
0.000000000000000e+00 0.000000000000000e+00 0.000000000000000e+00
0.000000000000000e+00 0.000000000000000e+00 0.000000000000000e+00
0.000000000000000e+00 0.000000000000000e+00 0.000000000000000e+00
0.000000000000000e+00 0.000000000000000e+00 0.000000000000000e+00
0.000000000000000e+00 0.000000000000000e+00 0.000000000000000e+00
0.000000000000000e+00 0.000000000000000e+00 0.000000000000000e+00
0.000000000000000e+00 0.000000000000000e+00 0.000000000000000e+00
0.000000000000000e+00 0.000000000000000e+00 0.000000000000000e+00
0.000000000000000e+00 0.000000000000000e+00 0.000000000000000e+00
0.000000000000000e+00 0.000000000000000e+00 0.000000000000000e+00
0.000000000000000e+00 0.000000000000000e+00 0.000000000000000e+00
0.000000000000000e+00 0.000000000000000e+00 0.000000000000000e+00
0.000000000000000e+00 0.000000000000000e+00 0.000000000000000e+00
0.000000000000000e+00 0.000000000000000e+00 0.000000000000000e+00
0.000000000000000e+00 0.000000000000000e+00 0.000000000000000e+00
0.000000000000000e+00 0.000000000000000e+00 0.000000000000000e+00
0.000000000000000e+00 0.000000000000000e+00 0.000000000000000e+00
0.000000000000000e+00 0.000000000000000e+00 0.000000000000000e+00
0.000000000000000e+00 0.000000000000000e+00 0.000000000000000e+00
0.000000000000000e+00 0.000000000000000e+00 0.000000000000000e+00
0.000000000000000e+00 0.000000000000000e+00 0.000000000000000e+00
0.000000000000000e+00 0.000000000000000e+00 0.000000000000000e+00
0.000000000000000e+00 0.000000000000000e+00 0.000000000000000e+00
0.000000000000000e+00 0.000000000000000e+00 0.000000000000000e+00
0.000000000000000e+00 0.000000000000000e+00 0.000000000000000e+00
0.000000000000000e+00 0.000000000000000e+00 0.000000000000000e+00
0.000000000000000e+00 0.000000000000000e+00 0.000000000000000e+00
0.000000000000000e+00 0.000000000000000e+00 0.000000000000000e+00
0.000000000000000e+00 0.000000000000000e+00 0.000000000000000e+00
0.000000000000000e+00 0.000000000000000e+00 0.000000000000000e+00
0.000000000000000e+00 0.000000000000000e+00 0.000000000000000e+00
0.000000000000000e+00 0.000000000000000e+00 0.000000000000000e+00
0.000000000000000e+00 0.000000000000000e+00 0.000000000000000e+00
0.000000000000000e+00 0.000000000000000e+00 0.000000000000000e+00
0.000000000000000e+00 0.000000000000000e+00 0.000000000000000e+00
0.000000000000000e+00 0.000000000000000e+00 0.000000000000000e+00
0.000000000000000e+00 0.000000000000000e+00 0.000000000000000e+00
0.000000000000000e+00 0.000000000000000e+00 0.000000000000000e+00
0.000000000000000e+00 0.000000000000000e+00 0.000000000000000e+00
0.000000000000000e+00 0.000000000000000e+00 0.000000000000000e+00
0.000000000000000e+00 0.000000000000000e+00 0.000000000000000e+00
0.000000000000000e+00 0.000000000000000e+00 0.000000000000000e+00
0.000000000000000e+00 0.000000000000000e+00 0.000000000000000e+00
0.000000000000000e+00 0.000000000000000e+00 0.000000000000000e+00
0.000000000000000e+00 0.000000000000000e+00 0.000000000000000e+00
0.000000000000000e+00 0.000000000000000e+00 0.000000000000000e+00
0.000000000000000e+00 0.000000000000000e+00 0.000000000000000e+00
0.000000000000000e+00 0.000000000000000e+00 0.000000000000000e+00
0.000000000000000e+00 0.000000000000000e+00 0.000000000000000e+00
0.000000000000000e+00 0.000000000000000e+00 0.000000000000000e+00
0.000000000000000e+00 0.000000000000000e+00 0.000000000000000e+00
0.000000000000000e+00 0.000000000000000e+00 0.000000000000000e+00
0.000000000000000e+00 0.000000000000000e+00 0.000000000000000e+00
0.000000000000000e+00 0.000000000000000e+00 0.000000000000000e+00
0.000000000000000e+00 0.000000000000000e+00 0.000000000000000e+00
0.000000000000000e+00 0.000000000000000e+00 0.000000000000000e+00
0.000000000000000e+00 0.000000000000000e+00 0.000000000000000e+00
0.000000000000000e+00 0.000000000000000e+00 0.000000000000000e+00
0.000000000000000e+00 0.000000000000000e+00 0.000000000000000e+00
0.000000000000000e+00 0.000000000000000e+00 0.000000000000000e+00
0.000000000000000e+00 0.000000000000000e+00 0.000000000000000e+00
0.000000000000000e+00 0.000000000000000e+00 0.000000000000000e+00
0.000000000000000e+00 0.000000000000000e+00 0.000000000000000e+00
0.000000000000000e+00 0.000000000000000e+00 0.000000000000000e+00
0.000000000000000e+00 0.000000000000000e+00 0.000000000000000e+00
0.000000000000000e+00 0.000000000000000e+00 0.000000000000000e+00
0.000000000000000e+00 0.000000000000000e+00 0.000000000000000e+00
0.000000000000000e+00 0.000000000000000e+00 0.000000000000000e+00
0.000000000000000e+00 0.000000000000000e+00 0.000000000000000e+00
0.000000000000000e+00 0.000000000000000e+00 0.000000000000000e+00
0.000000000000000e+00 0.000000000000000e+00 0.000000000000000e+00
0.000000000000000e+00 0.000000000000000e+00 0.000000000000000e+00
0.000000000000000e+00 0.000000000000000e+00 0.000000000000000e+00
0.000000000000000e+00 0.000000000000000e+00 0.000000000000000e+00
0.000000000000000e+00 0.000000000000000e+00 0.000000000000000e+00
0.000000000000000e+00 0.000000000000000e+00 0.000000000000000e+00
0.000000000000000e+00 0.000000000000000e+00 0.000000000000000e+00
0.000000000000000e+00 0.000000000000000e+00 0.000000000000000e+00
0.000000000000000e+00 0.000000000000000e+00 0.000000000000000e+00
0.000000000000000e+00 0.000000000000000e+00 0.000000000000000e+00
0.000000000000000e+00 0.000000000000000e+00 0.000000000000000e+00
0.000000000000000e+00 0.000000000000000e+00 0.000000000000000e+00
0.000000000000000e+00 0.000000000000000e+00 0.000000000000000e+00
0.000000000000000e+00 0.000000000000000e+00 0.000000000000000e+00
0.000000000000000e+00 0.000000000000000e+00 0.000000000000000e+00
0.000000000000000e+00 0.000000000000000e+00 0.000000000000000e+00
0.000000000000000e+00 0.000000000000000e+00 0.000000000000000e+00
0.000000000000000e+00 0.000000000000000e+00 0.000000000000000e+00
0.000000000000000e+00 0.000000000000000e+00 0.000000000000000e+00
0.000000000000000e+00 0.000000000000000e+00 0.000000000000000e+00
0.000000000000000e+00 0.000000000000000e+00 0.000000000000000e+00
0.000000000000000e+00 0.000000000000000e+00 0.000000000000000e+00
0.000000000000000e+00 0.000000000000000e+00 0.000000000000000e+00
0.000000000000000e+00 0.000000000000000e+00 0.000000000000000e+00
0.000000000000000e+00 0.000000000000000e+00 0.000000000000000e+00
0.000000000000000e+00 0.000000000000000e+00 0.000000000000000e+00
0.000000000000000e+00 0.000000000000000e+00 0.000000000000000e+00
0.000000000000000e+00 0.000000000000000e+00 0.000000000000000e+00
0.000000000000000e+00 0.000000000000000e+00 0.000000000000000e+00
0.000000000000000e+00 0.000000000000000e+00 0.000000000000000e+00
0.000000000000000e+00 0.000000000000000e+00 0.000000000000000e+00
0.000000000000000e+00 0.000000000000000e+00 0.000000000000000e+00
0.000000000000000e+00 0.000000000000000e+00 0.000000000000000e+00
0.000000000000000e+00 0.000000000000000e+00 0.000000000000000e+00
0.000000000000000e+00 0.000000000000000e+00 0.000000000000000e+00
0.000000000000000e+00 0.000000000000000e+00 0.000000000000000e+00
0.000000000000000e+00 0.000000000000000e+00 0.000000000000000e+00
0.000000000000000e+00 0.000000000000000e+00 0.000000000000000e+00
0.000000000000000e+00 0.000000000000000e+00 0.000000000000000e+00
0.000000000000000e+00 0.000000000000000e+00 0.000000000000000e+00
0.000000000000000e+00 0.000000000000000e+00 0.000000000000000e+00
0.000000000000000e+00 0.000000000000000e+00 0.000000000000000e+00
0.000000000000000e+00 0.000000000000000e+00 0.000000000000000e+00
0.000000000000000e+00 0.000000000000000e+00 0.000000000000000e+00
0.000000000000000e+00 0.000000000000000e+00 0.000000000000000e+00
0.000000000000000e+00 0.000000000000000e+00 0.000000000000000e+00
0.000000000000000e+00 0.000000000000000e+00 0.000000000000000e+00
0.000000000000000e+00 0.000000000000000e+00 0.000000000000000e+00
0.000000000000000e+00 0.000000000000000e+00 0.000000000000000e+00
0.000000000000000e+00 0.000000000000000e+00 0.000000000000000e+00
0.000000000000000e+00 0.000000000000000e+00 0.000000000000000e+00
0.000000000000000e+00 0.000000000000000e+00 0.000000000000000e+00
0.000000000000000e+00 0.000000000000000e+00 0.000000000000000e+00
0.000000000000000e+00 0.000000000000000e+00 0.000000000000000e+00
0.000000000000000e+00 0.000000000000000e+00 0.000000000000000e+00
0.000000000000000e+00 0.000000000000000e+00 0.000000000000000e+00
0.000000000000000e+00 0.000000000000000e+00 0.000000000000000e+00
0.000000000000000e+00 0.000000000000000e+00 0.000000000000000e+00
0.000000000000000e+00 0.000000000000000e+00 0.000000000000000e+00
0.000000000000000e+00 0.000000000000000e+00 0.000000000000000e+00
0.000000000000000e+00 0.000000000000000e+00 0.000000000000000e+00
0.000000000000000e+00 0.000000000000000e+00 0.000000000000000e+00
0.000000000000000e+00 0.000000000000000e+00 0.000000000000000e+00
0.000000000000000e+00 0.000000000000000e+00 0.000000000000000e+00
0.000000000000000e+00 0.000000000000000e+00 0.000000000000000e+00
0.000000000000000e+00 0.000000000000000e+00 0.000000000000000e+00
0.000000000000000e+00 0.000000000000000e+00 0.000000000000000e+00
0.000000000000000e+00 0.000000000000000e+00 0.000000000000000e+00
0.000000000000000e+00 0.000000000000000e+00 0.000000000000000e+00
0.000000000000000e+00 0.000000000000000e+00 0.000000000000000e+00
0.000000000000000e+00 0.000000000000000e+00 0.000000000000000e+00
0.000000000000000e+00 0.000000000000000e+00 0.000000000000000e+00
0.000000000000000e+00 0.000000000000000e+00 0.000000000000000e+00
0.000000000000000e+00 0.000000000000000e+00 0.000000000000000e+00
0.000000000000000e+00 0.000000000000000e+00 0.000000000000000e+00
0.000000000000000e+00 0.000000000000000e+00 0.000000000000000e+00
0.000000000000000e+00 0.000000000000000e+00 0.000000000000000e+00
0.000000000000000e+00 0.000000000000000e+00 0.000000000000000e+00
0.000000000000000e+00 0.000000000000000e+00 0.000000000000000e+00
0.000000000000000e+00 0.000000000000000e+00 0.000000000000000e+00
0.000000000000000e+00 0.000000000000000e+00 0.000000000000000e+00
0.000000000000000e+00 0.000000000000000e+00 0.000000000000000e+00
0.000000000000000e+00 0.000000000000000e+00 0.000000000000000e+00
0.000000000000000e+00 0.000000000000000e+00 0.000000000000000e+00
0.000000000000000e+00 0.000000000000000e+00 0.000000000000000e+00
0.000000000000000e+00 0.000000000000000e+00 0.000000000000000e+00
0.000000000000000e+00 0.000000000000000e+00 0.000000000000000e+00
0.000000000000000e+00 0.000000000000000e+00 0.000000000000000e+00
0.000000000000000e+00 0.000000000000000e+00 0.000000000000000e+00
0.000000000000000e+00 0.000000000000000e+00 0.000000000000000e+00
0.000000000000000e+00 0.000000000000000e+00 0.000000000000000e+00
0.000000000000000e+00 0.000000000000000e+00 0.000000000000000e+00
0.000000000000000e+00 0.000000000000000e+00 0.000000000000000e+00
0.000000000000000e+00 0.000000000000000e+00 0.000000000000000e+00
0.000000000000000e+00 0.000000000000000e+00 0.000000000000000e+00
0.000000000000000e+00 0.000000000000000e+00 0.000000000000000e+00
0.000000000000000e+00 0.000000000000000e+00 0.000000000000000e+00
0.000000000000000e+00 0.000000000000000e+00 0.000000000000000e+00
0.000000000000000e+00 0.000000000000000e+00 0.000000000000000e+00
0.000000000000000e+00 0.000000000000000e+00 0.000000000000000e+00
0.000000000000000e+00 0.000000000000000e+00 0.000000000000000e+00
0.000000000000000e+00 0.000000000000000e+00 0.000000000000000e+00
0.000000000000000e+00 0.000000000000000e+00 0.000000000000000e+00
0.000000000000000e+00 0.000000000000000e+00 0.000000000000000e+00
0.000000000000000e+00 0.000000000000000e+00 0.000000000000000e+00
0.000000000000000e+00 0.000000000000000e+00 0.000000000000000e+00
0.000000000000000e+00 0.000000000000000e+00 0.000000000000000e+00
0.000000000000000e+00 0.000000000000000e+00 0.000000000000000e+00
0.000000000000000e+00 0.000000000000000e+00 0.000000000000000e+00
0.000000000000000e+00 0.000000000000000e+00 0.000000000000000e+00
0.000000000000000e+00 0.000000000000000e+00 0.000000000000000e+00
0.000000000000000e+00 0.000000000000000e+00 0.000000000000000e+00
0.000000000000000e+00 0.000000000000000e+00 0.000000000000000e+00
0.000000000000000e+00 0.000000000000000e+00 0.000000000000000e+00
0.000000000000000e+00 0.000000000000000e+00 0.000000000000000e+00
0.000000000000000e+00 0.000000000000000e+00 0.000000000000000e+00
0.000000000000000e+00 0.000000000000000e+00 0.000000000000000e+00
0.000000000000000e+00 0.000000000000000e+00 0.000000000000000e+00
0.000000000000000e+00 0.000000000000000e+00 0.000000000000000e+00
0.000000000000000e+00 0.000000000000000e+00 0.000000000000000e+00
0.000000000000000e+00 0.000000000000000e+00 0.000000000000000e+00
0.000000000000000e+00 0.000000000000000e+00 0.000000000000000e+00
0.000000000000000e+00 0.000000000000000e+00 0.000000000000000e+00
0.000000000000000e+00 0.000000000000000e+00 0.000000000000000e+00
0.000000000000000e+00 0.000000000000000e+00 0.000000000000000e+00
0.000000000000000e+00 0.000000000000000e+00 0.000000000000000e+00
0.000000000000000e+00 0.000000000000000e+00 0.000000000000000e+00
0.000000000000000e+00 0.000000000000000e+00 0.000000000000000e+00
0.000000000000000e+00 0.000000000000000e+00 0.000000000000000e+00
0.000000000000000e+00 0.000000000000000e+00 0.000000000000000e+00
0.000000000000000e+00 0.000000000000000e+00 0.000000000000000e+00
0.000000000000000e+00 0.000000000000000e+00 0.000000000000000e+00
0.000000000000000e+00 0.000000000000000e+00 0.000000000000000e+00
0.000000000000000e+00 0.000000000000000e+00 0.000000000000000e+00
0.000000000000000e+00 0.000000000000000e+00 0.000000000000000e+00
0.000000000000000e+00 0.000000000000000e+00 0.000000000000000e+00
0.000000000000000e+00 0.000000000000000e+00 0.000000000000000e+00
0.000000000000000e+00 0.000000000000000e+00 0.000000000000000e+00
0.000000000000000e+00 0.000000000000000e+00 0.000000000000000e+00
0.000000000000000e+00 0.000000000000000e+00 0.000000000000000e+00
0.000000000000000e+00 0.000000000000000e+00 0.000000000000000e+00
0.000000000000000e+00 0.000000000000000e+00 0.000000000000000e+00
0.000000000000000e+00 0.000000000000000e+00 0.000000000000000e+00
0.000000000000000e+00 0.000000000000000e+00 0.000000000000000e+00
0.000000000000000e+00 0.000000000000000e+00 0.000000000000000e+00
0.000000000000000e+00 0.000000000000000e+00 0.000000000000000e+00
0.000000000000000e+00 0.000000000000000e+00 0.000000000000000e+00
0.000000000000000e+00 0.000000000000000e+00 0.000000000000000e+00
0.000000000000000e+00 0.000000000000000e+00 0.000000000000000e+00
0.000000000000000e+00 0.000000000000000e+00 0.000000000000000e+00
0.000000000000000e+00 0.000000000000000e+00 0.000000000000000e+00
0.000000000000000e+00 0.000000000000000e+00 0.000000000000000e+00
0.000000000000000e+00 0.000000000000000e+00 0.000000000000000e+00
0.000000000000000e+00 0.000000000000000e+00 0.000000000000000e+00
0.000000000000000e+00 0.000000000000000e+00 0.000000000000000e+00
0.000000000000000e+00 0.000000000000000e+00 0.000000000000000e+00
0.000000000000000e+00 0.000000000000000e+00 0.000000000000000e+00
0.000000000000000e+00 0.000000000000000e+00 0.000000000000000e+00
0.000000000000000e+00 0.000000000000000e+00 0.000000000000000e+00
0.000000000000000e+00 0.000000000000000e+00 0.000000000000000e+00
0.000000000000000e+00 0.000000000000000e+00 0.000000000000000e+00
0.000000000000000e+00 0.000000000000000e+00 0.000000000000000e+00
0.000000000000000e+00 0.000000000000000e+00 0.000000000000000e+00
0.000000000000000e+00 0.000000000000000e+00 0.000000000000000e+00
0.000000000000000e+00 0.000000000000000e+00 0.000000000000000e+00
0.000000000000000e+00 0.000000000000000e+00 0.000000000000000e+00
0.000000000000000e+00 0.000000000000000e+00 0.000000000000000e+00
0.000000000000000e+00 0.000000000000000e+00 0.000000000000000e+00
0.000000000000000e+00 0.000000000000000e+00 0.000000000000000e+00
0.000000000000000e+00 0.000000000000000e+00 0.000000000000000e+00
0.000000000000000e+00 0.000000000000000e+00 0.000000000000000e+00
0.000000000000000e+00 0.000000000000000e+00 0.000000000000000e+00
0.000000000000000e+00 0.000000000000000e+00 0.000000000000000e+00
0.000000000000000e+00 0.000000000000000e+00 0.000000000000000e+00
0.000000000000000e+00 0.000000000000000e+00 0.000000000000000e+00
0.000000000000000e+00 0.000000000000000e+00 0.000000000000000e+00
0.000000000000000e+00 0.000000000000000e+00 0.000000000000000e+00
0.000000000000000e+00 0.000000000000000e+00 0.000000000000000e+00
0.000000000000000e+00 0.000000000000000e+00 0.000000000000000e+00
0.000000000000000e+00 0.000000000000000e+00 0.000000000000000e+00
0.000000000000000e+00 0.000000000000000e+00 0.000000000000000e+00
0.000000000000000e+00 0.000000000000000e+00 0.000000000000000e+00
0.000000000000000e+00 0.000000000000000e+00 0.000000000000000e+00
0.000000000000000e+00 0.000000000000000e+00 0.000000000000000e+00
0.000000000000000e+00 0.000000000000000e+00 0.000000000000000e+00
0.000000000000000e+00 0.000000000000000e+00 0.000000000000000e+00
0.000000000000000e+00 0.000000000000000e+00 0.000000000000000e+00
0.000000000000000e+00 0.000000000000000e+00 0.000000000000000e+00
0.000000000000000e+00 0.000000000000000e+00 0.000000000000000e+00
0.000000000000000e+00 0.000000000000000e+00 0.000000000000000e+00
0.000000000000000e+00 0.000000000000000e+00 0.000000000000000e+00
0.000000000000000e+00 0.000000000000000e+00 0.000000000000000e+00
0.000000000000000e+00 0.000000000000000e+00 0.000000000000000e+00
0.000000000000000e+00 0.000000000000000e+00 0.000000000000000e+00
0.000000000000000e+00 0.000000000000000e+00 0.000000000000000e+00
0.000000000000000e+00 0.000000000000000e+00 0.000000000000000e+00
0.000000000000000e+00 0.000000000000000e+00 0.000000000000000e+00
0.000000000000000e+00 0.000000000000000e+00 0.000000000000000e+00
0.000000000000000e+00 0.000000000000000e+00 0.000000000000000e+00
0.000000000000000e+00 0.000000000000000e+00 0.000000000000000e+00
0.000000000000000e+00 0.000000000000000e+00 0.000000000000000e+00
0.000000000000000e+00 0.000000000000000e+00 0.000000000000000e+00
0.000000000000000e+00 0.000000000000000e+00 0.000000000000000e+00
0.000000000000000e+00 0.000000000000000e+00 0.000000000000000e+00
0.000000000000000e+00 0.000000000000000e+00 0.000000000000000e+00
0.000000000000000e+00 0.000000000000000e+00 0.000000000000000e+00
0.000000000000000e+00 0.000000000000000e+00 0.000000000000000e+00
0.000000000000000e+00 0.000000000000000e+00 0.000000000000000e+00
0.000000000000000e+00 0.000000000000000e+00 0.000000000000000e+00
0.000000000000000e+00 0.000000000000000e+00 0.000000000000000e+00
0.000000000000000e+00 0.000000000000000e+00 0.000000000000000e+00
0.000000000000000e+00 0.000000000000000e+00 0.000000000000000e+00
0.000000000000000e+00 0.000000000000000e+00 0.000000000000000e+00
0.000000000000000e+00 0.000000000000000e+00 0.000000000000000e+00
0.000000000000000e+00 0.000000000000000e+00 0.000000000000000e+00
0.000000000000000e+00 0.000000000000000e+00 0.000000000000000e+00
0.000000000000000e+00 0.000000000000000e+00 0.000000000000000e+00
0.000000000000000e+00 0.000000000000000e+00 0.000000000000000e+00
0.000000000000000e+00 0.000000000000000e+00 0.000000000000000e+00
0.000000000000000e+00 0.000000000000000e+00 0.000000000000000e+00
0.000000000000000e+00 0.000000000000000e+00 0.000000000000000e+00
0.000000000000000e+00 0.000000000000000e+00 0.000000000000000e+00
0.000000000000000e+00 0.000000000000000e+00 0.000000000000000e+00
0.000000000000000e+00 0.000000000000000e+00 0.000000000000000e+00
0.000000000000000e+00 0.000000000000000e+00 0.000000000000000e+00
0.000000000000000e+00 0.000000000000000e+00 0.000000000000000e+00
0.000000000000000e+00 0.000000000000000e+00 0.000000000000000e+00
0.000000000000000e+00 0.000000000000000e+00 0.000000000000000e+00
0.000000000000000e+00 0.000000000000000e+00 0.000000000000000e+00
0.000000000000000e+00 0.000000000000000e+00 0.000000000000000e+00
0.000000000000000e+00 0.000000000000000e+00 0.000000000000000e+00
0.000000000000000e+00 0.000000000000000e+00 0.000000000000000e+00
0.000000000000000e+00 0.000000000000000e+00 0.000000000000000e+00
0.000000000000000e+00 0.000000000000000e+00 0.000000000000000e+00
0.000000000000000e+00 0.000000000000000e+00 0.000000000000000e+00
0.000000000000000e+00 0.000000000000000e+00 0.000000000000000e+00
0.000000000000000e+00 0.000000000000000e+00 0.000000000000000e+00
0.000000000000000e+00 0.000000000000000e+00 0.000000000000000e+00
0.000000000000000e+00 0.000000000000000e+00 0.000000000000000e+00
0.000000000000000e+00 0.000000000000000e+00 0.000000000000000e+00
0.000000000000000e+00 0.000000000000000e+00 0.000000000000000e+00
0.000000000000000e+00 0.000000000000000e+00 0.000000000000000e+00
0.000000000000000e+00 0.000000000000000e+00 0.000000000000000e+00
0.000000000000000e+00 0.000000000000000e+00 0.000000000000000e+00
0.000000000000000e+00 0.000000000000000e+00 0.000000000000000e+00
0.000000000000000e+00 0.000000000000000e+00 0.000000000000000e+00
0.000000000000000e+00 0.000000000000000e+00 0.000000000000000e+00
0.000000000000000e+00 0.000000000000000e+00 0.000000000000000e+00
0.000000000000000e+00 0.000000000000000e+00 0.000000000000000e+00
0.000000000000000e+00 0.000000000000000e+00 0.000000000000000e+00
0.000000000000000e+00 0.000000000000000e+00 0.000000000000000e+00
0.000000000000000e+00 0.000000000000000e+00 0.000000000000000e+00
0.000000000000000e+00 0.000000000000000e+00 0.000000000000000e+00
0.000000000000000e+00 0.000000000000000e+00 0.000000000000000e+00
0.000000000000000e+00 0.000000000000000e+00 0.000000000000000e+00
0.000000000000000e+00 0.000000000000000e+00 0.000000000000000e+00
0.000000000000000e+00 0.000000000000000e+00 0.000000000000000e+00
0.000000000000000e+00 0.000000000000000e+00 0.000000000000000e+00
0.000000000000000e+00 0.000000000000000e+00 0.000000000000000e+00
0.000000000000000e+00 0.000000000000000e+00 0.000000000000000e+00
0.000000000000000e+00 0.000000000000000e+00 0.000000000000000e+00
0.000000000000000e+00 0.000000000000000e+00 0.000000000000000e+00
0.000000000000000e+00 0.000000000000000e+00 0.000000000000000e+00
0.000000000000000e+00 0.000000000000000e+00 0.000000000000000e+00
0.000000000000000e+00 0.000000000000000e+00 0.000000000000000e+00
0.000000000000000e+00 0.000000000000000e+00 0.000000000000000e+00
0.000000000000000e+00 0.000000000000000e+00 0.000000000000000e+00
0.000000000000000e+00 0.000000000000000e+00 0.000000000000000e+00
0.000000000000000e+00 0.000000000000000e+00 0.000000000000000e+00
0.000000000000000e+00 0.000000000000000e+00 0.000000000000000e+00
0.000000000000000e+00 0.000000000000000e+00 0.000000000000000e+00
0.000000000000000e+00 0.000000000000000e+00 0.000000000000000e+00
0.000000000000000e+00 0.000000000000000e+00 0.000000000000000e+00
0.000000000000000e+00 0.000000000000000e+00 0.000000000000000e+00
0.000000000000000e+00 0.000000000000000e+00 0.000000000000000e+00
0.000000000000000e+00 0.000000000000000e+00 0.000000000000000e+00
0.000000000000000e+00 0.000000000000000e+00 0.000000000000000e+00
0.000000000000000e+00 0.000000000000000e+00 0.000000000000000e+00
0.000000000000000e+00 0.000000000000000e+00 0.000000000000000e+00
0.000000000000000e+00 0.000000000000000e+00 0.000000000000000e+00
0.000000000000000e+00 0.000000000000000e+00 0.000000000000000e+00
0.000000000000000e+00 0.000000000000000e+00 0.000000000000000e+00
0.000000000000000e+00 0.000000000000000e+00 0.000000000000000e+00
0.000000000000000e+00 0.000000000000000e+00 0.000000000000000e+00
0.000000000000000e+00 0.000000000000000e+00 0.000000000000000e+00
0.000000000000000e+00 0.000000000000000e+00 0.000000000000000e+00
0.000000000000000e+00 0.000000000000000e+00 0.000000000000000e+00
0.000000000000000e+00 0.000000000000000e+00 0.000000000000000e+00
0.000000000000000e+00 0.000000000000000e+00 0.000000000000000e+00
0.000000000000000e+00 0.000000000000000e+00 0.000000000000000e+00
0.000000000000000e+00 0.000000000000000e+00 0.000000000000000e+00
0.000000000000000e+00 0.000000000000000e+00 0.000000000000000e+00
0.000000000000000e+00 0.000000000000000e+00 0.000000000000000e+00
0.000000000000000e+00 0.000000000000000e+00 0.000000000000000e+00
0.000000000000000e+00 0.000000000000000e+00 0.000000000000000e+00
0.000000000000000e+00 0.000000000000000e+00 0.000000000000000e+00
0.000000000000000e+00 0.000000000000000e+00 0.000000000000000e+00
0.000000000000000e+00 0.000000000000000e+00 0.000000000000000e+00
0.000000000000000e+00 0.000000000000000e+00 0.000000000000000e+00
0.000000000000000e+00 0.000000000000000e+00 0.000000000000000e+00
0.000000000000000e+00 0.000000000000000e+00 0.000000000000000e+00
0.000000000000000e+00 0.000000000000000e+00 0.000000000000000e+00
0.000000000000000e+00 0.000000000000000e+00 0.000000000000000e+00
0.000000000000000e+00 0.000000000000000e+00 0.000000000000000e+00
0.000000000000000e+00 0.000000000000000e+00 0.000000000000000e+00
0.000000000000000e+00 0.000000000000000e+00 0.000000000000000e+00
0.000000000000000e+00 0.000000000000000e+00 0.000000000000000e+00
0.000000000000000e+00 0.000000000000000e+00 0.000000000000000e+00
0.000000000000000e+00 0.000000000000000e+00 0.000000000000000e+00
0.000000000000000e+00 0.000000000000000e+00 0.000000000000000e+00
0.000000000000000e+00 0.000000000000000e+00 0.000000000000000e+00
0.000000000000000e+00 0.000000000000000e+00 0.000000000000000e+00
0.000000000000000e+00 0.000000000000000e+00 0.000000000000000e+00
0.000000000000000e+00 0.000000000000000e+00 0.000000000000000e+00
0.000000000000000e+00 0.000000000000000e+00 0.000000000000000e+00
0.000000000000000e+00 0.000000000000000e+00 0.000000000000000e+00
0.000000000000000e+00 0.000000000000000e+00 0.000000000000000e+00
0.000000000000000e+00 0.000000000000000e+00 0.000000000000000e+00
0.000000000000000e+00 0.000000000000000e+00 0.000000000000000e+00
0.000000000000000e+00 0.000000000000000e+00 0.000000000000000e+00
0.000000000000000e+00 0.000000000000000e+00 0.000000000000000e+00
0.000000000000000e+00 0.000000000000000e+00 0.000000000000000e+00
0.000000000000000e+00 0.000000000000000e+00 0.000000000000000e+00
0.000000000000000e+00 0.000000000000000e+00 0.000000000000000e+00
0.000000000000000e+00 0.000000000000000e+00 0.000000000000000e+00
0.000000000000000e+00 0.000000000000000e+00 0.000000000000000e+00
0.000000000000000e+00 0.000000000000000e+00 0.000000000000000e+00
0.000000000000000e+00 0.000000000000000e+00 0.000000000000000e+00
0.000000000000000e+00 0.000000000000000e+00 0.000000000000000e+00
0.000000000000000e+00 0.000000000000000e+00 0.000000000000000e+00
0.000000000000000e+00 0.000000000000000e+00 0.000000000000000e+00
0.000000000000000e+00 0.000000000000000e+00 0.000000000000000e+00
0.000000000000000e+00 0.000000000000000e+00 0.000000000000000e+00
0.000000000000000e+00 0.000000000000000e+00 0.000000000000000e+00
0.000000000000000e+00 0.000000000000000e+00 0.000000000000000e+00
0.000000000000000e+00 0.000000000000000e+00 0.000000000000000e+00
0.000000000000000e+00 0.000000000000000e+00 0.000000000000000e+00
0.000000000000000e+00 0.000000000000000e+00 0.000000000000000e+00
0.000000000000000e+00 0.000000000000000e+00 0.000000000000000e+00
0.000000000000000e+00 0.000000000000000e+00 0.000000000000000e+00
0.000000000000000e+00 0.000000000000000e+00 0.000000000000000e+00
0.000000000000000e+00 0.000000000000000e+00 0.000000000000000e+00
0.000000000000000e+00 0.000000000000000e+00 0.000000000000000e+00
0.000000000000000e+00 0.000000000000000e+00 0.000000000000000e+00
0.000000000000000e+00 0.000000000000000e+00 0.000000000000000e+00
0.000000000000000e+00 0.000000000000000e+00 0.000000000000000e+00
0.000000000000000e+00 0.000000000000000e+00 0.000000000000000e+00
0.000000000000000e+00 0.000000000000000e+00 0.000000000000000e+00
0.000000000000000e+00 0.000000000000000e+00 0.000000000000000e+00
0.000000000000000e+00 0.000000000000000e+00 0.000000000000000e+00
0.000000000000000e+00 0.000000000000000e+00 0.000000000000000e+00
0.000000000000000e+00 0.000000000000000e+00 0.000000000000000e+00
0.000000000000000e+00 0.000000000000000e+00 0.000000000000000e+00
0.000000000000000e+00 0.000000000000000e+00 0.000000000000000e+00
0.000000000000000e+00 0.000000000000000e+00 0.000000000000000e+00
0.000000000000000e+00 0.000000000000000e+00 0.000000000000000e+00
0.000000000000000e+00 0.000000000000000e+00 0.000000000000000e+00
0.000000000000000e+00 0.000000000000000e+00 0.000000000000000e+00
0.000000000000000e+00 0.000000000000000e+00 0.000000000000000e+00
0.000000000000000e+00 0.000000000000000e+00 0.000000000000000e+00
0.000000000000000e+00 0.000000000000000e+00 0.000000000000000e+00
0.000000000000000e+00 0.000000000000000e+00 0.000000000000000e+00
0.000000000000000e+00 0.000000000000000e+00 0.000000000000000e+00
0.000000000000000e+00 0.000000000000000e+00 0.000000000000000e+00
0.000000000000000e+00 0.000000000000000e+00 0.000000000000000e+00
0.000000000000000e+00 0.000000000000000e+00 0.000000000000000e+00
0.000000000000000e+00 0.000000000000000e+00 0.000000000000000e+00
0.000000000000000e+00 0.000000000000000e+00 0.000000000000000e+00
0.000000000000000e+00 0.000000000000000e+00 0.000000000000000e+00
0.000000000000000e+00 0.000000000000000e+00 0.000000000000000e+00
0.000000000000000e+00 0.000000000000000e+00 0.000000000000000e+00
0.000000000000000e+00 0.000000000000000e+00 0.000000000000000e+00
0.000000000000000e+00 0.000000000000000e+00 0.000000000000000e+00
0.000000000000000e+00 0.000000000000000e+00 0.000000000000000e+00
0.000000000000000e+00 0.000000000000000e+00 0.000000000000000e+00
0.000000000000000e+00 0.000000000000000e+00 0.000000000000000e+00
0.000000000000000e+00 0.000000000000000e+00 0.000000000000000e+00
0.000000000000000e+00 0.000000000000000e+00 0.000000000000000e+00
0.000000000000000e+00 0.000000000000000e+00 0.000000000000000e+00
0.000000000000000e+00 0.000000000000000e+00 0.000000000000000e+00
0.000000000000000e+00 0.000000000000000e+00 0.000000000000000e+00
0.000000000000000e+00 0.000000000000000e+00 0.000000000000000e+00
0.000000000000000e+00 0.000000000000000e+00 0.000000000000000e+00
0.000000000000000e+00 0.000000000000000e+00 0.000000000000000e+00
0.000000000000000e+00 0.000000000000000e+00 0.000000000000000e+00
0.000000000000000e+00 0.000000000000000e+00 0.000000000000000e+00
0.000000000000000e+00 0.000000000000000e+00 0.000000000000000e+00
0.000000000000000e+00 0.000000000000000e+00 0.000000000000000e+00
0.000000000000000e+00 0.000000000000000e+00 0.000000000000000e+00
0.000000000000000e+00 0.000000000000000e+00 0.000000000000000e+00
0.000000000000000e+00 0.000000000000000e+00 0.000000000000000e+00
0.000000000000000e+00 0.000000000000000e+00 0.000000000000000e+00
0.000000000000000e+00 0.000000000000000e+00 0.000000000000000e+00
0.000000000000000e+00 0.000000000000000e+00 0.000000000000000e+00
0.000000000000000e+00 0.000000000000000e+00 0.000000000000000e+00
0.000000000000000e+00 0.000000000000000e+00 0.000000000000000e+00
0.000000000000000e+00 0.000000000000000e+00 0.000000000000000e+00
0.000000000000000e+00 0.000000000000000e+00 0.000000000000000e+00
0.000000000000000e+00 0.000000000000000e+00 0.000000000000000e+00
0.000000000000000e+00 0.000000000000000e+00 0.000000000000000e+00
0.000000000000000e+00 0.000000000000000e+00 0.000000000000000e+00
0.000000000000000e+00 0.000000000000000e+00 0.000000000000000e+00
0.000000000000000e+00 0.000000000000000e+00 0.000000000000000e+00
0.000000000000000e+00 0.000000000000000e+00 0.000000000000000e+00
0.000000000000000e+00 0.000000000000000e+00 0.000000000000000e+00
0.000000000000000e+00 0.000000000000000e+00 0.000000000000000e+00
0.000000000000000e+00 0.000000000000000e+00 0.000000000000000e+00
0.000000000000000e+00 0.000000000000000e+00 0.000000000000000e+00
0.000000000000000e+00 0.000000000000000e+00 0.000000000000000e+00
0.000000000000000e+00 0.000000000000000e+00 0.000000000000000e+00
0.000000000000000e+00 0.000000000000000e+00 0.000000000000000e+00
0.000000000000000e+00 0.000000000000000e+00 0.000000000000000e+00
0.000000000000000e+00 0.000000000000000e+00 0.000000000000000e+00
0.000000000000000e+00 0.000000000000000e+00 0.000000000000000e+00
0.000000000000000e+00 0.000000000000000e+00 0.000000000000000e+00
0.000000000000000e+00 0.000000000000000e+00 0.000000000000000e+00
0.000000000000000e+00 0.000000000000000e+00 0.000000000000000e+00
0.000000000000000e+00 0.000000000000000e+00 0.000000000000000e+00
0.000000000000000e+00 0.000000000000000e+00 0.000000000000000e+00
0.000000000000000e+00 0.000000000000000e+00 0.000000000000000e+00
0.000000000000000e+00 0.000000000000000e+00 0.000000000000000e+00
0.000000000000000e+00 0.000000000000000e+00 0.000000000000000e+00
0.000000000000000e+00 0.000000000000000e+00 0.000000000000000e+00
0.000000000000000e+00 0.000000000000000e+00 0.000000000000000e+00
0.000000000000000e+00 0.000000000000000e+00 0.000000000000000e+00
0.000000000000000e+00 0.000000000000000e+00 0.000000000000000e+00
0.000000000000000e+00 0.000000000000000e+00 0.000000000000000e+00
0.000000000000000e+00 0.000000000000000e+00 0.000000000000000e+00
0.000000000000000e+00 0.000000000000000e+00 0.000000000000000e+00
0.000000000000000e+00 0.000000000000000e+00 0.000000000000000e+00
0.000000000000000e+00 0.000000000000000e+00 0.000000000000000e+00
0.000000000000000e+00 0.000000000000000e+00 0.000000000000000e+00
0.000000000000000e+00 0.000000000000000e+00 0.000000000000000e+00
0.000000000000000e+00 0.000000000000000e+00 0.000000000000000e+00
0.000000000000000e+00 0.000000000000000e+00 0.000000000000000e+00
0.000000000000000e+00 0.000000000000000e+00 0.000000000000000e+00
0.000000000000000e+00 0.000000000000000e+00 0.000000000000000e+00
0.000000000000000e+00 0.000000000000000e+00 0.000000000000000e+00
0.000000000000000e+00 0.000000000000000e+00 0.000000000000000e+00
0.000000000000000e+00 0.000000000000000e+00 0.000000000000000e+00
0.000000000000000e+00 0.000000000000000e+00 0.000000000000000e+00
0.000000000000000e+00 0.000000000000000e+00 0.000000000000000e+00
0.000000000000000e+00 0.000000000000000e+00 0.000000000000000e+00
0.000000000000000e+00 0.000000000000000e+00 0.000000000000000e+00
0.000000000000000e+00 0.000000000000000e+00 0.000000000000000e+00
0.000000000000000e+00 0.000000000000000e+00 0.000000000000000e+00
0.000000000000000e+00 0.000000000000000e+00 0.000000000000000e+00
0.000000000000000e+00 0.000000000000000e+00 0.000000000000000e+00
0.000000000000000e+00 0.000000000000000e+00 0.000000000000000e+00
0.000000000000000e+00 0.000000000000000e+00 0.000000000000000e+00
0.000000000000000e+00 0.000000000000000e+00 0.000000000000000e+00
0.000000000000000e+00 0.000000000000000e+00 0.000000000000000e+00
0.000000000000000e+00 0.000000000000000e+00 0.000000000000000e+00
0.000000000000000e+00 0.000000000000000e+00 0.000000000000000e+00
0.000000000000000e+00 0.000000000000000e+00 0.000000000000000e+00
0.000000000000000e+00 0.000000000000000e+00 0.000000000000000e+00
0.000000000000000e+00 0.000000000000000e+00 0.000000000000000e+00
0.000000000000000e+00 0.000000000000000e+00 0.000000000000000e+00
0.000000000000000e+00 0.000000000000000e+00 0.000000000000000e+00
0.000000000000000e+00 0.000000000000000e+00 0.000000000000000e+00
0.000000000000000e+00 0.000000000000000e+00 0.000000000000000e+00
0.000000000000000e+00 0.000000000000000e+00 0.000000000000000e+00
0.000000000000000e+00 0.000000000000000e+00 0.000000000000000e+00
0.000000000000000e+00 0.000000000000000e+00 0.000000000000000e+00
0.000000000000000e+00 0.000000000000000e+00 0.000000000000000e+00
0.000000000000000e+00 0.000000000000000e+00 0.000000000000000e+00
0.000000000000000e+00 0.000000000000000e+00 0.000000000000000e+00
0.000000000000000e+00 0.000000000000000e+00 0.000000000000000e+00
0.000000000000000e+00 0.000000000000000e+00 0.000000000000000e+00
0.000000000000000e+00 0.000000000000000e+00 0.000000000000000e+00
0.000000000000000e+00 0.000000000000000e+00 0.000000000000000e+00
0.000000000000000e+00 0.000000000000000e+00 0.000000000000000e+00
0.000000000000000e+00 0.000000000000000e+00 0.000000000000000e+00
0.000000000000000e+00 0.000000000000000e+00 0.000000000000000e+00
0.000000000000000e+00 0.000000000000000e+00 0.000000000000000e+00
0.000000000000000e+00 0.000000000000000e+00 0.000000000000000e+00
0.000000000000000e+00 0.000000000000000e+00 0.000000000000000e+00
0.000000000000000e+00 0.000000000000000e+00 0.000000000000000e+00
0.000000000000000e+00 0.000000000000000e+00 0.000000000000000e+00
0.000000000000000e+00 0.000000000000000e+00 0.000000000000000e+00
0.000000000000000e+00 0.000000000000000e+00 0.000000000000000e+00
0.000000000000000e+00 0.000000000000000e+00 0.000000000000000e+00
0.000000000000000e+00 0.000000000000000e+00 0.000000000000000e+00
0.000000000000000e+00 0.000000000000000e+00 0.000000000000000e+00
0.000000000000000e+00 0.000000000000000e+00 0.000000000000000e+00
0.000000000000000e+00 0.000000000000000e+00 0.000000000000000e+00
0.000000000000000e+00 0.000000000000000e+00 0.000000000000000e+00
0.000000000000000e+00 0.000000000000000e+00 0.000000000000000e+00
0.000000000000000e+00 0.000000000000000e+00 0.000000000000000e+00
0.000000000000000e+00 0.000000000000000e+00 0.000000000000000e+00
0.000000000000000e+00 0.000000000000000e+00 0.000000000000000e+00
0.000000000000000e+00 0.000000000000000e+00 0.000000000000000e+00
0.000000000000000e+00 0.000000000000000e+00 0.000000000000000e+00
0.000000000000000e+00 0.000000000000000e+00 0.000000000000000e+00
0.000000000000000e+00 0.000000000000000e+00 0.000000000000000e+00
0.000000000000000e+00 0.000000000000000e+00 0.000000000000000e+00
0.000000000000000e+00 0.000000000000000e+00 0.000000000000000e+00
0.000000000000000e+00 0.000000000000000e+00 0.000000000000000e+00
0.000000000000000e+00 0.000000000000000e+00 0.000000000000000e+00
0.000000000000000e+00 0.000000000000000e+00 0.000000000000000e+00
0.000000000000000e+00 0.000000000000000e+00 0.000000000000000e+00
0.000000000000000e+00 0.000000000000000e+00 0.000000000000000e+00
0.000000000000000e+00 0.000000000000000e+00 0.000000000000000e+00
0.000000000000000e+00 0.000000000000000e+00 0.000000000000000e+00
0.000000000000000e+00 0.000000000000000e+00 0.000000000000000e+00
0.000000000000000e+00 0.000000000000000e+00 0.000000000000000e+00
0.000000000000000e+00 0.000000000000000e+00 0.000000000000000e+00
0.000000000000000e+00 0.000000000000000e+00 0.000000000000000e+00
0.000000000000000e+00 0.000000000000000e+00 0.000000000000000e+00
0.000000000000000e+00 0.000000000000000e+00 0.000000000000000e+00
0.000000000000000e+00 0.000000000000000e+00 0.000000000000000e+00
0.000000000000000e+00 0.000000000000000e+00 0.000000000000000e+00
0.000000000000000e+00 0.000000000000000e+00 0.000000000000000e+00
0.000000000000000e+00 0.000000000000000e+00 0.000000000000000e+00
0.000000000000000e+00 0.000000000000000e+00 0.000000000000000e+00
0.000000000000000e+00 0.000000000000000e+00 0.000000000000000e+00
0.000000000000000e+00 0.000000000000000e+00 0.000000000000000e+00
0.000000000000000e+00 0.000000000000000e+00 0.000000000000000e+00
0.000000000000000e+00 0.000000000000000e+00 0.000000000000000e+00
0.000000000000000e+00 0.000000000000000e+00 0.000000000000000e+00
0.000000000000000e+00 0.000000000000000e+00 0.000000000000000e+00
0.000000000000000e+00 0.000000000000000e+00 0.000000000000000e+00
0.000000000000000e+00 0.000000000000000e+00 0.000000000000000e+00
0.000000000000000e+00 0.000000000000000e+00 0.000000000000000e+00
0.000000000000000e+00 0.000000000000000e+00 0.000000000000000e+00
0.000000000000000e+00 0.000000000000000e+00 0.000000000000000e+00
0.000000000000000e+00 0.000000000000000e+00 0.000000000000000e+00
0.000000000000000e+00 0.000000000000000e+00 0.000000000000000e+00
0.000000000000000e+00 0.000000000000000e+00 0.000000000000000e+00
0.000000000000000e+00 0.000000000000000e+00 0.000000000000000e+00
0.000000000000000e+00 0.000000000000000e+00 0.000000000000000e+00
0.000000000000000e+00 0.000000000000000e+00 0.000000000000000e+00
0.000000000000000e+00 0.000000000000000e+00 0.000000000000000e+00
0.000000000000000e+00 0.000000000000000e+00 0.000000000000000e+00
0.000000000000000e+00 0.000000000000000e+00 0.000000000000000e+00
0.000000000000000e+00 0.000000000000000e+00 0.000000000000000e+00
0.000000000000000e+00 0.000000000000000e+00 0.000000000000000e+00
0.000000000000000e+00 0.000000000000000e+00 0.000000000000000e+00
0.000000000000000e+00 0.000000000000000e+00 0.000000000000000e+00
0.000000000000000e+00 0.000000000000000e+00 0.000000000000000e+00
0.000000000000000e+00 0.000000000000000e+00 0.000000000000000e+00
0.000000000000000e+00 0.000000000000000e+00 0.000000000000000e+00
0.000000000000000e+00 0.000000000000000e+00 0.000000000000000e+00
0.000000000000000e+00 0.000000000000000e+00 0.000000000000000e+00
0.000000000000000e+00 0.000000000000000e+00 0.000000000000000e+00
0.000000000000000e+00 0.000000000000000e+00 0.000000000000000e+00
0.000000000000000e+00 0.000000000000000e+00 0.000000000000000e+00
0.000000000000000e+00 0.000000000000000e+00 0.000000000000000e+00
0.000000000000000e+00 0.000000000000000e+00 0.000000000000000e+00
0.000000000000000e+00 0.000000000000000e+00 0.000000000000000e+00
0.000000000000000e+00 0.000000000000000e+00 0.000000000000000e+00
0.000000000000000e+00 0.000000000000000e+00 0.000000000000000e+00
0.000000000000000e+00 0.000000000000000e+00 0.000000000000000e+00
0.000000000000000e+00 0.000000000000000e+00 0.000000000000000e+00
0.000000000000000e+00 0.000000000000000e+00 0.000000000000000e+00
0.000000000000000e+00 0.000000000000000e+00 0.000000000000000e+00
0.000000000000000e+00 0.000000000000000e+00 0.000000000000000e+00
0.000000000000000e+00 0.000000000000000e+00 0.000000000000000e+00
0.000000000000000e+00 0.000000000000000e+00 0.000000000000000e+00
0.000000000000000e+00 0.000000000000000e+00 0.000000000000000e+00
0.000000000000000e+00 0.000000000000000e+00 0.000000000000000e+00
0.000000000000000e+00 0.000000000000000e+00 0.000000000000000e+00
0.000000000000000e+00 0.000000000000000e+00 0.000000000000000e+00
0.000000000000000e+00 0.000000000000000e+00 0.000000000000000e+00
0.000000000000000e+00 0.000000000000000e+00 0.000000000000000e+00
0.000000000000000e+00 0.000000000000000e+00 0.000000000000000e+00
0.000000000000000e+00 0.000000000000000e+00 0.000000000000000e+00
0.000000000000000e+00 0.000000000000000e+00 0.000000000000000e+00
0.000000000000000e+00 0.000000000000000e+00 0.000000000000000e+00
0.000000000000000e+00 0.000000000000000e+00 0.000000000000000e+00
0.000000000000000e+00 0.000000000000000e+00 0.000000000000000e+00
0.000000000000000e+00 0.000000000000000e+00 0.000000000000000e+00
0.000000000000000e+00 0.000000000000000e+00 0.000000000000000e+00
0.000000000000000e+00 0.000000000000000e+00 0.000000000000000e+00
0.000000000000000e+00 0.000000000000000e+00 0.000000000000000e+00
0.000000000000000e+00 0.000000000000000e+00 0.000000000000000e+00
0.000000000000000e+00 0.000000000000000e+00 0.000000000000000e+00
0.000000000000000e+00 0.000000000000000e+00 0.000000000000000e+00
0.000000000000000e+00 0.000000000000000e+00 0.000000000000000e+00
0.000000000000000e+00 0.000000000000000e+00 0.000000000000000e+00
0.000000000000000e+00 0.000000000000000e+00 0.000000000000000e+00
0.000000000000000e+00 0.000000000000000e+00 0.000000000000000e+00
0.000000000000000e+00 0.000000000000000e+00 0.000000000000000e+00
0.000000000000000e+00 0.000000000000000e+00 0.000000000000000e+00
0.000000000000000e+00 0.000000000000000e+00 0.000000000000000e+00
0.000000000000000e+00 0.000000000000000e+00 0.000000000000000e+00
0.000000000000000e+00 0.000000000000000e+00 0.000000000000000e+00
0.000000000000000e+00 0.000000000000000e+00 0.000000000000000e+00
0.000000000000000e+00 0.000000000000000e+00 0.000000000000000e+00
0.000000000000000e+00 0.000000000000000e+00 0.000000000000000e+00
0.000000000000000e+00 0.000000000000000e+00 0.000000000000000e+00
0.000000000000000e+00 0.000000000000000e+00 0.000000000000000e+00
0.000000000000000e+00 0.000000000000000e+00 0.000000000000000e+00
0.000000000000000e+00 0.000000000000000e+00 0.000000000000000e+00
0.000000000000000e+00 0.000000000000000e+00 0.000000000000000e+00
0.000000000000000e+00 0.000000000000000e+00 0.000000000000000e+00
0.000000000000000e+00 0.000000000000000e+00 0.000000000000000e+00
0.000000000000000e+00 0.000000000000000e+00 0.000000000000000e+00
0.000000000000000e+00 0.000000000000000e+00 0.000000000000000e+00
0.000000000000000e+00 0.000000000000000e+00 0.000000000000000e+00
0.000000000000000e+00 0.000000000000000e+00 0.000000000000000e+00
0.000000000000000e+00 0.000000000000000e+00 0.000000000000000e+00
0.000000000000000e+00 0.000000000000000e+00 0.000000000000000e+00
0.000000000000000e+00 0.000000000000000e+00 0.000000000000000e+00
0.000000000000000e+00 0.000000000000000e+00 0.000000000000000e+00
0.000000000000000e+00 0.000000000000000e+00 0.000000000000000e+00
0.000000000000000e+00 0.000000000000000e+00 0.000000000000000e+00
0.000000000000000e+00 0.000000000000000e+00 0.000000000000000e+00
0.000000000000000e+00 0.000000000000000e+00 0.000000000000000e+00
0.000000000000000e+00 0.000000000000000e+00 0.000000000000000e+00
0.000000000000000e+00 0.000000000000000e+00 0.000000000000000e+00
0.000000000000000e+00 0.000000000000000e+00 0.000000000000000e+00
0.000000000000000e+00 0.000000000000000e+00 0.000000000000000e+00
0.000000000000000e+00 0.000000000000000e+00 0.000000000000000e+00
0.000000000000000e+00 0.000000000000000e+00 0.000000000000000e+00
0.000000000000000e+00 0.000000000000000e+00 0.000000000000000e+00
0.000000000000000e+00 0.000000000000000e+00 0.000000000000000e+00
0.000000000000000e+00 0.000000000000000e+00 0.000000000000000e+00
0.000000000000000e+00 0.000000000000000e+00 0.000000000000000e+00
0.000000000000000e+00 0.000000000000000e+00 0.000000000000000e+00
0.000000000000000e+00 0.000000000000000e+00 0.000000000000000e+00
0.000000000000000e+00 0.000000000000000e+00 0.000000000000000e+00
0.000000000000000e+00 0.000000000000000e+00 0.000000000000000e+00
0.000000000000000e+00 0.000000000000000e+00 0.000000000000000e+00
0.000000000000000e+00 0.000000000000000e+00 0.000000000000000e+00
0.000000000000000e+00 0.000000000000000e+00 0.000000000000000e+00
0.000000000000000e+00 0.000000000000000e+00 0.000000000000000e+00
0.000000000000000e+00 0.000000000000000e+00 0.000000000000000e+00
0.000000000000000e+00 0.000000000000000e+00 0.000000000000000e+00
0.000000000000000e+00 0.000000000000000e+00 0.000000000000000e+00
0.000000000000000e+00 0.000000000000000e+00 0.000000000000000e+00
0.000000000000000e+00 0.000000000000000e+00 0.000000000000000e+00
0.000000000000000e+00 0.000000000000000e+00 0.000000000000000e+00
0.000000000000000e+00 0.000000000000000e+00 0.000000000000000e+00
0.000000000000000e+00 0.000000000000000e+00 0.000000000000000e+00
0.000000000000000e+00 0.000000000000000e+00 0.000000000000000e+00
0.000000000000000e+00 0.000000000000000e+00 0.000000000000000e+00
0.000000000000000e+00 0.000000000000000e+00 0.000000000000000e+00
0.000000000000000e+00 0.000000000000000e+00 0.000000000000000e+00
0.000000000000000e+00 0.000000000000000e+00 0.000000000000000e+00
0.000000000000000e+00 0.000000000000000e+00 0.000000000000000e+00
0.000000000000000e+00 0.000000000000000e+00 0.000000000000000e+00
0.000000000000000e+00 0.000000000000000e+00 0.000000000000000e+00
0.000000000000000e+00 0.000000000000000e+00 0.000000000000000e+00
0.000000000000000e+00 0.000000000000000e+00 0.000000000000000e+00
0.000000000000000e+00 0.000000000000000e+00 0.000000000000000e+00
0.000000000000000e+00 0.000000000000000e+00 0.000000000000000e+00
0.000000000000000e+00 0.000000000000000e+00 0.000000000000000e+00
0.000000000000000e+00 0.000000000000000e+00 0.000000000000000e+00
0.000000000000000e+00 0.000000000000000e+00 0.000000000000000e+00
0.000000000000000e+00 0.000000000000000e+00 0.000000000000000e+00
0.000000000000000e+00 0.000000000000000e+00 0.000000000000000e+00
0.000000000000000e+00 0.000000000000000e+00 0.000000000000000e+00
0.000000000000000e+00 0.000000000000000e+00 0.000000000000000e+00
0.000000000000000e+00 0.000000000000000e+00 0.000000000000000e+00
0.000000000000000e+00 0.000000000000000e+00 0.000000000000000e+00
0.000000000000000e+00 0.000000000000000e+00 0.000000000000000e+00
0.000000000000000e+00 0.000000000000000e+00 0.000000000000000e+00
0.000000000000000e+00 0.000000000000000e+00 0.000000000000000e+00
0.000000000000000e+00 0.000000000000000e+00 0.000000000000000e+00
0.000000000000000e+00 0.000000000000000e+00 0.000000000000000e+00
0.000000000000000e+00 0.000000000000000e+00 0.000000000000000e+00
0.000000000000000e+00 0.000000000000000e+00 0.000000000000000e+00
0.000000000000000e+00 0.000000000000000e+00 0.000000000000000e+00
0.000000000000000e+00 0.000000000000000e+00 0.000000000000000e+00
0.000000000000000e+00 0.000000000000000e+00 0.000000000000000e+00
0.000000000000000e+00 0.000000000000000e+00 0.000000000000000e+00
0.000000000000000e+00 0.000000000000000e+00 0.000000000000000e+00
0.000000000000000e+00 0.000000000000000e+00 0.000000000000000e+00
0.000000000000000e+00 0.000000000000000e+00 0.000000000000000e+00
0.000000000000000e+00 0.000000000000000e+00 0.000000000000000e+00
0.000000000000000e+00 0.000000000000000e+00 0.000000000000000e+00
0.000000000000000e+00 0.000000000000000e+00 0.000000000000000e+00
0.000000000000000e+00 0.000000000000000e+00 0.000000000000000e+00
0.000000000000000e+00 0.000000000000000e+00 0.000000000000000e+00
0.000000000000000e+00 0.000000000000000e+00 0.000000000000000e+00
0.000000000000000e+00 0.000000000000000e+00 0.000000000000000e+00
0.000000000000000e+00 0.000000000000000e+00 0.000000000000000e+00
0.000000000000000e+00 0.000000000000000e+00 0.000000000000000e+00
0.000000000000000e+00 0.000000000000000e+00 0.000000000000000e+00
0.000000000000000e+00 0.000000000000000e+00 0.000000000000000e+00
0.000000000000000e+00 0.000000000000000e+00 0.000000000000000e+00
0.000000000000000e+00 0.000000000000000e+00 0.000000000000000e+00
0.000000000000000e+00 0.000000000000000e+00 0.000000000000000e+00
0.000000000000000e+00 0.000000000000000e+00 0.000000000000000e+00
0.000000000000000e+00 0.000000000000000e+00 0.000000000000000e+00
0.000000000000000e+00 0.000000000000000e+00 0.000000000000000e+00
0.000000000000000e+00 0.000000000000000e+00 0.000000000000000e+00
0.000000000000000e+00 0.000000000000000e+00 0.000000000000000e+00
0.000000000000000e+00 0.000000000000000e+00 0.000000000000000e+00
0.000000000000000e+00 0.000000000000000e+00 0.000000000000000e+00
0.000000000000000e+00 0.000000000000000e+00 0.000000000000000e+00
0.000000000000000e+00 0.000000000000000e+00 0.000000000000000e+00
0.000000000000000e+00 0.000000000000000e+00 0.000000000000000e+00
0.000000000000000e+00 0.000000000000000e+00 0.000000000000000e+00
0.000000000000000e+00 0.000000000000000e+00 0.000000000000000e+00
0.000000000000000e+00 0.000000000000000e+00 0.000000000000000e+00
0.000000000000000e+00 0.000000000000000e+00 0.000000000000000e+00
0.000000000000000e+00 0.000000000000000e+00 0.000000000000000e+00
0.000000000000000e+00 0.000000000000000e+00 0.000000000000000e+00
0.000000000000000e+00 0.000000000000000e+00 0.000000000000000e+00
0.000000000000000e+00 0.000000000000000e+00 0.000000000000000e+00
0.000000000000000e+00 0.000000000000000e+00 0.000000000000000e+00
0.000000000000000e+00 0.000000000000000e+00 0.000000000000000e+00
0.000000000000000e+00 0.000000000000000e+00 0.000000000000000e+00
0.000000000000000e+00 0.000000000000000e+00 0.000000000000000e+00
0.000000000000000e+00 0.000000000000000e+00 0.000000000000000e+00
0.000000000000000e+00 0.000000000000000e+00 0.000000000000000e+00
0.000000000000000e+00 0.000000000000000e+00 0.000000000000000e+00
0.000000000000000e+00 0.000000000000000e+00 0.000000000000000e+00
0.000000000000000e+00 0.000000000000000e+00 0.000000000000000e+00
0.000000000000000e+00 0.000000000000000e+00 0.000000000000000e+00
0.000000000000000e+00 0.000000000000000e+00 0.000000000000000e+00
0.000000000000000e+00 0.000000000000000e+00 0.000000000000000e+00
0.000000000000000e+00 0.000000000000000e+00 0.000000000000000e+00
0.000000000000000e+00 0.000000000000000e+00 0.000000000000000e+00
0.000000000000000e+00 0.000000000000000e+00 0.000000000000000e+00
0.000000000000000e+00 0.000000000000000e+00 0.000000000000000e+00
0.000000000000000e+00 0.000000000000000e+00 0.000000000000000e+00
0.000000000000000e+00 0.000000000000000e+00 0.000000000000000e+00
0.000000000000000e+00 0.000000000000000e+00 0.000000000000000e+00
0.000000000000000e+00 0.000000000000000e+00 0.000000000000000e+00
0.000000000000000e+00 0.000000000000000e+00 0.000000000000000e+00
0.000000000000000e+00 0.000000000000000e+00 0.000000000000000e+00
0.000000000000000e+00 0.000000000000000e+00 0.000000000000000e+00
0.000000000000000e+00 0.000000000000000e+00 0.000000000000000e+00
0.000000000000000e+00 0.000000000000000e+00 0.000000000000000e+00
0.000000000000000e+00 0.000000000000000e+00 0.000000000000000e+00
0.000000000000000e+00 0.000000000000000e+00 0.000000000000000e+00
0.000000000000000e+00 0.000000000000000e+00 0.000000000000000e+00
0.000000000000000e+00 0.000000000000000e+00 0.000000000000000e+00
0.000000000000000e+00 0.000000000000000e+00 0.000000000000000e+00
0.000000000000000e+00 0.000000000000000e+00 0.000000000000000e+00
0.000000000000000e+00 0.000000000000000e+00 0.000000000000000e+00
0.000000000000000e+00 0.000000000000000e+00 0.000000000000000e+00
0.000000000000000e+00 0.000000000000000e+00 0.000000000000000e+00
0.000000000000000e+00 0.000000000000000e+00 0.000000000000000e+00
0.000000000000000e+00 0.000000000000000e+00 0.000000000000000e+00
0.000000000000000e+00 0.000000000000000e+00 0.000000000000000e+00
0.000000000000000e+00 0.000000000000000e+00 0.000000000000000e+00
0.000000000000000e+00 0.000000000000000e+00 0.000000000000000e+00
0.000000000000000e+00 0.000000000000000e+00 0.000000000000000e+00
0.000000000000000e+00 0.000000000000000e+00 0.000000000000000e+00
0.000000000000000e+00 0.000000000000000e+00 0.000000000000000e+00
0.000000000000000e+00 0.000000000000000e+00 0.000000000000000e+00
0.000000000000000e+00 0.000000000000000e+00 0.000000000000000e+00
0.000000000000000e+00 0.000000000000000e+00 0.000000000000000e+00
0.000000000000000e+00 0.000000000000000e+00 0.000000000000000e+00
0.000000000000000e+00 0.000000000000000e+00 0.000000000000000e+00
0.000000000000000e+00 0.000000000000000e+00 0.000000000000000e+00
0.000000000000000e+00 0.000000000000000e+00 0.000000000000000e+00
0.000000000000000e+00 0.000000000000000e+00 0.000000000000000e+00
0.000000000000000e+00 0.000000000000000e+00 0.000000000000000e+00
0.000000000000000e+00 0.000000000000000e+00 0.000000000000000e+00
0.000000000000000e+00 0.000000000000000e+00 0.000000000000000e+00
0.000000000000000e+00 0.000000000000000e+00 0.000000000000000e+00
0.000000000000000e+00 0.000000000000000e+00 0.000000000000000e+00
0.000000000000000e+00 0.000000000000000e+00 0.000000000000000e+00
0.000000000000000e+00 0.000000000000000e+00 0.000000000000000e+00
0.000000000000000e+00 0.000000000000000e+00 0.000000000000000e+00
0.000000000000000e+00 0.000000000000000e+00 0.000000000000000e+00
0.000000000000000e+00 0.000000000000000e+00 0.000000000000000e+00
0.000000000000000e+00 0.000000000000000e+00 0.000000000000000e+00
0.000000000000000e+00 0.000000000000000e+00 0.000000000000000e+00
0.000000000000000e+00 0.000000000000000e+00 0.000000000000000e+00
0.000000000000000e+00 0.000000000000000e+00 0.000000000000000e+00
0.000000000000000e+00 0.000000000000000e+00 0.000000000000000e+00
0.000000000000000e+00 0.000000000000000e+00 0.000000000000000e+00
0.000000000000000e+00 0.000000000000000e+00 0.000000000000000e+00
0.000000000000000e+00 0.000000000000000e+00 0.000000000000000e+00
0.000000000000000e+00 0.000000000000000e+00 0.000000000000000e+00
0.000000000000000e+00 0.000000000000000e+00 0.000000000000000e+00
0.000000000000000e+00 0.000000000000000e+00 0.000000000000000e+00
0.000000000000000e+00 0.000000000000000e+00 0.000000000000000e+00
0.000000000000000e+00 0.000000000000000e+00 0.000000000000000e+00
0.000000000000000e+00 0.000000000000000e+00 0.000000000000000e+00
0.000000000000000e+00 0.000000000000000e+00 0.000000000000000e+00
0.000000000000000e+00 0.000000000000000e+00 0.000000000000000e+00
0.000000000000000e+00 0.000000000000000e+00 0.000000000000000e+00
0.000000000000000e+00 0.000000000000000e+00 0.000000000000000e+00
0.000000000000000e+00 0.000000000000000e+00 0.000000000000000e+00
0.000000000000000e+00 0.000000000000000e+00 0.000000000000000e+00
0.000000000000000e+00 0.000000000000000e+00 0.000000000000000e+00
0.000000000000000e+00 0.000000000000000e+00 0.000000000000000e+00
0.000000000000000e+00 0.000000000000000e+00 0.000000000000000e+00
0.000000000000000e+00 0.000000000000000e+00 0.000000000000000e+00
0.000000000000000e+00 0.000000000000000e+00 0.000000000000000e+00
0.000000000000000e+00 0.000000000000000e+00 0.000000000000000e+00
0.000000000000000e+00 0.000000000000000e+00 0.000000000000000e+00
0.000000000000000e+00 0.000000000000000e+00 0.000000000000000e+00
0.000000000000000e+00 0.000000000000000e+00 0.000000000000000e+00
0.000000000000000e+00 0.000000000000000e+00 0.000000000000000e+00
0.000000000000000e+00 0.000000000000000e+00 0.000000000000000e+00
0.000000000000000e+00 0.000000000000000e+00 0.000000000000000e+00
0.000000000000000e+00 0.000000000000000e+00 0.000000000000000e+00
0.000000000000000e+00 0.000000000000000e+00 0.000000000000000e+00
0.000000000000000e+00 0.000000000000000e+00 0.000000000000000e+00
0.000000000000000e+00 0.000000000000000e+00 0.000000000000000e+00
0.000000000000000e+00 0.000000000000000e+00 0.000000000000000e+00
0.000000000000000e+00 0.000000000000000e+00 0.000000000000000e+00
0.000000000000000e+00 0.000000000000000e+00 0.000000000000000e+00
0.000000000000000e+00 0.000000000000000e+00 0.000000000000000e+00
0.000000000000000e+00 0.000000000000000e+00 0.000000000000000e+00
0.000000000000000e+00 0.000000000000000e+00 0.000000000000000e+00
0.000000000000000e+00 0.000000000000000e+00 0.000000000000000e+00
0.000000000000000e+00 0.000000000000000e+00 0.000000000000000e+00
0.000000000000000e+00 0.000000000000000e+00 0.000000000000000e+00
0.000000000000000e+00 0.000000000000000e+00 0.000000000000000e+00
0.000000000000000e+00 0.000000000000000e+00 0.000000000000000e+00
0.000000000000000e+00 0.000000000000000e+00 0.000000000000000e+00
0.000000000000000e+00 0.000000000000000e+00 0.000000000000000e+00
0.000000000000000e+00 0.000000000000000e+00 0.000000000000000e+00
0.000000000000000e+00 0.000000000000000e+00 0.000000000000000e+00
0.000000000000000e+00 0.000000000000000e+00 0.000000000000000e+00
0.000000000000000e+00 0.000000000000000e+00 0.000000000000000e+00
0.000000000000000e+00 0.000000000000000e+00 0.000000000000000e+00
0.000000000000000e+00 0.000000000000000e+00 0.000000000000000e+00
0.000000000000000e+00 0.000000000000000e+00 0.000000000000000e+00
0.000000000000000e+00 0.000000000000000e+00 0.000000000000000e+00
0.000000000000000e+00 0.000000000000000e+00 0.000000000000000e+00
0.000000000000000e+00 0.000000000000000e+00 0.000000000000000e+00
0.000000000000000e+00 0.000000000000000e+00 0.000000000000000e+00
0.000000000000000e+00 0.000000000000000e+00 0.000000000000000e+00
0.000000000000000e+00 0.000000000000000e+00 0.000000000000000e+00
0.000000000000000e+00 0.000000000000000e+00 0.000000000000000e+00
0.000000000000000e+00 0.000000000000000e+00 0.000000000000000e+00
0.000000000000000e+00 0.000000000000000e+00 0.000000000000000e+00
0.000000000000000e+00 0.000000000000000e+00 0.000000000000000e+00
0.000000000000000e+00 0.000000000000000e+00 0.000000000000000e+00
0.000000000000000e+00 0.000000000000000e+00 0.000000000000000e+00
0.000000000000000e+00 0.000000000000000e+00 0.000000000000000e+00
0.000000000000000e+00 0.000000000000000e+00 0.000000000000000e+00
0.000000000000000e+00 0.000000000000000e+00 0.000000000000000e+00
0.000000000000000e+00 0.000000000000000e+00 0.000000000000000e+00
0.000000000000000e+00 0.000000000000000e+00 0.000000000000000e+00
0.000000000000000e+00 0.000000000000000e+00 0.000000000000000e+00
0.000000000000000e+00 0.000000000000000e+00 0.000000000000000e+00
0.000000000000000e+00 0.000000000000000e+00 0.000000000000000e+00
0.000000000000000e+00 0.000000000000000e+00 0.000000000000000e+00
0.000000000000000e+00 0.000000000000000e+00 0.000000000000000e+00
0.000000000000000e+00 0.000000000000000e+00 0.000000000000000e+00
0.000000000000000e+00 0.000000000000000e+00 0.000000000000000e+00
0.000000000000000e+00 0.000000000000000e+00 0.000000000000000e+00
0.000000000000000e+00 0.000000000000000e+00 0.000000000000000e+00
0.000000000000000e+00 0.000000000000000e+00 0.000000000000000e+00
0.000000000000000e+00 0.000000000000000e+00 0.000000000000000e+00
0.000000000000000e+00 0.000000000000000e+00 0.000000000000000e+00
0.000000000000000e+00 0.000000000000000e+00 0.000000000000000e+00
0.000000000000000e+00 0.000000000000000e+00 0.000000000000000e+00
0.000000000000000e+00 0.000000000000000e+00 0.000000000000000e+00
0.000000000000000e+00 0.000000000000000e+00 0.000000000000000e+00
0.000000000000000e+00 0.000000000000000e+00 0.000000000000000e+00
0.000000000000000e+00 0.000000000000000e+00 0.000000000000000e+00
0.000000000000000e+00 0.000000000000000e+00 0.000000000000000e+00
0.000000000000000e+00 0.000000000000000e+00 0.000000000000000e+00
0.000000000000000e+00 0.000000000000000e+00 0.000000000000000e+00
0.000000000000000e+00 0.000000000000000e+00 0.000000000000000e+00
0.000000000000000e+00 0.000000000000000e+00 0.000000000000000e+00
0.000000000000000e+00 0.000000000000000e+00 0.000000000000000e+00
0.000000000000000e+00 0.000000000000000e+00 0.000000000000000e+00
0.000000000000000e+00 0.000000000000000e+00 0.000000000000000e+00
0.000000000000000e+00 0.000000000000000e+00 0.000000000000000e+00
0.000000000000000e+00 0.000000000000000e+00 0.000000000000000e+00
0.000000000000000e+00 0.000000000000000e+00 0.000000000000000e+00
0.000000000000000e+00 0.000000000000000e+00 0.000000000000000e+00
0.000000000000000e+00 0.000000000000000e+00 0.000000000000000e+00
0.000000000000000e+00 0.000000000000000e+00 0.000000000000000e+00
0.000000000000000e+00 0.000000000000000e+00 0.000000000000000e+00
0.000000000000000e+00 0.000000000000000e+00 0.000000000000000e+00
0.000000000000000e+00 0.000000000000000e+00 0.000000000000000e+00
0.000000000000000e+00 0.000000000000000e+00 0.000000000000000e+00
0.000000000000000e+00 0.000000000000000e+00 0.000000000000000e+00
0.000000000000000e+00 0.000000000000000e+00 0.000000000000000e+00
0.000000000000000e+00 0.000000000000000e+00 0.000000000000000e+00
0.000000000000000e+00 0.000000000000000e+00 0.000000000000000e+00
0.000000000000000e+00 0.000000000000000e+00 0.000000000000000e+00
0.000000000000000e+00 0.000000000000000e+00 0.000000000000000e+00
0.000000000000000e+00 0.000000000000000e+00 0.000000000000000e+00
0.000000000000000e+00 0.000000000000000e+00 0.000000000000000e+00
0.000000000000000e+00 0.000000000000000e+00 0.000000000000000e+00
0.000000000000000e+00 0.000000000000000e+00 0.000000000000000e+00
0.000000000000000e+00 0.000000000000000e+00 0.000000000000000e+00
0.000000000000000e+00 0.000000000000000e+00 0.000000000000000e+00
0.000000000000000e+00 0.000000000000000e+00 0.000000000000000e+00
0.000000000000000e+00 0.000000000000000e+00 0.000000000000000e+00
0.000000000000000e+00 0.000000000000000e+00 0.000000000000000e+00
0.000000000000000e+00 0.000000000000000e+00 0.000000000000000e+00
0.000000000000000e+00 0.000000000000000e+00 0.000000000000000e+00
0.000000000000000e+00 0.000000000000000e+00 0.000000000000000e+00
0.000000000000000e+00 0.000000000000000e+00 0.000000000000000e+00
0.000000000000000e+00 0.000000000000000e+00 0.000000000000000e+00
0.000000000000000e+00 0.000000000000000e+00 0.000000000000000e+00
0.000000000000000e+00 0.000000000000000e+00 0.000000000000000e+00
0.000000000000000e+00 0.000000000000000e+00 0.000000000000000e+00
0.000000000000000e+00 0.000000000000000e+00 0.000000000000000e+00
0.000000000000000e+00 0.000000000000000e+00 0.000000000000000e+00
0.000000000000000e+00 0.000000000000000e+00 0.000000000000000e+00
0.000000000000000e+00 0.000000000000000e+00 0.000000000000000e+00
0.000000000000000e+00 0.000000000000000e+00 0.000000000000000e+00
0.000000000000000e+00 0.000000000000000e+00 0.000000000000000e+00
0.000000000000000e+00 0.000000000000000e+00 0.000000000000000e+00
0.000000000000000e+00 0.000000000000000e+00 0.000000000000000e+00
0.000000000000000e+00 0.000000000000000e+00 0.000000000000000e+00
0.000000000000000e+00 0.000000000000000e+00 0.000000000000000e+00
0.000000000000000e+00 0.000000000000000e+00 0.000000000000000e+00
0.000000000000000e+00 0.000000000000000e+00 0.000000000000000e+00
0.000000000000000e+00 0.000000000000000e+00 0.000000000000000e+00
0.000000000000000e+00 0.000000000000000e+00 0.000000000000000e+00
0.000000000000000e+00 0.000000000000000e+00 0.000000000000000e+00
0.000000000000000e+00 0.000000000000000e+00 0.000000000000000e+00
0.000000000000000e+00 0.000000000000000e+00 0.000000000000000e+00
0.000000000000000e+00 0.000000000000000e+00 0.000000000000000e+00
0.000000000000000e+00 0.000000000000000e+00 0.000000000000000e+00
0.000000000000000e+00 0.000000000000000e+00 0.000000000000000e+00
0.000000000000000e+00 0.000000000000000e+00 0.000000000000000e+00
0.000000000000000e+00 0.000000000000000e+00 0.000000000000000e+00
0.000000000000000e+00 0.000000000000000e+00 0.000000000000000e+00
0.000000000000000e+00 0.000000000000000e+00 0.000000000000000e+00
0.000000000000000e+00 0.000000000000000e+00 0.000000000000000e+00
0.000000000000000e+00 0.000000000000000e+00 0.000000000000000e+00
0.000000000000000e+00 0.000000000000000e+00 0.000000000000000e+00
0.000000000000000e+00 0.000000000000000e+00 0.000000000000000e+00
0.000000000000000e+00 0.000000000000000e+00 0.000000000000000e+00
0.000000000000000e+00 0.000000000000000e+00 0.000000000000000e+00
0.000000000000000e+00 0.000000000000000e+00 0.000000000000000e+00
0.000000000000000e+00 0.000000000000000e+00 0.000000000000000e+00
0.000000000000000e+00 0.000000000000000e+00 0.000000000000000e+00
0.000000000000000e+00 0.000000000000000e+00 0.000000000000000e+00
0.000000000000000e+00 0.000000000000000e+00 0.000000000000000e+00
0.000000000000000e+00 0.000000000000000e+00 0.000000000000000e+00
0.000000000000000e+00 0.000000000000000e+00 0.000000000000000e+00
0.000000000000000e+00 0.000000000000000e+00 0.000000000000000e+00
0.000000000000000e+00 0.000000000000000e+00 0.000000000000000e+00
0.000000000000000e+00 0.000000000000000e+00 0.000000000000000e+00
0.000000000000000e+00 0.000000000000000e+00 0.000000000000000e+00
0.000000000000000e+00 0.000000000000000e+00 0.000000000000000e+00
0.000000000000000e+00 0.000000000000000e+00 0.000000000000000e+00
0.000000000000000e+00 0.000000000000000e+00 0.000000000000000e+00
0.000000000000000e+00 0.000000000000000e+00 0.000000000000000e+00
0.000000000000000e+00 0.000000000000000e+00 0.000000000000000e+00
0.000000000000000e+00 0.000000000000000e+00 0.000000000000000e+00
0.000000000000000e+00 0.000000000000000e+00 0.000000000000000e+00
0.000000000000000e+00 0.000000000000000e+00 0.000000000000000e+00
0.000000000000000e+00 0.000000000000000e+00 0.000000000000000e+00
0.000000000000000e+00 0.000000000000000e+00 0.000000000000000e+00
0.000000000000000e+00 0.000000000000000e+00 0.000000000000000e+00
0.000000000000000e+00 0.000000000000000e+00 0.000000000000000e+00
0.000000000000000e+00 0.000000000000000e+00 0.000000000000000e+00
0.000000000000000e+00 0.000000000000000e+00 0.000000000000000e+00
0.000000000000000e+00 0.000000000000000e+00 0.000000000000000e+00
0.000000000000000e+00 0.000000000000000e+00 0.000000000000000e+00
0.000000000000000e+00 0.000000000000000e+00 0.000000000000000e+00
0.000000000000000e+00 0.000000000000000e+00 0.000000000000000e+00
0.000000000000000e+00 0.000000000000000e+00 0.000000000000000e+00
0.000000000000000e+00 0.000000000000000e+00 0.000000000000000e+00
0.000000000000000e+00 0.000000000000000e+00 0.000000000000000e+00
0.000000000000000e+00 0.000000000000000e+00 0.000000000000000e+00
0.000000000000000e+00 0.000000000000000e+00 0.000000000000000e+00
0.000000000000000e+00 0.000000000000000e+00 0.000000000000000e+00
0.000000000000000e+00 0.000000000000000e+00 0.000000000000000e+00
0.000000000000000e+00 0.000000000000000e+00 0.000000000000000e+00
0.000000000000000e+00 0.000000000000000e+00 0.000000000000000e+00
0.000000000000000e+00 0.000000000000000e+00 0.000000000000000e+00
0.000000000000000e+00 0.000000000000000e+00 0.000000000000000e+00
0.000000000000000e+00 0.000000000000000e+00 0.000000000000000e+00
0.000000000000000e+00 0.000000000000000e+00 0.000000000000000e+00
0.000000000000000e+00 0.000000000000000e+00 0.000000000000000e+00
0.000000000000000e+00 0.000000000000000e+00 0.000000000000000e+00
0.000000000000000e+00 0.000000000000000e+00 0.000000000000000e+00
0.000000000000000e+00 0.000000000000000e+00 0.000000000000000e+00
0.000000000000000e+00 0.000000000000000e+00 0.000000000000000e+00
0.000000000000000e+00 0.000000000000000e+00 0.000000000000000e+00
0.000000000000000e+00 0.000000000000000e+00 0.000000000000000e+00
0.000000000000000e+00 0.000000000000000e+00 0.000000000000000e+00
0.000000000000000e+00 0.000000000000000e+00 0.000000000000000e+00
0.000000000000000e+00 0.000000000000000e+00 0.000000000000000e+00
0.000000000000000e+00 0.000000000000000e+00 0.000000000000000e+00
0.000000000000000e+00 0.000000000000000e+00 0.000000000000000e+00
0.000000000000000e+00 0.000000000000000e+00 0.000000000000000e+00
0.000000000000000e+00 0.000000000000000e+00 0.000000000000000e+00
0.000000000000000e+00 0.000000000000000e+00 0.000000000000000e+00
0.000000000000000e+00 0.000000000000000e+00 0.000000000000000e+00
0.000000000000000e+00 0.000000000000000e+00 0.000000000000000e+00
0.000000000000000e+00 0.000000000000000e+00 0.000000000000000e+00
0.000000000000000e+00 0.000000000000000e+00 0.000000000000000e+00
0.000000000000000e+00 0.000000000000000e+00 0.000000000000000e+00
0.000000000000000e+00 0.000000000000000e+00 0.000000000000000e+00
0.000000000000000e+00 0.000000000000000e+00 0.000000000000000e+00
0.000000000000000e+00 0.000000000000000e+00 0.000000000000000e+00
0.000000000000000e+00 0.000000000000000e+00 0.000000000000000e+00
0.000000000000000e+00 0.000000000000000e+00 0.000000000000000e+00
0.000000000000000e+00 0.000000000000000e+00 0.000000000000000e+00
0.000000000000000e+00 0.000000000000000e+00 0.000000000000000e+00
0.000000000000000e+00 0.000000000000000e+00 0.000000000000000e+00
0.000000000000000e+00 0.000000000000000e+00 0.000000000000000e+00
0.000000000000000e+00 0.000000000000000e+00 0.000000000000000e+00
0.000000000000000e+00 0.000000000000000e+00 0.000000000000000e+00
0.000000000000000e+00 0.000000000000000e+00 0.000000000000000e+00
0.000000000000000e+00 0.000000000000000e+00 0.000000000000000e+00
0.000000000000000e+00 0.000000000000000e+00 0.000000000000000e+00
0.000000000000000e+00 0.000000000000000e+00 0.000000000000000e+00
0.000000000000000e+00 0.000000000000000e+00 0.000000000000000e+00
0.000000000000000e+00 0.000000000000000e+00 0.000000000000000e+00
0.000000000000000e+00 0.000000000000000e+00 0.000000000000000e+00
0.000000000000000e+00 0.000000000000000e+00 0.000000000000000e+00
0.000000000000000e+00 0.000000000000000e+00 0.000000000000000e+00
0.000000000000000e+00 0.000000000000000e+00 0.000000000000000e+00
0.000000000000000e+00 0.000000000000000e+00 0.000000000000000e+00
0.000000000000000e+00 0.000000000000000e+00 0.000000000000000e+00
0.000000000000000e+00 0.000000000000000e+00 0.000000000000000e+00
0.000000000000000e+00 0.000000000000000e+00 0.000000000000000e+00
0.000000000000000e+00 0.000000000000000e+00 0.000000000000000e+00
0.000000000000000e+00 0.000000000000000e+00 0.000000000000000e+00
0.000000000000000e+00 0.000000000000000e+00 0.000000000000000e+00
0.000000000000000e+00 0.000000000000000e+00 0.000000000000000e+00
0.000000000000000e+00 0.000000000000000e+00 0.000000000000000e+00
0.000000000000000e+00 0.000000000000000e+00 0.000000000000000e+00
0.000000000000000e+00 0.000000000000000e+00 0.000000000000000e+00
0.000000000000000e+00 0.000000000000000e+00 0.000000000000000e+00
0.000000000000000e+00 0.000000000000000e+00 0.000000000000000e+00
0.000000000000000e+00 0.000000000000000e+00 0.000000000000000e+00
0.000000000000000e+00 0.000000000000000e+00 0.000000000000000e+00
0.000000000000000e+00 0.000000000000000e+00 0.000000000000000e+00
0.000000000000000e+00 0.000000000000000e+00 0.000000000000000e+00
0.000000000000000e+00 0.000000000000000e+00 0.000000000000000e+00
0.000000000000000e+00 0.000000000000000e+00 0.000000000000000e+00
0.000000000000000e+00 0.000000000000000e+00 0.000000000000000e+00
0.000000000000000e+00 0.000000000000000e+00 0.000000000000000e+00
0.000000000000000e+00 0.000000000000000e+00 0.000000000000000e+00
0.000000000000000e+00 0.000000000000000e+00 0.000000000000000e+00
0.000000000000000e+00 0.000000000000000e+00 0.000000000000000e+00
0.000000000000000e+00 0.000000000000000e+00 0.000000000000000e+00
0.000000000000000e+00 0.000000000000000e+00 0.000000000000000e+00
0.000000000000000e+00 0.000000000000000e+00 0.000000000000000e+00
0.000000000000000e+00 0.000000000000000e+00 0.000000000000000e+00
0.000000000000000e+00 0.000000000000000e+00 0.000000000000000e+00
0.000000000000000e+00 0.000000000000000e+00 0.000000000000000e+00
0.000000000000000e+00 0.000000000000000e+00 0.000000000000000e+00
0.000000000000000e+00 0.000000000000000e+00 0.000000000000000e+00
0.000000000000000e+00 0.000000000000000e+00 0.000000000000000e+00
0.000000000000000e+00 0.000000000000000e+00 0.000000000000000e+00
0.000000000000000e+00 0.000000000000000e+00 0.000000000000000e+00
0.000000000000000e+00 0.000000000000000e+00 0.000000000000000e+00
0.000000000000000e+00 0.000000000000000e+00 0.000000000000000e+00
0.000000000000000e+00 0.000000000000000e+00 0.000000000000000e+00
0.000000000000000e+00 0.000000000000000e+00 0.000000000000000e+00
0.000000000000000e+00 0.000000000000000e+00 0.000000000000000e+00
0.000000000000000e+00 0.000000000000000e+00 0.000000000000000e+00
0.000000000000000e+00 0.000000000000000e+00 0.000000000000000e+00
0.000000000000000e+00 0.000000000000000e+00 0.000000000000000e+00
0.000000000000000e+00 0.000000000000000e+00 0.000000000000000e+00
0.000000000000000e+00 0.000000000000000e+00 0.000000000000000e+00
0.000000000000000e+00 0.000000000000000e+00 0.000000000000000e+00
0.000000000000000e+00 0.000000000000000e+00 0.000000000000000e+00
0.000000000000000e+00 0.000000000000000e+00 0.000000000000000e+00
0.000000000000000e+00 0.000000000000000e+00 0.000000000000000e+00
0.000000000000000e+00 0.000000000000000e+00 0.000000000000000e+00
0.000000000000000e+00 0.000000000000000e+00 0.000000000000000e+00
0.000000000000000e+00 0.000000000000000e+00 0.000000000000000e+00
0.000000000000000e+00 0.000000000000000e+00 0.000000000000000e+00
0.000000000000000e+00 0.000000000000000e+00 0.000000000000000e+00
0.000000000000000e+00 0.000000000000000e+00 0.000000000000000e+00
0.000000000000000e+00 0.000000000000000e+00 0.000000000000000e+00
0.000000000000000e+00 0.000000000000000e+00 0.000000000000000e+00
0.000000000000000e+00 0.000000000000000e+00 0.000000000000000e+00
0.000000000000000e+00 0.000000000000000e+00 0.000000000000000e+00
0.000000000000000e+00 0.000000000000000e+00 0.000000000000000e+00
0.000000000000000e+00 0.000000000000000e+00 0.000000000000000e+00
0.000000000000000e+00 0.000000000000000e+00 0.000000000000000e+00
0.000000000000000e+00 0.000000000000000e+00 0.000000000000000e+00
0.000000000000000e+00 0.000000000000000e+00 0.000000000000000e+00
0.000000000000000e+00 0.000000000000000e+00 0.000000000000000e+00
0.000000000000000e+00 0.000000000000000e+00 0.000000000000000e+00
0.000000000000000e+00 0.000000000000000e+00 0.000000000000000e+00
0.000000000000000e+00 0.000000000000000e+00 0.000000000000000e+00
0.000000000000000e+00 0.000000000000000e+00 0.000000000000000e+00
0.000000000000000e+00 0.000000000000000e+00 0.000000000000000e+00
0.000000000000000e+00 0.000000000000000e+00 0.000000000000000e+00
0.000000000000000e+00 0.000000000000000e+00 0.000000000000000e+00
0.000000000000000e+00 0.000000000000000e+00 0.000000000000000e+00
0.000000000000000e+00 0.000000000000000e+00 0.000000000000000e+00
0.000000000000000e+00 0.000000000000000e+00 0.000000000000000e+00
0.000000000000000e+00 0.000000000000000e+00 0.000000000000000e+00
0.000000000000000e+00 0.000000000000000e+00 0.000000000000000e+00
0.000000000000000e+00 0.000000000000000e+00 0.000000000000000e+00
0.000000000000000e+00 0.000000000000000e+00 0.000000000000000e+00
0.000000000000000e+00 0.000000000000000e+00 0.000000000000000e+00
0.000000000000000e+00 0.000000000000000e+00 0.000000000000000e+00
0.000000000000000e+00 0.000000000000000e+00 0.000000000000000e+00
0.000000000000000e+00 0.000000000000000e+00 0.000000000000000e+00
0.000000000000000e+00 0.000000000000000e+00 0.000000000000000e+00
0.000000000000000e+00 0.000000000000000e+00 0.000000000000000e+00
0.000000000000000e+00 0.000000000000000e+00 0.000000000000000e+00
0.000000000000000e+00 0.000000000000000e+00 0.000000000000000e+00
0.000000000000000e+00 0.000000000000000e+00 0.000000000000000e+00
0.000000000000000e+00 0.000000000000000e+00 0.000000000000000e+00
0.000000000000000e+00 0.000000000000000e+00 0.000000000000000e+00
0.000000000000000e+00 0.000000000000000e+00 0.000000000000000e+00
0.000000000000000e+00 0.000000000000000e+00 0.000000000000000e+00
0.000000000000000e+00 0.000000000000000e+00 0.000000000000000e+00
0.000000000000000e+00 0.000000000000000e+00 0.000000000000000e+00
0.000000000000000e+00 0.000000000000000e+00 0.000000000000000e+00
0.000000000000000e+00 0.000000000000000e+00 0.000000000000000e+00
0.000000000000000e+00 0.000000000000000e+00 0.000000000000000e+00
0.000000000000000e+00 0.000000000000000e+00 0.000000000000000e+00
0.000000000000000e+00 0.000000000000000e+00 0.000000000000000e+00
0.000000000000000e+00 0.000000000000000e+00 0.000000000000000e+00
0.000000000000000e+00 0.000000000000000e+00 0.000000000000000e+00
0.000000000000000e+00 0.000000000000000e+00 0.000000000000000e+00
0.000000000000000e+00 0.000000000000000e+00 0.000000000000000e+00
0.000000000000000e+00 0.000000000000000e+00 0.000000000000000e+00
0.000000000000000e+00 0.000000000000000e+00 0.000000000000000e+00
0.000000000000000e+00 0.000000000000000e+00 0.000000000000000e+00
0.000000000000000e+00 0.000000000000000e+00 0.000000000000000e+00
0.000000000000000e+00 0.000000000000000e+00 0.000000000000000e+00
0.000000000000000e+00 0.000000000000000e+00 0.000000000000000e+00
0.000000000000000e+00 0.000000000000000e+00 0.000000000000000e+00
0.000000000000000e+00 0.000000000000000e+00 0.000000000000000e+00
0.000000000000000e+00 0.000000000000000e+00 0.000000000000000e+00
0.000000000000000e+00 0.000000000000000e+00 0.000000000000000e+00
0.000000000000000e+00 0.000000000000000e+00 0.000000000000000e+00
0.000000000000000e+00 0.000000000000000e+00 0.000000000000000e+00
0.000000000000000e+00 0.000000000000000e+00 0.000000000000000e+00
0.000000000000000e+00 0.000000000000000e+00 0.000000000000000e+00
0.000000000000000e+00 0.000000000000000e+00 0.000000000000000e+00
0.000000000000000e+00 0.000000000000000e+00 0.000000000000000e+00
0.000000000000000e+00 0.000000000000000e+00 0.000000000000000e+00
0.000000000000000e+00 0.000000000000000e+00 0.000000000000000e+00
0.000000000000000e+00 0.000000000000000e+00 0.000000000000000e+00
0.000000000000000e+00 0.000000000000000e+00 0.000000000000000e+00
0.000000000000000e+00 0.000000000000000e+00 0.000000000000000e+00
0.000000000000000e+00 0.000000000000000e+00 0.000000000000000e+00
0.000000000000000e+00 0.000000000000000e+00 0.000000000000000e+00
0.000000000000000e+00 0.000000000000000e+00 0.000000000000000e+00
0.000000000000000e+00 0.000000000000000e+00 0.000000000000000e+00
0.000000000000000e+00 0.000000000000000e+00 0.000000000000000e+00
0.000000000000000e+00 0.000000000000000e+00 0.000000000000000e+00
0.000000000000000e+00 0.000000000000000e+00 0.000000000000000e+00
0.000000000000000e+00 0.000000000000000e+00 0.000000000000000e+00
0.000000000000000e+00 0.000000000000000e+00 0.000000000000000e+00
0.000000000000000e+00 0.000000000000000e+00 0.000000000000000e+00
0.000000000000000e+00 0.000000000000000e+00 0.000000000000000e+00
0.000000000000000e+00 0.000000000000000e+00 0.000000000000000e+00
0.000000000000000e+00 0.000000000000000e+00 0.000000000000000e+00
0.000000000000000e+00 0.000000000000000e+00 0.000000000000000e+00
0.000000000000000e+00 0.000000000000000e+00 0.000000000000000e+00
0.000000000000000e+00 0.000000000000000e+00 0.000000000000000e+00
0.000000000000000e+00 0.000000000000000e+00 0.000000000000000e+00
0.000000000000000e+00 0.000000000000000e+00 0.000000000000000e+00
0.000000000000000e+00 0.000000000000000e+00 0.000000000000000e+00
0.000000000000000e+00 0.000000000000000e+00 0.000000000000000e+00
0.000000000000000e+00 0.000000000000000e+00 0.000000000000000e+00
0.000000000000000e+00 0.000000000000000e+00 0.000000000000000e+00
0.000000000000000e+00 0.000000000000000e+00 0.000000000000000e+00
0.000000000000000e+00 0.000000000000000e+00 0.000000000000000e+00
0.000000000000000e+00 0.000000000000000e+00 0.000000000000000e+00
0.000000000000000e+00 0.000000000000000e+00 0.000000000000000e+00
0.000000000000000e+00 0.000000000000000e+00 0.000000000000000e+00
0.000000000000000e+00 0.000000000000000e+00 0.000000000000000e+00
0.000000000000000e+00 0.000000000000000e+00 0.000000000000000e+00
0.000000000000000e+00 0.000000000000000e+00 0.000000000000000e+00
0.000000000000000e+00 0.000000000000000e+00 0.000000000000000e+00
0.000000000000000e+00 0.000000000000000e+00 0.000000000000000e+00
0.000000000000000e+00 0.000000000000000e+00 0.000000000000000e+00
0.000000000000000e+00 0.000000000000000e+00 0.000000000000000e+00
0.000000000000000e+00 0.000000000000000e+00 0.000000000000000e+00
0.000000000000000e+00 0.000000000000000e+00 0.000000000000000e+00
0.000000000000000e+00 0.000000000000000e+00 0.000000000000000e+00
0.000000000000000e+00 0.000000000000000e+00 0.000000000000000e+00
0.000000000000000e+00 0.000000000000000e+00 0.000000000000000e+00
0.000000000000000e+00 0.000000000000000e+00 0.000000000000000e+00
0.000000000000000e+00 0.000000000000000e+00 0.000000000000000e+00
0.000000000000000e+00 0.000000000000000e+00 0.000000000000000e+00
0.000000000000000e+00 0.000000000000000e+00 0.000000000000000e+00
0.000000000000000e+00 0.000000000000000e+00 0.000000000000000e+00
0.000000000000000e+00 0.000000000000000e+00 0.000000000000000e+00
0.000000000000000e+00 0.000000000000000e+00 0.000000000000000e+00
0.000000000000000e+00 0.000000000000000e+00 0.000000000000000e+00
0.000000000000000e+00 0.000000000000000e+00 0.000000000000000e+00
0.000000000000000e+00 0.000000000000000e+00 0.000000000000000e+00
0.000000000000000e+00 0.000000000000000e+00 0.000000000000000e+00
0.000000000000000e+00 0.000000000000000e+00 0.000000000000000e+00
0.000000000000000e+00 0.000000000000000e+00 0.000000000000000e+00
0.000000000000000e+00 0.000000000000000e+00 0.000000000000000e+00
0.000000000000000e+00 0.000000000000000e+00 0.000000000000000e+00
0.000000000000000e+00 0.000000000000000e+00 0.000000000000000e+00
0.000000000000000e+00 0.000000000000000e+00 0.000000000000000e+00
0.000000000000000e+00 0.000000000000000e+00 0.000000000000000e+00
0.000000000000000e+00 0.000000000000000e+00 0.000000000000000e+00
0.000000000000000e+00 0.000000000000000e+00 0.000000000000000e+00
0.000000000000000e+00 0.000000000000000e+00 0.000000000000000e+00
0.000000000000000e+00 0.000000000000000e+00 0.000000000000000e+00
0.000000000000000e+00 0.000000000000000e+00 0.000000000000000e+00
0.000000000000000e+00 0.000000000000000e+00 0.000000000000000e+00
0.000000000000000e+00 0.000000000000000e+00 0.000000000000000e+00
0.000000000000000e+00 0.000000000000000e+00 0.000000000000000e+00
0.000000000000000e+00 0.000000000000000e+00 0.000000000000000e+00
0.000000000000000e+00 0.000000000000000e+00 0.000000000000000e+00
0.000000000000000e+00 0.000000000000000e+00 0.000000000000000e+00
0.000000000000000e+00 0.000000000000000e+00 0.000000000000000e+00
0.000000000000000e+00 0.000000000000000e+00 0.000000000000000e+00
0.000000000000000e+00 0.000000000000000e+00 0.000000000000000e+00
0.000000000000000e+00 0.000000000000000e+00 0.000000000000000e+00
0.000000000000000e+00 0.000000000000000e+00 0.000000000000000e+00
0.000000000000000e+00 0.000000000000000e+00 0.000000000000000e+00
0.000000000000000e+00 0.000000000000000e+00 0.000000000000000e+00
0.000000000000000e+00 0.000000000000000e+00 0.000000000000000e+00
0.000000000000000e+00 0.000000000000000e+00 0.000000000000000e+00
0.000000000000000e+00 0.000000000000000e+00 0.000000000000000e+00
0.000000000000000e+00 0.000000000000000e+00 0.000000000000000e+00
0.000000000000000e+00 0.000000000000000e+00 0.000000000000000e+00
0.000000000000000e+00 0.000000000000000e+00 0.000000000000000e+00
0.000000000000000e+00 0.000000000000000e+00 0.000000000000000e+00
0.000000000000000e+00 0.000000000000000e+00 0.000000000000000e+00
0.000000000000000e+00 0.000000000000000e+00 0.000000000000000e+00
0.000000000000000e+00 0.000000000000000e+00 0.000000000000000e+00
0.000000000000000e+00 0.000000000000000e+00 0.000000000000000e+00
0.000000000000000e+00 0.000000000000000e+00 0.000000000000000e+00
0.000000000000000e+00 0.000000000000000e+00 0.000000000000000e+00
0.000000000000000e+00 0.000000000000000e+00 0.000000000000000e+00
0.000000000000000e+00 0.000000000000000e+00 0.000000000000000e+00
0.000000000000000e+00 0.000000000000000e+00 0.000000000000000e+00
0.000000000000000e+00 0.000000000000000e+00 0.000000000000000e+00
0.000000000000000e+00 0.000000000000000e+00 0.000000000000000e+00
0.000000000000000e+00 0.000000000000000e+00 0.000000000000000e+00
0.000000000000000e+00 0.000000000000000e+00 0.000000000000000e+00
0.000000000000000e+00 0.000000000000000e+00 0.000000000000000e+00
0.000000000000000e+00 0.000000000000000e+00 0.000000000000000e+00
0.000000000000000e+00 0.000000000000000e+00 0.000000000000000e+00
0.000000000000000e+00 0.000000000000000e+00 0.000000000000000e+00
0.000000000000000e+00 0.000000000000000e+00 0.000000000000000e+00
0.000000000000000e+00 0.000000000000000e+00 0.000000000000000e+00
0.000000000000000e+00 0.000000000000000e+00 0.000000000000000e+00
0.000000000000000e+00 0.000000000000000e+00 0.000000000000000e+00
0.000000000000000e+00 0.000000000000000e+00 0.000000000000000e+00
0.000000000000000e+00 0.000000000000000e+00 0.000000000000000e+00
0.000000000000000e+00 0.000000000000000e+00 0.000000000000000e+00
0.000000000000000e+00 0.000000000000000e+00 0.000000000000000e+00
0.000000000000000e+00 0.000000000000000e+00 0.000000000000000e+00
0.000000000000000e+00 0.000000000000000e+00 0.000000000000000e+00
0.000000000000000e+00 0.000000000000000e+00 0.000000000000000e+00
0.000000000000000e+00 0.000000000000000e+00 0.000000000000000e+00
0.000000000000000e+00 0.000000000000000e+00 0.000000000000000e+00
0.000000000000000e+00 0.000000000000000e+00 0.000000000000000e+00
0.000000000000000e+00 0.000000000000000e+00 0.000000000000000e+00
0.000000000000000e+00 0.000000000000000e+00 0.000000000000000e+00
0.000000000000000e+00 0.000000000000000e+00 0.000000000000000e+00
0.000000000000000e+00 0.000000000000000e+00 0.000000000000000e+00
0.000000000000000e+00 0.000000000000000e+00 0.000000000000000e+00
0.000000000000000e+00 0.000000000000000e+00 0.000000000000000e+00
0.000000000000000e+00 0.000000000000000e+00 0.000000000000000e+00
0.000000000000000e+00 0.000000000000000e+00 0.000000000000000e+00
0.000000000000000e+00 0.000000000000000e+00 0.000000000000000e+00
0.000000000000000e+00 0.000000000000000e+00 0.000000000000000e+00
0.000000000000000e+00 0.000000000000000e+00 0.000000000000000e+00
0.000000000000000e+00 0.000000000000000e+00 0.000000000000000e+00
0.000000000000000e+00 0.000000000000000e+00 0.000000000000000e+00
0.000000000000000e+00 0.000000000000000e+00 0.000000000000000e+00
0.000000000000000e+00 0.000000000000000e+00 0.000000000000000e+00
0.000000000000000e+00 0.000000000000000e+00 0.000000000000000e+00
0.000000000000000e+00 0.000000000000000e+00 0.000000000000000e+00
0.000000000000000e+00 0.000000000000000e+00 0.000000000000000e+00
0.000000000000000e+00 0.000000000000000e+00 0.000000000000000e+00
0.000000000000000e+00 0.000000000000000e+00 0.000000000000000e+00
0.000000000000000e+00 0.000000000000000e+00 0.000000000000000e+00
0.000000000000000e+00 0.000000000000000e+00 0.000000000000000e+00
0.000000000000000e+00 0.000000000000000e+00 0.000000000000000e+00
0.000000000000000e+00 0.000000000000000e+00 0.000000000000000e+00
0.000000000000000e+00 0.000000000000000e+00 0.000000000000000e+00
0.000000000000000e+00 0.000000000000000e+00 0.000000000000000e+00
0.000000000000000e+00 0.000000000000000e+00 0.000000000000000e+00
0.000000000000000e+00 0.000000000000000e+00 0.000000000000000e+00
0.000000000000000e+00 0.000000000000000e+00 0.000000000000000e+00
0.000000000000000e+00 0.000000000000000e+00 0.000000000000000e+00
0.000000000000000e+00 0.000000000000000e+00 0.000000000000000e+00
0.000000000000000e+00 0.000000000000000e+00 0.000000000000000e+00
0.000000000000000e+00 0.000000000000000e+00 0.000000000000000e+00
0.000000000000000e+00 0.000000000000000e+00 0.000000000000000e+00
0.000000000000000e+00 0.000000000000000e+00 0.000000000000000e+00
0.000000000000000e+00 0.000000000000000e+00 0.000000000000000e+00
0.000000000000000e+00 0.000000000000000e+00 0.000000000000000e+00
0.000000000000000e+00 0.000000000000000e+00 0.000000000000000e+00
0.000000000000000e+00 0.000000000000000e+00 0.000000000000000e+00
0.000000000000000e+00 0.000000000000000e+00 0.000000000000000e+00
0.000000000000000e+00 0.000000000000000e+00 0.000000000000000e+00
0.000000000000000e+00 0.000000000000000e+00 0.000000000000000e+00
0.000000000000000e+00 0.000000000000000e+00 0.000000000000000e+00
0.000000000000000e+00 0.000000000000000e+00 0.000000000000000e+00
0.000000000000000e+00 0.000000000000000e+00 0.000000000000000e+00
0.000000000000000e+00 0.000000000000000e+00 0.000000000000000e+00
0.000000000000000e+00 0.000000000000000e+00 0.000000000000000e+00
0.000000000000000e+00 0.000000000000000e+00 0.000000000000000e+00
0.000000000000000e+00 0.000000000000000e+00 0.000000000000000e+00
0.000000000000000e+00 0.000000000000000e+00 0.000000000000000e+00
0.000000000000000e+00 0.000000000000000e+00 0.000000000000000e+00
0.000000000000000e+00 0.000000000000000e+00 0.000000000000000e+00
0.000000000000000e+00 0.000000000000000e+00 0.000000000000000e+00
0.000000000000000e+00 0.000000000000000e+00 0.000000000000000e+00
0.000000000000000e+00 0.000000000000000e+00 0.000000000000000e+00
0.000000000000000e+00 0.000000000000000e+00 0.000000000000000e+00
0.000000000000000e+00 0.000000000000000e+00 0.000000000000000e+00
0.000000000000000e+00 0.000000000000000e+00 0.000000000000000e+00
0.000000000000000e+00 0.000000000000000e+00 0.000000000000000e+00
0.000000000000000e+00 0.000000000000000e+00 0.000000000000000e+00
0.000000000000000e+00 0.000000000000000e+00 0.000000000000000e+00
0.000000000000000e+00 0.000000000000000e+00 0.000000000000000e+00
0.000000000000000e+00 0.000000000000000e+00 0.000000000000000e+00
0.000000000000000e+00 0.000000000000000e+00 0.000000000000000e+00
0.000000000000000e+00 0.000000000000000e+00 0.000000000000000e+00
0.000000000000000e+00 0.000000000000000e+00 0.000000000000000e+00
0.000000000000000e+00 0.000000000000000e+00 0.000000000000000e+00
0.000000000000000e+00 0.000000000000000e+00 0.000000000000000e+00
0.000000000000000e+00 0.000000000000000e+00 0.000000000000000e+00
0.000000000000000e+00 0.000000000000000e+00 0.000000000000000e+00
0.000000000000000e+00 0.000000000000000e+00 0.000000000000000e+00
0.000000000000000e+00 0.000000000000000e+00 0.000000000000000e+00
0.000000000000000e+00 0.000000000000000e+00 0.000000000000000e+00
0.000000000000000e+00 0.000000000000000e+00 0.000000000000000e+00
0.000000000000000e+00 0.000000000000000e+00 0.000000000000000e+00
0.000000000000000e+00 0.000000000000000e+00 0.000000000000000e+00
0.000000000000000e+00 0.000000000000000e+00 0.000000000000000e+00
0.000000000000000e+00 0.000000000000000e+00 0.000000000000000e+00
0.000000000000000e+00 0.000000000000000e+00 0.000000000000000e+00
0.000000000000000e+00 0.000000000000000e+00 0.000000000000000e+00
0.000000000000000e+00 0.000000000000000e+00 0.000000000000000e+00
0.000000000000000e+00 0.000000000000000e+00 0.000000000000000e+00
0.000000000000000e+00 0.000000000000000e+00 0.000000000000000e+00
0.000000000000000e+00 0.000000000000000e+00 0.000000000000000e+00
0.000000000000000e+00 0.000000000000000e+00 0.000000000000000e+00
0.000000000000000e+00 0.000000000000000e+00 0.000000000000000e+00
0.000000000000000e+00 0.000000000000000e+00 0.000000000000000e+00
0.000000000000000e+00 0.000000000000000e+00 0.000000000000000e+00
0.000000000000000e+00 0.000000000000000e+00 0.000000000000000e+00
0.000000000000000e+00 0.000000000000000e+00 0.000000000000000e+00
0.000000000000000e+00 0.000000000000000e+00 0.000000000000000e+00
0.000000000000000e+00 0.000000000000000e+00 0.000000000000000e+00
0.000000000000000e+00 0.000000000000000e+00 0.000000000000000e+00
0.000000000000000e+00 0.000000000000000e+00 0.000000000000000e+00
0.000000000000000e+00 0.000000000000000e+00 0.000000000000000e+00
0.000000000000000e+00 0.000000000000000e+00 0.000000000000000e+00
0.000000000000000e+00 0.000000000000000e+00 0.000000000000000e+00
0.000000000000000e+00 0.000000000000000e+00 0.000000000000000e+00
0.000000000000000e+00 0.000000000000000e+00 0.000000000000000e+00
0.000000000000000e+00 0.000000000000000e+00 0.000000000000000e+00
0.000000000000000e+00 0.000000000000000e+00 0.000000000000000e+00
0.000000000000000e+00 0.000000000000000e+00 0.000000000000000e+00
0.000000000000000e+00 0.000000000000000e+00 0.000000000000000e+00
0.000000000000000e+00 0.000000000000000e+00 0.000000000000000e+00
0.000000000000000e+00 0.000000000000000e+00 0.000000000000000e+00
0.000000000000000e+00 0.000000000000000e+00 0.000000000000000e+00
0.000000000000000e+00 0.000000000000000e+00 0.000000000000000e+00
0.000000000000000e+00 0.000000000000000e+00 0.000000000000000e+00
0.000000000000000e+00 0.000000000000000e+00 0.000000000000000e+00
0.000000000000000e+00 0.000000000000000e+00 0.000000000000000e+00
0.000000000000000e+00 0.000000000000000e+00 0.000000000000000e+00
0.000000000000000e+00 0.000000000000000e+00 0.000000000000000e+00
0.000000000000000e+00 0.000000000000000e+00 0.000000000000000e+00
0.000000000000000e+00 0.000000000000000e+00 0.000000000000000e+00
0.000000000000000e+00 0.000000000000000e+00 0.000000000000000e+00
0.000000000000000e+00 0.000000000000000e+00 0.000000000000000e+00
0.000000000000000e+00 0.000000000000000e+00 0.000000000000000e+00
0.000000000000000e+00 0.000000000000000e+00 0.000000000000000e+00
0.000000000000000e+00 0.000000000000000e+00 0.000000000000000e+00
0.000000000000000e+00 0.000000000000000e+00 0.000000000000000e+00
0.000000000000000e+00 0.000000000000000e+00 0.000000000000000e+00
0.000000000000000e+00 0.000000000000000e+00 0.000000000000000e+00
0.000000000000000e+00 0.000000000000000e+00 0.000000000000000e+00
0.000000000000000e+00 0.000000000000000e+00 0.000000000000000e+00
0.000000000000000e+00 0.000000000000000e+00 0.000000000000000e+00
0.000000000000000e+00 0.000000000000000e+00 0.000000000000000e+00
0.000000000000000e+00 0.000000000000000e+00 0.000000000000000e+00
0.000000000000000e+00 0.000000000000000e+00 0.000000000000000e+00
0.000000000000000e+00 0.000000000000000e+00 0.000000000000000e+00
0.000000000000000e+00 0.000000000000000e+00 0.000000000000000e+00
0.000000000000000e+00 0.000000000000000e+00 0.000000000000000e+00
0.000000000000000e+00 0.000000000000000e+00 0.000000000000000e+00
0.000000000000000e+00 0.000000000000000e+00 0.000000000000000e+00
0.000000000000000e+00 0.000000000000000e+00 0.000000000000000e+00
0.000000000000000e+00 0.000000000000000e+00 0.000000000000000e+00
0.000000000000000e+00 0.000000000000000e+00 0.000000000000000e+00
0.000000000000000e+00 0.000000000000000e+00 0.000000000000000e+00
0.000000000000000e+00 0.000000000000000e+00 0.000000000000000e+00
0.000000000000000e+00 0.000000000000000e+00 0.000000000000000e+00
0.000000000000000e+00 0.000000000000000e+00 0.000000000000000e+00
0.000000000000000e+00 0.000000000000000e+00 0.000000000000000e+00
0.000000000000000e+00 0.000000000000000e+00 0.000000000000000e+00
0.000000000000000e+00 0.000000000000000e+00 0.000000000000000e+00
0.000000000000000e+00 0.000000000000000e+00 0.000000000000000e+00
0.000000000000000e+00 0.000000000000000e+00 0.000000000000000e+00
0.000000000000000e+00 0.000000000000000e+00 0.000000000000000e+00
0.000000000000000e+00 0.000000000000000e+00 0.000000000000000e+00
0.000000000000000e+00 0.000000000000000e+00 0.000000000000000e+00
0.000000000000000e+00 0.000000000000000e+00 0.000000000000000e+00
0.000000000000000e+00 0.000000000000000e+00 0.000000000000000e+00
0.000000000000000e+00 0.000000000000000e+00 0.000000000000000e+00
0.000000000000000e+00 0.000000000000000e+00 0.000000000000000e+00
0.000000000000000e+00 0.000000000000000e+00 0.000000000000000e+00
0.000000000000000e+00 0.000000000000000e+00 0.000000000000000e+00
0.000000000000000e+00 0.000000000000000e+00 0.000000000000000e+00
0.000000000000000e+00 0.000000000000000e+00 0.000000000000000e+00
0.000000000000000e+00 0.000000000000000e+00 0.000000000000000e+00
0.000000000000000e+00 0.000000000000000e+00 0.000000000000000e+00
0.000000000000000e+00 0.000000000000000e+00 0.000000000000000e+00
0.000000000000000e+00 0.000000000000000e+00 0.000000000000000e+00
0.000000000000000e+00 0.000000000000000e+00 0.000000000000000e+00
0.000000000000000e+00 0.000000000000000e+00 0.000000000000000e+00
0.000000000000000e+00 0.000000000000000e+00 0.000000000000000e+00
0.000000000000000e+00 0.000000000000000e+00 0.000000000000000e+00
0.000000000000000e+00 0.000000000000000e+00 0.000000000000000e+00
0.000000000000000e+00 0.000000000000000e+00 0.000000000000000e+00
0.000000000000000e+00 0.000000000000000e+00 0.000000000000000e+00
0.000000000000000e+00 0.000000000000000e+00 0.000000000000000e+00
0.000000000000000e+00 0.000000000000000e+00 0.000000000000000e+00
0.000000000000000e+00 0.000000000000000e+00 0.000000000000000e+00
0.000000000000000e+00 0.000000000000000e+00 0.000000000000000e+00
0.000000000000000e+00 0.000000000000000e+00 0.000000000000000e+00
0.000000000000000e+00 0.000000000000000e+00 0.000000000000000e+00
0.000000000000000e+00 0.000000000000000e+00 0.000000000000000e+00
0.000000000000000e+00 0.000000000000000e+00 0.000000000000000e+00
0.000000000000000e+00 0.000000000000000e+00 0.000000000000000e+00
0.000000000000000e+00 0.000000000000000e+00 0.000000000000000e+00
0.000000000000000e+00 0.000000000000000e+00 0.000000000000000e+00
0.000000000000000e+00 0.000000000000000e+00 0.000000000000000e+00
0.000000000000000e+00 0.000000000000000e+00 0.000000000000000e+00
0.000000000000000e+00 0.000000000000000e+00 0.000000000000000e+00
0.000000000000000e+00 0.000000000000000e+00 0.000000000000000e+00
0.000000000000000e+00 0.000000000000000e+00 0.000000000000000e+00
0.000000000000000e+00 0.000000000000000e+00 0.000000000000000e+00
0.000000000000000e+00 0.000000000000000e+00 0.000000000000000e+00
0.000000000000000e+00 0.000000000000000e+00 0.000000000000000e+00
0.000000000000000e+00 0.000000000000000e+00 0.000000000000000e+00
0.000000000000000e+00 0.000000000000000e+00 0.000000000000000e+00
0.000000000000000e+00 0.000000000000000e+00 0.000000000000000e+00
0.000000000000000e+00 0.000000000000000e+00 0.000000000000000e+00
0.000000000000000e+00 0.000000000000000e+00 0.000000000000000e+00
0.000000000000000e+00 0.000000000000000e+00 0.000000000000000e+00
0.000000000000000e+00 0.000000000000000e+00 0.000000000000000e+00
0.000000000000000e+00 0.000000000000000e+00 0.000000000000000e+00
0.000000000000000e+00 0.000000000000000e+00 0.000000000000000e+00
0.000000000000000e+00 0.000000000000000e+00 0.000000000000000e+00
0.000000000000000e+00 0.000000000000000e+00 0.000000000000000e+00
0.000000000000000e+00 0.000000000000000e+00 0.000000000000000e+00
0.000000000000000e+00 0.000000000000000e+00 0.000000000000000e+00
0.000000000000000e+00 0.000000000000000e+00 0.000000000000000e+00
0.000000000000000e+00 0.000000000000000e+00 0.000000000000000e+00
0.000000000000000e+00 0.000000000000000e+00 0.000000000000000e+00
0.000000000000000e+00 0.000000000000000e+00 0.000000000000000e+00
0.000000000000000e+00 0.000000000000000e+00 0.000000000000000e+00
0.000000000000000e+00 0.000000000000000e+00 0.000000000000000e+00
0.000000000000000e+00 0.000000000000000e+00 0.000000000000000e+00
0.000000000000000e+00 0.000000000000000e+00 0.000000000000000e+00
0.000000000000000e+00 0.000000000000000e+00 0.000000000000000e+00
0.000000000000000e+00 0.000000000000000e+00 0.000000000000000e+00
0.000000000000000e+00 0.000000000000000e+00 0.000000000000000e+00
0.000000000000000e+00 0.000000000000000e+00 0.000000000000000e+00
0.000000000000000e+00 0.000000000000000e+00 0.000000000000000e+00
0.000000000000000e+00 0.000000000000000e+00 0.000000000000000e+00
0.000000000000000e+00 0.000000000000000e+00 0.000000000000000e+00
0.000000000000000e+00 0.000000000000000e+00 0.000000000000000e+00
0.000000000000000e+00 0.000000000000000e+00 0.000000000000000e+00
0.000000000000000e+00 0.000000000000000e+00 0.000000000000000e+00
0.000000000000000e+00 0.000000000000000e+00 0.000000000000000e+00
0.000000000000000e+00 0.000000000000000e+00 0.000000000000000e+00
0.000000000000000e+00 0.000000000000000e+00 0.000000000000000e+00
0.000000000000000e+00 0.000000000000000e+00 0.000000000000000e+00
0.000000000000000e+00 0.000000000000000e+00 0.000000000000000e+00
0.000000000000000e+00 0.000000000000000e+00 0.000000000000000e+00
0.000000000000000e+00 0.000000000000000e+00 0.000000000000000e+00
0.000000000000000e+00 0.000000000000000e+00 0.000000000000000e+00
0.000000000000000e+00 0.000000000000000e+00 0.000000000000000e+00
0.000000000000000e+00 0.000000000000000e+00 0.000000000000000e+00
0.000000000000000e+00 0.000000000000000e+00 0.000000000000000e+00
0.000000000000000e+00 0.000000000000000e+00 0.000000000000000e+00
0.000000000000000e+00 0.000000000000000e+00 0.000000000000000e+00
0.000000000000000e+00 0.000000000000000e+00 0.000000000000000e+00
0.000000000000000e+00 0.000000000000000e+00 0.000000000000000e+00
0.000000000000000e+00 0.000000000000000e+00 0.000000000000000e+00
0.000000000000000e+00 0.000000000000000e+00 0.000000000000000e+00
0.000000000000000e+00 0.000000000000000e+00 0.000000000000000e+00
0.000000000000000e+00 0.000000000000000e+00 0.000000000000000e+00
0.000000000000000e+00 0.000000000000000e+00 0.000000000000000e+00
0.000000000000000e+00 0.000000000000000e+00 0.000000000000000e+00
0.000000000000000e+00 0.000000000000000e+00 0.000000000000000e+00
0.000000000000000e+00 0.000000000000000e+00 0.000000000000000e+00
0.000000000000000e+00 0.000000000000000e+00 0.000000000000000e+00
0.000000000000000e+00 0.000000000000000e+00 0.000000000000000e+00
0.000000000000000e+00 0.000000000000000e+00 0.000000000000000e+00
0.000000000000000e+00 0.000000000000000e+00 0.000000000000000e+00
0.000000000000000e+00 0.000000000000000e+00 0.000000000000000e+00
0.000000000000000e+00 0.000000000000000e+00 0.000000000000000e+00
0.000000000000000e+00 0.000000000000000e+00 0.000000000000000e+00
0.000000000000000e+00 0.000000000000000e+00 0.000000000000000e+00
0.000000000000000e+00 0.000000000000000e+00 0.000000000000000e+00
0.000000000000000e+00 0.000000000000000e+00 0.000000000000000e+00
0.000000000000000e+00 0.000000000000000e+00 0.000000000000000e+00
0.000000000000000e+00 0.000000000000000e+00 0.000000000000000e+00
0.000000000000000e+00 0.000000000000000e+00 0.000000000000000e+00
0.000000000000000e+00 0.000000000000000e+00 0.000000000000000e+00
0.000000000000000e+00 0.000000000000000e+00 0.000000000000000e+00
0.000000000000000e+00 0.000000000000000e+00 0.000000000000000e+00
0.000000000000000e+00 0.000000000000000e+00 0.000000000000000e+00
0.000000000000000e+00 0.000000000000000e+00 0.000000000000000e+00
0.000000000000000e+00 0.000000000000000e+00 0.000000000000000e+00
0.000000000000000e+00 0.000000000000000e+00 0.000000000000000e+00
0.000000000000000e+00 0.000000000000000e+00 0.000000000000000e+00
0.000000000000000e+00 0.000000000000000e+00 0.000000000000000e+00
0.000000000000000e+00 0.000000000000000e+00 0.000000000000000e+00
0.000000000000000e+00 0.000000000000000e+00 0.000000000000000e+00
0.000000000000000e+00 0.000000000000000e+00 0.000000000000000e+00
0.000000000000000e+00 0.000000000000000e+00 0.000000000000000e+00
0.000000000000000e+00 0.000000000000000e+00 0.000000000000000e+00
0.000000000000000e+00 0.000000000000000e+00 0.000000000000000e+00
0.000000000000000e+00 0.000000000000000e+00 0.000000000000000e+00
0.000000000000000e+00 0.000000000000000e+00 0.000000000000000e+00
0.000000000000000e+00 0.000000000000000e+00 0.000000000000000e+00
0.000000000000000e+00 0.000000000000000e+00 0.000000000000000e+00
0.000000000000000e+00 0.000000000000000e+00 0.000000000000000e+00
0.000000000000000e+00 0.000000000000000e+00 0.000000000000000e+00
0.000000000000000e+00 0.000000000000000e+00 0.000000000000000e+00
0.000000000000000e+00 0.000000000000000e+00 0.000000000000000e+00
0.000000000000000e+00 0.000000000000000e+00 0.000000000000000e+00
0.000000000000000e+00 0.000000000000000e+00 0.000000000000000e+00
0.000000000000000e+00 0.000000000000000e+00 0.000000000000000e+00
0.000000000000000e+00 0.000000000000000e+00 0.000000000000000e+00
0.000000000000000e+00 0.000000000000000e+00 0.000000000000000e+00
0.000000000000000e+00 0.000000000000000e+00 0.000000000000000e+00
0.000000000000000e+00 0.000000000000000e+00 0.000000000000000e+00
0.000000000000000e+00 0.000000000000000e+00 0.000000000000000e+00
0.000000000000000e+00 0.000000000000000e+00 0.000000000000000e+00
0.000000000000000e+00 0.000000000000000e+00 0.000000000000000e+00
0.000000000000000e+00 0.000000000000000e+00 0.000000000000000e+00
0.000000000000000e+00 0.000000000000000e+00 0.000000000000000e+00
0.000000000000000e+00 0.000000000000000e+00 0.000000000000000e+00
0.000000000000000e+00 0.000000000000000e+00 0.000000000000000e+00
0.000000000000000e+00 0.000000000000000e+00 0.000000000000000e+00
0.000000000000000e+00 0.000000000000000e+00 0.000000000000000e+00
0.000000000000000e+00 0.000000000000000e+00 0.000000000000000e+00
0.000000000000000e+00 0.000000000000000e+00 0.000000000000000e+00
0.000000000000000e+00 0.000000000000000e+00 0.000000000000000e+00
0.000000000000000e+00 0.000000000000000e+00 0.000000000000000e+00
0.000000000000000e+00 0.000000000000000e+00 0.000000000000000e+00
0.000000000000000e+00 0.000000000000000e+00 0.000000000000000e+00
0.000000000000000e+00 0.000000000000000e+00 0.000000000000000e+00
0.000000000000000e+00 0.000000000000000e+00 0.000000000000000e+00
0.000000000000000e+00 0.000000000000000e+00 0.000000000000000e+00
0.000000000000000e+00 0.000000000000000e+00 0.000000000000000e+00
0.000000000000000e+00 0.000000000000000e+00 0.000000000000000e+00
0.000000000000000e+00 0.000000000000000e+00 0.000000000000000e+00
0.000000000000000e+00 0.000000000000000e+00 0.000000000000000e+00
0.000000000000000e+00 0.000000000000000e+00 0.000000000000000e+00
0.000000000000000e+00 0.000000000000000e+00 0.000000000000000e+00
0.000000000000000e+00 0.000000000000000e+00 0.000000000000000e+00
0.000000000000000e+00 0.000000000000000e+00 0.000000000000000e+00
0.000000000000000e+00 0.000000000000000e+00 0.000000000000000e+00
0.000000000000000e+00 0.000000000000000e+00 0.000000000000000e+00
0.000000000000000e+00 0.000000000000000e+00 0.000000000000000e+00
0.000000000000000e+00 0.000000000000000e+00 0.000000000000000e+00
0.000000000000000e+00 0.000000000000000e+00 0.000000000000000e+00
0.000000000000000e+00 0.000000000000000e+00 0.000000000000000e+00
0.000000000000000e+00 0.000000000000000e+00 0.000000000000000e+00
0.000000000000000e+00 0.000000000000000e+00 0.000000000000000e+00
0.000000000000000e+00 0.000000000000000e+00 0.000000000000000e+00
0.000000000000000e+00 0.000000000000000e+00 0.000000000000000e+00
0.000000000000000e+00 0.000000000000000e+00 0.000000000000000e+00
0.000000000000000e+00 0.000000000000000e+00 0.000000000000000e+00
0.000000000000000e+00 0.000000000000000e+00 0.000000000000000e+00
0.000000000000000e+00 0.000000000000000e+00 0.000000000000000e+00
0.000000000000000e+00 0.000000000000000e+00 0.000000000000000e+00
0.000000000000000e+00 0.000000000000000e+00 0.000000000000000e+00
0.000000000000000e+00 0.000000000000000e+00 0.000000000000000e+00
0.000000000000000e+00 0.000000000000000e+00 0.000000000000000e+00
0.000000000000000e+00 0.000000000000000e+00 0.000000000000000e+00
0.000000000000000e+00 0.000000000000000e+00 0.000000000000000e+00
0.000000000000000e+00 0.000000000000000e+00 0.000000000000000e+00
0.000000000000000e+00 0.000000000000000e+00 0.000000000000000e+00
0.000000000000000e+00 0.000000000000000e+00 0.000000000000000e+00
0.000000000000000e+00 0.000000000000000e+00 0.000000000000000e+00
0.000000000000000e+00 0.000000000000000e+00 0.000000000000000e+00
0.000000000000000e+00 0.000000000000000e+00 0.000000000000000e+00
0.000000000000000e+00 0.000000000000000e+00 0.000000000000000e+00
0.000000000000000e+00 0.000000000000000e+00 0.000000000000000e+00
0.000000000000000e+00 0.000000000000000e+00 0.000000000000000e+00
0.000000000000000e+00 0.000000000000000e+00 0.000000000000000e+00
0.000000000000000e+00 0.000000000000000e+00 0.000000000000000e+00
0.000000000000000e+00 0.000000000000000e+00 0.000000000000000e+00
0.000000000000000e+00 0.000000000000000e+00 0.000000000000000e+00
0.000000000000000e+00 0.000000000000000e+00 0.000000000000000e+00
0.000000000000000e+00 0.000000000000000e+00 0.000000000000000e+00
0.000000000000000e+00 0.000000000000000e+00 0.000000000000000e+00
0.000000000000000e+00 0.000000000000000e+00 0.000000000000000e+00
0.000000000000000e+00 0.000000000000000e+00 0.000000000000000e+00
0.000000000000000e+00 0.000000000000000e+00 0.000000000000000e+00
0.000000000000000e+00 0.000000000000000e+00 0.000000000000000e+00
0.000000000000000e+00 0.000000000000000e+00 0.000000000000000e+00
0.000000000000000e+00 0.000000000000000e+00 0.000000000000000e+00
0.000000000000000e+00 0.000000000000000e+00 0.000000000000000e+00
0.000000000000000e+00 0.000000000000000e+00 0.000000000000000e+00
0.000000000000000e+00 0.000000000000000e+00 0.000000000000000e+00
0.000000000000000e+00 0.000000000000000e+00 0.000000000000000e+00
0.000000000000000e+00 0.000000000000000e+00 0.000000000000000e+00
0.000000000000000e+00 0.000000000000000e+00 0.000000000000000e+00
0.000000000000000e+00 0.000000000000000e+00 0.000000000000000e+00
0.000000000000000e+00 0.000000000000000e+00 0.000000000000000e+00
0.000000000000000e+00 0.000000000000000e+00 0.000000000000000e+00
0.000000000000000e+00 0.000000000000000e+00 0.000000000000000e+00
0.000000000000000e+00 0.000000000000000e+00 0.000000000000000e+00
0.000000000000000e+00 0.000000000000000e+00 0.000000000000000e+00
0.000000000000000e+00 0.000000000000000e+00 0.000000000000000e+00
0.000000000000000e+00 0.000000000000000e+00 0.000000000000000e+00
0.000000000000000e+00 0.000000000000000e+00 0.000000000000000e+00
0.000000000000000e+00 0.000000000000000e+00 0.000000000000000e+00
0.000000000000000e+00 0.000000000000000e+00 0.000000000000000e+00
0.000000000000000e+00 0.000000000000000e+00 0.000000000000000e+00
0.000000000000000e+00 0.000000000000000e+00 0.000000000000000e+00
0.000000000000000e+00 0.000000000000000e+00 0.000000000000000e+00
0.000000000000000e+00 0.000000000000000e+00 0.000000000000000e+00
0.000000000000000e+00 0.000000000000000e+00 0.000000000000000e+00
0.000000000000000e+00 0.000000000000000e+00 0.000000000000000e+00
0.000000000000000e+00 0.000000000000000e+00 0.000000000000000e+00
0.000000000000000e+00 0.000000000000000e+00 0.000000000000000e+00
0.000000000000000e+00 0.000000000000000e+00 0.000000000000000e+00
0.000000000000000e+00 0.000000000000000e+00 0.000000000000000e+00
0.000000000000000e+00 0.000000000000000e+00 0.000000000000000e+00
0.000000000000000e+00 0.000000000000000e+00 0.000000000000000e+00
0.000000000000000e+00 0.000000000000000e+00 0.000000000000000e+00
0.000000000000000e+00 0.000000000000000e+00 0.000000000000000e+00
0.000000000000000e+00 0.000000000000000e+00 0.000000000000000e+00
0.000000000000000e+00 0.000000000000000e+00 0.000000000000000e+00
0.000000000000000e+00 0.000000000000000e+00 0.000000000000000e+00
0.000000000000000e+00 0.000000000000000e+00 0.000000000000000e+00
0.000000000000000e+00 0.000000000000000e+00 0.000000000000000e+00
0.000000000000000e+00 0.000000000000000e+00 0.000000000000000e+00
0.000000000000000e+00 0.000000000000000e+00 0.000000000000000e+00
0.000000000000000e+00 0.000000000000000e+00 0.000000000000000e+00
0.000000000000000e+00 0.000000000000000e+00 0.000000000000000e+00
0.000000000000000e+00 0.000000000000000e+00 0.000000000000000e+00
0.000000000000000e+00 0.000000000000000e+00 0.000000000000000e+00
0.000000000000000e+00 0.000000000000000e+00 0.000000000000000e+00
0.000000000000000e+00 0.000000000000000e+00 0.000000000000000e+00
0.000000000000000e+00 0.000000000000000e+00 0.000000000000000e+00
0.000000000000000e+00 0.000000000000000e+00 0.000000000000000e+00
0.000000000000000e+00 0.000000000000000e+00 0.000000000000000e+00
0.000000000000000e+00 0.000000000000000e+00 0.000000000000000e+00
0.000000000000000e+00 0.000000000000000e+00 0.000000000000000e+00
0.000000000000000e+00 0.000000000000000e+00 0.000000000000000e+00
0.000000000000000e+00 0.000000000000000e+00 0.000000000000000e+00
0.000000000000000e+00 0.000000000000000e+00 0.000000000000000e+00
0.000000000000000e+00 0.000000000000000e+00 0.000000000000000e+00
0.000000000000000e+00 0.000000000000000e+00 0.000000000000000e+00
0.000000000000000e+00 0.000000000000000e+00 0.000000000000000e+00
0.000000000000000e+00 0.000000000000000e+00 0.000000000000000e+00
0.000000000000000e+00 0.000000000000000e+00 0.000000000000000e+00
0.000000000000000e+00 0.000000000000000e+00 0.000000000000000e+00
0.000000000000000e+00 0.000000000000000e+00 0.000000000000000e+00
0.000000000000000e+00 0.000000000000000e+00 0.000000000000000e+00
0.000000000000000e+00 0.000000000000000e+00 0.000000000000000e+00
0.000000000000000e+00 0.000000000000000e+00 0.000000000000000e+00
0.000000000000000e+00 0.000000000000000e+00 0.000000000000000e+00
0.000000000000000e+00 0.000000000000000e+00 0.000000000000000e+00
0.000000000000000e+00 0.000000000000000e+00 0.000000000000000e+00
0.000000000000000e+00 0.000000000000000e+00 0.000000000000000e+00
0.000000000000000e+00 0.000000000000000e+00 0.000000000000000e+00
0.000000000000000e+00 0.000000000000000e+00 0.000000000000000e+00
0.000000000000000e+00 0.000000000000000e+00 0.000000000000000e+00
0.000000000000000e+00 0.000000000000000e+00 0.000000000000000e+00
0.000000000000000e+00 0.000000000000000e+00 0.000000000000000e+00
0.000000000000000e+00 0.000000000000000e+00 0.000000000000000e+00
0.000000000000000e+00 0.000000000000000e+00 0.000000000000000e+00
0.000000000000000e+00 0.000000000000000e+00 0.000000000000000e+00
0.000000000000000e+00 0.000000000000000e+00 0.000000000000000e+00
0.000000000000000e+00 0.000000000000000e+00 0.000000000000000e+00
0.000000000000000e+00 0.000000000000000e+00 0.000000000000000e+00
0.000000000000000e+00 0.000000000000000e+00 0.000000000000000e+00
0.000000000000000e+00 0.000000000000000e+00 0.000000000000000e+00
0.000000000000000e+00 0.000000000000000e+00 0.000000000000000e+00
0.000000000000000e+00 0.000000000000000e+00 0.000000000000000e+00
0.000000000000000e+00 0.000000000000000e+00 0.000000000000000e+00
0.000000000000000e+00 0.000000000000000e+00 0.000000000000000e+00
0.000000000000000e+00 0.000000000000000e+00 0.000000000000000e+00
0.000000000000000e+00 0.000000000000000e+00 0.000000000000000e+00
0.000000000000000e+00 0.000000000000000e+00 0.000000000000000e+00
0.000000000000000e+00 0.000000000000000e+00 0.000000000000000e+00
0.000000000000000e+00 0.000000000000000e+00 0.000000000000000e+00
0.000000000000000e+00 0.000000000000000e+00 0.000000000000000e+00
0.000000000000000e+00 0.000000000000000e+00 0.000000000000000e+00
0.000000000000000e+00 0.000000000000000e+00 0.000000000000000e+00
0.000000000000000e+00 0.000000000000000e+00 0.000000000000000e+00
0.000000000000000e+00 0.000000000000000e+00 0.000000000000000e+00
0.000000000000000e+00 0.000000000000000e+00 0.000000000000000e+00
0.000000000000000e+00 0.000000000000000e+00 0.000000000000000e+00
0.000000000000000e+00 0.000000000000000e+00 0.000000000000000e+00
0.000000000000000e+00 0.000000000000000e+00 0.000000000000000e+00
0.000000000000000e+00 0.000000000000000e+00 0.000000000000000e+00
0.000000000000000e+00 0.000000000000000e+00 0.000000000000000e+00
0.000000000000000e+00 0.000000000000000e+00 0.000000000000000e+00
0.000000000000000e+00 0.000000000000000e+00 0.000000000000000e+00
0.000000000000000e+00 0.000000000000000e+00 0.000000000000000e+00
0.000000000000000e+00 0.000000000000000e+00 0.000000000000000e+00
0.000000000000000e+00 0.000000000000000e+00 0.000000000000000e+00
0.000000000000000e+00 0.000000000000000e+00 0.000000000000000e+00
0.000000000000000e+00 0.000000000000000e+00 0.000000000000000e+00
0.000000000000000e+00 0.000000000000000e+00 0.000000000000000e+00
0.000000000000000e+00 0.000000000000000e+00 0.000000000000000e+00
0.000000000000000e+00 0.000000000000000e+00 0.000000000000000e+00
0.000000000000000e+00 0.000000000000000e+00 0.000000000000000e+00
0.000000000000000e+00 0.000000000000000e+00 0.000000000000000e+00
0.000000000000000e+00 0.000000000000000e+00 0.000000000000000e+00
0.000000000000000e+00 0.000000000000000e+00 0.000000000000000e+00
0.000000000000000e+00 0.000000000000000e+00 0.000000000000000e+00
0.000000000000000e+00 0.000000000000000e+00 0.000000000000000e+00
0.000000000000000e+00 0.000000000000000e+00 0.000000000000000e+00
0.000000000000000e+00 0.000000000000000e+00 0.000000000000000e+00
0.000000000000000e+00 0.000000000000000e+00 0.000000000000000e+00
0.000000000000000e+00 0.000000000000000e+00 0.000000000000000e+00
0.000000000000000e+00 0.000000000000000e+00 0.000000000000000e+00
0.000000000000000e+00 0.000000000000000e+00 0.000000000000000e+00
0.000000000000000e+00 0.000000000000000e+00 0.000000000000000e+00
0.000000000000000e+00 0.000000000000000e+00 0.000000000000000e+00
0.000000000000000e+00 0.000000000000000e+00 0.000000000000000e+00
0.000000000000000e+00 0.000000000000000e+00 0.000000000000000e+00
0.000000000000000e+00 0.000000000000000e+00 0.000000000000000e+00
0.000000000000000e+00 0.000000000000000e+00 0.000000000000000e+00
0.000000000000000e+00 0.000000000000000e+00 0.000000000000000e+00
0.000000000000000e+00 0.000000000000000e+00 0.000000000000000e+00
0.000000000000000e+00 0.000000000000000e+00 0.000000000000000e+00
0.000000000000000e+00 0.000000000000000e+00 0.000000000000000e+00
0.000000000000000e+00 0.000000000000000e+00 0.000000000000000e+00
0.000000000000000e+00 0.000000000000000e+00 0.000000000000000e+00
0.000000000000000e+00 0.000000000000000e+00 0.000000000000000e+00
0.000000000000000e+00 0.000000000000000e+00 0.000000000000000e+00
0.000000000000000e+00 0.000000000000000e+00 0.000000000000000e+00
0.000000000000000e+00 0.000000000000000e+00 0.000000000000000e+00
0.000000000000000e+00 0.000000000000000e+00 0.000000000000000e+00
0.000000000000000e+00 0.000000000000000e+00 0.000000000000000e+00
0.000000000000000e+00 0.000000000000000e+00 0.000000000000000e+00
0.000000000000000e+00 0.000000000000000e+00 0.000000000000000e+00
0.000000000000000e+00 0.000000000000000e+00 0.000000000000000e+00
0.000000000000000e+00 0.000000000000000e+00 0.000000000000000e+00
0.000000000000000e+00 0.000000000000000e+00 0.000000000000000e+00
0.000000000000000e+00 0.000000000000000e+00 0.000000000000000e+00
0.000000000000000e+00 0.000000000000000e+00 0.000000000000000e+00
0.000000000000000e+00 0.000000000000000e+00 0.000000000000000e+00
0.000000000000000e+00 0.000000000000000e+00 0.000000000000000e+00
0.000000000000000e+00 0.000000000000000e+00 0.000000000000000e+00
0.000000000000000e+00 0.000000000000000e+00 0.000000000000000e+00
0.000000000000000e+00 0.000000000000000e+00 0.000000000000000e+00
0.000000000000000e+00 0.000000000000000e+00 0.000000000000000e+00
0.000000000000000e+00 0.000000000000000e+00 0.000000000000000e+00
0.000000000000000e+00 0.000000000000000e+00 0.000000000000000e+00
0.000000000000000e+00 0.000000000000000e+00 0.000000000000000e+00
0.000000000000000e+00 0.000000000000000e+00 0.000000000000000e+00
0.000000000000000e+00 0.000000000000000e+00 0.000000000000000e+00
0.000000000000000e+00 0.000000000000000e+00 0.000000000000000e+00
0.000000000000000e+00 0.000000000000000e+00 0.000000000000000e+00
0.000000000000000e+00 0.000000000000000e+00 0.000000000000000e+00
0.000000000000000e+00 0.000000000000000e+00 0.000000000000000e+00
0.000000000000000e+00 0.000000000000000e+00 0.000000000000000e+00
0.000000000000000e+00 0.000000000000000e+00 0.000000000000000e+00
0.000000000000000e+00 0.000000000000000e+00 0.000000000000000e+00
0.000000000000000e+00 0.000000000000000e+00 0.000000000000000e+00
0.000000000000000e+00 0.000000000000000e+00 0.000000000000000e+00
0.000000000000000e+00 0.000000000000000e+00 0.000000000000000e+00
0.000000000000000e+00 0.000000000000000e+00 0.000000000000000e+00
0.000000000000000e+00 0.000000000000000e+00 0.000000000000000e+00
0.000000000000000e+00 0.000000000000000e+00 0.000000000000000e+00
0.000000000000000e+00 0.000000000000000e+00 0.000000000000000e+00
0.000000000000000e+00 0.000000000000000e+00 0.000000000000000e+00
0.000000000000000e+00 0.000000000000000e+00 0.000000000000000e+00
0.000000000000000e+00 0.000000000000000e+00 0.000000000000000e+00
0.000000000000000e+00 0.000000000000000e+00 0.000000000000000e+00
0.000000000000000e+00 0.000000000000000e+00 0.000000000000000e+00
0.000000000000000e+00 0.000000000000000e+00 0.000000000000000e+00
0.000000000000000e+00 0.000000000000000e+00 0.000000000000000e+00
0.000000000000000e+00 0.000000000000000e+00 0.000000000000000e+00
0.000000000000000e+00 0.000000000000000e+00 0.000000000000000e+00
0.000000000000000e+00 0.000000000000000e+00 0.000000000000000e+00
0.000000000000000e+00 0.000000000000000e+00 0.000000000000000e+00
0.000000000000000e+00 0.000000000000000e+00 0.000000000000000e+00
0.000000000000000e+00 0.000000000000000e+00 0.000000000000000e+00
0.000000000000000e+00 0.000000000000000e+00 0.000000000000000e+00
0.000000000000000e+00 0.000000000000000e+00 0.000000000000000e+00
0.000000000000000e+00 0.000000000000000e+00 0.000000000000000e+00
0.000000000000000e+00 0.000000000000000e+00 0.000000000000000e+00
0.000000000000000e+00 0.000000000000000e+00 0.000000000000000e+00
0.000000000000000e+00 0.000000000000000e+00 0.000000000000000e+00
0.000000000000000e+00 0.000000000000000e+00 0.000000000000000e+00
0.000000000000000e+00 0.000000000000000e+00 0.000000000000000e+00
0.000000000000000e+00 0.000000000000000e+00 0.000000000000000e+00
0.000000000000000e+00 0.000000000000000e+00 0.000000000000000e+00
0.000000000000000e+00 0.000000000000000e+00 0.000000000000000e+00
0.000000000000000e+00 0.000000000000000e+00 0.000000000000000e+00
0.000000000000000e+00 0.000000000000000e+00 0.000000000000000e+00
0.000000000000000e+00 0.000000000000000e+00 0.000000000000000e+00
0.000000000000000e+00 0.000000000000000e+00 0.000000000000000e+00
0.000000000000000e+00 0.000000000000000e+00 0.000000000000000e+00
0.000000000000000e+00 0.000000000000000e+00 0.000000000000000e+00
0.000000000000000e+00 0.000000000000000e+00 0.000000000000000e+00
0.000000000000000e+00 0.000000000000000e+00 0.000000000000000e+00
0.000000000000000e+00 0.000000000000000e+00 0.000000000000000e+00
0.000000000000000e+00 0.000000000000000e+00 0.000000000000000e+00
0.000000000000000e+00 0.000000000000000e+00 0.000000000000000e+00
0.000000000000000e+00 0.000000000000000e+00 0.000000000000000e+00
0.000000000000000e+00 0.000000000000000e+00 0.000000000000000e+00
0.000000000000000e+00 0.000000000000000e+00 0.000000000000000e+00
0.000000000000000e+00 0.000000000000000e+00 0.000000000000000e+00
0.000000000000000e+00 0.000000000000000e+00 0.000000000000000e+00
0.000000000000000e+00 0.000000000000000e+00 0.000000000000000e+00
0.000000000000000e+00 0.000000000000000e+00 0.000000000000000e+00
0.000000000000000e+00 0.000000000000000e+00 0.000000000000000e+00
0.000000000000000e+00 0.000000000000000e+00 0.000000000000000e+00
0.000000000000000e+00 0.000000000000000e+00 0.000000000000000e+00
0.000000000000000e+00 0.000000000000000e+00 0.000000000000000e+00
0.000000000000000e+00 0.000000000000000e+00 0.000000000000000e+00
0.000000000000000e+00 0.000000000000000e+00 0.000000000000000e+00
0.000000000000000e+00 0.000000000000000e+00 0.000000000000000e+00
0.000000000000000e+00 0.000000000000000e+00 0.000000000000000e+00
0.000000000000000e+00 0.000000000000000e+00 0.000000000000000e+00
0.000000000000000e+00 0.000000000000000e+00 0.000000000000000e+00
0.000000000000000e+00 0.000000000000000e+00 0.000000000000000e+00
0.000000000000000e+00 0.000000000000000e+00 0.000000000000000e+00
0.000000000000000e+00 0.000000000000000e+00 0.000000000000000e+00
0.000000000000000e+00 0.000000000000000e+00 0.000000000000000e+00
0.000000000000000e+00 0.000000000000000e+00 0.000000000000000e+00
0.000000000000000e+00 0.000000000000000e+00 0.000000000000000e+00
0.000000000000000e+00 0.000000000000000e+00 0.000000000000000e+00
0.000000000000000e+00 0.000000000000000e+00 0.000000000000000e+00
0.000000000000000e+00 0.000000000000000e+00 0.000000000000000e+00
0.000000000000000e+00 0.000000000000000e+00 0.000000000000000e+00
0.000000000000000e+00 0.000000000000000e+00 0.000000000000000e+00
0.000000000000000e+00 0.000000000000000e+00 0.000000000000000e+00
0.000000000000000e+00 0.000000000000000e+00 0.000000000000000e+00
0.000000000000000e+00 0.000000000000000e+00 0.000000000000000e+00
0.000000000000000e+00 0.000000000000000e+00 0.000000000000000e+00
0.000000000000000e+00 0.000000000000000e+00 0.000000000000000e+00
0.000000000000000e+00 0.000000000000000e+00 0.000000000000000e+00
0.000000000000000e+00 0.000000000000000e+00 0.000000000000000e+00
0.000000000000000e+00 0.000000000000000e+00 0.000000000000000e+00
0.000000000000000e+00 0.000000000000000e+00 0.000000000000000e+00
0.000000000000000e+00 0.000000000000000e+00 0.000000000000000e+00
0.000000000000000e+00 0.000000000000000e+00 0.000000000000000e+00
0.000000000000000e+00 0.000000000000000e+00 0.000000000000000e+00
0.000000000000000e+00 0.000000000000000e+00 0.000000000000000e+00
0.000000000000000e+00 0.000000000000000e+00 0.000000000000000e+00
0.000000000000000e+00 0.000000000000000e+00 0.000000000000000e+00
0.000000000000000e+00 0.000000000000000e+00 0.000000000000000e+00
0.000000000000000e+00 0.000000000000000e+00 0.000000000000000e+00
0.000000000000000e+00 0.000000000000000e+00 0.000000000000000e+00
0.000000000000000e+00 0.000000000000000e+00 0.000000000000000e+00
0.000000000000000e+00 0.000000000000000e+00 0.000000000000000e+00
0.000000000000000e+00 0.000000000000000e+00 0.000000000000000e+00
0.000000000000000e+00 0.000000000000000e+00 0.000000000000000e+00
0.000000000000000e+00 0.000000000000000e+00 0.000000000000000e+00
0.000000000000000e+00 0.000000000000000e+00 0.000000000000000e+00
0.000000000000000e+00 0.000000000000000e+00 0.000000000000000e+00
0.000000000000000e+00 0.000000000000000e+00 0.000000000000000e+00
0.000000000000000e+00 0.000000000000000e+00 0.000000000000000e+00
0.000000000000000e+00 0.000000000000000e+00 0.000000000000000e+00
0.000000000000000e+00 0.000000000000000e+00 0.000000000000000e+00
0.000000000000000e+00 0.000000000000000e+00 0.000000000000000e+00
0.000000000000000e+00 0.000000000000000e+00 0.000000000000000e+00
0.000000000000000e+00 0.000000000000000e+00 0.000000000000000e+00
0.000000000000000e+00 0.000000000000000e+00 0.000000000000000e+00
0.000000000000000e+00 0.000000000000000e+00 0.000000000000000e+00
0.000000000000000e+00 0.000000000000000e+00 0.000000000000000e+00
0.000000000000000e+00 0.000000000000000e+00 0.000000000000000e+00
0.000000000000000e+00 0.000000000000000e+00 0.000000000000000e+00
0.000000000000000e+00 0.000000000000000e+00 0.000000000000000e+00
0.000000000000000e+00 0.000000000000000e+00 0.000000000000000e+00
0.000000000000000e+00 0.000000000000000e+00 0.000000000000000e+00
0.000000000000000e+00 0.000000000000000e+00 0.000000000000000e+00
0.000000000000000e+00 0.000000000000000e+00 0.000000000000000e+00
0.000000000000000e+00 0.000000000000000e+00 0.000000000000000e+00
0.000000000000000e+00 0.000000000000000e+00 0.000000000000000e+00
0.000000000000000e+00 0.000000000000000e+00 0.000000000000000e+00
0.000000000000000e+00 0.000000000000000e+00 0.000000000000000e+00
0.000000000000000e+00 0.000000000000000e+00 0.000000000000000e+00
0.000000000000000e+00 0.000000000000000e+00 0.000000000000000e+00
0.000000000000000e+00 0.000000000000000e+00 0.000000000000000e+00
0.000000000000000e+00 0.000000000000000e+00 0.000000000000000e+00
0.000000000000000e+00 0.000000000000000e+00 0.000000000000000e+00
0.000000000000000e+00 0.000000000000000e+00 0.000000000000000e+00
0.000000000000000e+00 0.000000000000000e+00 0.000000000000000e+00
0.000000000000000e+00 0.000000000000000e+00 0.000000000000000e+00
0.000000000000000e+00 0.000000000000000e+00 0.000000000000000e+00
0.000000000000000e+00 0.000000000000000e+00 0.000000000000000e+00
0.000000000000000e+00 0.000000000000000e+00 0.000000000000000e+00
0.000000000000000e+00 0.000000000000000e+00 0.000000000000000e+00
0.000000000000000e+00 0.000000000000000e+00 0.000000000000000e+00
0.000000000000000e+00 0.000000000000000e+00 0.000000000000000e+00
0.000000000000000e+00 0.000000000000000e+00 0.000000000000000e+00
0.000000000000000e+00 0.000000000000000e+00 0.000000000000000e+00
0.000000000000000e+00 0.000000000000000e+00 0.000000000000000e+00
0.000000000000000e+00 0.000000000000000e+00 0.000000000000000e+00
0.000000000000000e+00 0.000000000000000e+00 0.000000000000000e+00
0.000000000000000e+00 0.000000000000000e+00 0.000000000000000e+00
0.000000000000000e+00 0.000000000000000e+00 0.000000000000000e+00
0.000000000000000e+00 0.000000000000000e+00 0.000000000000000e+00
0.000000000000000e+00 0.000000000000000e+00 0.000000000000000e+00
0.000000000000000e+00 0.000000000000000e+00 0.000000000000000e+00
0.000000000000000e+00 0.000000000000000e+00 0.000000000000000e+00
0.000000000000000e+00 0.000000000000000e+00 0.000000000000000e+00
0.000000000000000e+00 0.000000000000000e+00 0.000000000000000e+00
0.000000000000000e+00 0.000000000000000e+00 0.000000000000000e+00
0.000000000000000e+00 0.000000000000000e+00 0.000000000000000e+00
0.000000000000000e+00 0.000000000000000e+00 0.000000000000000e+00
0.000000000000000e+00 0.000000000000000e+00 0.000000000000000e+00
0.000000000000000e+00 0.000000000000000e+00 0.000000000000000e+00
0.000000000000000e+00 0.000000000000000e+00 0.000000000000000e+00
0.000000000000000e+00 0.000000000000000e+00 0.000000000000000e+00
0.000000000000000e+00 0.000000000000000e+00 0.000000000000000e+00
0.000000000000000e+00 0.000000000000000e+00 0.000000000000000e+00
0.000000000000000e+00 0.000000000000000e+00 0.000000000000000e+00
0.000000000000000e+00 0.000000000000000e+00 0.000000000000000e+00
0.000000000000000e+00 0.000000000000000e+00 0.000000000000000e+00
0.000000000000000e+00 0.000000000000000e+00 0.000000000000000e+00
0.000000000000000e+00 0.000000000000000e+00 0.000000000000000e+00
0.000000000000000e+00 0.000000000000000e+00 0.000000000000000e+00
0.000000000000000e+00 0.000000000000000e+00 0.000000000000000e+00
0.000000000000000e+00 0.000000000000000e+00 0.000000000000000e+00
0.000000000000000e+00 0.000000000000000e+00 0.000000000000000e+00
0.000000000000000e+00 0.000000000000000e+00 0.000000000000000e+00
0.000000000000000e+00 0.000000000000000e+00 0.000000000000000e+00
0.000000000000000e+00 0.000000000000000e+00 0.000000000000000e+00
0.000000000000000e+00 0.000000000000000e+00 0.000000000000000e+00
0.000000000000000e+00 0.000000000000000e+00 0.000000000000000e+00
0.000000000000000e+00 0.000000000000000e+00 0.000000000000000e+00
0.000000000000000e+00 0.000000000000000e+00 0.000000000000000e+00
0.000000000000000e+00 0.000000000000000e+00 0.000000000000000e+00
0.000000000000000e+00 0.000000000000000e+00 0.000000000000000e+00
0.000000000000000e+00 0.000000000000000e+00 0.000000000000000e+00
0.000000000000000e+00 0.000000000000000e+00 0.000000000000000e+00
0.000000000000000e+00 0.000000000000000e+00 0.000000000000000e+00
0.000000000000000e+00 0.000000000000000e+00 0.000000000000000e+00
0.000000000000000e+00 0.000000000000000e+00 0.000000000000000e+00
0.000000000000000e+00 0.000000000000000e+00 0.000000000000000e+00
0.000000000000000e+00 0.000000000000000e+00 0.000000000000000e+00
0.000000000000000e+00 0.000000000000000e+00 0.000000000000000e+00
0.000000000000000e+00 0.000000000000000e+00 0.000000000000000e+00
0.000000000000000e+00 0.000000000000000e+00 0.000000000000000e+00
0.000000000000000e+00 0.000000000000000e+00 0.000000000000000e+00
0.000000000000000e+00 0.000000000000000e+00 0.000000000000000e+00
0.000000000000000e+00 0.000000000000000e+00 0.000000000000000e+00
0.000000000000000e+00 0.000000000000000e+00 0.000000000000000e+00
0.000000000000000e+00 0.000000000000000e+00 0.000000000000000e+00
0.000000000000000e+00 0.000000000000000e+00 0.000000000000000e+00
0.000000000000000e+00 0.000000000000000e+00 0.000000000000000e+00
0.000000000000000e+00 0.000000000000000e+00 0.000000000000000e+00
0.000000000000000e+00 0.000000000000000e+00 0.000000000000000e+00
0.000000000000000e+00 0.000000000000000e+00 0.000000000000000e+00
0.000000000000000e+00 0.000000000000000e+00 0.000000000000000e+00
0.000000000000000e+00 0.000000000000000e+00 0.000000000000000e+00
0.000000000000000e+00 0.000000000000000e+00 0.000000000000000e+00
0.000000000000000e+00 0.000000000000000e+00 0.000000000000000e+00
0.000000000000000e+00 0.000000000000000e+00 0.000000000000000e+00
0.000000000000000e+00 0.000000000000000e+00 0.000000000000000e+00
0.000000000000000e+00 0.000000000000000e+00 0.000000000000000e+00
0.000000000000000e+00 0.000000000000000e+00 0.000000000000000e+00
0.000000000000000e+00 0.000000000000000e+00 0.000000000000000e+00
0.000000000000000e+00 0.000000000000000e+00 0.000000000000000e+00
0.000000000000000e+00 0.000000000000000e+00 0.000000000000000e+00
0.000000000000000e+00 0.000000000000000e+00 0.000000000000000e+00
0.000000000000000e+00 0.000000000000000e+00 0.000000000000000e+00
0.000000000000000e+00 0.000000000000000e+00 0.000000000000000e+00
0.000000000000000e+00 0.000000000000000e+00 0.000000000000000e+00
0.000000000000000e+00 0.000000000000000e+00 0.000000000000000e+00
0.000000000000000e+00 0.000000000000000e+00 0.000000000000000e+00
0.000000000000000e+00 0.000000000000000e+00 0.000000000000000e+00
0.000000000000000e+00 0.000000000000000e+00 0.000000000000000e+00
0.000000000000000e+00 0.000000000000000e+00 0.000000000000000e+00
0.000000000000000e+00 0.000000000000000e+00 0.000000000000000e+00
0.000000000000000e+00 0.000000000000000e+00 0.000000000000000e+00
0.000000000000000e+00 0.000000000000000e+00 0.000000000000000e+00
0.000000000000000e+00 0.000000000000000e+00 0.000000000000000e+00
0.000000000000000e+00 0.000000000000000e+00 0.000000000000000e+00
0.000000000000000e+00 0.000000000000000e+00 0.000000000000000e+00
0.000000000000000e+00 0.000000000000000e+00 0.000000000000000e+00
0.000000000000000e+00 0.000000000000000e+00 0.000000000000000e+00
0.000000000000000e+00 0.000000000000000e+00 0.000000000000000e+00
0.000000000000000e+00 0.000000000000000e+00 0.000000000000000e+00
0.000000000000000e+00 0.000000000000000e+00 0.000000000000000e+00
0.000000000000000e+00 0.000000000000000e+00 0.000000000000000e+00
0.000000000000000e+00 0.000000000000000e+00 0.000000000000000e+00
0.000000000000000e+00 0.000000000000000e+00 0.000000000000000e+00
0.000000000000000e+00 0.000000000000000e+00 0.000000000000000e+00
0.000000000000000e+00 0.000000000000000e+00 0.000000000000000e+00
0.000000000000000e+00 0.000000000000000e+00 0.000000000000000e+00
0.000000000000000e+00 0.000000000000000e+00 0.000000000000000e+00
0.000000000000000e+00 0.000000000000000e+00 0.000000000000000e+00
0.000000000000000e+00 0.000000000000000e+00 0.000000000000000e+00
0.000000000000000e+00 0.000000000000000e+00 0.000000000000000e+00
0.000000000000000e+00 0.000000000000000e+00 0.000000000000000e+00
0.000000000000000e+00 0.000000000000000e+00 0.000000000000000e+00
0.000000000000000e+00 0.000000000000000e+00 0.000000000000000e+00
0.000000000000000e+00 0.000000000000000e+00 0.000000000000000e+00
0.000000000000000e+00 0.000000000000000e+00 0.000000000000000e+00
0.000000000000000e+00 0.000000000000000e+00 0.000000000000000e+00
0.000000000000000e+00 0.000000000000000e+00 0.000000000000000e+00
0.000000000000000e+00 0.000000000000000e+00 0.000000000000000e+00
0.000000000000000e+00 0.000000000000000e+00 0.000000000000000e+00
0.000000000000000e+00 0.000000000000000e+00 0.000000000000000e+00
0.000000000000000e+00 0.000000000000000e+00 0.000000000000000e+00
0.000000000000000e+00 0.000000000000000e+00 0.000000000000000e+00
0.000000000000000e+00 0.000000000000000e+00 0.000000000000000e+00
0.000000000000000e+00 0.000000000000000e+00 0.000000000000000e+00
0.000000000000000e+00 0.000000000000000e+00 0.000000000000000e+00
0.000000000000000e+00 0.000000000000000e+00 0.000000000000000e+00
0.000000000000000e+00 0.000000000000000e+00 0.000000000000000e+00
0.000000000000000e+00 0.000000000000000e+00 0.000000000000000e+00
0.000000000000000e+00 0.000000000000000e+00 0.000000000000000e+00
0.000000000000000e+00 0.000000000000000e+00 0.000000000000000e+00
0.000000000000000e+00 0.000000000000000e+00 0.000000000000000e+00
0.000000000000000e+00 0.000000000000000e+00 0.000000000000000e+00
0.000000000000000e+00 0.000000000000000e+00 0.000000000000000e+00
0.000000000000000e+00 0.000000000000000e+00 0.000000000000000e+00
0.000000000000000e+00 0.000000000000000e+00 0.000000000000000e+00
0.000000000000000e+00 0.000000000000000e+00 0.000000000000000e+00
0.000000000000000e+00 0.000000000000000e+00 0.000000000000000e+00
0.000000000000000e+00 0.000000000000000e+00 0.000000000000000e+00
0.000000000000000e+00 0.000000000000000e+00 0.000000000000000e+00
0.000000000000000e+00 0.000000000000000e+00 0.000000000000000e+00
0.000000000000000e+00 0.000000000000000e+00 0.000000000000000e+00
0.000000000000000e+00 0.000000000000000e+00 0.000000000000000e+00
0.000000000000000e+00 0.000000000000000e+00 0.000000000000000e+00
0.000000000000000e+00 0.000000000000000e+00 0.000000000000000e+00
0.000000000000000e+00 0.000000000000000e+00 0.000000000000000e+00
0.000000000000000e+00 0.000000000000000e+00 0.000000000000000e+00
0.000000000000000e+00 0.000000000000000e+00 0.000000000000000e+00
0.000000000000000e+00 0.000000000000000e+00 0.000000000000000e+00
0.000000000000000e+00 0.000000000000000e+00 0.000000000000000e+00
0.000000000000000e+00 0.000000000000000e+00 0.000000000000000e+00
0.000000000000000e+00 0.000000000000000e+00 0.000000000000000e+00
0.000000000000000e+00 0.000000000000000e+00 0.000000000000000e+00
0.000000000000000e+00 0.000000000000000e+00 0.000000000000000e+00
0.000000000000000e+00 0.000000000000000e+00 0.000000000000000e+00
0.000000000000000e+00 0.000000000000000e+00 0.000000000000000e+00
0.000000000000000e+00 0.000000000000000e+00 0.000000000000000e+00
0.000000000000000e+00 0.000000000000000e+00 0.000000000000000e+00
0.000000000000000e+00 0.000000000000000e+00 0.000000000000000e+00
0.000000000000000e+00 0.000000000000000e+00 0.000000000000000e+00
0.000000000000000e+00 0.000000000000000e+00 0.000000000000000e+00
0.000000000000000e+00 0.000000000000000e+00 0.000000000000000e+00
0.000000000000000e+00 0.000000000000000e+00 0.000000000000000e+00
0.000000000000000e+00 0.000000000000000e+00 0.000000000000000e+00
0.000000000000000e+00 0.000000000000000e+00 0.000000000000000e+00
0.000000000000000e+00 0.000000000000000e+00 0.000000000000000e+00
0.000000000000000e+00 0.000000000000000e+00 0.000000000000000e+00
0.000000000000000e+00 0.000000000000000e+00 0.000000000000000e+00
0.000000000000000e+00 0.000000000000000e+00 0.000000000000000e+00
0.000000000000000e+00 0.000000000000000e+00 0.000000000000000e+00
0.000000000000000e+00 0.000000000000000e+00 0.000000000000000e+00
0.000000000000000e+00 0.000000000000000e+00 0.000000000000000e+00
0.000000000000000e+00 0.000000000000000e+00 0.000000000000000e+00
0.000000000000000e+00 0.000000000000000e+00 0.000000000000000e+00
0.000000000000000e+00 0.000000000000000e+00 0.000000000000000e+00
0.000000000000000e+00 0.000000000000000e+00 0.000000000000000e+00
0.000000000000000e+00 0.000000000000000e+00 0.000000000000000e+00
0.000000000000000e+00 0.000000000000000e+00 0.000000000000000e+00
0.000000000000000e+00 0.000000000000000e+00 0.000000000000000e+00
0.000000000000000e+00 0.000000000000000e+00 0.000000000000000e+00
0.000000000000000e+00 0.000000000000000e+00 0.000000000000000e+00
0.000000000000000e+00 0.000000000000000e+00 0.000000000000000e+00
0.000000000000000e+00 0.000000000000000e+00 0.000000000000000e+00
0.000000000000000e+00 0.000000000000000e+00 0.000000000000000e+00
0.000000000000000e+00 0.000000000000000e+00 0.000000000000000e+00
0.000000000000000e+00 0.000000000000000e+00 0.000000000000000e+00
0.000000000000000e+00 0.000000000000000e+00 0.000000000000000e+00
0.000000000000000e+00 0.000000000000000e+00 0.000000000000000e+00
0.000000000000000e+00 0.000000000000000e+00 0.000000000000000e+00
0.000000000000000e+00 0.000000000000000e+00 0.000000000000000e+00
0.000000000000000e+00 0.000000000000000e+00 0.000000000000000e+00
0.000000000000000e+00 0.000000000000000e+00 0.000000000000000e+00
0.000000000000000e+00 0.000000000000000e+00 0.000000000000000e+00
0.000000000000000e+00 0.000000000000000e+00 0.000000000000000e+00
0.000000000000000e+00 0.000000000000000e+00 0.000000000000000e+00
0.000000000000000e+00 0.000000000000000e+00 0.000000000000000e+00
0.000000000000000e+00 0.000000000000000e+00 0.000000000000000e+00
0.000000000000000e+00 0.000000000000000e+00 0.000000000000000e+00
0.000000000000000e+00 0.000000000000000e+00 0.000000000000000e+00
0.000000000000000e+00 0.000000000000000e+00 0.000000000000000e+00
0.000000000000000e+00 0.000000000000000e+00 0.000000000000000e+00
0.000000000000000e+00 0.000000000000000e+00 0.000000000000000e+00
0.000000000000000e+00 0.000000000000000e+00 0.000000000000000e+00
0.000000000000000e+00 0.000000000000000e+00 0.000000000000000e+00
0.000000000000000e+00 0.000000000000000e+00 0.000000000000000e+00
0.000000000000000e+00 0.000000000000000e+00 0.000000000000000e+00
0.000000000000000e+00 0.000000000000000e+00 0.000000000000000e+00
0.000000000000000e+00 0.000000000000000e+00 0.000000000000000e+00
0.000000000000000e+00 0.000000000000000e+00 0.000000000000000e+00
0.000000000000000e+00 0.000000000000000e+00 0.000000000000000e+00
0.000000000000000e+00 0.000000000000000e+00 0.000000000000000e+00
0.000000000000000e+00 0.000000000000000e+00 0.000000000000000e+00
0.000000000000000e+00 0.000000000000000e+00 0.000000000000000e+00
0.000000000000000e+00 0.000000000000000e+00 0.000000000000000e+00
0.000000000000000e+00 0.000000000000000e+00 0.000000000000000e+00
0.000000000000000e+00 0.000000000000000e+00 0.000000000000000e+00
0.000000000000000e+00 0.000000000000000e+00 0.000000000000000e+00
0.000000000000000e+00 0.000000000000000e+00 0.000000000000000e+00
0.000000000000000e+00 0.000000000000000e+00 0.000000000000000e+00
0.000000000000000e+00 0.000000000000000e+00 0.000000000000000e+00
0.000000000000000e+00 0.000000000000000e+00 0.000000000000000e+00
0.000000000000000e+00 0.000000000000000e+00 0.000000000000000e+00
0.000000000000000e+00 0.000000000000000e+00 0.000000000000000e+00
0.000000000000000e+00 0.000000000000000e+00 0.000000000000000e+00
0.000000000000000e+00 0.000000000000000e+00 0.000000000000000e+00
0.000000000000000e+00 0.000000000000000e+00 0.000000000000000e+00
0.000000000000000e+00 0.000000000000000e+00 0.000000000000000e+00
0.000000000000000e+00 0.000000000000000e+00 0.000000000000000e+00
0.000000000000000e+00 0.000000000000000e+00 0.000000000000000e+00
0.000000000000000e+00 0.000000000000000e+00 0.000000000000000e+00
0.000000000000000e+00 0.000000000000000e+00 0.000000000000000e+00
0.000000000000000e+00 0.000000000000000e+00 0.000000000000000e+00
0.000000000000000e+00 0.000000000000000e+00 0.000000000000000e+00
0.000000000000000e+00 0.000000000000000e+00 0.000000000000000e+00
0.000000000000000e+00 0.000000000000000e+00 0.000000000000000e+00
0.000000000000000e+00 0.000000000000000e+00 0.000000000000000e+00
0.000000000000000e+00 0.000000000000000e+00 0.000000000000000e+00
0.000000000000000e+00 0.000000000000000e+00 0.000000000000000e+00
0.000000000000000e+00 0.000000000000000e+00 0.000000000000000e+00
0.000000000000000e+00 0.000000000000000e+00 0.000000000000000e+00
0.000000000000000e+00 0.000000000000000e+00 0.000000000000000e+00
0.000000000000000e+00 0.000000000000000e+00 0.000000000000000e+00
0.000000000000000e+00 0.000000000000000e+00 0.000000000000000e+00
0.000000000000000e+00 0.000000000000000e+00 0.000000000000000e+00
0.000000000000000e+00 0.000000000000000e+00 0.000000000000000e+00
0.000000000000000e+00 0.000000000000000e+00 0.000000000000000e+00
0.000000000000000e+00 0.000000000000000e+00 0.000000000000000e+00
0.000000000000000e+00 0.000000000000000e+00 0.000000000000000e+00
0.000000000000000e+00 0.000000000000000e+00 0.000000000000000e+00
0.000000000000000e+00 0.000000000000000e+00 0.000000000000000e+00
0.000000000000000e+00 0.000000000000000e+00 0.000000000000000e+00
0.000000000000000e+00 0.000000000000000e+00 0.000000000000000e+00
0.000000000000000e+00 0.000000000000000e+00 0.000000000000000e+00
0.000000000000000e+00 0.000000000000000e+00 0.000000000000000e+00
0.000000000000000e+00 0.000000000000000e+00 0.000000000000000e+00
0.000000000000000e+00 0.000000000000000e+00 0.000000000000000e+00
0.000000000000000e+00 0.000000000000000e+00 0.000000000000000e+00
0.000000000000000e+00 0.000000000000000e+00 0.000000000000000e+00
0.000000000000000e+00 0.000000000000000e+00 0.000000000000000e+00
0.000000000000000e+00 0.000000000000000e+00 0.000000000000000e+00
0.000000000000000e+00 0.000000000000000e+00 0.000000000000000e+00
0.000000000000000e+00 0.000000000000000e+00 0.000000000000000e+00
0.000000000000000e+00 0.000000000000000e+00 0.000000000000000e+00
0.000000000000000e+00 0.000000000000000e+00 0.000000000000000e+00
0.000000000000000e+00 0.000000000000000e+00 0.000000000000000e+00
0.000000000000000e+00 0.000000000000000e+00 0.000000000000000e+00
0.000000000000000e+00 0.000000000000000e+00 0.000000000000000e+00
0.000000000000000e+00 0.000000000000000e+00 0.000000000000000e+00
0.000000000000000e+00 0.000000000000000e+00 0.000000000000000e+00
0.000000000000000e+00 0.000000000000000e+00 0.000000000000000e+00
0.000000000000000e+00 0.000000000000000e+00 0.000000000000000e+00
0.000000000000000e+00 0.000000000000000e+00 0.000000000000000e+00
0.000000000000000e+00 0.000000000000000e+00 0.000000000000000e+00
0.000000000000000e+00 0.000000000000000e+00 0.000000000000000e+00
0.000000000000000e+00 0.000000000000000e+00 0.000000000000000e+00
0.000000000000000e+00 0.000000000000000e+00 0.000000000000000e+00
0.000000000000000e+00 0.000000000000000e+00 0.000000000000000e+00
0.000000000000000e+00 0.000000000000000e+00 0.000000000000000e+00
0.000000000000000e+00 0.000000000000000e+00 0.000000000000000e+00
0.000000000000000e+00 0.000000000000000e+00 0.000000000000000e+00
0.000000000000000e+00 0.000000000000000e+00 0.000000000000000e+00
0.000000000000000e+00 0.000000000000000e+00 0.000000000000000e+00
0.000000000000000e+00 0.000000000000000e+00 0.000000000000000e+00
0.000000000000000e+00 0.000000000000000e+00 0.000000000000000e+00
0.000000000000000e+00 0.000000000000000e+00 0.000000000000000e+00
0.000000000000000e+00 0.000000000000000e+00 0.000000000000000e+00
0.000000000000000e+00 0.000000000000000e+00 0.000000000000000e+00
0.000000000000000e+00 0.000000000000000e+00 0.000000000000000e+00
0.000000000000000e+00 0.000000000000000e+00 0.000000000000000e+00
0.000000000000000e+00 0.000000000000000e+00 0.000000000000000e+00
0.000000000000000e+00 0.000000000000000e+00 0.000000000000000e+00
0.000000000000000e+00 0.000000000000000e+00 0.000000000000000e+00
0.000000000000000e+00 0.000000000000000e+00 0.000000000000000e+00
0.000000000000000e+00 0.000000000000000e+00 0.000000000000000e+00
0.000000000000000e+00 0.000000000000000e+00 0.000000000000000e+00
0.000000000000000e+00 0.000000000000000e+00 0.000000000000000e+00
0.000000000000000e+00 0.000000000000000e+00 0.000000000000000e+00
0.000000000000000e+00 0.000000000000000e+00 0.000000000000000e+00
0.000000000000000e+00 0.000000000000000e+00 0.000000000000000e+00
0.000000000000000e+00 0.000000000000000e+00 0.000000000000000e+00
0.000000000000000e+00 0.000000000000000e+00 0.000000000000000e+00
0.000000000000000e+00 0.000000000000000e+00 0.000000000000000e+00
0.000000000000000e+00 0.000000000000000e+00 0.000000000000000e+00
0.000000000000000e+00 0.000000000000000e+00 0.000000000000000e+00
0.000000000000000e+00 0.000000000000000e+00 0.000000000000000e+00
0.000000000000000e+00 0.000000000000000e+00 0.000000000000000e+00
0.000000000000000e+00 0.000000000000000e+00 0.000000000000000e+00
0.000000000000000e+00 0.000000000000000e+00 0.000000000000000e+00
0.000000000000000e+00 0.000000000000000e+00 0.000000000000000e+00
0.000000000000000e+00 0.000000000000000e+00 0.000000000000000e+00
0.000000000000000e+00 0.000000000000000e+00 0.000000000000000e+00
0.000000000000000e+00 0.000000000000000e+00 0.000000000000000e+00
0.000000000000000e+00 0.000000000000000e+00 0.000000000000000e+00
0.000000000000000e+00 0.000000000000000e+00 0.000000000000000e+00
0.000000000000000e+00 0.000000000000000e+00 0.000000000000000e+00
0.000000000000000e+00 0.000000000000000e+00 0.000000000000000e+00
0.000000000000000e+00 0.000000000000000e+00 0.000000000000000e+00
0.000000000000000e+00 0.000000000000000e+00 0.000000000000000e+00
0.000000000000000e+00 0.000000000000000e+00 0.000000000000000e+00
0.000000000000000e+00 0.000000000000000e+00 0.000000000000000e+00
0.000000000000000e+00 0.000000000000000e+00 0.000000000000000e+00
0.000000000000000e+00 0.000000000000000e+00 0.000000000000000e+00
0.000000000000000e+00 0.000000000000000e+00 0.000000000000000e+00
0.000000000000000e+00 0.000000000000000e+00 0.000000000000000e+00
0.000000000000000e+00 0.000000000000000e+00 0.000000000000000e+00
0.000000000000000e+00 0.000000000000000e+00 0.000000000000000e+00
0.000000000000000e+00 0.000000000000000e+00 0.000000000000000e+00
0.000000000000000e+00 0.000000000000000e+00 0.000000000000000e+00
0.000000000000000e+00 0.000000000000000e+00 0.000000000000000e+00
0.000000000000000e+00 0.000000000000000e+00 0.000000000000000e+00
0.000000000000000e+00 0.000000000000000e+00 0.000000000000000e+00
0.000000000000000e+00 0.000000000000000e+00 0.000000000000000e+00
0.000000000000000e+00 0.000000000000000e+00 0.000000000000000e+00
0.000000000000000e+00 0.000000000000000e+00 0.000000000000000e+00
0.000000000000000e+00 0.000000000000000e+00 0.000000000000000e+00
0.000000000000000e+00 0.000000000000000e+00 0.000000000000000e+00
0.000000000000000e+00 0.000000000000000e+00 0.000000000000000e+00
0.000000000000000e+00 0.000000000000000e+00 0.000000000000000e+00
0.000000000000000e+00 0.000000000000000e+00 0.000000000000000e+00
0.000000000000000e+00 0.000000000000000e+00 0.000000000000000e+00
0.000000000000000e+00 0.000000000000000e+00 0.000000000000000e+00
0.000000000000000e+00 0.000000000000000e+00 0.000000000000000e+00
0.000000000000000e+00 0.000000000000000e+00 0.000000000000000e+00
0.000000000000000e+00 0.000000000000000e+00 0.000000000000000e+00
0.000000000000000e+00 0.000000000000000e+00 0.000000000000000e+00
0.000000000000000e+00 0.000000000000000e+00 0.000000000000000e+00
0.000000000000000e+00 0.000000000000000e+00 0.000000000000000e+00
0.000000000000000e+00 0.000000000000000e+00 0.000000000000000e+00
0.000000000000000e+00 0.000000000000000e+00 0.000000000000000e+00
0.000000000000000e+00 0.000000000000000e+00 0.000000000000000e+00
0.000000000000000e+00 0.000000000000000e+00 0.000000000000000e+00
0.000000000000000e+00 0.000000000000000e+00 0.000000000000000e+00
0.000000000000000e+00 0.000000000000000e+00 0.000000000000000e+00
0.000000000000000e+00 0.000000000000000e+00 0.000000000000000e+00
0.000000000000000e+00 0.000000000000000e+00 0.000000000000000e+00
0.000000000000000e+00 0.000000000000000e+00 0.000000000000000e+00
0.000000000000000e+00 0.000000000000000e+00 0.000000000000000e+00
0.000000000000000e+00 0.000000000000000e+00 0.000000000000000e+00
0.000000000000000e+00 0.000000000000000e+00 0.000000000000000e+00
0.000000000000000e+00 0.000000000000000e+00 0.000000000000000e+00
0.000000000000000e+00 0.000000000000000e+00 0.000000000000000e+00
0.000000000000000e+00 0.000000000000000e+00 0.000000000000000e+00
0.000000000000000e+00 0.000000000000000e+00 0.000000000000000e+00
0.000000000000000e+00 0.000000000000000e+00 0.000000000000000e+00
0.000000000000000e+00 0.000000000000000e+00 0.000000000000000e+00
0.000000000000000e+00 0.000000000000000e+00 0.000000000000000e+00
0.000000000000000e+00 0.000000000000000e+00 0.000000000000000e+00
0.000000000000000e+00 0.000000000000000e+00 0.000000000000000e+00
0.000000000000000e+00 0.000000000000000e+00 0.000000000000000e+00
0.000000000000000e+00 0.000000000000000e+00 0.000000000000000e+00
0.000000000000000e+00 0.000000000000000e+00 0.000000000000000e+00
0.000000000000000e+00 0.000000000000000e+00 0.000000000000000e+00
0.000000000000000e+00 0.000000000000000e+00 0.000000000000000e+00
0.000000000000000e+00 0.000000000000000e+00 0.000000000000000e+00
0.000000000000000e+00 0.000000000000000e+00 0.000000000000000e+00
0.000000000000000e+00 0.000000000000000e+00 0.000000000000000e+00
0.000000000000000e+00 0.000000000000000e+00 0.000000000000000e+00
0.000000000000000e+00 0.000000000000000e+00 0.000000000000000e+00
0.000000000000000e+00 0.000000000000000e+00 0.000000000000000e+00
0.000000000000000e+00 0.000000000000000e+00 0.000000000000000e+00
0.000000000000000e+00 0.000000000000000e+00 0.000000000000000e+00
0.000000000000000e+00 0.000000000000000e+00 0.000000000000000e+00
0.000000000000000e+00 0.000000000000000e+00 0.000000000000000e+00
0.000000000000000e+00 0.000000000000000e+00 0.000000000000000e+00
0.000000000000000e+00 0.000000000000000e+00 0.000000000000000e+00
0.000000000000000e+00 0.000000000000000e+00 0.000000000000000e+00
0.000000000000000e+00 0.000000000000000e+00 0.000000000000000e+00
0.000000000000000e+00 0.000000000000000e+00 0.000000000000000e+00
0.000000000000000e+00 0.000000000000000e+00 0.000000000000000e+00
0.000000000000000e+00 0.000000000000000e+00 0.000000000000000e+00
0.000000000000000e+00 0.000000000000000e+00 0.000000000000000e+00
0.000000000000000e+00 0.000000000000000e+00 0.000000000000000e+00
0.000000000000000e+00 0.000000000000000e+00 0.000000000000000e+00
0.000000000000000e+00 0.000000000000000e+00 0.000000000000000e+00
0.000000000000000e+00 0.000000000000000e+00 0.000000000000000e+00
0.000000000000000e+00 0.000000000000000e+00 0.000000000000000e+00
0.000000000000000e+00 0.000000000000000e+00 0.000000000000000e+00
0.000000000000000e+00 0.000000000000000e+00 0.000000000000000e+00
0.000000000000000e+00 0.000000000000000e+00 0.000000000000000e+00
0.000000000000000e+00 0.000000000000000e+00 0.000000000000000e+00
0.000000000000000e+00 0.000000000000000e+00 0.000000000000000e+00
0.000000000000000e+00 0.000000000000000e+00 0.000000000000000e+00
0.000000000000000e+00 0.000000000000000e+00 0.000000000000000e+00
0.000000000000000e+00 0.000000000000000e+00 0.000000000000000e+00
0.000000000000000e+00 0.000000000000000e+00 0.000000000000000e+00
0.000000000000000e+00 0.000000000000000e+00 0.000000000000000e+00
0.000000000000000e+00 0.000000000000000e+00 0.000000000000000e+00
0.000000000000000e+00 0.000000000000000e+00 0.000000000000000e+00
0.000000000000000e+00 0.000000000000000e+00 0.000000000000000e+00
0.000000000000000e+00 0.000000000000000e+00 0.000000000000000e+00
0.000000000000000e+00 0.000000000000000e+00 0.000000000000000e+00
0.000000000000000e+00 0.000000000000000e+00 0.000000000000000e+00
0.000000000000000e+00 0.000000000000000e+00 0.000000000000000e+00
0.000000000000000e+00 0.000000000000000e+00 0.000000000000000e+00
0.000000000000000e+00 0.000000000000000e+00 0.000000000000000e+00
0.000000000000000e+00 0.000000000000000e+00 0.000000000000000e+00
0.000000000000000e+00 0.000000000000000e+00 0.000000000000000e+00
0.000000000000000e+00 0.000000000000000e+00 0.000000000000000e+00
0.000000000000000e+00 0.000000000000000e+00 0.000000000000000e+00
0.000000000000000e+00 0.000000000000000e+00 0.000000000000000e+00
0.000000000000000e+00 0.000000000000000e+00 0.000000000000000e+00
0.000000000000000e+00 0.000000000000000e+00 0.000000000000000e+00
0.000000000000000e+00 0.000000000000000e+00 0.000000000000000e+00
0.000000000000000e+00 0.000000000000000e+00 0.000000000000000e+00
0.000000000000000e+00 0.000000000000000e+00 0.000000000000000e+00
0.000000000000000e+00 0.000000000000000e+00 0.000000000000000e+00
0.000000000000000e+00 0.000000000000000e+00 0.000000000000000e+00
0.000000000000000e+00 0.000000000000000e+00 0.000000000000000e+00
0.000000000000000e+00 0.000000000000000e+00 0.000000000000000e+00
0.000000000000000e+00 0.000000000000000e+00 0.000000000000000e+00
0.000000000000000e+00 0.000000000000000e+00 0.000000000000000e+00
0.000000000000000e+00 0.000000000000000e+00 0.000000000000000e+00
0.000000000000000e+00 0.000000000000000e+00 0.000000000000000e+00
0.000000000000000e+00 0.000000000000000e+00 0.000000000000000e+00
0.000000000000000e+00 0.000000000000000e+00 0.000000000000000e+00
0.000000000000000e+00 0.000000000000000e+00 0.000000000000000e+00
0.000000000000000e+00 0.000000000000000e+00 0.000000000000000e+00
0.000000000000000e+00 0.000000000000000e+00 0.000000000000000e+00
0.000000000000000e+00 0.000000000000000e+00 0.000000000000000e+00
0.000000000000000e+00 0.000000000000000e+00 0.000000000000000e+00
0.000000000000000e+00 0.000000000000000e+00 0.000000000000000e+00
0.000000000000000e+00 0.000000000000000e+00 0.000000000000000e+00
0.000000000000000e+00 0.000000000000000e+00 0.000000000000000e+00
0.000000000000000e+00 0.000000000000000e+00 0.000000000000000e+00
0.000000000000000e+00 0.000000000000000e+00 0.000000000000000e+00
0.000000000000000e+00 0.000000000000000e+00 0.000000000000000e+00
0.000000000000000e+00 0.000000000000000e+00 0.000000000000000e+00
0.000000000000000e+00 0.000000000000000e+00 0.000000000000000e+00
0.000000000000000e+00 0.000000000000000e+00 0.000000000000000e+00
0.000000000000000e+00 0.000000000000000e+00 0.000000000000000e+00
0.000000000000000e+00 0.000000000000000e+00 0.000000000000000e+00
0.000000000000000e+00 0.000000000000000e+00 0.000000000000000e+00
0.000000000000000e+00 0.000000000000000e+00 0.000000000000000e+00
0.000000000000000e+00 0.000000000000000e+00 0.000000000000000e+00
0.000000000000000e+00 0.000000000000000e+00 0.000000000000000e+00
0.000000000000000e+00 0.000000000000000e+00 0.000000000000000e+00
0.000000000000000e+00 0.000000000000000e+00 0.000000000000000e+00
0.000000000000000e+00 0.000000000000000e+00 0.000000000000000e+00
 6.350173737852908e-03 -6.055899648847677e-03  2.465600208453744e-19
1.114871576424019e-02 1.642685745814243e-04 4.415259062265451e-19
 1.137730606414522e-03 -1.144058056006138e-03  2.776341117663031e-19
2.285488053495632e-03 3.138787393043911e-03 3.842493279589226e-20
9.844913091270693e-03 5.964536191164276e-03 4.599306938571330e-19
 7.167283854206583e-03 -6.606351889606872e-03  2.564819513558365e-19
 2.047749099991506e-03 -1.180336623108092e-03  2.506294975245528e-19
3.539326974957362e-03 3.977829477194015e-03 1.322572501934771e-19
1.123390118109278e-02 9.714318749735955e-04 4.680388469457895e-19
 6.062626084710983e-03 -5.050916461026999e-03  2.741732449756645e-19
 2.859369495902095e-03 -6.891405759483751e-04  2.496323129025978e-19
4.192911934973409e-03 3.604492658464322e-03 1.746037365248267e-19
9.589897000159964e-03 3.392169586367772e-03 4.253520701527705e-19
 8.575242291469925e-03 -4.728641982518463e-03  3.221740655395848e-19
 3.125023062815936e-03 -2.562264320350629e-03  2.738634661921964e-19
3.291564449456687e-03 2.119210152752670e-03 1.383104754553662e-19
7.686674513827802e-03 3.724590287858251e-03 3.525430939134948e-19
 8.614545646030057e-03 -1.574355327774930e-03  3.656104489232993e-19
 6.082763000313954e-03 -1.583740293220567e-03  3.046595273402641e-19
5.942205999395666e-03 3.555974810986418e-04 2.981278553208476e-19
6.919007710919394e-03 2.435646698552736e-04 3.315756995135923e-19
 7.049685565427187e-03 -1.917726823807122e-05  3.351509315909500e-19
 6.949201464608391e-03 -3.179407244286999e-05  3.315553181501989e-19
 6.871707009546547e-03 -5.854389577468687e-05  3.293827054954448e-19
6.854516075654836e-03 6.080433105225907e-05 3.283038383207709e-19
6.938196277468304e-03 7.964391116019796e-05 3.305261015352044e-19
 6.945151099399823e-03 -4.464096184232747e-05  3.310580909580588e-19
 6.875986143984918e-03 -4.950987953372781e-05  3.291118904517170e-19
6.872874895539676e-03 1.907493668558337e-05 3.288789883874366e-19
6.907443248648897e-03 1.474333385209972e-05 3.299258278344749e-19
 6.909124937756410e-03 -7.542135836308432e-06  3.299857995622988e-19
 6.896893587723467e-03 -4.949169828438496e-06  3.295749892191616e-19
6.895870527976257e-03 4.460264485258908e-06 3.294904351314209e-19
6.903271319083835e-03 6.474840990813990e-06 3.296706893945218e-19
 6.906837651898199e-03 -3.281739511371750e-06  3.297947645793699e-19
 6.899483632805588e-03 -1.036743509582214e-05  3.296128661742206e-19
 6.893519594105488e-03 -4.388419361262113e-08  3.293886969790847e-19
6.899704540314874e-03 9.893052634717290e-06 3.295029234293222e-19
6.906847239025847e-03 3.103520263493924e-06 3.296971360100343e-19
 6.903578747402750e-03 -6.271873749688684e-06  3.296128167501288e-19
 6.896389055826873e-03 -4.470597467948454e-06  3.293882792788902e-19
6.896262473489754e-03 4.445679610086457e-06 3.293313434468095e-19
6.902467258863926e-03 5.944183034999342e-06 3.294695490562976e-19
 6.905658305282848e-03 -1.483103994011633e-06  3.295585722389730e-19
 6.902912778842305e-03 -7.059154374436901e-06  3.294947026603098e-19
 6.899135643796632e-03 -5.477050982523343e-06  3.293907853777760e-19
 6.897770654273813e-03 -1.284513437062659e-07  3.293261552939563e-19
6.899144927846664e-03 5.282752588448639e-06 3.293065416487775e-19
6.903025067415977e-03 6.904038434901715e-06 3.293571551371497e-19
6.905842474076461e-03 1.219379544272964e-06 3.294193282386642e-19
 6.902617452419592e-03 -6.231736615759680e-06  3.293384330064871e-19
 6.896450887405698e-03 -4.584359244627267e-06  3.291449619760271e-19
6.896720059159062e-03 4.338067126209417e-06 3.290949665769550e-19
6.903955947003155e-03 6.008312277529135e-06 3.292631454514156e-19
 6.907229710624495e-03 -3.357592096709248e-06  3.293700363952082e-19
 6.900178932077118e-03 -1.006683619147747e-05  3.291824883300901e-19
 6.894220128662842e-03 -8.959920165337331e-08  3.289564154042039e-19
6.900232167167721e-03 9.877021916000700e-06 3.290569189675055e-19
6.907306009713880e-03 3.084483068873534e-06 3.292416032525289e-19
 6.903979552839919e-03 -6.305096963431836e-06  3.291480986275181e-19
 6.896755375788828e-03 -4.485833422267738e-06  3.289141822751039e-19
6.896610745862937e-03 4.449987787716036e-06 3.288480055651519e-19
6.902800447576680e-03 5.937466712952711e-06 3.289772197790626e-19
 6.905961272546417e-03 -1.500776109147019e-06  3.290569528611968e-19
 6.903186376792804e-03 -7.069438559166596e-06  3.289836336777162e-19
 6.899391831916307e-03 -5.478865783193725e-06  3.288702298749584e-19
 6.898013645626922e-03 -1.301268201856343e-07  3.287960328366253e-19
6.899373076278107e-03 5.276765846545451e-06 3.287667207312568e-19
6.903236083339024e-03 6.894699854837718e-06 3.288076661466324e-19
6.906035379818293e-03 1.209009573654048e-06 3.288603438739361e-19
 6.902792784910437e-03 -6.236612340805212e-06  3.287699471963404e-19
 6.896618961522969e-03 -4.576133423730055e-06  3.285667570736467e-19
6.896891175857170e-03 4.341722136041674e-06 3.285070670725107e-19
6.904113445451262e-03 5.986718547008175e-06 3.286654132919476e-19
 6.907358226329576e-03 -3.375959238044792e-06  3.287623317112640e-19
 6.900300758270367e-03 -1.005472872216295e-05  3.285652082661031e-19
 6.894355358771222e-03 -7.802241270500926e-08  3.283294333059253e-19
6.900361495334253e-03 9.861257218107774e-06 3.284196903309759e-19
6.907410781131721e-03 3.065207691592621e-06 3.285942367858867e-19
 6.904073544179393e-03 -6.302831486509127e-06  3.284910236101742e-19
 6.896857493178811e-03 -4.475792770776643e-06  3.282473774119421e-19
6.896714681133799e-03 4.444777383116864e-06 3.281709662088942e-19
6.902890068120887e-03 5.921675979658589e-06 3.282897705646976e-19
 6.906037958483552e-03 -1.506484307761215e-06  3.283594986574954e-19
 6.903266098953090e-03 -7.063473512101503e-06  3.282764394288895e-19
 6.899476917836797e-03 -5.481152017656660e-06  3.281530515943848e-19
 6.898089965520445e-03 -1.449066878028887e-07  3.280682769430293e-19
6.899437752419501e-03 5.268736210103619e-06 3.280281553841588e-19
6.903301157647874e-03 6.898101803686629e-06 3.280587856356475e-19
6.906101373005550e-03 1.206791574492082e-06 3.281014604022172e-19
 6.902852633763213e-03 -6.239389691547576e-06  3.280008906084635e-19
 6.896681249462391e-03 -4.572722716097391e-06  3.277872761232275e-19
6.896950798025928e-03 4.327545516728126e-06 3.277166661738452e-19
6.904157589188564e-03 5.975037228840341e-06 3.278639578539326e-19
 6.907415486441806e-03 -3.360315551809644e-06  3.279511373250604e-19
 6.900375822050929e-03 -1.007158648992455e-05  3.277444872884457e-19
 6.894392975591987e-03 -1.260429457332067e-07  3.274965635860561e-19
6.900366532594475e-03 9.876642452513467e-06 3.275743391368690e-19
6.907456725596965e-03 3.131944868147237e-06 3.277393452409219e-19
 6.904166444189814e-03 -6.294817276246882e-06  3.276272694000471e-19
 6.896918377836138e-03 -4.549602386632387e-06  3.273721145813811e-19
6.896715764230483e-03 4.396452216350127e-06 3.272825738692039e-19
6.902902949202549e-03 5.957843038989116e-06 3.273903803480713e-19
 6.906098129417825e-03 -1.478670045127980e-06  3.274508021005291e-19
 6.903319825509660e-03 -7.085109028637184e-06  3.273567920455157e-19
 6.899506085614794e-03 -5.490421966862521e-06  3.272213382605102e-19
 6.898124791807804e-03 -1.422943390867264e-07  3.271251083524873e-19
6.899473631984858e-03 5.256351963193144e-06 3.270734029895760e-19
6.903327095327385e-03 6.891473442918412e-06 3.270921599148175e-19
6.906135145850154e-03 1.216445963542774e-06 3.271238524733879e-19
 6.902898542968927e-03 -6.246829369719290e-06  3.270126446048375e-19
 6.896711042912258e-03 -4.601152202571715e-06  3.267869158705166e-19
6.896967836914088e-03 4.327313561004570e-06 3.267035570489898e-19
6.904191622251001e-03 5.989765599682698e-06 3.268393961614506e-19
 6.907445758522372e-03 -3.374193069122307e-06  3.269152412156019e-19
 6.900388732970177e-03 -1.006760766850481e-05  3.266964136385626e-19
 6.894433926928593e-03 -9.863608871064952e-08  3.264364743803932e-19
6.900428238728223e-03 9.844189187208137e-06 3.265023636863004e-19
6.907473741131486e-03 3.063804770970436e-06 3.266545629706768e-19
 6.904150111773765e-03 -6.293415308727105e-06  3.265296656553496e-19
 6.896942735429098e-03 -4.490819977615900e-06  3.262628513621351e-19
6.896777912577476e-03 4.409032059280464e-06 3.261613291025505e-19
6.902937885504772e-03 5.917666955079831e-06 3.262557566358128e-19
 6.906106691923901e-03 -1.491233837332035e-06  3.263031789329659e-19
 6.903343346285054e-03 -7.080559422311424e-06  3.261972348279380e-19
 6.899531956693060e-03 -5.507373661594407e-06  3.260489194354379e-19
 6.898139044592271e-03 -1.438384124579368e-07  3.259388649747800e-19
6.899502205694645e-03 5.271527757468868e-06 3.258740009263806e-19
6.903365859300642e-03 6.879348913748043e-06 3.258798072118710e-19
6.906154636250929e-03 1.189064945772306e-06 3.258980955655348e-19
 6.902907885133714e-03 -6.246921701532246e-06  3.257735513275511e-19
 6.896737603406984e-03 -4.588651186659590e-06  3.255345609362378e-19
6.897000609733916e-03 4.317730426179502e-06 3.254371130671310e-19
6.904212298316122e-03 5.976816046996633e-06 3.255586302095776e-19
 6.907466313000112e-03 -3.375228643292841e-06  3.256211326234918e-19
 6.900413112292920e-03 -1.007524626527182e-05  3.253888286345476e-19
 6.894452681026416e-03 -1.066745929183018e-07  3.251137871338303e-19
6.900449964611318e-03 9.848240332038731e-06 3.251646098866515e-19
6.907503855655810e-03 3.059877390404059e-06 3.253030794201513e-19
 6.904172597697235e-03 -6.311811007447401e-06  3.251640357087090e-19
 6.896954719040550e-03 -4.496599171492579e-06  3.248819396114115e-19
6.896799852992403e-03 4.419186140573853e-06 3.247650049062972e-19
6.902971314187179e-03 5.912702219034679e-06 3.248446132772204e-19
 6.906128381969167e-03 -1.513344102673290e-06  3.248770150617256e-19
 6.903352884592362e-03 -7.085645132016211e-06  3.247556099941927e-19
 6.899554486738128e-03 -5.495246720994808e-06  3.245918720121147e-19
 6.898173931437445e-03 -1.505134051277498e-07  3.244660312667210e-19
6.899523804192883e-03 5.247958049325501e-06 3.243845073388193e-19
6.903374503631978e-03 6.874040826456688e-06 3.243736258029439e-19
6.906174131576071e-03 1.201325277776399e-06 3.243762030054684e-19
 6.902940798622944e-03 -6.247558491481332e-06  3.242360908178322e-19
 6.896764982708661e-03 -4.607339211520121e-06  3.239801959007538e-19
6.897015506490547e-03 4.302526638883159e-06 3.238647849027247e-19
6.904226793908461e-03 5.977118244191167e-06 3.239689839724141e-19
 6.907490381850867e-03 -3.370685582426972e-06  3.240151082152300e-19
 6.900440348025033e-03 -1.008116859413490e-05  3.237658611234261e-19
 6.894474742345302e-03 -1.165447409168200e-07  3.234721157016646e-19
6.900471117365982e-03 9.842949895107836e-06 3.235041750458496e-19
6.907525200560223e-03 3.051445920650990e-06 3.236249154532188e-19
 6.904190364523079e-03 -6.317672315306251e-06  3.234679716265356e-19
 6.896977796509775e-03 -4.492871513772405e-06  3.231670614138201e-19
6.896829945060407e-03 4.412401028122282e-06 3.230307424320841e-19
6.902991572734900e-03 5.894086359625624e-06 3.230907676208492e-19
 6.906140797264300e-03 -1.515212000663818e-06  3.231038921168181e-19
 6.903378668223508e-03 -7.075867000507666e-06  3.229634533976661e-19
 6.899587322385235e-03 -5.506168480745299e-06  3.227798015635889e-19
 6.898190800143600e-03 -1.706990727309059e-07  3.226327870067302e-19
6.899536349527484e-03 5.252495404444469e-06 3.225299488307082e-19
6.903406022347554e-03 6.882782204816140e-06 3.224985330362584e-19
6.906206481185545e-03 1.180879933588469e-06 3.224803978228067e-19
 6.902952551713699e-03 -6.266101280866535e-06  3.223186211209055e-19
 6.896780001166545e-03 -4.595317797596561e-06  3.220406010673608e-19
6.897050449699801e-03 4.307443286725387e-06 3.219029137099517e-19
6.904255270728257e-03 5.955441675446050e-06 3.219843149200525e-19
 6.907502809230544e-03 -3.380181869175057e-06  3.220075700423509e-19
 6.900462520743797e-03 -1.007128917350719e-05  3.217356198811678e-19
 6.894508276003152e-03 -1.229479975813418e-07  3.214178934854315e-19
6.900494018635249e-03 9.824843017705603e-06 3.214248878291467e-19
6.907541937169373e-03 3.049656981753575e-06 3.215213583353093e-19
 6.904216112646579e-03 -6.314661429989719e-06  3.213403434541078e-19
 6.897006139869385e-03 -4.500048585586587e-06  3.210140752531899e-19
6.896853516485822e-03 4.404832257283373e-06 3.208512348821779e-19
6.903013996251799e-03 5.889830365828559e-06 3.208849062828327e-19
 6.906166345893808e-03 -1.517559535100274e-06  3.208719107504125e-19
 6.903406672405612e-03 -7.082111001640326e-06  3.207047539604856e-19
 6.899610539784873e-03 -5.517210705875558e-06  3.204932248468046e-19
 6.898212080464505e-03 -1.714089444225532e-07  3.203176322039789e-19
6.899565926832593e-03 5.254496936736338e-06 3.201860506438422e-19
6.903436170429620e-03 6.871577996881430e-06 3.201254234237392e-19
6.906228754729678e-03 1.171521009326769e-06 3.200776998196379e-19
 6.902974771313617e-03 -6.266050164283566e-06  3.198859969159515e-19
 6.896806832277187e-03 -4.594964646826962e-06  3.195771566958264e-19
6.897080517112433e-03 4.305419749696173e-06 3.194075948348896e-19
6.904285968094253e-03 5.946945769399540e-06 3.194569053667417e-19
 6.907528696920054e-03 -3.392592652638686e-06  3.194478958429643e-19
 6.900483660355754e-03 -1.007671287269461e-05  3.191427678922940e-19
 6.894532971180370e-03 -1.183006079116163e-07  3.187905375082802e-19
6.900527255116970e-03 9.828132141950163e-06 3.187625852086734e-19
6.907576046370643e-03 3.040222257537153e-06 3.188240722278409e-19
 6.904241800309645e-03 -6.327921869668838e-06  3.186071785014282e-19
 6.897027686905456e-03 -4.502876761792567e-06  3.182437869428805e-19
6.896881341703603e-03 4.409950812594547e-06 3.180430406596224e-19
6.903049919817265e-03 5.890061892214968e-06 3.180384072641970e-19
 6.906200686041416e-03 -1.529521328569822e-06  3.179864930908319e-19
 6.903430384833209e-03 -7.094836924547636e-06  3.177791553203494e-19
 6.899632245231943e-03 -5.513071373954593e-06  3.175263982145576e-19
 6.898247213513679e-03 -1.606442623277912e-07  3.173090464914403e-19
6.899607465125339e-03 5.246747132972374e-06 3.171347160371074e-19
6.903463542520768e-03 6.852383253343983e-06 3.170299117056108e-19
6.906247886318008e-03 1.172875742104843e-06 3.169372595356239e-19
 6.903010852036779e-03 -6.250994305442044e-06  3.167004359280206e-19
 6.896851313851213e-03 -4.605155893879141e-06  3.163450173665415e-19
6.897106336798492e-03 4.285684775453296e-06 3.161267690973467e-19
6.904307041445078e-03 5.956234381207981e-06 3.161266843333396e-19
 6.907568305408189e-03 -3.379870110169818e-06  3.160681898633514e-19
 6.900526552011268e-03 -1.008730788838637e-05  3.157119222325236e-19
 6.894564820021736e-03 -1.299891513319215e-07  3.153065491004816e-19
6.900555414808780e-03 9.825719904254253e-06 3.152244111755349e-19
6.907605786237374e-03 3.043924473838544e-06 3.152307113692979e-19
 6.904279272511896e-03 -6.317360994782482e-06  3.149574473107084e-19
 6.897073657118640e-03 -4.503524989972302e-06  3.145362358409722e-19
6.896918669793824e-03 4.392545890406400e-06 3.142757688718706e-19
6.903074444464615e-03 5.885390219978673e-06 3.142097121589790e-19
 6.906233554089441e-03 -1.513728561723546e-06  3.140953833137480e-19
 6.903477620032246e-03 -7.088215842164380e-06  3.138242257367981e-19
 6.899675489848940e-03 -5.523749505449819e-06  3.135055051867027e-19
 6.898279572306483e-03 -1.670324328949614e-07  3.132202631804593e-19
6.899640434543309e-03 5.253157056004655e-06 3.129765969038065e-19
6.903505454332198e-03 6.861771438688956e-06 3.128008080591003e-19
6.906294356080601e-03 1.173314542215606e-06 3.126350478680616e-19
 6.903050650424447e-03 -6.258743375139456e-06  3.123226726201142e-19
 6.896886065677588e-03 -4.602420187386939e-06  3.118898547391476e-19
6.897150092578202e-03 4.297438045369297e-06 3.115927652406504e-19
6.904354903636563e-03 5.954703894749032e-06 3.115113766657960e-19
 6.907606851481450e-03 -3.383095272109950e-06  3.113683495637569e-19
 6.900566847997078e-03 -1.007451494505971e-05  3.109254610611039e-19
 6.894615540105166e-03 -1.221220524460216e-07  3.104321254151152e-19
6.900602543661666e-03 9.821168050333724e-06 3.102591952131573e-19
6.907646322600360e-03 3.047718786747153e-06 3.101709953419939e-19
 6.904325971945735e-03 -6.304894724955996e-06  3.098005427110472e-19
 6.897125240777739e-03 -4.498524240733485e-06  3.092800349066579e-19
6.896965456863160e-03 4.395192968621525e-06 3.089175335487556e-19
6.903122528020981e-03 5.898307773477416e-06 3.087460664603961e-19
 6.906288257206983e-03 -1.504002396783686e-06  3.085224796286442e-19
 6.903528798871063e-03 -7.085994164374303e-06  3.081385623598302e-19
 6.899723944949118e-03 -5.511401461570402e-06  3.077042436203186e-19
 6.898336684705306e-03 -1.500404309245850e-07  3.073005392703340e-19
6.899705321035448e-03 5.266135240173175e-06 3.069347708928116e-19
6.903567783854174e-03 6.877648468409712e-06 3.066324765547612e-19
6.906355577937531e-03 1.190990299225218e-06 3.063353834349240e-19
 6.903103768296118e-03 -6.232733964148761e-06  3.058870840127723e-19
 6.896871743775407e-03 -4.572270369326906e-06  3.053136047711913e-19
6.896934148785631e-03 4.405373553839446e-06 3.048675313593561e-19
6.903165437467827e-03 5.887075606798392e-06 3.046042634755439e-19
 6.906328605899116e-03 -1.513011377531242e-06  3.042826377711529e-19
 6.903569379898367e-03 -7.081788479804155e-06  3.037977104318318e-19
 6.899770747724479e-03 -5.505073982894320e-06  3.032598999009827e-19
 6.898376741173520e-03 -1.417761173436390e-07  3.027492594388644e-19
6.899742503327425e-03 5.277898256043645e-06 3.022729851869665e-19
6.903608786794540e-03 6.878735979256226e-06 3.018557884867654e-19
6.906389162616531e-03 1.189323080311188e-06 3.014382971884649e-19
 6.903146108275844e-03 -6.222051127217280e-06  3.008651666282798e-19
 6.896997604720987e-03 -4.559354660185212e-06  3.001655247850655e-19
6.897270072654379e-03 4.323217368758287e-06 2.995943193210683e-19
6.904466618699913e-03 5.981853763188995e-06 2.992266652691665e-19
 6.907721393704574e-03 -3.343945888479362e-06  2.987839516397152e-19
 6.900686994573141e-03 -1.003083841610539e-05  2.980316256692292e-19
 6.894735187969894e-03 -6.766358787780628e-08  2.972232499817663e-19
6.900803289203779e-03 9.880096842660012e-06 2.967206334707172e-19
6.907494014545612e-03 3.086772923439414e-06 2.962829410458381e-19
 6.903239951475169e-03 -6.338130649589642e-06  2.955203875620632e-19
 6.897455072980488e-03 -1.833702396734328e-06  2.946570104483260e-19
6.900932226138972e-03 4.446491190831049e-06 2.940413268714027e-19
 6.903318699161208e-03 -1.955629562390272e-06  2.934064679720214e-19
 6.901045856094618e-03 -1.449492005892495e-06  2.925844939523602e-19
6.903418746743382e-03 1.255746875396359e-06 2.918848226822564e-19
 6.902791851237618e-03 -5.504670410484671e-06  2.911014113289917e-19
 6.898831564742890e-03 -4.712830184824003e-07  2.901539106310934e-19
6.902212427463610e-03 5.361309068883781e-06 2.893834831732997e-19
 6.903559194714707e-03 -7.534069481606974e-07  2.885555146679624e-19
6.901946007252762e-03 1.343978723734154e-06 2.875861631292373e-19
6.903287473469871e-03 4.047285914048374e-07 2.867012159215171e-19
 6.899004420956160e-03 -4.656712212958760e-06  2.856232119939884e-19
6.897580478958489e-03 5.688750286296726e-06 2.845303632010422e-19
6.906750522331379e-03 6.346118652584975e-06 2.837582083550073e-19
 6.906437921131664e-03 -9.727641999312085e-06  2.827392920227344e-19
 6.896588349201726e-03 -7.495912416153556e-06  2.813509139785391e-19
6.898601408439743e-03 6.301271620305553e-06 2.800000112042536e-19
6.904506868125413e-03 2.065121905055750e-06 2.792147020316868e-19
 6.902577053717656e-03 -5.678888463724706e-07  2.779093441560303e-19
6.901331643863250e-03 1.798998684526352e-06 2.765735030159601e-19
 6.900140543353233e-03 -5.285757462270208e-07  2.752013190073025e-19
6.902076789753394e-03 4.453474354544751e-06 2.738489454883848e-19
 6.906123485276039e-03 -1.970127412549633e-06  2.725578602115179e-19
 6.900861687827455e-03 -9.102049654536137e-06  2.709435064551330e-19
6.897485179151332e-03 1.015764120590269e-06 2.692718191097151e-19
6.902599930543561e-03 4.490180642909666e-06 2.677928479954696e-19
 6.904302336615951e-03 -1.836117706352955e-07  2.661525563645009e-19
6.903334955946403e-03 2.143877563477762e-07 2.643567869370752e-19
 6.904539015467446e-03 -5.125222833454340e-07  2.625753070618350e-19
 6.901194492716142e-03 -4.997053943899660e-06  2.605914689873976e-19
6.895640192972690e-03 1.684715556782889e-06 2.584031623310100e-19
6.900734034533475e-03 1.217473260996588e-05 2.564087728124978e-19
6.911018282813733e-03 4.996507443110475e-06 2.545345953528215e-19
 6.905810809879047e-03 -1.404649466025954e-05  2.521665608699242e-19
 6.891350456463144e-03 -8.363933653554784e-06  2.493652774272703e-19
6.898250175399034e-03 1.503284548352291e-05 2.470243828527679e-19
6.912816576384072e-03 2.878887435740809e-06 2.448673035324466e-19
 6.903411269999491e-03 -1.462092961517337e-05  2.418894561871662e-19
6.891877507943411e-03 8.916092010950871e-07 2.386435525931955e-19
6.900808227611968e-03 1.446992064461030e-05 2.358432189248630e-19
6.911295463710743e-03 3.537358079780857e-06 2.329804662730944e-19
 6.904940233451552e-03 -1.154627939750256e-05  2.294909486478601e-19
 6.896188323574946e-03 -3.843228918703985e-06  2.257349521411991e-19
6.900154572188267e-03 5.668291805705358e-06 2.221558818293809e-19
6.904687301237970e-03 1.627796595100902e-06 2.183937873058509e-19
6.903434182071146e-03 1.630044686138042e-07 2.142364651077126e-19
6.902230552187781e-03 5.461686511994794e-07 2.098581838988490e-19
6.902148075202671e-03 9.281297578371333e-07 2.052618923462229e-19
6.903899578908212e-03 2.126578520954095e-06 2.004694619146924e-19
 6.904538594671129e-03 -1.964263402090436e-06  1.953714507144443e-19
 6.900416662795126e-03 -2.962118110987541e-06  1.898174776524704e-19
6.900029128321407e-03 4.935262206947141e-06 1.840151677246313e-19
6.905594117199911e-03 5.648771485646305e-06 1.780386591829130e-19
 6.905208205373793e-03 -2.714910172056094e-06  1.715186810007123e-19
 6.898898942899823e-03 -1.924824174792109e-06  1.643886835883554e-19
6.902051911420422e-03 8.140472436354484e-06 1.570662585354057e-19
6.909675178825283e-03 1.224278235167155e-06 1.494266456297228e-19
 6.902191852699667e-03 -1.098027089517458e-05  1.408208144264531e-19
6.895347956392749e-03 4.233445313065760e-06 1.315778915348019e-19
6.905886966058954e-03 1.305254877682844e-05 1.222043246746860e-19
 6.909956747478233e-03 -2.614620802599251e-06  1.119938436986061e-19
 6.901229974568703e-03 -4.454979825863529e-06  1.006222191282965e-19
6.900408681970893e-03 5.694510737972811e-06 8.861413194325698e-20
6.905519642151797e-03 4.684549872650478e-06 7.587268982656946e-20
6.905250197049711e-03 4.926579931286634e-07 6.195029564006490e-20
6.903833821638391e-03 2.482688338132075e-06 4.685755794368626e-20
6.904959979853766e-03 2.841851834615247e-06 3.060332660282649e-20
6.903931056977113e-03 1.097617053967071e-06 1.290589871645260e-20
 6.902945245786665e-03  4.878251436745253e-06 -6.367851221588404e-21
 6.907118773351068e-03  7.296901799635799e-06 -2.721712935217403e-20
 6.908120191104676e-03  3.162576198100527e-07 -4.998496694990148e-20
 6.902728551647829e-03 -2.649860245945239e-07 -7.513578334059110e-20
 6.903079680281054e-03  9.294778792478556e-06 -1.026567565457513e-19
 6.909283753558771e-03  8.730004177084977e-06 -1.326569080840210e-19
 6.908847419652899e-03  1.837337875068979e-06 -1.658281516884857e-19
 6.904700115665364e-03  4.107131579279824e-06 -2.027047610394219e-19
 6.905938035340325e-03  9.547231819526806e-06 -2.434930525286261e-19
 6.910360017514253e-03  9.990981894019353e-06 -2.886571527098901e-19
 6.910660808983734e-03  5.284292279500761e-06 -3.390044109162638e-19
 6.905432652873749e-03  5.718447440207649e-06 -3.956022174263591e-19
 6.907153012257972e-03  1.752831149505068e-05 -4.593269205644601e-19
 6.917241929437430e-03  1.689048014447868e-05 -5.304703054974576e-19
 6.914148016415862e-03  1.867603848548924e-06 -6.105964094411087e-19
 6.902512561297913e-03  1.126936896407065e-05 -7.029032995800527e-19
 6.911016785997778e-03  3.290772507017878e-05 -8.084466506542524e-19
 6.925844104150382e-03  2.252830888587166e-05 -9.270886964372867e-19
 6.917131982187247e-03  5.689602114914405e-06 -1.063352301954176e-18
 6.904151108983309e-03  2.399115687739406e-05 -1.223917640790840e-18
 6.915019345838033e-03  4.787456495636363e-05 -1.410732257260396e-18
 6.929876190877448e-03  4.000428521158694e-05 -1.624967068432783e-18
 6.922131372858583e-03  2.793354782513958e-05 -1.875724836611448e-18
 6.909296004065043e-03  4.712799723581536e-05 -2.176608637195124e-18
 6.913556603732530e-03  7.358030558955112e-05 -2.535179850301340e-18
 6.918000287394251e-03  7.996163375421804e-05 -2.958851519789388e-18
 6.904444116400781e-03  8.936374219278131e-05 -3.468337814918520e-18
 6.882477654657809e-03  1.206652839705545e-04 -4.090839516119716e-18
 6.856550269239402e-03  1.611989726572630e-04 -4.851646486478545e-18
 6.851054017776883e-03  2.137030369533963e-04 -5.786951774620417e-18
 6.845718793582250e-03  2.209059467244701e-04 -6.911709541291732e-18
 6.635649880030894e-03  1.258955309510698e-04 -8.236610067838466e-18
 6.294332852476878e-03  4.012163802990046e-04 -1.015033794802391e-17
 6.313410813901112e-03  8.704795683857111e-04 -1.263516271388385e-17
 6.820460863719165e-03  7.333254533647835e-04 -1.519097676269675e-17
 8.059225008329694e-03  4.029726997748747e-04 -1.814803994417944e-17
 8.299739213956218e-03 -2.379081510147869e-03 -1.869366306175136e-17
 4.246496730597370e-03 -2.621783951705134e-03 -1.622950779018816e-17
 3.177228553716646e-03  1.747364909377617e-03 -3.479606086687519e-17
 4.120523855405429e-03  4.282631960646667e-03 -3.353191221614897e-17
 6.094683699741537e-03  6.713263156813597e-03 -2.403425876558527e-17
 6.433795007063472e-03 -1.479477141215090e-03 -6.407289773212939e-17
 5.710986747873181e-03 -3.930668791843029e-04 -8.716666945196729e-17
 6.011626279868543e-03 -2.141931095238988e-03 -1.292161508084616e-16
 6.318037522224962e-05 -1.726158957675375e-04 -6.737878604312703e-17
 1.770985412194472e-03  1.621736869125925e-03 -4.456582426869787e-17
7.388216446717224e-03 4.229713278506757e-03 1.270544327637674e-15
 2.218672396353105e-03 -3.763099759992188e-03 -5.953318145314538e-16
-1.141557796077365e-03 -7.836227723522947e-04 -6.645786800043727e-15
3.060709182266117e-03 9.726621831724609e-03 1.600738220268014e-15
 2.662097609252891e-03  1.827397890852358e-03 -7.210642892073454e-15
 4.901955079659229e-03 -4.597843012470098e-03  4.769960554831781e-17
 4.865356053948173e-03 -3.631424248311307e-04 -3.606166698339588e-17
 8.652019518367991e-03 -5.367828860543016e-03 -1.395979571186541e-16
 2.963715986939666e-03 -4.667405600872958e-03 -1.494694309916908e-16
 7.591908086491640e-04 -5.344229096388277e-05  1.252297109143159e-17
4.914396153487557e-03 2.967100728201281e-03 2.052914503805329e-17
 5.642961473560951e-03  4.430836553818263e-03 -1.246119296387933e-17
 6.851359895399231e-03  4.471156139425445e-03 -3.014546921704286e-17
 6.755418090653953e-03 -4.550381016342294e-03 -1.569408428838164e-17
 4.678146340438625e-03 -1.159797054498250e-03 -2.073713179029301e-17
 5.667781782096925e-03 -8.921262274566569e-04 -1.995914292061087e-17
 5.957829672546018e-03 -1.158151328040402e-03 -1.784074542088271e-17
 6.183698741931079e-03 -2.308383438670013e-05 -1.604394247927806e-17
 6.957241740340909e-03  4.743631468825335e-04 -1.388575107824910e-17
 7.259870678533520e-03 -1.061079042350847e-04 -1.222560945110034e-17
 7.002799747215761e-03 -2.537425617128733e-04 -1.073838287010816e-17
 6.866138942181573e-03 -1.649190073300024e-04 -9.396609291231188e-18
 6.875518096593827e-03 -9.622403758507220e-05 -8.211785268502567e-18
 6.928309416019894e-03 -5.792450809642173e-05 -7.181322436962132e-18
 6.939348694824440e-03 -1.039070329589250e-04 -6.308390065422125e-18
 6.864798973296325e-03 -9.731981722039932e-05 -5.542385805339871e-18
 6.885140992469849e-03  6.745535625690037e-05 -4.833801543324515e-18
 7.010702962162244e-03  2.770070693092554e-05 -4.261991772743052e-18
 6.951341860645765e-03 -1.851748708626121e-04 -3.807938574773406e-18
 6.819361732234063e-03 -7.016861888424575e-05 -3.349492197809974e-18
 6.885036045307326e-03  9.492803906574666e-05 -2.931213061319156e-18
 6.971481198301776e-03 -2.413651616906814e-06 -2.614191342412684e-18
 6.944070737332412e-03 -6.283282182422140e-05 -2.332334604553485e-18
 6.908863199803762e-03 -6.150612342185675e-05 -2.074626865623777e-18
 6.867058275511008e-03 -5.188041200477270e-05 -1.846574188108447e-18
 6.873073423846745e-03  5.657167760888353e-05 -1.630172796879476e-18
 6.950949750892489e-03  6.108213328706661e-05 -1.450601845309361e-18
 6.950533970316990e-03 -6.055879414747347e-05 -1.308188297795689e-18
 6.882865585863394e-03 -5.900834725760112e-05 -1.168970729767391e-18
 6.880345338111463e-03  7.822570558828801e-06 -1.036126660283124e-18
 6.912442570445684e-03  6.271554169506712e-06 -9.233139492223630e-19
 6.914425912451360e-03 -1.126842858400987e-05 -8.244608169888596e-19
 6.906074549889730e-03 -8.593718475586956e-06 -7.341289259823562e-19
 6.903658663274314e-03 -6.522200158366289e-06 -6.526479723107065e-19
 6.902789534079160e-03 -3.451857451917634e-06 -5.790092665646380e-19
 6.907140209073240e-03  8.598216831307677e-07 -5.121745598031247e-19
 6.910541027104326e-03 -7.980691322930381e-06 -4.524385174633966e-19
 6.900843863916335e-03 -1.560597047838700e-05 -3.984423172053346e-19
 6.894526468261456e-03  5.553682164294744e-07 -3.479362667311124e-19
 6.906861846737209e-03  1.138585401771993e-05 -3.016985744372465e-19
 6.915001465028261e-03 -7.054415268566390e-06 -2.609834336428231e-19
 6.900954367610171e-03 -2.002597216597153e-05 -2.240354865014062e-19
 6.890912681142716e-03 -4.003577700068546e-07 -1.886954079491502e-19
 6.904797327311168e-03  1.451352380313217e-05 -1.558339470420097e-19
 6.914549538933608e-03 -5.050000822731154e-06 -1.270129542988810e-19
 6.900769143588520e-03 -1.779252679526964e-05 -1.008375188095458e-19
 6.893017836688974e-03  1.464026409085894e-06 -7.548406121038518e-20
 6.905162689803888e-03  9.636231038169238e-06 -5.188642853250498e-20
 6.909098274527581e-03 -6.696882679231197e-06 -3.099464008174820e-20
 6.899531420955652e-03 -8.564438209222609e-06 -1.160677696766973e-20
6.898296610024131e-03 2.490118610354650e-06 6.933775461024103e-21
6.904211059131570e-03 2.051763289794045e-06 2.406347479230894e-20
 6.904492543906285e-03 -3.747949040660170e-06  3.971820904351310e-20
 6.900365801435071e-03 -4.345273324461856e-06  5.428637536919685e-20
6.899413398421957e-03 5.244311684489244e-07 6.805449057994933e-20
6.903883887696349e-03 2.573863333432814e-06 8.100138870299752e-20
 6.904777105792710e-03 -4.874799830669465e-06  9.284375866740923e-20
 6.899117349798415e-03 -5.711414412373495e-06  1.038442212368834e-19
6.899117727461435e-03 3.220323124052727e-06 1.144415887126498e-19
6.904427582057449e-03 2.136075904420795e-06 1.243746006111904e-19
 6.903366787909626e-03 -4.470888050743069e-06  1.334378265874352e-19
 6.899723720539272e-03 -1.804412176804373e-06  1.420085790010589e-19
6.901083493838626e-03 1.368246348527009e-06 1.502123638516559e-19
 6.902354934272117e-03 -1.429916913015071e-06  1.578386537706389e-19
 6.902166375089899e-03 -6.840472316867363e-07  1.650339043703096e-19
6.909251638471012e-03 2.012549148159121e-06 1.720838450288913e-19
 6.902482272010672e-03 -1.760618808516520e-05  1.781621845105899e-19
 6.873003280568895e-03 -7.596771062246194e-06  1.833694109302592e-19
6.894761143406563e-03 5.689747184733443e-05 1.900771440747475e-19
6.949012424935856e-03 1.252470964429089e-05 1.967124553937734e-19
 6.907593615051754e-03 -8.331241175951508e-05  2.000614408595879e-19
 6.846979619031152e-03 -1.299002228930953e-05  2.036662110394146e-19
6.898305103190210e-03 7.123784357484391e-05 2.102316435687372e-19
 6.955119996359220e-03 -5.477953871446585e-07  2.158315025754195e-19
 6.899868965378731e-03 -7.226055483240482e-05  2.180274980354063e-19
6.846890538587370e-03 8.498165424759813e-06 2.207747170879990e-19
6.903139420246302e-03 8.204506132749474e-05 2.263606721553193e-19
 6.948760809970277e-03 -4.873176527456854e-06  2.307967449299416e-19
 6.900171092401159e-03 -5.800046451297987e-05  2.325751524106247e-19
 6.872849783980263e-03 -1.559335855861595e-06  2.353063359400830e-19
6.898185984612516e-03 1.602465328283400e-05 2.392352273928146e-19
 6.908817890046485e-03 -1.391017332686790e-07  2.423832758578221e-19
 6.903692383778097e-03 -9.025821479848190e-07  2.449763747489296e-19
 6.902544844353028e-03 -6.859787810091100e-07  2.476075113314997e-19
 6.901629389475572e-03 -2.655906943720501e-06  2.501272010817028e-19
 6.899585607483587e-03 -7.029764138851931e-07  2.525124296735585e-19
6.900654979348684e-03 3.018974657132148e-06 2.548712734447214e-19
6.901167178740930e-03 7.292560515807782e-07 2.571028737862037e-19
6.899978513834146e-03 1.133765990463120e-06 2.591745990000843e-19
6.902993258728835e-03 3.010994374341813e-06 2.613019361410684e-19
 6.904137787295868e-03 -5.246232274341837e-06  2.633052433553202e-19
 6.897462218136859e-03 -7.319988970944868e-06  2.650041446660287e-19
6.894956725936450e-03 3.262442234385807e-06 2.667304322593959e-19
6.902523161361313e-03 8.525966108743331e-06 2.684476959832009e-19
 6.908395559294572e-03 -8.620233500488035e-07  2.703504251248656e-19
 6.902096054861348e-03 -1.133144127673265e-05  2.719259227285818e-19
 6.894637520448501e-03 -3.029268641480158e-06  2.732596450798966e-19
6.898063804359306e-03 7.047033036092654e-06 2.748284395295220e-19
6.902481547490540e-03 4.053700315185475e-06 2.763477976561381e-19
6.902834875621396e-03 1.812769583095842e-06 2.776938857962829e-19
 6.903817550885742e-03 -1.485388553957236e-06  2.790412384194812e-19
 6.902536678576014e-03 -6.987596102065528e-06  2.803042113160971e-19
 6.899148214087726e-03 -5.651970606862300e-06  2.814597645824727e-19
 6.897718845198277e-03 -3.008962971927801e-07  2.826036085274399e-19
6.899039969975353e-03 5.126594891053884e-06 2.837513188522461e-19
6.902901260461771e-03 6.783901018694872e-06 2.849221793223921e-19
6.905723571247390e-03 1.100621712941480e-06 2.860543047076573e-19
 6.902475348514358e-03 -6.385318014502341e-06  2.870049753885620e-19
 6.896255637571345e-03 -4.725067161282015e-06  2.878248798233864e-19
6.896514047401525e-03 4.240969470707600e-06 2.887692473729787e-19
6.903759259407217e-03 5.902468821520392e-06 2.898903832654485e-19
 6.907015592507081e-03 -3.487598513176633e-06  2.908975042981101e-19
 6.899933269470472e-03 -1.019143283814859e-05  2.915870093128181e-19
 6.893953967784732e-03 -1.971794680621785e-07  2.922383916848478e-19
6.899960918709570e-03 9.789295548506777e-06 2.931907531366796e-19
6.907039185827897e-03 2.998464113351953e-06 2.941782232363981e-19
 6.903699819964713e-03 -6.413260957178275e-06  2.948632638038066e-19
 6.896445860693741e-03 -4.592540260029164e-06  2.953873636306335e-19
6.896291512245164e-03 4.371243366701078e-06 2.960938531071490e-19
6.902489889566274e-03 5.859796061233749e-06 2.969547951428741e-19
 6.905642705205500e-03 -1.596599299658668e-06  2.976784375935688e-19
 6.902848124050084e-03 -7.161453908673037e-06  2.983437725837499e-19
 6.899047884244410e-03 -5.555841164497574e-06  2.989051904708345e-19
 6.897669628265202e-03 -2.092478879639167e-07  2.994616144754381e-19
6.899016692610145e-03 5.198199417439732e-06 3.000772025994089e-19
6.902869776580905e-03 6.844965309008569e-06 3.005268004193733e-19
6.905686448924895e-03 1.169014941214099e-06 3.015878202339697e-19
 6.902435634607804e-03 -6.312284942607049e-06  3.019472571890800e-19
 6.896153537388609e-03 -4.663472422000507e-06  3.026497880180289e-19
6.896204677641126e-03 4.380996827176711e-06 3.018194586249461e-19
6.902474499705317e-03 5.869771445377795e-06 3.048211573778261e-19
 6.905638788343903e-03 -1.581210728327367e-06  3.067200398607783e-19
 6.902847303721155e-03 -7.151625249292871e-06  3.106818140692976e-19
 6.899043408099194e-03 -5.548821385767089e-06  2.904789813916257e-19
 6.897656342060594e-03 -1.925888510009256e-07  2.964198749681885e-19
6.899003625874564e-03 5.215648113598014e-06 3.781014034218990e-19
6.902858771897745e-03 6.848626795925923e-06 2.960315060388999e-19
6.905669311187971e-03 1.172504194239729e-06 4.274534816548680e-19
 6.902428567854424e-03 -6.303311444552870e-06 -4.314343722846464e-19
 6.896223413685594e-03 -4.658215747125615e-06  1.087331431370587e-18
6.896477343559139e-03 4.298895352115791e-06 8.501674397234656e-19
6.903719872442765e-03 5.966127746043997e-06 5.664745041129736e-19
 6.906979099513355e-03 -3.422456501825030e-06  3.663626610700196e-19
 6.899903066912828e-03 -1.012591268232220e-05  3.179843124356995e-19
 6.893931048604937e-03 -1.384951445679953e-07  2.993964728893899e-19
6.899935319999342e-03 9.833399328275427e-06 2.997285310600493e-19
6.907005616306119e-03 3.047001695317036e-06 3.094091129030831e-19
 6.903673106575915e-03 -6.350824292645934e-06  3.088502978098292e-19
 6.896430582861679e-03 -4.539309400123357e-06  3.092431197135960e-19
6.896272595965316e-03 4.410976033123700e-06 3.115957694831880e-19
6.902465060302091e-03 5.905240626351352e-06 3.109192713082785e-19
 6.905622984087831e-03 -1.546016121561518e-06  3.115900679467504e-19
 6.902834500927008e-03 -7.116705740437026e-06  3.118189060483830e-19
 6.899033812903280e-03 -5.517535144119618e-06  3.121753571272516e-19
 6.897651118929628e-03 -1.724277868862678e-07  3.122849241209916e-19
6.898994604036021e-03 5.235629246275865e-06 3.126272413747393e-19
6.902853433139589e-03 6.879024409315065e-06 3.129711322546601e-19
6.905671367551415e-03 1.195573077198223e-06 3.133145467245724e-19
 6.902424470846710e-03 -6.291037758335239e-06  3.134974581164056e-19
 6.896215085184050e-03 -4.633869062472670e-06  3.135880813625700e-19
6.896478912889021e-03 4.327461612681577e-06 3.138365563201631e-19
6.903724165372114e-03 5.979449242883135e-06 3.142604704338112e-19
 6.906975675678936e-03 -3.410151499362411e-06  3.146450354569503e-19
 6.899899275861533e-03 -1.010467987783878e-05  3.147168328196196e-19
 6.893931227807418e-03 -1.176675509619343e-07  3.147476218340359e-19
6.899937631387140e-03 9.853531067627942e-06 3.151074163174312e-19
6.907009066871692e-03 3.062975984936679e-06 3.155439278180379e-19
 6.903673493476974e-03 -6.339233577359605e-06  3.157010201058374e-19
 6.896430241641737e-03 -4.521977591042397e-06  3.157108972269850e-19
6.896275429099728e-03 4.427651449772735e-06 3.158839922726986e-19
6.902466174422016e-03 5.918510090834550e-06 3.162525330486999e-19
 6.905624130008851e-03 -1.527044813560056e-06  3.165684177521003e-19
 6.902840707651051e-03 -7.099732225734928e-06  3.167282272465467e-19
 6.899038327525166e-03 -5.509206166370672e-06  3.168429264007897e-19
 6.897648550015840e-03 -1.615065397871906e-07  3.169940901897197e-19
6.898993175714288e-03 5.257242418480876e-06 3.171853883011142e-19
6.902862415171328e-03 6.900757152621455e-06 3.174465799597680e-19
6.905683738286393e-03 1.201066215067023e-06 3.177193562064978e-19
 6.902424901894929e-03 -6.293975706571386e-06  3.178456221469811e-19
 6.896207052265514e-03 -4.619856337608858e-06  3.178534161838128e-19
6.896482022001050e-03 4.357444407830243e-06 3.180014628071566e-19
6.903740143007326e-03 5.996672505535196e-06 3.183679761614435e-19
 6.906983826238888e-03 -3.412690910129135e-06  3.186729990573112e-19
 6.899893443399700e-03 -1.009933275637251e-05  3.186803369046999e-19
 6.893930450967155e-03 -9.392735325211788e-08  3.186423746527511e-19
6.899949136020253e-03 9.870782389482025e-06 3.189291630785205e-19
6.907017923989209e-03 3.065307476169344e-06 3.193030814903592e-19
 6.903673650924323e-03 -6.334399253478279e-06  3.193973548771585e-19
 6.896430820796553e-03 -4.508238965916155e-06  3.193457311375440e-19
6.896283018362751e-03 4.443205211281880e-06 3.194579607680999e-19
6.902475799378277e-03 5.925681240684961e-06 3.197664277930568e-19
 6.905624754945686e-03 -1.524594689697940e-06  3.200258632525558e-19
 6.902836411238622e-03 -7.083135014460972e-06  3.201299792754321e-19
 6.899046553660242e-03 -5.483906710779685e-06  3.201905961704529e-19
 6.897666981120273e-03 -1.556744842465363e-07  3.202875871944924e-19
6.898998801316792e-03 5.244283137353890e-06 3.204270811590899e-19
6.902850319094313e-03 6.902920187522110e-06 3.206366709046890e-19
6.905678943800819e-03 1.232218409718066e-06 3.208599599085594e-19
 6.902442951818169e-03 -6.267236113929575e-06  3.209389062673491e-19
 6.896226243116602e-03 -4.626068544489522e-06  3.208994870164173e-19
6.896479559020573e-03 4.343837705150760e-06 3.210004803965333e-19
6.903728377312375e-03 6.008449258570199e-06 3.213216776603286e-19
 6.906986044571111e-03 -3.384778858827693e-06  3.215831353096909e-19
 6.899910143008241e-03 -1.008333558467651e-05  3.215476101711258e-19
 6.893941775484829e-03 -9.995071565879749e-08  3.214673791075338e-19
6.899944140666139e-03 9.865998533085757e-06 3.217125060753886e-19
6.907013425297398e-03 3.082479627227863e-06 3.220461013091365e-19
 6.903683009562812e-03 -6.317062871625700e-06  3.221013285120238e-19
 6.896439366234751e-03 -4.507775328748681e-06  3.220110284323860e-19
6.896280100988427e-03 4.446072032106981e-06 3.220851901600601e-19
6.902474605658326e-03 5.941548629426362e-06 3.223566275257504e-19
 6.905635422016501e-03 -1.511330015270909e-06  3.225802562807190e-19
 6.902846189136324e-03 -7.088778209041792e-06  3.226488171101154e-19
 6.899038797444888e-03 -5.491071899002238e-06  3.226742226316803e-19
 6.897656682581666e-03 -1.339966014140475e-07  3.227370890086305e-19
6.899009340724222e-03 5.271320643168480e-06 3.228438416141050e-19
6.902866179009049e-03 6.900255844089709e-06 3.230210526123114e-19
6.905676973883601e-03 1.219964449335922e-06 3.232117142848965e-19
 6.902430109138932e-03 -6.261629338135667e-06  3.232587240321060e-19
 6.896223107126431e-03 -4.603594698615848e-06  3.231886912021436e-19
6.896491113916452e-03 4.359473401679382e-06 3.232600990490294e-19
6.903736058263321e-03 6.000810314578676e-06 3.235517269756794e-19
 6.906978382580799e-03 -3.389934588442098e-06  3.237833835955966e-19
 6.899902867078022e-03 -1.006986623370339e-05  3.237190465526278e-19
 6.893941619601954e-03 -8.834868362994220e-08  3.236112734125727e-19
6.899942498505616e-03 9.874713424909756e-06 3.238291714196737e-19
6.907015192529895e-03 3.094878483805602e-06 3.241355763743981e-19
 6.903686935234326e-03 -6.319992428081050e-06  3.241640519513892e-19
 6.896430559897101e-03 -4.516551088617505e-06  3.240474080059436e-19
6.896269230472034e-03 4.458734239625306e-06 3.240961764441684e-19
6.902473954320738e-03 5.955675958555422e-06 3.243428040959921e-19
 6.905631785728427e-03 -1.509615144006834e-06  3.245412733575386e-19
 6.902838428008609e-03 -7.078058700328566e-06  3.245850775510901e-19
 6.899038648473311e-03 -5.481962979267348e-06  3.245868539403101e-19
 6.897651180403863e-03 -1.421160182063531e-07  3.246263461789514e-19
6.898993485107754e-03 5.275220365700511e-06 3.247098889009587e-19
6.902859825194373e-03 6.916605072442086e-06 3.248646414664040e-19
6.905672859268227e-03 1.218246505636195e-06 3.250327724487053e-19
 6.902415314742230e-03 -6.259526132187145e-06  3.250570013940087e-19
 6.896212949972361e-03 -4.588141123073642e-06  3.249654210055679e-19
6.896483699941790e-03 4.359003998071803e-06 3.250160644901547e-19
6.903718460577784e-03 6.001501598355097e-06 3.252863946657952e-19
 6.906963838197781e-03 -3.375846960215294e-06  3.254968572464186e-19
 6.899892342301748e-03 -1.006840718969757e-05  3.254119000773679e-19
 6.893923377301127e-03 -8.873187372867938e-08  3.252843334364942e-19
6.899926411253384e-03 9.884303997222737e-06 3.254829888676488e-19
6.906998317324868e-03 3.091706169995363e-06 3.257695440556005e-19
 6.903657421519923e-03 -6.317644394094947e-06  3.257777785136374e-19
 6.896408820684808e-03 -4.492288796824739e-06  3.256423526921952e-19
6.896258971263013e-03 4.462491638770137e-06 3.256733443150280e-19
6.902447701662372e-03 5.940222703292836e-06 3.259011975099519e-19
 6.905594132265594e-03 -1.502773736842548e-06  3.260806242705888e-19
 6.902811395481111e-03 -7.062875639769601e-06  3.261063905916048e-19
 6.899011945210067e-03 -5.481935210815667e-06  3.260905824535585e-19
 6.897614875637710e-03 -1.394280676530400e-07  3.261125746193223e-19
6.898958901154619e-03 5.285507095424189e-06 3.261791872680206e-19
6.902825169687337e-03 6.916096879987522e-06 3.263170349258995e-19
6.905626504807616e-03 1.215850201773759e-06 3.264676415379585e-19
 6.902365823459060e-03 -6.246716455402125e-06  3.264746333835446e-19
 6.896171726451011e-03 -4.576183640749812e-06  3.263669629712511e-19
6.896439667814286e-03 4.354091999027521e-06 3.264019262432023e-19
6.903657539218070e-03 5.994252648624997e-06 3.266558765095640e-19
 6.906893872774984e-03 -3.365618979243670e-06  3.268495854492388e-19
 6.899832971858116e-03 -1.004649369249167e-05  3.267488082482837e-19
 6.893871443830222e-03 -8.775520740910111e-08  3.266067101226112e-19
6.899851332600506e-03 9.861359140019045e-06 3.267901353695174e-19
6.906899110608645e-03 3.097366261594913e-06 3.270603763815924e-19
 6.903572689353461e-03 -6.283277164316143e-06  3.270534167906570e-19
 6.896333673389478e-03 -4.489480516684857e-06  3.269037179248849e-19
6.896153778498207e-03 4.444835206409573e-06 3.269198411000565e-19
6.902325462642036e-03 5.955424819539184e-06 3.271327441442223e-19
 6.905493385936517e-03 -1.479759819376844e-06  3.272980803304165e-19
 6.902701518182962e-03 -7.090890428634103e-06  3.273094161832436e-19
 6.898850603150792e-03 -5.503581688600930e-06  3.272782837225788e-19
 6.897447912111936e-03 -9.278928933803073e-08  3.272864284532138e-19
6.898808331678227e-03 5.311325340198086e-06 3.273402524259344e-19
6.902646703419703e-03 6.913900153518576e-06 3.274638759393038e-19
6.905441853358512e-03 1.243154662444159e-06 3.276005324256063e-19
 6.902176575886203e-03 -6.271265779755633e-06  3.275941745249632e-19
 6.895915775996850e-03 -4.621151922684181e-06  3.274719339907491e-19
6.896162373486359e-03 4.404529631539395e-06 3.274937952229853e-19
6.903485812579515e-03 6.076714320737078e-06 3.277388389643609e-19
 6.906624302204695e-03 -3.536547835093959e-06  3.279187648976834e-19
 6.898858125731226e-03 -1.029036367491416e-05  3.277838696367298e-19
6.892727516077586e-03 9.763974226289811e-07 3.276156571041973e-19
6.899669318623479e-03 1.095920396953425e-05 3.278098843431855e-19
6.908023822190642e-03 3.046141499636802e-06 3.281114294735799e-19
 6.904790930144646e-03 -9.027215032341002e-06  3.281194815527676e-19
 6.893596493306409e-03 -9.133825665029388e-06  3.278623035279349e-19
6.892113502980346e-03 8.081819469546009e-06 3.277955878201158e-19
6.903780581384282e-03 1.191966919017065e-05 3.281414952843247e-19
 6.907143931557671e-03 -4.093382700598754e-06  3.283230870085692e-19
 6.899827562042609e-03 -8.466590523887395e-06  3.281864053652760e-19
 6.895181600768372e-03 -4.349965664288038e-06  3.281154819717269e-19
6.894753663057087e-03 1.789765672193043e-06 3.281311059796995e-19
6.901031158007085e-03 8.072519174244824e-06 3.283053850144491e-19
 6.904939521806141e-03 -4.584675796078724e-07  3.284870393704689e-19
 6.896940097149256e-03 -6.918636604654348e-06  3.283489622943318e-19
6.892349885935795e-03 1.490760635168570e-06 3.282394915867779e-19
6.896045403853291e-03 4.000561946475601e-06 3.283662000716480e-19
6.893953572687378e-03 2.063376017838827e-06 3.283418314621392e-19
 6.870185187015647e-03 -2.488739272340716e-06  3.276106417056656e-19
 6.748418952504964e-03 -3.854011627771170e-05  3.233470409267251e-19
6.967497171713654e-03 3.429233634068435e-04 3.276570762230915e-19
7.757618109211639e-03 9.436974507353605e-05 3.548681212631207e-19
 6.611833537829312e-03 -1.736273449080204e-03  3.294655812705489e-19
 5.005839216956137e-03 -2.133600787671708e-05  2.743732242086212e-19
6.170237464860724e-03 3.394240392808129e-03 2.811189095010928e-19
 9.984081423745744e-03 -6.493139970218775e-05  4.151430621637175e-19
 5.534746315460706e-03 -4.042691854125539e-03  2.822818729938799e-19
3.756298023756673e-03 6.787800418231174e-05 2.392607729893984e-19
5.788614919631150e-03 3.524737236991273e-03 2.624023630638846e-19
9.007920060101841e-03 1.555213581615015e-04 3.888303974717922e-19
 7.528628270031922e-03 -1.875252796840335e-03  3.375499416630626e-19
 5.766940679256391e-03 -1.438437081953678e-03  3.102814845461524e-19
4.908461331695981e-03 2.206534464642020e-04 2.688845888914091e-19
6.292727668296890e-03 3.439616179425334e-03 2.872883984285142e-19
 1.000467970883503e-02 -6.543099171369947e-05  4.161517107200643e-19
 5.535229615569620e-03 -4.045720795479226e-03  2.824032154674817e-19
3.743307641554398e-03 6.184742192389291e-05 2.394306510479825e-19
5.752888305162913e-03 3.505601361739180e-03 2.609148999542996e-19
8.880080833061983e-03 1.407642324576909e-04 3.842812419603404e-19
 7.829442408696286e-03 -1.533894684137635e-03  3.454395336019590e-19
 6.503429651513210e-03 -1.821817478741611e-03  3.288162533092246e-19
 4.187990782378115e-03 -9.719950889805531e-04  2.778215351219824e-19
4.611270251471083e-03 3.546140001599305e-03 2.006874323582993e-19
1.024130624068458e-02 3.806917485497548e-03 4.527396971567876e-19
 7.188355518726710e-03 -6.406981754461799e-03  2.642181945790954e-19
 1.632069422763756e-03 -1.371100499345875e-03  2.703958941435442e-19
2.764671509450118e-03 3.600214737139409e-03 7.460982076605018e-20
1.052628330678137e-02 3.623340796403376e-03 4.658597661623219e-19
 6.652873861006456e-03 -5.206834241767328e-03  2.736836113775772e-19
 2.983238439638921e-03 -8.279957845644042e-04  2.445542888622616e-19
4.749762287350709e-03 3.848718849524032e-03 2.065039523822896e-19
1.052832400288997e-02 1.159010590156093e-04 4.371997674128613e-19
 5.604839758773372e-03 -4.248411198877643e-03  2.801548591480676e-19
3.732836313857618e-03 8.572652275733904e-05 2.382013945695082e-19
5.849952734602541e-03 3.582955464928646e-03 2.659732276415220e-19
 8.953659013205001e-03 -9.660680938862499e-05  3.881175826473832e-19
 6.667766691351163e-03 -1.868495515168721e-03  3.170050867586633e-19
5.960529498911795e-03 9.437424848503785e-05 2.998214366822170e-19
6.791671295494735e-03 3.325049070297677e-04 3.265327934603990e-19
 7.040819896331653e-03 -3.760127125364569e-05  3.348313886039402e-19
 6.926969368519642e-03 -8.143216250715373e-06  3.305408485267199e-19
 6.899214179230241e-03 -8.891615938613002e-06  3.296898648159193e-19
6.892776007687898e-03 1.998512851688105e-06 3.294928205264836e-19
6.903073564350497e-03 1.154010157634072e-05 3.297480590556118e-19
 6.907159873167340e-03 -3.626550857539693e-06  3.299248137141167e-19
 6.896160313673318e-03 -7.700577560799666e-06  3.296396623134909e-19
6.894151074970017e-03 4.189401310258382e-06 3.295538520949646e-19
6.901493596267066e-03 4.916112794553861e-06 3.297876982638826e-19
 6.901834679086719e-03 -5.194614254805929e-06  3.298454109238270e-19
 6.892880450737989e-03 -5.015827899281371e-06  3.296029651626151e-19
6.893902303395555e-03 7.088983356698025e-06 3.295742210830018e-19
6.903490900621203e-03 5.828962810664667e-06 3.298341962160294e-19
 6.902530552789254e-03 -4.489175305747097e-06  3.298837558312136e-19
 6.898768122610653e-03 -9.132618059498029e-06  3.297892722026488e-19
6.921093978385969e-03 2.327461916509915e-06 3.304958880851709e-19
7.062752060977263e-03 4.059530441286952e-05 3.354995662618607e-19
 6.929197706585680e-03 -3.052328185273860e-04  3.342348743906347e-19
 5.948987219775350e-03 -3.317581521183845e-04  3.043030804725966e-19
6.170119392544885e-03 1.742209252025080e-03 2.891747891339141e-19
8.938325278314100e-03 1.537313999616250e-03 3.908976755998742e-19
 7.876178496962215e-03 -3.980562463957553e-03  3.339918434890009e-19
 3.210217782482745e-03 -2.027123901368346e-03  2.837656572994476e-19
3.466235728934566e-03 2.892772505250472e-03 1.340033132907818e-19
8.320854396090724e-03 4.304049934387548e-03 3.811479894654524e-19
 9.070299546914892e-03 -3.342591537485792e-03  3.512020008781447e-19
 4.425849256858913e-03 -2.796781824232722e-03  2.739642543778203e-19
4.586725891972149e-03 1.357859257205157e-03 2.332225412037164e-19
7.831343685703792e-03 1.637061407876949e-03 3.623119545642777e-19
 7.175876404142645e-03 -1.444078793813813e-03  3.428546442684448e-19
5.253066097239394e-03 1.990138886005488e-04 2.744002276531610e-19
6.252998519903402e-03 2.859350692741696e-03 2.860679135539576e-19
1.038265075245387e-02 7.363569453094972e-04 4.306806173013115e-19
 6.729851881222411e-03 -5.695865608882539e-03  2.836094165310002e-19
 2.477059028060744e-03 -1.661264662957238e-03  2.908688476378804e-19
2.999741690802611e-03 2.912533438299351e-03 9.846854703191127e-20
6.605532703303564e-03 5.330879763451787e-03 3.096924974791059e-19
-3.750903418217270e-03  4.336449476792314e-03 -2.671515258053676e-19
-2.172183970258719e-03 -2.031968033105227e-05 -2.092829477219630e-19
-9.571548762668372e-03  5.171545884503904e-03 -3.281899758264839e-19
-9.480306423525773e-03 -3.687613058929212e-03 -4.221137798555417e-19
-4.373139578332142e-03 -3.915081287621231e-03 -1.877401051857277e-19
-3.733586760376864e-03  3.370296452147578e-04 -2.581993663414960e-19
-6.218283381597051e-03  3.323811325682345e-03 -3.246966745769037e-19
-8.872023933152496e-03  4.608805581904529e-04 -3.901561043008383e-19
-6.359512828664786e-03 -1.312727955476733e-03 -3.015834285762369e-19
-5.696197873138168e-03  1.245099076810408e-03 -2.935881307211775e-19
-8.350843711710043e-03  1.622821318674193e-03 -3.603540248578536e-19
-7.649335048804166e-03 -3.700043716152644e-03 -3.524767616861152e-19
-3.324388085434323e-03 -2.084761068013519e-03 -1.430641068024853e-19
-3.236694630706327e-03  2.678223683669487e-03 -2.763647230787717e-19
-8.728666355069109e-03  4.414546520711949e-03 -3.337377262884755e-19
-8.988869776794596e-03 -3.321639223654474e-03 -4.024669192456962e-19
-4.672420554369111e-03 -2.898731218049809e-03 -2.101844221987274e-19
-4.679493160008448e-03  1.313059468939213e-03 -2.922198742391846e-19
-7.510859726202634e-03  1.740044820093306e-03 -3.538294022850437e-19
-7.734877652206478e-03 -5.584985213902149e-04 -3.554444327742856e-19
-6.783931073078409e-03 -1.811673256115432e-04 -3.248290597350061e-19
-6.802698393624389e-03  1.068330630922583e-04 -3.280296758531236e-19
-6.908706564699900e-03 -9.372814081725497e-05 -3.312179709254501e-19
-6.834549142939464e-03 -4.396503827819197e-05 -3.292996479405415e-19
-6.874155898287259e-03  7.508160810955613e-05 -3.309841755862197e-19
-6.937935364915204e-03  8.010347850655755e-06 -3.325508574678650e-19
-6.902319474055495e-03 -4.576868266371608e-05 -3.311946072055285e-19
-6.879909834781785e-03  7.630524993016514e-06 -3.307404648688888e-19
-6.903745226924793e-03  1.481886364514471e-05 -3.314960390480941e-19
-6.906106017755471e-03 -7.292630431035620e-06 -3.314422513514543e-19
-6.897450427129931e-03  6.492414314123647e-07 -3.311758195551738e-19
-6.902406602977999e-03  5.201623227380498e-06 -3.313196673295597e-19
-6.903237016826958e-03 -4.466558181090123e-06 -3.312989583876070e-19
-6.899189376977267e-03 -1.417577071002558e-06 -3.311799866651506e-19
-6.903055613432996e-03  3.063756344041518e-06 -3.313004370034442e-19
-6.903026029975955e-03 -5.224685935542004e-06 -3.312539261902398e-19
-6.899105084743417e-03  5.126260227301946e-07 -3.311453790930696e-19
-6.903538726488937e-03  5.479582386823429e-06 -3.312782230567779e-19
-6.903448164247604e-03 -3.311409787491251e-06 -3.312179308813032e-19
-6.899502832202806e-03  1.535675214141643e-06 -3.310886091893326e-19
-6.903941445753873e-03  5.176565185351590e-06 -3.312146142037654e-19
-6.903693519538041e-03 -4.906895674396371e-06 -3.311518147363829e-19
-6.897975669355474e-03 -1.449935623848002e-06 -3.309696476192659e-19
-6.903026129501841e-03  6.691392849428833e-06 -3.311290890320695e-19
-6.908863708437959e-03 -3.206040706430065e-06 -3.312587897667535e-19
-6.902054830616471e-03 -1.045715067875547e-05 -3.310332360458504e-19
-6.895794069184449e-03  7.942720980240414e-08 -3.308793747295652e-19
-6.902077531514609e-03  1.070041497089111e-05 -3.310698448405184e-19
-6.909025341751186e-03  3.503995765068190e-06 -3.312042915303355e-19
-6.903266130805702e-03 -6.539809991418422e-06 -3.309623359262098e-19
-6.898165431628174e-03  1.575344398020072e-06 -3.308193274870050e-19
-6.903956008562978e-03  5.241320211841125e-06 -3.309877328771661e-19
-6.904415969644792e-03 -4.859826499956218e-06 -3.309408561712334e-19
-6.900042425611581e-03 -1.424846720293613e-06 -3.308006085259667e-19
-6.903923552963349e-03  3.460362692022117e-06 -3.309218984566326e-19
-6.903977270158127e-03 -5.210907645422266e-06 -3.308741106113009e-19
-6.899844302949952e-03  1.363713612296771e-07 -3.307442709643241e-19
-6.904049911329426e-03  5.482007382295020e-06 -3.308647018405687e-19
-6.904017538522622e-03 -3.292452577877095e-06 -3.307983440309038e-19
-6.900058670129837e-03  1.551029722858300e-06 -3.306600797911447e-19
-6.904442666244032e-03  5.176243837698629e-06 -3.307756828090801e-19
-6.904136811423062e-03 -4.902545414585962e-06 -3.307019488285043e-19
-6.898379249579843e-03 -1.438621697149223e-06 -3.305098624301229e-19
-6.903390474580181e-03  6.690883520477425e-06 -3.306593117646847e-19
-6.909185813069201e-03 -3.199811572242707e-06 -3.307782864655910e-19
-6.902355915016026e-03 -1.043754590081580e-05 -3.305426166588077e-19
-6.896074793850912e-03  8.025104604627560e-08 -3.303792040486681e-19
-6.902319827722130e-03  1.069410325125465e-05 -3.305595239442837e-19
-6.909245827392268e-03  3.522550552813565e-06 -3.306836514414475e-19
-6.903484723060232e-03 -6.526070209971989e-06 -3.304316885440231e-19
-6.898361155642818e-03  1.562682814675633e-06 -3.302786494388466e-19
-6.904120897923547e-03  5.242703121198173e-06 -3.304366602345629e-19
-6.904576399212854e-03 -4.839306400103631e-06 -3.303795981268301e-19
-6.900199606517239e-03 -1.420177669195215e-06 -3.302295303839624e-19
-6.904059241430403e-03  3.457174689096856e-06 -3.303405211606848e-19
-6.904099466560485e-03 -5.200563126058175e-06 -3.302820675706373e-19
-6.899965404656701e-03  1.462110656605328e-07 -3.301424779541200e-19
-6.904159851888446e-03  5.479606968880480e-06 -3.302527439852725e-19
-6.904112531205910e-03 -3.287897368928264e-06 -3.301754948967433e-19
-6.900151827638936e-03  1.563597900559421e-06 -3.300273166756878e-19
-6.904532438202987e-03  5.178852262398650e-06 -3.301327542130227e-19
-6.904214153127477e-03 -4.901807056206507e-06 -3.300479285346486e-19
-6.898448653362266e-03 -1.430627146739635e-06 -3.298455012858053e-19
-6.903458309036598e-03  6.701183078513954e-06 -3.299849660433293e-19
-6.909251769305094e-03 -3.193545593248708e-06 -3.300929637655794e-19
-6.902416073959117e-03 -1.043675831409503e-05 -3.298462996730611e-19
-6.896129218832506e-03  8.171605895756181e-08 -3.296727216257733e-19
-6.902368626870612e-03  1.069531771015077e-05 -3.298428978433641e-19
-6.909286697196615e-03  3.527969311080028e-06 -3.299558161737104e-19
-6.903525651319520e-03 -6.509064901783036e-06 -3.296926428737285e-19
-6.898408157042206e-03  1.574847810566125e-06 -3.295294082484270e-19
-6.904160106092805e-03  5.237714760502057e-06 -3.296765429717319e-19
-6.904596761079560e-03 -4.840942544352381e-06 -3.296074708976508e-19
-6.900223856647585e-03 -1.395481713840945e-06 -3.294468684367349e-19
-6.904112174659457e-03  3.474576973290004e-06 -3.295479485142588e-19
-6.904143168304893e-03 -5.238813539355493e-06 -3.294775916931300e-19
-6.899956525099442e-03  1.177553250733988e-07 -3.293257755731666e-19
-6.904148578476678e-03  5.534945276225465e-06 -3.294253396099912e-19
-6.904152228666726e-03 -3.226989167719547e-06 -3.293376519906635e-19
-6.900203128914229e-03  1.556964970699531e-06 -3.291783785453035e-19
-6.904550319667521e-03  5.142863828303364e-06 -3.292716068795006e-19
-6.904206061616555e-03 -4.918902608094212e-06 -3.291742054841763e-19
-6.898446100372458e-03 -1.412530316856445e-06 -3.289607908151426e-19
-6.903477462121580e-03  6.726392285336084e-06 -3.290897425455526e-19
-6.909272513211896e-03 -3.191497270813265e-06 -3.291853275733033e-19
-6.902421032365100e-03 -1.043543837592854e-05 -3.289259401038384e-19
-6.896132652641165e-03  9.745562776688631e-08 -3.287411662896039e-19
-6.902379537577947e-03  1.070441998493854e-05 -3.289002218688401e-19
-6.909292510611751e-03  3.525373023959024e-06 -3.290004474421546e-19
-6.903524360003648e-03 -6.504934049707660e-06 -3.287243615171309e-19
-6.898410181940174e-03  1.585279785154022e-06 -3.285495384332009e-19
-6.904164570494281e-03  5.242593894695296e-06 -3.286846356320906e-19
-6.904600372121310e-03 -4.835755381458441e-06 -3.286025478448933e-19
-6.900225269428854e-03 -1.392964699396321e-06 -3.284296116945614e-19
-6.904098072170807e-03  3.473309106252264e-06 -3.285179108511920e-19
-6.904123279677364e-03 -5.208774332018655e-06 -3.284341627580033e-19
-6.899972010990366e-03  1.609479411656307e-07 -3.282708585763567e-19
-6.904182747040063e-03  5.513349036393617e-06 -3.283582228395681e-19
-6.904139985949206e-03 -3.287318880776452e-06 -3.282556301136326e-19
-6.900154177225005e-03  1.560675966482397e-06 -3.280828159187950e-19
-6.904534995943893e-03  5.210327791712548e-06 -3.281641867888251e-19
-6.904233391435201e-03 -4.883200351271443e-06 -3.280537295087761e-19
-6.898455813317486e-03 -1.434180178866688e-06 -3.278262553204559e-19
-6.903455569401516e-03  6.717520208306579e-06 -3.279412809331920e-19
-6.909258576382949e-03 -3.175665934342545e-06 -3.280229107617936e-19
-6.902414434941155e-03 -1.043578931326469e-05 -3.277494054591817e-19
-6.896114996058413e-03  1.019345684134499e-07 -3.275509762122280e-19
-6.902369606408277e-03  1.073032626353861e-05 -3.276968748315529e-19
-6.909296622918783e-03  3.532738609186472e-06 -3.277827087270867e-19
-6.903514581671221e-03 -6.519003951859015e-06 -3.274910823401092e-19
-6.898384352488041e-03  1.590605299476366e-06 -3.273018794044195e-19
-6.904150765389391e-03  5.269539121749545e-06 -3.274229242505181e-19
-6.904604131924590e-03 -4.822660600057263e-06 -3.273257477527009e-19
-6.900218627237832e-03 -1.407217025015079e-06 -3.271376384068294e-19
-6.904068512054469e-03  3.471696891374522e-06 -3.272104696033092e-19
-6.904103956667581e-03 -5.175161511610809e-06 -3.271112169801805e-19
-6.899976042717858e-03  1.778420107222972e-07 -3.269333624102374e-19
-6.904173833685688e-03  5.496926177579278e-06 -3.270048956320672e-19
-6.904112074710663e-03 -3.283479774727454e-06 -3.268853967284379e-19
-6.900138648494382e-03  1.584666356173065e-06 -3.266973257294280e-19
-6.904528463869991e-03  5.215376466186783e-06 -3.267628716821247e-19
-6.904215853732698e-03 -4.882649126713575e-06 -3.266349695463839e-19
-6.898437006348390e-03 -1.419648979344277e-06 -3.263910864348240e-19
-6.903443213415804e-03  6.727461797138691e-06 -3.264900027782407e-19
-6.909242877410893e-03 -3.172496910084934e-06 -3.265538225509447e-19
-6.902396811455534e-03 -1.042593940981733e-05 -3.262625833179184e-19
-6.896100958048364e-03  1.103147386128340e-07 -3.260474583300538e-19
-6.902351808215989e-03  1.073284522332458e-05 -3.261762310974637e-19
-6.909273740148452e-03  3.543467001666051e-06 -3.262435414522153e-19
-6.903498010638319e-03 -6.500182535527662e-06 -3.259332693479474e-19
-6.898376424965148e-03  1.600231720998653e-06 -3.257264141826198e-19
-6.904136134462901e-03  5.262921063840761e-06 -3.258287879649456e-19
-6.904572997409313e-03 -4.822576795554840e-06 -3.257116456546236e-19
-6.900191449696618e-03 -1.379014060967038e-06 -3.255047528781469e-19
-6.904063437588157e-03  3.496390213228407e-06 -3.255590384920873e-19
-6.904097938403719e-03 -5.184337968402752e-06 -3.254393516871793e-19
-6.899947650641608e-03  1.676827386382121e-07 -3.252411978907338e-19
-6.904141244410817e-03  5.514325914317352e-06 -3.252927626506580e-19
-6.904095408376856e-03 -3.257463604444411e-06 -3.251525757184068e-19
-6.900130506717552e-03  1.595130836384947e-06 -3.249440172017049e-19
-6.904510035559302e-03  5.211068413626048e-06 -3.249881865580076e-19
-6.904186327313006e-03 -4.876498300349009e-06 -3.248378774589842e-19
-6.898415500548468e-03 -1.398327840160411e-06 -3.245725818807855e-19
-6.903430243731044e-03  6.736098430606629e-06 -3.246499056892225e-19
-6.909221620052969e-03 -3.172542519228436e-06 -3.246902915986633e-19
-6.902371471677204e-03 -1.041346424223601e-05 -3.243756218382624e-19
-6.896079709372956e-03  1.229381071276641e-07 -3.241378503531039e-19
-6.902330595412525e-03  1.074354322473512e-05 -3.242434489422937e-19
-6.909257166084326e-03  3.557966804470252e-06 -3.242863663314197e-19
-6.903480497665683e-03 -6.500612175833385e-06 -3.239510062986955e-19
-6.898343121617277e-03  1.600928775696377e-06 -3.237191227338238e-19
-6.904107362067096e-03  5.293636938070679e-06 -3.237965415069408e-19
-6.904566759650311e-03 -4.801470385114792e-06 -3.236536593786258e-19
-6.900177195636916e-03 -1.393046242233969e-06 -3.234202872192810e-19
-6.904026471184942e-03  3.495529624209112e-06 -3.234474652562771e-19
-6.904067229310020e-03 -5.156535159369288e-06 -3.233004574686366e-19
-6.899933118339322e-03  1.881713297270477e-07 -3.230752210875761e-19
-6.904124893257123e-03  5.518806588598132e-06 -3.230985724797091e-19
-6.904069694023037e-03 -3.253829999354463e-06 -3.229290388578770e-19
-6.900102672935960e-03  1.606238341795012e-06 -3.226913129227729e-19
-6.904487440136313e-03  5.226169836218559e-06 -3.227059010869754e-19
-6.904165726130628e-03 -4.867400722618553e-06 -3.225248211818700e-19
-6.898389706786768e-03 -1.390789480198535e-06 -3.222284456798728e-19
-6.903403966369798e-03  6.751906866163985e-06 -3.222743737827245e-19
-6.909199949505824e-03 -3.158061748452546e-06 -3.222822912373626e-19
-6.902348203198886e-03 -1.040542030928863e-05 -3.219344501575814e-19
-6.896055307937752e-03  1.349998749048681e-07 -3.216633597514201e-19
-6.902308485647634e-03  1.075302901285689e-05 -3.217349105824207e-19
-6.909228061464060e-03  3.562110474571948e-06 -3.217424846977740e-19
-6.903449258127215e-03 -6.479444479735583e-06 -3.213712162627706e-19
-6.898326984578249e-03  1.625482247191993e-06 -3.211034456312452e-19
-6.904090116863101e-03  5.290485823966344e-06 -3.211434687191007e-19
-6.904529789025174e-03 -4.800488010194412e-06 -3.209619356737260e-19
-6.900146372001457e-03 -1.362310385100441e-06 -3.206900191850004e-19
-6.904013623674572e-03  3.512615381326089e-06 -3.206779803444624e-19
-6.904042309270012e-03 -5.162655361826513e-06 -3.204898750454285e-19
-6.899895810137643e-03  2.040398526861127e-07 -3.202228412382423e-19
-6.904103484817856e-03  5.547349084122076e-06 -3.202042674878944e-19
-6.904053258959830e-03 -3.250665216412142e-06 -3.199913783118808e-19
-6.900067982478086e-03  1.607342489567858e-06 -3.197087450303289e-19
-6.904452108045240e-03  5.253725168431059e-06 -3.196779079512650e-19
-6.904147451090867e-03 -4.842248461336565e-06 -3.194509173265353e-19
-6.898371548318307e-03 -1.388041864499676e-06 -3.191068819600581e-19
-6.903374152923711e-03  6.754520197784799e-06 -3.191036349107688e-19
-6.909166670970833e-03 -3.145111878269560e-06 -3.190618491693794e-19
-6.902318206897887e-03 -1.038507649276341e-05 -3.186633114183111e-19
-6.896031748297892e-03  1.577271521267873e-07 -3.183396796327872e-19
-6.902286842432679e-03  1.076553051191311e-05 -3.183572082147672e-19
-6.909199847345077e-03  3.569911613053007e-06 -3.183099313131780e-19
-6.903418858283657e-03 -6.463649010680516e-06 -3.178828091323327e-19
-6.898299613265597e-03  1.641582193307786e-06 -3.175569628308949e-19
-6.904061803511103e-03  5.304863148655711e-06 -3.175374074548534e-19
-6.904502023854290e-03 -4.781581147079169e-06 -3.172956767120914e-19
-6.900120434502444e-03 -1.347043116084740e-06 -3.169610256296309e-19
-6.903984277834112e-03  3.524926945570404e-06 -3.168850262863051e-19
-6.904012917462169e-03 -5.143894067797487e-06 -3.166318646633946e-19
-6.899871449653583e-03  2.210940868734072e-07 -3.162977013128240e-19
-6.904076319882427e-03  5.556200986206175e-06 -3.162087887865325e-19
-6.904018444308063e-03 -3.236097986917821e-06 -3.159258477708428e-19
-6.900035995459104e-03  1.634465472850405e-06 -3.155699434557211e-19
-6.904431267929668e-03  5.278729855580940e-06 -3.154641031955161e-19
-6.904127149219596e-03 -4.834629308118732e-06 -3.151609247495237e-19
-6.898334583627500e-03 -1.386256976108108e-06 -3.147367893548774e-19
-6.903332147513258e-03  6.783235035256878e-06 -3.146505832986032e-19
-6.909147290755418e-03 -3.105299834437589e-06 -3.145276397383064e-19
-6.902303787517988e-03 -1.038160421678324e-05 -3.140465388967210e-19
-6.895991045603392e-03  1.558001547575239e-07 -3.136277606190695e-19
-6.902246000132194e-03  1.080281279810135e-05 -3.135535889040445e-19
-6.909182658549174e-03  3.601641089317187e-06 -3.134206676338783e-19
-6.903394869509220e-03 -6.461520567903652e-06 -3.128960471335455e-19
-6.898260082480548e-03  1.660034454427892e-06 -3.124589654784490e-19
-6.904032768470238e-03  5.338074565984214e-06 -3.123339972894494e-19
-6.904478349619177e-03 -4.765956979755231e-06 -3.119925173277103e-19
-6.900087061757831e-03 -1.331080766318039e-06 -3.115518226678951e-19
-6.903953992068247e-03  3.553899821589551e-06 -3.113465406870924e-19
-6.903988666635417e-03 -5.124553489286068e-06 -3.109923271339112e-19
-6.899838086705023e-03  2.346097263095208e-07 -3.106213621978622e-19
-6.904039762300905e-03  5.586546505111206e-06 -3.102814283357540e-19
-6.903994724561240e-03 -3.201598656051906e-06 -3.101549355116853e-19
-6.900014964356650e-03  1.649697856343891e-06 -3.096195621613140e-19
-6.904395042040751e-03  5.289714416794466e-06 -3.088470255173026e-19
-6.904087845884845e-03 -4.800136437944713e-06 -3.086027439127979e-19
-6.898313203381095e-03 -1.345418620504863e-06 -3.109422691588266e-19
-6.903311939839010e-03  6.797432071673789e-06 -3.125976652917267e-19
-6.909107686440087e-03 -3.090178750918098e-06 -3.035921669344556e-19
-6.902268635696740e-03 -1.033621017426713e-05 -3.018833796023513e-19
-6.895978251085770e-03  1.904926450675946e-07 -3.223146203308064e-19
-6.902225792729863e-03  1.081604684743266e-05 -1.647620842176487e-19
-6.909146694107632e-03  3.639188017745504e-06  1.801165279842715e-19
-6.903376700942724e-03 -6.406550704120334e-06  1.200765910333138e-19
-6.898248911639162e-03  1.702809084285389e-06  5.178883097393456e-19
-6.903982035085125e-03  5.387605068476842e-06 -8.841302754248753e-19
-6.904049616458050e-03 -4.812924419101527e-06 -2.543432120090814e-19
-6.898300610830969e-03 -1.342419863519523e-06 -3.411092961772088e-19
-6.903307839476623e-03  6.817817757242423e-06 -2.870205549884726e-19
-6.909106638542701e-03 -3.083156141388022e-06 -3.023015326773219e-19
-6.902256017129587e-03 -1.033889484602387e-05 -3.002583310884039e-19
-6.895950175357332e-03  2.122936141077915e-07 -2.975285075929284e-19
-6.902205174410588e-03  1.084732847448816e-05 -3.003924154063877e-19
-6.909133387014202e-03  3.647487065366374e-06 -3.003641479126609e-19
-6.903345655080989e-03 -6.403870849251741e-06 -2.988277512511375e-19
-6.898217159909768e-03  1.715963679147659e-06 -2.978520706286193e-19
-6.903988865832947e-03  5.387934829361141e-06 -2.974801407400001e-19
-6.904429904230698e-03 -4.714510246947707e-06 -2.968220082871892e-19
-6.900037626046294e-03 -1.273310657318497e-06 -2.959193703333284e-19
-6.903906016256172e-03  3.614857804150966e-06 -2.953428066020530e-19
-6.903942045287942e-03 -5.060413784556466e-06 -2.945636481972533e-19
-6.899797192041571e-03  3.001677085770714e-07 -2.936648503342323e-19
-6.903999970423216e-03  5.640855947246952e-06 -2.929508177676853e-19
-6.903944203795691e-03 -3.140304823104271e-06 -2.920332396490400e-19
-6.899975290340078e-03  1.739461946259167e-06 -2.910242104599478e-19
-6.904373499285989e-03  5.367272056886827e-06 -2.902360598404883e-19
-6.904054701829488e-03 -4.745461318673929e-06 -2.892516375322247e-19
-6.898260760669002e-03 -1.256515772486464e-06 -2.880929747354923e-19
-6.903239867131804e-03  6.910820213739005e-06 -2.872285587706421e-19
-6.908804033904853e-03 -3.021747488957513e-06 -2.863215649047874e-19
-6.901012314282458e-03 -1.035108839925251e-05 -2.849902051347309e-19
-6.896133524114952e-03  2.894041210296425e-06 -2.837167182572898e-19
-6.906091533747402e-03  1.093101283082593e-05 -2.827992475856622e-19
-6.909119115054671e-03 -4.379348510229555e-06 -2.817708241510224e-19
-6.897571420955352e-03 -6.377465619829799e-06 -2.800584714989442e-19
-6.898399251636090e-03  1.101000061625825e-05 -2.787391481093902e-19
-6.909722955209412e-03  5.609639448861130e-06 -2.777987431647398e-19
-6.904486985380133e-03 -1.106708250686336e-05 -2.761434040996985e-19
-6.894938210663390e-03 -1.228216585765151e-06 -2.743917231143134e-19
-6.902393593781858e-03  9.947860076951875e-06 -2.730853760716317e-19
-6.908458696183298e-03 -2.314063866728958e-06 -2.715066642191628e-19
-6.903638969097309e-03 -5.877440023868140e-06 -2.696333112139754e-19
-6.900493659847130e-03 -2.020596290545175e-06 -2.680462925304184e-19
-6.898425147255002e-03  7.248363121569219e-07 -2.661791036051785e-19
-6.900442368321913e-03  9.449781885024488e-06 -2.643230466005733e-19
-6.907249589746774e-03  6.777314626954187e-06 -2.625257789891199e-19
-6.907702588368530e-03 -4.479926193702145e-06 -2.604898675605191e-19
-6.900883912707130e-03 -8.751925439178152e-06 -2.581810489249264e-19
-6.897503063002772e-03 -9.671573192794907e-07 -2.558714485055301e-19
-6.902140472178877e-03  5.238716891043968e-06 -2.536737040344501e-19
-6.905106745515651e-03  9.177134116260826e-07 -2.513105514803362e-19
-6.903772043462777e-03  1.222775986668984e-07 -2.487066532958201e-19
-6.904930321842903e-03  1.075970978767216e-06 -2.460753769472542e-19
-6.903284534597653e-03 -4.167692424865846e-06 -2.432536518809486e-19
-6.898192014981093e-03 -1.934594461974651e-07 -2.401617069050389e-19
-6.902808852736422e-03  1.010897220709835e-05 -2.371868192032198e-19
-6.906914790307364e-03 -1.978863583676887e-07 -2.340966146829628e-19
-6.899132977024687e-03 -4.477902513417976e-06 -2.304760533887335e-19
-6.901311217733559e-03  8.694083358108937e-06 -2.269349055702733e-19
-6.909886351471858e-03 -1.157580960034873e-06 -2.235034243451952e-19
-6.901070140294173e-03 -1.367221684443322e-05 -2.193782531066296e-19
-6.893278529346019e-03  3.244699858284225e-06 -2.149465761652829e-19
-6.906076255330506e-03  1.484163780819811e-05 -2.108952675456631e-19
-6.910318038909854e-03 -5.616631186163681e-06 -2.065159347771931e-19
-6.896161973972538e-03 -7.541700420169368e-06 -2.012467726101629e-19
-6.899203526843681e-03  1.372980297165487e-05 -1.960788677191205e-19
-6.910919629056014e-03  1.568383776927902e-06 -1.910925105352756e-19
-6.903407548520716e-03 -1.153590078505760e-05 -1.852469720037938e-19
-6.896814530869013e-03  1.064823694027638e-06 -1.789284963763508e-19
-6.902335389177975e-03  5.871402981963943e-06 -1.726434621715793e-19
-6.904849255799720e-03  1.633196234974040e-06 -1.659450631508202e-19
-6.903709264920723e-03  8.638897458326515e-07 -1.586891335301491e-19
-6.903479524459318e-03  4.604711053841993e-07 -1.510331649368048e-19
-6.901590233179605e-03 -1.482518972550495e-06 -1.428657399275251e-19
-6.900920266918518e-03  2.903182867295233e-06 -1.341314443167882e-19
-6.907054827663122e-03  5.349971414387632e-06 -1.250658055394516e-19
-6.905582521608824e-03 -7.538704389015240e-06 -1.153914962380106e-19
-6.893055395586733e-03 -3.935186197588093e-06 -1.044859636132860e-19
-6.899986152035643e-03  1.989621930286762e-05 -9.308738935409480e-20
-6.916715796558657e-03  5.178455545122861e-06 -8.182749212478504e-20
-6.903960985120543e-03 -2.075142829343065e-05 -6.912293280122719e-20
-6.889302636837995e-03  1.410194834151308e-06 -5.457428986455160e-20
-6.903965495119842e-03  1.831815808848836e-05 -3.992333524699653e-20
-6.912884760245263e-03 -2.462446340295513e-06 -2.478515405388591e-20
-6.900247496251791e-03 -9.216303606166228e-06 -7.559969147205098e-21
-6.896801869769298e-03  7.356231481952834e-06  1.126047910405754e-20
-6.906073906312643e-03  8.397004483350373e-06  3.078751513580520e-20
-6.906268696036613e-03 -2.335029599591154e-06  5.182586281715100e-20
-6.900922966685459e-03 -1.158360562395951e-07  7.510361785669015e-20
-6.901951078665795e-03  4.496462177868691e-06  1.001812349759382e-19
-6.903608701341838e-03  2.289281167563154e-06  1.271336780293519e-19
-6.902333272036256e-03  2.426491378653670e-06  1.565776876454902e-19
-6.903908917649669e-03  4.869368066145161e-06  1.886133622698484e-19
-6.905172169734553e-03  1.116594388650143e-06  2.232446397158218e-19
-6.900955189343153e-03 -9.060363860763552e-07  2.612719091677527e-19
-6.900099510327736e-03  7.439940848062151e-06  3.032525621326937e-19
-6.906469130212240e-03  8.831305177579580e-06  3.486596500232388e-19
-6.906639679651243e-03 -9.800515027526281e-07  3.980223039240296e-19
-6.900441460175926e-03  1.478707547224245e-07  4.530951051140845e-19
-6.902072461401077e-03  8.899072403075779e-06  5.140012917163794e-19
-6.911829173111294e-03  8.834439110061352e-06  5.803529714199017e-19
-6.908782393230278e-03 -7.319611957915381e-06  6.528788107679250e-19
-6.878048987762832e-03 -8.301617022833855e-06  7.352963160730455e-19
-6.879867881314190e-03  5.386694026040589e-05  8.314503708037975e-19
-6.945967183158634e-03  5.691753801138175e-05  9.311528888500328e-19
-6.945999951553107e-03 -6.607407342194659e-05  1.031547637506391e-18
-6.863882739631623e-03 -6.286917752791263e-05  1.159245957019701e-18
-6.858753888611869e-03  5.469456115125191e-05  1.313644263238428e-18
-6.907575842083230e-03  5.927738041441061e-05  1.471961512221585e-18
-6.933199940443072e-03  4.290569458258193e-05  1.648419428987394e-18
-6.955862953619213e-03  2.287628383754632e-06  1.843885341352908e-18
-6.897563735054233e-03 -9.043458176191182e-05  2.058854205958869e-18
-6.812497699100531e-03  8.677007535765138e-06  2.336334367663579e-18
-6.881410201661557e-03  1.618580804251012e-04  2.656457422097525e-18
-6.990883306251952e-03  6.505225228269110e-05  2.973567016798742e-18
-6.939100871953523e-03 -8.425599318825997e-05  3.330306488454321e-18
-6.844267824779248e-03 -3.150038208992389e-05  3.784949792100216e-18
-6.860022644893536e-03  8.068726869371351e-05  4.316790156215078e-18
-6.916918650862310e-03  8.212968927531763e-05  4.899164781435996e-18
-6.915301286609484e-03  4.201058044722981e-05  5.562371976735582e-18
-6.878984627650012e-03  4.567525806844157e-05  6.340619586284957e-18
-6.860118649940647e-03  7.516842324184441e-05  7.244209565674926e-18
-6.871220374615018e-03  1.139652019272562e-04  8.284771635914881e-18
-6.878665810419934e-03  8.887471618477429e-05  9.466000319293333e-18
-6.875559079741253e-03  9.128254145230657e-05  1.083168451219354e-17
-7.038888744726634e-03  1.859031224451832e-04  1.239701934311166e-17
-6.944747316009105e-03 -2.494524017778979e-04  1.412023273869839e-17
-6.014869396781167e-03 -2.065223174023128e-04  1.622002435981077e-17
-4.787311835412001e-03  6.304345709103486e-04  1.841632527433005e-17
-4.739389092163378e-03  1.941013527351785e-03  1.834631679953912e-17
-7.100369754260159e-03  2.946377451842623e-03  1.821628592686315e-17
-9.361816366415495e-03 -2.251476312086398e-03  2.726573624473914e-17
-5.461689055724571e-03 -7.450319287387686e-03  6.570055985537711e-18
 1.154140109683607e-04 -3.410612253841902e-03 -5.590389493318321e-17
-5.417703974484096e-03  3.178915397985985e-03  4.075218923552546e-17
-5.635774241188397e-03  3.489478495430912e-03  6.127589112579590e-17
-5.019015813549029e-03  6.558886534651360e-03  1.351307513885515e-16
-8.328236794253405e-03  4.161245291666150e-03  1.326232844036571e-16
-4.055458047425459e-03  4.447386590669352e-04  3.583027265841136e-17
-4.739828671811830e-03  4.391882138372344e-03 -5.500025653499134e-17
-3.007070897767344e-03 -9.422444865038938e-03 -1.632890679472707e-15
-2.729451710992795e-03 -1.764822313294196e-03  7.198467227070216e-15
-2.365436284263289e-03  3.134492675372829e-03  1.904099753530487e-16
7.044223321674292e-04 4.554688565429746e-04 6.654431872737965e-15
-7.056807118901377e-03 -3.079572190849876e-03 -1.018281833094575e-15
-3.442735513325915e-03 -1.723758483180149e-03 -3.916999368345880e-17
-1.947680600660123e-03 -3.692867632945591e-04  1.257143259050944e-16
-4.097236478040447e-03  1.237564032549007e-03  1.312903836404345e-16
-5.805136931300019e-03 -5.235966689773891e-04  8.465896046449059e-17
-9.359854161264012e-03  9.162457900643256e-04  6.491296056099310e-17
 4.856380883762305e-04 -9.743540103242659e-03  3.930531033052514e-19
-3.261493232129405e-03 -2.969959489522685e-03  4.472568748646865e-17
-3.023851155169868e-03  4.225939561452245e-03  6.300205275359169e-18
-1.065151621632405e-02  1.340715210047185e-03  2.496005075487893e-17
-7.696212682130155e-03 -5.119353600754067e-04  2.250058599697371e-17
-6.506921013686208e-03 -2.307632042986978e-05  1.807223835808777e-17
-6.502524157781203e-03 -6.525882726484792e-04  1.536612085960798e-17
-6.240170190384723e-03 -8.531317894966549e-04  1.282769855908472e-17
-6.248664831905539e-03 -4.102413424535704e-04  1.032320426958237e-17
-6.599439696434410e-03 -1.113933019904805e-04  8.367562158259799e-18
-6.820228473211213e-03 -2.158593734984722e-04  7.039530068137295e-18
-6.833577985979425e-03 -1.963441381315551e-04  5.896381527517553e-18
-6.856048536563396e-03 -1.529032549787011e-04  4.952280006987194e-18
-6.871136253356470e-03 -1.342288427776268e-04  4.187590183188743e-18
-6.878860016459328e-03 -9.540491671970236e-05  3.551380189193863e-18
-6.899389306479098e-03 -5.857102113074726e-05  3.025418377837267e-18
-6.917900158894464e-03 -5.555961768511517e-05  2.595242375546190e-18
-6.914586719672603e-03 -6.136330583956063e-05  2.236016984783522e-18
-6.906197658074769e-03 -4.545604961568212e-05  1.929007116831053e-18
-6.910666522290500e-03 -2.832647336715808e-05  1.668396303678703e-18
-6.916391921355726e-03 -2.795717771039604e-05  1.448400150585956e-18
-6.913332895106586e-03 -2.892000954546606e-05  1.259979751214758e-18
-6.909861678916364e-03 -2.211758236968114e-05  1.096811093058220e-18
-6.912076137501289e-03 -1.650266727427899e-05  9.555318606976433e-19
-6.913137620943289e-03 -1.879055466900689e-05  8.332167512650428e-19
-6.908094574082671e-03 -1.897920963634467e-05  7.263067581692030e-19
-6.906597329482957e-03 -9.149065202908954e-06  6.318851967153578e-19
-6.912333670837820e-03 -6.610126596805494e-06  5.489113138257871e-19
-6.912030133915421e-03 -1.525548878470519e-05  4.760963177471925e-19
-6.905576756829513e-03 -1.336969850765309e-05  4.111700313796372e-19
-6.905340833437646e-03 -5.037835357302984e-06  3.529878509386092e-19
-6.908491326042089e-03 -4.997643760045769e-06  3.011628848991439e-19
-6.909597130295479e-03 -6.112378269897287e-06  2.547534125345045e-19
-6.909397594937638e-03 -8.494441844062870e-06  2.130297519456941e-19
-6.904034880498678e-03 -1.148261482689225e-05  1.755288978262085e-19
-6.900444730037441e-03 -1.243752034459262e-06  1.413619587735598e-19
-6.909622430284064e-03  6.277530460500777e-06  1.100952695797527e-19
-6.915277650341154e-03 -8.887192575406215e-06  8.201342025828056e-20
-6.902682803346036e-03 -1.883842881705640e-05  5.681124227597422e-20
-6.894355212828843e-03  3.628339959582378e-07  3.338310649029747e-20
-6.907987620504263e-03  1.353155726281546e-05  1.143618161907827e-20
-6.917361369485419e-03 -5.475005827248362e-06 -8.340565918847624e-21
-6.903387824529699e-03 -1.928734706314102e-05 -2.596503080828910e-20
-6.894045032873149e-03  1.922408110862422e-07 -4.254809325024891e-20
-6.907436334010237e-03  1.237274995452050e-05 -5.841424231940661e-20
-6.914036080607948e-03 -6.742353311424511e-06 -7.272608951347048e-20
-6.901830390264635e-03 -1.273910795121480e-05 -8.554489213581950e-20
-6.898730356781370e-03  3.429918658936432e-06 -9.780001009821497e-20
-6.907626536869151e-03  4.470414449315839e-06 -1.094451903649592e-19
-6.907870953745792e-03 -5.493490238089001e-06 -1.199933814788262e-19
-6.902221888526718e-03 -3.981567663020631e-06 -1.297110198616815e-19
-6.902565751072533e-03  1.424507483538643e-06 -1.389643936116478e-19
-6.906515031768730e-03  9.402601107114447e-07 -1.476940804516773e-19
-6.906589855619469e-03 -4.150713812390268e-06 -1.557486745213035e-19
-6.901731652309614e-03 -5.103862175544355e-06 -1.631673748650453e-19
-6.901191202173410e-03  3.047502930619625e-06 -1.702652155437737e-19
-6.907464667516523e-03  4.086521898426680e-06 -1.771059789390051e-19
-6.907448925653544e-03 -5.785203310165601e-06 -1.833390958579349e-19
-6.901167635817681e-03 -4.826011024457336e-06 -1.890614007816043e-19
-6.901751204586790e-03  3.223415435478156e-06 -1.946654079825180e-19
-6.905909110278824e-03  1.578219844603160e-06 -2.000197960580410e-19
-6.905078949167744e-03 -2.317849912350962e-06 -2.049254052576038e-19
-6.903520368250047e-03 -8.900954699616426e-07 -2.095627334998018e-19
-6.904678502765730e-03 -4.346796882342945e-07 -2.140331541773131e-19
-6.904584448292075e-03 -2.573254545655654e-06 -2.182246691995308e-19
-6.903286262752159e-03 -1.231064123235282e-06 -2.221695036300266e-19
-6.904133854166774e-03  1.189987443707307e-06 -2.259755992070118e-19
-6.902973709942434e-03 -1.102517883159040e-06 -2.295072574044305e-19
-6.900494791292020e-03  2.510032967477448e-06 -2.328197860266760e-19
-6.906374818442177e-03  7.666427975882624e-06 -2.362221025267799e-19
-6.911419762098003e-03 -4.695046064750824e-06 -2.394256949643673e-19
-6.902196978485995e-03 -1.425785206697401e-05 -2.420840170061918e-19
-6.894024461753949e-03 -2.542019249635915e-07 -2.447016746351466e-19
-6.903187994508401e-03  1.377766775046322e-05 -2.476696969394868e-19
-6.911207306948696e-03  1.404701525676892e-06 -2.503780788206949e-19
-6.902382289537160e-03 -8.342322301469704e-06 -2.524945206766837e-19
-6.900211951475382e-03  4.859137143511341e-06 -2.547930380988848e-19
-6.908050296078030e-03  5.703880218854474e-07 -2.572477142273625e-19
-6.904157408946099e-03 -9.810084337122177e-06 -2.592297792602158e-19
-6.899000629673645e-03  4.083137209750677e-08 -2.611567340913152e-19
-6.903589599038501e-03  4.859074028551310e-06 -2.632537251348220e-19
-6.906026595364057e-03  6.264882492458713e-07 -2.651664788345485e-19
-6.905096994887025e-03 -5.399740308024884e-07 -2.669079930423435e-19
-6.905736203164119e-03 -7.961922889512812e-07 -2.686541363033157e-19
-6.903965478070752e-03 -4.629449001082810e-06 -2.702502264780665e-19
-6.899041844821254e-03 -1.029863120100936e-06 -2.717058623324819e-19
-6.903034957145881e-03  9.459523421587972e-06 -2.733658265723361e-19
-6.909536767238300e-03  1.900382418589737e-06 -2.749856723225270e-19
-6.902116813720834e-03 -8.712817817690600e-06 -2.761303395477589e-19
-6.897865733501361e-03  4.278429399357779e-06 -2.773999151880871e-19
-6.908487731917391e-03  6.898434441388671e-06 -2.790361141324653e-19
-6.908159047108241e-03 -1.109918124964634e-05 -2.802365276739816e-19
-6.897558865677728e-03 -6.094505884910488e-06 -2.809432497507157e-19
-6.900293593406008e-03  7.913909138213858e-06 -2.824844341437329e-19
-6.906130509902152e-03  3.096864118791289e-06 -2.837495607428601e-19
-6.904806281733347e-03  5.323649519195506e-07 -2.847645841676238e-19
-6.904967038029698e-03  8.573060946044885e-07 -2.858217117498560e-19
-6.902834427155401e-03 -4.735721298509570e-06 -2.867640294411735e-19
-6.899146868804894e-03 -2.396610621469937e-07 -2.876512767468018e-19
-6.904829840182211e-03  6.444504702744417e-06 -2.887897499252818e-19
-6.910029178033667e-03 -3.520580546721543e-06 -2.898359780138537e-19
-6.903054376921675e-03 -1.049495371536567e-05 -2.905155511189016e-19
-6.896853496868644e-03 -1.103090008573460e-08 -2.912453168715045e-19
-6.903081378078263e-03  1.057348083383717e-05 -2.922893917206830e-19
-6.909970885350238e-03  3.429007368939320e-06 -2.932504994808221e-19
-6.904222357391748e-03 -6.582668270279030e-06 -2.938122078221673e-19
-6.899106238617551e-03  1.466263985859028e-06 -2.944505697037477e-19
-6.904821939737325e-03  5.127368278581374e-06 -2.953759362355194e-19
-6.905262076037409e-03 -4.895452109673574e-06 -2.960642635471770e-19
-6.900911431735567e-03 -1.473811614652882e-06 -2.966417976555959e-19
-6.904761707486271e-03  3.364956877650172e-06 -2.974598309833743e-19
-6.904778912905387e-03 -5.277213409275843e-06 -2.980872711472077e-19
-6.900642119066586e-03  7.820421033148585e-08 -2.986184491550423e-19
-6.904830985574359e-03  5.414063342682174e-06 -2.993821827814725e-19
-6.904790445724583e-03 -3.338169728270015e-06 -2.999393589994045e-19
-6.900829429931192e-03  1.485392676844551e-06 -3.004120766861732e-19
-6.905178311658071e-03  5.098830360988887e-06 -3.011221163627534e-19
-6.904860245345892e-03 -4.931906786678655e-06 -3.016250793416817e-19
-6.899124161990123e-03 -1.472329776497102e-06 -3.020000436749284e-19
-6.904117446651942e-03  6.615742715699101e-06 -3.027031929945055e-19
-6.909877623311617e-03 -3.256974395056574e-06 -3.033569545811128e-19
-6.903050808421132e-03 -1.046303811433633e-05 -3.036453410217752e-19
-6.896787491085423e-03  4.399233402803305e-08 -3.039996856203535e-19
-6.903016969997045e-03  1.063503572593214e-05 -3.046854655720319e-19
-6.909913496823049e-03  3.482922155265693e-06 -3.052977504798737e-19
-6.904169412231070e-03 -6.533340378726733e-06 -3.055234217771119e-19
-6.899057268842378e-03  1.529115329743113e-06 -3.058438305314225e-19
-6.904751322917023e-03  5.198547233750961e-06 -3.064622099418972e-19
-6.904815733399936e-03 -4.938268290430618e-06 -3.068398948564080e-19
-6.899108805297208e-03 -1.474584128175049e-06 -3.070847784166660e-19
-6.904102618523936e-03  6.626478721469470e-06 -3.076627080380254e-19
-6.909864077737268e-03 -3.248058373279039e-06 -3.081942535040620e-19
-6.903037177877837e-03 -1.046193079206043e-05 -3.083648978490677e-19
-6.896760822678825e-03  5.018989300320710e-08 -3.086069805961378e-19
-6.902984752485152e-03  1.064648036215604e-05 -3.091845071477445e-19
-6.909888532606968e-03  3.491051850532148e-06 -3.096909645978297e-19
-6.904139888429225e-03 -6.533475484894942e-06 -3.098138373004263e-19
-6.899024464704813e-03  1.521892392777098e-06 -3.100359218682779e-19
-6.904750917461891e-03  5.186722113080484e-06 -3.105593996758623e-19
-6.905193511783878e-03 -4.850806595877093e-06 -3.108561754232555e-19
-6.900836753170882e-03 -1.427791651210570e-06 -3.110601733558821e-19
-6.904695747191746e-03  3.423157915803598e-06 -3.115190259333671e-19
-6.904720991031455e-03 -5.237556112831053e-06 -3.117964925522091e-19
-6.900571105969872e-03  1.086016953745291e-07 -3.119931461534664e-19
-6.904760187368913e-03  5.468162341531017e-06 -3.124345586249813e-19
-6.904736533152239e-03 -3.290042609814167e-06 -3.126778187757488e-19
-6.900771526951113e-03  1.509966593411931e-06 -3.128498500425486e-19
-6.905110852045897e-03  5.133256357968295e-06 -3.132691844145119e-19
-6.904800736370189e-03 -4.889954851840367e-06 -3.134891913271733e-19
-6.899067455562831e-03 -1.443871666909405e-06 -3.135930921388005e-19
-6.904055590107623e-03  6.645847110897259e-06 -3.140348037006824e-19
-6.909821510321041e-03 -3.219479135518696e-06 -3.144331150719864e-19
-6.903000661529725e-03 -1.043833656779740e-05 -3.144749276786072e-19
-6.896725484790649e-03  5.942162041955999e-08 -3.145929842482842e-19
-6.902947674165054e-03  1.066036968167560e-05 -3.150501044222552e-19
-6.909856613025719e-03  3.511178706275244e-06 -3.154390549057398e-19
-6.904112136507904e-03 -6.521593090673193e-06 -3.154477602496609e-19
-6.898991947460358e-03  1.529796028512702e-06 -3.155597121073638e-19
-6.904716723543761e-03  5.200249674023950e-06 -3.159761666208524e-19
-6.905164356836615e-03 -4.834968927206285e-06 -3.161687368794237e-19
-6.900810894644263e-03 -1.418414988892930e-06 -3.162719623198676e-19
-6.904665603078278e-03  3.426876660064302e-06 -3.166327506654750e-19
-6.904688378887134e-03 -5.226707813076423e-06 -3.168146973132279e-19
-6.900543404003714e-03  1.222185386197728e-07 -3.169190819899352e-19
-6.904732445675685e-03  5.474308003574801e-06 -3.172705729343491e-19
-6.904707870892985e-03 -3.279090854845451e-06 -3.174262276059702e-19
-6.900748624076053e-03  1.519313955806675e-06 -3.175134652316816e-19
-6.905082475504914e-03  5.129254780619534e-06 -3.178499119056410e-19
-6.904764714747931e-03 -4.880057372784639e-06 -3.179892365204745e-19
-6.899044263490881e-03 -1.421996931532005e-06 -3.180153065776737e-19
-6.904038116052235e-03  6.644835165922585e-06 -3.183808718952932e-19
-6.909789170201713e-03 -3.225233508475229e-06 -3.187046079040767e-19
-6.902968314094599e-03 -1.042226495151197e-05 -3.186743848496027e-19
-6.896706365432904e-03  7.068712358716976e-08 -3.187223984845708e-19
-6.902923678419852e-03  1.065477633599722e-05 -3.191106356050784e-19
-6.909823004557156e-03  3.516280331328068e-06 -3.194326661174712e-19
-6.904088143547630e-03 -6.504587680813259e-06 -3.193768490610431e-19
-6.898976405959831e-03  1.530585028252405e-06 -3.194254148489737e-19
-6.904689934026266e-03  5.189827465849281e-06 -3.197795952611698e-19
-6.905130133660646e-03 -4.828114946699505e-06 -3.199119911281387e-19
-6.900786949284129e-03 -1.401763647812926e-06 -3.199566679368291e-19
-6.904647351701692e-03  3.430733453818883e-06 -3.202600179603434e-19
-6.904663894389327e-03 -5.228298824650481e-06 -3.203860487725173e-19
-6.900518202994094e-03  1.268150808890751e-07 -3.204356350613353e-19
-6.904709930742351e-03  5.474664869095406e-06 -3.207336735542813e-19
-6.904679337605801e-03 -3.281659415221749e-06 -3.208373849885759e-19
-6.900720635971021e-03  1.531186180000490e-06 -3.208736195305301e-19
-6.905068456942593e-03  5.140283763209145e-06 -3.211606188069856e-19
-6.904748019003270e-03 -4.893815142690048e-06 -3.212516863505993e-19
-6.899007917680456e-03 -1.430794103384132e-06 -3.212296201139244e-19
-6.904007002769312e-03  6.667634199095514e-06 -3.215487010587511e-19
-6.909779433643952e-03 -3.211688102170916e-06 -3.218281413148547e-19
-6.902951210528272e-03 -1.043867661642425e-05 -3.217536057440274e-19
-6.896672422414278e-03  6.667316182424938e-08 -3.217573223454714e-19
-6.902899005963939e-03  1.066922433075215e-05 -3.221029301162677e-19
-6.909807722744821e-03  3.515383247641677e-06 -3.223840652411571e-19
-6.904063067703494e-03 -6.512021724490686e-06 -3.222878721509487e-19
-6.898948448359969e-03  1.537950863659457e-06 -3.222962101192694e-19
-6.904670072650001e-03  5.197039293442939e-06 -3.226114832666867e-19
-6.905111163663309e-03 -4.830052774293998e-06 -3.227063439737955e-19
-6.900765063348263e-03 -1.403767376513295e-06 -3.227134268779418e-19
-6.904623110521379e-03  3.427658424576216e-06 -3.229798681210789e-19
-6.904635922911018e-03 -5.227318516004636e-06 -3.230705222665070e-19
-6.900496294302201e-03  1.387503711656713e-07 -3.230848671301758e-19
-6.904697897500032e-03  5.476195634247988e-06 -3.233483913793843e-19
-6.904657925154678e-03 -3.297938800826619e-06 -3.234186250066149e-19
-6.900686303056117e-03  1.530065377790413e-06 -3.234211648659335e-19
-6.905043705835965e-03  5.157752193349826e-06 -3.236758140992954e-19
-6.904735063324670e-03 -4.889428961571831e-06 -3.237360100611025e-19
-6.898990235120109e-03 -1.439721044508568e-06 -3.236822865111844e-19
-6.903982275488804e-03  6.660879641733493e-06 -3.239699999043992e-19
-6.909752765309699e-03 -3.213537739325139e-06 -3.242200624989892e-19
-6.902927408538628e-03 -1.043272405876182e-05 -3.241166542006046e-19
-6.896652783439207e-03  7.092852286705731e-08 -3.240907318047658e-19
-6.902876884643003e-03  1.066776827146570e-05 -3.244069744779867e-19
-6.909785991107957e-03  3.519376920499983e-06 -3.246606896871146e-19
-6.904046280743713e-03 -6.513993084188642e-06 -3.245379157045003e-19
-6.898925033455606e-03  1.525915919979388e-06 -3.245184824784490e-19
-6.904640462158736e-03  5.197976047745839e-06 -3.248068277621432e-19
-6.905088616969865e-03 -4.820090292594574e-06 -3.248766094046300e-19
-6.900747411657919e-03 -1.402487690210386e-06 -3.248578868069123e-19
-6.904603885708654e-03  3.425432091210554e-06 -3.250986910047115e-19
-6.904614438174138e-03 -5.233093835644469e-06 -3.251651703123700e-19
-6.900468046415724e-03  1.322826406054491e-07 -3.251545451695566e-19
-6.904671349669394e-03  5.485280497659677e-06 -3.253937630941641e-19
-6.904643874236904e-03 -3.290956075088492e-06 -3.254414275424836e-19
-6.900667232326105e-03  1.515564693778746e-06 -3.254201217681041e-19
-6.905011464695175e-03  5.154536251404065e-06 -3.256513041193299e-19
-6.904712524915960e-03 -4.876179232003636e-06 -3.256901098658133e-19
-6.898974979758385e-03 -1.444500766915835e-06 -3.256140944581612e-19
-6.903956058972509e-03  6.651674186851299e-06 -3.258789722890284e-19
-6.909724008055900e-03 -3.208066289103158e-06 -3.261083023384905e-19
-6.902905516102428e-03 -1.042828974258985e-05 -3.259844662982080e-19
-6.896634830648653e-03  7.080831744908782e-08 -3.259369220201876e-19
-6.902858019167692e-03  1.065885816972644e-05 -3.262317064927203e-19
-6.909754198908266e-03  3.505543401683112e-06 -3.264653258417736e-19
-6.904010192377212e-03 -6.502139472727174e-06 -3.263233068247117e-19
-6.898909588240461e-03  1.546242625989534e-06 -3.262840976645443e-19
-6.904630379411843e-03  5.185182451214634e-06 -3.265527111298249e-19
-6.905058214403559e-03 -4.840398974358631e-06 -3.266035173371632e-19
-6.900711166423498e-03 -1.398660532879291e-06 -3.265655524980195e-19
-6.904579500537086e-03  3.435422852026424e-06 -3.267876475980475e-19
-6.904595378001904e-03 -5.232010517774214e-06 -3.268364709049154e-19
-6.900445516314458e-03  1.275218946755339e-07 -3.268070860212066e-19
-6.904642103654836e-03  5.478555896741087e-06 -3.270277143992525e-19
-6.904611895433079e-03 -3.288747436216575e-06 -3.270582924033402e-19
-6.900644780436743e-03  1.524380407047527e-06 -3.270193968396454e-19
-6.904992049430882e-03  5.145363075899983e-06 -3.272329857849979e-19
-6.904677872726730e-03 -4.888884665367662e-06 -3.272550503541988e-19
-6.898939876178970e-03 -1.432618015880396e-06 -3.271619526547959e-19
-6.903936217765341e-03  6.659861801199678e-06 -3.274099252447513e-19
-6.909701927494664e-03 -3.220496322910871e-06 -3.276233835975157e-19
-6.902870904244838e-03 -1.043663775479685e-05 -3.274834702361931e-19
-6.896598518428148e-03  7.408844654756662e-08 -3.274189939194245e-19
-6.902828650381439e-03  1.066729252048059e-05 -3.276971876793415e-19
-6.909732309665206e-03  3.507647410282234e-06 -3.279157968896927e-19
-6.903983006896467e-03 -6.516433253209870e-06 -3.277587667080013e-19
-6.898868373527713e-03  1.537314378515343e-06 -3.277031425839459e-19
-6.904590668981232e-03  5.196746505799518e-06 -3.279563272227914e-19
-6.905030266745072e-03 -4.830825550520756e-06 -3.279931108796927e-19
-6.900685611216683e-03 -1.402360907224331e-06 -3.279399245420415e-19
-6.904546665294605e-03  3.422763981405981e-06 -3.281466419123593e-19
-6.904551881411724e-03 -5.241478073839594e-06 -3.281812194757189e-19
-6.900403961883289e-03  1.364043023504854e-07 -3.281370628093339e-19
-6.904611718751189e-03  5.485422899073318e-06 -3.283432405910213e-19
-6.904577555343832e-03 -3.298005987331236e-06 -3.283600745358392e-19
-6.900599668967027e-03  1.521034352262090e-06 -3.283064281133219e-19
-6.904948969225394e-03  5.152364084075869e-06 -3.285058968931270e-19
-6.904637824097400e-03 -4.888376960773687e-06 -3.285149378700110e-19
-6.898897422232900e-03 -1.434562613373967e-06 -3.284077847489537e-19
-6.903901156152482e-03  6.661201675246738e-06 -3.286418512333758e-19
-6.909663634099795e-03 -3.243364235373630e-06 -3.288424755499920e-19
-6.902806012265830e-03 -1.045389293647373e-05 -3.286890678123985e-19
-6.896539488184660e-03  1.069844753054360e-07 -3.286109266871321e-19
-6.902790268122900e-03  1.068129683140310e-05 -3.288757113491943e-19
-6.909678168209597e-03  3.497997316472411e-06 -3.290811756230813e-19
-6.903931350614386e-03 -6.500080518953138e-06 -3.289121561201759e-19
-6.898828562888751e-03  1.515720085875335e-06 -3.288434828001918e-19
-6.904520438048684e-03  5.156836162943590e-06 -3.290828623836027e-19
-6.904950836320377e-03 -4.816397218220516e-06 -3.291077689608815e-19
-6.900627016919454e-03 -1.385403202575293e-06 -3.290424738279380e-19
-6.904488220696864e-03  3.425362881401183e-06 -3.292363587780193e-19
-6.904491634969835e-03 -5.237666080774247e-06 -3.292591835172197e-19
-6.900335339234701e-03  1.193650555400966e-07 -3.292021851887894e-19
-6.904523710796410e-03  5.477861814586586e-06 -3.293954201361859e-19
-6.904495597080954e-03 -3.282236610609884e-06 -3.294011163789806e-19
-6.900528567917514e-03  1.523049888923326e-06 -3.293355230310200e-19
-6.904868934836250e-03  5.138501410887568e-06 -3.295226462712280e-19
-6.904532047575285e-03 -4.901240783889999e-06 -3.295199442078152e-19
-6.898707544681222e-03 -1.459970856804390e-06 -3.293979288660125e-19
-6.903772319449364e-03  6.834863290374029e-06 -3.296215496231746e-19
-6.910126483184905e-03 -2.982289309655576e-06 -3.298305500955047e-19
-6.903161999289376e-03 -1.148191397445320e-05 -3.296624785605150e-19
-6.895002508270038e-03 -1.057354996080253e-06 -3.295161336722229e-19
-6.901331221837964e-03  1.328989902867518e-05 -3.297785511034034e-19
-6.911734915210453e-03  6.183708677472420e-06 -3.300724240006296e-19
-6.905802064395484e-03 -1.006671039650041e-05 -3.298679018854173e-19
-6.896508220455446e-03 -1.626748543932980e-06 -3.296732450046068e-19
-6.902443698493303e-03  7.869593921692543e-06 -3.299348119238328e-19
-6.906144091878555e-03 -2.599752810201801e-06 -3.300398997251424e-19
-6.901591032800833e-03 -2.555538431872349e-06 -3.299377423079712e-19
-6.903676133868685e-03  2.741047511621961e-06 -3.300697642603917e-19
-6.903948259057159e-03 -4.665173983391173e-06 -3.300968834422506e-19
-6.900686698505372e-03  2.933643560893013e-07 -3.300554005991201e-19
-6.904187772000212e-03  4.725799123412816e-06 -3.302217051109457e-19
-6.902518446549486e-03 -4.046610327233980e-06 -3.301726638381216e-19
-6.900374683912963e-03  4.379539468477885e-06 -3.301531976977627e-19
-6.910433817466892e-03  4.992414359769364e-06 -3.304832074832910e-19
-6.906583396646839e-03 -1.340794825461610e-05 -3.303523886676455e-19
-6.894445583234117e-03 -1.359568477898484e-06 -3.300837768070620e-19
-6.907955112682392e-03  1.556877750706238e-05 -3.305626691556472e-19
-6.939001124062323e-03 -2.383239794863366e-07 -3.315360159166824e-19
-7.037965772726594e-03  2.259072156610968e-05 -3.354264767562013e-19
-6.793776751486758e-03 -3.165946086013296e-04 -3.274007430975078e-19
-5.986140528400886e-03 -8.265403962019123e-05 -3.015072013360163e-19
-6.685079281036849e-03  1.849628080638876e-03 -3.184429705942013e-19
-8.941383259929551e-03  9.547054737088909e-05 -3.887045510272328e-19
-5.890183739820612e-03 -3.558411473877332e-03 -2.688027852232229e-19
-3.837533219605917e-03 -7.271375132800372e-05 -2.435561833599550e-19
-5.610003407495539e-03  4.062544172292990e-03 -2.860885827247269e-19
-9.803146422993757e-03 -2.156380287316037e-04 -4.141601761201279e-19
-5.543607068634073e-03 -2.972614047267617e-03 -2.535341417942365e-19
-5.618751441828638e-03  1.719327740894518e-03 -3.006920258248347e-19
-8.742406802785463e-03 -1.920520077643830e-04 -3.942654604742533e-19
-4.044821873399436e-03 -2.666985595643539e-03 -1.751811783471858e-19
-3.491802370246090e-03  2.792656568822240e-03 -2.605229065920199e-19
-9.793169257207123e-03  4.466317218962335e-03 -3.586184372592305e-19
-6.823615231646662e-03 -6.025087572714176e-03 -3.249112580980782e-19
-2.254151151241419e-03 -1.436803357315738e-03 -8.859376992821877e-20
-3.234484973731976e-03  3.756499270907985e-03 -2.560269794284622e-19
-1.047090560537239e-02  1.398679201272643e-03 -4.199783127930678e-19
-7.163781880798776e-03 -3.198482796818601e-03 -3.268101811511458e-19
-6.474433686867525e-03 -4.233474344536598e-04 -3.147835889925574e-19
-5.708165868790165e-03 -1.574031911017970e-03 -2.804060906638570e-19
-5.274469912713789e-03  1.401325005836514e-03 -3.033733422927940e-19
-8.061162946943843e-03  3.575125716127974e-03 -3.425162808036014e-19
-7.131953414861372e-03 -3.505373258778333e-03 -3.279850103633935e-19
-4.193658180721621e-03 -2.628397112523620e-04 -2.398954007452405e-19
-5.934581143694924e-03  3.719614335167721e-03 -2.843229627668121e-19
-9.481433777852931e-03 -1.750851354059890e-03 -4.134344566008262e-19
-5.890565267254053e-03 -3.524910025203604e-03 -2.696004606691103e-19
-5.025291489781391e-03 -2.002223701275469e-04 -2.825332157307565e-19
-5.422797949928616e-03  1.250838958858503e-03 -3.126903356322968e-19
-6.974366325907506e-03  3.472593070337273e-03 -3.138294640190752e-19
-9.381645384472935e-03 -1.295102942427166e-04 -3.977643407720056e-19
-6.079898204104458e-03 -3.146894556173363e-03 -2.796366583717822e-19
-5.054859849258637e-03  4.806563980579975e-06 -2.784493063750667e-19
-6.617936211120522e-03  1.711061927869332e-03 -3.320304708950955e-19
-7.740987578734897e-03 -9.816325895909378e-05 -3.570068407997103e-19
-6.965378585694673e-03 -3.349574132977210e-04 -3.303301845949980e-19
-6.754223179070765e-03  3.774325174002114e-05 -3.262566783895083e-19
-6.873917934996030e-03 -2.585000339930663e-06 -3.304697830926380e-19
-6.887798674528396e-03 -4.086097007051962e-06 -3.310129946623075e-19
-6.888173412889492e-03  5.336573082732475e-06 -3.310715971690095e-19
-6.901906165850716e-03  1.377620630860424e-05 -3.315073572768918e-19
-6.908947049513861e-03 -1.003238654845533e-05 -3.316443360115156e-19
-6.866704771464711e-03 -2.583381718313394e-05 -3.303945690043596e-19
-6.711933960739202e-03 -3.579063632515802e-05 -3.249948387254624e-19
-6.792887633653032e-03  3.051656674795719e-04 -3.268480661054554e-19
-7.734490231475886e-03  5.215293645012821e-04 -3.552813868458224e-19
-7.383308995095304e-03 -1.785296318208196e-03 -3.447217261325571e-19
-4.467363419075113e-03 -1.255057037512794e-03 -2.316383303715377e-19
-4.466005530038934e-03  2.797989952731891e-03 -2.768503436166620e-19
-9.079992131653648e-03  3.299336865586650e-03 -3.539808619473281e-19
-8.331462873003802e-03 -4.266081324719919e-03 -3.826563889740995e-19
-3.515232496419258e-03 -2.896942224196097e-03 -1.382578187751459e-19
-3.258371773375627e-03  2.027309996035536e-03 -2.864003142832982e-19
-7.844538889553158e-03  3.905711647089499e-03 -3.369713702673608e-19
-8.679794118287659e-03 -1.505116018050365e-03 -3.831587249858383e-19
-5.856102860681799e-03 -1.365196622801904e-03 -2.792893048980579e-19
-6.321922959931968e-03  1.125288605866328e-03 -3.126923104899295e-19
-8.546955333639215e-03 -4.247370845548597e-04 -3.848605543462371e-19
-6.175606747119891e-03 -3.209004563495764e-03 -2.861836036620931e-19
-3.356629291164059e-03 -3.046753529487248e-04 -2.229375767757638e-19
-4.131629990954407e-03  3.710615374705569e-03 -2.576428533240249e-19
-9.617829398441176e-03  3.683095539262636e-03 -3.511582641775607e-19
-8.716165023272458e-03 -4.699095614983966e-03 -4.009220921022947e-19
-4.057156914366232e-03 -4.647422838991832e-03 -1.609439880278750e-19
-6.350359726784998e-03 -6.055824838043836e-03 -2.027278985296035e-19
-1.114856306127018e-02  1.644283421239026e-04 -3.625543464061008e-19
-1.137801324668441e-03 -1.144152059338505e-03 -2.198628421780628e-19
-2.285472516025582e-03  3.138695821933686e-03 -1.508605612535663e-19
-9.844789599380685e-03  5.964617701593728e-03 -3.739279125388257e-19
-7.167403354120928e-03 -6.606358935658688e-03 -2.096924295596018e-19
-2.047777902052948e-03 -1.180393766845427e-03 -2.399171907208235e-19
-3.539272799270846e-03  3.977749829647037e-03 -2.009078127317858e-19
-1.123376678800918e-02  9.716452372125603e-04 -3.823141966492250e-19
-6.062861622357586e-03 -5.050870120944883e-03 -2.264290418565607e-19
-2.859472403021296e-03 -6.892913451690547e-04 -2.688680910860030e-19
-4.192866290363181e-03  3.604309896256539e-03 -2.321802750424970e-19
-9.589641271064878e-03  3.392250028516103e-03 -3.622944150023731e-19
-8.575534851134024e-03 -4.728304262093155e-03 -2.705478483071367e-19
-3.125223625872670e-03 -2.562472510531859e-03 -2.299516100777430e-19
-3.291605657774895e-03  2.119014978175221e-03 -2.265983954698737e-19
-7.686422125592146e-03  3.724544036975936e-03 -3.285760897716659e-19
-8.614502503011575e-03 -1.573989986587620e-03 -3.209021532097680e-19
-6.083090241430677e-03 -1.583541080771362e-03 -2.878205238984758e-19
-5.942541934967766e-03  3.552969219921648e-04 -3.035369093516225e-19
-6.918789527986424e-03  2.429995974665560e-04 -3.186022040886922e-19
-7.049275706686168e-03 -1.888023423672565e-05 -3.187465564399362e-19
-6.949365309283691e-03 -3.118266477403509e-05 -3.169284048071727e-19
-6.872071856808489e-03 -5.871260412126749e-05 -3.157819156751941e-19
-6.854440563107466e-03  6.039696118051198e-05 -3.159650833746316e-19
-6.938016513725890e-03  7.974195092979921e-05 -3.170412278378849e-19
-6.945228168147753e-03 -4.454614986976063e-05 -3.165593643689401e-19
-6.875949300486821e-03 -4.967347642527579e-05 -3.156696871321737e-19
-6.872699447679246e-03  1.924890015539311e-05 -3.160185194842787e-19
-6.907622542530556e-03  1.510348255563710e-05 -3.165048699567625e-19
-6.909451374318672e-03 -7.844848879620689e-06 -3.164156231640028e-19
-6.896685338800228e-03 -5.518598980946744e-06 -3.162540729936091e-19
-6.895439560148158e-03  4.725344624389581e-06 -3.162926462142234e-19
-6.903411750565374e-03  7.110465942902557e-06 -3.164158447771012e-19
-6.907276194060382e-03 -3.403927186426506e-06 -3.164416838921669e-19
-6.899472282450718e-03 -1.091258077543975e-05 -3.163416031951396e-19
-6.893137708753749e-03 -1.190687894447004e-07 -3.163271080843195e-19
-6.899546329318718e-03  1.033262204119945e-05 -3.164650774654267e-19
-6.907160092321727e-03  3.427680070242770e-06 -3.165409923283077e-19
-6.903902271395730e-03 -6.647021411172065e-06 -3.164726905712919e-19
-6.896147040229192e-03 -5.023146254128717e-06 -3.164052277096497e-19
-6.895850619382750e-03  4.729648673160279e-06 -3.164622153625094e-19
-6.902621938052076e-03  6.541966561279130e-06 -3.165685313022669e-19
-6.906014488893659e-03 -1.648280621786917e-06 -3.165946103089134e-19
-6.902832883802654e-03 -7.456715887224683e-06 -3.165644107704147e-19
-6.898964553445002e-03 -5.376379254829410e-06 -3.165706422417175e-19
-6.897845509702953e-03 -4.714323265095068e-08 -3.166144298084311e-19
-6.899099223022370e-03  5.120676437403515e-06 -3.166634310208220e-19
-6.902853358556536e-03  7.093056863568272e-06 -3.167197815630718e-19
-6.906032615518349e-03  1.571250846543988e-06 -3.167495330775319e-19
-6.902937100365814e-03 -6.549970166593011e-06 -3.167062086835199e-19
-6.896232320147236e-03 -5.142689298326191e-06 -3.166614192482260e-19
-6.896296895315356e-03  4.617235904953781e-06 -3.167296476000780e-19
-6.904103513208388e-03  6.631880170054339e-06 -3.168601047881527e-19
-6.907659759590748e-03 -3.486480518006068e-06 -3.168945303422332e-19
-6.900164444907921e-03 -1.059971533147862e-05 -3.168083067566456e-19
-6.893845871541113e-03 -1.650621161924278e-07 -3.168057354945829e-19
-6.900074049782176e-03  1.030628789247983e-05 -3.169520660002299e-19
-6.907613065908379e-03  3.409615234769229e-06 -3.170375716647089e-19
-6.904302212793082e-03 -6.674224823691816e-06 -3.169788995510250e-19
-6.896516499376229e-03 -5.035999106546550e-06 -3.169216211253195e-19
-6.896201416803634e-03  4.731848093511044e-06 -3.169891909081315e-19
-6.902953654038248e-03  6.530772144765394e-06 -3.171056058876709e-19
-6.906313884764744e-03 -1.665066140826361e-06 -3.171412510960187e-19
-6.903107297496604e-03 -7.462130084230500e-06 -3.171207980193070e-19
-6.899224206841269e-03 -5.379655926856897e-06 -3.171371052521813e-19
-6.898087863075599e-03 -5.346267306169358e-08 -3.171910327614851e-19
-6.899325573295283e-03  5.116246448018081e-06 -3.172501356443184e-19
-6.903063554983681e-03  7.084130037027168e-06 -3.173164813548123e-19
-6.906222264481303e-03  1.562203929479502e-06 -3.173558749132998e-19
-6.903117221671070e-03 -6.544613589618512e-06 -3.173222920183195e-19
-6.896411041108174e-03 -5.143633987593000e-06 -3.172876329479965e-19
-6.896457427163769e-03  4.599270242766112e-06 -3.173660482593171e-19
-6.904244597749509e-03  6.628976707392722e-06 -3.175065355842719e-19
-6.907803030094000e-03 -3.478669499240404e-06 -3.175507527001392e-19
-6.900304496899044e-03 -1.061000727053489e-05 -3.174742249943829e-19
-6.893967049347713e-03 -1.780391907107398e-07 -3.174820245478814e-19
-6.900185670395270e-03  1.030796668830922e-05 -3.176390167942914e-19
-6.907726340967673e-03  3.412966807676928e-06 -3.177344411287107e-19
-6.904412693943539e-03 -6.679321021534273e-06 -3.176854489378659e-19
-6.896617449080475e-03 -5.046854088366805e-06 -3.176383763179088e-19
-6.896290972635756e-03  4.723186039235106e-06 -3.177165815500932e-19
-6.903038417891316e-03  6.532377937237956e-06 -3.178433444173909e-19
-6.906401970526749e-03 -1.660844294289646e-06 -3.178889619453218e-19
-6.903193936397108e-03 -7.469561146109032e-06 -3.178785518390824e-19
-6.899300994459161e-03 -5.390964815393475e-06 -3.179051920353857e-19
-6.898159551492054e-03 -5.814928991653034e-08 -3.179698382487292e-19
-6.899395612233231e-03  5.111094948148070e-06 -3.180396957517979e-19
-6.903129043402273e-03  7.081318047299672e-06 -3.181166420471823e-19
-6.906286221576363e-03  1.563451770548579e-06 -3.181662625641668e-19
-6.903179495861757e-03 -6.546829420608561e-06 -3.181427927081682e-19
-6.896470992737960e-03 -5.145919284913201e-06 -3.181187961071392e-19
-6.896514891163282e-03  4.592016915982769e-06 -3.182083593226094e-19
-6.904295371662292e-03  6.619584313811119e-06 -3.183596129942912e-19
-6.907858759818243e-03 -3.476283135816396e-06 -3.184142014529664e-19
-6.900370298851049e-03 -1.062163318972724e-05 -3.183482332263504e-19
-6.894011092300393e-03 -2.114409273575534e-07 -3.183671668419142e-19
-6.900201178583668e-03  1.031132234374157e-05 -3.185353850750344e-19
-6.907764214384570e-03  3.465368146080689e-06 -3.186417699962251e-19
-6.904493573637429e-03 -6.660119390990226e-06 -3.186035972543683e-19
-6.896682621167574e-03 -5.103271961556581e-06 -3.185672057969815e-19
-6.896305874003472e-03  4.673370573517825e-06 -3.186566207141286e-19
-6.903052991121763e-03  6.548186915342812e-06 -3.187950655042132e-19
-6.906448713822001e-03 -1.639936811608637e-06 -3.188518957843607e-19
-6.903243538372187e-03 -7.473962817270508e-06 -3.188522880152739e-19
-6.899339924656360e-03 -5.395017997108070e-06 -3.188903040623567e-19
-6.898195606547169e-03 -6.577256624096867e-08 -3.189666765071636e-19
-6.899425764133812e-03  5.101486875151422e-06 -3.190482954603094e-19
-6.903158618692225e-03  7.080916965602626e-06 -3.191369473082586e-19
-6.906324424674405e-03  1.564328580231091e-06 -3.191980424425726e-19
-6.903218608023761e-03 -6.561256081145466e-06 -3.191857432961377e-19
-6.896495360079249e-03 -5.163852416419451e-06 -3.191734224898637e-19
-6.896539339853174e-03  4.600463721059591e-06 -3.192756790478957e-19
-6.904335955914034e-03  6.624456432235339e-06 -3.194391667001359e-19
-6.907883482917002e-03 -3.498902554398974e-06 -3.195048064011732e-19
-6.900376950098649e-03 -1.061135581990188e-05 -3.194503201790244e-19
-6.894052915435375e-03 -1.771297526173611e-07 -3.194826747336898e-19
-6.900266469287055e-03  1.028087108785987e-05 -3.196640100904029e-19
-6.907786786582258e-03  3.395588564073468e-06 -3.197816750578738e-19
-6.904478333264823e-03 -6.670804106768691e-06 -3.197551533098116e-19
-6.896695733626945e-03 -5.050960733005885e-06 -3.197319876047871e-19
-6.896362640908367e-03  4.704820554953495e-06 -3.198350766875418e-19
-6.903102392462888e-03  6.518994246436772e-06 -3.199859693130080e-19
-6.906462655450661e-03 -1.674335832974006e-06 -3.200546456020338e-19
-6.903251149221784e-03 -7.475512458802957e-06 -3.200676962216256e-19
-6.899365087821095e-03 -5.388610332714218e-06 -3.201192171454421e-19
-6.898226146299897e-03 -7.147157400477468e-08 -3.202090983961080e-19
-6.899450362221527e-03  5.093373872450269e-06 -3.203042581253106e-19
-6.903183148673091e-03  7.078285283683758e-06 -3.204064661391441e-19
-6.906348379783560e-03  1.554637776836844e-06 -3.204805922221351e-19
-6.903236105679876e-03 -6.567443963786208e-06 -3.204813010698835e-19
-6.896520559886638e-03 -5.156576426512138e-06 -3.204829845691290e-19
-6.896572177571802e-03  4.590683459394297e-06 -3.205997638744028e-19
-6.904355197526708e-03  6.604516416698180e-06 -3.207772308228179e-19
-6.907898704772008e-03 -3.496935392144011e-06 -3.208562434790671e-19
-6.900402728437061e-03 -1.060932902280171e-05 -3.208156417085007e-19
-6.894076159082521e-03 -1.864237082196887e-07 -3.208630706458510e-19
-6.900288752259954e-03  1.028187360940099e-05 -3.210596374849963e-19
-6.907816447307506e-03  3.389467391261747e-06 -3.211915826067398e-19
-6.904498271793649e-03 -6.692485925715822e-06 -3.211788843738318e-19
-6.896706348485048e-03 -5.052112952834655e-06 -3.211708204321556e-19
-6.896387763056733e-03  4.716913955063336e-06 -3.212899638463410e-19
-6.903134291028326e-03  6.508769558551430e-06 -3.214562416494414e-19
-6.906482557316370e-03 -1.690102066672919e-06 -3.215394826687825e-19
-6.903268838279830e-03 -7.478036127243318e-06 -3.215677985294269e-19
-6.899386484859620e-03 -5.393586951659698e-06 -3.216352727644192e-19
-6.898245877580268e-03 -7.496049856179803e-08 -3.217414848641108e-19
-6.899474908624933e-03  5.095380456168984e-06 -3.218531941628902e-19
-6.903210223023786e-03  7.067610150975922e-06 -3.219718338844981e-19
-6.906367226595186e-03  1.540802851327825e-06 -3.220619353296708e-19
-6.903253478304526e-03 -6.569408991653827e-06 -3.220787175945104e-19
-6.896542461829923e-03 -5.158616789251128e-06 -3.220974139945989e-19
-6.896595242598905e-03  4.587567581047889e-06 -3.222320265982003e-19
-6.904380364274657e-03  6.600475207740883e-06 -3.224268962831866e-19
-6.907921125390613e-03 -3.509358971043873e-06 -3.225225998957381e-19
-6.900419607363993e-03 -1.061638979481042e-05 -3.224990874788611e-19
-6.894098087557711e-03 -1.843569966395776e-07 -3.225653840506572e-19
-6.900314553545287e-03  1.027489742328260e-05 -3.227808657350133e-19
-6.907835999526431e-03  3.379752288545474e-06 -3.229305944938146e-19
-6.904519317650185e-03 -6.691884607565852e-06 -3.229358504191476e-19
-6.896733232584837e-03 -5.058360373005181e-06 -3.229468581026703e-19
-6.896407227962327e-03  4.702550251488511e-06 -3.230856882310733e-19
-6.903151188776950e-03  6.510093474808465e-06 -3.232715019280827e-19
-6.906510916907165e-03 -1.687915884915915e-06 -3.233740315044640e-19
-6.903294337981339e-03 -7.494659512635676e-06 -3.234217267392106e-19
-6.899400914066359e-03 -5.401106455366256e-06 -3.235094813048385e-19
-6.898268500128828e-03 -6.782778907459564e-08 -3.236367368191995e-19
-6.899505420603547e-03  5.087384258408826e-06 -3.237696659592468e-19
-6.903231131861440e-03  7.052030164450750e-06 -3.239093319814053e-19
-6.906384098781709e-03  1.539043737856597e-06 -3.240204890216629e-19
-6.903278206429599e-03 -6.568226420518593e-06 -3.240585420635532e-19
-6.896569441765823e-03 -5.165980168586810e-06 -3.240994306826938e-19
-6.896617531309228e-03  4.578572581283691e-06 -3.242570571875771e-19
-6.904401149375160e-03  6.596319055218999e-06 -3.244748165780872e-19
-6.907944154020747e-03 -3.512245721020060e-06 -3.245929663350497e-19
-6.900444284627758e-03 -1.062068545960572e-05 -3.245925445762307e-19
-6.894125014367784e-03 -1.893783905156655e-07 -3.246833219210307e-19
-6.900340147354472e-03  1.026361276684124e-05 -3.249237769698322e-19
-6.907853380056861e-03  3.369628052262171e-06 -3.250975661298035e-19
-6.904538171191008e-03 -6.685443173741106e-06 -3.251273391416629e-19
-6.896765856326532e-03 -5.053136052618593e-06 -3.251640549497887e-19
-6.896439938341879e-03  4.686166788886840e-06 -3.253293702381487e-19
-6.903168989588222e-03  6.492318465885821e-06 -3.255414702328999e-19
-6.906526618649162e-03 -1.685533659374043e-06 -3.256703109238124e-19
-6.903323956548844e-03 -7.487274132380593e-06 -3.257451192547819e-19
-6.899434191958431e-03 -5.411144247900044e-06 -3.258607389515346e-19
-6.898290984191008e-03 -8.175921437174252e-08 -3.260164535690265e-19
-6.899525936441313e-03  5.087113075959523e-06 -3.261785189506165e-19
-6.903258123880819e-03  7.051727006351316e-06 -3.263477170964734e-19
-6.906412794902375e-03  1.534446561638099e-06 -3.264883887617043e-19
-6.903306045025285e-03 -6.574758156880232e-06 -3.265563050106499e-19
-6.896592826076496e-03 -5.175545240189763e-06 -3.266282526056522e-19
-6.896639980711577e-03  4.579089287477106e-06 -3.268180550297131e-19
-6.904431982664281e-03  6.598594915873341e-06 -3.270681815565507e-19
-6.907975994031742e-03 -3.523251945171469e-06 -3.272185478035822e-19
-6.900469408517016e-03 -1.063094032695732e-05 -3.272511132967850e-19
-6.894148235645663e-03 -1.927009525118044e-07 -3.273766699112847e-19
-6.900365210598740e-03  1.026459529513618e-05 -3.276524415509929e-19
-6.907885551157717e-03  3.374356139369410e-06 -3.278614957155341e-19
-6.904574039136061e-03 -6.694348677039008e-06 -3.279269497324762e-19
-6.896790977123190e-03 -5.069884745528258e-06 -3.280006199413013e-19
-6.896460606052248e-03  4.687104064528226e-06 -3.282041848044587e-19
-6.903199240102153e-03  6.498357794008215e-06 -3.284550358285687e-19
-6.906560814842446e-03 -1.689150781289204e-06 -3.286229100728319e-19
-6.903355653918263e-03 -7.493918483631186e-06 -3.287376739582708e-19
-6.899463606336145e-03 -5.419188837121137e-06 -3.288944521837241e-19
-6.898317824750529e-03 -8.712670614733418e-08 -3.290923473236772e-19
-6.899554767843368e-03  5.089187438673375e-06 -3.292976274147102e-19
-6.903292241542069e-03  7.052817254998527e-06 -3.295107719260088e-19
-6.906445805368366e-03  1.528232408884598e-06 -3.296960234053223e-19
-6.903335636940624e-03 -6.578379077853037e-06 -3.298096706320011e-19
-6.896625348698117e-03 -5.175516115546312e-06 -3.299286077053204e-19
-6.896673954828250e-03  4.573992630868216e-06 -3.301666698691485e-19
-6.904463197641817e-03  6.594621063273665e-06 -3.304659613551392e-19
-6.908007404043103e-03 -3.523055534908405e-06 -3.306664409450284e-19
-6.900501678354492e-03 -1.063109065281250e-05 -3.307503782665228e-19
-6.894184093511260e-03 -1.895123314196111e-07 -3.309289331807187e-19
-6.900405879912495e-03  1.026113516128345e-05 -3.312589226303180e-19
-6.907917620329709e-03  3.359667582179924e-06 -3.315229992587214e-19
-6.904598193336220e-03 -6.691886263220019e-06 -3.316450863548555e-19
-6.896829232093725e-03 -5.053194713341128e-06 -3.317771430037155e-19
-6.896507712825952e-03  4.682219578872775e-06 -3.320403445000767e-19
-6.903234226748590e-03  6.484261484145472e-06 -3.323520409695728e-19
-6.906590873285459e-03 -1.687795534256255e-06 -3.325825842530090e-19
-6.903391764074935e-03 -7.489135584397414e-06 -3.327617080939325e-19
-6.899503077018918e-03 -5.415137461386344e-06 -3.329844863542289e-19
-6.898359556942914e-03 -8.473651458587815e-08 -3.332499983205782e-19
-6.899594094055783e-03  5.084617577290347e-06 -3.335244762173138e-19
-6.903329181169343e-03  7.053909614973290e-06 -3.338089144238104e-19
-6.906486739942238e-03  1.531543989512362e-06 -3.340674939243147e-19
-6.903375325991565e-03 -6.580696567974241e-06 -3.342564679152739e-19
-6.896664329800322e-03 -5.169210934347386e-06 -3.344526944364414e-19
-6.896719250260981e-03  4.580175105899435e-06 -3.347698918225204e-19
-6.904506462259837e-03  6.591169432999970e-06 -3.351505986286180e-19
-6.908046945876095e-03 -3.518878909536984e-06 -3.354352911923870e-19
-6.900546483507094e-03 -1.062343842399902e-05 -3.356059244003426e-19
-6.894230450257712e-03 -1.882319286524176e-07 -3.358726998407477e-19
-6.900450018273048e-03  1.026492655767326e-05 -3.362933168667989e-19
-6.907962259386446e-03  3.365399792534446e-06 -3.366517005017284e-19
-6.904644260145165e-03 -6.684608530511348e-06 -3.368710270386856e-19
-6.896879876868166e-03 -5.043892894443932e-06 -3.371025932135165e-19
-6.896558852296504e-03  4.683487046202136e-06 -3.374674995149872e-19
-6.903278250827536e-03  6.487052826710090e-06 -3.378844732717340e-19
-6.906638070037267e-03 -1.669374215697311e-06 -3.382245170863410e-19
-6.903449808156369e-03 -7.475182936089322e-06 -3.385163678753434e-19
-6.899557053830781e-03 -5.415582813060324e-06 -3.388544283859290e-19
-6.898409417223444e-03 -7.324148898463293e-08 -3.392385279128331e-19
-6.899658233172587e-03  5.106336364542670e-06 -3.396355052793844e-19
-6.903392773497799e-03  7.063752281921000e-06 -3.400463882897788e-19
-6.906539854577405e-03  1.550110846952402e-06 -3.404363300479740e-19
-6.903428249446809e-03 -6.540762350043141e-06 -3.407614616202998e-19
-6.896661765941826e-03 -5.140939574330394e-06 -3.410963701460953e-19
-6.896521954577328e-03  4.676332189004871e-06 -3.415537205602143e-19
-6.903312944357368e-03  6.483147648585089e-06 -3.420646292306320e-19
-6.906675846627302e-03 -1.677404072621709e-06 -3.425018838249602e-19
-6.903485523342067e-03 -7.464606264748846e-06 -3.428942217980581e-19
-6.899610940058348e-03 -5.396522036241107e-06 -3.433356384023705e-19
-6.898457397752056e-03 -8.226904338718214e-08 -3.438259919609978e-19
-6.899677677817465e-03  5.097586946896513e-06 -3.443328274982731e-19
-6.903418641450700e-03  7.087636228002905e-06 -3.448583411951185e-19
-6.906587951995046e-03  1.561483940133951e-06 -3.453681267172632e-19
-6.903476552227131e-03 -6.557410425454167e-06 -3.458173903354428e-19
-6.896765221970307e-03 -5.142260231173955e-06 -3.462804974733817e-19
-6.896822525334718e-03  4.605637665361604e-06 -3.468714341944471e-19
-6.904606159820034e-03  6.616453249280914e-06 -3.475375176762355e-19
-6.908147211218581e-03 -3.480004049301220e-06 -3.481217416228047e-19
-6.900660416516400e-03 -1.057722363001490e-05 -3.486018552147885e-19
-6.894351652299900e-03 -1.595511555257971e-07 -3.491832023862920e-19
-6.900675900893911e-03  1.028898267580294e-05 -3.499282173905765e-19
-6.908074681532948e-03  3.414376814731546e-06 -3.506321218457643e-19
-6.904773578271964e-03 -6.626684553778580e-06 -3.512098841634891e-19
-6.897017857010840e-03 -4.998638595347036e-06 -3.518085770512817e-19
-6.896694065947191e-03  4.733311600446317e-06 -3.525509414321802e-19
-6.903413556193119e-03  6.550446357664795e-06 -3.533632635445313e-19
-6.906739512235989e-03 -1.607224965379285e-06 -3.541179623981622e-19
-6.903307404471038e-03 -7.422070204232700e-06 -3.548359668460978e-19
-6.898485901631446e-03 -5.429385160571770e-06 -3.555998581483235e-19
-6.898733815829495e-03  2.597812041547342e-06 -3.564677710572195e-19
-6.903550476670609e-03  5.144780547208841e-06 -3.573849967173589e-19
-6.903704520044377e-03 -5.758601470437919e-07 -3.582266626905791e-19
-6.902151313974546e-03  1.698879778438268e-06 -3.591129949098189e-19
-6.903584367108678e-03  1.195046733979461e-07 -3.600675786234282e-19
-6.898779046603449e-03 -5.208084726591917e-06 -3.609505274715137e-19
-6.897134862154070e-03  5.951752232069063e-06 -3.619628561682579e-19
-6.906869315653784e-03  6.988575090543939e-06 -3.631301497501803e-19
-6.906867121288059e-03 -9.830062850033792e-06 -3.641480388467935e-19
-6.896584893618323e-03 -8.041427097382776e-06 -3.651453592733208e-19
-6.898216670406184e-03  6.206784057093948e-06 -3.666172564148395e-19
-6.904337612362337e-03  2.507064719684523e-06 -3.676492569359716e-19
-6.902896525720658e-03 -2.255498977007444e-07 -3.688447943981174e-19
-6.901676120033960e-03  1.423076122803847e-06 -3.701135619956096e-19
-6.899910578386479e-03 -1.093110738547289e-06 -3.714082628332324e-19
-6.901668326907104e-03  4.744734170087958e-06 -3.728323288757727e-19
-6.906262543212286e-03 -1.359094516761962e-06 -3.743202555588045e-19
-6.901071917708806e-03 -9.273060080050184e-06 -3.757331530904948e-19
-6.897375107700185e-03  9.706691198238208e-07 -3.772869400205694e-19
-6.902625266073338e-03  4.593445097459667e-06 -3.789917479437207e-19
-6.904353018087135e-03 -4.539401611182542e-07 -3.806761475839174e-19
-6.903144836905127e-03  4.913798025975277e-08 -3.824149233515604e-19
-6.904344444464335e-03 -3.364463523891863e-07 -3.842714705566964e-19
-6.901391717428456e-03 -4.636226303536938e-06 -3.861386203981351e-19
-6.895986266270849e-03  1.377786350273381e-06 -3.880705012580298e-19
-6.900537557250667e-03  1.160032176715388e-05 -3.902209407832077e-19
-6.910595131521919e-03  5.267276015226957e-06 -3.925001118304770e-19
-6.905963804859567e-03 -1.340637612467075e-05 -3.946686153028042e-19
-6.891797894461493e-03 -8.487942152734201e-06 -3.968892992126344e-19
-6.898245955272621e-03  1.448649778922279e-05 -3.995385297649358e-19
-6.912440643828533e-03  2.802841721564097e-06 -4.023082056970616e-19
-6.903260023005568e-03 -1.418337243969296e-05 -4.048750691580391e-19
-6.892193984611907e-03  1.213942389725528e-06 -4.076403450996801e-19
-6.901138118003233e-03  1.410057114143253e-05 -4.107959636560013e-19
-6.911066768373266e-03  2.987728585094478e-06 -4.140515128770183e-19
-6.904542172212281e-03 -1.126628457002841e-05 -4.172576897827123e-19
-6.896353931222191e-03 -3.249468034414676e-06 -4.206886765531905e-19
-6.900528775989443e-03  5.512313109543958e-06 -4.244671327731472e-19
-6.904630769716660e-03  1.227918727779100e-06 -4.283941462843438e-19
-6.903243412882140e-03  2.527655158436516e-07 -4.324643194497700e-19
-6.902144558649373e-03  6.318497091562477e-07 -4.367757354996096e-19
-6.902077787799463e-03  1.143615594730252e-06 -4.413441460103538e-19
-6.903940350323382e-03  2.315046873121373e-06 -4.462128543736312e-19
-6.904704299875998e-03 -1.981837105766709e-06 -4.513416669859810e-19
-6.900586392468078e-03 -3.281642492288635e-06 -4.567158990143573e-19
-6.899792652694113e-03  4.364651052331785e-06 -4.624785536254306e-19
-6.905176415067217e-03  5.927306907955518e-06 -4.686640841272106e-19
-6.905372785800046e-03 -2.073273378780919e-06 -4.751434568372573e-19
-6.899355109549136e-03 -2.049120581862976e-06 -4.819750500489691e-19
-6.902053563425704e-03  7.592057145994528e-06 -4.894062286312599e-19
-6.909299943812752e-03  1.141841365686478e-06 -4.973628751292408e-19
-6.902034088959745e-03 -1.054261033264220e-05 -5.056416591954823e-19
-6.895664840540148e-03  4.568804276929526e-06 -5.145823731550400e-19
-6.906224251998648e-03  1.267942241139715e-05 -5.243719806031143e-19
-6.909715498111906e-03 -3.183456361080152e-06 -5.346885917740878e-19
-6.900807304551055e-03 -4.164465022861065e-06 -5.456482761482690e-19
-6.900571544322789e-03  6.314165349593123e-06 -5.576156475416145e-19
-6.905894956943603e-03  4.508782377455519e-06 -5.705358742644935e-19
-6.905162809043954e-03  6.571658400732918e-08 -5.843698724174789e-19
-6.903534842724230e-03  2.596451584745908e-06 -5.993575107810197e-19
-6.905044465066713e-03  2.950714853323978e-06 -6.156238159299578e-19
-6.903901702740296e-03  9.222860205545557e-07 -6.332188699289211e-19
-6.902766030295128e-03  5.050228280243609e-06 -6.523870749641337e-19
-6.907186559068523e-03  7.659784040631588e-06 -6.733429246644945e-19
-6.908446843801600e-03  4.945673566538863e-09 -6.960892480165217e-19
-6.902513412802169e-03 -8.332249155677052e-07 -7.209263762164548e-19
-6.902650744376475e-03  9.574139254612385e-06 -7.483846856417407e-19
-6.909433266140392e-03  9.363238830085649e-06 -7.785499287312709e-19
-6.909283012787746e-03  1.703008140260045e-06 -8.115791525473949e-19
-6.904682449757176e-03  3.566518810947379e-06 -8.481618538055958e-19
-6.905560405935113e-03  9.479167078658062e-06 -8.888747961842717e-19
-6.910207114763894e-03  1.042442108377885e-05 -9.341001803014023e-19
-6.910970653369300e-03  5.603695727831801e-06 -9.843140477062289e-19
-6.905753932977451e-03  5.347823653317056e-06 -1.040494119669945e-18
-6.906913768328193e-03  1.697625928192536e-05 -1.104072995747847e-18
-6.916828628261215e-03  1.717520220995044e-05 -1.175465258506721e-18
-6.914303826487720e-03  2.471464329584441e-06 -1.255259143305878e-18
-6.902875365871939e-03  1.110493910835934e-05 -1.346787327347933e-18
-6.910941361546448e-03  3.249608984971742e-05 -1.452363750885019e-18
-6.925664556326242e-03  2.262273609138104e-05 -1.571336631572593e-18
-6.917200817986043e-03  5.783052819978636e-06 -1.706881937983141e-18
-6.904110999610089e-03  2.384011280348857e-05 -1.866498544406587e-18
-6.914854793297497e-03  4.806135261686070e-05 -2.053368328479975e-18
-6.930065715735078e-03  4.034832468809230e-05 -2.267754210442966e-18
-6.922449296126749e-03  2.761096822699445e-05 -2.517548308035077e-18
-6.909078772505638e-03  4.656565899553691e-05 -2.817270909655127e-18
-6.913126901818268e-03  7.386026148371268e-05 -3.175554403708516e-18
-6.918145608707810e-03  8.060679213547860e-05 -3.598796305412332e-18
-6.904894010760865e-03  8.923953589081506e-05 -4.106662933168191e-18
-6.882477977989221e-03  1.201011024512666e-04 -4.727036525288722e-18
-6.856159150736230e-03  1.611082885430209e-04 -5.485702441039549e-18
-6.850871289737009e-03  2.141644753324864e-04 -6.419662221132305e-18
-6.846016646436965e-03  2.212670741038246e-04 -7.543101538486952e-18
-6.635901115093375e-03  1.255031314092739e-04 -8.856529602215648e-18
-6.294142331441931e-03  4.008792119686972e-04 -1.074916212167330e-17
-6.313142743670360e-03  8.705943457896845e-04 -1.322555999647914e-17
-6.820516215428138e-03  7.336623620830529e-04 -1.579959470534846e-17
-8.059459436787906e-03  4.028833956361678e-04 -1.881400681156367e-17
-8.299606599565752e-03 -2.379370885548249e-03 -1.935130651770041e-17
-4.246422165491694e-03 -2.621683934661889e-03 -1.676909965469504e-17
-3.177248772836792e-03  1.747409029759227e-03 -3.515730786708822e-17
-4.120543876443727e-03  4.282639151468577e-03 -3.391502403289527e-17
-6.094653522407025e-03  6.713282080624041e-03 -2.459631772403258e-17
-6.433798182976344e-03 -1.479478120306237e-03 -6.458924914731966e-17
-5.710985774222431e-03 -3.930651737234867e-04 -8.768551437411306e-17
-6.011624745809963e-03 -2.141931820580548e-03 -1.297781266144171e-16
-6.317951416590564e-05 -1.726135190207214e-04 -6.774524727012714e-17
-1.770984173528015e-03  1.621735882833136e-03 -4.475002437625884e-17
-7.388215626126632e-03  4.229713553522941e-03  1.269911791627951e-15
-2.218672358524609e-03 -3.763099441806723e-03 -5.956207185273201e-16
 1.141558104237011e-03 -7.836229696128960e-04 -6.645908418307578e-15
-3.060708881282330e-03  9.726621365056998e-03  1.600313828388765e-15
-2.662097126502656e-03  1.827397526177865e-03 -7.210929381932793e-15
-4.901954957953801e-03 -4.597842840285241e-03  4.739238409040429e-17
-4.865354534677440e-03 -3.631425352820276e-04 -3.654072255366503e-17
-8.652020790733836e-03 -5.367825103018445e-03 -1.401590297373852e-16
-2.963721520949603e-03 -4.667410769430753e-03 -1.498649835151281e-16
-7.591997256010275e-04 -5.344429406884059e-05  1.211078252720441e-17
-4.914394056415338e-03  2.967102584992294e-03  2.004361962920064e-17
-5.642959475866444e-03  4.430836381412117e-03 -1.298306956387883e-17
-6.851361602294358e-03  4.471173904344258e-03 -3.075409107267317e-17
-6.755429451561715e-03 -4.550412184262236e-03 -1.613784549442797e-17
-4.678047857252878e-03 -1.159828961913646e-03 -2.122871175916808e-17
-5.667621118960340e-03 -8.920086537646933e-04 -2.052488244615447e-17
-5.958082245599407e-03 -1.157871027772526e-03 -1.843333245754919e-17
-6.184041414483401e-03 -2.340921064400127e-05 -1.665121715417210e-17
-6.957034715162371e-03  4.737470121997083e-04 -1.452525872963781e-17
-7.259424168489760e-03 -1.057636068304437e-04 -1.287371829067768e-17
-7.003004192308028e-03 -2.530724081843386e-04 -1.137338618467256e-17
-6.866599521840024e-03 -1.650934953158898e-04 -1.002782704913271e-17
-6.875483367346091e-03 -9.678208144356155e-05 -8.845581382383456e-18
-6.928021987262467e-03 -5.798389978032465e-05 -7.818676501082451e-18
-6.939192872603915e-03 -1.034667772436991e-04 -6.947013627478645e-18
-6.865117987200567e-03 -9.700400222690213e-05 -6.178519943443633e-18
-6.885507160259366e-03  6.706819733850098e-05 -5.471502588564921e-18
-7.010491776093597e-03  2.709858415811326e-05 -4.905521583139285e-18
-6.950934970744022e-03 -1.848815219680464e-04 -4.448898244654604e-18
-6.819565999513348e-03 -6.957311028947047e-05 -3.985844278548433e-18
-6.885593091444523e-03  9.475754799979379e-05 -3.571183206952122e-18
-6.972477348099459e-03 -2.692018946542727e-06 -3.257868255352230e-18
-6.948874820470119e-03 -6.192893699940822e-05 -2.974805149165308e-18
-6.905862916247594e-03 -7.289049360305773e-05 -2.718221145566054e-18
-6.839938836271360e-03 -5.315497569325513e-05 -2.487029026151183e-18
-6.874299973108369e-03  1.136653650683593e-04 -2.262905679280166e-18
-7.012145007512476e-03  6.282009895157222e-05 -2.095540854975550e-18
-6.948823371938168e-03 -1.760106386681180e-04 -1.965541546503161e-18
-6.804465372125840e-03 -5.928278014789367e-05 -1.809641499371577e-18
-6.878211080087946e-03  1.218185659643062e-04 -1.665986543015614e-18
-6.973348783300286e-03  6.526336999628454e-06 -1.567709845288688e-18
-6.917000785599975e-03 -6.838165187854505e-05 -1.473152679821195e-18
-6.879085338267215e-03 -7.791332364207305e-06 -1.377078794036838e-18
-6.900313405909240e-03  4.889550606047620e-06 -1.295189053560031e-18
-6.907588852651778e-03 -3.833524552767430e-06 -1.222630550637622e-18
-6.908442696356701e-03  1.050321169652434e-06 -1.155972842124847e-18
-6.910909957111687e-03 -8.365217472342618e-06 -1.096513808917282e-18
-6.900601521969414e-03 -1.614282229373450e-05 -1.042221038091762e-18
-6.894001232613197e-03  8.630905989862158e-07 -9.914656561637264e-19
-6.907022611351949e-03  1.237291628955361e-05 -9.457768511601147e-19
-6.915595871913003e-03 -7.206990601798015e-06 -9.055215380270182e-19
-6.900843794049534e-03 -2.078913129273089e-05 -8.680756009359342e-19
-6.890593906661658e-03 -2.997536159525607e-07 -8.323572166179358e-19
-6.904858191405813e-03  1.459944680287224e-05 -8.001406994419112e-19
-6.914523120388340e-03 -5.210340726866560e-06 -7.717620250389848e-19
-6.900612689885662e-03 -1.759927451179780e-05 -7.450290187392190e-19
-6.893223797465206e-03  1.829852182161856e-06 -7.194223671823250e-19
-6.905509109566598e-03  9.325717073072397e-06 -6.964161024181802e-19
-6.908897721176369e-03 -7.274563794477300e-06 -6.757025621878306e-19
-6.899105853572816e-03 -8.295306200757149e-06 -6.559117418079797e-19
-6.898448705292414e-03  3.137172970667913e-06 -6.373720615851256e-19
-6.904671587777491e-03  1.939117947214929e-06 -6.205480612121825e-19
-6.904505202551776e-03 -4.297264327484602e-06 -6.049264192220780e-19
-6.900003899859684e-03 -4.424294157775604e-06 -5.901973352039059e-19
-6.899283539763676e-03  9.732149438137494e-07 -5.764104438344713e-19
-6.904230088052225e-03  2.903730696575358e-06 -5.636879163959542e-19
-6.905088046405501e-03 -5.254656391131533e-06 -5.519228005784107e-19
-6.898679789482601e-03 -6.253098943207186e-06 -5.407035951910176e-19
-6.898534733245394e-03  3.897955691492038e-06 -5.301149864724558e-19
-6.904782648418891e-03  3.114836270338822e-06 -5.204307502036174e-19
-6.903930898216066e-03 -4.998698255459007e-06 -5.113442358468432e-19
-6.899410197291113e-03 -2.917661093985722e-06 -5.026403786159984e-19
-6.900462030505815e-03  1.497155038564194e-06 -4.945091930673095e-19
-6.902131814582159e-03 -5.979100019031587e-07 -4.869313922043538e-19
-6.901299534479838e-03 -9.641206305722232e-07 -4.797441505668104e-19
-6.904256693628388e-03  1.026803251343564e-06 -4.730026029382014e-19
-6.905470514988078e-03 -5.813956363307547e-06 -4.667160363391032e-19
-6.900106127084296e-03 -6.631371682054679e-06 -4.606434845164980e-19
-6.891683737500919e-03 -5.854062451074002e-07 -4.547870457907288e-19
-6.883097119111411e-03  1.106028498601528e-05 -4.491335217924330e-19
-6.911067981914781e-03  4.252579212631141e-05 -4.441503031508980e-19
-6.951940274082701e-03 -1.125147818154290e-05 -4.402535506587136e-19
-6.896688316231431e-03 -9.933616493265670e-05 -4.354838579621678e-19
-6.833745906071347e-03 -1.332771455006266e-06 -4.299041668262313e-19
-6.896927851829705e-03  9.821533073686478e-05 -4.261246157501614e-19
-6.951433195399984e-03  8.368261620729346e-06 -4.232247931297304e-19
-6.907560291162655e-03 -4.342344781846050e-05 -4.190177004783124e-19
-6.883027130817211e-03 -4.479384044717071e-06 -4.150927868582456e-19
-6.896399253281427e-03 -7.719566373226579e-07 -4.119729887435560e-19
-6.899786639984023e-03 -2.277597850658682e-06 -4.088224929223099e-19
-6.901687423390911e-03  4.462394550043447e-06 -4.057675505593902e-19
-6.903850532548177e-03 -7.596773052306031e-08 -4.028848402614881e-19
-6.902048848274532e-03 -1.059676322034392e-06 -4.000681503657784e-19
-6.900903197581945e-03 -3.289230900859364e-07 -3.973982077885252e-19
-6.901953735961532e-03  5.198910865402761e-07 -3.948768021904217e-19
-6.903488325126442e-03 -9.050772421621828e-07 -3.924852101400629e-19
-6.900644546207071e-03 -4.920444360029818e-06 -3.901356887638585e-19
-6.896222655274139e-03  7.736812419451003e-07 -3.878502333628961e-19
-6.899640271674118e-03  8.460968065287448e-06 -3.857536926090292e-19
-6.905179764734275e-03  3.207952057265446e-06 -3.837768777875129e-19
-6.904697007858012e-03 -4.620583766215364e-06 -3.818197530697514e-19
-6.900802657781153e-03 -7.400317452038864e-06 -3.799188769526772e-19
-6.895947887382309e-03 -5.141753848654115e-06 -3.780804100017530e-19
-6.896697214108515e-03  5.814617837562095e-06 -3.765843718565516e-19
-6.904317956440966e-03  7.510608399712974e-06 -3.749431316498927e-19
-6.906155191663331e-03 -2.712361424985789e-06 -3.732162148802910e-19
-6.900451312054959e-03 -6.034124957865464e-06 -3.716178574161313e-19
-6.896521826453116e-03 -1.733343679628025e-06 -3.701105668029989e-19
-6.897804033889284e-03  4.310949222550015e-06 -3.687185196226443e-19
-6.902743605396669e-03  5.026250902707467e-06 -3.674121015314405e-19
-6.905433928794334e-03 -1.731115827953344e-06 -3.661230643340802e-19
-6.902783627109612e-03 -7.415886941891985e-06 -3.648327464308027e-19
-6.899029022811992e-03 -5.558044459524176e-06 -3.635956559370987e-19
-6.897804363232368e-03 -1.909781246426944e-07 -3.624289812872337e-19
-6.899016335706655e-03  4.979984485537777e-06 -3.613133780815294e-19
-6.902738979600010e-03  6.960549181474942e-06 -3.602504118719459e-19
-6.905907379436632e-03  1.454963735755190e-06 -3.592137217415070e-19
-6.902798057053424e-03 -6.692453317539850e-06 -3.581417919301062e-19
-6.896042872739182e-03 -5.294740203225067e-06 -3.570871678642308e-19
-6.896082572865495e-03  4.517506267420365e-06 -3.561564222602420e-19
-6.903908114245577e-03  6.544313800856326e-06 -3.553428593309460e-19
-6.907457215070147e-03 -3.619369418803671e-06 -3.544803079709002e-19
-6.899917619618413e-03 -1.073796279156549e-05 -3.535058799829476e-19
-6.893571456424110e-03 -2.697759861888249e-07 -3.526386282840671e-19
-6.899800495191559e-03  1.022668366542125e-05 -3.519558457108966e-19
-6.907351946720726e-03  3.331207116917065e-06 -3.512154232460388e-19
-6.904031808138740e-03 -6.787676391115859e-06 -3.503748948918553e-19
-6.896204253873358e-03 -5.160015326764609e-06 -3.496094610937482e-19
-6.895870486786368e-03  4.655488869797359e-06 -3.489045475109225e-19
-6.902643762044403e-03  6.469702567209300e-06 -3.483095223131512e-19
-6.906004537143595e-03 -1.759937498206875e-06 -3.475190071622413e-19
-6.902769936406601e-03 -7.562586398173692e-06 -3.469858884069194e-19
-6.898877160358485e-03 -5.456758045549118e-06 -3.461041875202301e-19
-6.897744928954560e-03 -1.321341944647749e-07 -3.453597650534902e-19
-6.898967047255540e-03  5.032625785869499e-06 -3.456869480930318e-19
-6.902693189243300e-03  7.040487936478320e-06 -3.450094180827152e-19
-6.905880400557609e-03  1.531415795745670e-06 -3.449475886859369e-19
-6.902763128051130e-03 -6.634981367133022e-06 -3.449918258018906e-19
-6.895933224879796e-03 -5.234284649601666e-06 -3.409931274189011e-19
-6.895788853937833e-03  4.668350845807503e-06 -3.357502134476379e-19
-6.902632807765680e-03  6.474815645212758e-06 -3.279311894414922e-19
-6.905996964533167e-03 -1.755631302468972e-06 -3.418957799114286e-19
-6.902762686612531e-03 -7.549421161920007e-06 -3.277137281353947e-19
-6.898874297369139e-03 -5.442743710289792e-06 -4.009342164709936e-19
-6.897733779271702e-03 -1.170654443657772e-07 -1.292921476196133e-18
-6.898952144130967e-03  5.050745937444735e-06  1.246907934863416e-18
-6.902684737891731e-03  7.048190395592760e-06  1.677928335621421e-18
-6.905868144272286e-03  1.528465394832924e-06 -6.561211062185829e-20
-6.902753184879856e-03 -6.634260774996204e-06 -4.132782958398851e-19
-6.895994686197789e-03 -5.226335831168496e-06 -2.495998432966965e-19
-6.896044596600694e-03  4.592051052542398e-06 -3.447850486650066e-19
-6.903877641901160e-03  6.606311470833483e-06 -3.518860179368638e-19
-6.907422220868443e-03 -3.565182649869728e-06 -3.559134343404929e-19
-6.899881915839205e-03 -1.067736714815352e-05 -3.386871712678721e-19
-6.893543562388965e-03 -2.080907023363211e-07 -3.371061536984991e-19
-6.899776065103451e-03  1.027862308012184e-05 -3.337491857286669e-19
-6.907324393495205e-03  3.380646575524699e-06 -3.346234042601393e-19
-6.904004950051867e-03 -6.733895162351759e-06 -3.358207074571456e-19
-6.896181620398513e-03 -5.106999823677913e-06 -3.349199619657816e-19
-6.895850912880149e-03  4.705434970579423e-06 -3.344823503968619e-19
-6.902625849976798e-03  6.515046001593268e-06 -3.342536357315653e-19
-6.905986704100805e-03 -1.718992016317010e-06 -3.338542684554881e-19
-6.902751512171493e-03 -7.522111047251040e-06 -3.334537360883445e-19
-6.898857274767570e-03 -5.415339052657029e-06 -3.332224093023752e-19
-6.897726471676519e-03 -8.471375533761190e-08 -3.329488048055054e-19
-6.898953955052178e-03  5.074493805583433e-06 -3.326465812821299e-19
-6.902680153429461e-03  7.060257140757671e-06 -3.324218618396839e-19
-6.905855635836314e-03  1.551643990204218e-06 -3.321433643126177e-19
-6.902750997981890e-03 -6.598948965644236e-06 -3.318529155797956e-19
-6.896002604884589e-03 -5.206980005840146e-06 -3.315123791318472e-19
-6.896042373395640e-03  4.597268326706855e-06 -3.312960799406854e-19
-6.903867584441361e-03  6.626631122784023e-06 -3.311639400200885e-19
-6.907422283577189e-03 -3.535556107690033e-06 -3.309233005593453e-19
-6.899886680985434e-03 -1.066121818545002e-05 -3.305755006623418e-19
-6.893541867059904e-03 -1.937781600061675e-07 -3.303155038012205e-19
-6.899776373185344e-03  1.030059207742128e-05 -3.302071327547411e-19
-6.907328642167253e-03  3.394734172516610e-06 -3.300391079537309e-19
-6.904003574817879e-03 -6.723637911432170e-06 -3.297296944710144e-19
-6.896179322873808e-03 -5.086167484507838e-06 -3.294280707562002e-19
-6.895856225398280e-03  4.726701051832757e-06 -3.292559000951401e-19
-6.902631686629289e-03  6.525876852883672e-06 -3.291364872502666e-19
-6.905985208361254e-03 -1.708864244938506e-06 -3.289352919863653e-19
-6.902749868178930e-03 -7.501891451799194e-06 -3.286816829022106e-19
-6.898864365325955e-03 -5.394512353157537e-06 -3.284701154824959e-19
-6.897734472598793e-03 -7.717102381537555e-08 -3.283002551194122e-19
-6.898951896219983e-03  5.080129523101857e-06 -3.281377927990762e-19
-6.902677088817873e-03  7.080948813669964e-06 -3.279850162443378e-19
-6.905864245688025e-03  1.573943940624737e-06 -3.278063780647606e-19
-6.902761702277999e-03 -6.593487256567798e-06 -3.275557323505348e-19
-6.896003636614672e-03 -5.203871357752606e-06 -3.273087675303857e-19
-6.896041222068185e-03  4.612201031156968e-06 -3.271802774868657e-19
-6.903869989539817e-03  6.643391294116565e-06 -3.271146966811254e-19
-6.907426793370895e-03 -3.517829743286757e-06 -3.269509824358454e-19
-6.899896648754854e-03 -1.064502742758028e-05 -3.266694433857926e-19
-6.893550151784591e-03 -1.923785140421988e-07 -3.264792213661658e-19
-6.899773024715046e-03  1.030292812751706e-05 -3.264406164789246e-19
-6.907327182569866e-03  3.415943415296774e-06 -3.263379396372008e-19
-6.904015913731982e-03 -6.705100585007772e-06 -3.260915033418969e-19
-6.896190016314232e-03 -5.086385908751220e-06 -3.258515675696953e-19
-6.895852815881764e-03  4.728691409915664e-06 -3.257413620953869e-19
-6.902628526773414e-03  6.547359478012980e-06 -3.256799493441527e-19
-6.905997352205998e-03 -1.686354997636616e-06 -3.255357574976119e-19
-6.902765322763159e-03 -7.501234377674092e-06 -3.253377065970371e-19
-6.898863711041515e-03 -5.401758173798601e-06 -3.251806261714120e-19
-6.897724836417642e-03 -6.316080482363959e-08 -3.250641047036765e-19
-6.898957366317114e-03  5.110643760502853e-06 -3.249539907168695e-19
-6.902696828012627e-03  7.091900765897954e-06 -3.248518205411040e-19
-6.905870991188573e-03  1.561565697066894e-06 -3.247220784499857e-19
-6.902752198829224e-03 -6.589871519777226e-06 -3.245194873097381e-19
-6.896003182925039e-03 -5.179076509817839e-06 -3.243197140215247e-19
-6.896054984789221e-03  4.627297110261524e-06 -3.242377666609513e-19
-6.903881082840866e-03  6.642685944578577e-06 -3.242170208849752e-19
-6.907426048500207e-03 -3.519959765755973e-06 -3.240968553918450e-19
-6.899890142756819e-03 -1.063388598416956e-05 -3.238580053664143e-19
-6.893554165004711e-03 -1.679212473180397e-07 -3.237102725102609e-19
-6.899789803556925e-03  1.031408824693819e-05 -3.237127998544532e-19
-6.907334656309581e-03  3.404289543856073e-06 -3.236499444216569e-19
-6.904004930722981e-03 -6.705953730880971e-06 -3.234426211200608e-19
-6.896185709458955e-03 -5.059725855385437e-06 -3.232414038371534e-19
-6.895869614165378e-03  4.748713216891188e-06 -3.231691155293267e-19
-6.902642727228118e-03  6.536941057576274e-06 -3.231442629751750e-19
-6.905988272967480e-03 -1.696428546648285e-06 -3.230360280079807e-19
-6.902752729416571e-03 -7.479963970813263e-06 -3.228734349475477e-19
-6.898873356940923e-03 -5.371959899115841e-06 -3.227513361212756e-19
-6.897743892909590e-03 -6.277543211787432e-08 -3.226685357757556e-19
-6.898957183976561e-03  5.093308291364145e-06 -3.225912991443992e-19
-6.902683294473389e-03  7.098285911028414e-06 -3.225216225484518e-19
-6.905870958013072e-03  1.585775772115015e-06 -3.224241242202482e-19
-6.902761478103091e-03 -6.581604461455030e-06 -3.222530333424445e-19
-6.896005359524489e-03 -5.178460046183264e-06 -3.220838480140918e-19
-6.896053152491006e-03  4.633150105844176e-06 -3.220317134277456e-19
-6.903879290450664e-03  6.647404025247852e-06 -3.220404078548355e-19
-6.907425592520909e-03 -3.511425074262545e-06 -3.219495768515831e-19
-6.899893267940616e-03 -1.062789045432389e-05 -3.217395281632146e-19
-6.893551168158872e-03 -1.702524994485232e-07 -3.216192043811668e-19
-6.899779947461354e-03  1.032442314084303e-05 -3.216487382662226e-19
-6.907335901292258e-03  3.425499518400443e-06 -3.216132053128303e-19
-6.904013599129755e-03 -6.705797303096609e-06 -3.214327345978517e-19
-6.896178770896849e-03 -5.071710623200213e-06 -3.212572032656081e-19
-6.895854649089179e-03  4.758334399692790e-06 -3.212100388577178e-19
-6.902639816117244e-03  6.556781792200594e-06 -3.212104030179537e-19
-6.905992578970954e-03 -1.691432968337629e-06 -3.211271868631128e-19
-6.902748980453090e-03 -7.484653601199097e-06 -3.209889718842307e-19
-6.898860660415095e-03 -5.370937890864876e-06 -3.208905426286853e-19
-6.897732275813536e-03 -4.985971344957337e-08 -3.208310271225848e-19
-6.898953747647223e-03  5.107255660918251e-06 -3.207767024246975e-19
-6.902681335609038e-03  7.098960588396357e-06 -3.207295627258232e-19
-6.905860076839555e-03  1.582011518716372e-06 -3.206545596392633e-19
-6.902747504320358e-03 -6.575498947253099e-06 -3.205058617379035e-19
-6.895994707253222e-03 -5.170553772049123e-06 -3.203583281374404e-19
-6.896042046374833e-03  4.638253817882848e-06 -3.203269674888571e-19
-6.903866607333205e-03  6.654416482471044e-06 -3.203565009504515e-19
-6.907411617061622e-03 -3.506644638373656e-06 -3.202868790094032e-19
-6.899877499422734e-03 -1.062238665164406e-05 -3.200975306753810e-19
-6.893538118008499e-03 -1.633345996741494e-07 -3.199967993385537e-19
-6.899766179091836e-03  1.032161849217548e-05 -3.200454774071146e-19
-6.907309738193188e-03  3.421012134714446e-06 -3.200296825100377e-19
-6.903985339103052e-03 -6.688659210134986e-06 -3.198690578876987e-19
-6.896167962541096e-03 -5.051726197950407e-06 -3.197126257818811e-19
-6.895841821473940e-03  4.746440170478745e-06 -3.196834247637294e-19
-6.902602613285739e-03  6.545552846374759e-06 -3.197018251977449e-19
-6.905956038109851e-03 -1.669429555956885e-06 -3.196374336108969e-19
-6.902730184614100e-03 -7.469809074236710e-06 -3.195177575194322e-19
-6.898834699983703e-03 -5.379424452872347e-06 -3.194367449829975e-19
-6.897693419996789e-03 -4.865099489996042e-08 -3.193942665536720e-19
-6.898917564337173e-03  5.115356392881476e-06 -3.193570162457323e-19
-6.902643132801915e-03  7.099508382740664e-06 -3.193267744026494e-19
-6.905815091177246e-03  1.588276372463090e-06 -3.192688643012292e-19
-6.902704432776428e-03 -6.563942384615252e-06 -3.191373841406836e-19
-6.895952645201672e-03 -5.167869268225387e-06 -3.190062181372855e-19
-6.895990434374568e-03  4.633558334483455e-06 -3.189903545801558e-19
-6.903805187307508e-03  6.657804044031096e-06 -3.190357830558448e-19
-6.907351724653932e-03 -3.494064397558327e-06 -3.189827560698979e-19
-6.899818897873116e-03 -1.061765296660048e-05 -3.188095979871059e-19
-6.893471321240288e-03 -1.644768370346535e-07 -3.187236376416945e-19
-6.899692023868433e-03  1.032345492710841e-05 -3.187869641795790e-19
-6.907229187813700e-03  3.423455789790746e-06 -3.187867705448318e-19
-6.903896029092743e-03 -6.683070071394210e-06 -3.186417754861963e-19
-6.896072221627617e-03 -5.040222565866236e-06 -3.185000916484407e-19
-6.895742898241091e-03  4.757731982010456e-06 -3.184850244253779e-19
-6.902499507288310e-03  6.550196273620759e-06 -3.185178650047072e-19
-6.905848241484044e-03 -1.672284723829900e-06 -3.184684487529579e-19
-6.902605508130754e-03 -7.487390290343118e-06 -3.183633129587167e-19
-6.898679221474985e-03 -5.385865823543640e-06 -3.182961305847150e-19
-6.897531235565052e-03 -1.231794433472561e-08 -3.182675374040321e-19
-6.898763106667149e-03  5.142994838964836e-06 -3.182440024143418e-19
-6.902471732322479e-03  7.102112640716321e-06 -3.182271720894209e-19
-6.905629360419586e-03  1.595242528846328e-06 -3.181832995668140e-19
-6.902496600179249e-03 -6.585629748442303e-06 -3.180658009821270e-19
-6.895699885360275e-03 -5.181293941081117e-06 -3.179477389810090e-19
-6.895737964038187e-03  4.678200749393278e-06 -3.179452281740004e-19
-6.903632496695529e-03  6.702635557392773e-06 -3.180055790018569e-19
-6.907057470601966e-03 -3.666811740600917e-06 -3.179648125965810e-19
-6.898845608949640e-03 -1.082661178299964e-05 -3.177955064576638e-19
-6.892355757770038e-03  9.012111143276632e-07 -3.177225858751661e-19
-6.899504727772422e-03  1.138561325444327e-05 -3.178071803303604e-19
-6.908287615817270e-03  3.372102063976416e-06 -3.178338644849980e-19
-6.904940637659534e-03 -9.402639859042509e-06 -3.177011644206396e-19
-6.893337767868501e-03 -9.332910156629308e-06 -3.175242624286319e-19
-6.892051356527791e-03  8.361744567321660e-06 -3.175418945635811e-19
-6.903938108653295e-03  1.177318796264786e-05 -3.176573389887606e-19
-6.907181574655033e-03 -4.284627655732885e-06 -3.175802092608092e-19
-6.900036027698124e-03 -8.502729221873736e-06 -3.174442703777257e-19
-6.896396995279649e-03 -4.166950020335911e-06 -3.174101091053920e-19
-6.894686044701615e-03 -7.311415707770870e-07 -3.173789386222750e-19
-6.897064799598397e-03  7.912539755071105e-06 -3.173944445947818e-19
-6.904683541383348e-03  7.628392340215934e-06 -3.174433279481933e-19
-6.902402851410713e-03 -6.563667773105275e-06 -3.173296675379879e-19
-6.892607421908632e-03 -6.710969439937610e-06 -3.171840676191783e-19
-6.891906939627343e-03  3.411864191929200e-06 -3.171999168063629e-19
-6.893330965713313e-03  4.947347499555195e-06 -3.171692972955385e-19
-6.871551509226863e-03 -1.924958079408613e-06 -3.167280061847067e-19
-6.749149191542411e-03 -3.866861336821204e-05 -3.143883471342904e-19
-6.967556880114152e-03  3.423807200462465e-04 -3.182932256865588e-19
-7.757239763292339e-03  9.428989185456560e-05 -3.300309283192126e-19
-6.611769035144202e-03 -1.735851883466439e-03 -3.026253463597532e-19
-5.006104111446989e-03 -2.108632931787790e-05 -2.928819201267099e-19
-6.170562736981895e-03  3.394119828488194e-03 -2.935480394527047e-19
-9.983951457611540e-03 -6.538287412377169e-05 -3.551893587496114e-19
-5.534462365067013e-03 -4.042483028737363e-03 -2.393696741874048e-19
-3.756365026813679e-03  6.821651159393179e-05 -2.789266991116962e-19
-5.788928727830697e-03  3.524735097601455e-03 -2.846058601668363e-19
-9.007876762587536e-03  1.552186432671444e-04 -3.441908132792418e-19
-7.528508963984572e-03 -1.875224467153784e-03 -3.049776723336886e-19
-5.767001666816090e-03 -1.438361096206730e-03 -2.944362797191080e-19
-4.908462089376077e-03  2.205541536781476e-04 -2.921131765640093e-19
-6.292585868931578e-03  3.439665468650918e-03 -2.963265386109477e-19
-1.000476861358986e-02 -6.516168538499280e-05 -3.553597719042317e-19
-5.535410813859398e-03 -4.045917256560149e-03 -2.392168814465475e-19
-3.743176177163252e-03  6.154390727223040e-05 -2.786712606761776e-19
-5.752512394436515e-03  3.505645381761909e-03 -2.835229822717679e-19
-8.880134019235897e-03  1.412177286469293e-04 -3.416417210543015e-19
-7.829768592895204e-03 -1.533894907026479e-03 -3.120971514078338e-19
-6.503341149723787e-03 -1.822270513750357e-03 -3.007606597543052e-19
-4.187721176989736e-03 -9.719642377823793e-04 -2.821836844615611e-19
-4.611126082604701e-03  3.546226016908720e-03 -2.477282710921857e-19
-1.024133207108717e-02  3.807148057311515e-03 -3.756010278133521e-19
-7.188449210597248e-03 -6.407135797222017e-03 -2.160692189572520e-19
-1.631964812389917e-03 -1.371110244516609e-03 -2.286193642194573e-19
-2.764509147566846e-03  3.600093675457791e-03 -1.695717664525081e-19
-1.052614637964661e-02  3.623700400616126e-03 -3.835157955935215e-19
-6.653055013335438e-03 -5.206938169689443e-03 -2.290249834920276e-19
-2.983160056979212e-03 -8.281453316799173e-04 -2.615795857366939e-19
-4.749603311273300e-03  3.848675644170419e-03 -2.484351006961491e-19
-1.052837704303102e-02  1.159839546071036e-04 -3.657386443344652e-19
-5.604759016979120e-03 -4.248450251310078e-03 -2.356576701603067e-19
-3.732755244944757e-03  8.581289930103742e-05 -2.778047791554135e-19
-5.849998364521338e-03  3.583116406854839e-03 -2.851159753695578e-19
-8.953905729468636e-03 -9.681757556284553e-05 -3.418391059834643e-19
-6.667483745865148e-03 -1.868922466702596e-03 -2.921177941132840e-19
-5.960116093447472e-03  9.458969188208366e-05 -3.028096446439484e-19
-6.791769533495835e-03  3.331345505204202e-04 -3.167865851505139e-19
-7.041247461993880e-03 -3.771676632150273e-05 -3.185034290127227e-19
-6.926954252934271e-03 -8.697703958281385e-06 -3.166073564592732e-19
-6.898816812853001e-03 -8.980131758138154e-06 -3.161655654379396e-19
-6.892593864111058e-03  2.436840966430728e-06 -3.161249771786925e-19
-6.903366609215607e-03  1.187550115976917e-05 -3.162776694725102e-19
-6.907473069136456e-03 -4.000435877358445e-06 -3.162433039783142e-19
-6.895934865606640e-03 -8.257991489105448e-06 -3.160625700771925e-19
-6.893890004409750e-03  4.477369355144398e-06 -3.160810326912115e-19
-6.901675538685090e-03  5.146807550180854e-06 -3.161822416503453e-19
-6.901980924029452e-03 -5.363732275549869e-06 -3.161338709859318e-19
-6.892825360821756e-03 -5.043703767943822e-06 -3.160094663762599e-19
-6.893887317191949e-03  7.186949671064823e-06 -3.160548572745909e-19
-6.903579846137698e-03  5.903883184233947e-06 -3.161583127910659e-19
-6.902462690555748e-03 -4.644587727070778e-06 -3.161138083239333e-19
-6.898580255156099e-03 -8.934630886318824e-06 -3.160323609742284e-19
-6.921273286974226e-03  2.678425501281966e-06 -3.164579732260650e-19
-7.063063749100543e-03  4.026774160393231e-05 -3.191576412972349e-19
-6.928951343911311e-03 -3.057823765820645e-04 -3.165703286403208e-19
-5.948602174550071e-03 -3.315013238798580e-04 -3.018205964119225e-19
-6.170145656421239e-03  1.742775600317542e-03 -3.004497480778397e-19
-8.938719262966367e-03  1.537057306616617e-03 -3.471600353015829e-19
-7.875955121424489e-03 -3.980840454729987e-03 -2.820093268577945e-19
-3.210005423081077e-03 -2.027012452892118e-03 -2.513829754653355e-19
-3.466135393074121e-03  2.892854145643860e-03 -2.156812034722180e-19
-8.320949141865111e-03  4.304211011804445e-03 -3.385909384088074e-19
-9.070405720364893e-03 -3.342856582948242e-03 -2.988003521742780e-19
-4.425580846589497e-03 -2.796892590455210e-03 -2.433325933221198e-19
-4.586359525770590e-03  1.357935076781680e-03 -2.780539980401375e-19
-7.831344295218416e-03  1.637681486356366e-03 -3.381379185307548e-19
-7.176133876327277e-03 -1.444316745152099e-03 -3.118425190780243e-19
-5.252973996558228e-03  1.987208177622694e-04 -2.916818669604370e-19
-6.252843566797062e-03  2.859374752453298e-03 -2.954716512967249e-19
-1.038268073130651e-02  7.363356608978809e-04 -3.633013668372895e-19
-6.729766156586128e-03 -5.695832452295171e-03 -2.302006261376760e-19
-2.477138399782072e-03 -1.661200839588384e-03 -2.541520266024444e-19
-2.999859084291165e-03  2.912599170796398e-03 -1.969627606828740e-19
-6.605618777252096e-03  5.330709257761642e-03 -2.938592649455144e-19
3.750846087037817e-03 4.336538149417927e-03 2.036149180847068e-19
 2.172027682891218e-03 -2.030577398994588e-05  2.743928099120777e-19
9.571691719988836e-03 5.171595294469628e-03 2.745739329383057e-19
 9.480211210020703e-03 -3.687840348166416e-03  3.600859317280634e-19
 4.373054146803339e-03 -3.915016708541684e-03  2.375313692900948e-19
3.733600631430408e-03 3.371479540112886e-04 2.854718365406496e-19
6.218433705012235e-03 3.323820853444851e-03 2.793048896341105e-19
8.871896469248809e-03 4.606015676443769e-04 3.442438260771898e-19
 6.359262701394745e-03 -1.312495964357599e-03  3.086099643032739e-19
5.696258267606621e-03 1.245489446867797e-03 2.869819648907915e-19
8.351125727661434e-03 1.622463727331474e-03 3.192855097150298e-19
 7.648791568359014e-03 -3.700294109287820e-03  3.303629093832146e-19
 3.323727423609462e-03 -2.084295469448299e-03  2.311574613955526e-19
3.235290816260973e-03 2.677010360919248e-03 2.314604700997275e-19
8.727925393665740e-03 4.420940782819171e-03 2.811591455842475e-19
 9.003639937660322e-03 -3.326472091716265e-03  3.530515731927963e-19
 4.658132865548289e-03 -2.918708612048224e-03  2.581129254297694e-19
4.628450250648377e-03 1.298785249949944e-03 2.851718221375179e-19
7.485088619250790e-03 1.850290798738737e-03 3.149843425582027e-19
 7.810560810641482e-03 -5.643509080513625e-04  3.333705643936754e-19
 6.780020613736041e-03 -2.934061063325271e-04  3.165583292575953e-19
6.742547572699108e-03 1.065542020925675e-04 3.155734510839076e-19
 6.907450355097099e-03 -3.734338835900615e-05  3.189401720417895e-19
 6.861552072131840e-03 -4.559559165819373e-05  3.183892612027698e-19
6.877294835786908e-03 6.348211434137597e-05 3.181417086667493e-19
6.933056969582408e-03 8.933841051616077e-06 3.191064684256016e-19
 6.901507629613022e-03 -4.549456598387242e-05  3.188710769360085e-19
6.879809193143763e-03 7.422483242818481e-06 3.183868303070101e-19
6.903365914361679e-03 1.492483156599209e-05 3.187003482983789e-19
 6.906094262628299e-03 -6.487811467503300e-06  3.188105227038892e-19
6.898190694566457e-03 7.508355735158427e-07 3.186619237649065e-19
6.902280775774474e-03 3.757414439759311e-06 3.187136832280438e-19
 6.902371416589920e-03 -4.601923323293752e-06  3.187594387000210e-19
 6.899310033391073e-03 -3.275336511177510e-07  3.187101508247667e-19
6.903693354482854e-03 2.953118637133116e-06 3.187731621917021e-19
 6.903111913510234e-03 -5.780389836224534e-06  3.188152547469104e-19
6.898761590379656e-03 3.786749497300348e-07 3.187443266848820e-19
6.903330588574158e-03 5.862872752605946e-06 3.187938860671924e-19
 6.903739380852167e-03 -2.867445306166127e-06  3.188413570260299e-19
6.899929109085296e-03 1.214716362051929e-06 3.187766085475040e-19
6.903730133475527e-03 4.474533260644185e-06 3.188270952526534e-19
 6.903198696019219e-03 -4.631820656666242e-06  3.188723827838818e-19
 6.898142887251892e-03 -7.370304557555051e-07  3.187981858481073e-19
6.903453598819193e-03 6.494819971579942e-06 3.188546519111001e-19
 6.908761407837139e-03 -3.678804959407466e-06  3.189957358460557e-19
 6.901839334200182e-03 -1.030649006260034e-05  3.189648068569231e-19
6.895918085806507e-03 2.261626303431074e-07 3.188680289723907e-19
6.902082646752815e-03 1.046132578161481e-05 3.189150233174717e-19
6.908785410272835e-03 3.616954218559259e-06 3.190339052100367e-19
 6.903412786499760e-03 -6.065728885750314e-06  3.190097836423394e-19
6.898581052967638e-03 1.320925242344407e-06 3.189319338734513e-19
6.903771061194108e-03 4.533847441076135e-06 3.190122584363671e-19
 6.903904935096739e-03 -4.603415762947218e-06  3.190731329732036e-19
 6.900177165933324e-03 -6.878919229294660e-07  3.190274201253732e-19
6.904408663772113e-03 3.333445388372682e-06 3.190970842623089e-19
 6.903986486423363e-03 -5.778768347870875e-06  3.191577284075653e-19
6.899466575933891e-03 2.297073757684002e-08 3.190944109336528e-19
6.903836440686215e-03 5.876030396892532e-06 3.191511311530821e-19
 6.904300166809626e-03 -2.857625306381275e-06  3.192108536891074e-19
6.900473265090443e-03 1.235337382045527e-06 3.191562864531304e-19
6.904231814783409e-03 4.475818338511358e-06 3.192165951906373e-19
 6.903634468663303e-03 -4.645449412617796e-06  3.192717472801845e-19
 6.898524191163554e-03 -7.223382890907776e-07  3.192069235584643e-19
6.903814405889797e-03 6.524308280333021e-06 3.192730012014844e-19
 6.909101447999012e-03 -3.671229407648019e-06  3.194245333979023e-19
 6.902139233857092e-03 -1.031867666348871e-05  3.194036679209800e-19
6.896176449438972e-03 2.225564875143446e-07 3.193160569539400e-19
6.902319009260241e-03 1.047851440044821e-05 3.193724144236947e-19
6.909014967614296e-03 3.638921047786314e-06 3.195016128549504e-19
 6.903631210382495e-03 -6.060026905210403e-06  3.194879251661100e-19
6.898772792473705e-03 1.309426989816249e-06 3.194196880995813e-19
6.903936467498562e-03 4.533668070779495e-06 3.195096603738339e-19
 6.904062466834095e-03 -4.588857952517789e-06  3.195809472645835e-19
 6.900326974351992e-03 -6.809362508850137e-07  3.195451304877574e-19
6.904545494570459e-03 3.342745940653456e-06 3.196245869486752e-19
 6.904116721730914e-03 -5.770932975239626e-06  3.196958066919508e-19
6.899582161705458e-03 1.808338621582014e-08 3.196422915732969e-19
6.903939389717175e-03 5.884388200040947e-06 3.197088251904194e-19
 6.904405086301687e-03 -2.847291701823825e-06  3.197792847191718e-19
6.900564471868343e-03 1.226944269125071e-06 3.197347391701763e-19
6.904306381368339e-03 4.487293020820279e-06 3.198049271177299e-19
 6.903718987986850e-03 -4.621806008499973e-06  3.198709745520110e-19
 6.898606123999181e-03 -7.290363276942886e-07  3.198164606461086e-19
6.903874344972201e-03 6.519888212254952e-06 3.198923293921299e-19
 6.909161082719165e-03 -3.655537973393601e-06  3.200547949462637e-19
 6.902202834843483e-03 -1.031622588959246e-05  3.200449090277265e-19
6.896227831169734e-03 2.207664916841651e-07 3.199671863273610e-19
6.902366478822339e-03 1.049062118045563e-05 3.200335127684820e-19
6.909065496799226e-03 3.646081571126018e-06 3.201738361016924e-19
 6.903672080174704e-03 -6.061283441394090e-06  3.201712828460167e-19
6.898805085075651e-03 1.320335584833343e-06 3.201132131354908e-19
6.903974134969344e-03 4.549893931841512e-06 3.202138433047025e-19
 6.904100583808919e-03 -4.587043919591328e-06  3.202965750769359e-19
 6.900357179927179e-03 -6.821174632253643e-07  3.202713724272250e-19
6.904576496812811e-03 3.346638015320114e-06 3.203616201378101e-19
 6.904147548886929e-03 -5.775829614803951e-06  3.204444733728661e-19
6.899597797290179e-03 1.319201864016278e-08 3.204015760546086e-19
6.903942876939244e-03 5.903425716117981e-06 3.204785899955755e-19
 6.904421972897635e-03 -2.805797976874134e-06  3.205607474302095e-19
6.900606354637391e-03 1.249404411024936e-06 3.205275855066258e-19
6.904338805234057e-03 4.455483973970946e-06 3.206091083846885e-19
 6.903712848748507e-03 -4.652527822831939e-06  3.206866862537352e-19
 6.898599422091266e-03 -7.068494194834334e-07  3.206432649738320e-19
6.903892364157354e-03 6.542842836770392e-06 3.207305667162376e-19
 6.909177700683740e-03 -3.650931884821095e-06  3.209052460085448e-19
 6.902213386641251e-03 -1.030424469943009e-05  3.209073663542366e-19
6.896238300882897e-03 2.239953377789840e-07 3.208408283658660e-19
6.902368844658502e-03 1.048919463474702e-05 3.209183298947454e-19
6.909065050801827e-03 3.656216341707225e-06 3.210709365554347e-19
 6.903676699634668e-03 -6.050621769121835e-06  3.210810682199301e-19
6.898811428183480e-03 1.326131267947098e-06 3.210347087211486e-19
6.903978411439663e-03 4.551430674570477e-06 3.211473628536713e-19
 6.904100394494000e-03 -4.586222482884247e-06  3.212429375533180e-19
 6.900351966112343e-03 -6.759798314207077e-07  3.212298086642187e-19
6.904566904655123e-03 3.359090835716925e-06 3.213321902872493e-19
 6.904140624201278e-03 -5.752503713379771e-06  3.214281275740773e-19
6.899607585424474e-03 3.357536446081365e-08 3.213977240597388e-19
6.903960117716230e-03 5.890342545444480e-06 3.214874486722792e-19
 6.904415286468599e-03 -2.840600671540977e-06  3.215829614486759e-19
6.900573658580124e-03 1.245945622400841e-06 3.215621670942541e-19
6.904318843858305e-03 4.502450057899466e-06 3.216564613015426e-19
 6.903727688338567e-03 -4.610712360659211e-06  3.217482758138521e-19
 6.898615147840329e-03 -7.138601213075345e-07  3.217181032827505e-19
6.903879536266273e-03 6.523153942875578e-06 3.218181383597958e-19
 6.909151920875200e-03 -3.647223509848928e-06  3.220068782365397e-19
 6.902199147050207e-03 -1.028235410305440e-05  3.220231997475834e-19
6.896239076527549e-03 2.392146804511140e-07 3.219700541644557e-19
6.902365260931515e-03 1.048406488406376e-05 3.220608756612450e-19
6.909048885310068e-03 3.655922136651329e-06 3.222279192558473e-19
 6.903662867897456e-03 -6.036940407311824e-06  3.222529570584147e-19
6.898802596647384e-03 1.335102125215866e-06 3.222205921373733e-19
6.903967214648526e-03 4.559083026975779e-06 3.223475395479174e-19
 6.904090007071889e-03 -4.575580718316485e-06  3.224584307454426e-19
 6.900342520879332e-03 -6.716337641043350e-07  3.224599512301636e-19
6.904551634395390e-03 3.361612645361879e-06 3.225770138836293e-19
 6.904124027467557e-03 -5.740990731983050e-06  3.226887187807286e-19
6.899597906689662e-03 4.704422377220480e-08 3.226733628482766e-19
6.903950243163880e-03 5.891976416757452e-06 3.227782844126770e-19
 6.904396000294975e-03 -2.838498532323943e-06  3.228899719684497e-19
6.900556455611775e-03 1.263209216593847e-06 3.228847304642688e-19
6.904311162389600e-03 4.513429440298589e-06 3.229950438737869e-19
 6.903712986845834e-03 -4.613909220372747e-06  3.231037059105436e-19
 6.898591111095363e-03 -7.046561082956198e-07  3.230895605887699e-19
6.903865105452729e-03 6.544034679004803e-06 3.232058435930410e-19
 6.909146303308367e-03 -3.641578411096069e-06  3.234123062116760e-19
 6.902182319113806e-03 -1.028984671640310e-05  3.234460968488249e-19
6.896211136571643e-03 2.468309903962870e-07 3.234093382917198e-19
6.902347275602448e-03 1.050870423408649e-05 3.235171002412951e-19
6.909041979109136e-03 3.667012760865037e-06 3.237025250823271e-19
 6.903646962141923e-03 -6.040634683023100e-06  3.237461006930115e-19
6.898778271799167e-03 1.342881628632733e-06 3.237313730471080e-19
6.903948594056291e-03 4.573741254505719e-06 3.238766476470563e-19
 6.904074838865823e-03 -4.567419521939155e-06  3.240069134112205e-19
 6.900325344049978e-03 -6.645153241112564e-07  3.240271710178531e-19
6.904533102531061e-03 3.368406859307990e-06 3.241632399940902e-19
 6.904102509789302e-03 -5.734006777778505e-06  3.242950057955762e-19
6.899576770398898e-03 6.109159782407083e-08 3.242990948140824e-19
6.903935399094526e-03 5.905754348235321e-06 3.244238860411404e-19
 6.904379549746821e-03 -2.836509609395717e-06  3.245565420960389e-19
6.900530682891033e-03 1.267389566022562e-06 3.245716614945979e-19
6.904289107540863e-03 4.532369863708455e-06 3.247028407904361e-19
 6.903700414694991e-03 -4.602983844341099e-06  3.248335362635457e-19
 6.898570836968676e-03 -7.072630056124029e-07  3.248408303584542e-19
6.903837374897899e-03 6.555534404997329e-06 3.249786100383337e-19
 6.909127440015229e-03 -3.622428823015546e-06  3.252081348581348e-19
 6.902166261895477e-03 -1.028392168635651e-05  3.252651568594242e-19
6.896187573040971e-03 2.521706230172482e-07 3.252508467261352e-19
6.902324099735216e-03 1.052229560898169e-05 3.253815594281442e-19
6.909023277014852e-03 3.677434367125125e-06 3.255913380863961e-19
 6.903625225140057e-03 -6.035209056576073e-06  3.256597559864048e-19
6.898753592488207e-03 1.354063976231167e-06 3.256693024387662e-19
6.903928310341736e-03 4.588298683581747e-06 3.258396774800331e-19
 6.904055316163300e-03 -4.560518022043833e-06  3.259960267898207e-19
 6.900299806057452e-03 -6.575219311511802e-07  3.260420948882724e-19
6.904507799988077e-03 3.384034542754482e-06 3.262044883094576e-19
 6.904083990868359e-03 -5.719351802118486e-06  3.263637520130381e-19
6.899558582210486e-03 6.569808678939184e-08 3.263951745503926e-19
6.903907711333738e-03 5.907377351000575e-06 3.265476561735227e-19
 6.904349357206139e-03 -2.819257098033798e-06  3.267091127502344e-19
6.900513398638127e-03 1.290188739939565e-06 3.267532867685216e-19
6.904273003350820e-03 4.533560876742845e-06 3.269141176645468e-19
 6.903668672601356e-03 -4.601540811068558e-06  3.270751591574911e-19
 6.898541789456254e-03 -6.827308552772337e-07  3.271130497001477e-19
6.903822649959051e-03 6.571722617419745e-06 3.272822624945284e-19
 6.909105987826841e-03 -3.624994585088583e-06  3.275441433340816e-19
 6.902134268876771e-03 -1.027409347795823e-05  3.276338036241360e-19
6.896163997157194e-03 2.735846204975396e-07 3.276526492379730e-19
6.902304392883712e-03 1.052975913979688e-05 3.278172843084031e-19
6.908992846179214e-03 3.684172718047846e-06 3.280618588447599e-19
 6.903599182938412e-03 -6.009913196873630e-06  3.281658667934509e-19
6.898739257367832e-03 1.365952062945341e-06 3.282117481696975e-19
6.903900937566076e-03 4.581820401765928e-06 3.284189994841603e-19
 6.904017664090869e-03 -4.542873676333195e-06  3.286130424968716e-19
 6.900278316892488e-03 -6.283681834189856e-07  3.286977916409950e-19
6.904493236150526e-03 3.389974915565922e-06 3.288998249127566e-19
 6.904055231188519e-03 -5.720297431705969e-06  3.290993144547932e-19
6.899524446119130e-03 8.189236822796124e-08 3.291718260850624e-19
6.903883705947264e-03 5.930020780533308e-06 3.293665703363680e-19
 6.904328614063852e-03 -2.808533839480672e-06  3.295712507558176e-19
6.900484452202954e-03 1.298119730560164e-06 3.296594953282218e-19
6.904244563110846e-03 4.552740581039903e-06 3.298654319008065e-19
 6.903647927065775e-03 -4.586793320111673e-06  3.300727095683584e-19
 6.898514380891695e-03 -6.804219892226703e-07  3.301579702442498e-19
6.903787053325096e-03 6.587840524893162e-06 3.303755506490717e-19
 6.909081393337715e-03 -3.596979147421583e-06  3.306868737729585e-19
 6.902116952482841e-03 -1.026403400067870e-05  3.308271758739009e-19
6.896135511092825e-03 2.747009569138657e-07 3.308983051421315e-19
6.902270442986046e-03 1.054548778602745e-05 3.311165809413053e-19
6.908965808105529e-03 3.705384865656287e-06 3.314156834511032e-19
 6.903573509611134e-03 -5.994928512086886e-06  3.315752412025811e-19
6.898711038604542e-03 1.383001648143324e-06 3.316789566905958e-19
6.903876100705304e-03 4.599891737184888e-06 3.319452323250695e-19
 6.903992743190802e-03 -4.533794784023097e-06  3.321992143073691e-19
 6.900245594904485e-03 -6.193829433486998e-07  3.323459922378862e-19
6.904460961676189e-03 3.412458396360212e-06 3.326122450337556e-19
 6.904032728356634e-03 -5.697849740743407e-06  3.328760938027109e-19
6.899500295634197e-03 8.995487900541763e-08 3.330164130125402e-19
6.903849195774098e-03 5.941640005843183e-06 3.332801056398966e-19
 6.904297619509286e-03 -2.781885281751968e-06  3.335546908821170e-19
6.900462829945462e-03 1.317903536232065e-06 3.337158716943002e-19
6.904216366592619e-03 4.559463659421862e-06 3.339970087452638e-19
 6.903611920794949e-03 -4.568354820066180e-06  3.342795982339578e-19
 6.898488299857928e-03 -6.520166005389956e-07  3.344442280386368e-19
6.903766072207392e-03 6.599252004642653e-06 3.347450651972139e-19
 6.909047296711122e-03 -3.590545108983881e-06  3.351369131497558e-19
 6.902080822190497e-03 -1.023615054271419e-05  3.353619841260002e-19
6.896111876360494e-03 3.024767044315688e-07 3.355222248856572e-19
6.902245131654604e-03 1.055681715584975e-05 3.358348494783691e-19
6.908933015537986e-03 3.723009529693994e-06 3.362281161313919e-19
 6.903544975054646e-03 -5.971513328325137e-06  3.364783326583002e-19
6.898683055139853e-03 1.398216955394485e-06 3.366859887922995e-19
6.903842159297850e-03 4.618965170386768e-06 3.370596847734929e-19
 6.903962293045075e-03 -4.504686184465910e-06  3.373994017837690e-19
 6.900223301911797e-03 -5.957129740187990e-07  3.376572789134113e-19
6.904433279068456e-03 3.422387722246587e-06 3.380348875913111e-19
 6.903993409202814e-03 -5.679689773512994e-06  3.384227803191256e-19
6.899469074033378e-03 1.281147559497935e-07 3.387119923130241e-19
6.903831672237454e-03 5.966414465726425e-06 3.390294987160325e-19
 6.904267857345875e-03 -2.776981516951807e-06  3.395411352229081e-19
6.900420078411225e-03 1.343886226760575e-06 3.398770849809816e-19
6.904189497653730e-03 4.603356159618264e-06 3.400563276613694e-19
 6.903595460468724e-03 -4.548582795345420e-06  3.405373904807865e-19
 6.898454216475267e-03 -6.437971657024499e-07  3.410329390617107e-19
6.903726576752923e-03 6.635383437369478e-06 3.400646129827828e-19
 6.909026614357629e-03 -3.550545338350977e-06  3.448908959298950e-19
 6.902057998634178e-03 -1.022290635929672e-05  3.538196424570978e-19
6.896076253602192e-03 3.272446462676512e-07 3.574579078236119e-19
6.902222582267618e-03 1.060671199706816e-05 3.155349767333457e-19
6.908919707349657e-03 3.757071425249533e-06 6.915681893537713e-20
 6.903522688964385e-03 -5.945424553824063e-06  5.486487132051372e-19
6.898654623785726e-03 1.451144335291715e-06 6.253933552892050e-19
 6.903798533128421e-03  4.687907423209210e-06 -1.123275522542983e-19
 6.903559237663727e-03 -4.554816195837010e-06  4.441819830976099e-19
 6.898451804353546e-03 -6.387212554517941e-07  4.087830581151274e-19
6.903720643859922e-03 6.634977557023709e-06 3.801526459159010e-19
 6.909009705361264e-03 -3.536309351653057e-06  3.575943007271814e-19
 6.902053169198939e-03 -1.019672970198946e-05  3.477508036545416e-19
6.896069550958236e-03 3.397696716402286e-07 3.462676644182986e-19
6.902198543460874e-03 1.061183318919704e-05 3.498967366835871e-19
6.908895428195460e-03 3.775491337415041e-06 3.498439496928892e-19
 6.903501604167355e-03 -5.927048616340303e-06  3.504692782798327e-19
6.898635365206914e-03 1.457817558129832e-06 3.508870358075361e-19
6.903808801066167e-03 4.687047503956583e-06 3.516724328526358e-19
 6.903932895299975e-03 -4.454225946244897e-06  3.523389898385327e-19
 6.900182007863808e-03 -5.441480962887738e-07  3.530748170635313e-19
6.904392345430715e-03 3.498471594400012e-06 3.538487784504807e-19
 6.903966532171959e-03 -5.603715508493067e-06  3.546994644081840e-19
6.899436022791048e-03 1.956488480747859e-07 3.554128232979592e-19
6.903752609227650e-03 6.042369915620774e-06 3.563029808837559e-19
 6.903947297244406e-03 -2.705870885978938e-06  3.571758532343912e-19
6.899176469828200e-03 1.344679673283461e-06 3.579799042838449e-19
6.904355113085034e-03 7.290165690652846e-06 3.589496796221385e-19
 6.907384354979775e-03 -4.486496321521030e-06  3.599835214729680e-19
 6.898460808060603e-03 -8.446509337942986e-06  3.608630708913950e-19
6.898334280780031e-03 6.710912686303658e-06 3.618477507348291e-19
6.908742315092629e-03 4.791275874061646e-06 3.630438795334122e-19
 6.904823857404811e-03 -1.019386959488845e-05  3.641566762138816e-19
6.896411866292617e-03 4.620111687470445e-08 3.651930151166253e-19
6.904704722322677e-03 1.076467094238435e-05 3.664133504050237e-19
 6.908569550768400e-03 -4.246988820213973e-06  3.677536180227280e-19
 6.897701477632270e-03 -5.916525503083993e-06  3.688408172210708e-19
6.898837164957305e-03 1.072971228853390e-05 3.701349865115325e-19
6.909553639613413e-03 4.887240187649314e-06 3.715822843297032e-19
 6.903988266093352e-03 -1.081621401534600e-05  3.729740766286360e-19
 6.895084794649860e-03 -4.922802295187156e-07  3.743429254475639e-19
6.902892586374644e-03 9.827078561672619e-06 3.759550201337119e-19
 6.908480983800556e-03 -2.888242161392405e-06  3.777802888239742e-19
 6.903259619298364e-03 -6.001255154491212e-06  3.794555417381931e-19
 6.900277873875687e-03 -1.621749101368544e-06  3.809426239753646e-19
6.898710930292219e-03 1.159473942170952e-06 3.827187933884947e-19
6.900742130313606e-03 9.122914177723068e-06 3.845968369553160e-19
6.907022178886701e-03 6.081302189956253e-06 3.866141434353952e-19
 6.907198689304057e-03 -4.209797521474051e-06  3.886576293353209e-19
 6.901059962840200e-03 -8.043242385161690e-06  3.907232580516335e-19
 6.898040551181912e-03 -1.148256795164316e-06  3.929277091183844e-19
6.901903729208256e-03 4.407175412965331e-06 3.953122941458900e-19
6.904574029966234e-03 1.418177141597624e-06 3.977723256039226e-19
6.904271350132444e-03 6.185742536133584e-07 4.003005692196002e-19
6.905072040346548e-03 1.127013218441955e-07 4.029784551038290e-19
 6.902703951457388e-03 -4.032042043193466e-06  4.057380417856101e-19
6.898339708331425e-03 6.430963103021303e-07 4.086059849623000e-19
6.903267368530870e-03 9.843345888969692e-06 4.117492243459694e-19
 6.906746098112052e-03 -9.001284499030118e-07  4.149780813826515e-19
 6.898613943508046e-03 -4.224760443493860e-06  4.182221586246727e-19
6.901421714695204e-03 9.416546558473945e-06 4.218429995220657e-19
 6.910345689793069e-03 -1.269930770739108e-06  4.256747837314507e-19
 6.901079700437145e-03 -1.421932230953296e-05  4.294363039392218e-19
6.892901444696096e-03 3.110802041772180e-06 4.335294616876406e-19
6.905841570296002e-03 1.522501593111000e-05 4.381055862261233e-19
 6.910590492305237e-03 -5.165230348166188e-06  4.426545382809031e-19
 6.896574013465484e-03 -7.864707092694410e-06  4.472756767465612e-19
6.898975158288449e-03 1.302411467249802e-05 4.525334486537297e-19
6.910404545558641e-03 1.843286844786593e-06 4.580244023520668e-19
 6.903550145633642e-03 -1.082331107208710e-05  4.635531201190895e-19
6.897214677999593e-03 8.778788276920591e-07 4.696039662958395e-19
6.902221546216353e-03 5.408959434225818e-06 4.761111607657717e-19
6.904655428905486e-03 1.768546853606024e-06 4.828901013620560e-19
6.903973958213463e-03 9.968067422258984e-07 4.900592157294322e-19
 6.903498080771800e-03 -1.344594515846531e-07  4.976844145892078e-19
 6.901145535526110e-03 -1.359068493035250e-06  5.057608929928632e-19
6.901093057162915e-03 3.738045549984630e-06 5.144536174325909e-19
6.907616488218097e-03 5.095126616873951e-06 5.237660105426406e-19
 6.905413475967151e-03 -8.236875777128766e-06  5.333775280459740e-19
 6.892533946107756e-03 -3.683853149430951e-06  5.437154146409029e-19
6.900097499598351e-03 2.062125984430245e-05 5.553452159862340e-19
6.917177318925414e-03 5.054101745857334e-06 5.672877872046238e-19
 6.903957866042006e-03 -2.130712037274097e-05  5.794416345528939e-19
6.888922032104621e-03 1.297816856432575e-06 5.933574819153742e-19
6.903745461513352e-03 1.870714815906219e-05 6.086213152476184e-19
 6.913162630468431e-03 -2.027371520519853e-06  6.241148447640092e-19
 6.900658678788247e-03 -9.537772953098764e-06  6.407466485049529e-19
6.896581316491558e-03 6.651832466959894e-06 6.593736147667973e-19
6.905563524986091e-03 8.665126577641271e-06 6.792826981356102e-19
 6.906422040058939e-03 -1.607224841259245e-06  7.003040032336225e-19
 6.901352262609729e-03 -3.001696456894855e-07  7.232896505694724e-19
6.901851502768537e-03 4.013984804781638e-06 7.483659164987584e-19
6.903384936655544e-03 2.429825886064571e-06 7.753669636553221e-19
6.902448565244941e-03 2.573553066763690e-06 8.047113509468606e-19
6.903907950721240e-03 4.632434668318810e-06 8.367364872510273e-19
6.904928817807599e-03 1.236202556483580e-06 8.713961047550813e-19
 6.901102444007786e-03 -4.269219269297012e-07  9.092160941847553e-19
6.900516106644022e-03 7.181657715892173e-06 9.510521848818294e-19
6.906280694112046e-03 8.119477185736408e-06 9.966216912307673e-19
 6.906126332745015e-03 -7.231151157249736e-07  1.045975095327593e-18
6.900575093645563e-03 8.813808047639344e-07 1.100751831189429e-18
6.902553174567081e-03 8.771986927237433e-06 1.161601910062017e-18
6.911836973434730e-03 8.273951200710078e-06 1.228299194245265e-18
 6.908293927452985e-03 -7.429950162379618e-06  1.300715509470873e-18
 6.877837044448637e-03 -7.910809724186016e-06  1.381692609032510e-18
6.880149101292487e-03 5.430039363509445e-05 1.477499968377092e-18
6.946380424653701e-03 5.659277101131304e-05 1.579676309744927e-18
 6.945770571147238e-03 -6.677241225421540e-05  1.680222908212813e-18
 6.863386071704754e-03 -6.258996523344297e-05  1.804665059896824e-18
6.858906564671730e-03 5.540222273016359e-05 1.958892705181761e-18
6.907997029135435e-03 5.909222047934299e-05 2.118696294589133e-18
6.933104633374544e-03 4.243997412988836e-05 2.295569464034041e-18
6.955654305464609e-03 2.425718893027524e-06 2.492056692105371e-18
 6.897677864368396e-03 -9.030983607075057e-05  2.704840639541044e-18
6.812482087422035e-03 8.450355358552853e-06 2.978416969683117e-18
6.881163059303929e-03 1.619912471925008e-04 3.300645288678097e-18
6.991039357624696e-03 6.554317649947581e-05 3.621902230231447e-18
 6.939523058147950e-03 -8.453375186757792e-05  3.976219078948364e-18
 6.844071535131242e-03 -3.222387338708805e-05  4.426732266046364e-18
6.859487273258668e-03 8.093431250195951e-05 4.959278505009935e-18
6.917037755516129e-03 8.289331183837907e-05 5.543613209541746e-18
6.915805690283177e-03 4.190454185660443e-05 6.205882079144613e-18
6.879016331196945e-03 4.509342174195227e-05 6.981840686291663e-18
6.859726266120421e-03 7.501918844863352e-05 7.883951604654235e-18
6.870971320141105e-03 1.143675675299239e-04 8.924204625629151e-18
6.878960316779069e-03 8.935522882480878e-05 1.010488576023022e-17
6.876021332565265e-03 9.095533359285295e-05 1.146948743768637e-17
7.038689036998414e-03 1.851286707000946e-04 1.304268809483805e-17
 6.944218215437319e-03 -2.491614364978571e-04  1.476601875466314e-17
 6.015034246380846e-03 -2.058660070897071e-04  1.682469610819691e-17
4.787735192590186e-03 6.303691251555771e-04 1.896492437773140e-17
4.739409584738113e-03 1.940780232221493e-03 1.884476226897967e-17
7.100188296113843e-03 2.946359294878033e-03 1.874412238139495e-17
 9.361825384972667e-03 -2.251431860117743e-03  2.801247459237307e-17
 5.461684261899906e-03 -7.450336236990846e-03  7.089790271262294e-18
-1.154167992833196e-04 -3.410606708552678e-03 -5.606123362750821e-17
5.417710639408459e-03 3.178917298875597e-03 4.141821261389899e-17
5.635779951406957e-03 3.489478779631777e-03 6.188350724025900e-17
5.019018051606946e-03 6.558886170440834e-03 1.355098917433165e-16
8.328236534572415e-03 4.161245145482286e-03 1.331909916197947e-16
4.055458884255272e-03 4.447390481855297e-04 3.627447298430104e-17
 4.739829586627729e-03  4.391882737365835e-03 -5.468905299847263e-17
 3.007071000741108e-03 -9.422445421086766e-03 -1.632478116872766e-15
 2.729452233440371e-03 -1.764822638494267e-03  7.198898108673666e-15
2.365436813386472e-03 3.134493432306539e-03 1.907568120236869e-16
-7.044216140983052e-04  4.554683889966386e-04  6.654477366143170e-15
 7.056807393195483e-03 -3.079572726928170e-03 -1.017677071121882e-15
 3.442736325415756e-03 -1.723758452660079e-03 -3.880148515582185e-17
 1.947681930392873e-03 -3.692869207447353e-04  1.260492967573147e-16
4.097239684292342e-03 1.237565500875747e-03 1.317698944415471e-16
 5.805142877943901e-03 -5.235997527074367e-04  8.519266612982630e-17
9.359858965198939e-03 9.162405252701079e-04 6.562526917505178e-17
-4.856536063158307e-04 -9.743523763323436e-03  4.550962504256694e-19
 3.261506182593570e-03 -2.969944675984664e-03  4.504731982631019e-17
3.023888036057701e-03 4.225975304123588e-03 6.743279427854579e-18
1.065149469722694e-02 1.340518462351010e-03 2.573730993017749e-17
 7.696080346371800e-03 -5.118469425750019e-04  2.314769346004864e-17
 6.507010461384421e-03 -2.284114309902658e-05  1.866209674584718e-17
 6.502744534545728e-03 -6.527483375119309e-04  1.596546962991025e-17
 6.240060771065888e-03 -8.534771267049854e-04  1.342089079618607e-17
 6.248261105395023e-03 -4.102108915767988e-04  1.092613081706513e-17
 6.599499869854383e-03 -1.106375857383673e-04  8.991251001268724e-18
 6.820708814285172e-03 -2.159970511644127e-04  7.674969035073932e-18
 6.833571957636613e-03 -1.969386874179895e-04  6.533368468868705e-18
 6.855655557963317e-03 -1.530155532161087e-04  5.591111828993696e-18
 6.870929327223950e-03 -1.338139643982810e-04  4.828098238870015e-18
 6.879159678615188e-03 -9.497118381002594e-05  4.193187221871006e-18
 6.899803332490269e-03 -5.890580368207883e-05  3.669042953566900e-18
 6.917672818958867e-03 -5.626297166766552e-05  3.240316728388023e-18
 6.914082901231523e-03 -6.108498386215746e-05  2.881301198427959e-18
 6.906359493374097e-03 -4.472821682512849e-05  2.574433907752363e-18
 6.911100708147889e-03 -2.851351304438777e-05  2.314673501085172e-18
 6.916293926731941e-03 -2.845032774246377e-05  2.095377610726196e-18
 6.913102419872838e-03 -2.878455148166451e-05  1.907131256131650e-18
 6.909971077487205e-03 -2.195575662808165e-05  1.744178529134654e-18
 6.912083435910679e-03 -1.672531905140580e-05  1.603359560617391e-18
 6.912906929607782e-03 -1.867740000736242e-05  1.481370314289133e-18
 6.908243500122343e-03 -1.851640607898956e-05  1.374503437088507e-18
 6.907003897416782e-03 -9.415284953816199e-06  1.280291484961582e-18
 6.912138660491353e-03 -7.312057371860233e-06  1.197778058284898e-18
 6.911523053950735e-03 -1.498489671263117e-05  1.125103927530466e-18
 6.905719610418003e-03 -1.263688388907355e-05  1.060086527662136e-18
 6.905823572186594e-03 -5.172059707973183e-06  1.002096986755526e-18
 6.908497371613269e-03 -5.563536623916592e-06  9.505423479454883e-19
 6.909218743407124e-03 -6.224116382696534e-06  9.042791882888851e-19
 6.909189380142754e-03 -8.093771620711977e-06  8.626792173928195e-19
 6.904326725830710e-03 -1.105296598511261e-05  8.250880324724062e-19
 6.900854641247396e-03 -1.574834253233055e-06  7.908658072845466e-19
6.909510622982429e-03 5.589165821005039e-06 7.600429326889570e-19
 6.914790355731461e-03 -8.608457790442842e-06  7.322904495062551e-19
 6.902852502628714e-03 -1.813588303442403e-05  7.066627222967593e-19
6.894781535011356e-03 1.719059395000967e-07 6.829681809304668e-19
6.907899992075986e-03 1.306652469206119e-05 6.616223433780173e-19
 6.917164500870408e-03 -5.330576613739310e-06  6.422904225823005e-19
 6.903521831183399e-03 -1.914542965272774e-05  6.241510147128946e-19
 6.894025495631351e-03 -4.438820945531557e-08  6.072291251669835e-19
6.907037974052282e-03 1.248875850806162e-05 5.919599794312850e-19
 6.914156724913472e-03 -5.892374986199831e-06  5.779691007429462e-19
 6.902455950223959e-03 -1.299541464189473e-05  5.646833829481433e-19
6.898519504326250e-03 2.349212229617748e-06 5.523350357031707e-19
6.906959622280081e-03 4.723417856576040e-06 5.410904911355080e-19
 6.907982734505678e-03 -4.762003501189542e-06  5.305799822957252e-19
 6.902713839130728e-03 -4.101697982637429e-06  5.206527141274773e-19
6.902599238700896e-03 8.733601697733769e-07 5.114371464355788e-19
6.906160828098561e-03 8.149429767075641e-07 5.028933837441693e-19
 6.906379409492642e-03 -3.770190576078047e-06  4.948747080614562e-19
 6.902016289745069e-03 -4.659088617532152e-06  4.872835573782237e-19
6.901613441900370e-03 2.731221631691624e-06 4.801753539583909e-19
6.907252310815885e-03 3.384552414766646e-06 4.736030443349708e-19
 6.906952243614603e-03 -5.512571061886093e-06  4.673837440772668e-19
 6.901326560642120e-03 -4.117757668613021e-06  4.614240584138636e-19
6.902168378689887e-03 3.035614842300379e-06 4.558698540189390e-19
6.905812629284895e-03 1.120072711698919e-06 4.506924772098077e-19
 6.904871271307348e-03 -2.182234229525091e-06  4.457465618023265e-19
 6.903735648811591e-03 -7.615842861838251e-07  4.410552151049348e-19
 6.904669912254979e-03 -6.558333855727325e-07  4.366582611000029e-19
 6.904354950121937e-03 -2.447048147280934e-06  4.324819304627490e-19
 6.903434577078720e-03 -7.767780131531651e-07  4.285024431697497e-19
6.904531307730886e-03 9.330201951882171e-07 4.247530987940943e-19
 6.902788129417377e-03 -1.785081076672318e-06  4.211628718516042e-19
6.899998914388037e-03 2.756819564460825e-06 4.176986689506291e-19
6.906495520864545e-03 8.372787953700857e-06 4.145256755242372e-19
 6.911879451800744e-03 -4.804777017578973e-06  4.115813575898434e-19
 6.902216578141764e-03 -1.479577793486629e-05  4.085822780038910e-19
 6.893660366649452e-03 -3.944976599074264e-07  4.056476825174594e-19
6.902953136042717e-03 1.414693678756641e-05 4.030557221235235e-19
6.911470107916705e-03 1.860186187957492e-06 4.006533033647581e-19
 6.902798419755019e-03 -8.654130589025667e-06  3.981356526073946e-19
6.899991319496157e-03 4.141084511818304e-06 3.957391860893664e-19
6.907531663789089e-03 8.249789237933247e-07 3.936517790626690e-19
 6.904297070728419e-03 -9.098369282417731e-06  3.915325700379715e-19
 6.899419451663197e-03 -1.531740385865058e-07  3.894162435426100e-19
6.903534419635374e-03 4.373200258650137e-06 3.875112421825695e-19
6.906206009638756e-03 7.585642712643679e-07 3.856872148842085e-19
 6.906421695958544e-03 -3.352896276210892e-07  3.839046185298566e-19
 6.905539518946539e-03 -3.633904757886872e-06  3.822019506395154e-19
 6.899817331571155e-03 -4.488784983973943e-06  3.804870257579651e-19
6.899133283936750e-03 7.307634110799936e-06 3.788372061788088e-19
6.908647877010566e-03 9.195291423593200e-06 3.774202244617958e-19
 6.909562748794016e-03 -6.679662628214300e-06  3.760289386128359e-19
 6.899028436563204e-03 -8.370316856009656e-06  3.744954473124928e-19
6.897589779068010e-03 5.022965333207080e-06 3.730742363209710e-19
6.906088808569565e-03 6.707364362045301e-06 3.718704039973296e-19
 6.907170862391418e-03 -3.839023497880193e-06  3.706615107853943e-19
 6.902594039193410e-03 -3.576126275348376e-06  3.696166184160634e-19
6.903972826045151e-03 4.437344626196084e-07 3.682353153943532e-19
 6.902650105263191e-03 -4.712911730875423e-06  3.671199070974440e-19
6.899369420090474e-03 2.823610382028525e-06 3.659473568548964e-19
6.904833982729816e-03 8.276954328133106e-06 3.649314885564992e-19
 6.906761029099397e-03 -1.848828265444575e-06  3.639692410316696e-19
 6.903330164945687e-03 -2.143517181263491e-06  3.629397524903145e-19
 6.904064020162183e-03 -1.522929488143979e-06  3.620113064862550e-19
 6.904466347025210e-03 -3.958135132008160e-06  3.611262706119083e-19
 6.902862709380126e-03 -2.501718988878673e-06  3.602233788020308e-19
6.900734202136982e-03 1.167038283558225e-07 3.593211979784163e-19
6.903243891403971e-03 7.751533811365658e-06 3.584716590194605e-19
6.908518867114633e-03 3.633288618801390e-06 3.577382395777387e-19
 6.904090522884766e-03 -6.124973185843541e-06  3.569306057723012e-19
6.899473650959884e-03 1.182920309271893e-06 3.560768894553679e-19
6.904632360626463e-03 4.409117062552078e-06 3.553995737946284e-19
 6.904758240511737e-03 -4.645264805521181e-06  3.547263745803170e-19
 6.901054769285508e-03 -7.436591368946379e-07  3.539656231505427e-19
6.905255852878256e-03 3.233890352492027e-06 3.533390801954520e-19
 6.904795861809475e-03 -5.855159779370865e-06  3.527248751125421e-19
 6.900261859884892e-03 -4.036414993372010e-08  3.520018569865453e-19
6.904620713740308e-03 5.818144185984753e-06 3.514159360994326e-19
 6.905082975554993e-03 -2.906558738528619e-06  3.508534395090340e-19
6.901242541592933e-03 1.157481576399311e-06 3.501893592455256e-19
6.904963541552860e-03 4.406385643538803e-06 3.496550696889550e-19
 6.904367030699322e-03 -4.669297064710183e-06  3.491342503139978e-19
 6.899274003422160e-03 -7.699532986122761e-07  3.485044078704777e-19
6.904532953732495e-03 6.444431996930840e-06 3.480172778127990e-19
 6.909790404199256e-03 -3.715240324371802e-06  3.476337975819716e-19
 6.902843250519282e-03 -1.033908297688541e-05  3.470902698981521e-19
6.896893551573535e-03 1.755153897011088e-07 3.464866752711227e-19
6.903010717732216e-03 1.041390803099183e-05 3.460378789397669e-19
6.909679531181305e-03 3.604903915452530e-06 3.456787869186441e-19
 6.904318499634385e-03 -6.063827399618335e-06  3.451894289568457e-19
6.899469048075644e-03 1.273146989800870e-06 3.446501765343277e-19
6.904563280939868e-03 4.489765174844222e-06 3.442795612290538e-19
 6.904316029092460e-03 -4.674193002649032e-06  3.438997354770330e-19
 6.899263643285376e-03 -7.566473802208837e-07  3.433992017362505e-19
6.904525642178684e-03 6.436119464078436e-06 3.430365464970692e-19
 6.909761226493105e-03 -3.720538618546446e-06  3.427744961790726e-19
 6.902819972828070e-03 -1.031570110259120e-05  3.423479960135209e-19
6.896880526975247e-03 1.932429903644039e-07 3.418561735465501e-19
6.902984758759846e-03 1.040679371605870e-05 3.415151852218019e-19
6.909642604275072e-03 3.606456811752855e-06 3.412613474805039e-19
 6.904285186883480e-03 -6.049777115161037e-06  3.408740396833233e-19
6.899445778838741e-03 1.269059209861101e-06 3.404322485995281e-19
6.904564546825061e-03 4.466252771317749e-06 3.401561183111222e-19
 6.904675105685623e-03 -4.593718468471135e-06  3.398731874158629e-19
 6.900972966692403e-03 -6.848652134606926e-07  3.394847866860600e-19
6.905179486067013e-03 3.288173003314522e-06 3.392172242087765e-19
 6.904721910163603e-03 -5.799890048004840e-06  3.389524542425888e-19
6.900198342834211e-03 9.648435374739781e-09 3.385627934064205e-19
6.904556978162004e-03 5.851856314093088e-06 3.382985088233667e-19
 6.905012165485958e-03 -2.872219168391309e-06  3.380495696548272e-19
6.901173328984734e-03 1.201619997673526e-06 3.376854345061316e-19
6.904902253744329e-03 4.449031011383189e-06 3.374411196243746e-19
 6.904307955760542e-03 -4.634169287581902e-06  3.372027783335337e-19
 6.899213828394276e-03 -7.380138083600529e-07  3.368433410752625e-19
6.904473968230197e-03 6.474196907222914e-06 3.366170959361804e-19
 6.909730827288588e-03 -3.688619458962953e-06  3.364887388051441e-19
 6.902783917104917e-03 -1.030910782411984e-05  3.361912530926680e-19
6.896834387674636e-03 2.044677622385171e-07 3.358231044348398e-19
6.902949271384254e-03 1.043459621675085e-05 3.356023270400601e-19
6.909620241864741e-03 3.623311167582549e-06 3.354662246308648e-19
 6.904254307426031e-03 -6.051210877401468e-06  3.351929285626437e-19
6.899404079636632e-03 1.282177345641957e-06 3.348607696290684e-19
6.904535973956898e-03 4.493192297165628e-06 3.346915713668033e-19
 6.904653428668733e-03 -4.588835648811890e-06  3.345129770117657e-19
 6.900937952767396e-03 -6.846104940889772e-07  3.342250640996439e-19
6.905146383192450e-03 3.308478477039870e-06 3.340552328121251e-19
 6.904699439698832e-03 -5.789500958942276e-06  3.338859955526425e-19
6.900167348647204e-03 8.423191990160235e-09 3.335885317551017e-19
6.904522746716872e-03 5.868236433549785e-06 3.334138506596537e-19
 6.904990746264070e-03 -2.856288746450686e-06  3.332525333750839e-19
6.901150365398890e-03 1.197958389629194e-06 3.329733377137668e-19
6.904867587181612e-03 4.450871754675654e-06 3.328114262158413e-19
 6.904277096731287e-03 -4.617176127043359e-06  3.326534473262227e-19
 6.899191764828206e-03 -7.271383920155592e-07  3.323722896037295e-19
6.904449826782205e-03 6.476159378917452e-06 3.322221640168093e-19
 6.909703883945051e-03 -3.683971076216829e-06  3.321677906106563e-19
 6.902756440320483e-03 -1.030588682023317e-05  3.319423653798417e-19
6.896803861304784e-03 2.097854787452148e-07 3.316444948812975e-19
6.902924343744728e-03 1.044960169437696e-05 3.314923241726897e-19
6.909603170724396e-03 3.627363279181072e-06 3.314229730874551e-19
 6.904227315666838e-03 -6.060713186959171e-06  3.312144154514198e-19
6.899369000823124e-03 1.289911399360830e-06 3.309455611772051e-19
6.904513554693844e-03 4.511702618666647e-06 3.308383214175858e-19
 6.904637595821660e-03 -4.588928755057473e-06  3.307198923870396e-19
 6.900911293848826e-03 -6.912466062335395e-07  3.304907217421164e-19
6.905115005952716e-03 3.314523303629745e-06 3.303782240281449e-19
 6.904674849121726e-03 -5.778430448316424e-06  3.302646866076383e-19
6.900148208241189e-03 1.375722253259747e-08 3.300220900575558e-19
6.904500992497469e-03 5.865118071539676e-06 3.299009402576921e-19
 6.904963428578330e-03 -2.857513941756767e-06  3.297912748921321e-19
6.901123645050705e-03 1.203827468954354e-06 3.295630459644917e-19
6.904844658346954e-03 4.456706164613387e-06 3.294509818365039e-19
 6.904256630273337e-03 -4.613262985832843e-06  3.293411598179711e-19
 6.899171471439521e-03 -7.281216607710891e-07  3.291076269638636e-19
6.904424294984657e-03 6.471975753229492e-06 3.290041567051210e-19
 6.909674206114275e-03 -3.679598515405115e-06  3.289945111279509e-19
 6.902734069455178e-03 -1.029242705101085e-05  3.288130804132078e-19
6.896789876969226e-03 2.125315772803250e-07 3.285592287883482e-19
6.902901747270807e-03 1.043687354868895e-05 3.284499870745906e-19
6.909570006620019e-03 3.627407474031913e-06 3.284215672592715e-19
 6.904204603934791e-03 -6.044936061095202e-06  3.282531403586906e-19
6.899356215332474e-03 1.289677950437166e-06 3.280246431883951e-19
6.904489981084966e-03 4.499603592831089e-06 3.279564226421738e-19
 6.904606853479304e-03 -4.585203681163895e-06  3.278753986101710e-19
 6.900889303032009e-03 -6.803866976070518e-07  3.276838641656748e-19
6.905098548595915e-03 3.315656834148838e-06 3.276082779499252e-19
 6.904654568943320e-03 -5.783412158861785e-06  3.275299721384128e-19
6.900122726440668e-03 1.000652902185374e-08 3.273227859895963e-19
6.904474785994400e-03 5.868258979970271e-06 3.272363893745502e-19
 6.904940829368303e-03 -2.851476025140685e-06  3.271599246906668e-19
6.901104275637698e-03 1.206946762200829e-06 3.269650858592586e-19
6.904827378835573e-03 4.455522468124635e-06 3.268857408768848e-19
 6.904235671801189e-03 -4.622513452719083e-06  3.268071435931096e-19
 6.899140770455702e-03 -7.335092865326401e-07  3.266049618939489e-19
6.904395501675690e-03 6.485233191797670e-06 3.265325756260843e-19
 6.909660814426879e-03 -3.666387817995675e-06  3.265524787850679e-19
 6.902723630075968e-03 -1.030247251201481e-05  3.264002504905043e-19
6.896762917469707e-03 1.938265377257217e-07 3.261759856249196e-19
6.902865620370690e-03 1.043947541887145e-05 3.260957717699404e-19
6.909548356463041e-03 3.647176521794475e-06 3.260949404423768e-19
 6.904195811023284e-03 -6.042714225497081e-06  3.259535079773885e-19
6.899334891122492e-03 1.272652431130647e-06 3.257524794188788e-19
6.904457739224213e-03 4.499024330530074e-06 3.257108326289868e-19
 6.904587043797390e-03 -4.573069363554820e-06  3.256553360858168e-19
 6.900874301314036e-03 -6.881788713978322e-07  3.254898913544394e-19
6.905069118767626e-03 3.306591521912993e-06 3.254396537579357e-19
 6.904626883202252e-03 -5.769979139472147e-06  3.253853557209915e-19
6.900108991106599e-03 1.573259163765350e-08 3.252032303389855e-19
6.904456495405358e-03 5.855289892371524e-06 3.251413345430081e-19
 6.904913651793718e-03 -2.856067024105800e-06  3.250876792273128e-19
6.901080276919035e-03 1.209067984665181e-06 3.249164497288500e-19
6.904803354112629e-03 4.454367444018440e-06 3.248602863946563e-19
 6.904209970132815e-03 -4.617708933404773e-06  3.248034222546899e-19
 6.899120741101054e-03 -7.267000539872376e-07  3.246238012822141e-19
6.904379947994530e-03 6.481713549698714e-06 3.245739544871383e-19
 6.909638228286872e-03 -3.680177495975620e-06  3.246145867083575e-19
 6.902690207839554e-03 -1.030882417386166e-05  3.244828814999053e-19
6.896734937269061e-03 2.077858991318296e-07 3.242803281752957e-19
6.902851620436252e-03 1.044668486038109e-05 3.242217594285821e-19
6.909527252527256e-03 3.633228117409404e-06 3.242406936581601e-19
 6.904163884511690e-03 -6.043387235760092e-06  3.241183280878175e-19
6.899313959754657e-03 1.281579986982811e-06 3.239377481818862e-19
6.904438026569667e-03 4.487394255631361e-06 3.239159819962232e-19
 6.904554315377893e-03 -4.579110864622259e-06  3.238787870849511e-19
 6.900847607564761e-03 -6.754253514126882e-07  3.237326142814052e-19
6.905051909974080e-03 3.305576513770822e-06 3.237015894648200e-19
 6.904601380753527e-03 -5.780227669326084e-06  3.236649707312422e-19
6.900079570766236e-03 1.736545028262892e-08 3.235014610264731e-19
6.904431360431732e-03 5.856213712796155e-06 3.234581042309532e-19
 6.904886466354379e-03 -2.858382913845367e-06  3.234215131571079e-19
6.901053128488364e-03 1.212732519566579e-06 3.232681294908185e-19
6.904778537118888e-03 4.452682245366584e-06 3.232296195787846e-19
 6.904182460743332e-03 -4.621220654542456e-06  3.231891478201949e-19
 6.899095486249470e-03 -7.262523201151045e-07  3.230267968736523e-19
6.904352483241417e-03 6.472179033791873e-06 3.229942983582669e-19
 6.909601114953885e-03 -3.683044998514782e-06  3.230504866623863e-19
 6.902659133663449e-03 -1.029358819352404e-05  3.229345898750685e-19
6.896715526233091e-03 2.107374772184914e-07 3.227492211102005e-19
6.902826096968830e-03 1.043295779558059e-05 3.227074521953716e-19
6.909490856876531e-03 3.624514712532022e-06 3.227415383081512e-19
 6.904126461390473e-03 -6.041569276647634e-06  3.226339974251051e-19
6.899283767555700e-03 1.290354291366430e-06 3.224695325051392e-19
6.904412484631628e-03 4.487083359526894e-06 3.224634139906343e-19
 6.904517334247289e-03 -4.590335110958417e-06  3.224405498314184e-19
 6.900805011057930e-03 -6.677690034766572e-07  3.223095037567378e-19
6.905026754218053e-03 3.318008954659516e-06 3.222938484731414e-19
 6.904577515197381e-03 -5.799770994738255e-06  3.222714231266709e-19
 6.900032803760089e-03 -2.833695393960408e-09  3.221226430587501e-19
6.904381052477172e-03 5.868203950546070e-06 3.220939788494210e-19
 6.904853148425278e-03 -2.841501411793661e-06  3.220711708530826e-19
6.901024097783742e-03 1.210762027359468e-06 3.219323616736460e-19
6.904739713985320e-03 4.442860565522534e-06 3.219080093716352e-19
 6.904133191979489e-03 -4.628749199799122e-06  3.218806315901495e-19
 6.899043715794250e-03 -7.215734064579713e-07  3.217322426965047e-19
6.904319427896985e-03 6.488524215673948e-06 3.217141304525129e-19
 6.909576367713002e-03 -3.703276949424974e-06  3.217834290021630e-19
 6.902597796236970e-03 -1.033183830065425e-05  3.216800832958311e-19
6.896639765241978e-03 2.344702589412256e-07 3.215083155570759e-19
6.902781196746672e-03 1.047171412768800e-05 3.214807898787504e-19
6.909454844603471e-03 3.625050785861511e-06 3.215276518436283e-19
 6.904081350247198e-03 -6.050775104985521e-06  3.214323160893310e-19
6.899226299184619e-03 1.260754791347046e-06 3.212812775743963e-19
6.904335011960617e-03 4.470129618521684e-06 3.212879329918853e-19
 6.904453298093028e-03 -4.565785567942174e-06  3.212771551271324e-19
 6.900758536973075e-03 -6.689360050390529e-07  3.211593208904889e-19
6.904957087758053e-03 3.299833770103825e-06 3.211561978305856e-19
 6.904497410159817e-03 -5.784542795726849e-06  3.211452416294195e-19
6.899969564192683e-03 1.303169163283309e-08 3.210094109241303e-19
6.904317745896551e-03 5.858085187488605e-06 3.209935242435801e-19
 6.904772374774274e-03 -2.861040819835090e-06  3.209821523343297e-19
6.900929798815456e-03 1.206601258734522e-06 3.208554858224494e-19
6.904651837057706e-03 4.456333842422315e-06 3.208434355079628e-19
 6.904043527306207e-03 -4.628260717756031e-06  3.208273972772842e-19
 6.898866482188371e-03 -7.627475298799848e-07  3.206898441086110e-19
6.904183365045576e-03 6.643421317698077e-06 3.206832127651888e-19
 6.910024356423296e-03 -3.438591955540516e-06  3.207720224044864e-19
 6.902953381997558e-03 -1.133925142664273e-05  3.206869546666585e-19
 6.895117235480580e-03 -9.243102403568197e-07  3.205028530434811e-19
6.901326412413482e-03 1.306161518475646e-05 3.204672149602634e-19
6.911498827635957e-03 6.303814906679586e-06 3.205683211627677e-19
 6.905947690112962e-03 -9.601912917615262e-06  3.205107977047019e-19
 6.896915299630013e-03 -1.877632938279565e-06  3.203193692909829e-19
6.902262779007890e-03 7.171965647576334e-06 3.203185161386984e-19
 6.905640168603549e-03 -2.355001330650623e-06  3.203613090266465e-19
 6.901716037757969e-03 -1.833363128993183e-06  3.202616150127125e-19
6.904146752146083e-03 2.626054343652066e-06 3.202436078179826e-19
 6.903962027833855e-03 -5.211904793891564e-06  3.202430362277223e-19
6.900323117183693e-03 1.754931779768904e-07 3.201335261585829e-19
6.903974213525276e-03 5.099264745969459e-06 3.201272146185181e-19
 6.902787145978000e-03 -3.618668443399424e-06  3.201056244676609e-19
6.900778870190838e-03 4.077210260900994e-06 3.199942360697312e-19
6.910227266251407e-03 4.308301239644688e-06 3.200857670806982e-19
 6.906094540851593e-03 -1.315267913611255e-05  3.200822047916501e-19
 6.894589846831061e-03 -6.656770971566419e-07  3.198449705768027e-19
6.908359771285876e-03 1.539450850048334e-05 3.199162694613567e-19
 6.938904563496615e-03 -6.891882601281387e-07  3.204294320065379e-19
7.037758631132909e-03 2.272655399188269e-05 3.220971697011874e-19
 6.793890207137045e-03 -3.164772413240215e-04  3.203120250175494e-19
 5.986129578994154e-03 -8.285383846100142e-05  3.066191335521264e-19
6.684875801349925e-03 1.849713309417508e-03 2.957663613393832e-19
8.941450373966856e-03 9.581289969313169e-05 3.451044853860251e-19
 5.890446564350542e-03 -3.558578898215552e-03  2.894660412303958e-19
 3.837428193763205e-03 -7.311251400993419e-05  2.827986854732484e-19
5.609548586392103e-03 4.062476150169925e-03 2.431444874376045e-19
 9.803242927881749e-03 -2.150677539782830e-04  3.575499502161580e-19
 5.543946323476651e-03 -2.972721950332700e-03  2.818144243235832e-19
5.618950480794010e-03 1.718940098214807e-03 2.863043379792467e-19
 8.742100136178248e-03 -1.921793136646070e-04  3.511872935830842e-19
 4.044811789875726e-03 -2.666782042618437e-03  2.440246541309900e-19
3.491899340931211e-03 2.792821704901115e-03 2.253454719486214e-19
9.793391663664740e-03 4.466232940222067e-03 2.975582458631458e-19
 6.823338087233313e-03 -6.025205809216892e-03  3.021436635103642e-19
 2.254026041768142e-03 -1.436653640307816e-03  2.061896800908495e-19
3.234488111101199e-03 3.756631862493544e-03 1.974460327862412e-19
1.047110053202241e-02 1.398570456545307e-03 3.521776228813843e-19
 7.163595820067285e-03 -3.198705168672726e-03  3.175592680575036e-19
 6.474310316322491e-03 -4.232108712425039e-04  3.144308670898976e-19
 5.708291923240886e-03 -1.573955491486934e-03  3.032997342567481e-19
5.274489973433156e-03 1.401157701698410e-03 2.922587627790013e-19
8.060958941114495e-03 3.575196908311064e-03 2.932533136367955e-19
 7.132415769600337e-03 -3.505231675704813e-03  3.185753857390067e-19
 4.193820935264115e-03 -2.633533073817699e-04  2.785889673582375e-19
5.934270141695792e-03 3.719352536940576e-03 2.489149901836954e-19
 9.481425771895197e-03 -1.750218110441805e-03  3.602416874323922e-19
 5.890919296648878e-03 -3.524710461812189e-03  2.890946614523914e-19
 5.025592484672232e-03 -2.003154855067125e-04  3.024892302844792e-19
5.422801282783266e-03 1.250453097911885e-03 3.003625680634238e-19
6.974060779861602e-03 3.472499969904354e-03 2.747792266774193e-19
 9.381526448501779e-03 -1.292220125121892e-04  3.483012726305908e-19
 6.080209438311206e-03 -3.146725671277896e-03  2.943339633483441e-19
5.055216486754209e-03 4.577328542979858e-06 2.957201474060169e-19
6.617880453654348e-03 1.710429466051540e-03 3.049117623134060e-19
 7.740510476100432e-03 -9.785701291658038e-05  3.316937409816988e-19
 6.965570188662645e-03 -3.342477546408994e-04  3.200737468775622e-19
6.754636287465106e-03 3.756428549478866e-05 3.162739705579336e-19
 6.873817203762471e-03 -3.038883066015986e-06  3.185183603603675e-19
 6.887590585161620e-03 -3.947165502312418e-06  3.187890193307267e-19
6.888284485880925e-03 5.461844342193978e-06 3.187604208684500e-19
6.901890740624659e-03 1.354691999779329e-05 3.188817954201715e-19
 6.908710677895133e-03 -9.893782237807531e-06  3.189992760262895e-19
 6.866868685899061e-03 -2.537002140692982e-05  3.185009317879765e-19
 6.712353538494882e-03 -3.605866152390800e-05  3.159973561439516e-19
6.792735222823379e-03 3.044569338021709e-04 3.143768950761403e-19
7.734006740885991e-03 5.217989796659305e-04 3.266970133475378e-19
 7.383617921359417e-03 -1.784635930310019e-03  3.312046738719612e-19
 4.467698571610220e-03 -1.255234060406865e-03  2.791542016661317e-19
4.466099147650724e-03 2.797806807341706e-03 2.466596388400142e-19
9.079814386542822e-03 3.299203455123752e-03 3.022453491605457e-19
 8.331457169252550e-03 -4.265881135995881e-03  3.412683846644358e-19
 3.515409475414134e-03 -2.896925636707344e-03  2.197657222094859e-19
3.258624206633354e-03 2.027341377099576e-03 2.549694715030428e-19
7.844604091617574e-03 3.905344062486936e-03 2.857621501214054e-19
 8.679441225692150e-03 -1.505026780067194e-03  3.452796458460760e-19
 5.856287912770296e-03 -1.364652769025341e-03  2.972362246486644e-19
6.322302383623306e-03 1.125193510384165e-03 2.994012662708817e-19
 8.546847314995632e-03 -4.252458274789535e-04  3.459930903808051e-19
 6.175512440895313e-03 -3.208881350263369e-03  3.014284651579951e-19
 3.356637224743330e-03 -3.046745834296398e-04  2.759847882502438e-19
4.131585851970016e-03 3.710592491722680e-03 2.152722179787065e-19
9.617743032617155e-03 3.683314955835548e-03 2.977764893457726e-19
 8.716321082413070e-03 -4.699075771493670e-03  3.474336160030913e-19
 4.057052465780967e-03 -4.647535991554660e-03  2.191317587354393e-19

VECTORS velocity double
0.000000000000000e+00 0.000000000000000e+00 0.000000000000000e+00
0.000000000000000e+00 0.000000000000000e+00 0.000000000000000e+00
0.000000000000000e+00 0.000000000000000e+00 0.000000000000000e+00
0.000000000000000e+00 0.000000000000000e+00 0.000000000000000e+00
0.000000000000000e+00 0.000000000000000e+00 0.000000000000000e+00
0.000000000000000e+00 0.000000000000000e+00 0.000000000000000e+00
0.000000000000000e+00 0.000000000000000e+00 0.000000000000000e+00
0.000000000000000e+00 0.000000000000000e+00 0.000000000000000e+00
0.000000000000000e+00 0.000000000000000e+00 0.000000000000000e+00
0.000000000000000e+00 0.000000000000000e+00 0.000000000000000e+00
0.000000000000000e+00 0.000000000000000e+00 0.000000000000000e+00
0.000000000000000e+00 0.000000000000000e+00 0.000000000000000e+00
0.000000000000000e+00 0.000000000000000e+00 0.000000000000000e+00
0.000000000000000e+00 0.000000000000000e+00 0.000000000000000e+00
0.000000000000000e+00 0.000000000000000e+00 0.000000000000000e+00
0.000000000000000e+00 0.000000000000000e+00 0.000000000000000e+00
0.000000000000000e+00 0.000000000000000e+00 0.000000000000000e+00
0.000000000000000e+00 0.000000000000000e+00 0.000000000000000e+00
0.000000000000000e+00 0.000000000000000e+00 0.000000000000000e+00
0.000000000000000e+00 0.000000000000000e+00 0.000000000000000e+00
0.000000000000000e+00 0.000000000000000e+00 0.000000000000000e+00
0.000000000000000e+00 0.000000000000000e+00 0.000000000000000e+00
0.000000000000000e+00 0.000000000000000e+00 0.000000000000000e+00
0.000000000000000e+00 0.000000000000000e+00 0.000000000000000e+00
0.000000000000000e+00 0.000000000000000e+00 0.000000000000000e+00
0.000000000000000e+00 0.000000000000000e+00 0.000000000000000e+00
0.000000000000000e+00 0.000000000000000e+00 0.000000000000000e+00
0.000000000000000e+00 0.000000000000000e+00 0.000000000000000e+00
0.000000000000000e+00 0.000000000000000e+00 0.000000000000000e+00
0.000000000000000e+00 0.000000000000000e+00 0.000000000000000e+00
0.000000000000000e+00 0.000000000000000e+00 0.000000000000000e+00
0.000000000000000e+00 0.000000000000000e+00 0.000000000000000e+00
0.000000000000000e+00 0.000000000000000e+00 0.000000000000000e+00
0.000000000000000e+00 0.000000000000000e+00 0.000000000000000e+00
0.000000000000000e+00 0.000000000000000e+00 0.000000000000000e+00
0.000000000000000e+00 0.000000000000000e+00 0.000000000000000e+00
0.000000000000000e+00 0.000000000000000e+00 0.000000000000000e+00
0.000000000000000e+00 0.000000000000000e+00 0.000000000000000e+00
0.000000000000000e+00 0.000000000000000e+00 0.000000000000000e+00
0.000000000000000e+00 0.000000000000000e+00 0.000000000000000e+00
0.000000000000000e+00 0.000000000000000e+00 0.000000000000000e+00
0.000000000000000e+00 0.000000000000000e+00 0.000000000000000e+00
0.000000000000000e+00 0.000000000000000e+00 0.000000000000000e+00
0.000000000000000e+00 0.000000000000000e+00 0.000000000000000e+00
0.000000000000000e+00 0.000000000000000e+00 0.000000000000000e+00
0.000000000000000e+00 0.000000000000000e+00 0.000000000000000e+00
0.000000000000000e+00 0.000000000000000e+00 0.000000000000000e+00
0.000000000000000e+00 0.000000000000000e+00 0.000000000000000e+00
0.000000000000000e+00 0.000000000000000e+00 0.000000000000000e+00
0.000000000000000e+00 0.000000000000000e+00 0.000000000000000e+00
0.000000000000000e+00 0.000000000000000e+00 0.000000000000000e+00
0.000000000000000e+00 0.000000000000000e+00 0.000000000000000e+00
0.000000000000000e+00 0.000000000000000e+00 0.000000000000000e+00
0.000000000000000e+00 0.000000000000000e+00 0.000000000000000e+00
0.000000000000000e+00 0.000000000000000e+00 0.000000000000000e+00
0.000000000000000e+00 0.000000000000000e+00 0.000000000000000e+00
0.000000000000000e+00 0.000000000000000e+00 0.000000000000000e+00
0.000000000000000e+00 0.000000000000000e+00 0.000000000000000e+00
0.000000000000000e+00 0.000000000000000e+00 0.000000000000000e+00
0.000000000000000e+00 0.000000000000000e+00 0.000000000000000e+00
0.000000000000000e+00 0.000000000000000e+00 0.000000000000000e+00
0.000000000000000e+00 0.000000000000000e+00 0.000000000000000e+00
0.000000000000000e+00 0.000000000000000e+00 0.000000000000000e+00
0.000000000000000e+00 0.000000000000000e+00 0.000000000000000e+00
0.000000000000000e+00 0.000000000000000e+00 0.000000000000000e+00
0.000000000000000e+00 0.000000000000000e+00 0.000000000000000e+00
0.000000000000000e+00 0.000000000000000e+00 0.000000000000000e+00
0.000000000000000e+00 0.000000000000000e+00 0.000000000000000e+00
0.000000000000000e+00 0.000000000000000e+00 0.000000000000000e+00
0.000000000000000e+00 0.000000000000000e+00 0.000000000000000e+00
0.000000000000000e+00 0.000000000000000e+00 0.000000000000000e+00
0.000000000000000e+00 0.000000000000000e+00 0.000000000000000e+00
0.000000000000000e+00 0.000000000000000e+00 0.000000000000000e+00
0.000000000000000e+00 0.000000000000000e+00 0.000000000000000e+00
0.000000000000000e+00 0.000000000000000e+00 0.000000000000000e+00
0.000000000000000e+00 0.000000000000000e+00 0.000000000000000e+00
0.000000000000000e+00 0.000000000000000e+00 0.000000000000000e+00
0.000000000000000e+00 0.000000000000000e+00 0.000000000000000e+00
0.000000000000000e+00 0.000000000000000e+00 0.000000000000000e+00
0.000000000000000e+00 0.000000000000000e+00 0.000000000000000e+00
0.000000000000000e+00 0.000000000000000e+00 0.000000000000000e+00
0.000000000000000e+00 0.000000000000000e+00 0.000000000000000e+00
0.000000000000000e+00 0.000000000000000e+00 0.000000000000000e+00
0.000000000000000e+00 0.000000000000000e+00 0.000000000000000e+00
0.000000000000000e+00 0.000000000000000e+00 0.000000000000000e+00
0.000000000000000e+00 0.000000000000000e+00 0.000000000000000e+00
0.000000000000000e+00 0.000000000000000e+00 0.000000000000000e+00
0.000000000000000e+00 0.000000000000000e+00 0.000000000000000e+00
0.000000000000000e+00 0.000000000000000e+00 0.000000000000000e+00
0.000000000000000e+00 0.000000000000000e+00 0.000000000000000e+00
0.000000000000000e+00 0.000000000000000e+00 0.000000000000000e+00
0.000000000000000e+00 0.000000000000000e+00 0.000000000000000e+00
0.000000000000000e+00 0.000000000000000e+00 0.000000000000000e+00
0.000000000000000e+00 0.000000000000000e+00 0.000000000000000e+00
0.000000000000000e+00 0.000000000000000e+00 0.000000000000000e+00
0.000000000000000e+00 0.000000000000000e+00 0.000000000000000e+00
0.000000000000000e+00 0.000000000000000e+00 0.000000000000000e+00
0.000000000000000e+00 0.000000000000000e+00 0.000000000000000e+00
0.000000000000000e+00 0.000000000000000e+00 0.000000000000000e+00
0.000000000000000e+00 0.000000000000000e+00 0.000000000000000e+00
0.000000000000000e+00 0.000000000000000e+00 0.000000000000000e+00
0.000000000000000e+00 0.000000000000000e+00 0.000000000000000e+00
0.000000000000000e+00 0.000000000000000e+00 0.000000000000000e+00
0.000000000000000e+00 0.000000000000000e+00 0.000000000000000e+00
0.000000000000000e+00 0.000000000000000e+00 0.000000000000000e+00
0.000000000000000e+00 0.000000000000000e+00 0.000000000000000e+00
0.000000000000000e+00 0.000000000000000e+00 0.000000000000000e+00
0.000000000000000e+00 0.000000000000000e+00 0.000000000000000e+00
0.000000000000000e+00 0.000000000000000e+00 0.000000000000000e+00
0.000000000000000e+00 0.000000000000000e+00 0.000000000000000e+00
0.000000000000000e+00 0.000000000000000e+00 0.000000000000000e+00
0.000000000000000e+00 0.000000000000000e+00 0.000000000000000e+00
0.000000000000000e+00 0.000000000000000e+00 0.000000000000000e+00
0.000000000000000e+00 0.000000000000000e+00 0.000000000000000e+00
0.000000000000000e+00 0.000000000000000e+00 0.000000000000000e+00
0.000000000000000e+00 0.000000000000000e+00 0.000000000000000e+00
0.000000000000000e+00 0.000000000000000e+00 0.000000000000000e+00
0.000000000000000e+00 0.000000000000000e+00 0.000000000000000e+00
0.000000000000000e+00 0.000000000000000e+00 0.000000000000000e+00
0.000000000000000e+00 0.000000000000000e+00 0.000000000000000e+00
0.000000000000000e+00 0.000000000000000e+00 0.000000000000000e+00
0.000000000000000e+00 0.000000000000000e+00 0.000000000000000e+00
0.000000000000000e+00 0.000000000000000e+00 0.000000000000000e+00
0.000000000000000e+00 0.000000000000000e+00 0.000000000000000e+00
0.000000000000000e+00 0.000000000000000e+00 0.000000000000000e+00
0.000000000000000e+00 0.000000000000000e+00 0.000000000000000e+00
0.000000000000000e+00 0.000000000000000e+00 0.000000000000000e+00
0.000000000000000e+00 0.000000000000000e+00 0.000000000000000e+00
0.000000000000000e+00 0.000000000000000e+00 0.000000000000000e+00
0.000000000000000e+00 0.000000000000000e+00 0.000000000000000e+00
0.000000000000000e+00 0.000000000000000e+00 0.000000000000000e+00
0.000000000000000e+00 0.000000000000000e+00 0.000000000000000e+00
0.000000000000000e+00 0.000000000000000e+00 0.000000000000000e+00
0.000000000000000e+00 0.000000000000000e+00 0.000000000000000e+00
0.000000000000000e+00 0.000000000000000e+00 0.000000000000000e+00
0.000000000000000e+00 0.000000000000000e+00 0.000000000000000e+00
0.000000000000000e+00 0.000000000000000e+00 0.000000000000000e+00
0.000000000000000e+00 0.000000000000000e+00 0.000000000000000e+00
0.000000000000000e+00 0.000000000000000e+00 0.000000000000000e+00
0.000000000000000e+00 0.000000000000000e+00 0.000000000000000e+00
0.000000000000000e+00 0.000000000000000e+00 0.000000000000000e+00
0.000000000000000e+00 0.000000000000000e+00 0.000000000000000e+00
0.000000000000000e+00 0.000000000000000e+00 0.000000000000000e+00
0.000000000000000e+00 0.000000000000000e+00 0.000000000000000e+00
0.000000000000000e+00 0.000000000000000e+00 0.000000000000000e+00
0.000000000000000e+00 0.000000000000000e+00 0.000000000000000e+00
0.000000000000000e+00 0.000000000000000e+00 0.000000000000000e+00
0.000000000000000e+00 0.000000000000000e+00 0.000000000000000e+00
0.000000000000000e+00 0.000000000000000e+00 0.000000000000000e+00
0.000000000000000e+00 0.000000000000000e+00 0.000000000000000e+00
0.000000000000000e+00 0.000000000000000e+00 0.000000000000000e+00
0.000000000000000e+00 0.000000000000000e+00 0.000000000000000e+00
0.000000000000000e+00 0.000000000000000e+00 0.000000000000000e+00
0.000000000000000e+00 0.000000000000000e+00 0.000000000000000e+00
0.000000000000000e+00 0.000000000000000e+00 0.000000000000000e+00
0.000000000000000e+00 0.000000000000000e+00 0.000000000000000e+00
0.000000000000000e+00 0.000000000000000e+00 0.000000000000000e+00
0.000000000000000e+00 0.000000000000000e+00 0.000000000000000e+00
0.000000000000000e+00 0.000000000000000e+00 0.000000000000000e+00
0.000000000000000e+00 0.000000000000000e+00 0.000000000000000e+00
0.000000000000000e+00 0.000000000000000e+00 0.000000000000000e+00
0.000000000000000e+00 0.000000000000000e+00 0.000000000000000e+00
0.000000000000000e+00 0.000000000000000e+00 0.000000000000000e+00
0.000000000000000e+00 0.000000000000000e+00 0.000000000000000e+00
0.000000000000000e+00 0.000000000000000e+00 0.000000000000000e+00
0.000000000000000e+00 0.000000000000000e+00 0.000000000000000e+00
0.000000000000000e+00 0.000000000000000e+00 0.000000000000000e+00
0.000000000000000e+00 0.000000000000000e+00 0.000000000000000e+00
0.000000000000000e+00 0.000000000000000e+00 0.000000000000000e+00
0.000000000000000e+00 0.000000000000000e+00 0.000000000000000e+00
0.000000000000000e+00 0.000000000000000e+00 0.000000000000000e+00
0.000000000000000e+00 0.000000000000000e+00 0.000000000000000e+00
0.000000000000000e+00 0.000000000000000e+00 0.000000000000000e+00
0.000000000000000e+00 0.000000000000000e+00 0.000000000000000e+00
0.000000000000000e+00 0.000000000000000e+00 0.000000000000000e+00
0.000000000000000e+00 0.000000000000000e+00 0.000000000000000e+00
0.000000000000000e+00 0.000000000000000e+00 0.000000000000000e+00
0.000000000000000e+00 0.000000000000000e+00 0.000000000000000e+00
0.000000000000000e+00 0.000000000000000e+00 0.000000000000000e+00
0.000000000000000e+00 0.000000000000000e+00 0.000000000000000e+00
0.000000000000000e+00 0.000000000000000e+00 0.000000000000000e+00
0.000000000000000e+00 0.000000000000000e+00 0.000000000000000e+00
0.000000000000000e+00 0.000000000000000e+00 0.000000000000000e+00
0.000000000000000e+00 0.000000000000000e+00 0.000000000000000e+00
0.000000000000000e+00 0.000000000000000e+00 0.000000000000000e+00
0.000000000000000e+00 0.000000000000000e+00 0.000000000000000e+00
0.000000000000000e+00 0.000000000000000e+00 0.000000000000000e+00
0.000000000000000e+00 0.000000000000000e+00 0.000000000000000e+00
0.000000000000000e+00 0.000000000000000e+00 0.000000000000000e+00
0.000000000000000e+00 0.000000000000000e+00 0.000000000000000e+00
0.000000000000000e+00 0.000000000000000e+00 0.000000000000000e+00
0.000000000000000e+00 0.000000000000000e+00 0.000000000000000e+00
0.000000000000000e+00 0.000000000000000e+00 0.000000000000000e+00
0.000000000000000e+00 0.000000000000000e+00 0.000000000000000e+00
0.000000000000000e+00 0.000000000000000e+00 0.000000000000000e+00
0.000000000000000e+00 0.000000000000000e+00 0.000000000000000e+00
0.000000000000000e+00 0.000000000000000e+00 0.000000000000000e+00
0.000000000000000e+00 0.000000000000000e+00 0.000000000000000e+00
0.000000000000000e+00 0.000000000000000e+00 0.000000000000000e+00
0.000000000000000e+00 0.000000000000000e+00 0.000000000000000e+00
0.000000000000000e+00 0.000000000000000e+00 0.000000000000000e+00
0.000000000000000e+00 0.000000000000000e+00 0.000000000000000e+00
0.000000000000000e+00 0.000000000000000e+00 0.000000000000000e+00
0.000000000000000e+00 0.000000000000000e+00 0.000000000000000e+00
0.000000000000000e+00 0.000000000000000e+00 0.000000000000000e+00
0.000000000000000e+00 0.000000000000000e+00 0.000000000000000e+00
0.000000000000000e+00 0.000000000000000e+00 0.000000000000000e+00
0.000000000000000e+00 0.000000000000000e+00 0.000000000000000e+00
0.000000000000000e+00 0.000000000000000e+00 0.000000000000000e+00
0.000000000000000e+00 0.000000000000000e+00 0.000000000000000e+00
0.000000000000000e+00 0.000000000000000e+00 0.000000000000000e+00
0.000000000000000e+00 0.000000000000000e+00 0.000000000000000e+00
0.000000000000000e+00 0.000000000000000e+00 0.000000000000000e+00
0.000000000000000e+00 0.000000000000000e+00 0.000000000000000e+00
0.000000000000000e+00 0.000000000000000e+00 0.000000000000000e+00
0.000000000000000e+00 0.000000000000000e+00 0.000000000000000e+00
0.000000000000000e+00 0.000000000000000e+00 0.000000000000000e+00
0.000000000000000e+00 0.000000000000000e+00 0.000000000000000e+00
0.000000000000000e+00 0.000000000000000e+00 0.000000000000000e+00
0.000000000000000e+00 0.000000000000000e+00 0.000000000000000e+00
0.000000000000000e+00 0.000000000000000e+00 0.000000000000000e+00
0.000000000000000e+00 0.000000000000000e+00 0.000000000000000e+00
0.000000000000000e+00 0.000000000000000e+00 0.000000000000000e+00
0.000000000000000e+00 0.000000000000000e+00 0.000000000000000e+00
0.000000000000000e+00 0.000000000000000e+00 0.000000000000000e+00
0.000000000000000e+00 0.000000000000000e+00 0.000000000000000e+00
0.000000000000000e+00 0.000000000000000e+00 0.000000000000000e+00
0.000000000000000e+00 0.000000000000000e+00 0.000000000000000e+00
0.000000000000000e+00 0.000000000000000e+00 0.000000000000000e+00
0.000000000000000e+00 0.000000000000000e+00 0.000000000000000e+00
0.000000000000000e+00 0.000000000000000e+00 0.000000000000000e+00
0.000000000000000e+00 0.000000000000000e+00 0.000000000000000e+00
0.000000000000000e+00 0.000000000000000e+00 0.000000000000000e+00
0.000000000000000e+00 0.000000000000000e+00 0.000000000000000e+00
0.000000000000000e+00 0.000000000000000e+00 0.000000000000000e+00
0.000000000000000e+00 0.000000000000000e+00 0.000000000000000e+00
0.000000000000000e+00 0.000000000000000e+00 0.000000000000000e+00
0.000000000000000e+00 0.000000000000000e+00 0.000000000000000e+00
0.000000000000000e+00 0.000000000000000e+00 0.000000000000000e+00
0.000000000000000e+00 0.000000000000000e+00 0.000000000000000e+00
0.000000000000000e+00 0.000000000000000e+00 0.000000000000000e+00
0.000000000000000e+00 0.000000000000000e+00 0.000000000000000e+00
0.000000000000000e+00 0.000000000000000e+00 0.000000000000000e+00
0.000000000000000e+00 0.000000000000000e+00 0.000000000000000e+00
0.000000000000000e+00 0.000000000000000e+00 0.000000000000000e+00
0.000000000000000e+00 0.000000000000000e+00 0.000000000000000e+00
0.000000000000000e+00 0.000000000000000e+00 0.000000000000000e+00
0.000000000000000e+00 0.000000000000000e+00 0.000000000000000e+00
0.000000000000000e+00 0.000000000000000e+00 0.000000000000000e+00
0.000000000000000e+00 0.000000000000000e+00 0.000000000000000e+00
0.000000000000000e+00 0.000000000000000e+00 0.000000000000000e+00
0.000000000000000e+00 0.000000000000000e+00 0.000000000000000e+00
0.000000000000000e+00 0.000000000000000e+00 0.000000000000000e+00
0.000000000000000e+00 0.000000000000000e+00 0.000000000000000e+00
0.000000000000000e+00 0.000000000000000e+00 0.000000000000000e+00
0.000000000000000e+00 0.000000000000000e+00 0.000000000000000e+00
0.000000000000000e+00 0.000000000000000e+00 0.000000000000000e+00
0.000000000000000e+00 0.000000000000000e+00 0.000000000000000e+00
0.000000000000000e+00 0.000000000000000e+00 0.000000000000000e+00
0.000000000000000e+00 0.000000000000000e+00 0.000000000000000e+00
0.000000000000000e+00 0.000000000000000e+00 0.000000000000000e+00
0.000000000000000e+00 0.000000000000000e+00 0.000000000000000e+00
0.000000000000000e+00 0.000000000000000e+00 0.000000000000000e+00
0.000000000000000e+00 0.000000000000000e+00 0.000000000000000e+00
0.000000000000000e+00 0.000000000000000e+00 0.000000000000000e+00
0.000000000000000e+00 0.000000000000000e+00 0.000000000000000e+00
0.000000000000000e+00 0.000000000000000e+00 0.000000000000000e+00
0.000000000000000e+00 0.000000000000000e+00 0.000000000000000e+00
0.000000000000000e+00 0.000000000000000e+00 0.000000000000000e+00
0.000000000000000e+00 0.000000000000000e+00 0.000000000000000e+00
0.000000000000000e+00 0.000000000000000e+00 0.000000000000000e+00
0.000000000000000e+00 0.000000000000000e+00 0.000000000000000e+00
0.000000000000000e+00 0.000000000000000e+00 0.000000000000000e+00
0.000000000000000e+00 0.000000000000000e+00 0.000000000000000e+00
0.000000000000000e+00 0.000000000000000e+00 0.000000000000000e+00
0.000000000000000e+00 0.000000000000000e+00 0.000000000000000e+00
0.000000000000000e+00 0.000000000000000e+00 0.000000000000000e+00
0.000000000000000e+00 0.000000000000000e+00 0.000000000000000e+00
0.000000000000000e+00 0.000000000000000e+00 0.000000000000000e+00
0.000000000000000e+00 0.000000000000000e+00 0.000000000000000e+00
0.000000000000000e+00 0.000000000000000e+00 0.000000000000000e+00
0.000000000000000e+00 0.000000000000000e+00 0.000000000000000e+00
0.000000000000000e+00 0.000000000000000e+00 0.000000000000000e+00
0.000000000000000e+00 0.000000000000000e+00 0.000000000000000e+00
0.000000000000000e+00 0.000000000000000e+00 0.000000000000000e+00
0.000000000000000e+00 0.000000000000000e+00 0.000000000000000e+00
0.000000000000000e+00 0.000000000000000e+00 0.000000000000000e+00
0.000000000000000e+00 0.000000000000000e+00 0.000000000000000e+00
0.000000000000000e+00 0.000000000000000e+00 0.000000000000000e+00
0.000000000000000e+00 0.000000000000000e+00 0.000000000000000e+00
0.000000000000000e+00 0.000000000000000e+00 0.000000000000000e+00
0.000000000000000e+00 0.000000000000000e+00 0.000000000000000e+00
0.000000000000000e+00 0.000000000000000e+00 0.000000000000000e+00
0.000000000000000e+00 0.000000000000000e+00 0.000000000000000e+00
0.000000000000000e+00 0.000000000000000e+00 0.000000000000000e+00
0.000000000000000e+00 0.000000000000000e+00 0.000000000000000e+00
0.000000000000000e+00 0.000000000000000e+00 0.000000000000000e+00
0.000000000000000e+00 0.000000000000000e+00 0.000000000000000e+00
0.000000000000000e+00 0.000000000000000e+00 0.000000000000000e+00
0.000000000000000e+00 0.000000000000000e+00 0.000000000000000e+00
0.000000000000000e+00 0.000000000000000e+00 0.000000000000000e+00
0.000000000000000e+00 0.000000000000000e+00 0.000000000000000e+00
0.000000000000000e+00 0.000000000000000e+00 0.000000000000000e+00
0.000000000000000e+00 0.000000000000000e+00 0.000000000000000e+00
0.000000000000000e+00 0.000000000000000e+00 0.000000000000000e+00
0.000000000000000e+00 0.000000000000000e+00 0.000000000000000e+00
0.000000000000000e+00 0.000000000000000e+00 0.000000000000000e+00
0.000000000000000e+00 0.000000000000000e+00 0.000000000000000e+00
0.000000000000000e+00 0.000000000000000e+00 0.000000000000000e+00
0.000000000000000e+00 0.000000000000000e+00 0.000000000000000e+00
0.000000000000000e+00 0.000000000000000e+00 0.000000000000000e+00
0.000000000000000e+00 0.000000000000000e+00 0.000000000000000e+00
0.000000000000000e+00 0.000000000000000e+00 0.000000000000000e+00
0.000000000000000e+00 0.000000000000000e+00 0.000000000000000e+00
0.000000000000000e+00 0.000000000000000e+00 0.000000000000000e+00
0.000000000000000e+00 0.000000000000000e+00 0.000000000000000e+00
0.000000000000000e+00 0.000000000000000e+00 0.000000000000000e+00
0.000000000000000e+00 0.000000000000000e+00 0.000000000000000e+00
0.000000000000000e+00 0.000000000000000e+00 0.000000000000000e+00
0.000000000000000e+00 0.000000000000000e+00 0.000000000000000e+00
0.000000000000000e+00 0.000000000000000e+00 0.000000000000000e+00
0.000000000000000e+00 0.000000000000000e+00 0.000000000000000e+00
0.000000000000000e+00 0.000000000000000e+00 0.000000000000000e+00
0.000000000000000e+00 0.000000000000000e+00 0.000000000000000e+00
0.000000000000000e+00 0.000000000000000e+00 0.000000000000000e+00
0.000000000000000e+00 0.000000000000000e+00 0.000000000000000e+00
0.000000000000000e+00 0.000000000000000e+00 0.000000000000000e+00
0.000000000000000e+00 0.000000000000000e+00 0.000000000000000e+00
0.000000000000000e+00 0.000000000000000e+00 0.000000000000000e+00
0.000000000000000e+00 0.000000000000000e+00 0.000000000000000e+00
0.000000000000000e+00 0.000000000000000e+00 0.000000000000000e+00
0.000000000000000e+00 0.000000000000000e+00 0.000000000000000e+00
0.000000000000000e+00 0.000000000000000e+00 0.000000000000000e+00
0.000000000000000e+00 0.000000000000000e+00 0.000000000000000e+00
0.000000000000000e+00 0.000000000000000e+00 0.000000000000000e+00
0.000000000000000e+00 0.000000000000000e+00 0.000000000000000e+00
0.000000000000000e+00 0.000000000000000e+00 0.000000000000000e+00
0.000000000000000e+00 0.000000000000000e+00 0.000000000000000e+00
0.000000000000000e+00 0.000000000000000e+00 0.000000000000000e+00
0.000000000000000e+00 0.000000000000000e+00 0.000000000000000e+00
0.000000000000000e+00 0.000000000000000e+00 0.000000000000000e+00
0.000000000000000e+00 0.000000000000000e+00 0.000000000000000e+00
0.000000000000000e+00 0.000000000000000e+00 0.000000000000000e+00
0.000000000000000e+00 0.000000000000000e+00 0.000000000000000e+00
0.000000000000000e+00 0.000000000000000e+00 0.000000000000000e+00
0.000000000000000e+00 0.000000000000000e+00 0.000000000000000e+00
0.000000000000000e+00 0.000000000000000e+00 0.000000000000000e+00
0.000000000000000e+00 0.000000000000000e+00 0.000000000000000e+00
0.000000000000000e+00 0.000000000000000e+00 0.000000000000000e+00
0.000000000000000e+00 0.000000000000000e+00 0.000000000000000e+00
0.000000000000000e+00 0.000000000000000e+00 0.000000000000000e+00
0.000000000000000e+00 0.000000000000000e+00 0.000000000000000e+00
0.000000000000000e+00 0.000000000000000e+00 0.000000000000000e+00
0.000000000000000e+00 0.000000000000000e+00 0.000000000000000e+00
0.000000000000000e+00 0.000000000000000e+00 0.000000000000000e+00
0.000000000000000e+00 0.000000000000000e+00 0.000000000000000e+00
0.000000000000000e+00 0.000000000000000e+00 0.000000000000000e+00
0.000000000000000e+00 0.000000000000000e+00 0.000000000000000e+00
0.000000000000000e+00 0.000000000000000e+00 0.000000000000000e+00
0.000000000000000e+00 0.000000000000000e+00 0.000000000000000e+00
0.000000000000000e+00 0.000000000000000e+00 0.000000000000000e+00
0.000000000000000e+00 0.000000000000000e+00 0.000000000000000e+00
0.000000000000000e+00 0.000000000000000e+00 0.000000000000000e+00
0.000000000000000e+00 0.000000000000000e+00 0.000000000000000e+00
0.000000000000000e+00 0.000000000000000e+00 0.000000000000000e+00
0.000000000000000e+00 0.000000000000000e+00 0.000000000000000e+00
0.000000000000000e+00 0.000000000000000e+00 0.000000000000000e+00
0.000000000000000e+00 0.000000000000000e+00 0.000000000000000e+00
0.000000000000000e+00 0.000000000000000e+00 0.000000000000000e+00
0.000000000000000e+00 0.000000000000000e+00 0.000000000000000e+00
0.000000000000000e+00 0.000000000000000e+00 0.000000000000000e+00
0.000000000000000e+00 0.000000000000000e+00 0.000000000000000e+00
0.000000000000000e+00 0.000000000000000e+00 0.000000000000000e+00
0.000000000000000e+00 0.000000000000000e+00 0.000000000000000e+00
0.000000000000000e+00 0.000000000000000e+00 0.000000000000000e+00
0.000000000000000e+00 0.000000000000000e+00 0.000000000000000e+00
0.000000000000000e+00 0.000000000000000e+00 0.000000000000000e+00
0.000000000000000e+00 0.000000000000000e+00 0.000000000000000e+00
0.000000000000000e+00 0.000000000000000e+00 0.000000000000000e+00
0.000000000000000e+00 0.000000000000000e+00 0.000000000000000e+00
0.000000000000000e+00 0.000000000000000e+00 0.000000000000000e+00
0.000000000000000e+00 0.000000000000000e+00 0.000000000000000e+00
0.000000000000000e+00 0.000000000000000e+00 0.000000000000000e+00
0.000000000000000e+00 0.000000000000000e+00 0.000000000000000e+00
0.000000000000000e+00 0.000000000000000e+00 0.000000000000000e+00
0.000000000000000e+00 0.000000000000000e+00 0.000000000000000e+00
0.000000000000000e+00 0.000000000000000e+00 0.000000000000000e+00
0.000000000000000e+00 0.000000000000000e+00 0.000000000000000e+00
0.000000000000000e+00 0.000000000000000e+00 0.000000000000000e+00
0.000000000000000e+00 0.000000000000000e+00 0.000000000000000e+00
0.000000000000000e+00 0.000000000000000e+00 0.000000000000000e+00
0.000000000000000e+00 0.000000000000000e+00 0.000000000000000e+00
0.000000000000000e+00 0.000000000000000e+00 0.000000000000000e+00
0.000000000000000e+00 0.000000000000000e+00 0.000000000000000e+00
0.000000000000000e+00 0.000000000000000e+00 0.000000000000000e+00
0.000000000000000e+00 0.000000000000000e+00 0.000000000000000e+00
0.000000000000000e+00 0.000000000000000e+00 0.000000000000000e+00
0.000000000000000e+00 0.000000000000000e+00 0.000000000000000e+00
0.000000000000000e+00 0.000000000000000e+00 0.000000000000000e+00
0.000000000000000e+00 0.000000000000000e+00 0.000000000000000e+00
0.000000000000000e+00 0.000000000000000e+00 0.000000000000000e+00
0.000000000000000e+00 0.000000000000000e+00 0.000000000000000e+00
0.000000000000000e+00 0.000000000000000e+00 0.000000000000000e+00
0.000000000000000e+00 0.000000000000000e+00 0.000000000000000e+00
0.000000000000000e+00 0.000000000000000e+00 0.000000000000000e+00
0.000000000000000e+00 0.000000000000000e+00 0.000000000000000e+00
0.000000000000000e+00 0.000000000000000e+00 0.000000000000000e+00
0.000000000000000e+00 0.000000000000000e+00 0.000000000000000e+00
0.000000000000000e+00 0.000000000000000e+00 0.000000000000000e+00
0.000000000000000e+00 0.000000000000000e+00 0.000000000000000e+00
0.000000000000000e+00 0.000000000000000e+00 0.000000000000000e+00
0.000000000000000e+00 0.000000000000000e+00 0.000000000000000e+00
0.000000000000000e+00 0.000000000000000e+00 0.000000000000000e+00
0.000000000000000e+00 0.000000000000000e+00 0.000000000000000e+00
0.000000000000000e+00 0.000000000000000e+00 0.000000000000000e+00
0.000000000000000e+00 0.000000000000000e+00 0.000000000000000e+00
0.000000000000000e+00 0.000000000000000e+00 0.000000000000000e+00
0.000000000000000e+00 0.000000000000000e+00 0.000000000000000e+00
0.000000000000000e+00 0.000000000000000e+00 0.000000000000000e+00
0.000000000000000e+00 0.000000000000000e+00 0.000000000000000e+00
0.000000000000000e+00 0.000000000000000e+00 0.000000000000000e+00
0.000000000000000e+00 0.000000000000000e+00 0.000000000000000e+00
0.000000000000000e+00 0.000000000000000e+00 0.000000000000000e+00
0.000000000000000e+00 0.000000000000000e+00 0.000000000000000e+00
0.000000000000000e+00 0.000000000000000e+00 0.000000000000000e+00
0.000000000000000e+00 0.000000000000000e+00 0.000000000000000e+00
0.000000000000000e+00 0.000000000000000e+00 0.000000000000000e+00
0.000000000000000e+00 0.000000000000000e+00 0.000000000000000e+00
0.000000000000000e+00 0.000000000000000e+00 0.000000000000000e+00
0.000000000000000e+00 0.000000000000000e+00 0.000000000000000e+00
0.000000000000000e+00 0.000000000000000e+00 0.000000000000000e+00
0.000000000000000e+00 0.000000000000000e+00 0.000000000000000e+00
0.000000000000000e+00 0.000000000000000e+00 0.000000000000000e+00
0.000000000000000e+00 0.000000000000000e+00 0.000000000000000e+00
0.000000000000000e+00 0.000000000000000e+00 0.000000000000000e+00
0.000000000000000e+00 0.000000000000000e+00 0.000000000000000e+00
0.000000000000000e+00 0.000000000000000e+00 0.000000000000000e+00
0.000000000000000e+00 0.000000000000000e+00 0.000000000000000e+00
0.000000000000000e+00 0.000000000000000e+00 0.000000000000000e+00
0.000000000000000e+00 0.000000000000000e+00 0.000000000000000e+00
0.000000000000000e+00 0.000000000000000e+00 0.000000000000000e+00
0.000000000000000e+00 0.000000000000000e+00 0.000000000000000e+00
0.000000000000000e+00 0.000000000000000e+00 0.000000000000000e+00
0.000000000000000e+00 0.000000000000000e+00 0.000000000000000e+00
0.000000000000000e+00 0.000000000000000e+00 0.000000000000000e+00
0.000000000000000e+00 0.000000000000000e+00 0.000000000000000e+00
0.000000000000000e+00 0.000000000000000e+00 0.000000000000000e+00
0.000000000000000e+00 0.000000000000000e+00 0.000000000000000e+00
0.000000000000000e+00 0.000000000000000e+00 0.000000000000000e+00
0.000000000000000e+00 0.000000000000000e+00 0.000000000000000e+00
0.000000000000000e+00 0.000000000000000e+00 0.000000000000000e+00
0.000000000000000e+00 0.000000000000000e+00 0.000000000000000e+00
0.000000000000000e+00 0.000000000000000e+00 0.000000000000000e+00
0.000000000000000e+00 0.000000000000000e+00 0.000000000000000e+00
0.000000000000000e+00 0.000000000000000e+00 0.000000000000000e+00
0.000000000000000e+00 0.000000000000000e+00 0.000000000000000e+00
0.000000000000000e+00 0.000000000000000e+00 0.000000000000000e+00
0.000000000000000e+00 0.000000000000000e+00 0.000000000000000e+00
0.000000000000000e+00 0.000000000000000e+00 0.000000000000000e+00
0.000000000000000e+00 0.000000000000000e+00 0.000000000000000e+00
0.000000000000000e+00 0.000000000000000e+00 0.000000000000000e+00
0.000000000000000e+00 0.000000000000000e+00 0.000000000000000e+00
0.000000000000000e+00 0.000000000000000e+00 0.000000000000000e+00
0.000000000000000e+00 0.000000000000000e+00 0.000000000000000e+00
0.000000000000000e+00 0.000000000000000e+00 0.000000000000000e+00
0.000000000000000e+00 0.000000000000000e+00 0.000000000000000e+00
0.000000000000000e+00 0.000000000000000e+00 0.000000000000000e+00
0.000000000000000e+00 0.000000000000000e+00 0.000000000000000e+00
0.000000000000000e+00 0.000000000000000e+00 0.000000000000000e+00
0.000000000000000e+00 0.000000000000000e+00 0.000000000000000e+00
0.000000000000000e+00 0.000000000000000e+00 0.000000000000000e+00
0.000000000000000e+00 0.000000000000000e+00 0.000000000000000e+00
0.000000000000000e+00 0.000000000000000e+00 0.000000000000000e+00
0.000000000000000e+00 0.000000000000000e+00 0.000000000000000e+00
0.000000000000000e+00 0.000000000000000e+00 0.000000000000000e+00
0.000000000000000e+00 0.000000000000000e+00 0.000000000000000e+00
0.000000000000000e+00 0.000000000000000e+00 0.000000000000000e+00
0.000000000000000e+00 0.000000000000000e+00 0.000000000000000e+00
0.000000000000000e+00 0.000000000000000e+00 0.000000000000000e+00
0.000000000000000e+00 0.000000000000000e+00 0.000000000000000e+00
0.000000000000000e+00 0.000000000000000e+00 0.000000000000000e+00
0.000000000000000e+00 0.000000000000000e+00 0.000000000000000e+00
0.000000000000000e+00 0.000000000000000e+00 0.000000000000000e+00
0.000000000000000e+00 0.000000000000000e+00 0.000000000000000e+00
0.000000000000000e+00 0.000000000000000e+00 0.000000000000000e+00
0.000000000000000e+00 0.000000000000000e+00 0.000000000000000e+00
0.000000000000000e+00 0.000000000000000e+00 0.000000000000000e+00
0.000000000000000e+00 0.000000000000000e+00 0.000000000000000e+00
0.000000000000000e+00 0.000000000000000e+00 0.000000000000000e+00
0.000000000000000e+00 0.000000000000000e+00 0.000000000000000e+00
0.000000000000000e+00 0.000000000000000e+00 0.000000000000000e+00
0.000000000000000e+00 0.000000000000000e+00 0.000000000000000e+00
0.000000000000000e+00 0.000000000000000e+00 0.000000000000000e+00
0.000000000000000e+00 0.000000000000000e+00 0.000000000000000e+00
0.000000000000000e+00 0.000000000000000e+00 0.000000000000000e+00
0.000000000000000e+00 0.000000000000000e+00 0.000000000000000e+00
0.000000000000000e+00 0.000000000000000e+00 0.000000000000000e+00
0.000000000000000e+00 0.000000000000000e+00 0.000000000000000e+00
0.000000000000000e+00 0.000000000000000e+00 0.000000000000000e+00
0.000000000000000e+00 0.000000000000000e+00 0.000000000000000e+00
0.000000000000000e+00 0.000000000000000e+00 0.000000000000000e+00
0.000000000000000e+00 0.000000000000000e+00 0.000000000000000e+00
0.000000000000000e+00 0.000000000000000e+00 0.000000000000000e+00
0.000000000000000e+00 0.000000000000000e+00 0.000000000000000e+00
0.000000000000000e+00 0.000000000000000e+00 0.000000000000000e+00
0.000000000000000e+00 0.000000000000000e+00 0.000000000000000e+00
0.000000000000000e+00 0.000000000000000e+00 0.000000000000000e+00
0.000000000000000e+00 0.000000000000000e+00 0.000000000000000e+00
0.000000000000000e+00 0.000000000000000e+00 0.000000000000000e+00
0.000000000000000e+00 0.000000000000000e+00 0.000000000000000e+00
0.000000000000000e+00 0.000000000000000e+00 0.000000000000000e+00
0.000000000000000e+00 0.000000000000000e+00 0.000000000000000e+00
0.000000000000000e+00 0.000000000000000e+00 0.000000000000000e+00
0.000000000000000e+00 0.000000000000000e+00 0.000000000000000e+00
0.000000000000000e+00 0.000000000000000e+00 0.000000000000000e+00
0.000000000000000e+00 0.000000000000000e+00 0.000000000000000e+00
0.000000000000000e+00 0.000000000000000e+00 0.000000000000000e+00
0.000000000000000e+00 0.000000000000000e+00 0.000000000000000e+00
0.000000000000000e+00 0.000000000000000e+00 0.000000000000000e+00
0.000000000000000e+00 0.000000000000000e+00 0.000000000000000e+00
0.000000000000000e+00 0.000000000000000e+00 0.000000000000000e+00
0.000000000000000e+00 0.000000000000000e+00 0.000000000000000e+00
0.000000000000000e+00 0.000000000000000e+00 0.000000000000000e+00
0.000000000000000e+00 0.000000000000000e+00 0.000000000000000e+00
0.000000000000000e+00 0.000000000000000e+00 0.000000000000000e+00
0.000000000000000e+00 0.000000000000000e+00 0.000000000000000e+00
0.000000000000000e+00 0.000000000000000e+00 0.000000000000000e+00
0.000000000000000e+00 0.000000000000000e+00 0.000000000000000e+00
0.000000000000000e+00 0.000000000000000e+00 0.000000000000000e+00
0.000000000000000e+00 0.000000000000000e+00 0.000000000000000e+00
0.000000000000000e+00 0.000000000000000e+00 0.000000000000000e+00
0.000000000000000e+00 0.000000000000000e+00 0.000000000000000e+00
0.000000000000000e+00 0.000000000000000e+00 0.000000000000000e+00
0.000000000000000e+00 0.000000000000000e+00 0.000000000000000e+00
0.000000000000000e+00 0.000000000000000e+00 0.000000000000000e+00
0.000000000000000e+00 0.000000000000000e+00 0.000000000000000e+00
0.000000000000000e+00 0.000000000000000e+00 0.000000000000000e+00
0.000000000000000e+00 0.000000000000000e+00 0.000000000000000e+00
0.000000000000000e+00 0.000000000000000e+00 0.000000000000000e+00
0.000000000000000e+00 0.000000000000000e+00 0.000000000000000e+00
0.000000000000000e+00 0.000000000000000e+00 0.000000000000000e+00
0.000000000000000e+00 0.000000000000000e+00 0.000000000000000e+00
0.000000000000000e+00 0.000000000000000e+00 0.000000000000000e+00
0.000000000000000e+00 0.000000000000000e+00 0.000000000000000e+00
0.000000000000000e+00 0.000000000000000e+00 0.000000000000000e+00
0.000000000000000e+00 0.000000000000000e+00 0.000000000000000e+00
0.000000000000000e+00 0.000000000000000e+00 0.000000000000000e+00
0.000000000000000e+00 0.000000000000000e+00 0.000000000000000e+00
0.000000000000000e+00 0.000000000000000e+00 0.000000000000000e+00
0.000000000000000e+00 0.000000000000000e+00 0.000000000000000e+00
0.000000000000000e+00 0.000000000000000e+00 0.000000000000000e+00
0.000000000000000e+00 0.000000000000000e+00 0.000000000000000e+00
0.000000000000000e+00 0.000000000000000e+00 0.000000000000000e+00
0.000000000000000e+00 0.000000000000000e+00 0.000000000000000e+00
0.000000000000000e+00 0.000000000000000e+00 0.000000000000000e+00
0.000000000000000e+00 0.000000000000000e+00 0.000000000000000e+00
0.000000000000000e+00 0.000000000000000e+00 0.000000000000000e+00
0.000000000000000e+00 0.000000000000000e+00 0.000000000000000e+00
0.000000000000000e+00 0.000000000000000e+00 0.000000000000000e+00
0.000000000000000e+00 0.000000000000000e+00 0.000000000000000e+00
0.000000000000000e+00 0.000000000000000e+00 0.000000000000000e+00
0.000000000000000e+00 0.000000000000000e+00 0.000000000000000e+00
0.000000000000000e+00 0.000000000000000e+00 0.000000000000000e+00
0.000000000000000e+00 0.000000000000000e+00 0.000000000000000e+00
0.000000000000000e+00 0.000000000000000e+00 0.000000000000000e+00
0.000000000000000e+00 0.000000000000000e+00 0.000000000000000e+00
0.000000000000000e+00 0.000000000000000e+00 0.000000000000000e+00
0.000000000000000e+00 0.000000000000000e+00 0.000000000000000e+00
0.000000000000000e+00 0.000000000000000e+00 0.000000000000000e+00
0.000000000000000e+00 0.000000000000000e+00 0.000000000000000e+00
0.000000000000000e+00 0.000000000000000e+00 0.000000000000000e+00
0.000000000000000e+00 0.000000000000000e+00 0.000000000000000e+00
0.000000000000000e+00 0.000000000000000e+00 0.000000000000000e+00
0.000000000000000e+00 0.000000000000000e+00 0.000000000000000e+00
0.000000000000000e+00 0.000000000000000e+00 0.000000000000000e+00
0.000000000000000e+00 0.000000000000000e+00 0.000000000000000e+00
0.000000000000000e+00 0.000000000000000e+00 0.000000000000000e+00
0.000000000000000e+00 0.000000000000000e+00 0.000000000000000e+00
0.000000000000000e+00 0.000000000000000e+00 0.000000000000000e+00
0.000000000000000e+00 0.000000000000000e+00 0.000000000000000e+00
0.000000000000000e+00 0.000000000000000e+00 0.000000000000000e+00
0.000000000000000e+00 0.000000000000000e+00 0.000000000000000e+00
0.000000000000000e+00 0.000000000000000e+00 0.000000000000000e+00
0.000000000000000e+00 0.000000000000000e+00 0.000000000000000e+00
0.000000000000000e+00 0.000000000000000e+00 0.000000000000000e+00
0.000000000000000e+00 0.000000000000000e+00 0.000000000000000e+00
0.000000000000000e+00 0.000000000000000e+00 0.000000000000000e+00
0.000000000000000e+00 0.000000000000000e+00 0.000000000000000e+00
0.000000000000000e+00 0.000000000000000e+00 0.000000000000000e+00
0.000000000000000e+00 0.000000000000000e+00 0.000000000000000e+00
0.000000000000000e+00 0.000000000000000e+00 0.000000000000000e+00
0.000000000000000e+00 0.000000000000000e+00 0.000000000000000e+00
0.000000000000000e+00 0.000000000000000e+00 0.000000000000000e+00
0.000000000000000e+00 0.000000000000000e+00 0.000000000000000e+00
0.000000000000000e+00 0.000000000000000e+00 0.000000000000000e+00
0.000000000000000e+00 0.000000000000000e+00 0.000000000000000e+00
0.000000000000000e+00 0.000000000000000e+00 0.000000000000000e+00
0.000000000000000e+00 0.000000000000000e+00 0.000000000000000e+00
0.000000000000000e+00 0.000000000000000e+00 0.000000000000000e+00
0.000000000000000e+00 0.000000000000000e+00 0.000000000000000e+00
0.000000000000000e+00 0.000000000000000e+00 0.000000000000000e+00
0.000000000000000e+00 0.000000000000000e+00 0.000000000000000e+00
0.000000000000000e+00 0.000000000000000e+00 0.000000000000000e+00
0.000000000000000e+00 0.000000000000000e+00 0.000000000000000e+00
0.000000000000000e+00 0.000000000000000e+00 0.000000000000000e+00
0.000000000000000e+00 0.000000000000000e+00 0.000000000000000e+00
0.000000000000000e+00 0.000000000000000e+00 0.000000000000000e+00
0.000000000000000e+00 0.000000000000000e+00 0.000000000000000e+00
0.000000000000000e+00 0.000000000000000e+00 0.000000000000000e+00
0.000000000000000e+00 0.000000000000000e+00 0.000000000000000e+00
0.000000000000000e+00 0.000000000000000e+00 0.000000000000000e+00
0.000000000000000e+00 0.000000000000000e+00 0.000000000000000e+00
0.000000000000000e+00 0.000000000000000e+00 0.000000000000000e+00
0.000000000000000e+00 0.000000000000000e+00 0.000000000000000e+00
0.000000000000000e+00 0.000000000000000e+00 0.000000000000000e+00
0.000000000000000e+00 0.000000000000000e+00 0.000000000000000e+00
0.000000000000000e+00 0.000000000000000e+00 0.000000000000000e+00
0.000000000000000e+00 0.000000000000000e+00 0.000000000000000e+00
0.000000000000000e+00 0.000000000000000e+00 0.000000000000000e+00
0.000000000000000e+00 0.000000000000000e+00 0.000000000000000e+00
0.000000000000000e+00 0.000000000000000e+00 0.000000000000000e+00
0.000000000000000e+00 0.000000000000000e+00 0.000000000000000e+00
0.000000000000000e+00 0.000000000000000e+00 0.000000000000000e+00
0.000000000000000e+00 0.000000000000000e+00 0.000000000000000e+00
0.000000000000000e+00 0.000000000000000e+00 0.000000000000000e+00
0.000000000000000e+00 0.000000000000000e+00 0.000000000000000e+00
0.000000000000000e+00 0.000000000000000e+00 0.000000000000000e+00
0.000000000000000e+00 0.000000000000000e+00 0.000000000000000e+00
0.000000000000000e+00 0.000000000000000e+00 0.000000000000000e+00
0.000000000000000e+00 0.000000000000000e+00 0.000000000000000e+00
0.000000000000000e+00 0.000000000000000e+00 0.000000000000000e+00
0.000000000000000e+00 0.000000000000000e+00 0.000000000000000e+00
0.000000000000000e+00 0.000000000000000e+00 0.000000000000000e+00
0.000000000000000e+00 0.000000000000000e+00 0.000000000000000e+00
0.000000000000000e+00 0.000000000000000e+00 0.000000000000000e+00
0.000000000000000e+00 0.000000000000000e+00 0.000000000000000e+00
0.000000000000000e+00 0.000000000000000e+00 0.000000000000000e+00
0.000000000000000e+00 0.000000000000000e+00 0.000000000000000e+00
0.000000000000000e+00 0.000000000000000e+00 0.000000000000000e+00
0.000000000000000e+00 0.000000000000000e+00 0.000000000000000e+00
0.000000000000000e+00 0.000000000000000e+00 0.000000000000000e+00
0.000000000000000e+00 0.000000000000000e+00 0.000000000000000e+00
0.000000000000000e+00 0.000000000000000e+00 0.000000000000000e+00
0.000000000000000e+00 0.000000000000000e+00 0.000000000000000e+00
0.000000000000000e+00 0.000000000000000e+00 0.000000000000000e+00
0.000000000000000e+00 0.000000000000000e+00 0.000000000000000e+00
0.000000000000000e+00 0.000000000000000e+00 0.000000000000000e+00
0.000000000000000e+00 0.000000000000000e+00 0.000000000000000e+00
0.000000000000000e+00 0.000000000000000e+00 0.000000000000000e+00
0.000000000000000e+00 0.000000000000000e+00 0.000000000000000e+00
0.000000000000000e+00 0.000000000000000e+00 0.000000000000000e+00
0.000000000000000e+00 0.000000000000000e+00 0.000000000000000e+00
0.000000000000000e+00 0.000000000000000e+00 0.000000000000000e+00
0.000000000000000e+00 0.000000000000000e+00 0.000000000000000e+00
0.000000000000000e+00 0.000000000000000e+00 0.000000000000000e+00
0.000000000000000e+00 0.000000000000000e+00 0.000000000000000e+00
0.000000000000000e+00 0.000000000000000e+00 0.000000000000000e+00
0.000000000000000e+00 0.000000000000000e+00 0.000000000000000e+00
0.000000000000000e+00 0.000000000000000e+00 0.000000000000000e+00
0.000000000000000e+00 0.000000000000000e+00 0.000000000000000e+00
0.000000000000000e+00 0.000000000000000e+00 0.000000000000000e+00
0.000000000000000e+00 0.000000000000000e+00 0.000000000000000e+00
0.000000000000000e+00 0.000000000000000e+00 0.000000000000000e+00
0.000000000000000e+00 0.000000000000000e+00 0.000000000000000e+00
0.000000000000000e+00 0.000000000000000e+00 0.000000000000000e+00
0.000000000000000e+00 0.000000000000000e+00 0.000000000000000e+00
0.000000000000000e+00 0.000000000000000e+00 0.000000000000000e+00
0.000000000000000e+00 0.000000000000000e+00 0.000000000000000e+00
0.000000000000000e+00 0.000000000000000e+00 0.000000000000000e+00
0.000000000000000e+00 0.000000000000000e+00 0.000000000000000e+00
0.000000000000000e+00 0.000000000000000e+00 0.000000000000000e+00
0.000000000000000e+00 0.000000000000000e+00 0.000000000000000e+00
0.000000000000000e+00 0.000000000000000e+00 0.000000000000000e+00
0.000000000000000e+00 0.000000000000000e+00 0.000000000000000e+00
0.000000000000000e+00 0.000000000000000e+00 0.000000000000000e+00
0.000000000000000e+00 0.000000000000000e+00 0.000000000000000e+00
0.000000000000000e+00 0.000000000000000e+00 0.000000000000000e+00
0.000000000000000e+00 0.000000000000000e+00 0.000000000000000e+00
0.000000000000000e+00 0.000000000000000e+00 0.000000000000000e+00
0.000000000000000e+00 0.000000000000000e+00 0.000000000000000e+00
0.000000000000000e+00 0.000000000000000e+00 0.000000000000000e+00
0.000000000000000e+00 0.000000000000000e+00 0.000000000000000e+00
0.000000000000000e+00 0.000000000000000e+00 0.000000000000000e+00
0.000000000000000e+00 0.000000000000000e+00 0.000000000000000e+00
0.000000000000000e+00 0.000000000000000e+00 0.000000000000000e+00
0.000000000000000e+00 0.000000000000000e+00 0.000000000000000e+00
0.000000000000000e+00 0.000000000000000e+00 0.000000000000000e+00
0.000000000000000e+00 0.000000000000000e+00 0.000000000000000e+00
0.000000000000000e+00 0.000000000000000e+00 0.000000000000000e+00
0.000000000000000e+00 0.000000000000000e+00 0.000000000000000e+00
0.000000000000000e+00 0.000000000000000e+00 0.000000000000000e+00
0.000000000000000e+00 0.000000000000000e+00 0.000000000000000e+00
0.000000000000000e+00 0.000000000000000e+00 0.000000000000000e+00
0.000000000000000e+00 0.000000000000000e+00 0.000000000000000e+00
0.000000000000000e+00 0.000000000000000e+00 0.000000000000000e+00
0.000000000000000e+00 0.000000000000000e+00 0.000000000000000e+00
0.000000000000000e+00 0.000000000000000e+00 0.000000000000000e+00
0.000000000000000e+00 0.000000000000000e+00 0.000000000000000e+00
0.000000000000000e+00 0.000000000000000e+00 0.000000000000000e+00
0.000000000000000e+00 0.000000000000000e+00 0.000000000000000e+00
0.000000000000000e+00 0.000000000000000e+00 0.000000000000000e+00
0.000000000000000e+00 0.000000000000000e+00 0.000000000000000e+00
0.000000000000000e+00 0.000000000000000e+00 0.000000000000000e+00
0.000000000000000e+00 0.000000000000000e+00 0.000000000000000e+00
0.000000000000000e+00 0.000000000000000e+00 0.000000000000000e+00
0.000000000000000e+00 0.000000000000000e+00 0.000000000000000e+00
0.000000000000000e+00 0.000000000000000e+00 0.000000000000000e+00
0.000000000000000e+00 0.000000000000000e+00 0.000000000000000e+00
0.000000000000000e+00 0.000000000000000e+00 0.000000000000000e+00
0.000000000000000e+00 0.000000000000000e+00 0.000000000000000e+00
0.000000000000000e+00 0.000000000000000e+00 0.000000000000000e+00
0.000000000000000e+00 0.000000000000000e+00 0.000000000000000e+00
0.000000000000000e+00 0.000000000000000e+00 0.000000000000000e+00
0.000000000000000e+00 0.000000000000000e+00 0.000000000000000e+00
0.000000000000000e+00 0.000000000000000e+00 0.000000000000000e+00
0.000000000000000e+00 0.000000000000000e+00 0.000000000000000e+00
0.000000000000000e+00 0.000000000000000e+00 0.000000000000000e+00
0.000000000000000e+00 0.000000000000000e+00 0.000000000000000e+00
0.000000000000000e+00 0.000000000000000e+00 0.000000000000000e+00
0.000000000000000e+00 0.000000000000000e+00 0.000000000000000e+00
0.000000000000000e+00 0.000000000000000e+00 0.000000000000000e+00
0.000000000000000e+00 0.000000000000000e+00 0.000000000000000e+00
0.000000000000000e+00 0.000000000000000e+00 0.000000000000000e+00
0.000000000000000e+00 0.000000000000000e+00 0.000000000000000e+00
0.000000000000000e+00 0.000000000000000e+00 0.000000000000000e+00
0.000000000000000e+00 0.000000000000000e+00 0.000000000000000e+00
0.000000000000000e+00 0.000000000000000e+00 0.000000000000000e+00
0.000000000000000e+00 0.000000000000000e+00 0.000000000000000e+00
0.000000000000000e+00 0.000000000000000e+00 0.000000000000000e+00
0.000000000000000e+00 0.000000000000000e+00 0.000000000000000e+00
0.000000000000000e+00 0.000000000000000e+00 0.000000000000000e+00
0.000000000000000e+00 0.000000000000000e+00 0.000000000000000e+00
0.000000000000000e+00 0.000000000000000e+00 0.000000000000000e+00
0.000000000000000e+00 0.000000000000000e+00 0.000000000000000e+00
0.000000000000000e+00 0.000000000000000e+00 0.000000000000000e+00
0.000000000000000e+00 0.000000000000000e+00 0.000000000000000e+00
0.000000000000000e+00 0.000000000000000e+00 0.000000000000000e+00
0.000000000000000e+00 0.000000000000000e+00 0.000000000000000e+00
0.000000000000000e+00 0.000000000000000e+00 0.000000000000000e+00
0.000000000000000e+00 0.000000000000000e+00 0.000000000000000e+00
0.000000000000000e+00 0.000000000000000e+00 0.000000000000000e+00
0.000000000000000e+00 0.000000000000000e+00 0.000000000000000e+00
0.000000000000000e+00 0.000000000000000e+00 0.000000000000000e+00
0.000000000000000e+00 0.000000000000000e+00 0.000000000000000e+00
0.000000000000000e+00 0.000000000000000e+00 0.000000000000000e+00
0.000000000000000e+00 0.000000000000000e+00 0.000000000000000e+00
0.000000000000000e+00 0.000000000000000e+00 0.000000000000000e+00
0.000000000000000e+00 0.000000000000000e+00 0.000000000000000e+00
0.000000000000000e+00 0.000000000000000e+00 0.000000000000000e+00
0.000000000000000e+00 0.000000000000000e+00 0.000000000000000e+00
0.000000000000000e+00 0.000000000000000e+00 0.000000000000000e+00
0.000000000000000e+00 0.000000000000000e+00 0.000000000000000e+00
0.000000000000000e+00 0.000000000000000e+00 0.000000000000000e+00
0.000000000000000e+00 0.000000000000000e+00 0.000000000000000e+00
0.000000000000000e+00 0.000000000000000e+00 0.000000000000000e+00
0.000000000000000e+00 0.000000000000000e+00 0.000000000000000e+00
0.000000000000000e+00 0.000000000000000e+00 0.000000000000000e+00
0.000000000000000e+00 0.000000000000000e+00 0.000000000000000e+00
0.000000000000000e+00 0.000000000000000e+00 0.000000000000000e+00
0.000000000000000e+00 0.000000000000000e+00 0.000000000000000e+00
0.000000000000000e+00 0.000000000000000e+00 0.000000000000000e+00
0.000000000000000e+00 0.000000000000000e+00 0.000000000000000e+00
0.000000000000000e+00 0.000000000000000e+00 0.000000000000000e+00
0.000000000000000e+00 0.000000000000000e+00 0.000000000000000e+00
0.000000000000000e+00 0.000000000000000e+00 0.000000000000000e+00
0.000000000000000e+00 0.000000000000000e+00 0.000000000000000e+00
0.000000000000000e+00 0.000000000000000e+00 0.000000000000000e+00
0.000000000000000e+00 0.000000000000000e+00 0.000000000000000e+00
0.000000000000000e+00 0.000000000000000e+00 0.000000000000000e+00
0.000000000000000e+00 0.000000000000000e+00 0.000000000000000e+00
0.000000000000000e+00 0.000000000000000e+00 0.000000000000000e+00
0.000000000000000e+00 0.000000000000000e+00 0.000000000000000e+00
0.000000000000000e+00 0.000000000000000e+00 0.000000000000000e+00
0.000000000000000e+00 0.000000000000000e+00 0.000000000000000e+00
0.000000000000000e+00 0.000000000000000e+00 0.000000000000000e+00
0.000000000000000e+00 0.000000000000000e+00 0.000000000000000e+00
0.000000000000000e+00 0.000000000000000e+00 0.000000000000000e+00
0.000000000000000e+00 0.000000000000000e+00 0.000000000000000e+00
0.000000000000000e+00 0.000000000000000e+00 0.000000000000000e+00
0.000000000000000e+00 0.000000000000000e+00 0.000000000000000e+00
0.000000000000000e+00 0.000000000000000e+00 0.000000000000000e+00
0.000000000000000e+00 0.000000000000000e+00 0.000000000000000e+00
0.000000000000000e+00 0.000000000000000e+00 0.000000000000000e+00
0.000000000000000e+00 0.000000000000000e+00 0.000000000000000e+00
0.000000000000000e+00 0.000000000000000e+00 0.000000000000000e+00
0.000000000000000e+00 0.000000000000000e+00 0.000000000000000e+00
0.000000000000000e+00 0.000000000000000e+00 0.000000000000000e+00
0.000000000000000e+00 0.000000000000000e+00 0.000000000000000e+00
0.000000000000000e+00 0.000000000000000e+00 0.000000000000000e+00
0.000000000000000e+00 0.000000000000000e+00 0.000000000000000e+00
0.000000000000000e+00 0.000000000000000e+00 0.000000000000000e+00
0.000000000000000e+00 0.000000000000000e+00 0.000000000000000e+00
0.000000000000000e+00 0.000000000000000e+00 0.000000000000000e+00
0.000000000000000e+00 0.000000000000000e+00 0.000000000000000e+00
0.000000000000000e+00 0.000000000000000e+00 0.000000000000000e+00
0.000000000000000e+00 0.000000000000000e+00 0.000000000000000e+00
0.000000000000000e+00 0.000000000000000e+00 0.000000000000000e+00
0.000000000000000e+00 0.000000000000000e+00 0.000000000000000e+00
0.000000000000000e+00 0.000000000000000e+00 0.000000000000000e+00
0.000000000000000e+00 0.000000000000000e+00 0.000000000000000e+00
0.000000000000000e+00 0.000000000000000e+00 0.000000000000000e+00
0.000000000000000e+00 0.000000000000000e+00 0.000000000000000e+00
0.000000000000000e+00 0.000000000000000e+00 0.000000000000000e+00
0.000000000000000e+00 0.000000000000000e+00 0.000000000000000e+00
0.000000000000000e+00 0.000000000000000e+00 0.000000000000000e+00
0.000000000000000e+00 0.000000000000000e+00 0.000000000000000e+00
0.000000000000000e+00 0.000000000000000e+00 0.000000000000000e+00
0.000000000000000e+00 0.000000000000000e+00 0.000000000000000e+00
0.000000000000000e+00 0.000000000000000e+00 0.000000000000000e+00
0.000000000000000e+00 0.000000000000000e+00 0.000000000000000e+00
0.000000000000000e+00 0.000000000000000e+00 0.000000000000000e+00
0.000000000000000e+00 0.000000000000000e+00 0.000000000000000e+00
0.000000000000000e+00 0.000000000000000e+00 0.000000000000000e+00
0.000000000000000e+00 0.000000000000000e+00 0.000000000000000e+00
0.000000000000000e+00 0.000000000000000e+00 0.000000000000000e+00
0.000000000000000e+00 0.000000000000000e+00 0.000000000000000e+00
0.000000000000000e+00 0.000000000000000e+00 0.000000000000000e+00
0.000000000000000e+00 0.000000000000000e+00 0.000000000000000e+00
0.000000000000000e+00 0.000000000000000e+00 0.000000000000000e+00
0.000000000000000e+00 0.000000000000000e+00 0.000000000000000e+00
0.000000000000000e+00 0.000000000000000e+00 0.000000000000000e+00
0.000000000000000e+00 0.000000000000000e+00 0.000000000000000e+00
0.000000000000000e+00 0.000000000000000e+00 0.000000000000000e+00
0.000000000000000e+00 0.000000000000000e+00 0.000000000000000e+00
0.000000000000000e+00 0.000000000000000e+00 0.000000000000000e+00
0.000000000000000e+00 0.000000000000000e+00 0.000000000000000e+00
0.000000000000000e+00 0.000000000000000e+00 0.000000000000000e+00
0.000000000000000e+00 0.000000000000000e+00 0.000000000000000e+00
0.000000000000000e+00 0.000000000000000e+00 0.000000000000000e+00
0.000000000000000e+00 0.000000000000000e+00 0.000000000000000e+00
0.000000000000000e+00 0.000000000000000e+00 0.000000000000000e+00
0.000000000000000e+00 0.000000000000000e+00 0.000000000000000e+00
0.000000000000000e+00 0.000000000000000e+00 0.000000000000000e+00
0.000000000000000e+00 0.000000000000000e+00 0.000000000000000e+00
0.000000000000000e+00 0.000000000000000e+00 0.000000000000000e+00
0.000000000000000e+00 0.000000000000000e+00 0.000000000000000e+00
0.000000000000000e+00 0.000000000000000e+00 0.000000000000000e+00
0.000000000000000e+00 0.000000000000000e+00 0.000000000000000e+00
0.000000000000000e+00 0.000000000000000e+00 0.000000000000000e+00
0.000000000000000e+00 0.000000000000000e+00 0.000000000000000e+00
0.000000000000000e+00 0.000000000000000e+00 0.000000000000000e+00
0.000000000000000e+00 0.000000000000000e+00 0.000000000000000e+00
0.000000000000000e+00 0.000000000000000e+00 0.000000000000000e+00
0.000000000000000e+00 0.000000000000000e+00 0.000000000000000e+00
0.000000000000000e+00 0.000000000000000e+00 0.000000000000000e+00
0.000000000000000e+00 0.000000000000000e+00 0.000000000000000e+00
0.000000000000000e+00 0.000000000000000e+00 0.000000000000000e+00
0.000000000000000e+00 0.000000000000000e+00 0.000000000000000e+00
0.000000000000000e+00 0.000000000000000e+00 0.000000000000000e+00
0.000000000000000e+00 0.000000000000000e+00 0.000000000000000e+00
0.000000000000000e+00 0.000000000000000e+00 0.000000000000000e+00
0.000000000000000e+00 0.000000000000000e+00 0.000000000000000e+00
0.000000000000000e+00 0.000000000000000e+00 0.000000000000000e+00
0.000000000000000e+00 0.000000000000000e+00 0.000000000000000e+00
0.000000000000000e+00 0.000000000000000e+00 0.000000000000000e+00
0.000000000000000e+00 0.000000000000000e+00 0.000000000000000e+00
0.000000000000000e+00 0.000000000000000e+00 0.000000000000000e+00
0.000000000000000e+00 0.000000000000000e+00 0.000000000000000e+00
0.000000000000000e+00 0.000000000000000e+00 0.000000000000000e+00
0.000000000000000e+00 0.000000000000000e+00 0.000000000000000e+00
0.000000000000000e+00 0.000000000000000e+00 0.000000000000000e+00
0.000000000000000e+00 0.000000000000000e+00 0.000000000000000e+00
0.000000000000000e+00 0.000000000000000e+00 0.000000000000000e+00
0.000000000000000e+00 0.000000000000000e+00 0.000000000000000e+00
0.000000000000000e+00 0.000000000000000e+00 0.000000000000000e+00
0.000000000000000e+00 0.000000000000000e+00 0.000000000000000e+00
0.000000000000000e+00 0.000000000000000e+00 0.000000000000000e+00
0.000000000000000e+00 0.000000000000000e+00 0.000000000000000e+00
0.000000000000000e+00 0.000000000000000e+00 0.000000000000000e+00
0.000000000000000e+00 0.000000000000000e+00 0.000000000000000e+00
0.000000000000000e+00 0.000000000000000e+00 0.000000000000000e+00
0.000000000000000e+00 0.000000000000000e+00 0.000000000000000e+00
0.000000000000000e+00 0.000000000000000e+00 0.000000000000000e+00
0.000000000000000e+00 0.000000000000000e+00 0.000000000000000e+00
0.000000000000000e+00 0.000000000000000e+00 0.000000000000000e+00
0.000000000000000e+00 0.000000000000000e+00 0.000000000000000e+00
0.000000000000000e+00 0.000000000000000e+00 0.000000000000000e+00
0.000000000000000e+00 0.000000000000000e+00 0.000000000000000e+00
0.000000000000000e+00 0.000000000000000e+00 0.000000000000000e+00
0.000000000000000e+00 0.000000000000000e+00 0.000000000000000e+00
0.000000000000000e+00 0.000000000000000e+00 0.000000000000000e+00
0.000000000000000e+00 0.000000000000000e+00 0.000000000000000e+00
0.000000000000000e+00 0.000000000000000e+00 0.000000000000000e+00
0.000000000000000e+00 0.000000000000000e+00 0.000000000000000e+00
0.000000000000000e+00 0.000000000000000e+00 0.000000000000000e+00
0.000000000000000e+00 0.000000000000000e+00 0.000000000000000e+00
0.000000000000000e+00 0.000000000000000e+00 0.000000000000000e+00
0.000000000000000e+00 0.000000000000000e+00 0.000000000000000e+00
0.000000000000000e+00 0.000000000000000e+00 0.000000000000000e+00
0.000000000000000e+00 0.000000000000000e+00 0.000000000000000e+00
0.000000000000000e+00 0.000000000000000e+00 0.000000000000000e+00
0.000000000000000e+00 0.000000000000000e+00 0.000000000000000e+00
0.000000000000000e+00 0.000000000000000e+00 0.000000000000000e+00
0.000000000000000e+00 0.000000000000000e+00 0.000000000000000e+00
0.000000000000000e+00 0.000000000000000e+00 0.000000000000000e+00
0.000000000000000e+00 0.000000000000000e+00 0.000000000000000e+00
0.000000000000000e+00 0.000000000000000e+00 0.000000000000000e+00
0.000000000000000e+00 0.000000000000000e+00 0.000000000000000e+00
0.000000000000000e+00 0.000000000000000e+00 0.000000000000000e+00
0.000000000000000e+00 0.000000000000000e+00 0.000000000000000e+00
0.000000000000000e+00 0.000000000000000e+00 0.000000000000000e+00
0.000000000000000e+00 0.000000000000000e+00 0.000000000000000e+00
0.000000000000000e+00 0.000000000000000e+00 0.000000000000000e+00
0.000000000000000e+00 0.000000000000000e+00 0.000000000000000e+00
0.000000000000000e+00 0.000000000000000e+00 0.000000000000000e+00
0.000000000000000e+00 0.000000000000000e+00 0.000000000000000e+00
0.000000000000000e+00 0.000000000000000e+00 0.000000000000000e+00
0.000000000000000e+00 0.000000000000000e+00 0.000000000000000e+00
0.000000000000000e+00 0.000000000000000e+00 0.000000000000000e+00
0.000000000000000e+00 0.000000000000000e+00 0.000000000000000e+00
0.000000000000000e+00 0.000000000000000e+00 0.000000000000000e+00
0.000000000000000e+00 0.000000000000000e+00 0.000000000000000e+00
0.000000000000000e+00 0.000000000000000e+00 0.000000000000000e+00
0.000000000000000e+00 0.000000000000000e+00 0.000000000000000e+00
0.000000000000000e+00 0.000000000000000e+00 0.000000000000000e+00
0.000000000000000e+00 0.000000000000000e+00 0.000000000000000e+00
0.000000000000000e+00 0.000000000000000e+00 0.000000000000000e+00
0.000000000000000e+00 0.000000000000000e+00 0.000000000000000e+00
0.000000000000000e+00 0.000000000000000e+00 0.000000000000000e+00
0.000000000000000e+00 0.000000000000000e+00 0.000000000000000e+00
0.000000000000000e+00 0.000000000000000e+00 0.000000000000000e+00
0.000000000000000e+00 0.000000000000000e+00 0.000000000000000e+00
0.000000000000000e+00 0.000000000000000e+00 0.000000000000000e+00
0.000000000000000e+00 0.000000000000000e+00 0.000000000000000e+00
0.000000000000000e+00 0.000000000000000e+00 0.000000000000000e+00
0.000000000000000e+00 0.000000000000000e+00 0.000000000000000e+00
0.000000000000000e+00 0.000000000000000e+00 0.000000000000000e+00
0.000000000000000e+00 0.000000000000000e+00 0.000000000000000e+00
0.000000000000000e+00 0.000000000000000e+00 0.000000000000000e+00
0.000000000000000e+00 0.000000000000000e+00 0.000000000000000e+00
0.000000000000000e+00 0.000000000000000e+00 0.000000000000000e+00
0.000000000000000e+00 0.000000000000000e+00 0.000000000000000e+00
0.000000000000000e+00 0.000000000000000e+00 0.000000000000000e+00
0.000000000000000e+00 0.000000000000000e+00 0.000000000000000e+00
0.000000000000000e+00 0.000000000000000e+00 0.000000000000000e+00
0.000000000000000e+00 0.000000000000000e+00 0.000000000000000e+00
0.000000000000000e+00 0.000000000000000e+00 0.000000000000000e+00
0.000000000000000e+00 0.000000000000000e+00 0.000000000000000e+00
0.000000000000000e+00 0.000000000000000e+00 0.000000000000000e+00
0.000000000000000e+00 0.000000000000000e+00 0.000000000000000e+00
0.000000000000000e+00 0.000000000000000e+00 0.000000000000000e+00
0.000000000000000e+00 0.000000000000000e+00 0.000000000000000e+00
0.000000000000000e+00 0.000000000000000e+00 0.000000000000000e+00
0.000000000000000e+00 0.000000000000000e+00 0.000000000000000e+00
0.000000000000000e+00 0.000000000000000e+00 0.000000000000000e+00
0.000000000000000e+00 0.000000000000000e+00 0.000000000000000e+00
0.000000000000000e+00 0.000000000000000e+00 0.000000000000000e+00
0.000000000000000e+00 0.000000000000000e+00 0.000000000000000e+00
0.000000000000000e+00 0.000000000000000e+00 0.000000000000000e+00
0.000000000000000e+00 0.000000000000000e+00 0.000000000000000e+00
0.000000000000000e+00 0.000000000000000e+00 0.000000000000000e+00
0.000000000000000e+00 0.000000000000000e+00 0.000000000000000e+00
0.000000000000000e+00 0.000000000000000e+00 0.000000000000000e+00
0.000000000000000e+00 0.000000000000000e+00 0.000000000000000e+00
0.000000000000000e+00 0.000000000000000e+00 0.000000000000000e+00
0.000000000000000e+00 0.000000000000000e+00 0.000000000000000e+00
0.000000000000000e+00 0.000000000000000e+00 0.000000000000000e+00
0.000000000000000e+00 0.000000000000000e+00 0.000000000000000e+00
0.000000000000000e+00 0.000000000000000e+00 0.000000000000000e+00
0.000000000000000e+00 0.000000000000000e+00 0.000000000000000e+00
0.000000000000000e+00 0.000000000000000e+00 0.000000000000000e+00
0.000000000000000e+00 0.000000000000000e+00 0.000000000000000e+00
0.000000000000000e+00 0.000000000000000e+00 0.000000000000000e+00
0.000000000000000e+00 0.000000000000000e+00 0.000000000000000e+00
0.000000000000000e+00 0.000000000000000e+00 0.000000000000000e+00
0.000000000000000e+00 0.000000000000000e+00 0.000000000000000e+00
0.000000000000000e+00 0.000000000000000e+00 0.000000000000000e+00
0.000000000000000e+00 0.000000000000000e+00 0.000000000000000e+00
0.000000000000000e+00 0.000000000000000e+00 0.000000000000000e+00
0.000000000000000e+00 0.000000000000000e+00 0.000000000000000e+00
0.000000000000000e+00 0.000000000000000e+00 0.000000000000000e+00
0.000000000000000e+00 0.000000000000000e+00 0.000000000000000e+00
0.000000000000000e+00 0.000000000000000e+00 0.000000000000000e+00
0.000000000000000e+00 0.000000000000000e+00 0.000000000000000e+00
0.000000000000000e+00 0.000000000000000e+00 0.000000000000000e+00
0.000000000000000e+00 0.000000000000000e+00 0.000000000000000e+00
0.000000000000000e+00 0.000000000000000e+00 0.000000000000000e+00
0.000000000000000e+00 0.000000000000000e+00 0.000000000000000e+00
0.000000000000000e+00 0.000000000000000e+00 0.000000000000000e+00
0.000000000000000e+00 0.000000000000000e+00 0.000000000000000e+00
0.000000000000000e+00 0.000000000000000e+00 0.000000000000000e+00
0.000000000000000e+00 0.000000000000000e+00 0.000000000000000e+00
0.000000000000000e+00 0.000000000000000e+00 0.000000000000000e+00
0.000000000000000e+00 0.000000000000000e+00 0.000000000000000e+00
0.000000000000000e+00 0.000000000000000e+00 0.000000000000000e+00
0.000000000000000e+00 0.000000000000000e+00 0.000000000000000e+00
0.000000000000000e+00 0.000000000000000e+00 0.000000000000000e+00
0.000000000000000e+00 0.000000000000000e+00 0.000000000000000e+00
0.000000000000000e+00 0.000000000000000e+00 0.000000000000000e+00
0.000000000000000e+00 0.000000000000000e+00 0.000000000000000e+00
0.000000000000000e+00 0.000000000000000e+00 0.000000000000000e+00
0.000000000000000e+00 0.000000000000000e+00 0.000000000000000e+00
0.000000000000000e+00 0.000000000000000e+00 0.000000000000000e+00
0.000000000000000e+00 0.000000000000000e+00 0.000000000000000e+00
0.000000000000000e+00 0.000000000000000e+00 0.000000000000000e+00
0.000000000000000e+00 0.000000000000000e+00 0.000000000000000e+00
0.000000000000000e+00 0.000000000000000e+00 0.000000000000000e+00
0.000000000000000e+00 0.000000000000000e+00 0.000000000000000e+00
0.000000000000000e+00 0.000000000000000e+00 0.000000000000000e+00
0.000000000000000e+00 0.000000000000000e+00 0.000000000000000e+00
0.000000000000000e+00 0.000000000000000e+00 0.000000000000000e+00
0.000000000000000e+00 0.000000000000000e+00 0.000000000000000e+00
0.000000000000000e+00 0.000000000000000e+00 0.000000000000000e+00
0.000000000000000e+00 0.000000000000000e+00 0.000000000000000e+00
0.000000000000000e+00 0.000000000000000e+00 0.000000000000000e+00
0.000000000000000e+00 0.000000000000000e+00 0.000000000000000e+00
0.000000000000000e+00 0.000000000000000e+00 0.000000000000000e+00
0.000000000000000e+00 0.000000000000000e+00 0.000000000000000e+00
0.000000000000000e+00 0.000000000000000e+00 0.000000000000000e+00
0.000000000000000e+00 0.000000000000000e+00 0.000000000000000e+00
0.000000000000000e+00 0.000000000000000e+00 0.000000000000000e+00
0.000000000000000e+00 0.000000000000000e+00 0.000000000000000e+00
0.000000000000000e+00 0.000000000000000e+00 0.000000000000000e+00
0.000000000000000e+00 0.000000000000000e+00 0.000000000000000e+00
0.000000000000000e+00 0.000000000000000e+00 0.000000000000000e+00
0.000000000000000e+00 0.000000000000000e+00 0.000000000000000e+00
0.000000000000000e+00 0.000000000000000e+00 0.000000000000000e+00
0.000000000000000e+00 0.000000000000000e+00 0.000000000000000e+00
0.000000000000000e+00 0.000000000000000e+00 0.000000000000000e+00
0.000000000000000e+00 0.000000000000000e+00 0.000000000000000e+00
0.000000000000000e+00 0.000000000000000e+00 0.000000000000000e+00
0.000000000000000e+00 0.000000000000000e+00 0.000000000000000e+00
0.000000000000000e+00 0.000000000000000e+00 0.000000000000000e+00
0.000000000000000e+00 0.000000000000000e+00 0.000000000000000e+00
0.000000000000000e+00 0.000000000000000e+00 0.000000000000000e+00
0.000000000000000e+00 0.000000000000000e+00 0.000000000000000e+00
0.000000000000000e+00 0.000000000000000e+00 0.000000000000000e+00
0.000000000000000e+00 0.000000000000000e+00 0.000000000000000e+00
0.000000000000000e+00 0.000000000000000e+00 0.000000000000000e+00
0.000000000000000e+00 0.000000000000000e+00 0.000000000000000e+00
0.000000000000000e+00 0.000000000000000e+00 0.000000000000000e+00
0.000000000000000e+00 0.000000000000000e+00 0.000000000000000e+00
0.000000000000000e+00 0.000000000000000e+00 0.000000000000000e+00
0.000000000000000e+00 0.000000000000000e+00 0.000000000000000e+00
0.000000000000000e+00 0.000000000000000e+00 0.000000000000000e+00
0.000000000000000e+00 0.000000000000000e+00 0.000000000000000e+00
0.000000000000000e+00 0.000000000000000e+00 0.000000000000000e+00
0.000000000000000e+00 0.000000000000000e+00 0.000000000000000e+00
0.000000000000000e+00 0.000000000000000e+00 0.000000000000000e+00
0.000000000000000e+00 0.000000000000000e+00 0.000000000000000e+00
0.000000000000000e+00 0.000000000000000e+00 0.000000000000000e+00
0.000000000000000e+00 0.000000000000000e+00 0.000000000000000e+00
0.000000000000000e+00 0.000000000000000e+00 0.000000000000000e+00
0.000000000000000e+00 0.000000000000000e+00 0.000000000000000e+00
0.000000000000000e+00 0.000000000000000e+00 0.000000000000000e+00
0.000000000000000e+00 0.000000000000000e+00 0.000000000000000e+00
0.000000000000000e+00 0.000000000000000e+00 0.000000000000000e+00
0.000000000000000e+00 0.000000000000000e+00 0.000000000000000e+00
0.000000000000000e+00 0.000000000000000e+00 0.000000000000000e+00
0.000000000000000e+00 0.000000000000000e+00 0.000000000000000e+00
0.000000000000000e+00 0.000000000000000e+00 0.000000000000000e+00
0.000000000000000e+00 0.000000000000000e+00 0.000000000000000e+00
0.000000000000000e+00 0.000000000000000e+00 0.000000000000000e+00
0.000000000000000e+00 0.000000000000000e+00 0.000000000000000e+00
0.000000000000000e+00 0.000000000000000e+00 0.000000000000000e+00
0.000000000000000e+00 0.000000000000000e+00 0.000000000000000e+00
0.000000000000000e+00 0.000000000000000e+00 0.000000000000000e+00
0.000000000000000e+00 0.000000000000000e+00 0.000000000000000e+00
0.000000000000000e+00 0.000000000000000e+00 0.000000000000000e+00
0.000000000000000e+00 0.000000000000000e+00 0.000000000000000e+00
0.000000000000000e+00 0.000000000000000e+00 0.000000000000000e+00
0.000000000000000e+00 0.000000000000000e+00 0.000000000000000e+00
0.000000000000000e+00 0.000000000000000e+00 0.000000000000000e+00
0.000000000000000e+00 0.000000000000000e+00 0.000000000000000e+00
0.000000000000000e+00 0.000000000000000e+00 0.000000000000000e+00
0.000000000000000e+00 0.000000000000000e+00 0.000000000000000e+00
0.000000000000000e+00 0.000000000000000e+00 0.000000000000000e+00
0.000000000000000e+00 0.000000000000000e+00 0.000000000000000e+00
0.000000000000000e+00 0.000000000000000e+00 0.000000000000000e+00
0.000000000000000e+00 0.000000000000000e+00 0.000000000000000e+00
0.000000000000000e+00 0.000000000000000e+00 0.000000000000000e+00
0.000000000000000e+00 0.000000000000000e+00 0.000000000000000e+00
0.000000000000000e+00 0.000000000000000e+00 0.000000000000000e+00
0.000000000000000e+00 0.000000000000000e+00 0.000000000000000e+00
0.000000000000000e+00 0.000000000000000e+00 0.000000000000000e+00
0.000000000000000e+00 0.000000000000000e+00 0.000000000000000e+00
0.000000000000000e+00 0.000000000000000e+00 0.000000000000000e+00
0.000000000000000e+00 0.000000000000000e+00 0.000000000000000e+00
0.000000000000000e+00 0.000000000000000e+00 0.000000000000000e+00
0.000000000000000e+00 0.000000000000000e+00 0.000000000000000e+00
0.000000000000000e+00 0.000000000000000e+00 0.000000000000000e+00
0.000000000000000e+00 0.000000000000000e+00 0.000000000000000e+00
0.000000000000000e+00 0.000000000000000e+00 0.000000000000000e+00
0.000000000000000e+00 0.000000000000000e+00 0.000000000000000e+00
0.000000000000000e+00 0.000000000000000e+00 0.000000000000000e+00
0.000000000000000e+00 0.000000000000000e+00 0.000000000000000e+00
0.000000000000000e+00 0.000000000000000e+00 0.000000000000000e+00
0.000000000000000e+00 0.000000000000000e+00 0.000000000000000e+00
0.000000000000000e+00 0.000000000000000e+00 0.000000000000000e+00
0.000000000000000e+00 0.000000000000000e+00 0.000000000000000e+00
0.000000000000000e+00 0.000000000000000e+00 0.000000000000000e+00
0.000000000000000e+00 0.000000000000000e+00 0.000000000000000e+00
0.000000000000000e+00 0.000000000000000e+00 0.000000000000000e+00
0.000000000000000e+00 0.000000000000000e+00 0.000000000000000e+00
0.000000000000000e+00 0.000000000000000e+00 0.000000000000000e+00
0.000000000000000e+00 0.000000000000000e+00 0.000000000000000e+00
0.000000000000000e+00 0.000000000000000e+00 0.000000000000000e+00
0.000000000000000e+00 0.000000000000000e+00 0.000000000000000e+00
0.000000000000000e+00 0.000000000000000e+00 0.000000000000000e+00
0.000000000000000e+00 0.000000000000000e+00 0.000000000000000e+00
0.000000000000000e+00 0.000000000000000e+00 0.000000000000000e+00
0.000000000000000e+00 0.000000000000000e+00 0.000000000000000e+00
0.000000000000000e+00 0.000000000000000e+00 0.000000000000000e+00
0.000000000000000e+00 0.000000000000000e+00 0.000000000000000e+00
0.000000000000000e+00 0.000000000000000e+00 0.000000000000000e+00
0.000000000000000e+00 0.000000000000000e+00 0.000000000000000e+00
0.000000000000000e+00 0.000000000000000e+00 0.000000000000000e+00
0.000000000000000e+00 0.000000000000000e+00 0.000000000000000e+00
0.000000000000000e+00 0.000000000000000e+00 0.000000000000000e+00
0.000000000000000e+00 0.000000000000000e+00 0.000000000000000e+00
0.000000000000000e+00 0.000000000000000e+00 0.000000000000000e+00
0.000000000000000e+00 0.000000000000000e+00 0.000000000000000e+00
0.000000000000000e+00 0.000000000000000e+00 0.000000000000000e+00
0.000000000000000e+00 0.000000000000000e+00 0.000000000000000e+00
0.000000000000000e+00 0.000000000000000e+00 0.000000000000000e+00
0.000000000000000e+00 0.000000000000000e+00 0.000000000000000e+00
0.000000000000000e+00 0.000000000000000e+00 0.000000000000000e+00
0.000000000000000e+00 0.000000000000000e+00 0.000000000000000e+00
0.000000000000000e+00 0.000000000000000e+00 0.000000000000000e+00
0.000000000000000e+00 0.000000000000000e+00 0.000000000000000e+00
0.000000000000000e+00 0.000000000000000e+00 0.000000000000000e+00
0.000000000000000e+00 0.000000000000000e+00 0.000000000000000e+00
0.000000000000000e+00 0.000000000000000e+00 0.000000000000000e+00
0.000000000000000e+00 0.000000000000000e+00 0.000000000000000e+00
0.000000000000000e+00 0.000000000000000e+00 0.000000000000000e+00
0.000000000000000e+00 0.000000000000000e+00 0.000000000000000e+00
0.000000000000000e+00 0.000000000000000e+00 0.000000000000000e+00
0.000000000000000e+00 0.000000000000000e+00 0.000000000000000e+00
0.000000000000000e+00 0.000000000000000e+00 0.000000000000000e+00
0.000000000000000e+00 0.000000000000000e+00 0.000000000000000e+00
0.000000000000000e+00 0.000000000000000e+00 0.000000000000000e+00
0.000000000000000e+00 0.000000000000000e+00 0.000000000000000e+00
0.000000000000000e+00 0.000000000000000e+00 0.000000000000000e+00
0.000000000000000e+00 0.000000000000000e+00 0.000000000000000e+00
0.000000000000000e+00 0.000000000000000e+00 0.000000000000000e+00
0.000000000000000e+00 0.000000000000000e+00 0.000000000000000e+00
0.000000000000000e+00 0.000000000000000e+00 0.000000000000000e+00
0.000000000000000e+00 0.000000000000000e+00 0.000000000000000e+00
0.000000000000000e+00 0.000000000000000e+00 0.000000000000000e+00
0.000000000000000e+00 0.000000000000000e+00 0.000000000000000e+00
0.000000000000000e+00 0.000000000000000e+00 0.000000000000000e+00
0.000000000000000e+00 0.000000000000000e+00 0.000000000000000e+00
0.000000000000000e+00 0.000000000000000e+00 0.000000000000000e+00
0.000000000000000e+00 0.000000000000000e+00 0.000000000000000e+00
0.000000000000000e+00 0.000000000000000e+00 0.000000000000000e+00
0.000000000000000e+00 0.000000000000000e+00 0.000000000000000e+00
0.000000000000000e+00 0.000000000000000e+00 0.000000000000000e+00
0.000000000000000e+00 0.000000000000000e+00 0.000000000000000e+00
0.000000000000000e+00 0.000000000000000e+00 0.000000000000000e+00
0.000000000000000e+00 0.000000000000000e+00 0.000000000000000e+00
0.000000000000000e+00 0.000000000000000e+00 0.000000000000000e+00
0.000000000000000e+00 0.000000000000000e+00 0.000000000000000e+00
0.000000000000000e+00 0.000000000000000e+00 0.000000000000000e+00
0.000000000000000e+00 0.000000000000000e+00 0.000000000000000e+00
0.000000000000000e+00 0.000000000000000e+00 0.000000000000000e+00
0.000000000000000e+00 0.000000000000000e+00 0.000000000000000e+00
0.000000000000000e+00 0.000000000000000e+00 0.000000000000000e+00
0.000000000000000e+00 0.000000000000000e+00 0.000000000000000e+00
0.000000000000000e+00 0.000000000000000e+00 0.000000000000000e+00
0.000000000000000e+00 0.000000000000000e+00 0.000000000000000e+00
0.000000000000000e+00 0.000000000000000e+00 0.000000000000000e+00
0.000000000000000e+00 0.000000000000000e+00 0.000000000000000e+00
0.000000000000000e+00 0.000000000000000e+00 0.000000000000000e+00
0.000000000000000e+00 0.000000000000000e+00 0.000000000000000e+00
0.000000000000000e+00 0.000000000000000e+00 0.000000000000000e+00
0.000000000000000e+00 0.000000000000000e+00 0.000000000000000e+00
0.000000000000000e+00 0.000000000000000e+00 0.000000000000000e+00
0.000000000000000e+00 0.000000000000000e+00 0.000000000000000e+00
0.000000000000000e+00 0.000000000000000e+00 0.000000000000000e+00
0.000000000000000e+00 0.000000000000000e+00 0.000000000000000e+00
0.000000000000000e+00 0.000000000000000e+00 0.000000000000000e+00
0.000000000000000e+00 0.000000000000000e+00 0.000000000000000e+00
0.000000000000000e+00 0.000000000000000e+00 0.000000000000000e+00
0.000000000000000e+00 0.000000000000000e+00 0.000000000000000e+00
0.000000000000000e+00 0.000000000000000e+00 0.000000000000000e+00
0.000000000000000e+00 0.000000000000000e+00 0.000000000000000e+00
0.000000000000000e+00 0.000000000000000e+00 0.000000000000000e+00
0.000000000000000e+00 0.000000000000000e+00 0.000000000000000e+00
0.000000000000000e+00 0.000000000000000e+00 0.000000000000000e+00
0.000000000000000e+00 0.000000000000000e+00 0.000000000000000e+00
0.000000000000000e+00 0.000000000000000e+00 0.000000000000000e+00
0.000000000000000e+00 0.000000000000000e+00 0.000000000000000e+00
0.000000000000000e+00 0.000000000000000e+00 0.000000000000000e+00
0.000000000000000e+00 0.000000000000000e+00 0.000000000000000e+00
0.000000000000000e+00 0.000000000000000e+00 0.000000000000000e+00
0.000000000000000e+00 0.000000000000000e+00 0.000000000000000e+00
0.000000000000000e+00 0.000000000000000e+00 0.000000000000000e+00
0.000000000000000e+00 0.000000000000000e+00 0.000000000000000e+00
0.000000000000000e+00 0.000000000000000e+00 0.000000000000000e+00
0.000000000000000e+00 0.000000000000000e+00 0.000000000000000e+00
0.000000000000000e+00 0.000000000000000e+00 0.000000000000000e+00
0.000000000000000e+00 0.000000000000000e+00 0.000000000000000e+00
0.000000000000000e+00 0.000000000000000e+00 0.000000000000000e+00
0.000000000000000e+00 0.000000000000000e+00 0.000000000000000e+00
0.000000000000000e+00 0.000000000000000e+00 0.000000000000000e+00
0.000000000000000e+00 0.000000000000000e+00 0.000000000000000e+00
0.000000000000000e+00 0.000000000000000e+00 0.000000000000000e+00
0.000000000000000e+00 0.000000000000000e+00 0.000000000000000e+00
0.000000000000000e+00 0.000000000000000e+00 0.000000000000000e+00
0.000000000000000e+00 0.000000000000000e+00 0.000000000000000e+00
0.000000000000000e+00 0.000000000000000e+00 0.000000000000000e+00
0.000000000000000e+00 0.000000000000000e+00 0.000000000000000e+00
0.000000000000000e+00 0.000000000000000e+00 0.000000000000000e+00
0.000000000000000e+00 0.000000000000000e+00 0.000000000000000e+00
0.000000000000000e+00 0.000000000000000e+00 0.000000000000000e+00
0.000000000000000e+00 0.000000000000000e+00 0.000000000000000e+00
0.000000000000000e+00 0.000000000000000e+00 0.000000000000000e+00
0.000000000000000e+00 0.000000000000000e+00 0.000000000000000e+00
0.000000000000000e+00 0.000000000000000e+00 0.000000000000000e+00
0.000000000000000e+00 0.000000000000000e+00 0.000000000000000e+00
0.000000000000000e+00 0.000000000000000e+00 0.000000000000000e+00
0.000000000000000e+00 0.000000000000000e+00 0.000000000000000e+00
0.000000000000000e+00 0.000000000000000e+00 0.000000000000000e+00
0.000000000000000e+00 0.000000000000000e+00 0.000000000000000e+00
0.000000000000000e+00 0.000000000000000e+00 0.000000000000000e+00
0.000000000000000e+00 0.000000000000000e+00 0.000000000000000e+00
0.000000000000000e+00 0.000000000000000e+00 0.000000000000000e+00
0.000000000000000e+00 0.000000000000000e+00 0.000000000000000e+00
0.000000000000000e+00 0.000000000000000e+00 0.000000000000000e+00
0.000000000000000e+00 0.000000000000000e+00 0.000000000000000e+00
0.000000000000000e+00 0.000000000000000e+00 0.000000000000000e+00
0.000000000000000e+00 0.000000000000000e+00 0.000000000000000e+00
0.000000000000000e+00 0.000000000000000e+00 0.000000000000000e+00
0.000000000000000e+00 0.000000000000000e+00 0.000000000000000e+00
0.000000000000000e+00 0.000000000000000e+00 0.000000000000000e+00
0.000000000000000e+00 0.000000000000000e+00 0.000000000000000e+00
0.000000000000000e+00 0.000000000000000e+00 0.000000000000000e+00
0.000000000000000e+00 0.000000000000000e+00 0.000000000000000e+00
0.000000000000000e+00 0.000000000000000e+00 0.000000000000000e+00
0.000000000000000e+00 0.000000000000000e+00 0.000000000000000e+00
0.000000000000000e+00 0.000000000000000e+00 0.000000000000000e+00
0.000000000000000e+00 0.000000000000000e+00 0.000000000000000e+00
0.000000000000000e+00 0.000000000000000e+00 0.000000000000000e+00
0.000000000000000e+00 0.000000000000000e+00 0.000000000000000e+00
0.000000000000000e+00 0.000000000000000e+00 0.000000000000000e+00
0.000000000000000e+00 0.000000000000000e+00 0.000000000000000e+00
0.000000000000000e+00 0.000000000000000e+00 0.000000000000000e+00
0.000000000000000e+00 0.000000000000000e+00 0.000000000000000e+00
0.000000000000000e+00 0.000000000000000e+00 0.000000000000000e+00
0.000000000000000e+00 0.000000000000000e+00 0.000000000000000e+00
0.000000000000000e+00 0.000000000000000e+00 0.000000000000000e+00
0.000000000000000e+00 0.000000000000000e+00 0.000000000000000e+00
0.000000000000000e+00 0.000000000000000e+00 0.000000000000000e+00
0.000000000000000e+00 0.000000000000000e+00 0.000000000000000e+00
0.000000000000000e+00 0.000000000000000e+00 0.000000000000000e+00
0.000000000000000e+00 0.000000000000000e+00 0.000000000000000e+00
0.000000000000000e+00 0.000000000000000e+00 0.000000000000000e+00
0.000000000000000e+00 0.000000000000000e+00 0.000000000000000e+00
0.000000000000000e+00 0.000000000000000e+00 0.000000000000000e+00
0.000000000000000e+00 0.000000000000000e+00 0.000000000000000e+00
0.000000000000000e+00 0.000000000000000e+00 0.000000000000000e+00
0.000000000000000e+00 0.000000000000000e+00 0.000000000000000e+00
0.000000000000000e+00 0.000000000000000e+00 0.000000000000000e+00
0.000000000000000e+00 0.000000000000000e+00 0.000000000000000e+00
0.000000000000000e+00 0.000000000000000e+00 0.000000000000000e+00
0.000000000000000e+00 0.000000000000000e+00 0.000000000000000e+00
0.000000000000000e+00 0.000000000000000e+00 0.000000000000000e+00
0.000000000000000e+00 0.000000000000000e+00 0.000000000000000e+00
0.000000000000000e+00 0.000000000000000e+00 0.000000000000000e+00
0.000000000000000e+00 0.000000000000000e+00 0.000000000000000e+00
0.000000000000000e+00 0.000000000000000e+00 0.000000000000000e+00
0.000000000000000e+00 0.000000000000000e+00 0.000000000000000e+00
0.000000000000000e+00 0.000000000000000e+00 0.000000000000000e+00
0.000000000000000e+00 0.000000000000000e+00 0.000000000000000e+00
0.000000000000000e+00 0.000000000000000e+00 0.000000000000000e+00
0.000000000000000e+00 0.000000000000000e+00 0.000000000000000e+00
0.000000000000000e+00 0.000000000000000e+00 0.000000000000000e+00
0.000000000000000e+00 0.000000000000000e+00 0.000000000000000e+00
0.000000000000000e+00 0.000000000000000e+00 0.000000000000000e+00
0.000000000000000e+00 0.000000000000000e+00 0.000000000000000e+00
0.000000000000000e+00 0.000000000000000e+00 0.000000000000000e+00
0.000000000000000e+00 0.000000000000000e+00 0.000000000000000e+00
0.000000000000000e+00 0.000000000000000e+00 0.000000000000000e+00
0.000000000000000e+00 0.000000000000000e+00 0.000000000000000e+00
0.000000000000000e+00 0.000000000000000e+00 0.000000000000000e+00
0.000000000000000e+00 0.000000000000000e+00 0.000000000000000e+00
0.000000000000000e+00 0.000000000000000e+00 0.000000000000000e+00
0.000000000000000e+00 0.000000000000000e+00 0.000000000000000e+00
0.000000000000000e+00 0.000000000000000e+00 0.000000000000000e+00
0.000000000000000e+00 0.000000000000000e+00 0.000000000000000e+00
0.000000000000000e+00 0.000000000000000e+00 0.000000000000000e+00
0.000000000000000e+00 0.000000000000000e+00 0.000000000000000e+00
0.000000000000000e+00 0.000000000000000e+00 0.000000000000000e+00
0.000000000000000e+00 0.000000000000000e+00 0.000000000000000e+00
0.000000000000000e+00 0.000000000000000e+00 0.000000000000000e+00
0.000000000000000e+00 0.000000000000000e+00 0.000000000000000e+00
0.000000000000000e+00 0.000000000000000e+00 0.000000000000000e+00
0.000000000000000e+00 0.000000000000000e+00 0.000000000000000e+00
0.000000000000000e+00 0.000000000000000e+00 0.000000000000000e+00
0.000000000000000e+00 0.000000000000000e+00 0.000000000000000e+00
0.000000000000000e+00 0.000000000000000e+00 0.000000000000000e+00
0.000000000000000e+00 0.000000000000000e+00 0.000000000000000e+00
0.000000000000000e+00 0.000000000000000e+00 0.000000000000000e+00
0.000000000000000e+00 0.000000000000000e+00 0.000000000000000e+00
0.000000000000000e+00 0.000000000000000e+00 0.000000000000000e+00
0.000000000000000e+00 0.000000000000000e+00 0.000000000000000e+00
0.000000000000000e+00 0.000000000000000e+00 0.000000000000000e+00
0.000000000000000e+00 0.000000000000000e+00 0.000000000000000e+00
0.000000000000000e+00 0.000000000000000e+00 0.000000000000000e+00
0.000000000000000e+00 0.000000000000000e+00 0.000000000000000e+00
0.000000000000000e+00 0.000000000000000e+00 0.000000000000000e+00
0.000000000000000e+00 0.000000000000000e+00 0.000000000000000e+00
0.000000000000000e+00 0.000000000000000e+00 0.000000000000000e+00
0.000000000000000e+00 0.000000000000000e+00 0.000000000000000e+00
0.000000000000000e+00 0.000000000000000e+00 0.000000000000000e+00
0.000000000000000e+00 0.000000000000000e+00 0.000000000000000e+00
0.000000000000000e+00 0.000000000000000e+00 0.000000000000000e+00
0.000000000000000e+00 0.000000000000000e+00 0.000000000000000e+00
0.000000000000000e+00 0.000000000000000e+00 0.000000000000000e+00
0.000000000000000e+00 0.000000000000000e+00 0.000000000000000e+00
0.000000000000000e+00 0.000000000000000e+00 0.000000000000000e+00
0.000000000000000e+00 0.000000000000000e+00 0.000000000000000e+00
0.000000000000000e+00 0.000000000000000e+00 0.000000000000000e+00
0.000000000000000e+00 0.000000000000000e+00 0.000000000000000e+00
0.000000000000000e+00 0.000000000000000e+00 0.000000000000000e+00
0.000000000000000e+00 0.000000000000000e+00 0.000000000000000e+00
0.000000000000000e+00 0.000000000000000e+00 0.000000000000000e+00
0.000000000000000e+00 0.000000000000000e+00 0.000000000000000e+00
0.000000000000000e+00 0.000000000000000e+00 0.000000000000000e+00
0.000000000000000e+00 0.000000000000000e+00 0.000000000000000e+00
0.000000000000000e+00 0.000000000000000e+00 0.000000000000000e+00
0.000000000000000e+00 0.000000000000000e+00 0.000000000000000e+00
0.000000000000000e+00 0.000000000000000e+00 0.000000000000000e+00
0.000000000000000e+00 0.000000000000000e+00 0.000000000000000e+00
0.000000000000000e+00 0.000000000000000e+00 0.000000000000000e+00
0.000000000000000e+00 0.000000000000000e+00 0.000000000000000e+00
0.000000000000000e+00 0.000000000000000e+00 0.000000000000000e+00
0.000000000000000e+00 0.000000000000000e+00 0.000000000000000e+00
0.000000000000000e+00 0.000000000000000e+00 0.000000000000000e+00
0.000000000000000e+00 0.000000000000000e+00 0.000000000000000e+00
0.000000000000000e+00 0.000000000000000e+00 0.000000000000000e+00
0.000000000000000e+00 0.000000000000000e+00 0.000000000000000e+00
0.000000000000000e+00 0.000000000000000e+00 0.000000000000000e+00
0.000000000000000e+00 0.000000000000000e+00 0.000000000000000e+00
0.000000000000000e+00 0.000000000000000e+00 0.000000000000000e+00
0.000000000000000e+00 0.000000000000000e+00 0.000000000000000e+00
0.000000000000000e+00 0.000000000000000e+00 0.000000000000000e+00
0.000000000000000e+00 0.000000000000000e+00 0.000000000000000e+00
0.000000000000000e+00 0.000000000000000e+00 0.000000000000000e+00
0.000000000000000e+00 0.000000000000000e+00 0.000000000000000e+00
0.000000000000000e+00 0.000000000000000e+00 0.000000000000000e+00
0.000000000000000e+00 0.000000000000000e+00 0.000000000000000e+00
0.000000000000000e+00 0.000000000000000e+00 0.000000000000000e+00
0.000000000000000e+00 0.000000000000000e+00 0.000000000000000e+00
0.000000000000000e+00 0.000000000000000e+00 0.000000000000000e+00
0.000000000000000e+00 0.000000000000000e+00 0.000000000000000e+00
0.000000000000000e+00 0.000000000000000e+00 0.000000000000000e+00
0.000000000000000e+00 0.000000000000000e+00 0.000000000000000e+00
0.000000000000000e+00 0.000000000000000e+00 0.000000000000000e+00
0.000000000000000e+00 0.000000000000000e+00 0.000000000000000e+00
0.000000000000000e+00 0.000000000000000e+00 0.000000000000000e+00
0.000000000000000e+00 0.000000000000000e+00 0.000000000000000e+00
0.000000000000000e+00 0.000000000000000e+00 0.000000000000000e+00
0.000000000000000e+00 0.000000000000000e+00 0.000000000000000e+00
0.000000000000000e+00 0.000000000000000e+00 0.000000000000000e+00
0.000000000000000e+00 0.000000000000000e+00 0.000000000000000e+00
0.000000000000000e+00 0.000000000000000e+00 0.000000000000000e+00
0.000000000000000e+00 0.000000000000000e+00 0.000000000000000e+00
0.000000000000000e+00 0.000000000000000e+00 0.000000000000000e+00
0.000000000000000e+00 0.000000000000000e+00 0.000000000000000e+00
0.000000000000000e+00 0.000000000000000e+00 0.000000000000000e+00
0.000000000000000e+00 0.000000000000000e+00 0.000000000000000e+00
0.000000000000000e+00 0.000000000000000e+00 0.000000000000000e+00
0.000000000000000e+00 0.000000000000000e+00 0.000000000000000e+00
0.000000000000000e+00 0.000000000000000e+00 0.000000000000000e+00
0.000000000000000e+00 0.000000000000000e+00 0.000000000000000e+00
0.000000000000000e+00 0.000000000000000e+00 0.000000000000000e+00
0.000000000000000e+00 0.000000000000000e+00 0.000000000000000e+00
0.000000000000000e+00 0.000000000000000e+00 0.000000000000000e+00
0.000000000000000e+00 0.000000000000000e+00 0.000000000000000e+00
0.000000000000000e+00 0.000000000000000e+00 0.000000000000000e+00
0.000000000000000e+00 0.000000000000000e+00 0.000000000000000e+00
0.000000000000000e+00 0.000000000000000e+00 0.000000000000000e+00
0.000000000000000e+00 0.000000000000000e+00 0.000000000000000e+00
0.000000000000000e+00 0.000000000000000e+00 0.000000000000000e+00
0.000000000000000e+00 0.000000000000000e+00 0.000000000000000e+00
0.000000000000000e+00 0.000000000000000e+00 0.000000000000000e+00
0.000000000000000e+00 0.000000000000000e+00 0.000000000000000e+00
0.000000000000000e+00 0.000000000000000e+00 0.000000000000000e+00
0.000000000000000e+00 0.000000000000000e+00 0.000000000000000e+00
0.000000000000000e+00 0.000000000000000e+00 0.000000000000000e+00
0.000000000000000e+00 0.000000000000000e+00 0.000000000000000e+00
0.000000000000000e+00 0.000000000000000e+00 0.000000000000000e+00
0.000000000000000e+00 0.000000000000000e+00 0.000000000000000e+00
0.000000000000000e+00 0.000000000000000e+00 0.000000000000000e+00
0.000000000000000e+00 0.000000000000000e+00 0.000000000000000e+00
0.000000000000000e+00 0.000000000000000e+00 0.000000000000000e+00
0.000000000000000e+00 0.000000000000000e+00 0.000000000000000e+00
0.000000000000000e+00 0.000000000000000e+00 0.000000000000000e+00
0.000000000000000e+00 0.000000000000000e+00 0.000000000000000e+00
0.000000000000000e+00 0.000000000000000e+00 0.000000000000000e+00
0.000000000000000e+00 0.000000000000000e+00 0.000000000000000e+00
0.000000000000000e+00 0.000000000000000e+00 0.000000000000000e+00
0.000000000000000e+00 0.000000000000000e+00 0.000000000000000e+00
0.000000000000000e+00 0.000000000000000e+00 0.000000000000000e+00
0.000000000000000e+00 0.000000000000000e+00 0.000000000000000e+00
0.000000000000000e+00 0.000000000000000e+00 0.000000000000000e+00
0.000000000000000e+00 0.000000000000000e+00 0.000000000000000e+00
0.000000000000000e+00 0.000000000000000e+00 0.000000000000000e+00
0.000000000000000e+00 0.000000000000000e+00 0.000000000000000e+00
0.000000000000000e+00 0.000000000000000e+00 0.000000000000000e+00
0.000000000000000e+00 0.000000000000000e+00 0.000000000000000e+00
0.000000000000000e+00 0.000000000000000e+00 0.000000000000000e+00
0.000000000000000e+00 0.000000000000000e+00 0.000000000000000e+00
0.000000000000000e+00 0.000000000000000e+00 0.000000000000000e+00
0.000000000000000e+00 0.000000000000000e+00 0.000000000000000e+00
0.000000000000000e+00 0.000000000000000e+00 0.000000000000000e+00
0.000000000000000e+00 0.000000000000000e+00 0.000000000000000e+00
0.000000000000000e+00 0.000000000000000e+00 0.000000000000000e+00
0.000000000000000e+00 0.000000000000000e+00 0.000000000000000e+00
0.000000000000000e+00 0.000000000000000e+00 0.000000000000000e+00
0.000000000000000e+00 0.000000000000000e+00 0.000000000000000e+00
0.000000000000000e+00 0.000000000000000e+00 0.000000000000000e+00
0.000000000000000e+00 0.000000000000000e+00 0.000000000000000e+00
0.000000000000000e+00 0.000000000000000e+00 0.000000000000000e+00
0.000000000000000e+00 0.000000000000000e+00 0.000000000000000e+00
0.000000000000000e+00 0.000000000000000e+00 0.000000000000000e+00
0.000000000000000e+00 0.000000000000000e+00 0.000000000000000e+00
0.000000000000000e+00 0.000000000000000e+00 0.000000000000000e+00
0.000000000000000e+00 0.000000000000000e+00 0.000000000000000e+00
0.000000000000000e+00 0.000000000000000e+00 0.000000000000000e+00
0.000000000000000e+00 0.000000000000000e+00 0.000000000000000e+00
0.000000000000000e+00 0.000000000000000e+00 0.000000000000000e+00
0.000000000000000e+00 0.000000000000000e+00 0.000000000000000e+00
0.000000000000000e+00 0.000000000000000e+00 0.000000000000000e+00
0.000000000000000e+00 0.000000000000000e+00 0.000000000000000e+00
0.000000000000000e+00 0.000000000000000e+00 0.000000000000000e+00
0.000000000000000e+00 0.000000000000000e+00 0.000000000000000e+00
0.000000000000000e+00 0.000000000000000e+00 0.000000000000000e+00
0.000000000000000e+00 0.000000000000000e+00 0.000000000000000e+00
0.000000000000000e+00 0.000000000000000e+00 0.000000000000000e+00
0.000000000000000e+00 0.000000000000000e+00 0.000000000000000e+00
0.000000000000000e+00 0.000000000000000e+00 0.000000000000000e+00
0.000000000000000e+00 0.000000000000000e+00 0.000000000000000e+00
0.000000000000000e+00 0.000000000000000e+00 0.000000000000000e+00
0.000000000000000e+00 0.000000000000000e+00 0.000000000000000e+00
0.000000000000000e+00 0.000000000000000e+00 0.000000000000000e+00
0.000000000000000e+00 0.000000000000000e+00 0.000000000000000e+00
0.000000000000000e+00 0.000000000000000e+00 0.000000000000000e+00
0.000000000000000e+00 0.000000000000000e+00 0.000000000000000e+00
0.000000000000000e+00 0.000000000000000e+00 0.000000000000000e+00
0.000000000000000e+00 0.000000000000000e+00 0.000000000000000e+00
0.000000000000000e+00 0.000000000000000e+00 0.000000000000000e+00
0.000000000000000e+00 0.000000000000000e+00 0.000000000000000e+00
0.000000000000000e+00 0.000000000000000e+00 0.000000000000000e+00
0.000000000000000e+00 0.000000000000000e+00 0.000000000000000e+00
0.000000000000000e+00 0.000000000000000e+00 0.000000000000000e+00
0.000000000000000e+00 0.000000000000000e+00 0.000000000000000e+00
0.000000000000000e+00 0.000000000000000e+00 0.000000000000000e+00
0.000000000000000e+00 0.000000000000000e+00 0.000000000000000e+00
0.000000000000000e+00 0.000000000000000e+00 0.000000000000000e+00
0.000000000000000e+00 0.000000000000000e+00 0.000000000000000e+00
0.000000000000000e+00 0.000000000000000e+00 0.000000000000000e+00
0.000000000000000e+00 0.000000000000000e+00 0.000000000000000e+00
0.000000000000000e+00 0.000000000000000e+00 0.000000000000000e+00
0.000000000000000e+00 0.000000000000000e+00 0.000000000000000e+00
0.000000000000000e+00 0.000000000000000e+00 0.000000000000000e+00
0.000000000000000e+00 0.000000000000000e+00 0.000000000000000e+00
0.000000000000000e+00 0.000000000000000e+00 0.000000000000000e+00
0.000000000000000e+00 0.000000000000000e+00 0.000000000000000e+00
0.000000000000000e+00 0.000000000000000e+00 0.000000000000000e+00
0.000000000000000e+00 0.000000000000000e+00 0.000000000000000e+00
0.000000000000000e+00 0.000000000000000e+00 0.000000000000000e+00
0.000000000000000e+00 0.000000000000000e+00 0.000000000000000e+00
0.000000000000000e+00 0.000000000000000e+00 0.000000000000000e+00
0.000000000000000e+00 0.000000000000000e+00 0.000000000000000e+00
0.000000000000000e+00 0.000000000000000e+00 0.000000000000000e+00
0.000000000000000e+00 0.000000000000000e+00 0.000000000000000e+00
0.000000000000000e+00 0.000000000000000e+00 0.000000000000000e+00
0.000000000000000e+00 0.000000000000000e+00 0.000000000000000e+00
0.000000000000000e+00 0.000000000000000e+00 0.000000000000000e+00
0.000000000000000e+00 0.000000000000000e+00 0.000000000000000e+00
0.000000000000000e+00 0.000000000000000e+00 0.000000000000000e+00
0.000000000000000e+00 0.000000000000000e+00 0.000000000000000e+00
0.000000000000000e+00 0.000000000000000e+00 0.000000000000000e+00
0.000000000000000e+00 0.000000000000000e+00 0.000000000000000e+00
0.000000000000000e+00 0.000000000000000e+00 0.000000000000000e+00
0.000000000000000e+00 0.000000000000000e+00 0.000000000000000e+00
0.000000000000000e+00 0.000000000000000e+00 0.000000000000000e+00
0.000000000000000e+00 0.000000000000000e+00 0.000000000000000e+00
0.000000000000000e+00 0.000000000000000e+00 0.000000000000000e+00
0.000000000000000e+00 0.000000000000000e+00 0.000000000000000e+00
0.000000000000000e+00 0.000000000000000e+00 0.000000000000000e+00
0.000000000000000e+00 0.000000000000000e+00 0.000000000000000e+00
0.000000000000000e+00 0.000000000000000e+00 0.000000000000000e+00
0.000000000000000e+00 0.000000000000000e+00 0.000000000000000e+00
0.000000000000000e+00 0.000000000000000e+00 0.000000000000000e+00
0.000000000000000e+00 0.000000000000000e+00 0.000000000000000e+00
0.000000000000000e+00 0.000000000000000e+00 0.000000000000000e+00
0.000000000000000e+00 0.000000000000000e+00 0.000000000000000e+00
0.000000000000000e+00 0.000000000000000e+00 0.000000000000000e+00
0.000000000000000e+00 0.000000000000000e+00 0.000000000000000e+00
0.000000000000000e+00 0.000000000000000e+00 0.000000000000000e+00
0.000000000000000e+00 0.000000000000000e+00 0.000000000000000e+00
0.000000000000000e+00 0.000000000000000e+00 0.000000000000000e+00
0.000000000000000e+00 0.000000000000000e+00 0.000000000000000e+00
0.000000000000000e+00 0.000000000000000e+00 0.000000000000000e+00
0.000000000000000e+00 0.000000000000000e+00 0.000000000000000e+00
0.000000000000000e+00 0.000000000000000e+00 0.000000000000000e+00
0.000000000000000e+00 0.000000000000000e+00 0.000000000000000e+00
0.000000000000000e+00 0.000000000000000e+00 0.000000000000000e+00
0.000000000000000e+00 0.000000000000000e+00 0.000000000000000e+00
0.000000000000000e+00 0.000000000000000e+00 0.000000000000000e+00
0.000000000000000e+00 0.000000000000000e+00 0.000000000000000e+00
0.000000000000000e+00 0.000000000000000e+00 0.000000000000000e+00
0.000000000000000e+00 0.000000000000000e+00 0.000000000000000e+00
0.000000000000000e+00 0.000000000000000e+00 0.000000000000000e+00
0.000000000000000e+00 0.000000000000000e+00 0.000000000000000e+00
0.000000000000000e+00 0.000000000000000e+00 0.000000000000000e+00
0.000000000000000e+00 0.000000000000000e+00 0.000000000000000e+00
0.000000000000000e+00 0.000000000000000e+00 0.000000000000000e+00
0.000000000000000e+00 0.000000000000000e+00 0.000000000000000e+00
0.000000000000000e+00 0.000000000000000e+00 0.000000000000000e+00
0.000000000000000e+00 0.000000000000000e+00 0.000000000000000e+00
0.000000000000000e+00 0.000000000000000e+00 0.000000000000000e+00
0.000000000000000e+00 0.000000000000000e+00 0.000000000000000e+00
0.000000000000000e+00 0.000000000000000e+00 0.000000000000000e+00
0.000000000000000e+00 0.000000000000000e+00 0.000000000000000e+00
0.000000000000000e+00 0.000000000000000e+00 0.000000000000000e+00
0.000000000000000e+00 0.000000000000000e+00 0.000000000000000e+00
0.000000000000000e+00 0.000000000000000e+00 0.000000000000000e+00
0.000000000000000e+00 0.000000000000000e+00 0.000000000000000e+00
0.000000000000000e+00 0.000000000000000e+00 0.000000000000000e+00
0.000000000000000e+00 0.000000000000000e+00 0.000000000000000e+00
0.000000000000000e+00 0.000000000000000e+00 0.000000000000000e+00
0.000000000000000e+00 0.000000000000000e+00 0.000000000000000e+00
0.000000000000000e+00 0.000000000000000e+00 0.000000000000000e+00
0.000000000000000e+00 0.000000000000000e+00 0.000000000000000e+00
0.000000000000000e+00 0.000000000000000e+00 0.000000000000000e+00
0.000000000000000e+00 0.000000000000000e+00 0.000000000000000e+00
0.000000000000000e+00 0.000000000000000e+00 0.000000000000000e+00
0.000000000000000e+00 0.000000000000000e+00 0.000000000000000e+00
0.000000000000000e+00 0.000000000000000e+00 0.000000000000000e+00
0.000000000000000e+00 0.000000000000000e+00 0.000000000000000e+00
0.000000000000000e+00 0.000000000000000e+00 0.000000000000000e+00
0.000000000000000e+00 0.000000000000000e+00 0.000000000000000e+00
0.000000000000000e+00 0.000000000000000e+00 0.000000000000000e+00
0.000000000000000e+00 0.000000000000000e+00 0.000000000000000e+00
0.000000000000000e+00 0.000000000000000e+00 0.000000000000000e+00
0.000000000000000e+00 0.000000000000000e+00 0.000000000000000e+00
0.000000000000000e+00 0.000000000000000e+00 0.000000000000000e+00
0.000000000000000e+00 0.000000000000000e+00 0.000000000000000e+00
0.000000000000000e+00 0.000000000000000e+00 0.000000000000000e+00
0.000000000000000e+00 0.000000000000000e+00 0.000000000000000e+00
0.000000000000000e+00 0.000000000000000e+00 0.000000000000000e+00
0.000000000000000e+00 0.000000000000000e+00 0.000000000000000e+00
0.000000000000000e+00 0.000000000000000e+00 0.000000000000000e+00
0.000000000000000e+00 0.000000000000000e+00 0.000000000000000e+00
0.000000000000000e+00 0.000000000000000e+00 0.000000000000000e+00
0.000000000000000e+00 0.000000000000000e+00 0.000000000000000e+00
0.000000000000000e+00 0.000000000000000e+00 0.000000000000000e+00
0.000000000000000e+00 0.000000000000000e+00 0.000000000000000e+00
0.000000000000000e+00 0.000000000000000e+00 0.000000000000000e+00
0.000000000000000e+00 0.000000000000000e+00 0.000000000000000e+00
0.000000000000000e+00 0.000000000000000e+00 0.000000000000000e+00
0.000000000000000e+00 0.000000000000000e+00 0.000000000000000e+00
0.000000000000000e+00 0.000000000000000e+00 0.000000000000000e+00
0.000000000000000e+00 0.000000000000000e+00 0.000000000000000e+00
0.000000000000000e+00 0.000000000000000e+00 0.000000000000000e+00
0.000000000000000e+00 0.000000000000000e+00 0.000000000000000e+00
0.000000000000000e+00 0.000000000000000e+00 0.000000000000000e+00
0.000000000000000e+00 0.000000000000000e+00 0.000000000000000e+00
0.000000000000000e+00 0.000000000000000e+00 0.000000000000000e+00
0.000000000000000e+00 0.000000000000000e+00 0.000000000000000e+00
0.000000000000000e+00 0.000000000000000e+00 0.000000000000000e+00
0.000000000000000e+00 0.000000000000000e+00 0.000000000000000e+00
0.000000000000000e+00 0.000000000000000e+00 0.000000000000000e+00
0.000000000000000e+00 0.000000000000000e+00 0.000000000000000e+00
0.000000000000000e+00 0.000000000000000e+00 0.000000000000000e+00
0.000000000000000e+00 0.000000000000000e+00 0.000000000000000e+00
0.000000000000000e+00 0.000000000000000e+00 0.000000000000000e+00
0.000000000000000e+00 0.000000000000000e+00 0.000000000000000e+00
0.000000000000000e+00 0.000000000000000e+00 0.000000000000000e+00
0.000000000000000e+00 0.000000000000000e+00 0.000000000000000e+00
0.000000000000000e+00 0.000000000000000e+00 0.000000000000000e+00
0.000000000000000e+00 0.000000000000000e+00 0.000000000000000e+00
0.000000000000000e+00 0.000000000000000e+00 0.000000000000000e+00
0.000000000000000e+00 0.000000000000000e+00 0.000000000000000e+00
0.000000000000000e+00 0.000000000000000e+00 0.000000000000000e+00
0.000000000000000e+00 0.000000000000000e+00 0.000000000000000e+00
0.000000000000000e+00 0.000000000000000e+00 0.000000000000000e+00
0.000000000000000e+00 0.000000000000000e+00 0.000000000000000e+00
0.000000000000000e+00 0.000000000000000e+00 0.000000000000000e+00
0.000000000000000e+00 0.000000000000000e+00 0.000000000000000e+00
0.000000000000000e+00 0.000000000000000e+00 0.000000000000000e+00
0.000000000000000e+00 0.000000000000000e+00 0.000000000000000e+00
0.000000000000000e+00 0.000000000000000e+00 0.000000000000000e+00
0.000000000000000e+00 0.000000000000000e+00 0.000000000000000e+00
0.000000000000000e+00 0.000000000000000e+00 0.000000000000000e+00
0.000000000000000e+00 0.000000000000000e+00 0.000000000000000e+00
0.000000000000000e+00 0.000000000000000e+00 0.000000000000000e+00
0.000000000000000e+00 0.000000000000000e+00 0.000000000000000e+00
0.000000000000000e+00 0.000000000000000e+00 0.000000000000000e+00
0.000000000000000e+00 0.000000000000000e+00 0.000000000000000e+00
0.000000000000000e+00 0.000000000000000e+00 0.000000000000000e+00
0.000000000000000e+00 0.000000000000000e+00 0.000000000000000e+00
0.000000000000000e+00 0.000000000000000e+00 0.000000000000000e+00
0.000000000000000e+00 0.000000000000000e+00 0.000000000000000e+00
0.000000000000000e+00 0.000000000000000e+00 0.000000000000000e+00
0.000000000000000e+00 0.000000000000000e+00 0.000000000000000e+00
0.000000000000000e+00 0.000000000000000e+00 0.000000000000000e+00
0.000000000000000e+00 0.000000000000000e+00 0.000000000000000e+00
0.000000000000000e+00 0.000000000000000e+00 0.000000000000000e+00
0.000000000000000e+00 0.000000000000000e+00 0.000000000000000e+00
0.000000000000000e+00 0.000000000000000e+00 0.000000000000000e+00
0.000000000000000e+00 0.000000000000000e+00 0.000000000000000e+00
0.000000000000000e+00 0.000000000000000e+00 0.000000000000000e+00
0.000000000000000e+00 0.000000000000000e+00 0.000000000000000e+00
0.000000000000000e+00 0.000000000000000e+00 0.000000000000000e+00
0.000000000000000e+00 0.000000000000000e+00 0.000000000000000e+00
0.000000000000000e+00 0.000000000000000e+00 0.000000000000000e+00
0.000000000000000e+00 0.000000000000000e+00 0.000000000000000e+00
0.000000000000000e+00 0.000000000000000e+00 0.000000000000000e+00
0.000000000000000e+00 0.000000000000000e+00 0.000000000000000e+00
0.000000000000000e+00 0.000000000000000e+00 0.000000000000000e+00
0.000000000000000e+00 0.000000000000000e+00 0.000000000000000e+00
0.000000000000000e+00 0.000000000000000e+00 0.000000000000000e+00
0.000000000000000e+00 0.000000000000000e+00 0.000000000000000e+00
0.000000000000000e+00 0.000000000000000e+00 0.000000000000000e+00
0.000000000000000e+00 0.000000000000000e+00 0.000000000000000e+00
0.000000000000000e+00 0.000000000000000e+00 0.000000000000000e+00
0.000000000000000e+00 0.000000000000000e+00 0.000000000000000e+00
0.000000000000000e+00 0.000000000000000e+00 0.000000000000000e+00
0.000000000000000e+00 0.000000000000000e+00 0.000000000000000e+00
0.000000000000000e+00 0.000000000000000e+00 0.000000000000000e+00
0.000000000000000e+00 0.000000000000000e+00 0.000000000000000e+00
0.000000000000000e+00 0.000000000000000e+00 0.000000000000000e+00
0.000000000000000e+00 0.000000000000000e+00 0.000000000000000e+00
0.000000000000000e+00 0.000000000000000e+00 0.000000000000000e+00
0.000000000000000e+00 0.000000000000000e+00 0.000000000000000e+00
0.000000000000000e+00 0.000000000000000e+00 0.000000000000000e+00
0.000000000000000e+00 0.000000000000000e+00 0.000000000000000e+00
0.000000000000000e+00 0.000000000000000e+00 0.000000000000000e+00
0.000000000000000e+00 0.000000000000000e+00 0.000000000000000e+00
0.000000000000000e+00 0.000000000000000e+00 0.000000000000000e+00
0.000000000000000e+00 0.000000000000000e+00 0.000000000000000e+00
0.000000000000000e+00 0.000000000000000e+00 0.000000000000000e+00
0.000000000000000e+00 0.000000000000000e+00 0.000000000000000e+00
0.000000000000000e+00 0.000000000000000e+00 0.000000000000000e+00
0.000000000000000e+00 0.000000000000000e+00 0.000000000000000e+00
0.000000000000000e+00 0.000000000000000e+00 0.000000000000000e+00
0.000000000000000e+00 0.000000000000000e+00 0.000000000000000e+00
0.000000000000000e+00 0.000000000000000e+00 0.000000000000000e+00
0.000000000000000e+00 0.000000000000000e+00 0.000000000000000e+00
0.000000000000000e+00 0.000000000000000e+00 0.000000000000000e+00
0.000000000000000e+00 0.000000000000000e+00 0.000000000000000e+00
0.000000000000000e+00 0.000000000000000e+00 0.000000000000000e+00
0.000000000000000e+00 0.000000000000000e+00 0.000000000000000e+00
0.000000000000000e+00 0.000000000000000e+00 0.000000000000000e+00
0.000000000000000e+00 0.000000000000000e+00 0.000000000000000e+00
0.000000000000000e+00 0.000000000000000e+00 0.000000000000000e+00
0.000000000000000e+00 0.000000000000000e+00 0.000000000000000e+00
0.000000000000000e+00 0.000000000000000e+00 0.000000000000000e+00
0.000000000000000e+00 0.000000000000000e+00 0.000000000000000e+00
0.000000000000000e+00 0.000000000000000e+00 0.000000000000000e+00
0.000000000000000e+00 0.000000000000000e+00 0.000000000000000e+00
0.000000000000000e+00 0.000000000000000e+00 0.000000000000000e+00
0.000000000000000e+00 0.000000000000000e+00 0.000000000000000e+00
0.000000000000000e+00 0.000000000000000e+00 0.000000000000000e+00
0.000000000000000e+00 0.000000000000000e+00 0.000000000000000e+00
0.000000000000000e+00 0.000000000000000e+00 0.000000000000000e+00
0.000000000000000e+00 0.000000000000000e+00 0.000000000000000e+00
0.000000000000000e+00 0.000000000000000e+00 0.000000000000000e+00
0.000000000000000e+00 0.000000000000000e+00 0.000000000000000e+00
0.000000000000000e+00 0.000000000000000e+00 0.000000000000000e+00
0.000000000000000e+00 0.000000000000000e+00 0.000000000000000e+00
0.000000000000000e+00 0.000000000000000e+00 0.000000000000000e+00
0.000000000000000e+00 0.000000000000000e+00 0.000000000000000e+00
0.000000000000000e+00 0.000000000000000e+00 0.000000000000000e+00
0.000000000000000e+00 0.000000000000000e+00 0.000000000000000e+00
0.000000000000000e+00 0.000000000000000e+00 0.000000000000000e+00
0.000000000000000e+00 0.000000000000000e+00 0.000000000000000e+00
0.000000000000000e+00 0.000000000000000e+00 0.000000000000000e+00
0.000000000000000e+00 0.000000000000000e+00 0.000000000000000e+00
0.000000000000000e+00 0.000000000000000e+00 0.000000000000000e+00
0.000000000000000e+00 0.000000000000000e+00 0.000000000000000e+00
0.000000000000000e+00 0.000000000000000e+00 0.000000000000000e+00
0.000000000000000e+00 0.000000000000000e+00 0.000000000000000e+00
0.000000000000000e+00 0.000000000000000e+00 0.000000000000000e+00
0.000000000000000e+00 0.000000000000000e+00 0.000000000000000e+00
0.000000000000000e+00 0.000000000000000e+00 0.000000000000000e+00
0.000000000000000e+00 0.000000000000000e+00 0.000000000000000e+00
0.000000000000000e+00 0.000000000000000e+00 0.000000000000000e+00
0.000000000000000e+00 0.000000000000000e+00 0.000000000000000e+00
0.000000000000000e+00 0.000000000000000e+00 0.000000000000000e+00
0.000000000000000e+00 0.000000000000000e+00 0.000000000000000e+00
0.000000000000000e+00 0.000000000000000e+00 0.000000000000000e+00
0.000000000000000e+00 0.000000000000000e+00 0.000000000000000e+00
0.000000000000000e+00 0.000000000000000e+00 0.000000000000000e+00
0.000000000000000e+00 0.000000000000000e+00 0.000000000000000e+00
0.000000000000000e+00 0.000000000000000e+00 0.000000000000000e+00
0.000000000000000e+00 0.000000000000000e+00 0.000000000000000e+00
0.000000000000000e+00 0.000000000000000e+00 0.000000000000000e+00
0.000000000000000e+00 0.000000000000000e+00 0.000000000000000e+00
0.000000000000000e+00 0.000000000000000e+00 0.000000000000000e+00
0.000000000000000e+00 0.000000000000000e+00 0.000000000000000e+00
0.000000000000000e+00 0.000000000000000e+00 0.000000000000000e+00
0.000000000000000e+00 0.000000000000000e+00 0.000000000000000e+00
0.000000000000000e+00 0.000000000000000e+00 0.000000000000000e+00
0.000000000000000e+00 0.000000000000000e+00 0.000000000000000e+00
0.000000000000000e+00 0.000000000000000e+00 0.000000000000000e+00
0.000000000000000e+00 0.000000000000000e+00 0.000000000000000e+00
0.000000000000000e+00 0.000000000000000e+00 0.000000000000000e+00
0.000000000000000e+00 0.000000000000000e+00 0.000000000000000e+00
0.000000000000000e+00 0.000000000000000e+00 0.000000000000000e+00
0.000000000000000e+00 0.000000000000000e+00 0.000000000000000e+00
0.000000000000000e+00 0.000000000000000e+00 0.000000000000000e+00
0.000000000000000e+00 0.000000000000000e+00 0.000000000000000e+00
0.000000000000000e+00 0.000000000000000e+00 0.000000000000000e+00
0.000000000000000e+00 0.000000000000000e+00 0.000000000000000e+00
0.000000000000000e+00 0.000000000000000e+00 0.000000000000000e+00
0.000000000000000e+00 0.000000000000000e+00 0.000000000000000e+00
0.000000000000000e+00 0.000000000000000e+00 0.000000000000000e+00
0.000000000000000e+00 0.000000000000000e+00 0.000000000000000e+00
0.000000000000000e+00 0.000000000000000e+00 0.000000000000000e+00
0.000000000000000e+00 0.000000000000000e+00 0.000000000000000e+00
0.000000000000000e+00 0.000000000000000e+00 0.000000000000000e+00
0.000000000000000e+00 0.000000000000000e+00 0.000000000000000e+00
0.000000000000000e+00 0.000000000000000e+00 0.000000000000000e+00
0.000000000000000e+00 0.000000000000000e+00 0.000000000000000e+00
0.000000000000000e+00 0.000000000000000e+00 0.000000000000000e+00
0.000000000000000e+00 0.000000000000000e+00 0.000000000000000e+00
0.000000000000000e+00 0.000000000000000e+00 0.000000000000000e+00
0.000000000000000e+00 0.000000000000000e+00 0.000000000000000e+00
0.000000000000000e+00 0.000000000000000e+00 0.000000000000000e+00
0.000000000000000e+00 0.000000000000000e+00 0.000000000000000e+00
0.000000000000000e+00 0.000000000000000e+00 0.000000000000000e+00
0.000000000000000e+00 0.000000000000000e+00 0.000000000000000e+00
0.000000000000000e+00 0.000000000000000e+00 0.000000000000000e+00
0.000000000000000e+00 0.000000000000000e+00 0.000000000000000e+00
0.000000000000000e+00 0.000000000000000e+00 0.000000000000000e+00
0.000000000000000e+00 0.000000000000000e+00 0.000000000000000e+00
0.000000000000000e+00 0.000000000000000e+00 0.000000000000000e+00
0.000000000000000e+00 0.000000000000000e+00 0.000000000000000e+00
0.000000000000000e+00 0.000000000000000e+00 0.000000000000000e+00
0.000000000000000e+00 0.000000000000000e+00 0.000000000000000e+00
0.000000000000000e+00 0.000000000000000e+00 0.000000000000000e+00
0.000000000000000e+00 0.000000000000000e+00 0.000000000000000e+00
0.000000000000000e+00 0.000000000000000e+00 0.000000000000000e+00
0.000000000000000e+00 0.000000000000000e+00 0.000000000000000e+00
0.000000000000000e+00 0.000000000000000e+00 0.000000000000000e+00
0.000000000000000e+00 0.000000000000000e+00 0.000000000000000e+00
0.000000000000000e+00 0.000000000000000e+00 0.000000000000000e+00
0.000000000000000e+00 0.000000000000000e+00 0.000000000000000e+00
0.000000000000000e+00 0.000000000000000e+00 0.000000000000000e+00
0.000000000000000e+00 0.000000000000000e+00 0.000000000000000e+00
0.000000000000000e+00 0.000000000000000e+00 0.000000000000000e+00
0.000000000000000e+00 0.000000000000000e+00 0.000000000000000e+00
0.000000000000000e+00 0.000000000000000e+00 0.000000000000000e+00
0.000000000000000e+00 0.000000000000000e+00 0.000000000000000e+00
0.000000000000000e+00 0.000000000000000e+00 0.000000000000000e+00
0.000000000000000e+00 0.000000000000000e+00 0.000000000000000e+00
0.000000000000000e+00 0.000000000000000e+00 0.000000000000000e+00
0.000000000000000e+00 0.000000000000000e+00 0.000000000000000e+00
0.000000000000000e+00 0.000000000000000e+00 0.000000000000000e+00
0.000000000000000e+00 0.000000000000000e+00 0.000000000000000e+00
0.000000000000000e+00 0.000000000000000e+00 0.000000000000000e+00
0.000000000000000e+00 0.000000000000000e+00 0.000000000000000e+00
0.000000000000000e+00 0.000000000000000e+00 0.000000000000000e+00
0.000000000000000e+00 0.000000000000000e+00 0.000000000000000e+00
0.000000000000000e+00 0.000000000000000e+00 0.000000000000000e+00
0.000000000000000e+00 0.000000000000000e+00 0.000000000000000e+00
0.000000000000000e+00 0.000000000000000e+00 0.000000000000000e+00
0.000000000000000e+00 0.000000000000000e+00 0.000000000000000e+00
0.000000000000000e+00 0.000000000000000e+00 0.000000000000000e+00
0.000000000000000e+00 0.000000000000000e+00 0.000000000000000e+00
0.000000000000000e+00 0.000000000000000e+00 0.000000000000000e+00
0.000000000000000e+00 0.000000000000000e+00 0.000000000000000e+00
0.000000000000000e+00 0.000000000000000e+00 0.000000000000000e+00
0.000000000000000e+00 0.000000000000000e+00 0.000000000000000e+00
0.000000000000000e+00 0.000000000000000e+00 0.000000000000000e+00
0.000000000000000e+00 0.000000000000000e+00 0.000000000000000e+00
0.000000000000000e+00 0.000000000000000e+00 0.000000000000000e+00
0.000000000000000e+00 0.000000000000000e+00 0.000000000000000e+00
0.000000000000000e+00 0.000000000000000e+00 0.000000000000000e+00
0.000000000000000e+00 0.000000000000000e+00 0.000000000000000e+00
0.000000000000000e+00 0.000000000000000e+00 0.000000000000000e+00
0.000000000000000e+00 0.000000000000000e+00 0.000000000000000e+00
0.000000000000000e+00 0.000000000000000e+00 0.000000000000000e+00
0.000000000000000e+00 0.000000000000000e+00 0.000000000000000e+00
0.000000000000000e+00 0.000000000000000e+00 0.000000000000000e+00
0.000000000000000e+00 0.000000000000000e+00 0.000000000000000e+00
0.000000000000000e+00 0.000000000000000e+00 0.000000000000000e+00
0.000000000000000e+00 0.000000000000000e+00 0.000000000000000e+00
0.000000000000000e+00 0.000000000000000e+00 0.000000000000000e+00
0.000000000000000e+00 0.000000000000000e+00 0.000000000000000e+00
0.000000000000000e+00 0.000000000000000e+00 0.000000000000000e+00
0.000000000000000e+00 0.000000000000000e+00 0.000000000000000e+00
0.000000000000000e+00 0.000000000000000e+00 0.000000000000000e+00
0.000000000000000e+00 0.000000000000000e+00 0.000000000000000e+00
0.000000000000000e+00 0.000000000000000e+00 0.000000000000000e+00
0.000000000000000e+00 0.000000000000000e+00 0.000000000000000e+00
0.000000000000000e+00 0.000000000000000e+00 0.000000000000000e+00
0.000000000000000e+00 0.000000000000000e+00 0.000000000000000e+00
0.000000000000000e+00 0.000000000000000e+00 0.000000000000000e+00
0.000000000000000e+00 0.000000000000000e+00 0.000000000000000e+00
0.000000000000000e+00 0.000000000000000e+00 0.000000000000000e+00
0.000000000000000e+00 0.000000000000000e+00 0.000000000000000e+00
0.000000000000000e+00 0.000000000000000e+00 0.000000000000000e+00
0.000000000000000e+00 0.000000000000000e+00 0.000000000000000e+00
0.000000000000000e+00 0.000000000000000e+00 0.000000000000000e+00
0.000000000000000e+00 0.000000000000000e+00 0.000000000000000e+00
0.000000000000000e+00 0.000000000000000e+00 0.000000000000000e+00
0.000000000000000e+00 0.000000000000000e+00 0.000000000000000e+00
0.000000000000000e+00 0.000000000000000e+00 0.000000000000000e+00
0.000000000000000e+00 0.000000000000000e+00 0.000000000000000e+00
0.000000000000000e+00 0.000000000000000e+00 0.000000000000000e+00
0.000000000000000e+00 0.000000000000000e+00 0.000000000000000e+00
0.000000000000000e+00 0.000000000000000e+00 0.000000000000000e+00
0.000000000000000e+00 0.000000000000000e+00 0.000000000000000e+00
0.000000000000000e+00 0.000000000000000e+00 0.000000000000000e+00
0.000000000000000e+00 0.000000000000000e+00 0.000000000000000e+00
0.000000000000000e+00 0.000000000000000e+00 0.000000000000000e+00
0.000000000000000e+00 0.000000000000000e+00 0.000000000000000e+00
0.000000000000000e+00 0.000000000000000e+00 0.000000000000000e+00
0.000000000000000e+00 0.000000000000000e+00 0.000000000000000e+00
0.000000000000000e+00 0.000000000000000e+00 0.000000000000000e+00
0.000000000000000e+00 0.000000000000000e+00 0.000000000000000e+00
0.000000000000000e+00 0.000000000000000e+00 0.000000000000000e+00
0.000000000000000e+00 0.000000000000000e+00 0.000000000000000e+00
0.000000000000000e+00 0.000000000000000e+00 0.000000000000000e+00
0.000000000000000e+00 0.000000000000000e+00 0.000000000000000e+00
0.000000000000000e+00 0.000000000000000e+00 0.000000000000000e+00
0.000000000000000e+00 0.000000000000000e+00 0.000000000000000e+00
0.000000000000000e+00 0.000000000000000e+00 0.000000000000000e+00
0.000000000000000e+00 0.000000000000000e+00 0.000000000000000e+00
0.000000000000000e+00 0.000000000000000e+00 0.000000000000000e+00
0.000000000000000e+00 0.000000000000000e+00 0.000000000000000e+00
0.000000000000000e+00 0.000000000000000e+00 0.000000000000000e+00
0.000000000000000e+00 0.000000000000000e+00 0.000000000000000e+00
0.000000000000000e+00 0.000000000000000e+00 0.000000000000000e+00
0.000000000000000e+00 0.000000000000000e+00 0.000000000000000e+00
0.000000000000000e+00 0.000000000000000e+00 0.000000000000000e+00
0.000000000000000e+00 0.000000000000000e+00 0.000000000000000e+00
0.000000000000000e+00 0.000000000000000e+00 0.000000000000000e+00
0.000000000000000e+00 0.000000000000000e+00 0.000000000000000e+00
0.000000000000000e+00 0.000000000000000e+00 0.000000000000000e+00
0.000000000000000e+00 0.000000000000000e+00 0.000000000000000e+00
0.000000000000000e+00 0.000000000000000e+00 0.000000000000000e+00
0.000000000000000e+00 0.000000000000000e+00 0.000000000000000e+00
0.000000000000000e+00 0.000000000000000e+00 0.000000000000000e+00
0.000000000000000e+00 0.000000000000000e+00 0.000000000000000e+00
0.000000000000000e+00 0.000000000000000e+00 0.000000000000000e+00
0.000000000000000e+00 0.000000000000000e+00 0.000000000000000e+00
0.000000000000000e+00 0.000000000000000e+00 0.000000000000000e+00
0.000000000000000e+00 0.000000000000000e+00 0.000000000000000e+00
0.000000000000000e+00 0.000000000000000e+00 0.000000000000000e+00
0.000000000000000e+00 0.000000000000000e+00 0.000000000000000e+00
0.000000000000000e+00 0.000000000000000e+00 0.000000000000000e+00
0.000000000000000e+00 0.000000000000000e+00 0.000000000000000e+00
0.000000000000000e+00 0.000000000000000e+00 0.000000000000000e+00
0.000000000000000e+00 0.000000000000000e+00 0.000000000000000e+00
0.000000000000000e+00 0.000000000000000e+00 0.000000000000000e+00
0.000000000000000e+00 0.000000000000000e+00 0.000000000000000e+00
0.000000000000000e+00 0.000000000000000e+00 0.000000000000000e+00
0.000000000000000e+00 0.000000000000000e+00 0.000000000000000e+00
0.000000000000000e+00 0.000000000000000e+00 0.000000000000000e+00
0.000000000000000e+00 0.000000000000000e+00 0.000000000000000e+00
0.000000000000000e+00 0.000000000000000e+00 0.000000000000000e+00
0.000000000000000e+00 0.000000000000000e+00 0.000000000000000e+00
0.000000000000000e+00 0.000000000000000e+00 0.000000000000000e+00
0.000000000000000e+00 0.000000000000000e+00 0.000000000000000e+00
0.000000000000000e+00 0.000000000000000e+00 0.000000000000000e+00
0.000000000000000e+00 0.000000000000000e+00 0.000000000000000e+00
0.000000000000000e+00 0.000000000000000e+00 0.000000000000000e+00
0.000000000000000e+00 0.000000000000000e+00 0.000000000000000e+00
0.000000000000000e+00 0.000000000000000e+00 0.000000000000000e+00
0.000000000000000e+00 0.000000000000000e+00 0.000000000000000e+00
0.000000000000000e+00 0.000000000000000e+00 0.000000000000000e+00
0.000000000000000e+00 0.000000000000000e+00 0.000000000000000e+00
0.000000000000000e+00 0.000000000000000e+00 0.000000000000000e+00
0.000000000000000e+00 0.000000000000000e+00 0.000000000000000e+00
0.000000000000000e+00 0.000000000000000e+00 0.000000000000000e+00
0.000000000000000e+00 0.000000000000000e+00 0.000000000000000e+00
0.000000000000000e+00 0.000000000000000e+00 0.000000000000000e+00
0.000000000000000e+00 0.000000000000000e+00 0.000000000000000e+00
0.000000000000000e+00 0.000000000000000e+00 0.000000000000000e+00
0.000000000000000e+00 0.000000000000000e+00 0.000000000000000e+00
0.000000000000000e+00 0.000000000000000e+00 0.000000000000000e+00
0.000000000000000e+00 0.000000000000000e+00 0.000000000000000e+00
0.000000000000000e+00 0.000000000000000e+00 0.000000000000000e+00
0.000000000000000e+00 0.000000000000000e+00 0.000000000000000e+00
0.000000000000000e+00 0.000000000000000e+00 0.000000000000000e+00
0.000000000000000e+00 0.000000000000000e+00 0.000000000000000e+00
0.000000000000000e+00 0.000000000000000e+00 0.000000000000000e+00
0.000000000000000e+00 0.000000000000000e+00 0.000000000000000e+00
0.000000000000000e+00 0.000000000000000e+00 0.000000000000000e+00
0.000000000000000e+00 0.000000000000000e+00 0.000000000000000e+00
0.000000000000000e+00 0.000000000000000e+00 0.000000000000000e+00
0.000000000000000e+00 0.000000000000000e+00 0.000000000000000e+00
0.000000000000000e+00 0.000000000000000e+00 0.000000000000000e+00
0.000000000000000e+00 0.000000000000000e+00 0.000000000000000e+00
0.000000000000000e+00 0.000000000000000e+00 0.000000000000000e+00
0.000000000000000e+00 0.000000000000000e+00 0.000000000000000e+00
0.000000000000000e+00 0.000000000000000e+00 0.000000000000000e+00
0.000000000000000e+00 0.000000000000000e+00 0.000000000000000e+00
0.000000000000000e+00 0.000000000000000e+00 0.000000000000000e+00
0.000000000000000e+00 0.000000000000000e+00 0.000000000000000e+00
0.000000000000000e+00 0.000000000000000e+00 0.000000000000000e+00
0.000000000000000e+00 0.000000000000000e+00 0.000000000000000e+00
0.000000000000000e+00 0.000000000000000e+00 0.000000000000000e+00
0.000000000000000e+00 0.000000000000000e+00 0.000000000000000e+00
0.000000000000000e+00 0.000000000000000e+00 0.000000000000000e+00
0.000000000000000e+00 0.000000000000000e+00 0.000000000000000e+00
0.000000000000000e+00 0.000000000000000e+00 0.000000000000000e+00
0.000000000000000e+00 0.000000000000000e+00 0.000000000000000e+00
0.000000000000000e+00 0.000000000000000e+00 0.000000000000000e+00
0.000000000000000e+00 0.000000000000000e+00 0.000000000000000e+00
0.000000000000000e+00 0.000000000000000e+00 0.000000000000000e+00
0.000000000000000e+00 0.000000000000000e+00 0.000000000000000e+00
0.000000000000000e+00 0.000000000000000e+00 0.000000000000000e+00
0.000000000000000e+00 0.000000000000000e+00 0.000000000000000e+00
0.000000000000000e+00 0.000000000000000e+00 0.000000000000000e+00
0.000000000000000e+00 0.000000000000000e+00 0.000000000000000e+00
0.000000000000000e+00 0.000000000000000e+00 0.000000000000000e+00
0.000000000000000e+00 0.000000000000000e+00 0.000000000000000e+00
0.000000000000000e+00 0.000000000000000e+00 0.000000000000000e+00
0.000000000000000e+00 0.000000000000000e+00 0.000000000000000e+00
0.000000000000000e+00 0.000000000000000e+00 0.000000000000000e+00
0.000000000000000e+00 0.000000000000000e+00 0.000000000000000e+00
0.000000000000000e+00 0.000000000000000e+00 0.000000000000000e+00
0.000000000000000e+00 0.000000000000000e+00 0.000000000000000e+00
0.000000000000000e+00 0.000000000000000e+00 0.000000000000000e+00
0.000000000000000e+00 0.000000000000000e+00 0.000000000000000e+00
0.000000000000000e+00 0.000000000000000e+00 0.000000000000000e+00
0.000000000000000e+00 0.000000000000000e+00 0.000000000000000e+00
0.000000000000000e+00 0.000000000000000e+00 0.000000000000000e+00
0.000000000000000e+00 0.000000000000000e+00 0.000000000000000e+00
0.000000000000000e+00 0.000000000000000e+00 0.000000000000000e+00
0.000000000000000e+00 0.000000000000000e+00 0.000000000000000e+00
0.000000000000000e+00 0.000000000000000e+00 0.000000000000000e+00
0.000000000000000e+00 0.000000000000000e+00 0.000000000000000e+00
0.000000000000000e+00 0.000000000000000e+00 0.000000000000000e+00
0.000000000000000e+00 0.000000000000000e+00 0.000000000000000e+00
0.000000000000000e+00 0.000000000000000e+00 0.000000000000000e+00
0.000000000000000e+00 0.000000000000000e+00 0.000000000000000e+00
0.000000000000000e+00 0.000000000000000e+00 0.000000000000000e+00
0.000000000000000e+00 0.000000000000000e+00 0.000000000000000e+00
0.000000000000000e+00 0.000000000000000e+00 0.000000000000000e+00
0.000000000000000e+00 0.000000000000000e+00 0.000000000000000e+00
0.000000000000000e+00 0.000000000000000e+00 0.000000000000000e+00
0.000000000000000e+00 0.000000000000000e+00 0.000000000000000e+00
0.000000000000000e+00 0.000000000000000e+00 0.000000000000000e+00
0.000000000000000e+00 0.000000000000000e+00 0.000000000000000e+00
0.000000000000000e+00 0.000000000000000e+00 0.000000000000000e+00
0.000000000000000e+00 0.000000000000000e+00 0.000000000000000e+00
0.000000000000000e+00 0.000000000000000e+00 0.000000000000000e+00
0.000000000000000e+00 0.000000000000000e+00 0.000000000000000e+00
0.000000000000000e+00 0.000000000000000e+00 0.000000000000000e+00
0.000000000000000e+00 0.000000000000000e+00 0.000000000000000e+00
0.000000000000000e+00 0.000000000000000e+00 0.000000000000000e+00
0.000000000000000e+00 0.000000000000000e+00 0.000000000000000e+00
0.000000000000000e+00 0.000000000000000e+00 0.000000000000000e+00
0.000000000000000e+00 0.000000000000000e+00 0.000000000000000e+00
0.000000000000000e+00 0.000000000000000e+00 0.000000000000000e+00
0.000000000000000e+00 0.000000000000000e+00 0.000000000000000e+00
0.000000000000000e+00 0.000000000000000e+00 0.000000000000000e+00
0.000000000000000e+00 0.000000000000000e+00 0.000000000000000e+00
0.000000000000000e+00 0.000000000000000e+00 0.000000000000000e+00
0.000000000000000e+00 0.000000000000000e+00 0.000000000000000e+00
0.000000000000000e+00 0.000000000000000e+00 0.000000000000000e+00
0.000000000000000e+00 0.000000000000000e+00 0.000000000000000e+00
0.000000000000000e+00 0.000000000000000e+00 0.000000000000000e+00
0.000000000000000e+00 0.000000000000000e+00 0.000000000000000e+00
0.000000000000000e+00 0.000000000000000e+00 0.000000000000000e+00
0.000000000000000e+00 0.000000000000000e+00 0.000000000000000e+00
0.000000000000000e+00 0.000000000000000e+00 0.000000000000000e+00
0.000000000000000e+00 0.000000000000000e+00 0.000000000000000e+00
0.000000000000000e+00 0.000000000000000e+00 0.000000000000000e+00
0.000000000000000e+00 0.000000000000000e+00 0.000000000000000e+00
0.000000000000000e+00 0.000000000000000e+00 0.000000000000000e+00
0.000000000000000e+00 0.000000000000000e+00 0.000000000000000e+00
0.000000000000000e+00 0.000000000000000e+00 0.000000000000000e+00
0.000000000000000e+00 0.000000000000000e+00 0.000000000000000e+00
0.000000000000000e+00 0.000000000000000e+00 0.000000000000000e+00
0.000000000000000e+00 0.000000000000000e+00 0.000000000000000e+00
0.000000000000000e+00 0.000000000000000e+00 0.000000000000000e+00
0.000000000000000e+00 0.000000000000000e+00 0.000000000000000e+00
0.000000000000000e+00 0.000000000000000e+00 0.000000000000000e+00
0.000000000000000e+00 0.000000000000000e+00 0.000000000000000e+00
0.000000000000000e+00 0.000000000000000e+00 0.000000000000000e+00
0.000000000000000e+00 0.000000000000000e+00 0.000000000000000e+00
0.000000000000000e+00 0.000000000000000e+00 0.000000000000000e+00
0.000000000000000e+00 0.000000000000000e+00 0.000000000000000e+00
0.000000000000000e+00 0.000000000000000e+00 0.000000000000000e+00
0.000000000000000e+00 0.000000000000000e+00 0.000000000000000e+00
0.000000000000000e+00 0.000000000000000e+00 0.000000000000000e+00
0.000000000000000e+00 0.000000000000000e+00 0.000000000000000e+00
0.000000000000000e+00 0.000000000000000e+00 0.000000000000000e+00
0.000000000000000e+00 0.000000000000000e+00 0.000000000000000e+00
0.000000000000000e+00 0.000000000000000e+00 0.000000000000000e+00
0.000000000000000e+00 0.000000000000000e+00 0.000000000000000e+00
0.000000000000000e+00 0.000000000000000e+00 0.000000000000000e+00
0.000000000000000e+00 0.000000000000000e+00 0.000000000000000e+00
0.000000000000000e+00 0.000000000000000e+00 0.000000000000000e+00
0.000000000000000e+00 0.000000000000000e+00 0.000000000000000e+00
0.000000000000000e+00 0.000000000000000e+00 0.000000000000000e+00
0.000000000000000e+00 0.000000000000000e+00 0.000000000000000e+00
0.000000000000000e+00 0.000000000000000e+00 0.000000000000000e+00
0.000000000000000e+00 0.000000000000000e+00 0.000000000000000e+00
0.000000000000000e+00 0.000000000000000e+00 0.000000000000000e+00
0.000000000000000e+00 0.000000000000000e+00 0.000000000000000e+00
0.000000000000000e+00 0.000000000000000e+00 0.000000000000000e+00
0.000000000000000e+00 0.000000000000000e+00 0.000000000000000e+00
0.000000000000000e+00 0.000000000000000e+00 0.000000000000000e+00
0.000000000000000e+00 0.000000000000000e+00 0.000000000000000e+00
0.000000000000000e+00 0.000000000000000e+00 0.000000000000000e+00
0.000000000000000e+00 0.000000000000000e+00 0.000000000000000e+00
0.000000000000000e+00 0.000000000000000e+00 0.000000000000000e+00
0.000000000000000e+00 0.000000000000000e+00 0.000000000000000e+00
0.000000000000000e+00 0.000000000000000e+00 0.000000000000000e+00
0.000000000000000e+00 0.000000000000000e+00 0.000000000000000e+00
0.000000000000000e+00 0.000000000000000e+00 0.000000000000000e+00
0.000000000000000e+00 0.000000000000000e+00 0.000000000000000e+00
0.000000000000000e+00 0.000000000000000e+00 0.000000000000000e+00
0.000000000000000e+00 0.000000000000000e+00 0.000000000000000e+00
0.000000000000000e+00 0.000000000000000e+00 0.000000000000000e+00
0.000000000000000e+00 0.000000000000000e+00 0.000000000000000e+00
0.000000000000000e+00 0.000000000000000e+00 0.000000000000000e+00
0.000000000000000e+00 0.000000000000000e+00 0.000000000000000e+00
0.000000000000000e+00 0.000000000000000e+00 0.000000000000000e+00
0.000000000000000e+00 0.000000000000000e+00 0.000000000000000e+00
0.000000000000000e+00 0.000000000000000e+00 0.000000000000000e+00
0.000000000000000e+00 0.000000000000000e+00 0.000000000000000e+00
0.000000000000000e+00 0.000000000000000e+00 0.000000000000000e+00
0.000000000000000e+00 0.000000000000000e+00 0.000000000000000e+00
0.000000000000000e+00 0.000000000000000e+00 0.000000000000000e+00
0.000000000000000e+00 0.000000000000000e+00 0.000000000000000e+00
0.000000000000000e+00 0.000000000000000e+00 0.000000000000000e+00
0.000000000000000e+00 0.000000000000000e+00 0.000000000000000e+00
0.000000000000000e+00 0.000000000000000e+00 0.000000000000000e+00
0.000000000000000e+00 0.000000000000000e+00 0.000000000000000e+00
0.000000000000000e+00 0.000000000000000e+00 0.000000000000000e+00
0.000000000000000e+00 0.000000000000000e+00 0.000000000000000e+00
0.000000000000000e+00 0.000000000000000e+00 0.000000000000000e+00
0.000000000000000e+00 0.000000000000000e+00 0.000000000000000e+00
0.000000000000000e+00 0.000000000000000e+00 0.000000000000000e+00
0.000000000000000e+00 0.000000000000000e+00 0.000000000000000e+00
0.000000000000000e+00 0.000000000000000e+00 0.000000000000000e+00
0.000000000000000e+00 0.000000000000000e+00 0.000000000000000e+00
0.000000000000000e+00 0.000000000000000e+00 0.000000000000000e+00
0.000000000000000e+00 0.000000000000000e+00 0.000000000000000e+00
0.000000000000000e+00 0.000000000000000e+00 0.000000000000000e+00
0.000000000000000e+00 0.000000000000000e+00 0.000000000000000e+00
0.000000000000000e+00 0.000000000000000e+00 0.000000000000000e+00
0.000000000000000e+00 0.000000000000000e+00 0.000000000000000e+00
0.000000000000000e+00 0.000000000000000e+00 0.000000000000000e+00
0.000000000000000e+00 0.000000000000000e+00 0.000000000000000e+00
0.000000000000000e+00 0.000000000000000e+00 0.000000000000000e+00
0.000000000000000e+00 0.000000000000000e+00 0.000000000000000e+00
0.000000000000000e+00 0.000000000000000e+00 0.000000000000000e+00
0.000000000000000e+00 0.000000000000000e+00 0.000000000000000e+00
0.000000000000000e+00 0.000000000000000e+00 0.000000000000000e+00
0.000000000000000e+00 0.000000000000000e+00 0.000000000000000e+00
0.000000000000000e+00 0.000000000000000e+00 0.000000000000000e+00
0.000000000000000e+00 0.000000000000000e+00 0.000000000000000e+00
0.000000000000000e+00 0.000000000000000e+00 0.000000000000000e+00
0.000000000000000e+00 0.000000000000000e+00 0.000000000000000e+00
0.000000000000000e+00 0.000000000000000e+00 0.000000000000000e+00
0.000000000000000e+00 0.000000000000000e+00 0.000000000000000e+00
0.000000000000000e+00 0.000000000000000e+00 0.000000000000000e+00
0.000000000000000e+00 0.000000000000000e+00 0.000000000000000e+00
0.000000000000000e+00 0.000000000000000e+00 0.000000000000000e+00
0.000000000000000e+00 0.000000000000000e+00 0.000000000000000e+00
0.000000000000000e+00 0.000000000000000e+00 0.000000000000000e+00
0.000000000000000e+00 0.000000000000000e+00 0.000000000000000e+00
0.000000000000000e+00 0.000000000000000e+00 0.000000000000000e+00
0.000000000000000e+00 0.000000000000000e+00 0.000000000000000e+00
0.000000000000000e+00 0.000000000000000e+00 0.000000000000000e+00
0.000000000000000e+00 0.000000000000000e+00 0.000000000000000e+00
0.000000000000000e+00 0.000000000000000e+00 0.000000000000000e+00
0.000000000000000e+00 0.000000000000000e+00 0.000000000000000e+00
0.000000000000000e+00 0.000000000000000e+00 0.000000000000000e+00
0.000000000000000e+00 0.000000000000000e+00 0.000000000000000e+00
0.000000000000000e+00 0.000000000000000e+00 0.000000000000000e+00
0.000000000000000e+00 0.000000000000000e+00 0.000000000000000e+00
0.000000000000000e+00 0.000000000000000e+00 0.000000000000000e+00
0.000000000000000e+00 0.000000000000000e+00 0.000000000000000e+00
0.000000000000000e+00 0.000000000000000e+00 0.000000000000000e+00
0.000000000000000e+00 0.000000000000000e+00 0.000000000000000e+00
0.000000000000000e+00 0.000000000000000e+00 0.000000000000000e+00
0.000000000000000e+00 0.000000000000000e+00 0.000000000000000e+00
0.000000000000000e+00 0.000000000000000e+00 0.000000000000000e+00
0.000000000000000e+00 0.000000000000000e+00 0.000000000000000e+00
0.000000000000000e+00 0.000000000000000e+00 0.000000000000000e+00
0.000000000000000e+00 0.000000000000000e+00 0.000000000000000e+00
0.000000000000000e+00 0.000000000000000e+00 0.000000000000000e+00
0.000000000000000e+00 0.000000000000000e+00 0.000000000000000e+00
0.000000000000000e+00 0.000000000000000e+00 0.000000000000000e+00
0.000000000000000e+00 0.000000000000000e+00 0.000000000000000e+00
0.000000000000000e+00 0.000000000000000e+00 0.000000000000000e+00
0.000000000000000e+00 0.000000000000000e+00 0.000000000000000e+00
0.000000000000000e+00 0.000000000000000e+00 0.000000000000000e+00
0.000000000000000e+00 0.000000000000000e+00 0.000000000000000e+00
0.000000000000000e+00 0.000000000000000e+00 0.000000000000000e+00
0.000000000000000e+00 0.000000000000000e+00 0.000000000000000e+00
0.000000000000000e+00 0.000000000000000e+00 0.000000000000000e+00
0.000000000000000e+00 0.000000000000000e+00 0.000000000000000e+00
0.000000000000000e+00 0.000000000000000e+00 0.000000000000000e+00
0.000000000000000e+00 0.000000000000000e+00 0.000000000000000e+00
0.000000000000000e+00 0.000000000000000e+00 0.000000000000000e+00
0.000000000000000e+00 0.000000000000000e+00 0.000000000000000e+00
0.000000000000000e+00 0.000000000000000e+00 0.000000000000000e+00
0.000000000000000e+00 0.000000000000000e+00 0.000000000000000e+00
0.000000000000000e+00 0.000000000000000e+00 0.000000000000000e+00
0.000000000000000e+00 0.000000000000000e+00 0.000000000000000e+00
0.000000000000000e+00 0.000000000000000e+00 0.000000000000000e+00
0.000000000000000e+00 0.000000000000000e+00 0.000000000000000e+00
0.000000000000000e+00 0.000000000000000e+00 0.000000000000000e+00
0.000000000000000e+00 0.000000000000000e+00 0.000000000000000e+00
0.000000000000000e+00 0.000000000000000e+00 0.000000000000000e+00
0.000000000000000e+00 0.000000000000000e+00 0.000000000000000e+00
0.000000000000000e+00 0.000000000000000e+00 0.000000000000000e+00
0.000000000000000e+00 0.000000000000000e+00 0.000000000000000e+00
0.000000000000000e+00 0.000000000000000e+00 0.000000000000000e+00
0.000000000000000e+00 0.000000000000000e+00 0.000000000000000e+00
0.000000000000000e+00 0.000000000000000e+00 0.000000000000000e+00
0.000000000000000e+00 0.000000000000000e+00 0.000000000000000e+00
0.000000000000000e+00 0.000000000000000e+00 0.000000000000000e+00
0.000000000000000e+00 0.000000000000000e+00 0.000000000000000e+00
0.000000000000000e+00 0.000000000000000e+00 0.000000000000000e+00
0.000000000000000e+00 0.000000000000000e+00 0.000000000000000e+00
0.000000000000000e+00 0.000000000000000e+00 0.000000000000000e+00
0.000000000000000e+00 0.000000000000000e+00 0.000000000000000e+00
0.000000000000000e+00 0.000000000000000e+00 0.000000000000000e+00
0.000000000000000e+00 0.000000000000000e+00 0.000000000000000e+00
0.000000000000000e+00 0.000000000000000e+00 0.000000000000000e+00
0.000000000000000e+00 0.000000000000000e+00 0.000000000000000e+00
0.000000000000000e+00 0.000000000000000e+00 0.000000000000000e+00
0.000000000000000e+00 0.000000000000000e+00 0.000000000000000e+00
0.000000000000000e+00 0.000000000000000e+00 0.000000000000000e+00
0.000000000000000e+00 0.000000000000000e+00 0.000000000000000e+00
0.000000000000000e+00 0.000000000000000e+00 0.000000000000000e+00
0.000000000000000e+00 0.000000000000000e+00 0.000000000000000e+00
0.000000000000000e+00 0.000000000000000e+00 0.000000000000000e+00
0.000000000000000e+00 0.000000000000000e+00 0.000000000000000e+00
0.000000000000000e+00 0.000000000000000e+00 0.000000000000000e+00
0.000000000000000e+00 0.000000000000000e+00 0.000000000000000e+00
0.000000000000000e+00 0.000000000000000e+00 0.000000000000000e+00
0.000000000000000e+00 0.000000000000000e+00 0.000000000000000e+00
0.000000000000000e+00 0.000000000000000e+00 0.000000000000000e+00
0.000000000000000e+00 0.000000000000000e+00 0.000000000000000e+00
0.000000000000000e+00 0.000000000000000e+00 0.000000000000000e+00
0.000000000000000e+00 0.000000000000000e+00 0.000000000000000e+00
0.000000000000000e+00 0.000000000000000e+00 0.000000000000000e+00
0.000000000000000e+00 0.000000000000000e+00 0.000000000000000e+00
0.000000000000000e+00 0.000000000000000e+00 0.000000000000000e+00
0.000000000000000e+00 0.000000000000000e+00 0.000000000000000e+00
0.000000000000000e+00 0.000000000000000e+00 0.000000000000000e+00
0.000000000000000e+00 0.000000000000000e+00 0.000000000000000e+00
0.000000000000000e+00 0.000000000000000e+00 0.000000000000000e+00
0.000000000000000e+00 0.000000000000000e+00 0.000000000000000e+00
0.000000000000000e+00 0.000000000000000e+00 0.000000000000000e+00
0.000000000000000e+00 0.000000000000000e+00 0.000000000000000e+00
0.000000000000000e+00 0.000000000000000e+00 0.000000000000000e+00
0.000000000000000e+00 0.000000000000000e+00 0.000000000000000e+00
0.000000000000000e+00 0.000000000000000e+00 0.000000000000000e+00
0.000000000000000e+00 0.000000000000000e+00 0.000000000000000e+00
0.000000000000000e+00 0.000000000000000e+00 0.000000000000000e+00
0.000000000000000e+00 0.000000000000000e+00 0.000000000000000e+00
0.000000000000000e+00 0.000000000000000e+00 0.000000000000000e+00
0.000000000000000e+00 0.000000000000000e+00 0.000000000000000e+00
0.000000000000000e+00 0.000000000000000e+00 0.000000000000000e+00
0.000000000000000e+00 0.000000000000000e+00 0.000000000000000e+00
0.000000000000000e+00 0.000000000000000e+00 0.000000000000000e+00
0.000000000000000e+00 0.000000000000000e+00 0.000000000000000e+00
0.000000000000000e+00 0.000000000000000e+00 0.000000000000000e+00
0.000000000000000e+00 0.000000000000000e+00 0.000000000000000e+00
0.000000000000000e+00 0.000000000000000e+00 0.000000000000000e+00
0.000000000000000e+00 0.000000000000000e+00 0.000000000000000e+00
0.000000000000000e+00 0.000000000000000e+00 0.000000000000000e+00
0.000000000000000e+00 0.000000000000000e+00 0.000000000000000e+00
0.000000000000000e+00 0.000000000000000e+00 0.000000000000000e+00
0.000000000000000e+00 0.000000000000000e+00 0.000000000000000e+00
0.000000000000000e+00 0.000000000000000e+00 0.000000000000000e+00
0.000000000000000e+00 0.000000000000000e+00 0.000000000000000e+00
0.000000000000000e+00 0.000000000000000e+00 0.000000000000000e+00
0.000000000000000e+00 0.000000000000000e+00 0.000000000000000e+00
0.000000000000000e+00 0.000000000000000e+00 0.000000000000000e+00
0.000000000000000e+00 0.000000000000000e+00 0.000000000000000e+00
0.000000000000000e+00 0.000000000000000e+00 0.000000000000000e+00
0.000000000000000e+00 0.000000000000000e+00 0.000000000000000e+00
0.000000000000000e+00 0.000000000000000e+00 0.000000000000000e+00
0.000000000000000e+00 0.000000000000000e+00 0.000000000000000e+00
0.000000000000000e+00 0.000000000000000e+00 0.000000000000000e+00
0.000000000000000e+00 0.000000000000000e+00 0.000000000000000e+00
0.000000000000000e+00 0.000000000000000e+00 0.000000000000000e+00
0.000000000000000e+00 0.000000000000000e+00 0.000000000000000e+00
0.000000000000000e+00 0.000000000000000e+00 0.000000000000000e+00
0.000000000000000e+00 0.000000000000000e+00 0.000000000000000e+00
0.000000000000000e+00 0.000000000000000e+00 0.000000000000000e+00
0.000000000000000e+00 0.000000000000000e+00 0.000000000000000e+00
0.000000000000000e+00 0.000000000000000e+00 0.000000000000000e+00
0.000000000000000e+00 0.000000000000000e+00 0.000000000000000e+00
0.000000000000000e+00 0.000000000000000e+00 0.000000000000000e+00
0.000000000000000e+00 0.000000000000000e+00 0.000000000000000e+00
0.000000000000000e+00 0.000000000000000e+00 0.000000000000000e+00
0.000000000000000e+00 0.000000000000000e+00 0.000000000000000e+00
0.000000000000000e+00 0.000000000000000e+00 0.000000000000000e+00
0.000000000000000e+00 0.000000000000000e+00 0.000000000000000e+00
0.000000000000000e+00 0.000000000000000e+00 0.000000000000000e+00
0.000000000000000e+00 0.000000000000000e+00 0.000000000000000e+00
0.000000000000000e+00 0.000000000000000e+00 0.000000000000000e+00
0.000000000000000e+00 0.000000000000000e+00 0.000000000000000e+00
0.000000000000000e+00 0.000000000000000e+00 0.000000000000000e+00
0.000000000000000e+00 0.000000000000000e+00 0.000000000000000e+00
0.000000000000000e+00 0.000000000000000e+00 0.000000000000000e+00
0.000000000000000e+00 0.000000000000000e+00 0.000000000000000e+00
0.000000000000000e+00 0.000000000000000e+00 0.000000000000000e+00
0.000000000000000e+00 0.000000000000000e+00 0.000000000000000e+00
0.000000000000000e+00 0.000000000000000e+00 0.000000000000000e+00
0.000000000000000e+00 0.000000000000000e+00 0.000000000000000e+00
0.000000000000000e+00 0.000000000000000e+00 0.000000000000000e+00
0.000000000000000e+00 0.000000000000000e+00 0.000000000000000e+00
0.000000000000000e+00 0.000000000000000e+00 0.000000000000000e+00
0.000000000000000e+00 0.000000000000000e+00 0.000000000000000e+00
0.000000000000000e+00 0.000000000000000e+00 0.000000000000000e+00
0.000000000000000e+00 0.000000000000000e+00 0.000000000000000e+00
0.000000000000000e+00 0.000000000000000e+00 0.000000000000000e+00
0.000000000000000e+00 0.000000000000000e+00 0.000000000000000e+00
0.000000000000000e+00 0.000000000000000e+00 0.000000000000000e+00
0.000000000000000e+00 0.000000000000000e+00 0.000000000000000e+00
0.000000000000000e+00 0.000000000000000e+00 0.000000000000000e+00
0.000000000000000e+00 0.000000000000000e+00 0.000000000000000e+00
0.000000000000000e+00 0.000000000000000e+00 0.000000000000000e+00
0.000000000000000e+00 0.000000000000000e+00 0.000000000000000e+00
0.000000000000000e+00 0.000000000000000e+00 0.000000000000000e+00
0.000000000000000e+00 0.000000000000000e+00 0.000000000000000e+00
0.000000000000000e+00 0.000000000000000e+00 0.000000000000000e+00
0.000000000000000e+00 0.000000000000000e+00 0.000000000000000e+00
0.000000000000000e+00 0.000000000000000e+00 0.000000000000000e+00
0.000000000000000e+00 0.000000000000000e+00 0.000000000000000e+00
0.000000000000000e+00 0.000000000000000e+00 0.000000000000000e+00
0.000000000000000e+00 0.000000000000000e+00 0.000000000000000e+00
0.000000000000000e+00 0.000000000000000e+00 0.000000000000000e+00
0.000000000000000e+00 0.000000000000000e+00 0.000000000000000e+00
0.000000000000000e+00 0.000000000000000e+00 0.000000000000000e+00
0.000000000000000e+00 0.000000000000000e+00 0.000000000000000e+00
0.000000000000000e+00 0.000000000000000e+00 0.000000000000000e+00
0.000000000000000e+00 0.000000000000000e+00 0.000000000000000e+00
0.000000000000000e+00 0.000000000000000e+00 0.000000000000000e+00
0.000000000000000e+00 0.000000000000000e+00 0.000000000000000e+00
0.000000000000000e+00 0.000000000000000e+00 0.000000000000000e+00
0.000000000000000e+00 0.000000000000000e+00 0.000000000000000e+00
0.000000000000000e+00 0.000000000000000e+00 0.000000000000000e+00
0.000000000000000e+00 0.000000000000000e+00 0.000000000000000e+00
0.000000000000000e+00 0.000000000000000e+00 0.000000000000000e+00
0.000000000000000e+00 0.000000000000000e+00 0.000000000000000e+00
0.000000000000000e+00 0.000000000000000e+00 0.000000000000000e+00
0.000000000000000e+00 0.000000000000000e+00 0.000000000000000e+00
0.000000000000000e+00 0.000000000000000e+00 0.000000000000000e+00
0.000000000000000e+00 0.000000000000000e+00 0.000000000000000e+00
0.000000000000000e+00 0.000000000000000e+00 0.000000000000000e+00
0.000000000000000e+00 0.000000000000000e+00 0.000000000000000e+00
0.000000000000000e+00 0.000000000000000e+00 0.000000000000000e+00
0.000000000000000e+00 0.000000000000000e+00 0.000000000000000e+00
0.000000000000000e+00 0.000000000000000e+00 0.000000000000000e+00
0.000000000000000e+00 0.000000000000000e+00 0.000000000000000e+00
0.000000000000000e+00 0.000000000000000e+00 0.000000000000000e+00
0.000000000000000e+00 0.000000000000000e+00 0.000000000000000e+00
0.000000000000000e+00 0.000000000000000e+00 0.000000000000000e+00
0.000000000000000e+00 0.000000000000000e+00 0.000000000000000e+00
0.000000000000000e+00 0.000000000000000e+00 0.000000000000000e+00
0.000000000000000e+00 0.000000000000000e+00 0.000000000000000e+00
0.000000000000000e+00 0.000000000000000e+00 0.000000000000000e+00
0.000000000000000e+00 0.000000000000000e+00 0.000000000000000e+00
0.000000000000000e+00 0.000000000000000e+00 0.000000000000000e+00
0.000000000000000e+00 0.000000000000000e+00 0.000000000000000e+00
0.000000000000000e+00 0.000000000000000e+00 0.000000000000000e+00
0.000000000000000e+00 0.000000000000000e+00 0.000000000000000e+00
0.000000000000000e+00 0.000000000000000e+00 0.000000000000000e+00
0.000000000000000e+00 0.000000000000000e+00 0.000000000000000e+00
0.000000000000000e+00 0.000000000000000e+00 0.000000000000000e+00
0.000000000000000e+00 0.000000000000000e+00 0.000000000000000e+00
0.000000000000000e+00 0.000000000000000e+00 0.000000000000000e+00
0.000000000000000e+00 0.000000000000000e+00 0.000000000000000e+00
0.000000000000000e+00 0.000000000000000e+00 0.000000000000000e+00
0.000000000000000e+00 0.000000000000000e+00 0.000000000000000e+00
0.000000000000000e+00 0.000000000000000e+00 0.000000000000000e+00
0.000000000000000e+00 0.000000000000000e+00 0.000000000000000e+00
0.000000000000000e+00 0.000000000000000e+00 0.000000000000000e+00
0.000000000000000e+00 0.000000000000000e+00 0.000000000000000e+00
0.000000000000000e+00 0.000000000000000e+00 0.000000000000000e+00
0.000000000000000e+00 0.000000000000000e+00 0.000000000000000e+00
0.000000000000000e+00 0.000000000000000e+00 0.000000000000000e+00
0.000000000000000e+00 0.000000000000000e+00 0.000000000000000e+00
0.000000000000000e+00 0.000000000000000e+00 0.000000000000000e+00
0.000000000000000e+00 0.000000000000000e+00 0.000000000000000e+00
0.000000000000000e+00 0.000000000000000e+00 0.000000000000000e+00
0.000000000000000e+00 0.000000000000000e+00 0.000000000000000e+00
0.000000000000000e+00 0.000000000000000e+00 0.000000000000000e+00
0.000000000000000e+00 0.000000000000000e+00 0.000000000000000e+00
0.000000000000000e+00 0.000000000000000e+00 0.000000000000000e+00
0.000000000000000e+00 0.000000000000000e+00 0.000000000000000e+00
0.000000000000000e+00 0.000000000000000e+00 0.000000000000000e+00
0.000000000000000e+00 0.000000000000000e+00 0.000000000000000e+00
0.000000000000000e+00 0.000000000000000e+00 0.000000000000000e+00
0.000000000000000e+00 0.000000000000000e+00 0.000000000000000e+00
0.000000000000000e+00 0.000000000000000e+00 0.000000000000000e+00
0.000000000000000e+00 0.000000000000000e+00 0.000000000000000e+00
0.000000000000000e+00 0.000000000000000e+00 0.000000000000000e+00
0.000000000000000e+00 0.000000000000000e+00 0.000000000000000e+00
0.000000000000000e+00 0.000000000000000e+00 0.000000000000000e+00
0.000000000000000e+00 0.000000000000000e+00 0.000000000000000e+00
0.000000000000000e+00 0.000000000000000e+00 0.000000000000000e+00
0.000000000000000e+00 0.000000000000000e+00 0.000000000000000e+00
0.000000000000000e+00 0.000000000000000e+00 0.000000000000000e+00
0.000000000000000e+00 0.000000000000000e+00 0.000000000000000e+00
0.000000000000000e+00 0.000000000000000e+00 0.000000000000000e+00
0.000000000000000e+00 0.000000000000000e+00 0.000000000000000e+00
0.000000000000000e+00 0.000000000000000e+00 0.000000000000000e+00
0.000000000000000e+00 0.000000000000000e+00 0.000000000000000e+00
0.000000000000000e+00 0.000000000000000e+00 0.000000000000000e+00
0.000000000000000e+00 0.000000000000000e+00 0.000000000000000e+00
0.000000000000000e+00 0.000000000000000e+00 0.000000000000000e+00
0.000000000000000e+00 0.000000000000000e+00 0.000000000000000e+00
0.000000000000000e+00 0.000000000000000e+00 0.000000000000000e+00
0.000000000000000e+00 0.000000000000000e+00 0.000000000000000e+00
0.000000000000000e+00 0.000000000000000e+00 0.000000000000000e+00
0.000000000000000e+00 0.000000000000000e+00 0.000000000000000e+00
0.000000000000000e+00 0.000000000000000e+00 0.000000000000000e+00
0.000000000000000e+00 0.000000000000000e+00 0.000000000000000e+00
0.000000000000000e+00 0.000000000000000e+00 0.000000000000000e+00
0.000000000000000e+00 0.000000000000000e+00 0.000000000000000e+00
0.000000000000000e+00 0.000000000000000e+00 0.000000000000000e+00
0.000000000000000e+00 0.000000000000000e+00 0.000000000000000e+00
0.000000000000000e+00 0.000000000000000e+00 0.000000000000000e+00
0.000000000000000e+00 0.000000000000000e+00 0.000000000000000e+00
0.000000000000000e+00 0.000000000000000e+00 0.000000000000000e+00
0.000000000000000e+00 0.000000000000000e+00 0.000000000000000e+00
0.000000000000000e+00 0.000000000000000e+00 0.000000000000000e+00
0.000000000000000e+00 0.000000000000000e+00 0.000000000000000e+00
0.000000000000000e+00 0.000000000000000e+00 0.000000000000000e+00
0.000000000000000e+00 0.000000000000000e+00 0.000000000000000e+00
0.000000000000000e+00 0.000000000000000e+00 0.000000000000000e+00
0.000000000000000e+00 0.000000000000000e+00 0.000000000000000e+00
0.000000000000000e+00 0.000000000000000e+00 0.000000000000000e+00
0.000000000000000e+00 0.000000000000000e+00 0.000000000000000e+00
0.000000000000000e+00 0.000000000000000e+00 0.000000000000000e+00
0.000000000000000e+00 0.000000000000000e+00 0.000000000000000e+00
0.000000000000000e+00 0.000000000000000e+00 0.000000000000000e+00
0.000000000000000e+00 0.000000000000000e+00 0.000000000000000e+00
0.000000000000000e+00 0.000000000000000e+00 0.000000000000000e+00
0.000000000000000e+00 0.000000000000000e+00 0.000000000000000e+00
0.000000000000000e+00 0.000000000000000e+00 0.000000000000000e+00
0.000000000000000e+00 0.000000000000000e+00 0.000000000000000e+00
0.000000000000000e+00 0.000000000000000e+00 0.000000000000000e+00
0.000000000000000e+00 0.000000000000000e+00 0.000000000000000e+00
0.000000000000000e+00 0.000000000000000e+00 0.000000000000000e+00
0.000000000000000e+00 0.000000000000000e+00 0.000000000000000e+00
0.000000000000000e+00 0.000000000000000e+00 0.000000000000000e+00
0.000000000000000e+00 0.000000000000000e+00 0.000000000000000e+00
0.000000000000000e+00 0.000000000000000e+00 0.000000000000000e+00
0.000000000000000e+00 0.000000000000000e+00 0.000000000000000e+00
0.000000000000000e+00 0.000000000000000e+00 0.000000000000000e+00
0.000000000000000e+00 0.000000000000000e+00 0.000000000000000e+00
0.000000000000000e+00 0.000000000000000e+00 0.000000000000000e+00
0.000000000000000e+00 0.000000000000000e+00 0.000000000000000e+00
0.000000000000000e+00 0.000000000000000e+00 0.000000000000000e+00
0.000000000000000e+00 0.000000000000000e+00 0.000000000000000e+00
0.000000000000000e+00 0.000000000000000e+00 0.000000000000000e+00
0.000000000000000e+00 0.000000000000000e+00 0.000000000000000e+00
0.000000000000000e+00 0.000000000000000e+00 0.000000000000000e+00
0.000000000000000e+00 0.000000000000000e+00 0.000000000000000e+00
0.000000000000000e+00 0.000000000000000e+00 0.000000000000000e+00
0.000000000000000e+00 0.000000000000000e+00 0.000000000000000e+00
0.000000000000000e+00 0.000000000000000e+00 0.000000000000000e+00
0.000000000000000e+00 0.000000000000000e+00 0.000000000000000e+00
0.000000000000000e+00 0.000000000000000e+00 0.000000000000000e+00
0.000000000000000e+00 0.000000000000000e+00 0.000000000000000e+00
0.000000000000000e+00 0.000000000000000e+00 0.000000000000000e+00
0.000000000000000e+00 0.000000000000000e+00 0.000000000000000e+00
0.000000000000000e+00 0.000000000000000e+00 0.000000000000000e+00
0.000000000000000e+00 0.000000000000000e+00 0.000000000000000e+00
0.000000000000000e+00 0.000000000000000e+00 0.000000000000000e+00
0.000000000000000e+00 0.000000000000000e+00 0.000000000000000e+00
0.000000000000000e+00 0.000000000000000e+00 0.000000000000000e+00
0.000000000000000e+00 0.000000000000000e+00 0.000000000000000e+00
0.000000000000000e+00 0.000000000000000e+00 0.000000000000000e+00
0.000000000000000e+00 0.000000000000000e+00 0.000000000000000e+00
0.000000000000000e+00 0.000000000000000e+00 0.000000000000000e+00
0.000000000000000e+00 0.000000000000000e+00 0.000000000000000e+00
0.000000000000000e+00 0.000000000000000e+00 0.000000000000000e+00
0.000000000000000e+00 0.000000000000000e+00 0.000000000000000e+00
0.000000000000000e+00 0.000000000000000e+00 0.000000000000000e+00
0.000000000000000e+00 0.000000000000000e+00 0.000000000000000e+00
0.000000000000000e+00 0.000000000000000e+00 0.000000000000000e+00
0.000000000000000e+00 0.000000000000000e+00 0.000000000000000e+00
0.000000000000000e+00 0.000000000000000e+00 0.000000000000000e+00
0.000000000000000e+00 0.000000000000000e+00 0.000000000000000e+00
0.000000000000000e+00 0.000000000000000e+00 0.000000000000000e+00
0.000000000000000e+00 0.000000000000000e+00 0.000000000000000e+00
0.000000000000000e+00 0.000000000000000e+00 0.000000000000000e+00
0.000000000000000e+00 0.000000000000000e+00 0.000000000000000e+00
0.000000000000000e+00 0.000000000000000e+00 0.000000000000000e+00
0.000000000000000e+00 0.000000000000000e+00 0.000000000000000e+00
0.000000000000000e+00 0.000000000000000e+00 0.000000000000000e+00
0.000000000000000e+00 0.000000000000000e+00 0.000000000000000e+00
0.000000000000000e+00 0.000000000000000e+00 0.000000000000000e+00
0.000000000000000e+00 0.000000000000000e+00 0.000000000000000e+00
0.000000000000000e+00 0.000000000000000e+00 0.000000000000000e+00
0.000000000000000e+00 0.000000000000000e+00 0.000000000000000e+00
0.000000000000000e+00 0.000000000000000e+00 0.000000000000000e+00
0.000000000000000e+00 0.000000000000000e+00 0.000000000000000e+00
0.000000000000000e+00 0.000000000000000e+00 0.000000000000000e+00
0.000000000000000e+00 0.000000000000000e+00 0.000000000000000e+00
0.000000000000000e+00 0.000000000000000e+00 0.000000000000000e+00
0.000000000000000e+00 0.000000000000000e+00 0.000000000000000e+00
0.000000000000000e+00 0.000000000000000e+00 0.000000000000000e+00
0.000000000000000e+00 0.000000000000000e+00 0.000000000000000e+00
0.000000000000000e+00 0.000000000000000e+00 0.000000000000000e+00
0.000000000000000e+00 0.000000000000000e+00 0.000000000000000e+00
0.000000000000000e+00 0.000000000000000e+00 0.000000000000000e+00
0.000000000000000e+00 0.000000000000000e+00 0.000000000000000e+00
0.000000000000000e+00 0.000000000000000e+00 0.000000000000000e+00
0.000000000000000e+00 0.000000000000000e+00 0.000000000000000e+00
0.000000000000000e+00 0.000000000000000e+00 0.000000000000000e+00
0.000000000000000e+00 0.000000000000000e+00 0.000000000000000e+00
0.000000000000000e+00 0.000000000000000e+00 0.000000000000000e+00
0.000000000000000e+00 0.000000000000000e+00 0.000000000000000e+00
0.000000000000000e+00 0.000000000000000e+00 0.000000000000000e+00
0.000000000000000e+00 0.000000000000000e+00 0.000000000000000e+00
0.000000000000000e+00 0.000000000000000e+00 0.000000000000000e+00
0.000000000000000e+00 0.000000000000000e+00 0.000000000000000e+00
0.000000000000000e+00 0.000000000000000e+00 0.000000000000000e+00
0.000000000000000e+00 0.000000000000000e+00 0.000000000000000e+00
0.000000000000000e+00 0.000000000000000e+00 0.000000000000000e+00
0.000000000000000e+00 0.000000000000000e+00 0.000000000000000e+00
0.000000000000000e+00 0.000000000000000e+00 0.000000000000000e+00
0.000000000000000e+00 0.000000000000000e+00 0.000000000000000e+00
0.000000000000000e+00 0.000000000000000e+00 0.000000000000000e+00
0.000000000000000e+00 0.000000000000000e+00 0.000000000000000e+00
0.000000000000000e+00 0.000000000000000e+00 0.000000000000000e+00
0.000000000000000e+00 0.000000000000000e+00 0.000000000000000e+00
0.000000000000000e+00 0.000000000000000e+00 0.000000000000000e+00
0.000000000000000e+00 0.000000000000000e+00 0.000000000000000e+00
0.000000000000000e+00 0.000000000000000e+00 0.000000000000000e+00
0.000000000000000e+00 0.000000000000000e+00 0.000000000000000e+00
0.000000000000000e+00 0.000000000000000e+00 0.000000000000000e+00
0.000000000000000e+00 0.000000000000000e+00 0.000000000000000e+00
0.000000000000000e+00 0.000000000000000e+00 0.000000000000000e+00
0.000000000000000e+00 0.000000000000000e+00 0.000000000000000e+00
0.000000000000000e+00 0.000000000000000e+00 0.000000000000000e+00
0.000000000000000e+00 0.000000000000000e+00 0.000000000000000e+00
0.000000000000000e+00 0.000000000000000e+00 0.000000000000000e+00
0.000000000000000e+00 0.000000000000000e+00 0.000000000000000e+00
0.000000000000000e+00 0.000000000000000e+00 0.000000000000000e+00
0.000000000000000e+00 0.000000000000000e+00 0.000000000000000e+00
0.000000000000000e+00 0.000000000000000e+00 0.000000000000000e+00
0.000000000000000e+00 0.000000000000000e+00 0.000000000000000e+00
0.000000000000000e+00 0.000000000000000e+00 0.000000000000000e+00
0.000000000000000e+00 0.000000000000000e+00 0.000000000000000e+00
0.000000000000000e+00 0.000000000000000e+00 0.000000000000000e+00
0.000000000000000e+00 0.000000000000000e+00 0.000000000000000e+00
0.000000000000000e+00 0.000000000000000e+00 0.000000000000000e+00
0.000000000000000e+00 0.000000000000000e+00 0.000000000000000e+00
0.000000000000000e+00 0.000000000000000e+00 0.000000000000000e+00
0.000000000000000e+00 0.000000000000000e+00 0.000000000000000e+00
0.000000000000000e+00 0.000000000000000e+00 0.000000000000000e+00
0.000000000000000e+00 0.000000000000000e+00 0.000000000000000e+00
0.000000000000000e+00 0.000000000000000e+00 0.000000000000000e+00
0.000000000000000e+00 0.000000000000000e+00 0.000000000000000e+00
0.000000000000000e+00 0.000000000000000e+00 0.000000000000000e+00
0.000000000000000e+00 0.000000000000000e+00 0.000000000000000e+00
0.000000000000000e+00 0.000000000000000e+00 0.000000000000000e+00
0.000000000000000e+00 0.000000000000000e+00 0.000000000000000e+00
0.000000000000000e+00 0.000000000000000e+00 0.000000000000000e+00
0.000000000000000e+00 0.000000000000000e+00 0.000000000000000e+00
0.000000000000000e+00 0.000000000000000e+00 0.000000000000000e+00
0.000000000000000e+00 0.000000000000000e+00 0.000000000000000e+00
0.000000000000000e+00 0.000000000000000e+00 0.000000000000000e+00
0.000000000000000e+00 0.000000000000000e+00 0.000000000000000e+00
0.000000000000000e+00 0.000000000000000e+00 0.000000000000000e+00
0.000000000000000e+00 0.000000000000000e+00 0.000000000000000e+00
0.000000000000000e+00 0.000000000000000e+00 0.000000000000000e+00
0.000000000000000e+00 0.000000000000000e+00 0.000000000000000e+00
0.000000000000000e+00 0.000000000000000e+00 0.000000000000000e+00
0.000000000000000e+00 0.000000000000000e+00 0.000000000000000e+00
0.000000000000000e+00 0.000000000000000e+00 0.000000000000000e+00
0.000000000000000e+00 0.000000000000000e+00 0.000000000000000e+00
0.000000000000000e+00 0.000000000000000e+00 0.000000000000000e+00
0.000000000000000e+00 0.000000000000000e+00 0.000000000000000e+00
0.000000000000000e+00 0.000000000000000e+00 0.000000000000000e+00
0.000000000000000e+00 0.000000000000000e+00 0.000000000000000e+00
0.000000000000000e+00 0.000000000000000e+00 0.000000000000000e+00
0.000000000000000e+00 0.000000000000000e+00 0.000000000000000e+00
0.000000000000000e+00 0.000000000000000e+00 0.000000000000000e+00
0.000000000000000e+00 0.000000000000000e+00 0.000000000000000e+00
0.000000000000000e+00 0.000000000000000e+00 0.000000000000000e+00
0.000000000000000e+00 0.000000000000000e+00 0.000000000000000e+00
0.000000000000000e+00 0.000000000000000e+00 0.000000000000000e+00
0.000000000000000e+00 0.000000000000000e+00 0.000000000000000e+00
0.000000000000000e+00 0.000000000000000e+00 0.000000000000000e+00
0.000000000000000e+00 0.000000000000000e+00 0.000000000000000e+00
0.000000000000000e+00 0.000000000000000e+00 0.000000000000000e+00
0.000000000000000e+00 0.000000000000000e+00 0.000000000000000e+00
0.000000000000000e+00 0.000000000000000e+00 0.000000000000000e+00
0.000000000000000e+00 0.000000000000000e+00 0.000000000000000e+00
0.000000000000000e+00 0.000000000000000e+00 0.000000000000000e+00
0.000000000000000e+00 0.000000000000000e+00 0.000000000000000e+00
0.000000000000000e+00 0.000000000000000e+00 0.000000000000000e+00
0.000000000000000e+00 0.000000000000000e+00 0.000000000000000e+00
0.000000000000000e+00 0.000000000000000e+00 0.000000000000000e+00
0.000000000000000e+00 0.000000000000000e+00 0.000000000000000e+00
0.000000000000000e+00 0.000000000000000e+00 0.000000000000000e+00
0.000000000000000e+00 0.000000000000000e+00 0.000000000000000e+00
0.000000000000000e+00 0.000000000000000e+00 0.000000000000000e+00
0.000000000000000e+00 0.000000000000000e+00 0.000000000000000e+00
0.000000000000000e+00 0.000000000000000e+00 0.000000000000000e+00
0.000000000000000e+00 0.000000000000000e+00 0.000000000000000e+00
0.000000000000000e+00 0.000000000000000e+00 0.000000000000000e+00
0.000000000000000e+00 0.000000000000000e+00 0.000000000000000e+00
0.000000000000000e+00 0.000000000000000e+00 0.000000000000000e+00
0.000000000000000e+00 0.000000000000000e+00 0.000000000000000e+00
0.000000000000000e+00 0.000000000000000e+00 0.000000000000000e+00
0.000000000000000e+00 0.000000000000000e+00 0.000000000000000e+00
0.000000000000000e+00 0.000000000000000e+00 0.000000000000000e+00
0.000000000000000e+00 0.000000000000000e+00 0.000000000000000e+00
0.000000000000000e+00 0.000000000000000e+00 0.000000000000000e+00
0.000000000000000e+00 0.000000000000000e+00 0.000000000000000e+00
0.000000000000000e+00 0.000000000000000e+00 0.000000000000000e+00
0.000000000000000e+00 0.000000000000000e+00 0.000000000000000e+00
0.000000000000000e+00 0.000000000000000e+00 0.000000000000000e+00
0.000000000000000e+00 0.000000000000000e+00 0.000000000000000e+00
0.000000000000000e+00 0.000000000000000e+00 0.000000000000000e+00
0.000000000000000e+00 0.000000000000000e+00 0.000000000000000e+00
0.000000000000000e+00 0.000000000000000e+00 0.000000000000000e+00
0.000000000000000e+00 0.000000000000000e+00 0.000000000000000e+00
0.000000000000000e+00 0.000000000000000e+00 0.000000000000000e+00
0.000000000000000e+00 0.000000000000000e+00 0.000000000000000e+00
0.000000000000000e+00 0.000000000000000e+00 0.000000000000000e+00
0.000000000000000e+00 0.000000000000000e+00 0.000000000000000e+00
0.000000000000000e+00 0.000000000000000e+00 0.000000000000000e+00
0.000000000000000e+00 0.000000000000000e+00 0.000000000000000e+00
0.000000000000000e+00 0.000000000000000e+00 0.000000000000000e+00
0.000000000000000e+00 0.000000000000000e+00 0.000000000000000e+00
0.000000000000000e+00 0.000000000000000e+00 0.000000000000000e+00
0.000000000000000e+00 0.000000000000000e+00 0.000000000000000e+00
0.000000000000000e+00 0.000000000000000e+00 0.000000000000000e+00
0.000000000000000e+00 0.000000000000000e+00 0.000000000000000e+00
0.000000000000000e+00 0.000000000000000e+00 0.000000000000000e+00
0.000000000000000e+00 0.000000000000000e+00 0.000000000000000e+00
0.000000000000000e+00 0.000000000000000e+00 0.000000000000000e+00
0.000000000000000e+00 0.000000000000000e+00 0.000000000000000e+00
0.000000000000000e+00 0.000000000000000e+00 0.000000000000000e+00
0.000000000000000e+00 0.000000000000000e+00 0.000000000000000e+00
0.000000000000000e+00 0.000000000000000e+00 0.000000000000000e+00
0.000000000000000e+00 0.000000000000000e+00 0.000000000000000e+00
0.000000000000000e+00 0.000000000000000e+00 0.000000000000000e+00
0.000000000000000e+00 0.000000000000000e+00 0.000000000000000e+00
0.000000000000000e+00 0.000000000000000e+00 0.000000000000000e+00
0.000000000000000e+00 0.000000000000000e+00 0.000000000000000e+00
0.000000000000000e+00 0.000000000000000e+00 0.000000000000000e+00
0.000000000000000e+00 0.000000000000000e+00 0.000000000000000e+00
0.000000000000000e+00 0.000000000000000e+00 0.000000000000000e+00
0.000000000000000e+00 0.000000000000000e+00 0.000000000000000e+00
0.000000000000000e+00 0.000000000000000e+00 0.000000000000000e+00
0.000000000000000e+00 0.000000000000000e+00 0.000000000000000e+00
0.000000000000000e+00 0.000000000000000e+00 0.000000000000000e+00
0.000000000000000e+00 0.000000000000000e+00 0.000000000000000e+00
0.000000000000000e+00 0.000000000000000e+00 0.000000000000000e+00
0.000000000000000e+00 0.000000000000000e+00 0.000000000000000e+00
0.000000000000000e+00 0.000000000000000e+00 0.000000000000000e+00
0.000000000000000e+00 0.000000000000000e+00 0.000000000000000e+00
0.000000000000000e+00 0.000000000000000e+00 0.000000000000000e+00
0.000000000000000e+00 0.000000000000000e+00 0.000000000000000e+00
0.000000000000000e+00 0.000000000000000e+00 0.000000000000000e+00
0.000000000000000e+00 0.000000000000000e+00 0.000000000000000e+00
0.000000000000000e+00 0.000000000000000e+00 0.000000000000000e+00
0.000000000000000e+00 0.000000000000000e+00 0.000000000000000e+00
0.000000000000000e+00 0.000000000000000e+00 0.000000000000000e+00
0.000000000000000e+00 0.000000000000000e+00 0.000000000000000e+00
0.000000000000000e+00 0.000000000000000e+00 0.000000000000000e+00
0.000000000000000e+00 0.000000000000000e+00 0.000000000000000e+00
0.000000000000000e+00 0.000000000000000e+00 0.000000000000000e+00
0.000000000000000e+00 0.000000000000000e+00 0.000000000000000e+00
0.000000000000000e+00 0.000000000000000e+00 0.000000000000000e+00
0.000000000000000e+00 0.000000000000000e+00 0.000000000000000e+00
0.000000000000000e+00 0.000000000000000e+00 0.000000000000000e+00
0.000000000000000e+00 0.000000000000000e+00 0.000000000000000e+00
0.000000000000000e+00 0.000000000000000e+00 0.000000000000000e+00
0.000000000000000e+00 0.000000000000000e+00 0.000000000000000e+00
0.000000000000000e+00 0.000000000000000e+00 0.000000000000000e+00
0.000000000000000e+00 0.000000000000000e+00 0.000000000000000e+00
0.000000000000000e+00 0.000000000000000e+00 0.000000000000000e+00
0.000000000000000e+00 0.000000000000000e+00 0.000000000000000e+00
0.000000000000000e+00 0.000000000000000e+00 0.000000000000000e+00
0.000000000000000e+00 0.000000000000000e+00 0.000000000000000e+00
0.000000000000000e+00 0.000000000000000e+00 0.000000000000000e+00
0.000000000000000e+00 0.000000000000000e+00 0.000000000000000e+00
0.000000000000000e+00 0.000000000000000e+00 0.000000000000000e+00
0.000000000000000e+00 0.000000000000000e+00 0.000000000000000e+00
0.000000000000000e+00 0.000000000000000e+00 0.000000000000000e+00
0.000000000000000e+00 0.000000000000000e+00 0.000000000000000e+00
0.000000000000000e+00 0.000000000000000e+00 0.000000000000000e+00
0.000000000000000e+00 0.000000000000000e+00 0.000000000000000e+00
0.000000000000000e+00 0.000000000000000e+00 0.000000000000000e+00
0.000000000000000e+00 0.000000000000000e+00 0.000000000000000e+00
0.000000000000000e+00 0.000000000000000e+00 0.000000000000000e+00
0.000000000000000e+00 0.000000000000000e+00 0.000000000000000e+00
0.000000000000000e+00 0.000000000000000e+00 0.000000000000000e+00
0.000000000000000e+00 0.000000000000000e+00 0.000000000000000e+00
0.000000000000000e+00 0.000000000000000e+00 0.000000000000000e+00
0.000000000000000e+00 0.000000000000000e+00 0.000000000000000e+00
0.000000000000000e+00 0.000000000000000e+00 0.000000000000000e+00
0.000000000000000e+00 0.000000000000000e+00 0.000000000000000e+00
0.000000000000000e+00 0.000000000000000e+00 0.000000000000000e+00
0.000000000000000e+00 0.000000000000000e+00 0.000000000000000e+00
0.000000000000000e+00 0.000000000000000e+00 0.000000000000000e+00
0.000000000000000e+00 0.000000000000000e+00 0.000000000000000e+00
0.000000000000000e+00 0.000000000000000e+00 0.000000000000000e+00
0.000000000000000e+00 0.000000000000000e+00 0.000000000000000e+00
0.000000000000000e+00 0.000000000000000e+00 0.000000000000000e+00
0.000000000000000e+00 0.000000000000000e+00 0.000000000000000e+00
0.000000000000000e+00 0.000000000000000e+00 0.000000000000000e+00
0.000000000000000e+00 0.000000000000000e+00 0.000000000000000e+00
0.000000000000000e+00 0.000000000000000e+00 0.000000000000000e+00
0.000000000000000e+00 0.000000000000000e+00 0.000000000000000e+00
0.000000000000000e+00 0.000000000000000e+00 0.000000000000000e+00
0.000000000000000e+00 0.000000000000000e+00 0.000000000000000e+00
0.000000000000000e+00 0.000000000000000e+00 0.000000000000000e+00
0.000000000000000e+00 0.000000000000000e+00 0.000000000000000e+00
0.000000000000000e+00 0.000000000000000e+00 0.000000000000000e+00
0.000000000000000e+00 0.000000000000000e+00 0.000000000000000e+00
0.000000000000000e+00 0.000000000000000e+00 0.000000000000000e+00
0.000000000000000e+00 0.000000000000000e+00 0.000000000000000e+00
0.000000000000000e+00 0.000000000000000e+00 0.000000000000000e+00
0.000000000000000e+00 0.000000000000000e+00 0.000000000000000e+00
0.000000000000000e+00 0.000000000000000e+00 0.000000000000000e+00
0.000000000000000e+00 0.000000000000000e+00 0.000000000000000e+00
0.000000000000000e+00 0.000000000000000e+00 0.000000000000000e+00
0.000000000000000e+00 0.000000000000000e+00 0.000000000000000e+00
0.000000000000000e+00 0.000000000000000e+00 0.000000000000000e+00
0.000000000000000e+00 0.000000000000000e+00 0.000000000000000e+00
0.000000000000000e+00 0.000000000000000e+00 0.000000000000000e+00
0.000000000000000e+00 0.000000000000000e+00 0.000000000000000e+00
0.000000000000000e+00 0.000000000000000e+00 0.000000000000000e+00
0.000000000000000e+00 0.000000000000000e+00 0.000000000000000e+00
0.000000000000000e+00 0.000000000000000e+00 0.000000000000000e+00
0.000000000000000e+00 0.000000000000000e+00 0.000000000000000e+00
0.000000000000000e+00 0.000000000000000e+00 0.000000000000000e+00
0.000000000000000e+00 0.000000000000000e+00 0.000000000000000e+00
0.000000000000000e+00 0.000000000000000e+00 0.000000000000000e+00
0.000000000000000e+00 0.000000000000000e+00 0.000000000000000e+00
0.000000000000000e+00 0.000000000000000e+00 0.000000000000000e+00
0.000000000000000e+00 0.000000000000000e+00 0.000000000000000e+00
0.000000000000000e+00 0.000000000000000e+00 0.000000000000000e+00
0.000000000000000e+00 0.000000000000000e+00 0.000000000000000e+00
0.000000000000000e+00 0.000000000000000e+00 0.000000000000000e+00
0.000000000000000e+00 0.000000000000000e+00 0.000000000000000e+00
0.000000000000000e+00 0.000000000000000e+00 0.000000000000000e+00
0.000000000000000e+00 0.000000000000000e+00 0.000000000000000e+00
0.000000000000000e+00 0.000000000000000e+00 0.000000000000000e+00
0.000000000000000e+00 0.000000000000000e+00 0.000000000000000e+00
0.000000000000000e+00 0.000000000000000e+00 0.000000000000000e+00
0.000000000000000e+00 0.000000000000000e+00 0.000000000000000e+00
0.000000000000000e+00 0.000000000000000e+00 0.000000000000000e+00
0.000000000000000e+00 0.000000000000000e+00 0.000000000000000e+00
0.000000000000000e+00 0.000000000000000e+00 0.000000000000000e+00
0.000000000000000e+00 0.000000000000000e+00 0.000000000000000e+00
0.000000000000000e+00 0.000000000000000e+00 0.000000000000000e+00
0.000000000000000e+00 0.000000000000000e+00 0.000000000000000e+00
0.000000000000000e+00 0.000000000000000e+00 0.000000000000000e+00
0.000000000000000e+00 0.000000000000000e+00 0.000000000000000e+00
0.000000000000000e+00 0.000000000000000e+00 0.000000000000000e+00
0.000000000000000e+00 0.000000000000000e+00 0.000000000000000e+00
0.000000000000000e+00 0.000000000000000e+00 0.000000000000000e+00
0.000000000000000e+00 0.000000000000000e+00 0.000000000000000e+00
0.000000000000000e+00 0.000000000000000e+00 0.000000000000000e+00
0.000000000000000e+00 0.000000000000000e+00 0.000000000000000e+00
0.000000000000000e+00 0.000000000000000e+00 0.000000000000000e+00
0.000000000000000e+00 0.000000000000000e+00 0.000000000000000e+00
0.000000000000000e+00 0.000000000000000e+00 0.000000000000000e+00
0.000000000000000e+00 0.000000000000000e+00 0.000000000000000e+00
0.000000000000000e+00 0.000000000000000e+00 0.000000000000000e+00
0.000000000000000e+00 0.000000000000000e+00 0.000000000000000e+00
0.000000000000000e+00 0.000000000000000e+00 0.000000000000000e+00
0.000000000000000e+00 0.000000000000000e+00 0.000000000000000e+00
0.000000000000000e+00 0.000000000000000e+00 0.000000000000000e+00
0.000000000000000e+00 0.000000000000000e+00 0.000000000000000e+00
0.000000000000000e+00 0.000000000000000e+00 0.000000000000000e+00
0.000000000000000e+00 0.000000000000000e+00 0.000000000000000e+00
0.000000000000000e+00 0.000000000000000e+00 0.000000000000000e+00
0.000000000000000e+00 0.000000000000000e+00 0.000000000000000e+00
0.000000000000000e+00 0.000000000000000e+00 0.000000000000000e+00
0.000000000000000e+00 0.000000000000000e+00 0.000000000000000e+00
0.000000000000000e+00 0.000000000000000e+00 0.000000000000000e+00
0.000000000000000e+00 0.000000000000000e+00 0.000000000000000e+00
0.000000000000000e+00 0.000000000000000e+00 0.000000000000000e+00
0.000000000000000e+00 0.000000000000000e+00 0.000000000000000e+00
0.000000000000000e+00 0.000000000000000e+00 0.000000000000000e+00
0.000000000000000e+00 0.000000000000000e+00 0.000000000000000e+00
0.000000000000000e+00 0.000000000000000e+00 0.000000000000000e+00
0.000000000000000e+00 0.000000000000000e+00 0.000000000000000e+00
0.000000000000000e+00 0.000000000000000e+00 0.000000000000000e+00
0.000000000000000e+00 0.000000000000000e+00 0.000000000000000e+00
0.000000000000000e+00 0.000000000000000e+00 0.000000000000000e+00
0.000000000000000e+00 0.000000000000000e+00 0.000000000000000e+00
0.000000000000000e+00 0.000000000000000e+00 0.000000000000000e+00
0.000000000000000e+00 0.000000000000000e+00 0.000000000000000e+00
0.000000000000000e+00 0.000000000000000e+00 0.000000000000000e+00
0.000000000000000e+00 0.000000000000000e+00 0.000000000000000e+00
0.000000000000000e+00 0.000000000000000e+00 0.000000000000000e+00
0.000000000000000e+00 0.000000000000000e+00 0.000000000000000e+00
0.000000000000000e+00 0.000000000000000e+00 0.000000000000000e+00
0.000000000000000e+00 0.000000000000000e+00 0.000000000000000e+00
0.000000000000000e+00 0.000000000000000e+00 0.000000000000000e+00
0.000000000000000e+00 0.000000000000000e+00 0.000000000000000e+00
0.000000000000000e+00 0.000000000000000e+00 0.000000000000000e+00
0.000000000000000e+00 0.000000000000000e+00 0.000000000000000e+00
0.000000000000000e+00 0.000000000000000e+00 0.000000000000000e+00
0.000000000000000e+00 0.000000000000000e+00 0.000000000000000e+00
0.000000000000000e+00 0.000000000000000e+00 0.000000000000000e+00
0.000000000000000e+00 0.000000000000000e+00 0.000000000000000e+00
0.000000000000000e+00 0.000000000000000e+00 0.000000000000000e+00
0.000000000000000e+00 0.000000000000000e+00 0.000000000000000e+00
0.000000000000000e+00 0.000000000000000e+00 0.000000000000000e+00
0.000000000000000e+00 0.000000000000000e+00 0.000000000000000e+00
0.000000000000000e+00 0.000000000000000e+00 0.000000000000000e+00
0.000000000000000e+00 0.000000000000000e+00 0.000000000000000e+00
0.000000000000000e+00 0.000000000000000e+00 0.000000000000000e+00
0.000000000000000e+00 0.000000000000000e+00 0.000000000000000e+00
0.000000000000000e+00 0.000000000000000e+00 0.000000000000000e+00
0.000000000000000e+00 0.000000000000000e+00 0.000000000000000e+00
0.000000000000000e+00 0.000000000000000e+00 0.000000000000000e+00
0.000000000000000e+00 0.000000000000000e+00 0.000000000000000e+00
0.000000000000000e+00 0.000000000000000e+00 0.000000000000000e+00
0.000000000000000e+00 0.000000000000000e+00 0.000000000000000e+00
0.000000000000000e+00 0.000000000000000e+00 0.000000000000000e+00
0.000000000000000e+00 0.000000000000000e+00 0.000000000000000e+00
0.000000000000000e+00 0.000000000000000e+00 0.000000000000000e+00
0.000000000000000e+00 0.000000000000000e+00 0.000000000000000e+00
0.000000000000000e+00 0.000000000000000e+00 0.000000000000000e+00
0.000000000000000e+00 0.000000000000000e+00 0.000000000000000e+00
0.000000000000000e+00 0.000000000000000e+00 0.000000000000000e+00
0.000000000000000e+00 0.000000000000000e+00 0.000000000000000e+00
0.000000000000000e+00 0.000000000000000e+00 0.000000000000000e+00
0.000000000000000e+00 0.000000000000000e+00 0.000000000000000e+00
0.000000000000000e+00 0.000000000000000e+00 0.000000000000000e+00
0.000000000000000e+00 0.000000000000000e+00 0.000000000000000e+00
0.000000000000000e+00 0.000000000000000e+00 0.000000000000000e+00
0.000000000000000e+00 0.000000000000000e+00 0.000000000000000e+00
0.000000000000000e+00 0.000000000000000e+00 0.000000000000000e+00
0.000000000000000e+00 0.000000000000000e+00 0.000000000000000e+00
0.000000000000000e+00 0.000000000000000e+00 0.000000000000000e+00
0.000000000000000e+00 0.000000000000000e+00 0.000000000000000e+00
0.000000000000000e+00 0.000000000000000e+00 0.000000000000000e+00
0.000000000000000e+00 0.000000000000000e+00 0.000000000000000e+00
0.000000000000000e+00 0.000000000000000e+00 0.000000000000000e+00
0.000000000000000e+00 0.000000000000000e+00 0.000000000000000e+00
0.000000000000000e+00 0.000000000000000e+00 0.000000000000000e+00
0.000000000000000e+00 0.000000000000000e+00 0.000000000000000e+00
0.000000000000000e+00 0.000000000000000e+00 0.000000000000000e+00
0.000000000000000e+00 0.000000000000000e+00 0.000000000000000e+00
0.000000000000000e+00 0.000000000000000e+00 0.000000000000000e+00
0.000000000000000e+00 0.000000000000000e+00 0.000000000000000e+00
0.000000000000000e+00 0.000000000000000e+00 0.000000000000000e+00
0.000000000000000e+00 0.000000000000000e+00 0.000000000000000e+00
0.000000000000000e+00 0.000000000000000e+00 0.000000000000000e+00
0.000000000000000e+00 0.000000000000000e+00 0.000000000000000e+00
0.000000000000000e+00 0.000000000000000e+00 0.000000000000000e+00
0.000000000000000e+00 0.000000000000000e+00 0.000000000000000e+00
0.000000000000000e+00 0.000000000000000e+00 0.000000000000000e+00
0.000000000000000e+00 0.000000000000000e+00 0.000000000000000e+00
0.000000000000000e+00 0.000000000000000e+00 0.000000000000000e+00
0.000000000000000e+00 0.000000000000000e+00 0.000000000000000e+00
0.000000000000000e+00 0.000000000000000e+00 0.000000000000000e+00
0.000000000000000e+00 0.000000000000000e+00 0.000000000000000e+00
0.000000000000000e+00 0.000000000000000e+00 0.000000000000000e+00
0.000000000000000e+00 0.000000000000000e+00 0.000000000000000e+00
0.000000000000000e+00 0.000000000000000e+00 0.000000000000000e+00
0.000000000000000e+00 0.000000000000000e+00 0.000000000000000e+00
0.000000000000000e+00 0.000000000000000e+00 0.000000000000000e+00
0.000000000000000e+00 0.000000000000000e+00 0.000000000000000e+00
0.000000000000000e+00 0.000000000000000e+00 0.000000000000000e+00
0.000000000000000e+00 0.000000000000000e+00 0.000000000000000e+00
0.000000000000000e+00 0.000000000000000e+00 0.000000000000000e+00
0.000000000000000e+00 0.000000000000000e+00 0.000000000000000e+00
0.000000000000000e+00 0.000000000000000e+00 0.000000000000000e+00
0.000000000000000e+00 0.000000000000000e+00 0.000000000000000e+00
0.000000000000000e+00 0.000000000000000e+00 0.000000000000000e+00
0.000000000000000e+00 0.000000000000000e+00 0.000000000000000e+00
0.000000000000000e+00 0.000000000000000e+00 0.000000000000000e+00
0.000000000000000e+00 0.000000000000000e+00 0.000000000000000e+00
0.000000000000000e+00 0.000000000000000e+00 0.000000000000000e+00
0.000000000000000e+00 0.000000000000000e+00 0.000000000000000e+00
0.000000000000000e+00 0.000000000000000e+00 0.000000000000000e+00
0.000000000000000e+00 0.000000000000000e+00 0.000000000000000e+00
0.000000000000000e+00 0.000000000000000e+00 0.000000000000000e+00
0.000000000000000e+00 0.000000000000000e+00 0.000000000000000e+00
0.000000000000000e+00 0.000000000000000e+00 0.000000000000000e+00
0.000000000000000e+00 0.000000000000000e+00 0.000000000000000e+00
0.000000000000000e+00 0.000000000000000e+00 0.000000000000000e+00
0.000000000000000e+00 0.000000000000000e+00 0.000000000000000e+00
0.000000000000000e+00 0.000000000000000e+00 0.000000000000000e+00
0.000000000000000e+00 0.000000000000000e+00 0.000000000000000e+00
0.000000000000000e+00 0.000000000000000e+00 0.000000000000000e+00
0.000000000000000e+00 0.000000000000000e+00 0.000000000000000e+00
0.000000000000000e+00 0.000000000000000e+00 0.000000000000000e+00
0.000000000000000e+00 0.000000000000000e+00 0.000000000000000e+00
0.000000000000000e+00 0.000000000000000e+00 0.000000000000000e+00
0.000000000000000e+00 0.000000000000000e+00 0.000000000000000e+00
0.000000000000000e+00 0.000000000000000e+00 0.000000000000000e+00
0.000000000000000e+00 0.000000000000000e+00 0.000000000000000e+00
0.000000000000000e+00 0.000000000000000e+00 0.000000000000000e+00
0.000000000000000e+00 0.000000000000000e+00 0.000000000000000e+00
0.000000000000000e+00 0.000000000000000e+00 0.000000000000000e+00
0.000000000000000e+00 0.000000000000000e+00 0.000000000000000e+00
0.000000000000000e+00 0.000000000000000e+00 0.000000000000000e+00
0.000000000000000e+00 0.000000000000000e+00 0.000000000000000e+00
0.000000000000000e+00 0.000000000000000e+00 0.000000000000000e+00
0.000000000000000e+00 0.000000000000000e+00 0.000000000000000e+00
0.000000000000000e+00 0.000000000000000e+00 0.000000000000000e+00
0.000000000000000e+00 0.000000000000000e+00 0.000000000000000e+00
0.000000000000000e+00 0.000000000000000e+00 0.000000000000000e+00
0.000000000000000e+00 0.000000000000000e+00 0.000000000000000e+00
0.000000000000000e+00 0.000000000000000e+00 0.000000000000000e+00
0.000000000000000e+00 0.000000000000000e+00 0.000000000000000e+00
0.000000000000000e+00 0.000000000000000e+00 0.000000000000000e+00
0.000000000000000e+00 0.000000000000000e+00 0.000000000000000e+00
0.000000000000000e+00 0.000000000000000e+00 0.000000000000000e+00
0.000000000000000e+00 0.000000000000000e+00 0.000000000000000e+00
0.000000000000000e+00 0.000000000000000e+00 0.000000000000000e+00
0.000000000000000e+00 0.000000000000000e+00 0.000000000000000e+00
0.000000000000000e+00 0.000000000000000e+00 0.000000000000000e+00
0.000000000000000e+00 0.000000000000000e+00 0.000000000000000e+00
0.000000000000000e+00 0.000000000000000e+00 0.000000000000000e+00
0.000000000000000e+00 0.000000000000000e+00 0.000000000000000e+00
0.000000000000000e+00 0.000000000000000e+00 0.000000000000000e+00
0.000000000000000e+00 0.000000000000000e+00 0.000000000000000e+00
0.000000000000000e+00 0.000000000000000e+00 0.000000000000000e+00
0.000000000000000e+00 0.000000000000000e+00 0.000000000000000e+00
0.000000000000000e+00 0.000000000000000e+00 0.000000000000000e+00
0.000000000000000e+00 0.000000000000000e+00 0.000000000000000e+00
0.000000000000000e+00 0.000000000000000e+00 0.000000000000000e+00
0.000000000000000e+00 0.000000000000000e+00 0.000000000000000e+00
0.000000000000000e+00 0.000000000000000e+00 0.000000000000000e+00
0.000000000000000e+00 0.000000000000000e+00 0.000000000000000e+00
0.000000000000000e+00 0.000000000000000e+00 0.000000000000000e+00
0.000000000000000e+00 0.000000000000000e+00 0.000000000000000e+00
0.000000000000000e+00 0.000000000000000e+00 0.000000000000000e+00
0.000000000000000e+00 0.000000000000000e+00 0.000000000000000e+00
0.000000000000000e+00 0.000000000000000e+00 0.000000000000000e+00
0.000000000000000e+00 0.000000000000000e+00 0.000000000000000e+00
0.000000000000000e+00 0.000000000000000e+00 0.000000000000000e+00
0.000000000000000e+00 0.000000000000000e+00 0.000000000000000e+00
0.000000000000000e+00 0.000000000000000e+00 0.000000000000000e+00
0.000000000000000e+00 0.000000000000000e+00 0.000000000000000e+00
0.000000000000000e+00 0.000000000000000e+00 0.000000000000000e+00
0.000000000000000e+00 0.000000000000000e+00 0.000000000000000e+00
0.000000000000000e+00 0.000000000000000e+00 0.000000000000000e+00
0.000000000000000e+00 0.000000000000000e+00 0.000000000000000e+00
0.000000000000000e+00 0.000000000000000e+00 0.000000000000000e+00
0.000000000000000e+00 0.000000000000000e+00 0.000000000000000e+00
0.000000000000000e+00 0.000000000000000e+00 0.000000000000000e+00
0.000000000000000e+00 0.000000000000000e+00 0.000000000000000e+00
0.000000000000000e+00 0.000000000000000e+00 0.000000000000000e+00
0.000000000000000e+00 0.000000000000000e+00 0.000000000000000e+00
0.000000000000000e+00 0.000000000000000e+00 0.000000000000000e+00
0.000000000000000e+00 0.000000000000000e+00 0.000000000000000e+00
0.000000000000000e+00 0.000000000000000e+00 0.000000000000000e+00
0.000000000000000e+00 0.000000000000000e+00 0.000000000000000e+00
0.000000000000000e+00 0.000000000000000e+00 0.000000000000000e+00
0.000000000000000e+00 0.000000000000000e+00 0.000000000000000e+00
0.000000000000000e+00 0.000000000000000e+00 0.000000000000000e+00
0.000000000000000e+00 0.000000000000000e+00 0.000000000000000e+00
0.000000000000000e+00 0.000000000000000e+00 0.000000000000000e+00
0.000000000000000e+00 0.000000000000000e+00 0.000000000000000e+00
0.000000000000000e+00 0.000000000000000e+00 0.000000000000000e+00
0.000000000000000e+00 0.000000000000000e+00 0.000000000000000e+00
0.000000000000000e+00 0.000000000000000e+00 0.000000000000000e+00
0.000000000000000e+00 0.000000000000000e+00 0.000000000000000e+00
0.000000000000000e+00 0.000000000000000e+00 0.000000000000000e+00
0.000000000000000e+00 0.000000000000000e+00 0.000000000000000e+00
0.000000000000000e+00 0.000000000000000e+00 0.000000000000000e+00
0.000000000000000e+00 0.000000000000000e+00 0.000000000000000e+00
0.000000000000000e+00 0.000000000000000e+00 0.000000000000000e+00
0.000000000000000e+00 0.000000000000000e+00 0.000000000000000e+00
0.000000000000000e+00 0.000000000000000e+00 0.000000000000000e+00
0.000000000000000e+00 0.000000000000000e+00 0.000000000000000e+00
0.000000000000000e+00 0.000000000000000e+00 0.000000000000000e+00
0.000000000000000e+00 0.000000000000000e+00 0.000000000000000e+00
0.000000000000000e+00 0.000000000000000e+00 0.000000000000000e+00
0.000000000000000e+00 0.000000000000000e+00 0.000000000000000e+00
0.000000000000000e+00 0.000000000000000e+00 0.000000000000000e+00
0.000000000000000e+00 0.000000000000000e+00 0.000000000000000e+00
0.000000000000000e+00 0.000000000000000e+00 0.000000000000000e+00
0.000000000000000e+00 0.000000000000000e+00 0.000000000000000e+00
0.000000000000000e+00 0.000000000000000e+00 0.000000000000000e+00
0.000000000000000e+00 0.000000000000000e+00 0.000000000000000e+00
0.000000000000000e+00 0.000000000000000e+00 0.000000000000000e+00
0.000000000000000e+00 0.000000000000000e+00 0.000000000000000e+00
0.000000000000000e+00 0.000000000000000e+00 0.000000000000000e+00
0.000000000000000e+00 0.000000000000000e+00 0.000000000000000e+00
0.000000000000000e+00 0.000000000000000e+00 0.000000000000000e+00
0.000000000000000e+00 0.000000000000000e+00 0.000000000000000e+00
0.000000000000000e+00 0.000000000000000e+00 0.000000000000000e+00
0.000000000000000e+00 0.000000000000000e+00 0.000000000000000e+00
0.000000000000000e+00 0.000000000000000e+00 0.000000000000000e+00
0.000000000000000e+00 0.000000000000000e+00 0.000000000000000e+00
0.000000000000000e+00 0.000000000000000e+00 0.000000000000000e+00
0.000000000000000e+00 0.000000000000000e+00 0.000000000000000e+00
0.000000000000000e+00 0.000000000000000e+00 0.000000000000000e+00
0.000000000000000e+00 0.000000000000000e+00 0.000000000000000e+00
0.000000000000000e+00 0.000000000000000e+00 0.000000000000000e+00
0.000000000000000e+00 0.000000000000000e+00 0.000000000000000e+00
0.000000000000000e+00 0.000000000000000e+00 0.000000000000000e+00
0.000000000000000e+00 0.000000000000000e+00 0.000000000000000e+00
0.000000000000000e+00 0.000000000000000e+00 0.000000000000000e+00
0.000000000000000e+00 0.000000000000000e+00 0.000000000000000e+00
0.000000000000000e+00 0.000000000000000e+00 0.000000000000000e+00
0.000000000000000e+00 0.000000000000000e+00 0.000000000000000e+00
0.000000000000000e+00 0.000000000000000e+00 0.000000000000000e+00
0.000000000000000e+00 0.000000000000000e+00 0.000000000000000e+00
0.000000000000000e+00 0.000000000000000e+00 0.000000000000000e+00
0.000000000000000e+00 0.000000000000000e+00 0.000000000000000e+00
0.000000000000000e+00 0.000000000000000e+00 0.000000000000000e+00
0.000000000000000e+00 0.000000000000000e+00 0.000000000000000e+00
0.000000000000000e+00 0.000000000000000e+00 0.000000000000000e+00
0.000000000000000e+00 0.000000000000000e+00 0.000000000000000e+00
0.000000000000000e+00 0.000000000000000e+00 0.000000000000000e+00
0.000000000000000e+00 0.000000000000000e+00 0.000000000000000e+00
0.000000000000000e+00 0.000000000000000e+00 0.000000000000000e+00
0.000000000000000e+00 0.000000000000000e+00 0.000000000000000e+00
0.000000000000000e+00 0.000000000000000e+00 0.000000000000000e+00
0.000000000000000e+00 0.000000000000000e+00 0.000000000000000e+00
0.000000000000000e+00 0.000000000000000e+00 0.000000000000000e+00
0.000000000000000e+00 0.000000000000000e+00 0.000000000000000e+00
0.000000000000000e+00 0.000000000000000e+00 0.000000000000000e+00
0.000000000000000e+00 0.000000000000000e+00 0.000000000000000e+00
0.000000000000000e+00 0.000000000000000e+00 0.000000000000000e+00
0.000000000000000e+00 0.000000000000000e+00 0.000000000000000e+00
0.000000000000000e+00 0.000000000000000e+00 0.000000000000000e+00
0.000000000000000e+00 0.000000000000000e+00 0.000000000000000e+00
0.000000000000000e+00 0.000000000000000e+00 0.000000000000000e+00
0.000000000000000e+00 0.000000000000000e+00 0.000000000000000e+00
0.000000000000000e+00 0.000000000000000e+00 0.000000000000000e+00
0.000000000000000e+00 0.000000000000000e+00 0.000000000000000e+00
0.000000000000000e+00 0.000000000000000e+00 0.000000000000000e+00
0.000000000000000e+00 0.000000000000000e+00 0.000000000000000e+00
0.000000000000000e+00 0.000000000000000e+00 0.000000000000000e+00
0.000000000000000e+00 0.000000000000000e+00 0.000000000000000e+00
0.000000000000000e+00 0.000000000000000e+00 0.000000000000000e+00
0.000000000000000e+00 0.000000000000000e+00 0.000000000000000e+00
0.000000000000000e+00 0.000000000000000e+00 0.000000000000000e+00
0.000000000000000e+00 0.000000000000000e+00 0.000000000000000e+00
0.000000000000000e+00 0.000000000000000e+00 0.000000000000000e+00
0.000000000000000e+00 0.000000000000000e+00 0.000000000000000e+00
0.000000000000000e+00 0.000000000000000e+00 0.000000000000000e+00
0.000000000000000e+00 0.000000000000000e+00 0.000000000000000e+00
0.000000000000000e+00 0.000000000000000e+00 0.000000000000000e+00
0.000000000000000e+00 0.000000000000000e+00 0.000000000000000e+00
0.000000000000000e+00 0.000000000000000e+00 0.000000000000000e+00
0.000000000000000e+00 0.000000000000000e+00 0.000000000000000e+00
0.000000000000000e+00 0.000000000000000e+00 0.000000000000000e+00
0.000000000000000e+00 0.000000000000000e+00 0.000000000000000e+00
0.000000000000000e+00 0.000000000000000e+00 0.000000000000000e+00
0.000000000000000e+00 0.000000000000000e+00 0.000000000000000e+00
0.000000000000000e+00 0.000000000000000e+00 0.000000000000000e+00
0.000000000000000e+00 0.000000000000000e+00 0.000000000000000e+00
0.000000000000000e+00 0.000000000000000e+00 0.000000000000000e+00
0.000000000000000e+00 0.000000000000000e+00 0.000000000000000e+00
0.000000000000000e+00 0.000000000000000e+00 0.000000000000000e+00
0.000000000000000e+00 0.000000000000000e+00 0.000000000000000e+00
0.000000000000000e+00 0.000000000000000e+00 0.000000000000000e+00
0.000000000000000e+00 0.000000000000000e+00 0.000000000000000e+00
0.000000000000000e+00 0.000000000000000e+00 0.000000000000000e+00
0.000000000000000e+00 0.000000000000000e+00 0.000000000000000e+00
0.000000000000000e+00 0.000000000000000e+00 0.000000000000000e+00
0.000000000000000e+00 0.000000000000000e+00 0.000000000000000e+00
0.000000000000000e+00 0.000000000000000e+00 0.000000000000000e+00
0.000000000000000e+00 0.000000000000000e+00 0.000000000000000e+00
0.000000000000000e+00 0.000000000000000e+00 0.000000000000000e+00
0.000000000000000e+00 0.000000000000000e+00 0.000000000000000e+00
0.000000000000000e+00 0.000000000000000e+00 0.000000000000000e+00
0.000000000000000e+00 0.000000000000000e+00 0.000000000000000e+00
0.000000000000000e+00 0.000000000000000e+00 0.000000000000000e+00
0.000000000000000e+00 0.000000000000000e+00 0.000000000000000e+00
0.000000000000000e+00 0.000000000000000e+00 0.000000000000000e+00
0.000000000000000e+00 0.000000000000000e+00 0.000000000000000e+00
0.000000000000000e+00 0.000000000000000e+00 0.000000000000000e+00
0.000000000000000e+00 0.000000000000000e+00 0.000000000000000e+00
0.000000000000000e+00 0.000000000000000e+00 0.000000000000000e+00
0.000000000000000e+00 0.000000000000000e+00 0.000000000000000e+00
0.000000000000000e+00 0.000000000000000e+00 0.000000000000000e+00
0.000000000000000e+00 0.000000000000000e+00 0.000000000000000e+00
0.000000000000000e+00 0.000000000000000e+00 0.000000000000000e+00
0.000000000000000e+00 0.000000000000000e+00 0.000000000000000e+00
0.000000000000000e+00 0.000000000000000e+00 0.000000000000000e+00
0.000000000000000e+00 0.000000000000000e+00 0.000000000000000e+00
0.000000000000000e+00 0.000000000000000e+00 0.000000000000000e+00
0.000000000000000e+00 0.000000000000000e+00 0.000000000000000e+00
0.000000000000000e+00 0.000000000000000e+00 0.000000000000000e+00
0.000000000000000e+00 0.000000000000000e+00 0.000000000000000e+00
0.000000000000000e+00 0.000000000000000e+00 0.000000000000000e+00
0.000000000000000e+00 0.000000000000000e+00 0.000000000000000e+00
0.000000000000000e+00 0.000000000000000e+00 0.000000000000000e+00
0.000000000000000e+00 0.000000000000000e+00 0.000000000000000e+00
0.000000000000000e+00 0.000000000000000e+00 0.000000000000000e+00
0.000000000000000e+00 0.000000000000000e+00 0.000000000000000e+00
0.000000000000000e+00 0.000000000000000e+00 0.000000000000000e+00
0.000000000000000e+00 0.000000000000000e+00 0.000000000000000e+00
0.000000000000000e+00 0.000000000000000e+00 0.000000000000000e+00
0.000000000000000e+00 0.000000000000000e+00 0.000000000000000e+00
0.000000000000000e+00 0.000000000000000e+00 0.000000000000000e+00
0.000000000000000e+00 0.000000000000000e+00 0.000000000000000e+00
0.000000000000000e+00 0.000000000000000e+00 0.000000000000000e+00
0.000000000000000e+00 0.000000000000000e+00 0.000000000000000e+00
0.000000000000000e+00 0.000000000000000e+00 0.000000000000000e+00
0.000000000000000e+00 0.000000000000000e+00 0.000000000000000e+00
0.000000000000000e+00 0.000000000000000e+00 0.000000000000000e+00
0.000000000000000e+00 0.000000000000000e+00 0.000000000000000e+00
0.000000000000000e+00 0.000000000000000e+00 0.000000000000000e+00
0.000000000000000e+00 0.000000000000000e+00 0.000000000000000e+00
0.000000000000000e+00 0.000000000000000e+00 0.000000000000000e+00
0.000000000000000e+00 0.000000000000000e+00 0.000000000000000e+00
0.000000000000000e+00 0.000000000000000e+00 0.000000000000000e+00
0.000000000000000e+00 0.000000000000000e+00 0.000000000000000e+00
0.000000000000000e+00 0.000000000000000e+00 0.000000000000000e+00
0.000000000000000e+00 0.000000000000000e+00 0.000000000000000e+00
0.000000000000000e+00 0.000000000000000e+00 0.000000000000000e+00
0.000000000000000e+00 0.000000000000000e+00 0.000000000000000e+00
0.000000000000000e+00 0.000000000000000e+00 0.000000000000000e+00
0.000000000000000e+00 0.000000000000000e+00 0.000000000000000e+00
0.000000000000000e+00 0.000000000000000e+00 0.000000000000000e+00
0.000000000000000e+00 0.000000000000000e+00 0.000000000000000e+00
0.000000000000000e+00 0.000000000000000e+00 0.000000000000000e+00
0.000000000000000e+00 0.000000000000000e+00 0.000000000000000e+00
0.000000000000000e+00 0.000000000000000e+00 0.000000000000000e+00
0.000000000000000e+00 0.000000000000000e+00 0.000000000000000e+00
0.000000000000000e+00 0.000000000000000e+00 0.000000000000000e+00
0.000000000000000e+00 0.000000000000000e+00 0.000000000000000e+00
0.000000000000000e+00 0.000000000000000e+00 0.000000000000000e+00
0.000000000000000e+00 0.000000000000000e+00 0.000000000000000e+00
0.000000000000000e+00 0.000000000000000e+00 0.000000000000000e+00
0.000000000000000e+00 0.000000000000000e+00 0.000000000000000e+00
0.000000000000000e+00 0.000000000000000e+00 0.000000000000000e+00
0.000000000000000e+00 0.000000000000000e+00 0.000000000000000e+00
0.000000000000000e+00 0.000000000000000e+00 0.000000000000000e+00
0.000000000000000e+00 0.000000000000000e+00 0.000000000000000e+00
0.000000000000000e+00 0.000000000000000e+00 0.000000000000000e+00
0.000000000000000e+00 0.000000000000000e+00 0.000000000000000e+00
0.000000000000000e+00 0.000000000000000e+00 0.000000000000000e+00
0.000000000000000e+00 0.000000000000000e+00 0.000000000000000e+00
0.000000000000000e+00 0.000000000000000e+00 0.000000000000000e+00
0.000000000000000e+00 0.000000000000000e+00 0.000000000000000e+00
0.000000000000000e+00 0.000000000000000e+00 0.000000000000000e+00
0.000000000000000e+00 0.000000000000000e+00 0.000000000000000e+00
0.000000000000000e+00 0.000000000000000e+00 0.000000000000000e+00
0.000000000000000e+00 0.000000000000000e+00 0.000000000000000e+00
0.000000000000000e+00 0.000000000000000e+00 0.000000000000000e+00
0.000000000000000e+00 0.000000000000000e+00 0.000000000000000e+00
0.000000000000000e+00 0.000000000000000e+00 0.000000000000000e+00
0.000000000000000e+00 0.000000000000000e+00 0.000000000000000e+00
0.000000000000000e+00 0.000000000000000e+00 0.000000000000000e+00
0.000000000000000e+00 0.000000000000000e+00 0.000000000000000e+00
0.000000000000000e+00 0.000000000000000e+00 0.000000000000000e+00
0.000000000000000e+00 0.000000000000000e+00 0.000000000000000e+00
0.000000000000000e+00 0.000000000000000e+00 0.000000000000000e+00
0.000000000000000e+00 0.000000000000000e+00 0.000000000000000e+00
0.000000000000000e+00 0.000000000000000e+00 0.000000000000000e+00
0.000000000000000e+00 0.000000000000000e+00 0.000000000000000e+00
0.000000000000000e+00 0.000000000000000e+00 0.000000000000000e+00
0.000000000000000e+00 0.000000000000000e+00 0.000000000000000e+00
0.000000000000000e+00 0.000000000000000e+00 0.000000000000000e+00
0.000000000000000e+00 0.000000000000000e+00 0.000000000000000e+00
0.000000000000000e+00 0.000000000000000e+00 0.000000000000000e+00
0.000000000000000e+00 0.000000000000000e+00 0.000000000000000e+00
0.000000000000000e+00 0.000000000000000e+00 0.000000000000000e+00
0.000000000000000e+00 0.000000000000000e+00 0.000000000000000e+00
0.000000000000000e+00 0.000000000000000e+00 0.000000000000000e+00
0.000000000000000e+00 0.000000000000000e+00 0.000000000000000e+00
0.000000000000000e+00 0.000000000000000e+00 0.000000000000000e+00
0.000000000000000e+00 0.000000000000000e+00 0.000000000000000e+00
0.000000000000000e+00 0.000000000000000e+00 0.000000000000000e+00
0.000000000000000e+00 0.000000000000000e+00 0.000000000000000e+00
0.000000000000000e+00 0.000000000000000e+00 0.000000000000000e+00
0.000000000000000e+00 0.000000000000000e+00 0.000000000000000e+00
0.000000000000000e+00 0.000000000000000e+00 0.000000000000000e+00
0.000000000000000e+00 0.000000000000000e+00 0.000000000000000e+00
0.000000000000000e+00 0.000000000000000e+00 0.000000000000000e+00
0.000000000000000e+00 0.000000000000000e+00 0.000000000000000e+00
0.000000000000000e+00 0.000000000000000e+00 0.000000000000000e+00
0.000000000000000e+00 0.000000000000000e+00 0.000000000000000e+00
0.000000000000000e+00 0.000000000000000e+00 0.000000000000000e+00
0.000000000000000e+00 0.000000000000000e+00 0.000000000000000e+00
0.000000000000000e+00 0.000000000000000e+00 0.000000000000000e+00
0.000000000000000e+00 0.000000000000000e+00 0.000000000000000e+00
0.000000000000000e+00 0.000000000000000e+00 0.000000000000000e+00
0.000000000000000e+00 0.000000000000000e+00 0.000000000000000e+00
0.000000000000000e+00 0.000000000000000e+00 0.000000000000000e+00
0.000000000000000e+00 0.000000000000000e+00 0.000000000000000e+00
0.000000000000000e+00 0.000000000000000e+00 0.000000000000000e+00
0.000000000000000e+00 0.000000000000000e+00 0.000000000000000e+00
0.000000000000000e+00 0.000000000000000e+00 0.000000000000000e+00
0.000000000000000e+00 0.000000000000000e+00 0.000000000000000e+00
0.000000000000000e+00 0.000000000000000e+00 0.000000000000000e+00
0.000000000000000e+00 0.000000000000000e+00 0.000000000000000e+00
0.000000000000000e+00 0.000000000000000e+00 0.000000000000000e+00
0.000000000000000e+00 0.000000000000000e+00 0.000000000000000e+00
0.000000000000000e+00 0.000000000000000e+00 0.000000000000000e+00
0.000000000000000e+00 0.000000000000000e+00 0.000000000000000e+00
0.000000000000000e+00 0.000000000000000e+00 0.000000000000000e+00
0.000000000000000e+00 0.000000000000000e+00 0.000000000000000e+00
0.000000000000000e+00 0.000000000000000e+00 0.000000000000000e+00
0.000000000000000e+00 0.000000000000000e+00 0.000000000000000e+00
-1.890809495512008e+01  2.182347990396163e+01  1.122637759523593e-16
-3.252975611332444e+01 -9.453128075408350e-01  5.886185586237154e-16
 1.268133062067560e+01 -2.222626391334745e+01  2.687382300409657e-18
 4.894127488102753e+00  1.563582592638431e+01 -2.477492679258569e-16
-2.641556274054367e+01 -1.900138099539559e+01  6.653287356635174e-16
-1.517674711005911e+01  2.141630955740583e+01  5.004351753043853e-17
 2.579885222076692e+01 -1.948546627451872e+01 -2.589152617984504e-16
 4.791568956824769e+00  1.168727513072197e+01 -2.053541914916344e-16
-3.242452651035096e+01 -2.780629486145582e+00  6.056030844727039e-16
-9.928850218177981e+00  1.220812976322813e+01  5.126163474324586e-17
 3.116725299744507e+01 -9.352914993766362e+00 -4.585606408241495e-16
 1.723291258577514e+01  2.032182206879079e+01 -5.154795750488964e-16
-3.007447287741596e+01 -1.242803444617222e+01  6.629046581689619e-16
-2.685464689129988e+01  1.777377392139403e+01  2.952914044768353e-16
 1.837890942092476e+01 -2.201210981826553e+01 -1.009081842902718e-16
 2.414405131845457e+01  2.141490677767234e+01 -6.497025810029699e-16
-2.825826509408412e+01 -1.589792381379641e+01  6.662349269617885e-16
-3.128235399915866e+01  8.151771294266984e+00  4.729503156134960e-16
 2.535740594744765e+01 -8.056209229437302e+00 -3.684906630727048e-16
 2.985440473964569e+01  3.211013580984899e+00 -5.642867420485406e-16
-1.472656684900950e+01 -5.437956614980278e-01  2.676641264926141e-16
-9.016272629156001e+00  7.362441975426481e-02  1.596988622536489e-16
-8.517789501489226e-01  3.416960990596229e-03  1.512331441960110e-17
 4.101646155032415e+00 -4.569482549444517e-02 -7.252418828122163e-17
 5.747920019116982e+00  6.182713866818858e-02 -1.029263445120888e-16
-3.824892588615602e+00 -5.581862080921983e-02  6.864204215310215e-17
-4.668213607006219e+00  4.189238954673859e-02  8.264600048369150e-17
 2.936667369772980e+00 -2.492988692110850e-02 -5.200535340910875e-17
 2.950975697906831e+00  1.199668504134238e-02 -5.263939406981573e-17
-7.367464597290424e-01 -1.970243336611170e-03  1.313152546445406e-17
-3.948777377973504e-01  8.412179759457607e-04  7.018677129513937e-18
 9.193340933940088e-01 -7.279412640958702e-04 -1.635316753670303e-17
 8.817864166978803e-01  6.408375299133809e-04 -1.569902551727299e-17
 8.855170589054265e-02  6.244151784235143e-06 -1.575947377167334e-18
-2.913360282570278e-01  1.760924977830997e-04  5.182862718220442e-18
 5.505119097950433e-01 -8.743639251781477e-04 -9.788032328254716e-18
 1.253023273277164e+00 -1.484023922454858e-06 -2.229902856521771e-17
 5.491339669463171e-01  8.314496934525132e-04 -9.781036849542599e-18
-2.601368804733471e-01 -1.519197780871227e-04  4.631007032758509e-18
 1.002862505894892e-01 -1.982812808330786e-05 -1.784509677018298e-18
 8.555098925339845e-01 -6.182145805372407e-04 -1.521846711596007e-17
 8.405759240661206e-01  6.063809312636584e-04 -1.496528158582585e-17
 1.631410260078688e-01  9.592283018173092e-05 -2.904274736446870e-18
-1.274764886461452e-01  4.764291937440995e-05  2.268106644793343e-18
 2.581964684856490e-01 -2.400048980469266e-04 -4.592448180104016e-18
 7.152057618856335e-01 -5.895987310783204e-04 -1.272188173710129e-17
 8.737108234003058e-01 -1.683218796570129e-05 -1.554855335216885e-17
 7.201292882371897e-01  5.736948463844880e-04 -1.282145422564348e-17
 2.561879192377972e-01  2.312500273522003e-04 -4.561545641521040e-18
-1.315099610035759e-01 -4.275757394149999e-05  2.340816020267563e-18
 1.709078543710859e-01 -1.098583136757202e-04 -3.040380364238476e-18
 8.495457853145297e-01 -6.288878747699414e-04 -1.511221903011001e-17
 8.539219372785724e-01  6.012468159645849e-04 -1.520273712564479e-17
 9.891417664106306e-02  1.452656878498593e-05 -1.760445021345051e-18
-2.511574088266461e-01  1.578659237873661e-04  4.468023677822866e-18
 5.600476888219961e-01 -8.626593176841411e-04 -9.957853016143833e-18
 1.246797748883658e+00 -1.602966848281265e-05 -2.218808845383950e-17
 5.565514070004620e-01  8.411812069822552e-04 -9.913138948343300e-18
-2.554371130203549e-01 -1.492858684795637e-04  4.547341980103573e-18
 1.052602764851044e-01 -2.469259067742956e-05 -1.872978453392323e-18
 8.614498077499354e-01 -6.241630467537924e-04 -1.532411383683420e-17
 8.449960608413847e-01  6.100381083039635e-04 -1.504398078598953e-17
 1.660987930771464e-01  9.814306160067160e-05 -2.956934528179158e-18
-1.240067129127934e-01  4.741890783107584e-05  2.206360157512647e-18
 2.621806322039103e-01 -2.445541495128275e-04 -4.663304394370940e-18
 7.185810505328263e-01 -5.924222606494291e-04 -1.278192002964034e-17
 8.763315564767749e-01 -1.705330065520230e-05 -1.559519012144007e-17
 7.224374793766890e-01  5.747848188495760e-04 -1.286254239721397e-17
 2.584951014316577e-01  2.331835306119069e-04 -4.602624511035528e-18
-1.289881178531644e-01 -4.203928196081473e-05  2.295929358020425e-18
 1.738618739903852e-01 -1.127535578297882e-04 -3.092920941850372e-18
 8.518781643918698e-01 -6.292989500227729e-04 -1.515372225764243e-17
 8.545493171583063e-01  6.020786425487986e-04 -1.521391058608628e-17
 9.977655328654290e-02  1.494782258990955e-05 -1.775796431962018e-18
-2.480588673403010e-01  1.573091885880715e-04  4.412887160053309e-18
 5.628470721935600e-01 -8.660703869754235e-04 -1.000763644987371e-17
 1.247087364731952e+00 -1.349651908280774e-05 -2.219326860166219e-17
 5.566545606876772e-01  8.395446420750219e-04 -9.914957937826330e-18
-2.533469064487970e-01 -1.472650541537222e-04  4.510123484784738e-18
 1.077466688842227e-01 -2.729518894796837e-05 -1.917200079030318e-18
 8.622924372432810e-01 -6.231940482812860e-04 -1.533911943260766e-17
 8.450265223859421e-01  6.092078833391352e-04 -1.504451423012182e-17
 1.671460740690704e-01  9.876147874018656e-05 -2.975578500165314e-18
-1.220757660278186e-01  4.708302522000385e-05  2.172000104708532e-18
 2.632863050013312e-01 -2.455439445326932e-04 -4.682970842233274e-18
 7.186266164433515e-01 -5.925992499447168e-04 -1.278272915813352e-17
 8.769532089813479e-01 -1.911609572446390e-05 -1.560623199967883e-17
 7.240195680668958e-01  5.751761567730057e-04 -1.289070154934136e-17
 2.595377380134402e-01  2.343286134923967e-04 -4.621191252065184e-18
-1.284834261845285e-01 -4.186246960548786e-05  2.286945943304793e-18
 1.748370697805124e-01 -1.137153430876078e-04 -3.110265826109763e-18
 8.520816086590297e-01 -6.287276367429019e-04 -1.515734865627939e-17
 8.545542850215831e-01  6.000510044749638e-04 -1.521397815729863e-17
 1.016918973272328e-01  1.687649330928470e-05 -1.809902006924076e-18
-2.476132546174055e-01  1.557345764920078e-04  4.404973230844015e-18
 5.608116268375963e-01 -8.635818068691559e-04 -9.971438906962885e-18
 1.248957731743296e+00 -2.378130413358276e-05 -2.222644828335701e-17
 5.619730195940484e-01  8.500356112258431e-04 -1.000971403647052e-17
-2.531412500355152e-01 -1.511287207199047e-04  4.506503391882909e-18
 1.023289597267682e-01 -2.105049260373099e-05 -1.820849705393872e-18
 8.604383998720920e-01 -6.318178377734433e-04 -1.530603595783770e-17
 8.500313014875426e-01  6.066378397216462e-04 -1.513355397795108e-17
 1.708321937862014e-01  1.029321292367682e-04 -3.041220218060422e-18
-1.240403048410375e-01  4.665116104072724e-05  2.206965918733731e-18
 2.622111984474845e-01 -2.448327558528604e-04 -4.663845461031183e-18
 7.200699157582517e-01 -5.947836109197009e-04 -1.280839188657078e-17
 8.772149253464245e-01 -1.854831574301981e-05 -1.561089538788684e-17
 7.240162200603200e-01  5.737197142629391e-04 -1.289062704239159e-17
 2.608656853949230e-01  2.355761870998367e-04 -4.644836460126820e-18
-1.281161331733347e-01 -4.234744373103969e-05  2.280414580995624e-18
 1.736187025184776e-01 -1.125270861777487e-04 -3.088595707077771e-18
 8.527525853682651e-01 -6.331612320126374e-04 -1.516924393175242e-17
 8.567104148548501e-01  6.017495652442477e-04 -1.525236655577355e-17
 1.014648137698446e-01  1.648740227774925e-05 -1.805856780210403e-18
-2.477479231120070e-01  1.569471031591717e-04  4.407357260025237e-18
 5.628534849291136e-01 -8.668252749501214e-04 -1.000774289546362e-17
 1.247791997351067e+00 -1.742238554567304e-05 -2.220576801055061e-17
 5.583188288468359e-01  8.407699327721772e-04 -9.944588130614855e-18
-2.513672108542260e-01 -1.463435844212964e-04  4.474882985981400e-18
 1.080294080003391e-01 -2.750261544211909e-05 -1.922229644113350e-18
 8.612295553848008e-01 -6.241392455621328e-04 -1.532019446191910e-17
 8.462581986629839e-01  6.052208490820451e-04 -1.506639255428944e-17
 1.700836080365629e-01  1.015045258596142e-04 -3.027883610211417e-18
-1.218591433442258e-01  4.622231519276552e-05  2.168153914716222e-18
 2.622874739051504e-01 -2.448412758489639e-04 -4.665202817235735e-18
 7.200934801985868e-01 -5.967637979599992e-04 -1.280879090414583e-17
 8.788363672119663e-01 -1.879156152359953e-05 -1.563974838703087e-17
 7.238667525425058e-01  5.754205159870097e-04 -1.288798454902246e-17
 2.593583788740713e-01  2.333942179168094e-04 -4.617989717468107e-18
-1.273224076918437e-01 -4.121495308431123e-05  2.266277580284949e-18
 1.755787156282948e-01 -1.146813047218175e-04 -3.123454361226862e-18
 8.526298206473615e-01 -6.311681455697252e-04 -1.516707956032759e-17
 8.559344262456031e-01  5.997516194670239e-04 -1.523853634059959e-17
 1.021104430063945e-01  1.703543039567352e-05 -1.817352179871506e-18
-2.472562498643041e-01  1.564819870965055e-04  4.398612142855600e-18
 5.628185383523865e-01 -8.673132824730088e-04 -1.000711589086709e-17
 1.248528329869980e+00 -1.909471961519395e-05 -2.221885473011758e-17
 5.587625998556738e-01  8.418388842471401e-04 -9.952496573976112e-18
-2.520455277577711e-01 -1.466366143261150e-04  4.486957499787548e-18
 1.082125741445163e-01 -2.776853248902544e-05 -1.925486379117535e-18
 8.626626012392988e-01 -6.259913498281712e-04 -1.534567815888664e-17
 8.465496350211141e-01  6.069258999907355e-04 -1.507159651885979e-17
 1.689858717117029e-01  1.001887190143266e-04 -3.008334562945747e-18
-1.216037892754042e-01  4.693014368342114e-05  2.163602222265195e-18
 2.639831976938465e-01 -2.469805816768436e-04 -4.695358271373403e-18
 7.202839926850979e-01 -5.954342596341213e-04 -1.281219502043656e-17
 8.776210100570461e-01 -1.963091379661251e-05 -1.561811113645728e-17
 7.241807293313550e-01  5.729825875740760e-04 -1.289354706993080e-17
 2.611188230133190e-01  2.351655878220500e-04 -4.649337152086408e-18
-1.268720190425641e-01 -4.169207436292555e-05  2.258267419399288e-18
 1.745365905146500e-01 -1.135417854036745e-04 -3.104920226851029e-18
 8.522849707743528e-01 -6.333470564929868e-04 -1.516092031484984e-17
 8.569686645903744e-01  5.985161718661894e-04 -1.525692909689988e-17
 1.032023160283355e-01  1.809678726085109e-05 -1.836794265364029e-18
-2.472564032086761e-01  1.561343153394865e-04  4.398618425613033e-18
 5.624779484211688e-01 -8.671119554818849e-04 -1.000105671984094e-17
 1.248806719627097e+00 -2.102789994196366e-05 -2.222378917076069e-17
 5.590773448970252e-01  8.418973992826991e-04 -9.958098337614601e-18
-2.518161305019569e-01 -1.461510018645431e-04  4.482870098171946e-18
 1.089900574017650e-01 -2.864265714687757e-05 -1.939313763061381e-18
 8.628874942503987e-01 -6.254837903461054e-04 -1.534968562071486e-17
 8.458837931243437e-01  6.055377236371453e-04 -1.505973284718696e-17
 1.694563144843305e-01  1.003145330687069e-04 -3.016707984952805e-18
-1.201356330073358e-01  4.654123604982763e-05  2.137478563954068e-18
 2.638711829402193e-01 -2.465450690292235e-04 -4.693369218326465e-18
 7.193008687123996e-01 -5.957590423527259e-04 -1.279469585845395e-17
 8.785164405083167e-01 -2.252673321893880e-05 -1.563401659248990e-17
 7.256451241062150e-01  5.747842937140773e-04 -1.291962629810049e-17
 2.603378045905228e-01  2.344486551514302e-04 -4.635430644960552e-18
-1.277507403301377e-01 -4.116309169502422e-05  2.273899686714310e-18
 1.761819940614270e-01 -1.156140152601761e-04 -3.134180831756274e-18
 8.535232098717068e-01 -6.324939853815505e-04 -1.518296502854048e-17
 8.558442858984492e-01  5.983906166166525e-04 -1.523691816562631e-17
 1.028735454695192e-01  1.760653595573931e-05 -1.830938378804925e-18
-2.456467001361996e-01  1.557141687313155e-04  4.369976140397322e-18
 5.628790885887964e-01 -8.668348827178501e-04 -1.000819846685388e-17
 1.247934379786440e+00 -2.224779781192184e-05 -2.220825226554073e-17
 5.595575316321346e-01  8.411012523209879e-04 -9.966635791623811e-18
-2.506379809229329e-01 -1.456766265933904e-04  4.461898645876018e-18
 1.090474612004395e-01 -2.869229379473868e-05 -1.940334834999269e-18
 8.627353648638827e-01 -6.263047689700986e-04 -1.534696977025623e-17
 8.462892635068727e-01  6.048516138981026e-04 -1.506694149506182e-17
 1.699664924153726e-01  1.006776288419755e-04 -3.025790969827512e-18
-1.199212900642843e-01  4.647450045076208e-05  2.133664899294652e-18
 2.638019645811765e-01 -2.466627440780634e-04 -4.692136279653433e-18
 7.198230520059802e-01 -5.974302250809239e-04 -1.280397147489894e-17
 8.793539038309285e-01 -2.257037690055225e-05 -1.564891974386775e-17
 7.255113173937222e-01  5.749506975607282e-04 -1.291724672775895e-17
 2.601710082989855e-01  2.338408872230623e-04 -4.632456066061378e-18
-1.269603835661322e-01 -4.075585289914212e-05  2.259830295448289e-18
 1.768970258331832e-01 -1.163806550521714e-04 -3.146897827217834e-18
 8.537396399907374e-01 -6.325553822492321e-04 -1.518681599437809e-17
 8.557906735933749e-01  5.980856153139345e-04 -1.523596103519208e-17
 1.027586953681723e-01  1.730174734323192e-05 -1.828891307962277e-18
-2.451943974709020e-01  1.560725810145253e-04  4.361923167519545e-18
 5.639076057415189e-01 -8.690215731403375e-04 -1.002647965307674e-17
 1.248605679905835e+00 -2.122920608645276e-05 -2.222020933538048e-17
 5.593021426808398e-01  8.408329193051647e-04 -9.962088111578623e-18
-2.509950654804875e-01 -1.454055988273821e-04  4.468250577683100e-18
 1.096616426884344e-01 -2.943705516046520e-05 -1.951257252813961e-18
 8.638179391542831e-01 -6.274486018946329e-04 -1.536622380715031e-17
 8.467504803840005e-01  6.059017460368749e-04 -1.507516017081370e-17
 1.696028873429128e-01  1.002082074000332e-04 -3.019315151551408e-18
-1.201107866761596e-01  4.686863443263127e-05  2.137033106732184e-18
 2.648277421866032e-01 -2.482401766136640e-04 -4.710374977732772e-18
 7.211463094735753e-01 -5.980683456810731e-04 -1.282751388033107e-17
 8.792213451257520e-01 -2.096857692400437e-05 -1.564657727218737e-17
 7.246296754690150e-01  5.733251300578178e-04 -1.290154024928844e-17
 2.609181605583688e-01  2.340243146538369e-04 -4.645754414227317e-18
-1.251397659820531e-01 -4.049727659472214e-05  2.227427614917704e-18
 1.767918409747452e-01 -1.160000696784726e-04 -3.145029817814050e-18
 8.526758999114940e-01 -6.330313020698028e-04 -1.516788054799158e-17
 8.569728915507664e-01  5.961460279167362e-04 -1.525698007846929e-17
 1.045201000641141e-01  1.909648571954701e-05 -1.860256063836303e-18
-2.456408485622159e-01  1.555219819372499e-04  4.369874014419739e-18
 5.632932134167046e-01 -8.687043562275559e-04 -1.001554901479015e-17
 1.249333556916292e+00 -2.353125199366660e-05 -2.223313914122161e-17
 5.603382145599455e-01  8.423326386973372e-04 -9.980541580833191e-18
-2.500389039772292e-01 -1.450802093512163e-04  4.451231262221487e-18
 1.099079513313783e-01 -2.956900588072432e-05 -1.955639324941441e-18
 8.630813497381448e-01 -6.268300142478345e-04 -1.535312166984581e-17
 8.469996282387543e-01  6.036389966350316e-04 -1.507957088980748e-17
 1.714359240292883e-01  1.019443755928849e-04 -3.051954180548991e-18
-1.191923333173134e-01  4.605157680306267e-05  2.120696718892726e-18
 2.641660041777524e-01 -2.471735447184027e-04 -4.698609590999439e-18
 7.210567730062207e-01 -5.991925525010699e-04 -1.282590891458418e-17
 8.803701103424857e-01 -2.188776927251656e-05 -1.566701133323780e-17
 7.257325337998423e-01  5.749426302246470e-04 -1.292118345590619e-17
 2.611397791053632e-01  2.345206850688042e-04 -4.649703496894998e-18
-1.253782681780390e-01 -4.056206188760373e-05  2.231672599291092e-18
 1.773733002534352e-01 -1.166524624890089e-04 -3.155370873353443e-18
 8.539629548828610e-01 -6.336521317102682e-04 -1.519077895564305e-17
 8.572860250914759e-01  5.979677175720594e-04 -1.526257127090775e-17
 1.043963139304688e-01  1.890290411522807e-05 -1.858051155296485e-18
-2.445160359450415e-01  1.552923732007295e-04  4.349858869088072e-18
 5.642737696023326e-01 -8.691833397917686e-04 -1.003299418336570e-17
 1.249133841022366e+00 -2.197815497600648e-05 -2.222960090323941e-17
 5.607038279637679e-01  8.423647305502579e-04 -9.987048429495525e-18
-2.487658702183493e-01 -1.446143191314076e-04  4.428571226778886e-18
 1.105227774277382e-01 -3.004682598429698e-05 -1.966575930639625e-18
 8.632333727824154e-01 -6.262856252164969e-04 -1.535583265144904e-17
 8.479003449758282e-01  6.044720936330931e-04 -1.509560878427218e-17
 1.723376354107622e-01  1.030218462183711e-04 -3.068012327914071e-18
-1.190332181465891e-01  4.581799633536653e-05  2.117867361809795e-18
 2.648957981327975e-01 -2.477925869378827e-04 -4.711590853075915e-18
 7.222944517512998e-01 -5.989011073558312e-04 -1.284793786086914e-17
 8.810594820607276e-01 -1.965615209980529e-05 -1.567930253550793e-17
 7.264370450953684e-01  5.767954445528697e-04 -1.293374012382752e-17
 2.620974449971944e-01  2.360987480480671e-04 -4.666762490132597e-18
-1.241739351861988e-01 -4.058799607017458e-05  2.210240264631808e-18
 1.785839459851267e-01 -1.171931865729439e-04 -3.176910336556106e-18
 8.575213669956756e-01 -6.334263000480687e-04 -1.525410740250144e-17
 8.503832274009928e-01  6.086172987474687e-04 -1.513983727390058e-17
 1.719574608507621e-01  1.023905646889110e-04 -3.061240130932203e-18
-1.178318474242332e-01  4.580633601627995e-05  2.096487674244644e-18
 2.660868375322876e-01 -2.489815038808134e-04 -4.732774479251429e-18
 7.230249610979330e-01 -5.988288796093781e-04 -1.286093889470572e-17
 8.817692115218215e-01 -1.862941860103708e-05 -1.569194337026063e-17
 7.265427487799410e-01  5.781717665098556e-04 -1.293563531285706e-17
 2.619635187319191e-01  2.359501580698789e-04 -4.664377599391309e-18
-1.233246403217098e-01 -4.023100631920621e-05  2.195122264318421e-18
 1.797673905681128e-01 -1.181443337562951e-04 -3.197961296857051e-18
 8.547608414434896e-01 -6.285612495387354e-04 -1.520503045195009e-17
 8.579513839585963e-01  6.013167307129369e-04 -1.527444662380389e-17
 1.063527018596551e-01  2.120340875571808e-05 -1.892891085617037e-18
-2.423805485513370e-01  1.527345907607231e-04  4.311881809313074e-18
 5.663873096939902e-01 -8.688983958978357e-04 -1.007061010914819e-17
 1.251174736281624e+00 -1.202381180869566e-05 -2.226602340572727e-17
 5.623569451273704e-01  8.493419164608562e-04 -1.001653931146260e-17
-2.548702473446483e-01 -1.496817205927744e-04  4.537258004205332e-18
 2.194194520868178e-01 -1.438574436789119e-04 -3.903352836414385e-18
 8.708996442849194e-01 -2.475151795221421e-04 -1.549615487066530e-17
 4.134896718469648e-01  2.651437226009887e-04 -7.361266194652968e-18
 1.749831883846214e-01 -1.528147464102857e-05 -3.113877553206567e-18
 5.677245446648075e-01 -1.251536114466570e-04 -1.010204956628297e-17
 2.614156122069974e-01  1.528652059227770e-05 -4.652359728019361e-18
 3.615022471026522e-01 -2.711924561334660e-04 -6.430577301707761e-18
 8.906190342425255e-01 -6.807858746648299e-05 -1.584892856370787e-17
 4.211790570879221e-01  3.243278453018309e-04 -7.498716072236335e-18
 2.648367116232767e-01 -1.172504936123947e-06 -4.713073083823542e-18
 4.841918280012902e-01  9.723017134336977e-05 -8.617770153034658e-18
 1.696532642653873e-01 -1.089683827293720e-05 -3.019070246286590e-18
 6.387350862632908e-01 -4.992407634071669e-04 -1.136192327184415e-17
 8.824007906168433e-01  8.166482771884371e-04 -1.571176539917344e-17
-2.265833957509107e-01 -4.249684771935837e-04  4.036688176022947e-18
-1.568545658027673e-01  4.339401894908520e-04  2.786955528502178e-18
 1.097559144244564e+00 -1.346959354227133e-03 -1.951853479325594e-17
 8.292084193545746e-01  9.013285012555759e-04 -1.476601382897628e-17
 1.438190001319679e-01  5.232297680696961e-05 -2.559968256210017e-18
 4.262240763048600e-01 -3.395455643359647e-05 -7.584816985594350e-18
 4.255289294263598e-01  1.110784296125708e-04 -7.573936170118280e-18
 5.315843788447974e-01 -5.696457010712780e-05 -9.459592828078690e-18
 3.662114145993502e-01  2.225022642306251e-04 -6.519455070718723e-18
-1.476852441406628e-01  3.399930827736818e-05  2.627885748008425e-18
 5.552433531717896e-01 -7.754385087873888e-04 -9.873250410007668e-18
 9.985233276300963e-01  2.221468960560898e-04 -1.777219617557481e-17
 3.834679445478908e-01  2.412424605488275e-04 -6.826748138258429e-18
 2.617001379607936e-01  1.126840063658638e-05 -4.657381903752898e-18
 4.322407808749743e-01  1.311348945841510e-05 -7.692375073131878e-18
 2.211741711156331e-01 -3.289792823180636e-05 -3.935720196791338e-18
 5.230866454050732e-01 -3.993152630087162e-04 -9.304848054743364e-18
 1.138623765404981e+00  2.239619238932730e-04 -2.026546923238194e-17
 5.685523863347675e-01  1.051977082729689e-03 -1.012887670581018e-17
-6.728606845003807e-01 -7.458723397973937e-04  1.198202203659644e-17
-1.419749717879088e-01  5.665392178345050e-04  2.520793028104626e-18
 1.620245650103924e+00 -2.391180315202219e-03 -2.880963552936609e-17
 9.020102616084705e-01  2.299243615317347e-03 -1.607597244278892e-17
-8.085545260509782e-01 -4.684185857172935e-04  1.439400510937814e-17
 3.573033852548062e-01 -7.018900103599000e-04 -6.351428244746234e-18
 1.627357372426082e+00  2.567667821332634e-04 -2.896340385761625e-17
 5.390481372147153e-01  1.184523895799259e-03 -9.605175262908792e-18
-6.602689971004947e-01 -4.278149778598874e-04  1.175467008608190e-17
 1.258213314548549e-01 -6.893959071664274e-05 -2.238432330552401e-18
 1.146410926638121e+00 -6.648804725178334e-04 -2.039491854924432e-17
 6.608726760777900e-01  6.049208958099024e-04 -1.176723292129951e-17
 2.092693522140419e-01  6.128386895296788e-05 -3.724827491064996e-18
 3.987987236794597e-01  1.109188643941654e-05 -7.097212924686869e-18
 4.695014796913803e-01  3.715210456309244e-05 -8.355720581699282e-18
 5.059367331975217e-01  6.695347571833578e-05 -9.004435583611303e-18
 3.208276077967533e-01  8.597887305857706e-05 -5.710393358652308e-18
 2.269003908852731e-01 -5.132370752207825e-05 -4.037435755824250e-18
 7.288485122376561e-01 -3.641106819715705e-04 -1.296698758257003e-17
 8.022597550481804e-01  6.254366824649956e-04 -1.428359554073713e-17
 1.205847434343098e-01  4.016394836693969e-05 -2.146362018081276e-18
 1.198018556696916e-01  1.124418892955279e-05 -2.132132467686052e-18
 8.908396650688589e-01 -3.323766706969439e-04 -1.585013945343694e-17
 5.768300222458058e-01  7.250892609185067e-04 -1.027282838233978e-17
-3.629580828444063e-01 -1.491470560505552e-04  6.460804540434730e-18
 5.722192053136105e-01 -9.794221303475006e-04 -1.017326004188563e-17
 1.442135413592711e+00  1.012532670659581e-03 -2.567492335712048e-17
 1.612448174672751e-01  1.635637261016179e-04 -2.871224438431416e-18
-2.846377088539985e-01  3.108233169193991e-04  5.062273960538402e-18
 8.023549744959246e-01 -6.010007840649768e-04 -1.427268868066605e-17
 8.307592559576367e-01  7.706221626198813e-04 -1.479226979081391e-17
 2.331762363914290e-01  1.442778021398913e-04 -4.151131670453522e-18
 3.687104553362723e-01  3.771686724409436e-05 -6.562029917713899e-18
 5.610034162229587e-01  2.049479280322340e-04 -9.985830744055800e-18
 4.028336016994689e-01  1.633508714655043e-04 -7.170582827609377e-18
 5.478695791252149e-01  7.768507736111182e-05 -9.750790916301985e-18
 7.263720060019669e-01  5.203867830765463e-04 -1.293200306559139e-17
 2.818224798290055e-01  2.617138597938763e-04 -5.018056236833288e-18
 1.551105763387895e-01  4.779155944651551e-05 -2.760868770329199e-18
 8.503084416064844e-01 -1.084646001592104e-04 -1.513113851094789e-17
 8.550797597082379e-01  1.227205402233570e-03 -1.522977342113352e-17
 1.734318799545299e-01  1.794816139560548e-04 -3.088271289208639e-18
 2.998612934433832e-01  1.152497746060941e-04 -5.337573520888586e-18
 8.156531326582598e-01  4.648347817845840e-04 -1.452029644565842e-17
 7.468459573801903e-01  1.057001355131542e-03 -1.330187499186916e-17
 3.339708122271726e-01  4.644448689624779e-04 -5.948181109703880e-18
 3.375620678901634e-01  2.765220716842624e-04 -6.010160728056152e-18
 1.029439589774087e+00  7.369633747663740e-04 -1.832767747329644e-17
 1.000260563999383e+00  2.653817018961299e-03 -1.782809693310661e-17
-1.129205905896549e-01 -4.648408001384053e-04  2.014332723660431e-18
 3.179023523761307e-01  2.002951843149572e-04 -5.659509375135354e-18
 1.832683257278111e+00  2.682012261313440e-03 -3.264234135573073e-17
 1.048057051100275e+00  5.288220868618116e-03 -1.870575991961971e-17
-5.439010390437224e-01 -1.914077087063168e-03  9.699034161521068e-18
 6.797036906647407e-01  5.141651723393041e-04 -1.210142076969380e-17
 2.337217701563351e+00  7.933198318492153e-03 -4.167508766433061e-17
 1.306112098971495e+00  9.459895098973039e-03 -2.334101974626500e-17
-1.611145375527121e-01 -9.981676006988230e-04  2.877481168863335e-18
 9.978174083237602e-01  3.838686819305493e-03 -1.779679215438166e-17
 2.548282526397685e+00  1.711677128872263e-02 -4.552559587686944e-17
 2.039660236454305e+00  2.224582495862671e-02 -3.652675466450528e-17
 1.345113484675480e+00  1.550487721884398e-02 -2.409720588899666e-17
 2.312970077559980e+00  2.919182131375774e-02 -4.146199692513128e-17
 3.434564985335050e+00  5.965488162751286e-02 -6.173511307760702e-17
 4.059160551371028e+00  9.455060695974739e-02 -7.320907708032438e-17
 2.596690380497879e+00  8.324928781388553e-02 -4.706655894649485e-17
-3.906281555625325e+00 -1.327425733410949e-01  7.088082160814377e-17
 6.618148666429544e+00  5.985716428592354e-02 -1.183928605487889e-16
 2.030674615742619e+01  1.205843933300270e+00 -3.737723789718957e-16
 7.379358880517743e+00  1.181792612983346e+00 -1.434669835270680e-16
-1.903391882103205e+01 -2.111602220296452e+00  3.604272356380995e-16
-3.136615957175136e+01 -2.768415407901139e+00  5.866426871206651e-16
-3.079626231888210e+01  9.020586015942794e+00  4.553729786867749e-16
 2.210588883135875e+01 -1.948691884801748e+01 -1.931796484904230e-16
 2.724282459239194e+01  1.779406617375940e+01 -6.676461259023037e-16
 1.654925069717050e+01  1.848769341256073e+01 -4.844679905604121e-16
-1.795848664451351e+01 -2.714005557594347e+01  5.984469033340373e-16
-2.709211185689696e+01  8.647453430318764e+00  3.932870045101840e-16
-2.595618972709351e+01  6.260031777532574e-01  4.554894026468330e-16
-3.093173753489424e+01  9.451603744880607e+00  4.533553711646509e-16
-1.025603381535345e+01  2.786142284889669e+01 -1.037476429161212e-16
-4.416775141271914e+00  4.376437076202718e-01  7.410515204733688e-17
-2.632010645526340e+01 -1.864860992538501e+01  6.600053826068227e-16
-9.350685447386594e+00  1.412348261050002e+01  2.129294827041439e-17
 2.263954501584023e+01  2.323993531740783e+01 -6.416796019768683e-16
 7.002470585211926e+00  2.047837754349814e+01 -3.350252069352214e-16
 2.484228984154622e+01  1.350116227606720e+01 -5.808177184863820e-16
-6.427785896225919e-01  4.439806892221191e-01  6.877271447295589e-18
 2.265323009213400e+01  2.921462228973834e+00 -4.331582143411624e-16
-2.763029105456376e+01  1.718815372369884e+01  3.151119523863039e-16
-6.625204019474767e-01 -1.030039974651708e-01  1.284866947668841e-17
 3.253306031528902e+01 -8.306096843173023e-01 -5.704304023785042e-16
 2.477119205838613e+01  1.643912821825632e+01 -6.097389813977333e-16
 1.454322528240393e+01  1.216673897142531e+01 -3.838228647900496e-16
-2.481349787970050e+01 -1.975674164454031e+01  6.445791367109891e-16
-2.189188982865558e+01  2.133674638118403e+01  1.703649750512756e-16
 3.055664926272513e+01 -6.248877109547045e+00 -4.795870806528166e-16
 1.955069838203972e+00 -7.516901909894651e-02 -3.402046550056390e-17
 2.045629712144467e+01 -4.734411339813398e+00 -3.153998518441237e-16
 2.938232521892178e+01  3.627386630958938e-01 -5.266205337750380e-16
-2.184319143844501e+00 -2.152960723891833e-01  4.108465369799930e-17
-1.899999387901025e+01  4.466668793097567e-01  3.335382151664932e-16
-1.258917176270453e+00  5.796828907357614e-02  2.180832976149671e-17
 6.394700295092322e+00 -1.518550604829474e-01 -1.122410641077175e-16
 4.753959386712340e+00 -6.398903596801420e-02 -8.394491391178748e-17
 4.349838164423445e-01 -4.114208474397332e-03 -7.698783881082084e-18
-9.560051528210448e-01  1.601285695637577e-02  1.684872576894310e-17
 7.028817325545816e+00 -1.200147158441246e-01 -1.238530809297549e-16
 5.555145228151623e+00  7.432615636190892e-02 -9.962411001685943e-17
-8.615098558462394e+00 -6.529443953155795e-02  1.539868319704297e-16
-3.292438881869427e+00  1.128946676202774e-01  5.743292545122769e-17
 1.031426324023101e+01 -1.165385561412888e-01 -1.823572263423860e-16
 3.277576652908645e+00  5.976035404884018e-02 -5.894240208040787e-17
-5.543889686062882e+00  6.466250990833085e-03  9.859369154256410e-17
-1.753187794613729e+00  1.881507976454198e-02  3.100674995507299e-17
 9.835957937422406e-01 -8.827303526082171e-03 -1.741356310054181e-17
 5.071673825768743e+00 -4.743800855831448e-02 -8.976907716381957e-17
 4.946141874695624e+00  4.996661615426030e-02 -8.853588342556014e-17
-4.155297191825538e+00 -4.805222194406399e-02  7.444218936718655e-17
-4.242547263451522e+00  4.841415690864330e-02  7.500375142489512e-17
 3.198629679136066e+00 -3.101204292955565e-02 -5.660479301676954e-17
 3.072875138621245e+00  7.103816516328500e-03 -5.475846770150713e-17
-3.293004312466137e-01 -5.542633873780174e-04  5.865988838273218e-18
-1.083797104808303e-01  4.288901166676490e-04  1.924339490896209e-18
 6.959937748904288e-01 -8.637401331276172e-04 -1.237716481411245e-17
 6.863961678725374e-01 -6.527638857510389e-04 -1.220853176641443e-17
 7.784058732301071e-01 -3.968948728714844e-04 -1.384858306926631e-17
 2.840410187850737e-01 -1.455969768242438e-05 -5.054699165515219e-18
-2.297710574715055e-01  2.818617238024003e-04  4.086153993233157e-18
 8.077749486924795e-01 -1.995789170409112e-03 -1.435481277089913e-17
 1.564220308642945e+00  2.447674051153549e-04 -2.783968115799650e-17
 1.380990799992124e-01  4.039891880258948e-05 -2.458052880036840e-18
-8.617068985570928e-01  1.021100498139884e-03  1.532461065397262e-17
 7.233213164700820e-01 -2.279585528503355e-03 -1.284894386906550e-17
 1.856652121607353e+00  2.575504868555554e-05 -3.304160383635354e-17
 2.507025199228395e-01  3.924074257699589e-04 -4.465582356781466e-18
-9.077429819533245e-01  8.455665390014485e-04  1.614568125871084e-17
 7.150456869010664e-01 -2.017363879407754e-03 -1.270436331551148e-17
 1.566715533074290e+00  5.834551548410553e-04 -2.788756649977256e-17
 9.189352047442645e-02 -4.021355829290291e-05 -1.634941709417227e-18
-3.268610151695502e-01  5.375190383980447e-04  5.811358854256556e-18
 8.222256730373765e-01 -1.119578582378920e-03 -1.462098337476230e-17
 8.733182760596327e-01  4.169511931159393e-04 -1.554602450769794e-17
 1.697051137690525e-01  2.229172216614506e-05 -3.020334011525374e-18
 1.657699942002500e-01 -6.199116327725251e-05 -2.949437828667194e-18
 6.082557182112103e-01 -4.025634826385213e-04 -1.082049985228394e-17
 7.180630874355305e-01  7.088440664430325e-05 -1.277951760652605e-17
 2.047644857261473e-01  3.320870293527258e-05 -3.644369491191994e-18
 8.147312634670950e-02 -1.138624781697336e-05 -1.449794478442796e-18
 7.680168916163936e-01 -7.017891251267460e-04 -1.366056606461268e-17
 7.570275432835349e-01  4.190006382887693e-04 -1.347651322721889e-17
 1.048065036155401e-01 -3.355857622304100e-06 -1.865122218247633e-18
 2.661550995968489e-01 -1.416719289546427e-04 -4.735091941698654e-18
 6.723499992477519e-01 -1.783122542708849e-04 -1.196343817242882e-17
 4.380566508704078e-01  8.873009181932005e-05 -7.796652336600723e-18
 3.412871619818388e-01 -6.459474998822682e-05 -6.072948466030368e-18
 5.913949068416727e-01 -6.421810478153812e-05 -1.052391799024517e-17
-2.665506161081853e-01 -3.950689909787927e-04  4.747645415806433e-18
-8.294065102999557e-03  2.615633869635815e-04  1.449154328073065e-19
 3.372921045790387e+00 -6.981621811504145e-03 -5.995341971382921e-17
 1.263803862165951e+00  1.224701624659733e-02 -2.261673089788934e-17
-5.096537466270501e+00 -1.475747132554064e-02  9.085059118459429e-17
-6.696477350193487e-01  1.159606396669913e-02  1.179803488466301e-17
 6.277389291856785e+00 -1.357780906813733e-02 -1.115741233274935e-16
 9.671926813931090e-01  1.162423518258510e-02 -1.733178219738641e-17
-5.162083751047994e+00  4.155242782428285e-04  9.186116849220191e-17
 8.254306964003543e-01 -9.797439963178653e-03 -1.458885871532779e-17
 6.275329263282985e+00  8.655067424085398e-03 -1.117658973799018e-16
-1.733554033923642e-01 -3.878375242465410e-03  3.124915076394766e-18
-5.085988648974702e+00  7.227845100287625e-03  9.043697133500022e-17
 5.626272748757153e-01 -5.028454598000991e-03 -9.960958200544337e-18
 3.352418592637200e+00  1.540792728535884e-03 -5.967611890947489e-17
 4.525107590875587e-01  1.091624241009170e-03 -8.064184697483298e-18
-2.721374649815034e-01  2.248256054454709e-04  4.840700842279032e-18
 4.264250398470456e-01 -5.530099515764215e-05 -7.588174056110266e-18
 3.573014899226495e-01 -3.872784616908834e-05 -6.358208370207238e-18
 4.264501731447113e-01 -1.640510065881861e-04 -7.587503924183474e-18
 6.633092364623466e-01 -7.597525259423126e-05 -1.180359853384122e-17
 4.816106017235775e-01  2.179190723788457e-04 -8.573074214876854e-18
 3.349249983310652e-01  3.965924530570342e-05 -5.960797326009425e-18
 5.125838936223022e-01  8.141316137923577e-05 -9.122878368191533e-18
 1.486739059929700e-01  1.040975210184770e-05 -2.645936374588391e-18
-2.150029359951239e-02  7.017730621814133e-05  3.819023841556862e-19
 7.675957450364735e-01 -9.045281924369924e-04 -1.365098829747374e-17
 1.071182812984868e+00  5.770050194328981e-04 -1.906890446236734e-17
 2.474202009947463e-01  2.547583905219469e-04 -4.405755160116898e-18
-4.118757130975264e-01  3.334806365326128e-05  7.329477064188998e-18
 3.329050208630989e-01 -5.123401676740666e-04 -5.919177815192218e-18
 1.181186735256377e+00 -5.461584371659161e-04 -2.101501530911169e-17
 7.100267102938468e-01  8.027797856665171e-04 -1.264402052557509e-17
 1.954722376966867e-01  1.181342170664395e-04 -3.479875426735995e-18
 1.857850380306109e-01  4.386293123995793e-05 -3.306716916572254e-18
 4.607802948052655e-02 -2.627649698408662e-05 -8.197435113501021e-19
 2.457667638716555e-01 -2.248401826604034e-04 -4.371402516761467e-18
 7.042424346064212e-01 -5.993729140697568e-04 -1.252667585525485e-17
 8.739585464016904e-01 -3.881264710550757e-05 -1.555273602935713e-17
 7.212944232307633e-01  5.583183546598677e-04 -1.284203116981906e-17
 2.564522581954147e-01  2.271681250544698e-04 -4.566207943566783e-18
-1.344873413056292e-01 -4.142330102595405e-05  2.393788288503077e-18
 1.681885068774344e-01 -1.107421901919475e-04 -2.991977114736919e-18
 8.498411141795543e-01 -6.470589068798256e-04 -1.511728806228375e-17
 8.531236714857627e-01  5.894287504168436e-04 -1.518840947979053e-17
 9.503738903676555e-02  9.284758222246354e-06 -1.691399083024630e-18
-2.545868717002930e-01  1.647674198778818e-04  4.528984126895814e-18
 5.581834016442592e-01 -8.703941801649478e-04 -9.924596471868889e-18
 1.245419503992376e+00 -3.549751664056515e-05 -2.216336093749489e-17
 5.543641709328498e-01  8.313921404762901e-04 -9.874113999645803e-18
-2.595723436206472e-01 -1.482757982974632e-04  4.620922983798979e-18
 1.009465922071446e-01 -2.198117487250994e-05 -1.796239169820056e-18
 8.591966575541642e-01 -6.364379619798476e-04 -1.528389023918847e-17
 8.426199455422296e-01  5.993318137921116e-04 -1.500158496927223e-17
 1.616047498067560e-01  9.223399607038647e-05 -2.876896962738293e-18
-1.284920796399675e-01  5.044051493576908e-05  2.286151606687541e-18
 2.590284449735488e-01 -2.448639101083002e-04 -4.607204239791485e-18
 7.151591453844054e-01 -5.976565701201632e-04 -1.272096949957069e-17
 8.722795916636709e-01 -2.700791371166045e-05 -1.552297831621972e-17
 7.196281353567148e-01  5.643992077127723e-04 -1.281244006314906e-17
 2.559267903527319e-01  2.289567773423801e-04 -4.556874942413094e-18
-1.343785852906177e-01 -4.274830854544401e-05  2.391866375176170e-18
 1.673998298240021e-01 -1.082681715157399e-04 -2.977967249460965e-18
 8.517089435920348e-01 -6.419520170946258e-04 -1.515058078265063e-17
 8.452954949359993e-01  6.034435131705756e-04 -1.504924180121546e-17
 1.616797123880925e-01  9.259975033844154e-05 -2.878234767402847e-18
-1.285467178669253e-01  5.004692239279066e-05  2.287127915617044e-18
 2.586320832467140e-01 -2.440247960805517e-04 -4.600159198121182e-18
 7.154186496284216e-01 -5.972316393546950e-04 -1.272559191303402e-17
 8.725992705232439e-01 -2.483131746640415e-05 -1.552868976028228e-17
 7.188832229402669e-01  5.657023207561807e-04 -1.279919683616789e-17
 2.551497461662127e-01  2.282819780295741e-04 -4.543039610859355e-18
-1.343369471420454e-01 -4.273847818947022e-05  2.391125306462201e-18
 1.673998217834216e-01 -1.081094869405841e-04 -2.977968709979372e-18
 8.483793381326012e-01 -6.377461980471837e-04 -1.509136965647681e-17
 8.525523246342209e-01  5.960932318009105e-04 -1.517831018263663e-17
 9.489664618958696e-02  1.007761664903079e-05 -1.688902512645127e-18
-2.549383429438818e-01  1.625237073057448e-04  4.535262051645597e-18
 5.575382632108998e-01 -8.640431952117350e-04 -9.913180597987755e-18
 1.244201721150304e+00 -2.474185772731921e-05 -2.214179954690813e-17
 5.535951155775558e-01  8.336486944162235e-04 -9.860450879922000e-18
-2.591282359418611e-01 -1.497352563866398e-04  4.613034590349525e-18
 1.008468955892474e-01 -2.116853897163506e-05 -1.794473296597881e-18
 8.579934296319750e-01 -6.288430203073371e-04 -1.526255539831787e-17
 8.420464549922997e-01  6.036063012204734e-04 -1.499142286134215e-17
 1.618090900742797e-01  9.355147301079652e-05 -2.880547025879020e-18
-1.287626096204130e-01  4.944140296644077e-05  2.290976220354702e-18
 2.583001228336523e-01 -2.423623090457865e-04 -4.594268611707690e-18
 7.146354124273750e-01 -5.932722935402748e-04 -1.271169395869597e-17
 8.720265529425256e-01 -2.236404484448746e-05 -1.551852292741457e-17
 7.192443976546271e-01  5.680290733749614e-04 -1.280564828082529e-17
 2.552280275132610e-01  2.294422179813175e-04 -4.544444691223591e-18
-1.351546591988108e-01 -4.339425845190071e-05  2.405684155020777e-18
 1.674113366727081e-01 -1.077200900848887e-04 -2.978177632462914e-18
 8.490233409265581e-01 -6.352138505192661e-04 -1.510285651292559e-17
 8.520699527384785e-01  5.994276864192430e-04 -1.516976023503526e-17
 9.419027853411750e-02  9.589296967217113e-06 -1.676326887288231e-18
-2.546132569279779e-01  1.620261504797524e-04  4.529481954387099e-18
 5.578853150670565e-01 -8.629298782779056e-04 -9.919368323263952e-18
 1.244155372955999e+00 -2.097660942799079e-05 -2.214101340505264e-17
 5.533985473647701e-01  8.349236350713673e-04 -9.856965786714468e-18
-2.594829932368186e-01 -1.505130760286305e-04  4.619355840214654e-18
 1.009155129528732e-01 -2.101058275026984e-05 -1.795696097300126e-18
 8.582210902142611e-01 -6.268087120260642e-04 -1.526662781514287e-17
 8.418947454314593e-01  6.055436372199949e-04 -1.498874284687852e-17
 1.619278311954261e-01  9.402724774683741e-05 -2.882665032208310e-18
-1.285773393470047e-01  4.895670328878108e-05  2.287684146534048e-18
 2.578822499089178e-01 -2.412552654483642e-04 -4.586843446910712e-18
 7.144125171220582e-01 -5.922773541283865e-04 -1.270773746944559e-17
 8.725996130507280e-01 -2.107014791888006e-05 -1.552873448315626e-17
 7.197203024431300e-01  5.707414157513555e-04 -1.281414549200026e-17
 2.545881736398320e-01  2.294503531915867e-04 -4.533057733661441e-18
-1.361520756103070e-01 -4.362555992439856e-05  2.423436803521950e-18
 1.678120136096978e-01 -1.080981790521675e-04 -2.985304364750875e-18
 8.504249801317399e-01 -6.346190402600792e-04 -1.512780646498090e-17
 8.522517652860901e-01  6.035207868155106e-04 -1.517303769942795e-17
 9.286788314649484e-02  8.325745802419407e-06 -1.652780243401118e-18
-2.550649247522296e-01  1.627429739472917e-04  4.537512477544155e-18
 5.590208944004965e-01 -8.645559910765792e-04 -9.939560552030131e-18
 1.244681004750594e+00 -1.628647899966232e-05 -2.215041583734832e-17
 5.525511936862693e-01  8.348154162357993e-04 -9.841884783263068e-18
-2.599516685238062e-01 -1.505979911844095e-04  4.627697407755646e-18
 1.014479013378929e-01 -2.149597272312443e-05 -1.805165531871947e-18
 8.587148069136710e-01 -6.254213166173385e-04 -1.527542832429839e-17
 8.416844365722473e-01  6.073544084865310e-04 -1.498501884185386e-17
 1.614339844440833e-01  9.369086133105565e-05 -2.873872905919236e-18
-1.281322201330541e-01  4.900469131833615e-05  2.279762211406378e-18
 2.588879451167804e-01 -2.418233405348244e-04 -4.604735143626775e-18
 7.140187729578767e-01 -5.891472047454650e-04 -1.270076249039187e-17
 8.710775010926203e-01 -2.030172986030479e-05 -1.550165460949012e-17
 7.196187849089233e-01  5.691002426967727e-04 -1.281232203292478e-17
 2.564850560773615e-01  2.317471653460341e-04 -4.566838644023516e-18
-1.350691663974944e-01 -4.437966297497386e-05  2.404172921383042e-18
 1.662951393389389e-01 -1.059222622241513e-04 -2.958332017856018e-18
 8.488162016617098e-01 -6.342858467974076e-04 -1.509917975652824e-17
 8.530392808522178e-01  6.021540276198481e-04 -1.518703846007392e-17
 9.465732425524094e-02  1.036946922595300e-05 -1.684646533354080e-18
-2.548437099228890e-01  1.612157903451235e-04  4.533591343725079e-18
 5.576638476594729e-01 -8.607739804688263e-04 -9.915449279480075e-18
 1.243878217344245e+00 -1.774809116955603e-05 -2.213611434835226e-17
 5.535555502851954e-01  8.361390405767121e-04 -9.859772323186831e-18
-2.589827424495963e-01 -1.510605695083675e-04  4.610458909809773e-18
 1.007836311625065e-01 -2.058377782374451e-05 -1.793353255205877e-18
 8.581577549951999e-01 -6.250861021495030e-04 -1.526551839201570e-17
 8.423498108897670e-01  6.081365258375640e-04 -1.499686802045907e-17
 1.619016931469888e-01  9.446465808787157e-05 -2.882204223260761e-18
-1.290036982819799e-01  4.880449060497226e-05  2.295273282105953e-18
 2.580595338769998e-01 -2.410026313026850e-04 -4.590001017324646e-18
 7.151732264990102e-01 -5.910694941007290e-04 -1.272128758279174e-17
 8.725102916124506e-01 -1.738315989100762e-05 -1.552718278597530e-17
 7.186315749754907e-01  5.712954228572929e-04 -1.279477596707132e-17
 2.548557223560030e-01  2.298448731837424e-04 -4.537823170047853e-18
-1.347080966783878e-01 -4.375967615017850e-05  2.397740867446505e-18
 1.677524811213930e-01 -1.073822430537600e-04 -2.984252169361209e-18
 8.492360076336002e-01 -6.316511287238682e-04 -1.510667780387166e-17
 8.518062119994352e-01  6.032704959760443e-04 -1.516510599562339e-17
 9.378215305874892e-02  9.477675564556195e-06 -1.669062642505291e-18
-2.539584251607904e-01  1.611424517325116e-04  4.517837428027844e-18
 5.583461009366962e-01 -8.608591176691487e-04 -9.927590003101821e-18
 1.243664286955066e+00 -1.563473569249143e-05 -2.213232884792706e-17
 5.535719064220850e-01  8.368551697596744e-04 -9.860070808290175e-18
-2.595007560837326e-01 -1.520413630751560e-04  4.619687674974050e-18
 9.984684161278555e-02 -1.950743102394968e-05 -1.776693216355807e-18
 8.587630083548872e-01 -6.269129519974790e-04 -1.527627082621228e-17
 8.432643298250732e-01  6.105918375243168e-04 -1.501316822354132e-17
 1.613851094298789e-01  9.419759438871757e-05 -2.873008446992296e-18
-1.292055809353977e-01  4.905698746724018e-05  2.298863364735666e-18
 2.583092668291939e-01 -2.409383382481086e-04 -4.594445969028057e-18
 7.143131856892266e-01 -5.892924628987545e-04 -1.270600032986070e-17
 8.722101612799017e-01 -1.866621050028661e-05 -1.552182844503266e-17
 7.195623002559765e-01  5.724891762006585e-04 -1.281135157231343e-17
 2.545199165810723e-01  2.299733123320036e-04 -4.531848410147930e-18
-1.354190747464206e-01 -4.363021840253532e-05  2.410392190559703e-18
 1.683726289624513e-01 -1.079795511866078e-04 -2.995282303568074e-18
 8.490021061581352e-01 -6.293188840693799e-04 -1.510253920954862e-17
 8.510499910453403e-01  6.024948298447127e-04 -1.515164010629741e-17
 9.424814259251747e-02  1.010751816478576e-05 -1.677362054359295e-18
-2.540975383868792e-01  1.603398470610496e-04  4.520321273609405e-18
 5.575606083994623e-01 -8.594247869048522e-04 -9.913625905153781e-18
 1.243820789448353e+00 -1.590124826240167e-05 -2.213511110200146e-17
 5.532556914253399e-01  8.371953650770797e-04 -9.854446854438155e-18
-2.600381355401319e-01 -1.519299847244236e-04  4.629249849602391e-18
 1.007691234257342e-01 -2.047270744495894e-05 -1.793096415917652e-18
 8.585760753832470e-01 -6.233995374518075e-04 -1.527298021989323e-17
 8.413420774157312e-01  6.095510854507891e-04 -1.497894877614802e-17
 1.612149658212076e-01  9.392182392878712e-05 -2.869977491502147e-18
-1.282345566586552e-01  4.851667621287304e-05  2.281588392444500e-18
 2.576728951739023e-01 -2.397573201268786e-04 -4.583133113606995e-18
 7.134327974101458e-01 -5.886565355560420e-04 -1.269033942832091e-17
 8.722554837398251e-01 -1.837236689355760e-05 -1.552263792064121e-17
 7.190140345859486e-01  5.732435249022663e-04 -1.280160226517212e-17
 2.535210519985675e-01  2.289066972271643e-04 -4.514061521731217e-18
-1.353564153918251e-01 -4.336332815398415e-05  2.409274327089273e-18
 1.684477153234668e-01 -1.079243294108636e-04 -2.996619121498250e-18
 8.477211671863357e-01 -6.267529907497038e-04 -1.507976967902679e-17
 8.496683218560085e-01  6.007765570219886e-04 -1.512703406890233e-17
 9.422276260130091e-02  1.025537302527061e-05 -1.676911798590298e-18
-2.535858057920961e-01  1.595731553940357e-04  4.511222474744512e-18
 5.564410488854670e-01 -8.558141924076987e-04 -9.893739031892228e-18
 1.241220642139829e+00 -1.564340701147116e-05 -2.208884121595035e-17
 5.525892262278418e-01  8.343388359594529e-04 -9.842556951509996e-18
-2.585732048344442e-01 -1.513628583467901e-04  4.603173822397809e-18
 9.962157409786801e-02 -1.928280786932896e-05 -1.772686620140220e-18
 8.553471337394848e-01 -6.207483255926888e-04 -1.521554457634281e-17
 8.406859334810617e-01  6.065973613667981e-04 -1.496724155022941e-17
 1.616434022228860e-01  9.482803454814482e-05 -2.877611465086622e-18
-1.314512883472374e-01  4.820096480724188e-05  2.338837231693756e-18
 2.543008250460147e-01 -2.368790738111603e-04 -4.523152685464135e-18
 7.149543437933490e-01 -5.927194641354063e-04 -1.271737538666725e-17
 8.724790811902954e-01 -1.167763539628200e-05 -1.552668594076710e-17
 7.150342604890206e-01  5.727717246743333e-04 -1.273077271719402e-17
 2.514675717483988e-01  2.269797084796507e-04 -4.477497564305997e-18
-1.386096749201791e-01 -4.542146796972674e-05  2.467191181221612e-18
 1.628362292814344e-01 -1.027122424120245e-04 -2.896809670589764e-18
 8.481604470346358e-01 -6.340864584826950e-04 -1.508751187548671e-17
 8.522423513575983e-01  6.100012449131598e-04 -1.517293678172599e-17
 8.186952931998612e-02 -3.471291606772149e-06 -1.456930147159123e-18
-2.719365249916442e-01  1.784396588974821e-04  4.837601450516579e-18
 6.015687246531046e-01 -9.653085679898065e-04 -1.069571484948166e-17
 1.288334473322616e+00  2.051464824682117e-04 -2.292955656466410e-17
 4.992104949639148e-01  8.239293949743701e-04 -8.892511798676999e-18
-4.224162721040145e-01 -2.557993251207996e-04  7.520029660618111e-18
-9.972544602147981e-02  2.530354614972734e-04  1.772133431986926e-18
 1.112049600181013e+00 -1.719826906589407e-03 -1.977257851915455e-17
 1.272915873584393e+00  1.726564059805106e-03 -2.267079622980182e-17
-1.121530593846246e-01 -3.973677857260699e-04  1.999980272775232e-18
-4.507566911516666e-01  4.657891032063385e-04  8.016967226780481e-18
 3.938869573176015e-01 -4.814477453224151e-04 -7.004741537414006e-18
 8.206266497474352e-01 -5.350736619513746e-04 -1.459853240826057e-17
 9.140948726165281e-01  2.358763979574109e-04 -1.626983219496804e-17
 3.165050645689503e-01  3.422220512030014e-04 -5.636101403388562e-18
-2.285432371276510e-01  4.124283767891263e-05  4.066775622879340e-18
 4.616401701484166e-01 -4.874187453619908e-04 -8.210429433482231e-18
 8.180585334696919e-01  2.307321942113059e-04 -1.456069803936719e-17
 3.876997579147629e-01  2.270534470981754e-04 -6.901912505698788e-18
 3.508008689791978e-02 -3.922331301928614e-06 -6.242516617436411e-19
-1.826268152677917e+00 -4.392236085100824e-04  3.250513308529219e-17
 1.167155979074058e+01 -1.630317905479162e-01 -2.060342363936232e-16
 6.408400089405794e+00  3.755604614004451e-01 -1.179038711407724e-16
-3.032432270508032e+01 -1.348713742012967e+00  5.535150384557862e-16
-4.025541080927266e+00  1.311275841623998e+00  5.816642246789582e-17
 3.247245672349560e+01 -1.248635627462678e+00 -5.650568244663147e-16
 1.265839374294672e+00  6.119628270537608e-01 -2.881481734697349e-17
-3.253991163478170e+01 -2.887721560672909e-01  5.820535715681589e-16
 1.677900722802209e+00 -1.622384506723929e+00 -1.319083340772239e-17
 3.252411074653427e+01  1.085641236001704e+00 -5.899599162168383e-16
-1.182024924707081e+00 -7.706109189740822e-01  2.895329075613936e-17
-3.249936321227359e+01  6.276526683270374e-01  5.719160318418425e-16
-2.633016682831919e+01  7.616289955283893e+00  3.903221139522632e-16
 2.709295313673313e+01 -7.950034750784502e+00 -4.004676996686586e-16
 3.248947169622227e+01  7.148038368986825e-01 -5.855332534488820e-16
-5.620599930501527e+00 -4.319090637940578e+00  1.444023675484352e-16
-3.253973470771300e+01 -3.008538917918716e-01  5.821745583708612e-16
 1.583046651897670e+00 -1.528293742329465e+00 -1.246954046887325e-17
 3.252612079824738e+01  1.023499155010023e+00 -5.893572001812246e-16
-1.555106898422673e+00 -9.949135795217570e-01  3.789735788040661e-17
-3.247063997929578e+01  9.136223764505538e-01  5.684666327852498e-16
-2.808962349308929e+01  6.054079543887875e+00  4.376848885658283e-16
-8.809351980425085e+00  2.596865082034385e+00  1.300910813062662e-16
 3.061702699079171e+01 -1.070641975376525e+01 -4.348619429777381e-16
 2.124217733087059e+01  2.146907357160696e+01 -5.986168160372396e-16
-2.941098627843516e+01 -1.392609190856600e+01  6.664891189283526e-16
-1.902696031736139e+01  2.252363483294361e+01  1.071852893113549e-16
 1.890336726063359e+01 -2.335545117094033e+01 -9.643919274686998e-17
 3.556188503883754e+00  1.250688996836840e+01 -1.917903674258554e-16
-3.037370077113772e+01 -1.168390911926488e+01  6.605841580538684e-16
-1.546593310597701e+01  1.785540722657873e+01  9.177690517202616e-17
 3.072928103829599e+01 -1.068714390158462e+01 -4.370576900439296e-16
 1.082124099177638e+01  1.328875852916021e+01 -3.291140579629648e-16
-3.254164736414604e+01 -3.035757723154111e-01  5.822365627126479e-16
 2.220070433456161e+00 -1.848236649818205e+00 -2.051884137443948e-17
 3.251466206561558e+01  1.344807736223096e+00 -5.924546073079247e-16
-4.954814489389574e+00 -3.889094833093726e+00  1.281358707746857e-16
-3.247004995348797e+01  1.646604695900392e+00  5.609250055113661e-16
 6.096876155481104e+00 -2.109527297356014e+00 -8.682655706635924e-17
 3.064761025580974e+01  1.572332826088650e+00 -5.615659308749369e-16
-6.843589322655317e+00 -4.022390589027960e-01  1.259226955896303e-16
-1.133982300964588e+01  1.558017562980875e-01  2.002048706857646e-16
 1.973854121841680e+00 -1.644914563509111e-03 -3.511018772075696e-17
 8.608993131205395e-01 -1.207853097820434e-03 -1.530831990893867e-17
 1.252009447746322e+00  3.860058499737256e-04 -2.228496763190829e-17
 1.845642077065638e-01  1.915155250609524e-04 -3.286507963049811e-18
-3.981463803742676e-01  3.878814441149173e-04  7.081504424021408e-18
 7.208566091682564e-01 -9.092120452899314e-04 -1.281916139189394e-17
 9.160676890983525e-01  6.741409731793170e-04 -1.630944376770042e-17
-9.274828892686646e-03 -9.247696117017668e-05  1.660068183319611e-19
-3.054949083728502e-02  1.092022267468223e-04  5.425427663975807e-19
 8.859598558520781e-01 -7.669349522556621e-04 -1.575883248027608e-17
 8.328144243097850e-01  9.774887027043410e-04 -1.483096940235941e-17
-8.772634882775615e-02 -1.624620568508571e-04  1.562864207290911e-18
-2.554565096727105e-01  2.374465112475245e-04  4.543713618290248e-18
 7.054120913287549e-01 -1.025356757009880e-03 -1.254311443783392e-17
 2.808965296355229e+00 -7.538204041366321e-05 -4.998811363538002e-17
-1.000858835191738e+01 -1.401585160183583e-01  1.795548462169044e-16
-1.413295841669992e+01  6.929550347739063e-01  2.443929921843282e-16
 3.009071995039489e+01 -3.119456725547341e+00 -5.034489704065455e-16
 2.642512316621498e+01  9.116165266709938e+00 -5.639318742185470e-16
-3.154458095878986e+01 -7.738030768188779e+00  6.408789010477707e-16
-2.724693167530598e+01  1.626054133748913e+01  3.178204952274071e-16
 2.332978673156057e+01 -2.083877155278469e+01 -2.010705760959626e-16
 2.050653171797111e+01  2.369035385071911e+01 -6.083479727849773e-16
-2.780126787849161e+01 -1.687209837197655e+01  6.681114060689723e-16
-2.951499691436986e+01  1.349862419775492e+01  3.865611168866666e-16
 2.228848819800906e+01 -1.889802054085456e+01 -2.024799382008672e-16
 2.979705562096775e+01  1.278103617668120e+01 -6.615946517208495e-16
-3.112923082464084e+01 -7.892256470325913e+00  6.350718629822104e-16
-2.141908113741325e+01  6.316768150022701e+00  3.162756004759921e-16
 3.241276963854988e+01  5.373019824324521e-01 -5.823444817518525e-16
 6.642737749678436e+00  3.752710578568645e+00 -1.567731799113074e-16
-3.228775691811551e+01 -4.051861761028793e+00  6.162305562573642e-16
-1.830248279423994e+01  1.990493812464192e+01  1.211985049915582e-16
 2.390395011449350e+01 -2.137399071508131e+01 -2.057893159148157e-16
 1.916025949361058e+01  2.508393068045190e+01 -5.987079483418932e-16
-2.357815570968171e+01 -2.173410940611206e+01  6.429114846709105e-16
-8.500577557616875e+00  1.432098558313070e+01  4.134993033889232e-18
-3.254137778367534e+01 -3.841409709416401e-01  5.830595433496638e-16
 2.763915208785629e+01 -1.698090786951076e+01 -3.173990208967729e-16
 2.963493325656793e+01  1.344203510995659e+01 -6.655010147710625e-16
-1.671221512684150e+01 -1.987203811534641e+01  5.015917759251959e-16
-3.221107789712951e+01  4.623332252702889e+00  5.257314945778047e-16
 3.543498979636039e+00 -2.582998209114238e+00 -3.652142295326936e-17
 3.244348172476237e+01 -8.492474599113282e-01 -5.686447481410539e-16
-2.320709035762140e+01 -6.987564249461141e+00  4.847925395774353e-16
-2.950700065488824e+01  8.335633885377398e+00  4.394666637967162e-16
 3.103512561878170e+01 -8.708304160549531e+00 -4.628324186620518e-16
 2.822638330668297e+01  1.594801750751980e+01 -6.661822470242937e-16
-2.447775943460856e+01 -2.109838278293597e+01  6.523891459219864e-16
-1.784250272356515e+01  2.185612571895867e+01  9.296486721933463e-17
 2.773106807985877e+01 -1.662865822072693e+01 -3.226540127768079e-16
 2.960423252641340e+01  1.348201246483984e+01 -6.653654114665581e-16
-2.450800522439834e+01 -1.973834863943762e+01  6.389535490741335e-16
-2.982799574401416e+01  1.214571279984873e+01  4.060319775580403e-16
 2.907629538240610e+01 -7.798310212409395e+00 -4.373225552672108e-16
 2.871823108486678e+01  3.492228075351766e+00 -5.469565533574766e-16
-1.856321711627857e+01 -4.885216470620460e-01  3.353739740028272e-16
-3.265173453307144e+00  8.684394994733102e-02  5.721536647128885e-17
 6.002426135936656e+00  1.108974099208312e-01 -1.079597636013482e-16
-6.719621426903959e+00 -5.223327332162264e-02  1.201203566443998e-16
-2.438701490126484e+00  3.455732394125530e-02  4.304453790340841e-17
 4.445900737384243e+00 -3.832603564135653e-03 -7.908072840080362e-17
-4.226372640677716e-01 -2.774091223508668e-03  7.549837021389910e-18
-2.858909842326820e+00  5.429643716943044e-03  5.082192324944902e-17
 2.394503855862495e-01 -8.814300824911988e-04 -4.252248914194625e-18
 1.764664005400388e-01  5.447722598268094e-04 -3.146027426316406e-18
-9.481314053682135e-01  1.244230709188359e-04  1.687185099593637e-17
-2.004143597505760e-01  8.984259927126642e-05  3.565689355195502e-18
-1.403851730248557e-01 -1.991978390621241e-05  2.498526277298927e-18
-7.432344369300321e-01 -1.617215568395091e-04  1.322840500200354e-17
-2.686676264299797e-01  7.839994694901793e-05  4.780455317073772e-18
-3.262302470795516e-01 -2.168627196761478e-04  5.807884645590711e-18
-8.864138627723055e-01  7.273544558431198e-05  1.577404469251720e-17
-2.736115656769694e-01  1.729824870555896e-04  4.867466703235725e-18
-2.669388197290870e-01 -8.284307797112124e-05  4.751345891271340e-18
-7.903831239666989e-01  1.844691322739864e-04  1.406391515212369e-17
-1.571957669833483e-01  4.346393949589203e-05  2.797039571872015e-18
-1.455171834384213e-01 -2.786735835037240e-05  2.589938190129092e-18
-9.138557016969129e-01 -2.373199029263088e-04  1.626559064458800e-17
-3.631357800221914e-01  3.254898338146246e-04  6.459089980544213e-18
 2.815659951493937e-01  1.687001795267603e-04 -5.012536148949962e-18
-5.830424562732637e-01 -9.322340155072811e-04  1.038551446130792e-17
-1.318974967751216e+00  1.371860552127251e-05  2.347259200594773e-17
-5.894725946007782e-01  9.648323784936148e-04  1.048045466709169e-17
 2.835991562162316e-01 -1.849585614210716e-04 -5.045084910637591e-18
-3.579671767207744e-01 -3.097830080451964e-04  6.373635764333068e-18
-9.242173842209526e-01  2.546861943353927e-04  1.644493402208085e-17
-1.577219375498065e-01  4.519897552095222e-05  2.806385601866203e-18
-1.522968816824402e-01 -3.122506305755350e-05  2.710625517579438e-18
-7.890826106737258e-01 -1.730140286908564e-04  1.404444392556615e-17
-2.799615786422474e-01  9.722382419999737e-05  4.981251204416055e-18
-3.018221011732442e-01 -1.886639258776818e-04  5.373222787443503e-18
-8.944554766182944e-01  1.769497083611700e-05  1.591772031618720e-17
-2.979433716943878e-01  1.959304170416537e-04  5.300244642021109e-18
-2.743010646185287e-01 -8.583725977262366e-05  4.882396589701974e-18
-7.959609405547577e-01  1.875310594636265e-04  1.416314758774508e-17
-1.626689845545863e-01  4.755116164621217e-05  2.894400165440086e-18
-1.513549180382426e-01 -3.205145369019188e-05  2.693870616908590e-18
-9.182945859773232e-01 -2.365274741578337e-04  1.634457778198082e-17
-3.672113384860538e-01  3.293488357115975e-04  6.531579875703717e-18
 2.767806583430938e-01  1.662733381900327e-04 -4.927350510772005e-18
-5.863229778113229e-01 -9.353246637975152e-04  1.044392684239245e-17
-1.320999234424447e+00  1.369606520818926e-05  2.350861631837400e-17
-5.931219996749623e-01  9.700810529007602e-04  1.054534612407234e-17
 2.800317254090993e-01 -1.842779444241229e-04 -4.981605221005333e-18
-3.591160387348599e-01 -3.097081340233052e-04  6.394080416973389e-18
-9.259170052742838e-01  2.529230527109957e-04  1.647519883763764e-17
-1.612295638778120e-01  4.831056137317095e-05  2.868776069690587e-18
-1.543660955409618e-01 -3.246005474600096e-05  2.747462176403265e-18
-7.898301344251547e-01 -1.726562895256414e-04  1.405774340199048e-17
-2.818346143141978e-01  9.816493408705150e-05  5.014574521687738e-18
-3.038744277818203e-01 -1.899488408915440e-04  5.409759680707360e-18
-8.952777007261280e-01  1.909189532778853e-05  1.593233844129598e-17
-2.990038022040220e-01  1.966591891230026e-04  5.319108719444603e-18
-2.761223825993472e-01 -8.669239096576774e-05  4.914817901880159e-18
-7.969536802852781e-01  1.893279033802859e-04  1.418079610600724e-17
-1.631919188191976e-01  4.791326173661722e-05  2.903702571062795e-18
-1.525293042099945e-01 -3.288170207601817e-05  2.714778833623359e-18
-9.195283116599370e-01 -2.357046837663259e-04  1.636652493906305e-17
-3.679340204634252e-01  3.305598776065002e-04  6.544428419608048e-18
 2.764308606084074e-01  1.658592459965595e-04 -4.921121070079062e-18
-5.868083520715697e-01 -9.359282959047874e-04  1.045257091079736e-17
-1.321635125235571e+00  1.400007799820758e-05  2.351992972673115e-17
-5.938744186290409e-01  9.713894027860649e-04  1.055872300450963e-17
 2.788124130122985e-01 -1.837296683283237e-04 -4.959911711478195e-18
-3.599120034673796e-01 -3.097025067525406e-04  6.408245501030993e-18
-9.254639537234891e-01  2.544905019291914e-04  1.646712020989618e-17
-1.610569046677565e-01  4.801366628728273e-05  2.865706399774219e-18
-1.559875671429203e-01 -3.384482418955962e-05  2.776332607421311e-18
-7.909762513456007e-01 -1.698502539865263e-04  1.407811106486773e-17
-2.795559890723298e-01  9.685494222532611e-05  4.974037204111558e-18
-3.022749621724125e-01 -1.896926471238672e-04  5.381292526303296e-18
-8.994148216411320e-01  1.480748896412171e-05  1.600600743966056e-17
-3.029969156115196e-01  2.030984808491016e-04  5.390104635039858e-18
-2.737283264717192e-01 -8.267018572608534e-05  4.872171514116664e-18
-7.931465747941022e-01  1.873353877864668e-04  1.411306455730671e-17
-1.629192888566159e-01  4.700128309084111e-05  2.898860170660667e-18
-1.549430492496950e-01 -3.550913993560601e-05  2.757761226951551e-18
-9.214132569765646e-01 -2.335687024973613e-04  1.640004784390378e-17
-3.674215132177562e-01  3.311152643222358e-04  6.535302060220588e-18
 2.772877061347998e-01  1.665483773773312e-04 -4.936376800767293e-18
-5.874938225391118e-01 -9.370965804534192e-04  1.046478165691790e-17
-1.322020603518838e+00  1.739008599232483e-05  2.352675481756566e-17
-5.931634267036414e-01  9.708105921825283e-04  1.054607603682931e-17
 2.789726838598382e-01 -1.834522168574784e-04 -4.962766784602025e-18
-3.604977130823183e-01 -3.102383332279052e-04  6.418674402392184e-18
-9.255209651080079e-01  2.560217304804048e-04  1.646811905925366e-17
-1.608667459446451e-01  4.795387108759556e-05  2.862322892372566e-18
-1.559212375987151e-01 -3.367090631902708e-05  2.775150289230429e-18
-7.906994161499850e-01 -1.694905041557985e-04  1.407318086154083e-17
-2.806590539599824e-01  9.778566566801173e-05  4.993657912383464e-18
-3.040932230249529e-01 -1.903270721267444e-04  5.413657184970008e-18
-8.972535409068182e-01  2.108589013014863e-05  1.596748037825665e-17
-2.986224112307105e-01  1.974965805675497e-04  5.312312834190152e-18
-2.747542794853534e-01 -8.549863568436584e-05  4.890458589165679e-18
-7.983847341761391e-01  1.890773060469289e-04  1.420626610515753e-17
-1.642216286900585e-01  4.942754962674012e-05  2.922011984969270e-18
-1.511334432615078e-01 -3.113410467765668e-05  2.689919746957788e-18
-9.195085407051933e-01 -2.365711119112541e-04  1.636618195267841e-17
-3.688884316002355e-01  3.326569153665979e-04  6.561391731250862e-18
 2.770599270628151e-01  1.652010042578153e-04 -4.932309282911644e-18
-5.868977354909987e-01 -9.361155895965712e-04  1.045416352631787e-17
-1.322993171785977e+00  1.797116620087024e-05  2.354405696710342e-17
-5.931784566780034e-01  9.732187857901975e-04  1.054631873195367e-17
 2.807714321274790e-01 -1.848051805729252e-04 -4.994763842102351e-18
-3.602889480967140e-01 -3.106790662079477e-04  6.414963701130187e-18
-9.270783184962335e-01  2.572248034140655e-04  1.649582164527573e-17
-1.610628791935526e-01  4.863018868118029e-05  2.865806413993698e-18
-1.540541170653213e-01 -3.167564803027806e-05  2.741902215185627e-18
-7.899542025026794e-01 -1.712311786864542e-04  1.405993671679094e-17
-2.825188553213643e-01  9.927298974003294e-05  5.026739937125982e-18
-3.047186344269152e-01 -1.896783971699606e-04  5.424780475658666e-18
-8.950337261509985e-01  2.337241048095914e-05  1.592795264870450e-17
-2.979128939794830e-01  1.962214220927357e-04  5.299699186018620e-18
-2.762914199446020e-01 -8.654230351353193e-05  4.917824732376009e-18
-7.982589484081154e-01  1.921029941526724e-04  1.420399637928344e-17
-1.630563208135804e-01  4.847347317235696e-05  2.901283685275143e-18
-1.513647741770183e-01 -3.129087122282303e-05  2.694038130404543e-18
-9.197159646836782e-01 -2.345346163535565e-04  1.636985245908673e-17
-3.682185024795029e-01  3.323602559716276e-04  6.549472537809302e-18
 2.772519578022256e-01  1.653565937256473e-04 -4.935728271637095e-18
-5.869300455630082e-01 -9.353847650743018e-04  1.045473101495730e-17
-1.322506395391798e+00  1.964873920499964e-05  2.353537698116308e-17
-5.930766462617409e-01  9.732741021677910e-04  1.054450633100449e-17
 2.802912407548056e-01 -1.849583520405164e-04 -4.986216577978274e-18
-3.600423738893958e-01 -3.094767214449700e-04  6.410563278340522e-18
-9.258356167829858e-01  2.582067849392325e-04  1.647369620781173e-17
-1.604448526171408e-01  4.801712160855193e-05  2.854814191022386e-18
-1.552988245857366e-01 -3.282087018864831e-05  2.764064982564286e-18
-7.907565689933348e-01 -1.679737998474644e-04  1.407418227056971e-17
-2.807321722570982e-01  9.885584404634104e-05  4.994948194149140e-18
-3.030376298736388e-01 -1.883183892262806e-04  5.394851042508082e-18
-8.959095515557516e-01  2.182239061706840e-05  1.594355497551566e-17
-2.991965862079046e-01  1.983729479651759e-04  5.322521910051258e-18
-2.757726253046603e-01 -8.525607914574352e-05  4.908578823286801e-18
-7.967865802854668e-01  1.929369188253661e-04  1.417778534245409e-17
-1.626356791336005e-01  4.814109125387115e-05  2.893801372134405e-18
-1.522023609400438e-01 -3.201503109177159e-05  2.708951542431033e-18
-9.195795682165648e-01 -2.314054577659785e-04  1.636739282200770e-17
-3.670803259521674e-01  3.313927776537967e-04  6.529227342095828e-18
 2.773289504105241e-01  1.656912466715682e-04 -4.937101883729789e-18
-5.872133674823934e-01 -9.349095119623103e-04  1.045976818336961e-17
-1.322185816854395e+00  2.210084891014624e-05  2.352964671190047e-17
-5.929127534393132e-01  9.739525820433060e-04  1.054158270410971e-17
 2.810033304565457e-01 -1.862108262151442e-04 -4.998876222293537e-18
-3.591994771736669e-01 -3.084694797052023e-04  6.395552565695929e-18
-9.268603880813523e-01  2.583704148866308e-04  1.649193156823951e-17
-1.610486249814904e-01  4.921734768422019e-05  2.865546696931701e-18
-1.531474541687768e-01 -3.048135157421179e-05  2.725754826849777e-18
-7.895929804183146e-01 -1.696555512779183e-04  1.405349209620733e-17
-2.822254119864936e-01  1.001034963166938e-04  5.021509361156476e-18
-3.036594086871218e-01 -1.879151959217925e-04  5.405912131360795e-18
-8.946849042108777e-01  2.452676344147246e-05  1.592173310451135e-17
-2.982239003622530e-01  1.976332451234119e-04  5.305219454774183e-18
-2.757740021642128e-01 -8.516043113534714e-05  4.908602344427225e-18
-7.969842734328024e-01  1.943028905611695e-04  1.418128942785742e-17
-1.622727966772289e-01  4.814404739649569e-05  2.887343253495740e-18
-1.516056640873855e-01 -3.128189769081130e-05  2.698325166024723e-18
-9.195854964169036e-01 -2.305237104193296e-04  1.636748940926645e-17
-3.670886344606347e-01  3.323332878997945e-04  6.529365449466083e-18
 2.779469160165852e-01  1.653368106240536e-04 -4.948095728882963e-18
-5.868308480809971e-01 -9.336452666130488e-04  1.045294780472334e-17
-1.321972932879984e+00  2.452503055817175e-05  2.352583327961831e-17
-5.922911818687480e-01  9.736926765204686e-04  1.053052374833748e-17
 2.808116970214528e-01 -1.859297851259634e-04 -4.995468828314412e-18
-3.597714047857899e-01 -3.082399507299503e-04  6.405728389347605e-18
-9.255733309750599e-01  2.615833026410011e-04  1.646899374589301e-17
-1.597484691245578e-01  4.804438980295563e-05  2.842420908217777e-18
-1.542793640579069e-01 -3.148966466191473e-05  2.745908859362800e-18
-7.899663522439906e-01 -1.659316974564676e-04  1.406009855450525e-17
-2.803699218151601e-01  9.940695493442726e-05  4.988495809067385e-18
-3.033081727563054e-01 -1.877823079797688e-04  5.399660114308611e-18
-8.958230507697728e-01  2.670178069969615e-05  1.594196541376669e-17
-2.973836179265920e-01  1.979301893226018e-04  5.290262418313254e-18
-2.743107607182054e-01 -8.395263479523923e-05  4.882549789363343e-18
-7.976897796135128e-01  1.944188643203687e-04  1.419384361021414e-17
-1.629666989312276e-01  4.944147740124559e-05  2.899678807976582e-18
-1.502362028762055e-01 -2.959577451837139e-05  2.673936480773348e-18
-9.183557678649390e-01 -2.300390060514669e-04  1.634559989753996e-17
-3.672049717454429e-01  3.327570352340383e-04  6.531431461025023e-18
 2.775249778634479e-01  1.645433916035365e-04 -4.940578642665874e-18
-5.869281677262167e-01 -9.321985046859825e-04  1.045466485894363e-17
-1.321354474721779e+00  2.908973555276351e-05  2.351478015988045e-17
-5.913539854310892e-01  9.730692275281471e-04  1.051385175619689e-17
 2.809966811067587e-01 -1.861515657820345e-04 -4.998758466382241e-18
-3.597949269242471e-01 -3.075791637006879e-04  6.406140111944985e-18
-9.251930193286296e-01  2.636693088239337e-04  1.646220428260372e-17
-1.595401514806051e-01  4.828286658959773e-05  2.838711279515192e-18
-1.539895327967089e-01 -3.092195209684831e-05  2.740745076758437e-18
-7.893651883125006e-01 -1.640639064660376e-04  1.404938081194010e-17
-2.801824240409187e-01  9.988100162267229e-05  4.985154223828241e-18
-3.031788129488587e-01 -1.869409599891296e-04  5.397349360434882e-18
-8.950923445888919e-01  2.895047121001539e-05  1.592893854828964e-17
-2.969458723067474e-01  1.979702678200804e-04  5.282471950409527e-18
-2.747424790029421e-01 -8.376408046855763e-05  4.890230779248904e-18
-7.977920384977785e-01  1.976945500308411e-04  1.419562969218439e-17
-1.618136618492808e-01  4.884016815027584e-05  2.879165321462340e-18
-1.489163549037573e-01 -2.817439544812500e-05  2.650433659869176e-18
-9.188842974460337e-01 -2.303077897778341e-04  1.635500851027122e-17
-3.684585091307100e-01  3.360707505824503e-04  6.553705678322725e-18
 2.789225670695105e-01  1.629454506734663e-04 -4.965433989857001e-18
-5.848495044334409e-01 -9.282439435966750e-04  1.041763191586533e-17
-1.322403567728459e+00  2.796048186472937e-05  2.353346161613037e-17
-5.924130764056882e-01  9.785553542862415e-04  1.053264298270854e-17
 2.828268659267162e-01 -1.888265403392898e-04 -5.031301291547169e-18
-3.589009716669552e-01 -3.063559519180123e-04  6.390218597022644e-18
-9.261424391018348e-01  2.665040645852761e-04  1.647907122523490e-17
-1.590624650885867e-01  4.847278394289734e-05  2.830208258406348e-18
-1.529067684650786e-01 -2.952768653479671e-05  2.721461763518583e-18
-7.895840266389911e-01 -1.623846170825852e-04  1.405325806140541e-17
-2.799789315072213e-01  1.009185235404606e-04  4.981522156400609e-18
-3.021774415310248e-01 -1.851555152357709e-04  5.379510444179413e-18
-8.952050050692819e-01  3.050623077966962e-05  1.593092752878098e-17
-2.974808461532303e-01  1.999218687889792e-04  5.291972370080587e-18
-2.737622356171225e-01 -8.184000392983382e-05  4.872766366449890e-18
-7.964794894514721e-01  1.990124759513586e-04  1.417225775793305e-17
-1.622736548155378e-01  4.982389091508490e-05  2.887341372572915e-18
-1.498340270217726e-01 -2.850635747768597e-05  2.666768127003303e-18
-9.177177950539966e-01 -2.242433375465334e-04  1.633418689893657e-17
-3.670328635674991e-01  3.350751159142290e-04  6.528344837081715e-18
 2.779531813425922e-01  1.622576451195733e-04 -4.948175559057108e-18
-5.853349097046934e-01 -9.253091659651377e-04  1.042624012165389e-17
-1.320820937954707e+00  3.476208231741466e-05  2.350522694507245e-17
-5.923042875748242e-01  9.794337224623487e-04  1.053069799209192e-17
 2.813261764436709e-01 -1.895738802104427e-04 -5.004587089382606e-18
-3.589289750925591e-01 -3.036535442414195e-04  6.390689181326659e-18
-9.257678911231324e-01  2.719496645256096e-04  1.647234979333271e-17
-1.542845190400046e-01  4.426865991639512e-05  2.745222209819190e-18
-1.449610980891692e-01 -2.357709874042643e-05  2.579997893018935e-18
-9.190751796661379e-01 -2.242527498017042e-04  1.635834328819193e-17
-3.671697567216230e-01  3.363104007007780e-04  6.530768473620930e-18
 2.790325355877220e-01  1.625599618158984e-04 -4.967387057394260e-18
-5.858649222199714e-01 -9.266466031991645e-04  1.043568606905924e-17
-1.322018979978040e+00  3.923537197066413e-05  2.352650158487957e-17
-5.914440688006842e-01  9.806615493388770e-04  1.051537672923169e-17
 2.828077358841678e-01 -1.905104138091994e-04 -5.030943527802355e-18
-3.587865150638082e-01 -3.034315929251086e-04  6.388151645151992e-18
-9.252933565093864e-01  2.738189648890097e-04  1.646388563753400e-17
-1.583291109334614e-01  4.903742871740422e-05  2.817151606277419e-18
-1.526970192102301e-01 -2.830851890711080e-05  2.717716460191720e-18
-7.894414349383641e-01 -1.557380637534860e-04  1.405065218167658e-17
-2.797026193228144e-01  1.033185442421432e-04  4.976580202463214e-18
-3.018382337744008e-01 -1.821599526746113e-04  5.373443076160093e-18
-8.942855396223760e-01  3.908561541509631e-05  1.591447639297344e-17
-2.968105508672940e-01  2.017165212556631e-04  5.280025224269265e-18
-2.748033013685036e-01 -8.022066125379224e-05  4.891276726189202e-18
-7.967561071617263e-01  2.097506626721813e-04  1.417707021036374e-17
-1.603888513143868e-01  4.971561346852576e-05  2.853800118018626e-18
-1.499685372864082e-01 -2.722378674851921e-05  2.669148806667802e-18
-9.197697437014136e-01 -2.129239094560622e-04  1.637058744685760e-17
-3.652284597304288e-01  3.388842739495885e-04  6.496194140887781e-18
 2.875667292335598e-01  1.634200867684404e-04 -5.119272059443780e-18
-6.912109190409811e-01 -1.138514846808088e-03  1.231262048955909e-17
-1.328075437273710e+00  6.491751731061633e-04  2.362801657622276e-17
-1.445046684376990e-01  8.594968335171999e-05  2.570749821990406e-18
 2.859539576445926e-01  3.746382047842632e-04 -5.092741073657573e-18
-1.080878457785215e+00 -1.247361460083817e-03  1.924833760000967e-17
-9.360766230098991e-01  1.721279855410665e-03  1.664091463606287e-17
 4.980245414876623e-01 -6.123883187308384e-04 -8.856648646424270e-18
-1.453246338544907e-01 -8.032900258024293e-05  2.587050441117784e-18
-1.302644468834640e+00 -2.553873940261797e-04  2.318473614854784e-17
-3.865541082240638e-01  5.358346768858315e-04  6.873685934688984e-18
 2.251241152918456e-01  1.911631167287979e-04 -4.008316289273963e-18
-4.643428498755606e-01 -3.971292057797092e-04  8.267615321437008e-18
-7.162061189225125e-01 -2.036081032150995e-04  1.274783421101591e-17
-9.134507365939962e-01  3.887578102203162e-05  1.625554615501708e-17
-6.902316744051505e-01  1.002809485955421e-03  1.227319248039068e-17
 1.512859651058392e-01 -2.489117941542046e-04 -2.689756759173182e-18
 2.203668737133183e-01  2.339924642242929e-04 -3.924095601370689e-18
-5.796028562196128e-01 -7.704935569003633e-04  1.032264077609496e-17
-1.016705045645655e+00 -1.242012651833722e-04  1.809475528957336e-17
-5.198431907051452e-01  4.111735220851702e-04  9.247005020883103e-18
-2.323458579914841e-01  4.605439515728051e-05  4.134398487451650e-18
-4.597833054792028e-01  7.911703731262928e-06  8.182311188369702e-18
-2.685237886232556e-01  1.950532938788131e-05  4.778500709241245e-18
-3.883709965237817e-01 -2.246535242432749e-04  6.913833424324238e-18
-1.037451727666839e+00 -1.041286127066376e-04  1.846376092934929e-17
-4.410466442738779e-01  6.458276273219493e-04  7.842315519863670e-18
 1.861486975559755e-01  7.929606592346143e-05 -3.313552860430526e-18
-8.047375890876238e-01 -6.517724772348933e-04  1.432796204899124e-17
-5.759935575412594e-01  7.896110876462186e-04  1.024237947003072e-17
 5.098135459086010e-01  3.544946833185841e-05 -9.073104407463117e-18
-6.229833404928506e-01 -1.342746258166155e-03  1.110052802901600e-17
-1.617146151301022e+00  8.864294776061406e-04  2.876993704785991e-17
-7.081327578554407e-02 -8.683890317959867e-05  1.261098918801433e-18
 5.055929063453730e-01  7.579378233954220e-04 -9.005416397263354e-18
-1.242527817817608e+00 -1.730946811591510e-03  2.213004949336722e-17
-8.152990760482444e-01  1.876413988165040e-03  1.448994014153745e-17
 6.303346939016730e-01 -1.627117032667885e-04 -1.121588595646684e-17
-4.252823992392522e-01 -6.998651836915019e-04  7.575598460045874e-18
-1.162392214954268e+00  2.919028499092857e-04  2.068315679563065e-17
-4.616483216494842e-01  3.969922530031581e-04  8.211503606620112e-18
-2.343388860030301e-01  7.004072990940221e-05  4.169620294650447e-18
-3.978541253508229e-01  5.014459509330753e-05  7.079773552006076e-18
-3.410343240879423e-01  1.971407588906229e-05  6.068910090647536e-18
-5.389820073692607e-01 -1.287245056986148e-04  9.593150353478505e-18
-7.314890945160946e-01  3.188106869114798e-04  1.301444534515588e-17
-8.593511850862733e-03 -1.282835166577423e-04  1.542498993414772e-19
-4.432609763515753e-02  8.072791606233192e-05  7.880063496865013e-19
-1.567769008294601e+00 -1.352726815341434e-03  2.791421841072818e-17
-8.241527409473313e-01  2.668925047514432e-03  1.463935886317461e-17
 1.258492976731181e+00 -1.318178068464099e-03 -2.238283989469255e-17
-2.818616279633455e-01 -6.953058118769542e-04  5.023207937322667e-18
-2.036538130091563e+00  5.847352412695314e-04  3.623661738559296e-17
-2.768530857636954e-01  6.121136305106323e-04  4.920641627232747e-18
 7.109480532365793e-01  5.753663657950640e-04 -1.265808023178314e-17
-8.600330237977134e-01 -1.339727018363604e-03  1.531907876464622e-17
-1.171276542123978e+00  1.476184035706101e-03  2.082909592623631e-17
-3.156652348958746e-02 -5.773958018129402e-05  5.623571962325742e-19
-8.879748058131373e-02  6.282448666088297e-05  1.579611573878873e-18
-7.316300544208444e-01 -2.593160102267928e-05  1.302049597345701e-17
-5.414284485166146e-01  3.664527711894303e-04  9.631599943803625e-18
-3.553064354580780e-01  1.218975661316458e-04  6.321849390624188e-18
-5.539296008155669e-01  1.897588786578593e-04  9.855888312268441e-18
-3.938850641505369e-01  2.710022777994739e-04  7.006870226015176e-18
-2.026729968964116e-01  4.117725120787980e-05  3.606384688669216e-18
-7.090509069978831e-01 -1.478698868587488e-04  1.261992598299840e-17
-8.538452819340154e-01  9.770852845983129e-04  1.518515607613084e-17
-9.553198407900909e-02  4.277449856700603e-05  1.699666087557966e-18
-8.535423889070815e-02  6.787229860477839e-05  1.518283210096580e-18
-8.646215509711347e-01 -4.419862582547483e-05  1.538742595552458e-17
-8.288023315592402e-01  1.132386200475379e-03  1.473789125467778e-17
 2.025025020340001e-01 -4.777717855608117e-04 -3.598864775675324e-18
 2.829329096573964e-01  5.177639827950912e-04 -5.040448451336410e-18
-2.874932215767364e+00 -6.607867457237402e-03  5.123074157321026e-17
-3.036581030871387e+00  2.688906606297492e-02  5.376330624429454e-17
 4.285900479743630e+00 -4.683018598522309e-02 -7.579154826056980e-17
 4.322376520371163e+00  5.290343615988454e-02 -7.746540969617702e-17
-5.167294762890057e+00 -5.820271159731782e-02  9.255618579857150e-17
-5.151216174366659e+00  5.187123931146417e-02  9.113907831550007e-17
 6.854125889735264e-02 -8.027737954169927e-04 -1.211525166406279e-18
 1.788811212898467e+00 -1.218599077023308e-02 -3.170882267659512e-17
 4.743425953501487e+00 -6.999484329239240e-03 -8.434300585137265e-17
-6.863896405247724e-01 -1.004973501722643e-02  1.231837977206087e-17
-9.438352640732088e+00  2.221072641997212e-03  1.679439230418954e-16
-2.653164416359289e+00  7.357862513555864e-02  4.646023192682077e-17
 8.557582799259420e+00 -8.853825630197829e-02 -1.513826953807916e-16
 3.417253570930077e+00  5.690789895413671e-02 -6.139881150531900e-17
-6.657665653742988e+00 -3.823635974615781e-02  1.188739665460273e-16
-4.817250804485651e+00  6.656327126235526e-02  8.504481086390609e-17
 1.180902302834854e+00 -1.534297554160977e-02 -2.085792159415988e-17
 1.067746744708400e+00 -5.171784077848502e-03 -1.894868868967090e-17
-1.683386954439072e+00  1.046138270158562e-02  2.985039195042255e-17
-2.980917910533875e+00  3.216489833210182e-02  5.271850741311169e-17
-6.977467104831832e-01  1.229402096935160e-02  1.229091838413523e-17
 8.853997515315156e-01 -1.091410468340755e-02 -1.564460625366040e-17
-4.156606375613171e+00  4.873430734436458e-02  7.347104126095630e-17
 1.104604211215335e+01 -4.121316991135122e-01 -1.923429920890285e-16
 1.424293470254954e+01  6.314750589594591e-01 -2.599581894884171e-16
-2.409604783103020e+01 -1.432629453122424e+00  4.435376611527997e-16
-3.103498111406418e+01  3.625277461319046e+00  5.150560998222052e-16
-2.128910576456336e+01  9.874853940834017e+00  2.774044946572403e-16
 2.841663521286671e+01 -1.446238424305776e+01 -3.571121758761701e-16
 3.180464749232023e+01  6.895427170290631e+00 -6.368496493461213e-16
 1.836029999699617e+01  2.511751545396865e+01 -5.848167862198569e-16
-5.471036742906568e-01  2.277780340244560e+01 -2.242972929398192e-16
-1.691672648858850e+01  1.178859386472843e+01  1.799298073669580e-16
-2.869861929648003e+01  1.534316411124663e+01  3.530807258290264e-16
-1.397928143288557e+00  4.398743266264171e-01  2.035824989898817e-17
 2.935176972205963e+01 -1.399685923909894e+01 -3.785371102595205e-16
-2.728003588051394e+01 -2.341407735055423e+00  5.095378932402344e-16
 4.655414046457628e+00 -4.694152202124600e+00 -3.461793749888707e-17
-6.631688755136256e+00 -2.090538551983440e+01  3.328140538462968e-16
-2.580207914568192e+01 -1.311351014336074e+01  5.939153291891233e-16
 1.151686626000242e+01 -1.255741593942740e+01 -7.593348588390355e-17
-2.340170495561174e+01 -2.249918663460624e+01  6.476322236134565e-16
 2.801068343918301e+01  1.620825764993272e+01 -6.650174835100212e-16
-9.203086778749318e+00 -6.193922459854023e+00  2.274202102019517e-16
-3.174201732827375e+01 -7.178731442878318e+00  6.386459193820666e-16
 2.023248415448490e+01 -6.294681833162535e+00 -2.953856205595981e-16
 2.858926402719630e+01  4.358067195153112e+00 -5.535576131467685e-16
 2.716355391370105e+01 -7.407757856481814e+00 -4.072958228053307e-16
 2.692243438161877e+00 -2.477101645789724e+01  2.066015120953720e-16
-2.279920915771098e+01 -2.253786659910777e+01  6.373075147845609e-16
 1.521076696806103e-01  5.164452091681563e+00 -5.576980656930071e-17
 3.251874290103892e+01 -9.931339666168303e-01 -5.685057289478884e-16
 2.029604249893688e+01  2.202725499508970e+00 -3.838244905846194e-16
 1.202558100101660e+01 -1.282603330401560e-01 -2.126917302268070e-16
 2.488002326766229e+01  2.670846844112662e+00 -4.702116731043658e-16
-4.247606847952698e+00 -7.226105701443722e-01  8.301579169034568e-17
-2.022679371188894e+01 -1.260276197757227e+00  3.729088016297253e-16
-6.908968353924422e+00 -3.944336678025425e-02  1.233585993951155e-16
 4.070655531201216e+00  1.367991610321598e-01 -7.384773253334379e-17
-2.572860740201993e+00 -7.520160078025034e-02  4.655979499069464e-17
-2.757571453311067e+00 -6.019534269661676e-02  4.969275867361906e-17
-2.691123585806373e+00 -5.351879975608068e-02  4.844164051830461e-17
-3.527139798204419e+00 -4.879874798111730e-02  6.327104945246732e-17
-2.210043393111321e+00 -1.764342671207334e-02  3.951163822528490e-17
-4.991919217165462e-01 -4.029197377855005e-03  8.925114191119481e-18
-1.038841772599425e+00 -9.399500923229972e-03  1.858400512069537e-17
-1.964082394532392e+00 -1.296296925831707e-02  3.508637885304173e-17
-1.328905762674845e+00 -5.204146514387236e-03  2.370293396147391e-17
-5.749646147063521e-01 -2.324765560911813e-03  1.025606729592682e-17
-8.309345543987583e-01 -3.513552635331916e-03  1.482357211789348e-17
-1.088551015778655e+00 -3.472303113146155e-03  1.940774045230609e-17
-7.029260046429623e-01 -1.656261748104073e-03  1.252642407871794e-17
-4.489734692926783e-01 -1.216018214890723e-03  8.002512620514390e-18
-9.424382307851152e-01 -2.669491868962321e-03  1.679924056248560e-17
-1.048689316851986e+00 -1.314449305257746e-03  1.867618274969515e-17
-2.730046772693421e-01 -3.182967693514228e-04  4.861714330247873e-18
-2.383107119210703e-01 -4.661881299988306e-04  4.245813307495706e-18
-9.392347604464658e-01 -1.873239711059428e-03  1.673404980159813e-17
-8.532687074922890e-01 -5.647326705888038e-04  1.519073695035121e-17
-4.589726795271883e-01 -3.330600440373576e-04  8.171388439363943e-18
-3.605314475074068e-01 -3.226492885098962e-04  6.419402343279276e-18
-2.713171366001331e-01 -3.363338169217965e-04  4.831867813563246e-18
-7.869923816249441e-01 -1.388837085493977e-03  1.401973796874245e-17
-1.219813365781386e+00 -1.798661360742600e-04  2.170988197095836e-17
-1.699279086748469e-01  8.983186727890442e-06  3.023977456639326e-18
 5.723254178381184e-01  8.442692649581338e-04 -1.019388806446719e-17
-8.621503170863486e-01 -2.577467793665781e-03  1.536947584793559e-17
-1.799493288291516e+00  2.551482736261678e-04  3.202150800993388e-17
-2.340718044763269e-01  3.011425170372345e-04  4.162492736566636e-18
 8.985312854294043e-01  8.521713105001317e-04 -1.599919186217902e-17
-7.074818968229037e-01 -2.134015932910446e-03  1.261241056563178e-17
-1.764714311700436e+00  2.390159036025133e-04  3.140274043008096e-17
-1.767119793355876e-01  1.344568560696717e-04  3.143418970891996e-18
 5.866582410250142e-01  8.469524232845796e-04 -1.044898532954878e-17
-8.940960550875123e-01 -1.838057434452920e-03  1.593039132367674e-17
-1.175445404952875e+00  8.001991186250218e-04  2.091023120989662e-17
-8.601602719635147e-02 -2.696142666662748e-05  1.531034851198122e-18
-1.106380976373565e-01 -6.350399428513069e-06  1.969002184762054e-18
-7.506657989295858e-01 -4.555153666063401e-04  1.336367364054847e-17
-6.637523050077024e-01  1.611980072536864e-04  1.181060787134031e-17
-2.279753215242903e-01  9.463255047579807e-06  4.056995553823906e-18
-2.069760188429337e-01 -1.033730563945915e-04  3.684447289525516e-18
-7.578447398525568e-01 -6.151233927781457e-04  1.349307137256895e-17
-8.419003425668808e-01  4.262397904934744e-04  1.497824148300368e-17
-8.834409766126994e-02 -2.883050996011863e-05  1.572484786677709e-18
-8.414547010196678e-02  1.081068640862939e-05  1.497357795420991e-18
-8.335050979486255e-01 -6.361293529648712e-04  1.483975359641797e-17
-7.218330642477048e-01  3.889492687174467e-04  1.284188409949243e-17
-2.222674852069997e-01  4.031888347914385e-05  3.955100757602548e-18
-3.543618679426404e-01 -1.079266301722764e-04  6.307401231985829e-18
-5.359543102939462e-01 -6.757150154215387e-05  9.538640506356138e-18
-3.858045386557307e-01 -2.794896325641672e-05  6.866139145993177e-18
-4.254793071321572e-01 -1.562471803185302e-04  7.573517196188830e-18
-6.192669719183839e-01 -1.138279303128743e-04  1.102176404394079e-17
-4.626819987379580e-01  8.025462957747234e-05  8.233153487443495e-18
-5.037786646645475e-01 -8.699557879101139e-05  8.966236114618012e-18
-8.145836327344925e-01  2.850679242707681e-04  1.449355834921118e-17
-1.511070738998851e-01  6.167560356073593e-05  2.688496867094039e-18
 4.712775959979517e-01  3.712488314042665e-04 -8.390761423514385e-18
-6.375394041012113e-01 -1.404394663698752e-03  1.136020383487618e-17
-1.604851720335619e+00 -5.979482743449398e-05  2.856086505940350e-17
-5.218209454424775e-01  1.078080654776190e-03  9.275349278158527e-18
 4.826092407795600e-01 -4.939817282916420e-05 -8.588099625796355e-18
-5.948656922786302e-01 -7.853576820558593e-04  1.059441386062937e-17
-8.179263536898445e-01  7.058748345236283e-04  1.454872254302244e-17
 1.762764335720523e-01 -8.970244917957934e-05 -3.136127727262303e-18
-4.327998882045382e-01 -6.059855457470511e-04  7.708416554445218e-18
-1.064360422425149e+00  6.755093838324301e-05  1.894086927077235e-17
-4.772639140463428e-01  3.403574490887776e-04  8.489983605865046e-18
-2.302438413273447e-01  3.480697244061373e-05  4.097106188103165e-18
-4.027411223118805e-01 -3.040879509213290e-05  7.167571131559626e-18
-2.873340743476833e-01 -4.541616989060560e-05  5.113919287815938e-18
-4.440268120216046e-01 -2.962804048256102e-04  7.905030939401395e-18
-1.038811239591896e+00 -2.356967814460142e-04  1.848930684624627e-17
-5.781797645830583e-01  8.364999961910313e-04  1.028080384669407e-17
 3.206317587121271e-01 -1.347503525418175e-04 -5.704640177820606e-18
-5.425039452031450e-01 -7.319283509374736e-04  9.662025152889198e-18
-1.093437817604365e+00  8.126301159315952e-04  1.945068072809671e-17
 2.033321781631538e-01 -4.692554482519303e-04 -3.613717230213739e-18
 9.747570492309253e-02  4.082996708070018e-04 -1.738891609093096e-18
-1.243198927484130e+00 -1.240487820072896e-03  2.213695342210307e-17
-8.316385292561684e-01  1.098026724005709e-03  1.478871788723966e-17
-1.394878286267076e-01  7.659110254699791e-05  2.481565321071357e-18
-3.617130627458998e-01  3.331337474964092e-05  6.436773045000180e-18
-2.237148074661751e-01  1.560197627165310e-06  3.981255790594589e-18
-3.909970336367868e-01 -2.589602510286374e-04  6.960919321144906e-18
-9.084410588208289e-01 -5.189557960534369e-05  1.616732545312948e-17
-3.141770632197095e-01  2.474460424310118e-04  5.588613148801066e-18
 2.579451665065273e-01  1.738807556125501e-04 -4.592228487713951e-18
-6.049907912115626e-01 -9.709995814587648e-04  1.077650945661341e-17
-1.327008837409249e+00 -3.873746932064262e-06  2.361574497705603e-17
-6.019472683269514e-01  9.729225257144857e-04  1.070237324305424e-17
 2.683944507881881e-01 -1.744025797116912e-04 -4.774607419755336e-18
-3.677073704387693e-01 -3.208972306304835e-04  6.547088358848091e-18
-9.318598082626435e-01  2.407895526450812e-04  1.658108279252758e-17
-1.714661322412293e-01  5.411718779007801e-05  3.050888330817303e-18
-1.654154559123958e-01 -4.258157106240136e-05  2.944202873249776e-18
-7.964567595747729e-01 -1.798638749108049e-04  1.417574606152039e-17
-2.891142296088612e-01  9.785880742695532e-05  5.144127240967867e-18
-3.130528088871483e-01 -2.006312144268934e-04  5.573209569899197e-18
-9.036025662508255e-01  1.041553693673791e-05  1.608057851425828e-17
-3.077880603050421e-01  2.009458589010901e-04  5.475391039618305e-18
-2.835885662785518e-01 -9.231057327416637e-05  5.047745357042211e-18
-8.034691009648406e-01  1.814633552466398e-04  1.429682673058352e-17
-1.731319728667749e-01  5.420900903772050e-05  3.080533027832238e-18
-1.620213952952834e-01 -4.111849181119420e-05  2.883786401930633e-18
-9.248214394712286e-01 -2.418388000443457e-04  1.646078552603725e-17
-3.747340879055324e-01  3.322671275200461e-04  6.665426169247322e-18
 2.662043559630674e-01  1.636479804274812e-04 -4.739105477962832e-18
-5.954191429476037e-01 -9.513633869566515e-04  1.060596885972674e-17
-1.327578972817424e+00  7.003597471033329e-06  2.362577945328285e-17
-6.011379384413975e-01  9.770760024171493e-04  1.068792753853620e-17
 2.696449195394006e-01 -1.771116418061606e-04 -4.796833210602211e-18
-3.674963649038011e-01 -3.181797465532006e-04  6.543305342035674e-18
-9.322829619422593e-01  2.495056479827522e-04  1.658852372898525e-17
-1.657143909758751e-01  4.966169682660031e-05  2.948574990645988e-18
-1.567475550952596e-01 -3.570813441175301e-05  2.789876717244358e-18
-9.254192966961877e-01 -2.424201979815016e-04  1.647143105527723e-17
-3.750728733928519e-01  3.333219480548738e-04  6.671444469093951e-18
 2.668113393457008e-01  1.635255788612504e-04 -4.749906247196893e-18
-5.951356492354498e-01 -9.508358888224677e-04  1.060091829091455e-17
-1.327738110579939e+00  8.194017350041222e-06  2.362859919643309e-17
-6.008482236302237e-01  9.776838182209292e-04  1.068276549569859e-17
 2.704792146567668e-01 -1.779495743546847e-04 -4.811671968765726e-18
-3.664395790353447e-01 -3.169528842196078e-04  6.524485961082215e-18
-9.313744124589407e-01  2.482642441460268e-04  1.657236782502929e-17
-1.701085909820889e-01  5.434434416997287e-05  3.026726882136203e-18
-1.639797770010203e-01 -4.026139337748749e-05  2.918629443025968e-18
-7.962048234666017e-01 -1.745925881059186e-04  1.417120855057903e-17
-2.880371571090869e-01  9.959138200173221e-05  5.124941566382423e-18
-3.110828023314383e-01 -1.969865666095796e-04  5.538113510787952e-18
-9.034351909153824e-01  1.410042992696231e-05  1.607756197907600e-17
-3.077663564104830e-01  2.034668696498191e-04  5.474978870592656e-18
-2.815843962816707e-01 -8.909968918081685e-05  5.012045822862851e-18
-8.021743684700323e-01  1.837949395180963e-04  1.427376133914072e-17
-1.731323353954295e-01  5.525925975895785e-05  3.080528555955293e-18
-1.610352200938695e-01 -3.948310055116067e-05  2.866219505848868e-18
-9.236303673398111e-01 -2.378770951388172e-04  1.643954823806182e-17
-3.744164884447366e-01  3.337418775478369e-04  6.659758955475596e-18
 2.671243379383688e-01  1.623565532460016e-04 -4.755464386471561e-18
-5.938233280433964e-01 -9.465113822137785e-04  1.057751944792676e-17
-1.326903736005085e+00  9.633355455260013e-06  2.361373578583088e-17
-6.009107307348157e-01  9.791514188272653e-04  1.068386278152138e-17
 2.709534395745526e-01 -1.791922347237126e-04 -4.820098473441985e-18
-3.655486662805455e-01 -3.152892427212904e-04  6.508614017701214e-18
-9.310733603139484e-01  2.491785337819562e-04  1.656700083045792e-17
-1.700681711124500e-01  5.472076296047146e-05  3.026003785634105e-18
-1.634393702775967e-01 -3.950799068933703e-05  2.909004483398616e-18
-7.953538038071659e-01 -1.733276358384977e-04  1.415605054960102e-17
-2.877467696758300e-01  9.965994039275741e-05  5.119773000113091e-18
-3.111531990574243e-01 -1.966805179422871e-04  5.539363197708287e-18
-9.029019234256027e-01  1.596515661928700e-05  1.606805276729718e-17
-3.073139025114111e-01  2.033858529843295e-04  5.466927736596974e-18
-2.813920763442523e-01 -8.861960214381522e-05  5.008618149256238e-18
-8.012292073435870e-01  1.847418284011337e-04  1.425693134933326e-17
-1.728185357251112e-01  5.507822374277882e-05  3.074946054732483e-18
-1.618063339721376e-01 -4.010211565769560e-05  2.879948744691572e-18
-9.228682503254541e-01 -2.344161362217096e-04  1.642594992385112e-17
-3.729368653879494e-01  3.318743314965672e-04  6.633446457918806e-18
 2.667214597991400e-01  1.627349858639574e-04 -4.748298568979784e-18
-5.942232853439188e-01 -9.459160852289415e-04  1.058463112114626e-17
-1.325719214807253e+00  1.200105641177738e-05  2.359263151419543e-17
-6.003473802429610e-01  9.776281525686616e-04  1.067385297757763e-17
 2.703104013585416e-01 -1.789944295026583e-04 -4.808656830850209e-18
-3.650657350672949e-01 -3.139159649300816e-04  6.500005622030181e-18
-9.296534648453972e-01  2.488230431542236e-04  1.654173578095654e-17
-1.700289370493817e-01  5.465658036271825e-05  3.025306142190513e-18
-1.642869869003756e-01 -4.028736817946019e-05  2.924096838576888e-18
-7.949393976226193e-01 -1.711657640870137e-04  1.414865350835312e-17
-2.866872199083172e-01  9.911036292486849e-05  5.100922729856872e-18
-3.108971128344052e-01 -1.965351903325232e-04  5.534804297723602e-18
-9.026987230568443e-01  1.665579923349818e-05  1.606442948603299e-17
-3.067159006994248e-01  2.028466230319915e-04  5.456291070846185e-18
-2.815856171132670e-01 -8.889027807845714e-05  5.012065286922777e-18
-8.015215447295009e-01  1.863067629649506e-04  1.426211774448578e-17
-1.714635157116726e-01  5.392103028021029e-05  3.050843734960965e-18
-1.606869931164664e-01 -3.924048385320512e-05  2.860019928832207e-18
-9.241034023486718e-01 -2.362461659772705e-04  1.644794971258124e-17
-3.735981028509605e-01  3.340213499439593e-04  6.645192001448069e-18
 2.686514115789395e-01  1.628990050636159e-04 -4.782646039849149e-18
-5.932197459734545e-01 -9.456707402821096e-04  1.056676934384124e-17
-1.326712572326364e+00  1.113069740003032e-05  2.361031845269594e-17
-6.002009783877227e-01  9.788056692508361e-04  1.067123547577620e-17
 2.715055705185692e-01 -1.794927903058832e-04 -4.829921320524835e-18
-3.651503123269879e-01 -3.144798980834471e-04  6.501516541629202e-18
-9.299931298800848e-01  2.500912736660315e-04  1.654776738701886e-17
-1.693606287081465e-01  5.417514410721946e-05  3.013417754371091e-18
-1.636329990282007e-01 -3.972040628860178e-05  2.912452493385906e-18
-7.946335975606535e-01 -1.713267856463415e-04  1.414321306258108e-17
-2.865369349245006e-01  9.895838629007731e-05  5.098249704459877e-18
-3.112585514043915e-01 -1.969232193586450e-04  5.541240484355939e-18
-9.024700379943396e-01  1.840298298315947e-05  1.606034181779733e-17
-3.052708208517583e-01  2.014124395177516e-04  5.430588942896015e-18
-2.812091061718325e-01 -8.923481711593633e-05  5.005368288027384e-18
-8.026559598739536e-01  1.864386543788164e-04  1.428230463882102e-17
-1.714239820035061e-01  5.421753983333079e-05  3.050137144117806e-18
-1.593074236732162e-01 -3.786113969170216e-05  2.835454649772146e-18
-9.233953535510128e-01 -2.374013997896662e-04  1.643536099812744e-17
-3.736315626610501e-01  3.338000284212556e-04  6.645789670624224e-18
 2.683831347395373e-01  1.628604491151284e-04 -4.777871421130712e-18
-5.932203566639929e-01 -9.452281033174706e-04  1.056677573115236e-17
-1.326159060961246e+00  1.201441107121704e-05  2.360045887609310e-17
-5.999295333914759e-01  9.782269676603663e-04  1.066641074182215e-17
 2.717891214858446e-01 -1.799604524763512e-04 -4.834962590365283e-18
-3.642125359050363e-01 -3.134632246351301e-04  6.484817314815618e-18
-9.298548576247144e-01  2.482254965885537e-04  1.654532592706462e-17
-1.700271445900982e-01  5.493281047285884e-05  3.025271498450798e-18
-1.633795994735569e-01 -3.940925150361033e-05  2.907939710810897e-18
-7.938747755422202e-01 -1.710470326028095e-04  1.412970602658774e-17
-2.859827070500929e-01  9.851075729571182e-05  5.088391284692948e-18
-3.108077463011730e-01 -1.967842541697644e-04  5.533216486905214e-18
-9.028167103160106e-01  1.741925995815435e-05  1.606652122999801e-17
-3.055769798616799e-01  2.021668475496779e-04  5.436029611315281e-18
-2.799517611403664e-01 -8.814527019296321e-05  4.982981112606907e-18
-8.019718374987077e-01  1.843614528593218e-04  1.427015126477999e-17
-1.723255835764983e-01  5.515879722326953e-05  3.066172587193411e-18
-1.589654193224184e-01 -3.748717541903011e-05  2.829364432177851e-18
-9.222034542356911e-01 -2.378367461784126e-04  1.641415416183068e-17
-3.737930232512198e-01  3.336412143456706e-04  6.648664719400326e-18
 2.680961435829027e-01  1.622599929122463e-04 -4.772757835109819e-18
-5.927081269220801e-01 -9.439842565954298e-04  1.055764722173862e-17
-1.325359346152485e+00  1.205802185492592e-05  2.358622659898533e-17
-5.990824559575292e-01  9.759338806023073e-04  1.065135949038846e-17
 2.712104163279728e-01 -1.786333415522970e-04 -4.824677494312619e-18
-3.653599192920520e-01 -3.144668533020437e-04  6.505246584031418e-18
-9.285612344057296e-01  2.509918956970133e-04  1.652227588351310e-17
-1.680221839946979e-01  5.277916821514479e-05  2.989612901521366e-18
-1.637878737578561e-01 -4.018899715085169e-05  2.915213592171221e-18
-7.948307051011753e-01 -1.707129818638199e-04  1.414671450202430e-17
-2.855667453107276e-01  9.863803630122846e-05  5.080987399158438e-18
-3.099003771021395e-01 -1.958655189135995e-04  5.517059320106415e-18
-9.022029243797647e-01  1.675033385302433e-05  1.605560509497802e-17
-3.055514281215197e-01  2.019635100090724e-04  5.435576949787003e-18
-2.802900807071302e-01 -8.840241578424683e-05  4.989004589550030e-18
-8.011939809323855e-01  1.853767068683605e-04  1.425629793992516e-17
-1.710957448405006e-01  5.384232645219640e-05  3.044299717960365e-18
-1.595289486246668e-01 -3.826219135906492e-05  2.839401060175282e-18
-9.227431986524629e-01 -2.361705364334983e-04  1.642374244188764e-17
-3.724391510537103e-01  3.323875936921326e-04  6.624583787237794e-18
 2.691261001347574e-01  1.636132616330444e-04 -4.791100964995806e-18
-5.930213424042922e-01 -9.454329443373232e-04  1.056323617813576e-17
-1.325697331751476e+00  1.280402882196873e-05  2.359223378670160e-17
-5.986843333344918e-01  9.760706548412947e-04  1.064427301892992e-17
 2.725231559584896e-01 -1.795817256038414e-04 -4.848029601047206e-18
-3.645297890042549e-01 -3.142374167757044e-04  6.490471042133444e-18
-9.292556168878447e-01  2.498934828116812e-04  1.653464459398657e-17
-1.684064158706352e-01  5.344247725003446e-05  2.996443943021670e-18
-1.627459023390356e-01 -3.912115261658048e-05  2.896659526455698e-18
-7.935236908546603e-01 -1.708783431238143e-04  1.412345634098118e-17
-2.849099250184784e-01  9.776232660934541e-05  5.069307556151358e-18
-3.103792144055773e-01 -1.968672459841481e-04  5.525591123951692e-18
-9.024621561453928e-01  1.809891258139719e-05  1.606020460468187e-17
-3.043536003470772e-01  2.010600485523286e-04  5.414269588298668e-18
-2.794103621353443e-01 -8.816778721716542e-05  4.973346585250244e-18
-8.014090017076556e-01  1.850217505561276e-04  1.426012807465321e-17
-1.707604149326772e-01  5.371862397328887e-05  3.038333410415713e-18
-1.586356019690097e-01 -3.749272788091447e-05  2.823494932138252e-18
-9.222905573701853e-01 -2.363968163390050e-04  1.641568957589488e-17
-3.710618629830708e-01  3.307754163338232e-04  6.600090016958240e-18
 2.704466590988205e-01  1.655935088707342e-04 -4.814622316420499e-18
-5.948141797511043e-01 -9.505906004681291e-04  1.059519482180493e-17
-1.326423005806779e+00  2.034476260287150e-05  2.360507055996176e-17
-5.962890180648416e-01  9.729681870609466e-04  1.060167738866845e-17
 2.730623366225753e-01 -1.787536049917332e-04 -4.857633400293689e-18
-3.633664692840224e-01 -3.122049077463197e-04  6.469747540607927e-18
-9.262517593029164e-01  2.459322676868939e-04  1.648122807710468e-17
-1.692369613996656e-01  5.389156372573461e-05  3.011219869697733e-18
-1.644356815253415e-01 -4.089082509372891e-05  2.926749268030146e-18
-7.923059061339496e-01 -1.685555608505208e-04  1.410176047887471e-17
-2.836082508781160e-01  9.712474492579405e-05  5.046149136342120e-18
-3.087574029831385e-01 -1.952956122231254e-04  5.496712812637972e-18
-9.011548890539826e-01  1.557702251061300e-05  1.603696621798938e-17
-3.048234695893932e-01  2.015306863215206e-04  5.422626691418998e-18
-2.788789398902235e-01 -8.750973185160027e-05  4.963882560477907e-18
-7.992376779015018e-01  1.847644089118564e-04  1.422148947834829e-17
-1.691144556903756e-01  5.206854994530355e-05  3.009058479247935e-18
-1.568358294970155e-01 -3.645219772267651e-05  2.791455221176472e-18
-9.285405176033575e-01 -2.439056731065209e-04  1.652699220564759e-17
-3.827328099801471e-01  3.558564149153018e-04  6.807530587179506e-18
 3.204281829439443e-01  1.584558922255111e-04 -5.704029811407566e-18
-5.336461575799010e-01 -9.180458995638685e-04  9.506302518430973e-18
-1.471220944615852e+00 -3.058856150260056e-04  2.618527450888226e-17
-7.546619540246718e-01  1.582699765064824e-03  1.341384803386460e-17
 5.327267647140818e-01 -6.548532004234281e-04 -9.473779899982206e-18
-1.159192170089245e-01 -6.675594815448401e-06  2.062989297838250e-18
-1.182620048532382e+00 -2.947678418305489e-04  2.104916307638556e-17
-3.922773164553359e-01  4.309985450138056e-04  6.976614419960629e-18
 1.926117644642910e-03  9.311776276727672e-05 -3.523431222832921e-20
-6.714609752476668e-01 -2.720639602258721e-04  1.195224436053382e-17
-3.543624468830421e-01  1.182232417052057e-04  6.305087756537106e-18
-3.419185242053085e-01 -2.056364088195613e-04  6.086960804721257e-18
-8.452063578677615e-01  4.004890727610969e-05  1.504104386258533e-17
-2.574400186031587e-01  1.280578669338289e-04  4.580136497145283e-18
-4.219277272640048e-01 -2.423965290989505e-04  7.511197693341914e-18
-8.253441846261259e-01  5.826912403576414e-04  1.468199743871294e-17
 2.917356289474680e-01 -4.944092932519744e-04 -5.186703707184452e-18
-1.927951951650568e-01 -2.116216457559765e-04  3.433194735572753e-18
-1.650555474163125e+00 -4.416840547222795e-04  2.937814166506946e-17
-5.534860674197413e-01  1.278155263740261e-03  9.836812254168400e-18
-1.163246797096717e+00 -2.488691093219963e-04  2.070392135230777e-17
 1.061855033016754e+01 -1.157277782943766e-01 -1.877807084979148e-16
 5.738184995641529e+00  3.194646409575289e-01 -1.054002298738606e-16
-3.056330826213486e+01 -1.483960482439232e+00  5.591576826477671e-16
-5.842228512163905e+00  1.983513713727896e+00  8.358954240723512e-17
 3.246831040602294e+01 -1.631347839231857e+00 -5.610508068492084e-16
 4.303935295132640e+00  3.365243038902921e+00 -1.111703122466908e-16
-3.252297448734571e+01 -1.117748972852171e+00  5.902695904473977e-16
-1.581622558084232e-01  3.057901903593875e-02  2.500497754652756e-18
 3.250823794915934e+01  1.464124762756170e+00 -5.935662216017803e-16
-2.101547552680113e+01 -1.568838689547716e+01  5.351879313410776e-16
-2.728648560681235e+01  1.280779542252541e+01  3.540001146061849e-16
 3.252495285189615e+01 -3.223758489157457e-01 -5.755080384178026e-16
-2.007957634607324e+01 -2.108684780170485e+01  5.739997138015698e-16
-1.847967422682891e+01  2.169999924431601e+01  1.059082369751181e-16
 2.802023677440921e+01 -1.641493290814743e+01 -3.299960645944241e-16
 2.030898579742854e+01  2.396841899820212e+01 -6.076894258694232e-16
-2.503403670121840e+01 -2.073927074384830e+01  6.585990176817383e-16
 5.371962004696339e-01  3.199360542989656e+00 -4.243231451698014e-17
 3.236109930197245e+01 -3.427228145739052e+00 -5.406908396117846e-16
 1.893278165986727e+01  1.172706828805054e+01 -4.574228000064073e-16
-2.374303392275861e+01  2.743205897728477e-01  4.197170659574326e-16
-2.814810145152580e+01 -1.081680274300957e+01  6.120677603385816e-16
-3.079085154470972e+01  9.749169513777060e+00  4.477907567411616e-16
 2.644032197646270e+01 -1.630741082543191e+01 -3.029843465141452e-16
 2.465285241286214e+01  1.724887775500250e+01 -6.159528685929375e-16
-3.240193094006233e+01 -2.972678882401754e+00  6.071742071262627e-16
 7.840145512814692e+00 -6.856706215618634e+00 -6.907457595109940e-17
 3.169536994716248e+01  7.368758617252290e+00 -6.397682337485182e-16
-1.620284717924538e+01 -1.192720626927448e+01  4.108967046095205e-16
-3.250620734614746e+01 -2.619839300298082e-01  5.811785242421514e-16
-3.105044971161172e+01  7.268504501034560e+00  4.778985476355543e-16
 1.786684251956013e+01 -1.144512526310220e+01 -2.003672705778001e-16
 3.252969206843058e+01  4.946528366518835e-01 -5.839870513823608e-16
-2.393570809875127e+00 -1.606394369100377e+00  5.910156632172868e-17
-3.246877149713251e+01  1.022034487494545e+00  5.673194858384179e-16
 3.459952884202094e+00 -1.107452049194740e+00 -5.019532126043194e-17
 3.023060247156944e+01  1.353081353526276e+00 -5.518920506694778e-16
-6.486765418330057e+00 -3.713892826659583e-01  1.192556182468602e-16
-1.133146503030252e+01  1.557943851946455e-01  2.000562061757746e-16
 1.836606307503714e+00  2.078934544674854e-03 -3.270596032256271e-17
-6.288699233071317e-01 -4.457325734851145e-04  1.119607020683531e-17
-1.083510695052147e+00  8.544612363556118e-04  1.927358600114727e-17
 2.810076525091975e-01 -9.768573803052628e-04 -4.990829578800739e-18
 1.308626562511533e+00  2.158535067294223e-03 -2.331074882043975e-17
 1.213546944185302e+00  4.679017931202733e-03 -2.164459060327110e-17
-1.128984687996328e+01 -1.429663535490139e-01  2.023852195560016e-16
-1.605781698655562e+01  7.791905609401905e-01  2.777621077703429e-16
 2.905673472098640e+01 -3.309994723923257e+00 -4.830902611496665e-16
 2.991070304209141e+01  8.357142310480910e+00 -6.181632407395534e-16
-3.009445361950109e+01 -1.215760846739198e+01  6.604817106128819e-16
-2.235814044815309e+01  1.874389669320085e+01  2.053030496229465e-16
 2.958874961004398e+01 -1.333698720450217e+01 -3.895343954673169e-16
 2.787678236083744e+01  1.674554030418440e+01 -6.681549381878995e-16
-2.073245730388651e+01 -2.357643821221227e+01  6.111981462749820e-16
-2.354287119567633e+01  2.067887167449972e+01  2.065055814491527e-16
 2.737585593385682e+01 -1.608760723769213e+01 -3.218916912631295e-16
 3.145681746954004e+01  7.947725351602702e+00 -6.414715807212083e-16
-2.966763393245089e+01 -8.864278646994336e+00  6.190481776212375e-16
-2.262804116443135e+01  6.068213302061088e+00  3.403442969558859e-16
 3.243426590212377e+01  7.005350439998178e-01 -5.844041938113520e-16
 6.706649733021952e+00  4.426045269150238e+00 -1.648288392585126e-16
-3.220000363495767e+01 -4.708746149836860e+00  6.214181303740846e-16
-1.173461267526769e+01  1.509612051009094e+01  5.372427586446792e-17
 2.967204556912456e+01 -1.330110203245599e+01 -3.913854535094474e-16
 2.783339403790015e+01  1.685207625921672e+01 -6.684774094705943e-16
-1.316101657773826e+01 -1.988852059026222e+01  4.385633131588177e-16
 1.890917945501746e+01  2.182356106411924e+01 -5.607405661603392e-16
 3.252973905703991e+01 -9.458979829472651e-01 -5.691867512368039e-16
-1.268017018350388e+01 -2.222569703336899e+01  4.540197169435211e-16
-4.895049866101392e+00  1.563702114927915e+01 -7.355146041969659e-17
 2.641527923982525e+01 -1.900177303876400e+01 -2.748550881865773e-16
 1.517739727475613e+01  2.141664384314502e+01 -4.901481241911144e-16
-2.579842993136362e+01 -1.948593423570402e+01  6.593247296987583e-16
-4.791960998945024e+00  1.168797918112780e+01 -3.481107809146170e-17
 3.242446672042878e+01 -2.781326452101147e+00 -5.484549436738287e-16
 9.931737124832120e+00  1.221057819599730e+01 -3.022063643381592e-16
-3.116676233437311e+01 -9.354540203713675e+00  6.507642151518114e-16
-1.723343355903628e+01  2.032152697563208e+01  9.789319953300682e-17
 3.007425446595820e+01 -1.242855952899950e+01 -4.075082978727541e-16
 2.685580245239358e+01  1.777238521082116e+01 -6.605358412450514e-16
-1.837815414694601e+01 -2.201182327806065e+01  5.532246632194273e-16
-2.414543721294701e+01  2.141363919641314e+01  2.096794931450440e-16
 2.825800342304948e+01 -1.589822057820996e+01 -3.395364372085605e-16
 3.128270490845384e+01  8.150412646010638e+00 -6.404555783241714e-16
-2.535496603821855e+01 -8.053826187068337e+00  5.339720034986275e-16
-2.985194765313143e+01  3.208857900092841e+00  4.982811679435758e-16
 1.471089289522274e+01 -5.417453869023507e-01 -2.562316498487745e-16
 8.980880062333110e+00  7.287523248631052e-02 -1.605742400310405e-16
 8.706326077388989e-01  3.384405142372710e-03 -1.552871935241712e-17
-4.064112081567929e+00 -4.540021672639886e-02  7.279219300278961e-17
-5.757268693515650e+00  6.150722390177554e-02  1.018254995078860e-16
 3.805975932379850e+00 -5.564645798261527e-02 -6.716013451723461e-17
 4.677971622713420e+00  4.188768992706329e-02 -8.368046590501424e-17
-2.939648620578542e+00 -2.505655803497896e-02  5.257200075677966e-17
-2.971326085288478e+00  1.216641305412823e-02  5.275328654479470e-17
 7.564187112258505e-01 -2.077808501026786e-03 -1.344002463749527e-17
 4.337544272508143e-01  9.285367851904099e-04 -7.728717771771826e-18
-9.425953983633089e-01 -8.372122222828124e-04  1.678321156672517e-17
-9.314194127990666e-01  7.210588797062406e-04  1.656831085048163e-17
-7.219722125431834e-02 -1.404618969516750e-05  1.284980107926737e-18
 3.406254278748546e-01  2.131875597389685e-04 -6.064026280532107e-18
-5.525174876129588e-01 -9.241638148077788e-04  9.842203069899099e-18
-1.292762159643736e+00 -1.632045286701087e-05  2.300641231590275e-17
-5.655777775189555e-01  8.985339812326620e-04  1.005589908629779e-17
 2.940960664155913e-01 -1.910333295071126e-04 -5.231827567960499e-18
-6.340011268052816e-02  2.224138580577776e-05  1.128052091118922e-18
-8.825804951244882e-01 -7.200058204559410e-04  1.571397045956201e-17
-8.880193692370728e-01  6.856945275352862e-04  1.579631867916317e-17
-1.441193926051482e-01  8.284360702053711e-05  2.563925252698328e-18
 1.693995815293668e-01  6.847859062967850e-05 -3.015371189667525e-18
-2.695316334632902e-01 -2.664333650734825e-04  4.799374431006644e-18
-7.350280954390123e-01 -5.929263910710524e-04  1.308679383258365e-17
-8.626670301110132e-01 -4.482648761374897e-06  1.535223482698331e-17
-7.245047612162528e-01  5.568232421202928e-04  1.288770527612569e-17
-2.779098306245145e-01  2.631905376752469e-04  4.943032763067081e-18
 1.527915114453507e-01 -6.460632383939444e-05 -2.718443402444914e-18
-1.324917534555117e-01 -7.185647894918315e-05  2.358587134349808e-18
-8.740977979830221e-01 -7.296333084507919e-04  1.556310969415073e-17
-9.026377593401435e-01  6.804197078819933e-04  1.605652457575655e-17
-8.168545970895191e-02 -4.396624972998515e-06  1.453735357705756e-18
 2.994804117039396e-01  1.945075275079981e-04 -5.331609502491994e-18
-5.623090750945204e-01 -9.125149155156891e-04  1.001633649070343e-17
-1.285617489580302e+00 -3.142471106332634e-05  2.287941959859150e-17
-5.730484600982426e-01  9.078968356730658e-04  1.018875259169212e-17
 2.887131442987554e-01 -1.878487138259884e-04 -5.136064887801784e-18
-6.843736617418640e-02  1.722517710582296e-05  1.217747495702210e-18
-8.881816716598795e-01 -7.258977142825899e-04  1.581371057333003e-17
-8.921483785071779e-01  6.890521154248394e-04  1.586976476948985e-17
-1.472015231429451e-01  8.540927697316906e-05  2.618749132106248e-18
 1.655413471394926e-01  6.814488857924097e-05 -2.946705914847985e-18
-2.734150553103035e-01 -2.709527012887391e-04  4.868530999272878e-18
-7.380075217743778e-01 -5.955402374330399e-04  1.313984313211841e-17
-8.654184844543122e-01 -5.337776017375033e-06  1.540120908271281e-17
-7.270221271326445e-01  5.582362007631136e-04  1.293249038697904e-17
-2.801941522507536e-01  2.651530037474295e-04  4.983664816194022e-18
 1.498536593182646e-01 -6.354287315950222e-05 -2.666171744960528e-18
-1.350202040787712e-01 -7.433429191291010e-05  2.403609399729163e-18
-8.751064935079796e-01 -7.302212936814131e-04  1.558106682474417e-17
-9.044022890164917e-01  6.788975268859856e-04  1.608794213008652e-17
-8.457560139755124e-02 -1.416701164835528e-06  1.505138260124824e-18
 2.981087018676190e-01  1.930755054858108e-04 -5.307183712357663e-18
-5.629995788816325e-01 -9.141323819183453e-04  1.002864142074449e-17
-1.287527346596063e+00 -3.419525728800769e-05  2.291343629264834e-17
-5.751055167669459e-01  9.113687894829079e-04  1.022532470918403e-17
 2.876712363471861e-01 -1.876334278960741e-04 -5.117524990027277e-18
-6.910096070604724e-02  1.668957748196009e-05  1.229562500487787e-18
-8.891858673474330e-01 -7.280690168684797e-04  1.583160382168415e-17
-8.937478734277522e-01  6.890198866881594e-04  1.589823004565418e-17
-1.488124263977641e-01  8.703611825069275e-05  2.647400384836328e-18
 1.649045762093573e-01  6.773977568102448e-05 -2.935369692889560e-18
-2.737266032161969e-01 -2.714539899686693e-04  4.874080504331368e-18
-7.390252673512023e-01 -5.976104177997008e-04  1.315797645604753e-17
-8.665271329262297e-01 -5.872290177447454e-06  1.542094426998767e-17
-7.279231969600726e-01  5.583430306913303e-04  1.294852482648299e-17
-2.812679986595430e-01  2.661839326066841e-04  5.002764601549553e-18
 1.490590052705869e-01 -6.347461494382271e-05 -2.652030584645280e-18
-1.356005205539529e-01 -7.488085312841722e-05  2.413942334486943e-18
-8.755708927921648e-01 -7.307697054894601e-04  1.558933687200177e-17
-9.047438586416879e-01  6.780934601272336e-04  1.609402898528845e-17
-8.563274450300867e-02 -3.229081526717484e-07  1.523940153303949e-18
 2.975451647754220e-01  1.923197437614316e-04 -5.297147136983468e-18
-5.621317047317597e-01 -9.131888145156804e-04  1.001318690202242e-17
-1.288696577118496e+00 -4.148623016728494e-05  2.293431908901553e-17
-5.792172122750384e-01  9.189985212076196e-04  1.029841884387516e-17
 2.864878593942470e-01 -1.903503127089769e-04 -5.096437457905818e-18
-6.500880228482434e-02  2.160112626595125e-05  1.156687304870043e-18
-8.868088901222509e-01 -7.338872954338764e-04  1.578936247460055e-17
-8.971931796769104e-01  6.847987242092952e-04  1.595958677166934e-17
-1.522703083528220e-01  9.093333437472538e-05  2.708897530867115e-18
 1.652831911863406e-01  6.701206231848097e-05 -2.942100105685702e-18
-2.731630647431209e-01 -2.707701565193804e-04  4.864044601276627e-18
-7.393307768127365e-01 -5.982469353812751e-04  1.316341984169401e-17
-8.666920622618725e-01 -6.846160475012215e-06  1.542388939444567e-17
-7.286033690223878e-01  5.577820638970982e-04  1.296063500443286e-17
-2.821039690787081e-01  2.670667031206652e-04  5.017632614758527e-18
 1.492519430801589e-01 -6.375759332409623e-05 -2.655461251087147e-18
-1.351944641285941e-01 -7.456045133658856e-05  2.406712920140726e-18
-8.768889298863942e-01 -7.344660064212947e-04  1.561283093149823e-17
-9.060600507118410e-01  6.805164808763401e-04  1.611742729078815e-17
-8.467382177901175e-02 -1.663855971393320e-06  1.506888667272279e-18
 2.969989517041520e-01  1.938767791363392e-04 -5.287442604035573e-18
-5.648161874273071e-01 -9.172888101275208e-04  1.006100259885797e-17
-1.287350296875331e+00 -3.349566483224480e-05  2.291027828780841e-17
-5.752151505089441e-01  9.088836612661685e-04  1.022730127357640e-17
 2.853000296861500e-01 -1.854186204594677e-04 -5.075349199470657e-18
-7.050400864520180e-02  1.501156598385459e-05  1.254548655129364e-18
-8.888721781432465e-01 -7.281619416059933e-04  1.582602227056248e-17
-8.941548383522655e-01  6.866615272587606e-04  1.590549679801506e-17
-1.498041321320529e-01  8.769849955100698e-05  2.665042112903143e-18
 1.638319086456992e-01  6.787641003405311e-05 -2.916281626579672e-18
-2.751383681328612e-01 -2.733197788748812e-04  4.899223731943937e-18
-7.394354146589012e-01 -5.975044333666103e-04  1.316527437534225e-17
-8.663865758573281e-01 -7.645647490428336e-06  1.541846110138168e-17
-7.290294874399206e-01  5.571987320690798e-04  1.296822435919311e-17
-2.823227763122532e-01  2.671355052850574e-04  5.021525911799475e-18
 1.491295682277418e-01 -6.340698218946703e-05 -2.653287070708656e-18
-1.361913265021692e-01 -7.571041104878650e-05  2.424465026097584e-18
-8.770172866784909e-01 -7.333248079817732e-04  1.561510346744779e-17
-9.052061954373085e-01  6.784171264362980e-04  1.610225353076259e-17
-8.545145521946200e-02 -8.243436446735077e-07  1.520719026085880e-18
 2.958020560132744e-01  1.928155658465238e-04 -5.266131542115554e-18
-5.646028505090913e-01 -9.165945669411037e-04  1.005719889247828e-17
-1.287567563326463e+00 -3.561108336887477e-05  2.291416660045376e-17
-5.756222864002402e-01  9.096688659820157e-04  1.023453868062319e-17
 2.859937727649070e-01 -1.856855973993526e-04 -5.087692486864762e-18
-7.097438537065252e-02  1.454109107924481e-05  1.262924461355087e-18
-8.905248681645013e-01 -7.296778483583953e-04  1.585544945542277e-17
-8.940344843748089e-01  6.884273570706606e-04  1.590333667735891e-17
-1.488918420132468e-01  8.647146897063307e-05  2.648819455379516e-18
 1.632352189244735e-01  6.830962117553503e-05 -2.905667223243654e-18
-2.758465520307110e-01 -2.743074041854213e-04  4.911836830099665e-18
-7.396404640758395e-01 -5.982178327622188e-04  1.316893077587957e-17
-8.669314801087948e-01 -8.123896057754072e-06  1.542816328869583e-17
-7.289878454547014e-01  5.574672630165875e-04  1.296748058667398e-17
-2.819124211982086e-01  2.662062990949315e-04  5.014232575534993e-18
 1.484986909595765e-01 -6.277613460582790e-05 -2.642066348797826e-18
-1.369459129241536e-01 -7.662975989814941e-05  2.437903248072409e-18
-8.772183159094858e-01 -7.337144964379124e-04  1.561868494524966e-17
-9.053818095626258e-01  6.781078471608133e-04  1.610538198961433e-17
-8.532058276204396e-02 -1.145115040613991e-06  1.518393348293828e-18
 2.956730767966284e-01  1.934872455698666e-04 -5.263843122283375e-18
-5.654636245129967e-01 -9.187165077629903e-04  1.007253923667194e-17
-1.287820459383877e+00 -3.491724196214735e-05  2.291866000456263e-17
-5.753851945279503e-01  9.085404281827156e-04  1.023033098912860e-17
 2.854087543623096e-01 -1.847907844674775e-04 -5.077290590291582e-18
-7.138738591889869e-02  1.399000199489951e-05  1.270279935140319e-18
-8.901571218556290e-01 -7.300986144485699e-04  1.584890936489874e-17
-8.946021701033060e-01  6.867702364372763e-04  1.591345637593318e-17
-1.498624592165141e-01  8.747550722046392e-05  2.666082416977180e-18
 1.637280389880219e-01  6.818245929897648e-05 -2.914436316743530e-18
-2.757009978993062e-01 -2.746613320906258e-04  4.909250035221196e-18
-7.408895831731611e-01 -6.000988139958842e-04  1.319117972456160e-17
-8.671718339111586e-01 -6.969438611246154e-06  1.543242879098478e-17
-7.283080464275986e-01  5.560131050380280e-04  1.295539759727714e-17
-2.824495540429219e-01  2.662214771602352e-04  5.023791396787096e-18
 1.475181133377785e-01 -6.260829394084770e-05 -2.624617529895559e-18
-1.369810548790464e-01 -7.665961992989030e-05  2.438528925825263e-18
-8.770685647150672e-01 -7.345293776746298e-04  1.561602830061071e-17
-9.057844539666577e-01  6.771485516099752e-04  1.611255742687861e-17
-8.585420440642824e-02 -6.476146163070948e-07  1.527884622585198e-18
 2.954039990929175e-01  1.934349980302123e-04 -5.259054105198104e-18
-5.656550106434123e-01 -9.193299331236589e-04  1.007595142142603e-17
-1.287813123431897e+00 -3.575914619452930e-05  2.291853796714764e-17
-5.754519700504568e-01  9.075990939447844e-04  1.023152895976038e-17
 2.843806460590027e-01 -1.836048739417667e-04 -5.059006287250494e-18
-7.232691235670681e-02  1.286806903775161e-05  1.287011540448549e-18
-8.894998450891598e-01 -7.285917368098601e-04  1.583719679414174e-17
-8.939372189516626e-01  6.838429212814855e-04  1.590165288555273e-17
-1.509470864794746e-01  8.838437112414778e-05  2.685375326203871e-18
 1.623725860192213e-01  6.756680077271860e-05 -2.890308051160433e-18
-2.754791234971760e-01 -2.741124606831595e-04  4.905296010742804e-18
-7.403058805020304e-01 -6.007419232797103e-04  1.318079861738265e-17
-8.678745246874469e-01 -8.881332604220582e-06  1.544495367431267e-17
-7.291680960628841e-01  5.567346129824816e-04  1.297069578856809e-17
-2.825700664139691e-01  2.662913474493286e-04  5.025935332945786e-18
 1.474628821485581e-01 -6.248403319423193e-05 -2.623635744946440e-18
-1.370828081026994e-01 -7.685255960949911e-05  2.440341828457008e-18
-8.776580987999683e-01 -7.363557045546639e-04  1.562653858357990e-17
-9.065802882613488e-01  6.778994674678314e-04  1.612671248170637e-17
-8.568785305551416e-02 -9.985051083171441e-07  1.524927810845382e-18
 2.956017722366145e-01  1.942394590043946e-04 -5.262581901367186e-18
-5.663006575736974e-01 -9.212909516378500e-04  1.008746161424665e-17
-1.288579398643755e+00 -3.635596320255499e-05  2.293218103427896e-17
-5.761144139704354e-01  9.087810429078576e-04  1.024330581567103e-17
 2.844530256095007e-01 -1.841073478138820e-04 -5.060289262454926e-18
-7.175786015607642e-02  1.357924349337992e-05  1.276877195557016e-18
-8.902354175175273e-01 -7.315974217694413e-04  1.585031802744502e-17
-8.952092369920469e-01  6.850973452843434e-04  1.592427709737922e-17
-1.510968060051248e-01  8.853976099065022e-05  2.688038197086337e-18
 1.625507585316333e-01  6.779826227172948e-05 -2.893481234356110e-18
-2.756509457008401e-01 -2.745286207882342e-04  4.908358058136952e-18
-7.407059112078517e-01 -6.019452077854315e-04  1.318792998216390e-17
-8.686439656988177e-01 -9.606717576426895e-06  1.545865428293320e-17
-7.297979971019012e-01  5.574834388155739e-04  1.298189797851576e-17
-2.825921343869144e-01  2.662862925316976e-04  5.026328075781992e-18
 1.472854107598205e-01 -6.220851086641030e-05 -2.620480340001420e-18
-1.377261793127221e-01 -7.758193863899047e-05  2.451798638484954e-18
-8.779670705244671e-01 -7.364877951362530e-04  1.563203844156424e-17
-9.067911687214494e-01  6.772782385349214e-04  1.613047173790503e-17
-8.630824316872900e-02 -3.791290741423468e-07  1.535962089202808e-18
 2.950494800047642e-01  1.938737091667905e-04 -5.252749522666481e-18
-5.668162160573268e-01 -9.221469004611535e-04  1.009664541200965e-17
-1.288838208778796e+00 -3.559382484769688e-05  2.293677905411800e-17
-5.757726546300999e-01  9.077325475189194e-04  1.023723456779763e-17
 2.837947928556238e-01 -1.827622029793514e-04 -5.048589169086461e-18
-7.350669082436984e-02  1.157773870498894e-05  1.308020280062196e-18
-8.903450489608290e-01 -7.291296572170707e-04  1.585224371047025e-17
-8.943576846230776e-01  6.835579368750357e-04  1.590913850319547e-17
-1.518048105783450e-01  8.908162631340578e-05  2.700632485582406e-18
 1.613145677494406e-01  6.728516092199607e-05 -2.871476490702789e-18
-2.762046889165314e-01 -2.749681762943500e-04  4.918217045448663e-18
-7.410565114079511e-01 -6.017694957013728e-04  1.319416751478522e-17
-8.687357065883794e-01 -9.261566260605029e-06  1.546028333480211e-17
-7.301965578650910e-01  5.572116362554984e-04  1.298899361161405e-17
-2.833951571195173e-01  2.671898083818136e-04  5.040609588585900e-18
 1.469529869409643e-01 -6.230247864836557e-05 -2.614563625465216e-18
-1.383397903545497e-01 -7.815703613041899e-05  2.462724605987896e-18
-8.788031847345390e-01 -7.362840208758935e-04  1.564691614919061e-17
-9.068723003553696e-01  6.781703094521657e-04  1.613190633371624e-17
-8.673289517809563e-02  8.146458388905524e-08  1.543514478720002e-18
 2.940632958856180e-01  1.931044329104178e-04 -5.235191163458171e-18
-5.672093329772989e-01 -9.220471329012323e-04  1.010364037145156e-17
-1.289191624796157e+00 -3.551738376527855e-05  2.294306765815840e-17
-5.764937432213728e-01  9.091811753964159e-04  1.025005234806097e-17
 2.830998439019639e-01 -1.826544503657767e-04 -5.036222734561481e-18
-7.422524810040075e-02  1.092623740312612e-05  1.320814532709628e-18
-8.906583656658663e-01 -7.280158380239725e-04  1.585780814952824e-17
-8.946532444154796e-01  6.837820507260882e-04  1.591439610200325e-17
-1.531263449610651e-01  9.060514205613209e-05  2.724135001457260e-18
 1.602313987967756e-01  6.633485885425003e-05 -2.852190507553627e-18
-2.760229327561313e-01 -2.741175530141091e-04  4.914973935965650e-18
-7.415727800913926e-01 -6.023735054006144e-04  1.320336137641085e-17
-8.703179337366946e-01 -7.812615761462042e-06  1.548842605568264e-17
-7.308681120014144e-01  5.601288962520108e-04  1.300091471267110e-17
-2.840039956342517e-01  2.682564910629115e-04  5.051433649124612e-18
 1.449197672346958e-01 -6.203094672319929e-05 -2.578382915103236e-18
-1.394210490213107e-01 -7.864579701601681e-05  2.481971878744257e-18
-8.813299696830310e-01 -7.356991645310311e-04  1.569187711651242e-17
-8.984563025542376e-01  6.868899093700961e-04  1.598204407713286e-17
-1.534983755644526e-01  9.082115435280229e-05  2.730753493250468e-18
 1.591067984497687e-01  6.648610608717538e-05 -2.832178388460205e-18
-2.776991362622274e-01 -2.757170443636274e-04  4.944820279571633e-18
-7.413080521298850e-01 -5.998338652648839e-04  1.319862410810686e-17
-8.696113980848068e-01 -9.195163620073674e-06  1.547586660615571e-17
-7.325937702885178e-01  5.603699468129027e-04  1.303162236399947e-17
-2.852406454191704e-01  2.705001164170763e-04  5.073418274013077e-18
 1.462247525501388e-01 -6.282916818885552e-05 -2.601598411478170e-18
-1.394121002344349e-01 -7.862747469286403e-05  2.481812486841211e-18
-8.800695980636752e-01 -7.337479176067373e-04  1.566942727159443e-17
-9.079888321280498e-01  6.822280003217702e-04  1.615173470929396e-17
-8.854837748786140e-02  2.372553078398292e-06  1.575799587652745e-18
 2.918969873514476e-01  1.902146783800671e-04 -5.196609443787695e-18
-5.680816233831851e-01 -9.193513214874341e-04  1.011913612124733e-17
-1.289569502151242e+00 -3.038121374335008e-05  2.294973970136343e-17
-5.800707361799541e-01  9.166961964226966e-04  1.031363192563284e-17
 2.801836452709128e-01 -1.833571893799451e-04 -4.984318232678999e-18
-7.560382984394359e-02  1.010556097814229e-05  1.345356504182716e-18
-8.918894717312352e-01 -7.231550201238269e-04  1.587966719832264e-17
-8.970369817919968e-01  6.918973275770212e-04  1.595673415174596e-17
-1.553098746233257e-01  9.410758413565301e-05  2.762957585212745e-18
 1.595044295610141e-01  6.464926419476266e-05 -2.839235843372263e-18
-2.707861116571362e-01 -2.660482176650807e-04  4.821695398294699e-18
-8.481452619343277e-01 -7.179500202000815e-04  1.510113338343163e-17
-8.764502907029035e-01  3.783656673117704e-04  1.559359084333362e-17
-3.036179599600498e-01  2.042175921227403e-04  5.401145474378861e-18
-2.930049450949329e-01 -1.301829310709966e-06  5.214385887932088e-18
-4.653590230663007e-01  1.167880746113471e-04  8.280418960760144e-18
-1.311271593551790e-01 -1.956182251839754e-05  2.333765204524288e-18
-6.611478317451107e-01 -5.795377908709069e-04  1.177186887516122e-17
-9.313365259465544e-01  9.065777773555098e-04  1.656492966031217e-17
 2.421026921203122e-01 -4.817311857853722e-04 -4.303556581408186e-18
 2.067690239037711e-01  5.291749926600395e-04 -3.685138520999417e-18
-1.097843847771555e+00 -1.446090362560969e-03  1.955229887979131e-17
-8.695824222992758e-01  9.403584830736595e-04  1.546559450107658e-17
-1.620508867782601e-01  6.411217984708797e-05  2.883230139056422e-18
-3.923550132357205e-01 -8.839549922846607e-06  6.982516280240439e-18
-3.878425541035834e-01  7.693665414118094e-05  6.901330422046393e-18
-5.594682725815956e-01 -1.118568368545482e-04  9.957554589224125e-18
-4.155312298950670e-01  2.830146708145251e-04  7.391965898719514e-18
 1.674959901466853e-01  1.156513908120544e-05 -2.980909762019064e-18
-5.276736372414219e-01 -7.444464856632460e-04  9.398230733711168e-18
-1.009624483689633e+00  2.184217249115470e-04  1.796522775033021e-17
-3.733938516563166e-01  2.381090083023385e-04  6.642542521640659e-18
-2.498909493285158e-01  4.774393192857600e-06  4.447058458748568e-18
-4.505156851261653e-01  3.294331214285515e-06  8.017430128638880e-18
-2.432141258476561e-01 -2.727876198103615e-05  4.328565756947713e-18
-5.032424850042412e-01 -3.528860278835695e-04  8.959426233037187e-18
-1.100513830331137e+00  1.631689937462838e-04  1.958327986550469e-17
-5.927063608556373e-01  1.050203163589488e-03  1.053712630308118e-17
 6.223497266642410e-01 -7.318945287895995e-04 -1.106793582978979e-17
 1.584751043838279e-01  5.804179370496296e-04 -2.826217115603182e-18
-1.572751724702791e+00 -2.352511340803800e-03  2.801316404709625e-17
-9.041042152513593e-01  2.225186764667394e-03  1.606674998758762e-17
 7.681864158854654e-01 -4.378789739417317e-04 -1.366629458618485e-17
-3.738532657603125e-01 -7.251373032154297e-04  6.660615335557235e-18
-1.595212418943235e+00  3.394141238078345e-04  2.838522044627136e-17
-5.029143889177684e-01  1.063144804973060e-03  8.939037908202532e-18
 6.332479725787493e-01 -3.400775425935453e-04 -1.126590879210555e-17
-1.740729697168630e-01 -1.672739066415803e-04  3.099554806682566e-18
-1.128756460735608e+00 -5.423665412466009e-04  2.009314026741900e-17
-6.198186735777894e-01  5.440243414214352e-04  1.102482286484514e-17
-2.199967325587426e-01  5.377984008469132e-05  3.914551744337060e-18
-4.188863606891449e-01  1.601402352406075e-05  7.454417923677187e-18
-4.742644708637143e-01  4.331702170086137e-05  8.439657006906917e-18
-5.098237686665689e-01  8.354474239108839e-05  9.072063746037915e-18
-3.105528904661971e-01  8.978424512520391e-05  5.525736609804395e-18
-2.053544882505690e-01 -4.484278284239800e-05  3.654988809818232e-18
-7.056230199370870e-01 -3.829851473954476e-04  1.256133834619789e-17
-8.266797966393405e-01  5.696758076618513e-04  1.470589992661321e-17
-1.718662327799129e-01  9.571603304230918e-05  3.057581164703859e-18
-1.030324259085256e-01  2.295366836002002e-05  1.833349174826218e-18
-8.421731594540133e-01 -3.275712166466550e-04  1.499084166533067e-17
-5.787585746931205e-01  6.795932496355101e-04  1.029271667663923e-17
 3.219255049574614e-01 -1.328998021506400e-04 -5.727682796936481e-18
-5.894736704276198e-01 -9.772890515214639e-04  1.050042833257620e-17
-1.409629412937251e+00  1.068505366707002e-03  2.507505823469817e-17
-1.232880729203836e-01  6.979081886128001e-05  2.193341239531917e-18
 2.567931296383966e-01  3.287120792946117e-04 -4.573317453050972e-18
-8.513831738402623e-01 -6.044616051163838e-04  1.515758985673991e-17
-8.114882974407478e-01  8.313951593336039e-04  1.443286002410355e-17
-1.891698305236193e-01  1.096622156688063e-04  3.365376087237961e-18
-3.810298308816303e-01  1.480100106014480e-05  6.780728274463698e-18
-5.820183271270016e-01  2.241515167854088e-04  1.035540740485093e-17
-3.905178158314087e-01  1.635345692387533e-04  6.948050156140164e-18
-5.504239222929895e-01  6.271088571833418e-05  9.794805897131236e-18
-7.487871970857188e-01  5.563890468867838e-04  1.331984468884790e-17
-2.602864226593304e-01  2.451400092821804e-04  4.629588647563426e-18
-1.158067158512015e-01  4.879007418232659e-05  2.060417312494824e-18
-8.746025721304832e-01 -1.951621069221077e-04  1.556660120859868e-17
-9.045739297986265e-01  1.344808552210888e-03  1.608415460934904e-17
-1.559901292882021e-01  1.620981389855645e-04  2.774364899109228e-18
-2.508263967770683e-01  1.081389247766338e-04  4.462643842954289e-18
-8.184687347495480e-01  3.965573997029934e-04  1.456155294186770e-17
-7.867632486792233e-01  1.108376742778518e-03  1.399000229831551e-17
-3.499880976401510e-01  5.092344876366150e-04  6.223223479238210e-18
-3.041241529510356e-01  2.660314969183977e-04  5.409518663065454e-18
-9.938586934500033e-01  6.574631230001167e-04  1.768014577684435e-17
-1.027097995456931e+00  2.636694186566994e-03  1.825134288684949e-17
 6.417437268043256e-02 -3.410010468395104e-04 -1.138555841991732e-18
-2.989608335536661e-01  2.250461063638672e-04  5.318052378268818e-18
-1.792134388629521e+00  2.570060616969345e-03  3.186676273714377e-17
-1.058882553251238e+00  5.276460907692491e-03  1.878986445194677e-17
 5.228910549987357e-01 -1.861609739332266e-03 -9.286342673684816e-18
-6.693030217704664e-01  5.220965956458633e-04  1.190568129231756e-17
-2.340835590145417e+00  7.874181356199281e-03  4.157705725876232e-17
-1.326319468508291e+00  9.651164698453455e-03  2.350427482691562e-17
 1.825656260864613e-01 -1.146864841966019e-03 -3.237189453018828e-18
-9.606723630222164e-01  3.664924798046290e-03  1.705865499403538e-17
-2.571905375670297e+00  1.702512248220552e-02  4.559519707631839e-17
-2.087558926412945e+00  2.287439327057431e-02  3.691557518053764e-17
-1.328318845304277e+00  1.544989805216379e-02  2.348027630760159e-17
-2.265417401100477e+00  2.854395193374662e-02  4.002252615318656e-17
-3.436390566986240e+00  5.935099386637882e-02  6.054485925846102e-17
-4.097550587607290e+00  9.539016946773625e-02  7.194070111405743e-17
-2.613752685543358e+00  8.400864770014453e-02  4.565168855726600e-17
 3.939616935329567e+00 -1.341312645654631e-01 -6.873203268479213e-17
-6.593847589631256e+00  5.905360629174394e-02  1.167386289126852e-16
-2.031586517145490e+01  1.205137438604026e+00  3.491627049683189e-16
-7.402044342795997e+00  1.185482127521511e+00  1.195478103496796e-16
 1.903830781654703e+01 -2.113219486813991e+00 -3.170968347764471e-16
 3.136700052299570e+01 -2.767927963685913e+00 -5.297737359080733e-16
 3.079568990991323e+01  9.021961497116724e+00 -6.407434133240785e-16
-2.210660311197967e+01 -1.948690028067603e+01  5.936341934402850e-16
-2.724266359328558e+01  1.779431148866829e+01  3.019856084898336e-16
-1.654924808825272e+01  1.848756437221349e+01  1.045606024599688e-16
 1.795835379804756e+01 -2.714014347923301e+01 -4.073521230838642e-17
 2.709213208008185e+01  8.647470637876184e+00 -5.709864264479724e-16
 2.595620228530201e+01  6.259939624035045e-01 -4.683534418744970e-16
 3.093173581407869e+01  9.451611479901398e+00 -6.475790099841923e-16
 1.025603807741074e+01  2.786141969483318e+01 -4.687843975445207e-16
 4.416790441459918e+00  4.376366093108310e-01 -8.309861163225316e-17
 2.632010510322154e+01 -1.864861196589959e+01 -2.767899526269139e-16
 9.350686507800194e+00  1.412348303555836e+01 -3.115202778408389e-16
-2.263954516681352e+01  2.323993520114876e+01  1.641158198886770e-16
-7.002469628287164e+00  2.047837629172262e+01 -8.579057722246824e-17
-2.484229091048766e+01  1.350116224663580e+01  3.033786622099572e-16
 6.427830060960987e-01  4.439854837467146e-01 -1.600087987499376e-17
-2.265323851506795e+01  2.921460808900281e+00  3.731244526035691e-16
 2.763029879104450e+01  1.718814127102698e+01 -6.683160331895838e-16
 6.624475927077558e-01 -1.030193321013328e-01 -1.073055889491781e-17
-3.253305835635299e+01 -8.306864077652247e-01  5.874995813629364e-16
-2.477120792464947e+01  1.643916417877653e+01  2.719267531280595e-16
-1.454351945342917e+01  1.216698618610888e+01  1.338079136480353e-16
 2.481344800723948e+01 -1.975678823323929e+01 -2.385910838259974e-16
 2.189189628776538e+01  2.133682950321843e+01 -6.088205801248633e-16
-3.055666760643950e+01 -6.249414538538307e+00  6.080028135164535e-16
-1.971595056046118e+00 -7.749943354363246e-02  3.588316439046556e-17
-2.045173174149104e+01 -4.731758548813175e+00  4.125800621413983e-16
-2.937917925096768e+01  3.608743309288092e-01  5.191296868349595e-16
 2.157022562653459e+00 -2.126033158453769e-01 -3.620236760982772e-17
 1.897833662813343e+01  4.450634147488015e-01 -3.423150033967311e-16
 1.278400370606665e+00  5.857694889737380e-02 -2.335251638873933e-17
-6.353472027732519e+00 -1.510784529858106e-01  1.146198896864197e-16
-4.757600564594078e+00 -6.449958911347420e-02  8.532988691263710e-17
-4.772757276366844e-01 -4.401351644000558e-03  8.538913210138444e-18
 9.406767435124769e-01  1.568810974643781e-02 -1.690165431323747e-17
-7.001844710564529e+00 -1.191416945370992e-01  1.258303163053770e-16
-5.523166837215549e+00  7.351571901029576e-02  9.753599477827926e-17
 8.593635417403663e+00 -6.420548576488759e-02 -1.522743051350467e-16
 3.247435245573519e+00  1.112344023121125e-01 -5.893487689821905e-17
-1.030166833167762e+01 -1.152764566558542e-01  1.845148999674762e-16
-3.246420465876992e+00  5.902985160520461e-02  5.716741446587940e-17
 5.490559773141566e+00  6.796905144699023e-03 -9.778089627106707e-17
 2.185369953788483e+00  2.218632766051557e-02 -3.911922164708922e-17
-8.398154984028027e-01 -9.063801375588305e-03  1.503864581962629e-17
-7.386437006873734e+00 -7.799555031998617e-02  1.322518333528839e-16
-5.083725565232204e+00  1.039007816526828e-01  8.940341771156566e-17
 9.867406614003562e+00 -1.262535702261773e-01 -1.743050613813031e-16
 4.285598656052590e+00  1.418870657089049e-01 -7.772517817095705e-17
-1.076376778726667e+01 -1.077080210587228e-01  1.926607480282785e-16
-3.125595969450654e+00  7.139919924691397e-02  5.489010782914503e-17
 6.769178427842726e+00 -4.453645855090034e-04 -1.204610288662906e-16
 4.476940417387108e-02  2.062067210911225e-03 -8.179119236158669e-19
-3.379844476158435e+00 -1.039302143734023e-03  6.015904246630985e-17
-5.947427080459621e-01  4.929154126367961e-04  1.057909154909113e-17
-3.207438335905750e-01 -1.341297034926151e-04  5.709397254312648e-18
-2.992571915105228e-01 -8.805920888383508e-06  5.325729175918619e-18
 2.590197248411628e-01  3.368247686648877e-04 -4.613025617911831e-18
-8.363507649302397e-01 -2.146841027788076e-03  1.490591754174152e-17
-1.625806593346701e+00  3.328255701457128e-04  2.892974798956974e-17
-1.186516818521643e-01  1.552623504448532e-06  2.111532234638099e-18
 9.340502906378439e-01  1.137666805113130e-03 -1.663422821201562e-17
-7.335291572235664e-01 -2.405670121167278e-03  1.307874365055298e-17
-1.890385926269117e+00  8.010018369335508e-05  3.364084950466404e-17
-2.393499684738255e-01  3.629773408839005e-04  4.255788742446817e-18
 9.031797761984298e-01  8.786274864609274e-04 -1.608218902760948e-17
-7.371739725274792e-01 -2.066753632284288e-03  1.314012533473871e-17
-1.546728439600795e+00  6.756340115677544e-04  2.751893573693611e-17
-5.212164234333869e-02 -1.145083377009904e-04  9.287433553777802e-19
 3.024607092711235e-01  5.486743281914974e-04 -5.388286487720411e-18
-8.728407416609504e-01 -1.157486424869099e-03  1.554513482192058e-17
-8.577983613872259e-01  4.978868728469351e-04  1.526042944726272e-17
-1.196642380078878e-01  2.071235302645131e-06  2.129546574829799e-18
-1.674850682067304e-01 -7.154046668865241e-05  2.981331747078145e-18
-6.496226080055619e-01 -4.408803073649145e-04  1.156533907434328e-17
-7.351881603920897e-01  1.249297271345389e-04  1.308226665759862e-17
-1.704787421545239e-01  1.882924046144844e-05  3.033679252487879e-18
-4.464485020696912e-02  2.126123843817478e-05  7.942899809127935e-19
-8.109918725831851e-01 -8.202077443266853e-04  1.444099503466528e-17
-8.194170521595513e-01  5.484778186275694e-04  1.457686844046183e-17
-5.296167987741537e-02 -3.108440413290777e-05  9.428356981028245e-19
-1.760469967969710e-01 -7.573437832151473e-05  3.133744585832082e-18
-6.986119629033317e-01 -3.081094421059749e-04  1.243579891728206e-17
-5.200991733952056e-01  1.254992740814184e-04  9.254495777106695e-18
-3.197598364447537e-01 -2.412457441114715e-05  5.690755652992571e-18
-4.979837670174835e-01 -7.277591540668063e-05  8.862962803404711e-18
-2.347008109388926e-01 -1.087887746384616e-06  4.176792032399933e-18
-1.189019489723444e-01 -6.129681762255803e-05  2.116631748831701e-18
-6.487807911255429e-01 -6.534951651018785e-04  1.155254256457085e-17
-1.117575457143830e+00 -1.777047721259855e-04  1.989041422396651e-17
-2.142464355529456e+00  2.750156297783757e-03  3.809945195447030e-17
 4.918564114458938e-01 -4.615925874909825e-03 -8.705744513152335e-18
 5.126465373019791e+00  4.491115884150620e-03 -9.127771086222843e-17
-8.237468416023501e-01 -1.338016704012143e-02  1.479703398507706e-17
-7.735401015682591e+00 -1.737650623951382e-03  1.376785419110834e-16
-8.236933928249254e-01  1.326274822719298e-02  1.452233653181679e-17
 5.126201008082660e+00 -1.964318804774714e-03 -9.120667899692061e-17
 9.233517150689474e-02  1.555387658567336e-03 -1.659195525413948e-18
-2.121652462611845e+00 -1.570162545627875e-04  3.775894963693314e-17
-4.673130607195463e-01 -4.261734394703266e-05  8.316831255976933e-18
-6.455278470033631e-01 -2.491626165735217e-04  1.149049815627284e-17
-5.291119105956255e-01  3.629100671348869e-04  9.412448812363693e-18
-1.986318685107576e-01  1.433425115303056e-05  3.534743791512918e-18
-4.205513931356301e-01 -6.420375462514753e-05  7.484873372597231e-18
-4.912628847802449e-01 -2.357182120093781e-05  8.742851219686408e-18
-4.045675950390343e-01  2.937565746048057e-05  7.199461049169853e-18
-1.980793246644245e-01 -3.783690887240489e-05  3.525446616555206e-18
-4.927905025873489e-01 -3.650384773821458e-04  8.773545333221248e-18
-9.744432435480601e-01  8.713230120103595e-05  1.734048462420995e-17
-5.156330383651805e-01  6.586980406536121e-04  9.169536979883532e-18
 1.370586360231970e-01 -9.197667070625045e-05 -2.438176958036503e-18
 2.754063252547579e-02  6.355298934163015e-05 -4.907713913250298e-19
-3.932587959888947e-01 -4.194958858106585e-04  7.002819538530335e-18
-9.636431890654917e-01 -8.142417815253629e-04  1.715754606313903e-17
-9.470859037428704e-01  8.961635229936102e-04  1.684531570378563e-17
-6.446040811796099e-02 -1.557000284005625e-05  1.147309818334936e-18
 1.466353944816952e-01  1.362163472996403e-04 -2.610951331317160e-18
-4.582343373028167e-01 -4.069408108000937e-04  8.159007840455558e-18
-8.402901697212835e-01 -2.262623257613561e-04  1.495629065359398e-17
-6.920592345075675e-01  4.626532378591393e-04  1.231126601784413e-17
-1.612324120541000e-01  7.938484664563702e-05  2.868507372664306e-18
 1.040806303099944e-01  3.732199642169151e-05 -1.852622377188617e-18
-2.643827063512465e-01 -2.597672560287775e-04  4.707674639866777e-18
-7.273670683518455e-01 -6.071731875122251e-04  1.295060302709232e-17
-8.640454544551197e-01 -2.220066124510180e-05  1.537694761797654e-17
-7.240588115675578e-01  5.417334525901124e-04  1.287992398053237e-17
-2.776858720171636e-01  2.578122806871403e-04  4.939102545925535e-18
 1.547531869465437e-01 -6.295838266382852e-05 -2.753370566273779e-18
-1.291630278318090e-01 -7.097954421949751e-05  2.299339357868347e-18
-8.738375606886775e-01 -7.496053986658349e-04  1.555868367155499e-17
-9.030881936193224e-01  6.684963358181071e-04  1.606466305347369e-17
-7.781036176495879e-02 -9.845029716503624e-06  1.384829312758172e-18
 3.042428820620535e-01  2.034716598848912e-04 -5.416455598086540e-18
-5.606937981640884e-01 -9.218219371957895e-04  9.987686412797920e-18
-1.285122972014162e+00 -5.079490417664684e-05  2.287081817333139e-17
-5.710533510269482e-01  8.988253476830928e-04  1.015334050224893e-17
 2.933971613999906e-01 -1.874457796058964e-04 -5.219426537396171e-18
-6.306930726384682e-02  2.201488988158092e-05  1.122167324021388e-18
-8.862467813491284e-01 -7.412679863882525e-04  1.577943494794147e-17
-8.911806424496871e-01  6.792897304474968e-04  1.585264308656460e-17
-1.426452134093321e-01  7.941374164665086e-05  2.537725763686937e-18
 1.710741052007828e-01  7.224213885459556e-05 -3.045209880349713e-18
-2.702249540483410e-01 -2.714745748875578e-04  4.811764724510402e-18
-7.349574089450858e-01 -6.013122123301532e-04  1.308562200917997e-17
-8.611537431216552e-01 -1.509823486896490e-05  1.532541307142546e-17
-7.244455419785691e-01  5.473999808719608e-04  1.288674815720934e-17
-2.782396806760594e-01  2.616532831913015e-04  4.948918610279815e-18
 1.561222079949693e-01 -6.520249034295120e-05 -2.777710998335634e-18
-1.280035001261947e-01 -6.853539186558648e-05  2.278679296955344e-18
-8.768129686995267e-01 -7.456939547725419e-04  1.561159442608845e-17
-8.938441733097013e-01  6.842199780806295e-04  1.589999317370773e-17
-1.421143292522707e-01  7.898604578273426e-05  2.528282465531746e-18
 1.707918657150454e-01  7.216170662781459e-05 -3.040186414007733e-18
-2.705876560068056e-01 -2.714456314544168e-04  4.818219091358337e-18
-7.350115822117657e-01 -5.998685916335202e-04  1.308657129087400e-17
-8.612112654385119e-01 -1.323492096420188e-05  1.532641774759150e-17
-7.239359228781356e-01  5.489922033051175e-04  1.287766257020181e-17
-2.771647846746312e-01  2.607322819705926e-04  4.929799041862617e-18
 1.565926089195789e-01 -6.509047436250010e-05 -2.786083388545736e-18
-1.283931773319477e-01 -6.896451448945772e-05  2.285618361833812e-18
-8.740257369142989e-01 -7.411623475698414e-04  1.556194575948014e-17
-9.023583163067933e-01  6.779208164679745e-04  1.605157720936728e-17
-7.649254149068145e-02 -1.058697651087919e-05  1.361384945603442e-18
 3.047266411794300e-01  2.015468023620004e-04 -5.425044921288841e-18
-5.606230784616603e-01 -9.168907938325499e-04  9.986377139151996e-18
-1.284421855808104e+00 -3.908387641677128e-05  2.285822061058571e-17
-5.702020133760897e-01  9.016581994059359e-04  1.013816077917891e-17
 2.936444070348416e-01 -1.895638668560865e-04 -5.223804795044136e-18
-6.291590507669147e-02  2.258415597712637e-05  1.119431548521654e-18
-8.858150565222345e-01 -7.340901861088164e-04  1.577167811533774e-17
-8.906060454169152e-01  6.853192567471836e-04  1.584235549033570e-17
-1.420100472539521e-01  7.967526182798646e-05  2.526419555263716e-18
 1.715149570589236e-01  7.139449740012318e-05 -3.053046806572895e-18
-2.700289704218992e-01 -2.696760524018958e-04  4.808258484209795e-18
-7.350440417180232e-01 -5.970196035660684e-04  1.308711961334502e-17
-8.609614802508679e-01 -9.074364513830768e-06  1.532192977663499e-17
-7.230322084437656e-01  5.507840917416994e-04  1.286156150290082e-17
-2.770833060437036e-01  2.611974468337829e-04  4.928344260074138e-18
 1.556641681930296e-01 -6.534434230219207e-05 -2.769558054617509e-18
-1.281902833542493e-01 -6.824281361574833e-05  2.282000166662032e-18
-8.727540346046949e-01 -7.375553100990147e-04  1.553927722631564e-17
-9.023753944209840e-01  6.783329069817041e-04  1.605187692909783e-17
-7.750652190826322e-02 -9.176818272557141e-06  1.379415260006452e-18
 3.049194429463570e-01  2.000190882700089e-04 -5.428460331779179e-18
-5.599796776376345e-01 -9.143921881111903e-04  9.974901385044325e-18
-1.284663269073901e+00 -3.658841673495389e-05  2.286249117553305e-17
-5.701944886570595e-01  9.035054782555871e-04  1.013800788084409e-17
 2.941360188234976e-01 -1.903771783694361e-04 -5.232545318860979e-18
-6.321419860324692e-02  2.242287573046852e-05  1.124741700604944e-18
-8.862885970634525e-01 -7.317416443511957e-04  1.578008119119135e-17
-8.902139910091234e-01  6.878355793759132e-04  1.583535269609201e-17
-1.415614438921539e-01  7.943199419032438e-05  2.518438619778389e-18
 1.710976649332224e-01  7.114819773962108e-05 -3.045618049239345e-18
-2.705043639380976e-01 -2.695025381020103e-04  4.816716899417803e-18
-7.345501013650534e-01 -5.942935999330443e-04  1.307830144436134e-17
-8.603649169619405e-01 -8.227754358873713e-06  1.531130452789066e-17
-7.236074802765369e-01  5.517318617494520e-04  1.287178944793143e-17
-2.778165852074350e-01  2.628457497154148e-04  4.941376876707197e-18
 1.562685023182358e-01 -6.623025037579338e-05 -2.780303888211171e-18
-1.274278228609969e-01 -6.717571795480941e-05  2.268420347147596e-18
-8.731957036817534e-01 -7.376934494414678e-04  1.554713874391314e-17
-9.029808723815311e-01  6.808786924326414e-04  1.606262589176063e-17
-7.766388167939861e-02 -8.814481838791850e-06  1.382211968281743e-18
 3.048918355727531e-01  1.991880504121554e-04 -5.427960522610358e-18
-5.593498188156840e-01 -9.118285933491994e-04  9.963665958631020e-18
-1.284137448787250e+00 -3.658560905459046e-05  2.285313358189686e-17
-5.710620538928766e-01  9.052281113956879e-04  1.015342968023423e-17
 2.934055753949365e-01 -1.911834817487362e-04 -5.219537894472279e-18
-6.236551282135932e-02  2.351459524502740e-05  1.109626998777388e-18
-8.856627404721990e-01 -7.313945439692911e-04  1.576893971723891e-17
-8.911581228058002e-01  6.887166070730722e-04  1.585214552447207e-17
-1.424756311880475e-01  8.081381131340730e-05  2.534693484164795e-18
 1.719187945412068e-01  7.056327288748248e-05 -3.060225101075161e-18
-2.693130764262121e-01 -2.679402481329744e-04  4.795500488176314e-18
-7.351501470845132e-01 -5.957517246856624e-04  1.308899491875889e-17
-8.619671079189213e-01 -6.448187817596728e-06  1.533979912290106e-17
-7.235314402898088e-01  5.550831717784636e-04  1.287040180186717e-17
-2.760675162204236e-01  2.612063102239453e-04  4.910266956447076e-18
 1.565275265971472e-01 -6.557235586619636e-05 -2.784920327735402e-18
-1.290404564032992e-01 -6.891941310851157e-05  2.297137002993749e-18
-8.737120851718423e-01 -7.347330432108009e-04  1.555629788372934e-17
-9.019840227765997e-01  6.820808178195956e-04  1.604487344611738e-17
-7.699482860591250e-02 -9.545161379708334e-06  1.370312944185776e-18
 3.043534140055195e-01  1.991909833584835e-04 -5.418378627475759e-18
-5.604917410164653e-01 -9.130770389533076e-04  9.984000585501282e-18
-1.284184921676156e+00 -3.156789784124710e-05  2.285392686113321e-17
-5.696037041379425e-01  9.034729726526891e-04  1.012749449855023e-17
 2.938709669903667e-01 -1.904695396311167e-04 -5.227827354360653e-18
-6.401680889796611e-02  2.164135719383365e-05  1.139033140032238e-18
-8.865601604813822e-01 -7.284452068360617e-04  1.578488013353749e-17
-8.896713481610934e-01  6.902630638453827e-04  1.582567067669696e-17
-1.412475172312201e-01  7.934713423020360e-05  2.512852670532797e-18
 1.705574012107951e-01  7.078111777011762e-05 -3.035999662932621e-18
-2.710063517375350e-01 -2.692819258906404e-04  4.825648051850104e-18
-7.343126838884243e-01 -5.916321486871219e-04  1.307404895750046e-17
-8.600488124008413e-01 -6.491060285792991e-06  1.530566120965418e-17
-7.238029100153149e-01  5.532335642920680e-04  1.287525191176396e-17
-2.778274876209848e-01  2.635174060482892e-04  4.941564044392378e-18
 1.564416396955464e-01 -6.648575569761894e-05 -2.783382446113781e-18
-1.280565525973532e-01 -6.758889015242691e-05  2.279613556148140e-18
-8.736278374561721e-01 -7.346951013792715e-04  1.555479820908854e-17
-9.021487785983426e-01  6.830465414362455e-04  1.604779558310943e-17
-7.709756225108029e-02 -9.332094704980774e-06  1.372138969442055e-18
 3.042999526036493e-01  1.986926058062711e-04 -5.417422252973257e-18
-5.600311459166888e-01 -9.117045269802482e-04  9.975789644168677e-18
-1.284345073113261e+00 -3.237077243995838e-05  2.285678519623726e-17
-5.705661975289713e-01  9.061151464398562e-04  1.014459606430748e-17
 2.943276629628793e-01 -1.920815891770388e-04 -5.235938261526055e-18
-6.257676076458916e-02  2.343560261706222e-05  1.113387310905761e-18
-8.869086473819126e-01 -7.306295277507780e-04  1.579110427607228e-17
-8.909415906552443e-01  6.927044889701745e-04  1.584825120545739e-17
-1.409970628583002e-01  7.933960074487102e-05  2.508395828873496e-18
 1.716437624037538e-01  7.103487246908237e-05 -3.055335416718965e-18
-2.707780684399407e-01 -2.691445713394704e-04  4.821584152514936e-18
-7.349666665151960e-01 -5.921189813245442e-04  1.308569233804509e-17
-8.605012498941571e-01 -4.787308695998558e-06  1.531369539630597e-17
-7.232048054342504e-01  5.543076763379824e-04  1.286459687335156e-17
-2.769852873726122e-01  2.625925004437105e-04  4.926585526267474e-18
 1.563197646032929e-01 -6.619604781515447e-05 -2.781216797611077e-18
-1.284313124534059e-01 -6.797284267607297e-05  2.286286730541679e-18
-8.734597691997896e-01 -7.335188917983624e-04  1.555179513415633e-17
-9.019798205735345e-01  6.835497793393942e-04  1.604478373314519e-17
-7.693012888862451e-02 -9.447410960046571e-06  1.369160484134130e-18
 3.045368413956174e-01  1.986493853374665e-04 -5.421637373225416e-18
-5.599445164907975e-01 -9.111602532282043e-04  9.974242445954594e-18
-1.283825469755027e+00 -3.087600878555856e-05  2.284752287651833e-17
-5.698821748130765e-01  9.046720977789097e-04  1.013243784648859e-17
 2.937185325574505e-01 -1.912031986490168e-04 -5.225107093486843e-18
-6.337659568845062e-02  2.243891866526363e-05  1.127631524462731e-18
-8.854687693736076e-01 -7.264781792921551e-04  1.576543727677607e-17
-8.893777187180519e-01  6.895705229016386e-04  1.582045236605338e-17
-1.421270040400111e-01  8.064566522552265e-05  2.528490967205314e-18
 1.708731927260022e-01  6.977275414005646e-05 -3.041609194572596e-18
-2.691459784255030e-01 -2.666441960949037e-04  4.792513395788156e-18
-7.340431126199585e-01 -5.924735210742510e-04  1.306926021752486e-17
-8.608041554428927e-01 -4.611953509005088e-06  1.531908413624084e-17
-7.227536436895997e-01  5.549099757146197e-04  1.285656172407968e-17
-2.764464505116817e-01  2.620892028571769e-04  4.917001430494609e-18
 1.563483068618604e-01 -6.632545411149385e-05 -2.781723077763278e-18
-1.277501960981714e-01 -6.716146905881958e-05  2.274157080032778e-18
-8.722366968407276e-01 -7.321687695948702e-04  1.553001521798590e-17
-9.014154539799805e-01  6.824147788183469e-04  1.603475157752226e-17
-7.699780102857214e-02 -9.160364339203018e-06  1.370361820792819e-18
 3.051915027131652e-01  1.981771956300658e-04 -5.433283018039076e-18
-5.586293000949885e-01 -9.085651328158239e-04  9.950810050779783e-18
-1.282937458216494e+00 -3.122175921321296e-05  2.283172320986769e-17
-5.691772891559418e-01  9.038393597303805e-04  1.011990224392950e-17
 2.945088541906921e-01 -1.916548776314672e-04 -5.239167162937827e-18
-6.272739945578072e-02  2.305091654931026e-05  1.116071996997908e-18
-8.846214139597232e-01 -7.243745052860046e-04  1.575033592629250e-17
-8.879236636748798e-01  6.900528306328140e-04  1.579457080191661e-17
-1.402380121706069e-01  7.882358595131976e-05  2.494892802599327e-18
 1.731961840921731e-01  7.036591069858330e-05 -3.082955675476342e-18
-2.674976378118843e-01 -2.654407964402095e-04  4.763166872343982e-18
-7.346886437646929e-01 -5.940201474440628e-04  1.308076412653556e-17
-8.604751224624889e-01  3.795535135262917e-07  1.531317731632538e-17
-7.194178026713329e-01  5.553397998085322e-04  1.279719201769062e-17
-2.734546139370562e-01  2.590775858896183e-04  4.863789162286240e-18
 1.597026064575927e-01 -6.769393341120689e-05 -2.841402877496180e-18
-1.243179397891401e-01 -6.391109393568800e-05  2.213042586720036e-18
-8.723215316455428e-01 -7.348932662440469e-04  1.553155296395044e-17
-9.011390647672052e-01  6.890433620548491e-04  1.602976488437613e-17
-6.481166678923607e-02 -2.427350586710779e-05  1.153650344283905e-18
 3.204613561396383e-01  2.172099485815907e-04 -5.705223845768503e-18
-6.039260404027332e-01 -1.019901675652152e-03  1.075806341361124e-17
-1.327164083200280e+00  1.964415712401811e-04  2.361644961950511e-17
-5.156843480563575e-01  8.892391194912883e-04  9.168081484639037e-18
 4.561979071695421e-01 -3.054115373746022e-04 -8.115448009381897e-18
 1.223068884198478e-01  3.038213426875075e-04 -2.179718607798021e-18
-1.138536678014949e+00 -1.801673303551285e-03  2.028012995713203e-17
-1.274596434452729e+00  1.796761443727858e-03  2.266450292802057e-17
 1.321819586277823e-01 -4.328723913570832e-04 -2.347887986372293e-18
 4.452087754269505e-01  4.771526567884777e-04 -7.927923816870939e-18
-4.136036679289292e-01 -5.104695941962414e-04  7.365815541484134e-18
-7.216436918960978e-01 -4.302171503083108e-04  1.284693062627597e-17
-8.978456775651519e-01 -1.476534271593451e-04  1.597975196998968e-17
-7.563191644183515e-01  9.300545544680257e-04  1.345004566604031e-17
 2.079662926239629e-01 -3.991623056878342e-04 -3.696906964439209e-18
 2.282200152604631e-01  3.862766762436182e-04 -4.065416321478872e-18
-7.777914835761293e-01 -8.429437325662196e-04  1.385038818013095e-17
-8.468434347036191e-01  5.028918501868442e-04  1.506542202811750e-17
-8.131897022372701e-02  2.035423015453451e-05  1.446958925494331e-18
 1.943307545671744e+00 -5.749227534690668e-04 -3.457756877366353e-17
-1.164416301462618e+01 -1.629008458509368e-01  2.088955175156522e-16
-6.410967833196767e+00  3.751266458919138e-01  1.102365297480368e-16
 3.032172062099568e+01 -1.348316467977325e+00 -5.257577256058495e-16
 4.015163895074778e+00  1.307421318311745e+00 -8.488791007049526e-17
-3.247250583164900e+01 -1.246679177811644e+00  5.906961515440540e-16
-1.251772332603044e+00  6.015690849558751e-01  1.609587803740125e-17
 3.253992537192330e+01 -2.871041574436216e-01 -5.761368961053643e-16
-1.684844162785486e+00 -1.629727039208584e+00  4.672866493543684e-17
-3.252398666642819e+01  1.089355074739270e+00  5.676104110821802e-16
 1.198235128452465e+00 -7.836913942258181e-01 -1.327187902887508e-17
 3.249932599616765e+01  6.289192807039899e-01 -5.848261898483305e-16
 2.632846701703029e+01  7.615741417229663e+00 -5.467954527882718e-16
-2.709284028395426e+01 -7.949360765445728e+00  5.638262044541665e-16
-3.248948967544466e+01  7.138418873938492e-01  5.708547575670789e-16
 5.614372538535332e+00 -4.314843622632556e+00 -5.558100568988141e-17
 3.253972558283149e+01 -3.019085023312847e-01 -5.759812313492801e-16
-1.577288490806080e+00 -1.522283397928203e+00  4.371063905432302e-17
-3.252622629993608e+01  1.020144923780351e+00  5.683613771998267e-16
 1.538240517757656e+00 -9.812622732272168e-01 -1.729271151530572e-17
 3.247071898790021e+01  9.117199007081811e-01 -5.872227676459144e-16
 2.809326514048456e+01  6.054470033450126e+00 -5.621606442323424e-16
 8.811162980471474e+00  2.598203373490942e+00 -1.835007513826933e-16
-3.061706053641153e+01 -1.070650916889842e+01  6.548726059311686e-16
-2.124140859185211e+01  2.146961768681322e+01  1.574236811050116e-16
 2.941071554110994e+01 -1.392666382036399e+01 -3.803073538342057e-16
 1.902705124432997e+01  2.252390156624163e+01 -5.700339794841002e-16
-1.890145877269752e+01 -2.335561260244285e+01  5.763444403992449e-16
-3.555317747028498e+00  1.250603862368794e+01 -6.522388353630832e-17
 3.037324259597930e+01 -1.168509997267116e+01 -4.204679251545912e-16
 1.546752742306780e+01  1.785684880813935e+01 -4.587357354520155e-16
-3.072855696146340e+01 -1.068920516942683e+01  6.566790255074767e-16
-1.082195290941832e+01  1.329014252728930e+01  5.603817441890613e-17
 3.254164454162565e+01 -3.038900334721955e-01 -5.759950219965892e-16
-2.220722546937930e+00 -1.849031247669555e+00  5.851853107682334e-17
-3.251462415672378e+01  1.345731484399255e+00  5.648096195829170e-16
 4.959447300019216e+00 -3.893088028999409e+00 -4.825921536267302e-17
 3.247003318705539e+01  1.647312788616323e+00 -5.947685127003854e-16
-6.105858805697652e+00 -2.113416336728257e+00  1.303756259110820e-16
-3.065022796614554e+01  1.573819947182717e+00  5.292869393402209e-16
 6.856134652322363e+00 -4.037637375316712e-01 -1.178645687325788e-16
 1.137220001995350e+01  1.564870841148374e-01 -2.039897125482811e-16
-1.974612580491642e+00 -1.824093756767456e-03  3.515932816922967e-17
-9.012161310333581e-01 -1.281610205615708e-03  1.605138419889400e-17
-1.268935618460979e+00  4.830049258502278e-04  2.257726027719012e-17
-1.503544882596064e-01  1.213678722365472e-04  2.674490445474445e-18
 4.355070848650817e-01  4.480835119183784e-04 -7.754971959569392e-18
-7.483573357321752e-01 -1.016508585642750e-03  1.332835564518361e-17
-9.487680744047067e-01  7.510367848595309e-04  1.687674297759276e-17
 2.842131649539259e-02 -1.140666718645478e-04 -5.046191966449641e-19
 4.082890537012876e-02  1.248157312695430e-04 -7.278815459930374e-19
-8.974237941360435e-01 -7.813883525104575e-04  1.597875550940179e-17
-8.373133915428447e-01  9.965181609654687e-04  1.489075167769030e-17
 9.845520247751868e-02 -1.765745389423247e-04 -1.750313537588819e-18
 2.505656688053924e-01  2.466082818941720e-04 -4.461648769662810e-18
-7.262410614315207e-01 -1.037647297945533e-03  1.293498742902542e-17
-2.788831907162677e+00  1.018619720938008e-04  4.962954381240062e-17
 1.003523135178126e+01 -1.399462819155037e-01 -1.771510150897471e-16
 1.411857058822025e+01  6.936714888019647e-01 -2.583840274704126e-16
-3.009412676956993e+01 -3.118269812143064e+00  5.675999729671035e-16
-2.642095735261233e+01  9.117814764333755e+00  3.765102176787345e-16
 3.154504888651231e+01 -7.736440386098329e+00 -4.818926586869968e-16
 2.724590893663784e+01  1.626160069042647e+01 -6.519554893798346e-16
-2.332983568524688e+01 -2.083896480855672e+01  6.292950480609906e-16
-2.050552809627030e+01  2.369078913489446e+01  1.215060801768681e-16
 2.780108282146974e+01 -1.687241254267127e+01 -3.213955215297112e-16
 2.951470959014691e+01  1.349927504748089e+01 -6.639496107908578e-16
-2.228712170971320e+01 -1.889913798523774e+01  5.908076931597584e-16
-2.979661665830877e+01  1.278225079011141e+01  3.989333526836077e-16
 3.112865561003267e+01 -7.895204005659579e+00 -4.728512051290314e-16
 2.142732272860070e+01  6.319959118591218e+00 -4.462600514561081e-16
-3.241282752277526e+01  5.350993833805197e-01  5.713269773969194e-16
-6.650406735357481e+00  3.757376358176773e+00  7.974624359269815e-17
 3.228777415804765e+01 -4.051727090807826e+00 -5.329694314062430e-16
 1.830170189453844e+01  1.990450167848423e+01 -5.302121402852838e-16
-2.390503043505517e+01 -2.137312392002573e+01  6.450196155839322e-16
-1.916048854301951e+01  2.508375659988576e+01  8.325726223227601e-17
 2.357878972929790e+01 -2.173350194618933e+01 -1.963088517023989e-16
 8.499613069430218e+00  1.432017660753425e+01 -2.983953657931522e-16
 3.254138078680619e+01 -3.838869140429494e-01 -5.751683892785485e-16
-2.763922362100324e+01 -1.698083002528519e+01  6.663448134526843e-16
-2.963454120755592e+01  1.344289780380225e+01  3.892611186410254e-16
 1.671283176867368e+01 -1.987282791006683e+01 -9.323868957059329e-17
 3.221089330015700e+01  4.624611609433526e+00 -6.207474731225415e-16
-3.550037879094972e+00 -2.587418154207981e+00  8.976194030683604e-17
-3.244349850524134e+01 -8.479106399440883e-01  5.860827297057122e-16
 2.321338232780987e+01 -6.988746896231949e+00 -3.413029929718900e-16
 2.950484587657172e+01  8.337693488125929e+00 -6.107406987724411e-16
-3.103602316837459e+01 -8.706468219871626e+00  6.417788515386415e-16
-2.822531190278690e+01  1.594973649041112e+01  3.384253453228214e-16
 2.447811129295894e+01 -2.109807617006949e+01 -2.188421206901530e-16
 1.784908196982299e+01  2.185824400729533e+01 -5.422312215049474e-16
-2.771658410237372e+01 -1.664951145287393e+01  6.643173575266548e-16
-2.961338407014699e+01  1.346338038699373e+01  3.886741510366697e-16
 2.436921770760397e+01 -1.984613818874122e+01 -2.297674374086624e-16
 2.988303819734963e+01  1.211478909639938e+01 -6.562793675089065e-16
-2.880500625363118e+01 -8.305137209253337e+00  5.979517139339736e-16
-2.959693746365098e+01  3.584284672662723e+00  4.898855837272006e-16
 1.863037596570254e+01 -8.788933343088754e-01 -3.225194535935707e-16
 9.036168805349016e+00  2.459603999839475e-01 -1.633365563829492e-16
-6.085404183600035e+00  4.921801288985267e-02  1.077913290642580e-16
 4.353908856054251e+00 -3.834075837688054e-02 -7.708906423638576e-17
 2.576263329735848e+00  3.104346414540993e-02 -4.616663936747246e-17
-4.011967597853599e+00 -5.133188474808227e-03  7.145049071183592e-17
 3.606906105226854e-01 -2.246801998444561e-03 -6.395834622555716e-18
 2.850964522994581e+00  5.290348880928922e-03 -5.079067081520024e-17
-1.970967313638737e-01 -7.644059437403179e-04  3.515425501668039e-18
-1.768261566682277e-01  5.079457098264589e-04  3.141613418870481e-18
 8.548432450346846e-01  1.291228971408939e-04 -1.521428196451293e-17
 1.878868062187938e-01  5.108771819225379e-05 -3.344194806835802e-18
 2.475604935642878e-01 -1.216446724050788e-04 -4.404384447176263e-18
 7.457598346873665e-01 -2.913839306335223e-05 -1.327138641459774e-17
 2.000825791310542e-01  3.048932040431462e-05 -3.561021399036807e-18
 3.261822521543394e-01 -2.409350306802123e-04 -5.802326718469201e-18
 9.249695472391529e-01  5.731421574052089e-05 -1.646152534935898e-17
 2.978455139445688e-01  2.142119630886151e-04 -5.302717177350675e-18
 2.378059996028883e-01 -4.869816301009899e-05 -4.231541182108029e-18
 7.432262643699379e-01  1.358867842644545e-04 -1.322799403891062e-17
 1.822829836688424e-01  5.732282160046016e-05 -3.244532134631883e-18
 2.052532278175236e-01 -8.070819360952540e-05 -3.651896834951648e-18
 8.944037583177413e-01 -1.264709655972670e-04 -1.591568236947249e-17
 3.135227270975211e-01  2.520411588405102e-04 -5.582100509704888e-18
-2.667443914043571e-01  1.920029179256884e-04  4.745061869035853e-18
 6.088583302454383e-01 -9.652382199740248e-04 -1.082544281505639e-17
 1.302969194675027e+00  4.785624509744245e-05 -2.318838274520297e-17
 5.879806554287089e-01  9.395583380117490e-04 -1.047347073973799e-17
-2.534774009353502e-01 -1.720210933329408e-04  4.512700229773961e-18
 3.427431842439614e-01 -2.683027417418292e-04 -6.096767164467887e-18
 8.755234563139805e-01  2.044827336227260e-04 -1.558308532339597e-17
 1.791737013441769e-01  5.611975842437921e-05 -3.189186362383422e-18
 2.131843725910213e-01 -8.481304908144612e-05 -3.792998782512442e-18
 7.732094704619116e-01 -7.778613861434349e-05 -1.375938557235400e-17
 2.253814446206590e-01  5.261951783141586e-05 -4.011472276838331e-18
 3.025636148390027e-01 -2.117808617066694e-04 -5.382304496537865e-18
 9.336385509063670e-01  2.610113935224766e-06 -1.661523858474247e-17
 3.207241937798015e-01  2.377162827233745e-04 -5.710112108274067e-18
 2.448225444932718e-01 -5.129421143448016e-05 -4.356382184771236e-18
 7.491690316874521e-01  1.393384567611653e-04 -1.333378818952201e-17
 1.866784133043146e-01  5.987556319983119e-05 -3.322780168530880e-18
 2.110685166150411e-01 -8.498831386221937e-05 -3.755342821570989e-18
 9.007619414250571e-01 -1.252143695520324e-04 -1.602884666390897e-17
 3.174728505451368e-01  2.569099183006191e-04 -5.652447723000619e-18
-2.646018405450323e-01  1.907151892513269e-04  4.706945819726031e-18
 6.118570170363242e-01 -9.706807991836944e-04 -1.087875206124549e-17
 1.307212845871369e+00  4.710493763807104e-05 -2.326389572761291e-17
 5.919193319672608e-01  9.473757947113865e-04 -1.054364458568175e-17
-2.512586915110490e-01 -1.719722878979292e-04  4.473215038684075e-18
 3.437878907722443e-01 -2.684524117985989e-04 -6.115357587057979e-18
 8.774742828092480e-01  2.031135600564473e-04 -1.561778846984754e-17
 1.823543760350395e-01  5.849450690110485e-05 -3.245814784272415e-18
 2.153918491640311e-01 -8.600854357875291e-05 -3.832271156486532e-18
 7.747109973517863e-01 -7.721849974166646e-05 -1.378611291457019e-17
 2.270511217522520e-01  5.372630647322935e-05 -4.041197583164841e-18
 3.034540116780317e-01 -2.120328477170795e-04 -5.398147565337546e-18
 9.349958376802096e-01  1.700335758678467e-06 -1.663938369584525e-17
 3.226471928710887e-01  2.399008587715999e-04 -5.744356507652716e-18
 2.452959400672252e-01 -5.102377473313268e-05 -4.364809587091447e-18
 7.502823871768770e-01  1.383878509358014e-04 -1.335359190034204e-17
 1.890524347797313e-01  6.202634962474732e-05 -3.365050820637412e-18
 2.112335455105754e-01 -8.436284964693585e-05 -3.758286091313288e-18
 9.004379865156011e-01 -1.262781452409267e-04 -1.602307055248270e-17
 3.192158151494737e-01  2.587232315150807e-04 -5.683484547798318e-18
-2.635693220357534e-01  1.890746246910444e-04  4.688587809410809e-18
 6.118023069764861e-01 -9.701502522718635e-04 -1.087778378440032e-17
 1.308227170223598e+00  4.648736069179836e-05 -2.328194070313134e-17
 5.928846175071517e-01  9.500552433986366e-04 -1.056085043977700e-17
-2.512717844657681e-01 -1.723182371211242e-04  4.473451629102621e-18
 3.444458064594201e-01 -2.691054312034334e-04 -6.127058978489405e-18
 8.786395695638680e-01  2.048431337545254e-04 -1.563854396013116e-17
 1.823823895584567e-01  5.874912275355511e-05 -3.246315764062351e-18
 2.150398535367970e-01 -8.547658676662463e-05 -3.826012437977285e-18
 7.751562714742767e-01 -7.744838297035460e-05 -1.379403474056417e-17
 2.272485074114503e-01  5.384980453268606e-05 -4.044711409287742e-18
 3.034141223593960e-01 -2.120793020042424e-04 -5.397437183081612e-18
 9.362595083916609e-01  8.057679986564779e-07 -1.666186309743236e-17
 3.248282243619448e-01  2.432214057425630e-04 -5.783204727386854e-18
 2.456551998311618e-01 -4.989499496122721e-05 -4.371214656176504e-18
 7.474333112777892e-01  1.404770693178258e-04 -1.330291071039355e-17
 1.869736616183459e-01  5.953295922450266e-05 -3.328031007059369e-18
 2.136624223063830e-01 -8.730769059240357e-05 -3.801480614324972e-18
 9.027908541365584e-01 -1.232859094783328e-04 -1.606497342571157e-17
 3.186182008668593e-01  2.589128507126366e-04 -5.672851225681768e-18
-2.638778525148767e-01  1.894577364258330e-04  4.694074501629329e-18
 6.118626826739453e-01 -9.691047468078363e-04 -1.087886899411106e-17
 1.307746539081299e+00  4.701068806303196e-05 -2.327339264553591e-17
 5.932276560908830e-01  9.505056101774222e-04 -1.056695985271449e-17
-2.507174030895984e-01 -1.725179206510951e-04  4.463587869808651e-18
 3.443007561663834e-01 -2.683945620933563e-04 -6.124484973605447e-18
 8.782992374338159e-01  2.054790030572389e-04 -1.563249378389995e-17
 1.822026909771464e-01  5.863691217553459e-05 -3.243116719758720e-18
 2.152508805763453e-01 -8.561537840685107e-05 -3.829766550482931e-18
 7.756245718323109e-01 -7.681264427412322e-05 -1.380237524389277e-17
 2.279295244028441e-01  5.480103942674720e-05 -4.056840718583209e-18
 3.036986971063082e-01 -2.114297570853941e-04 -5.402508222700640e-18
 9.347244091467098e-01  3.863261141096967e-06 -1.663457561349529e-17
 3.224865050265859e-01  2.399581386466027e-04 -5.741497508285310e-18
 2.460216473250302e-01 -5.118066911017029e-05 -4.377722787127758e-18
 7.507742031137867e-01  1.406471808029371e-04 -1.336236769380060e-17
 1.888345881073658e-01  6.221573919757210e-05 -3.361176035371710e-18
 2.113388064899701e-01 -8.405839609820918e-05 -3.760162465441430e-18
 9.001872910696870e-01 -1.241010427266994e-04 -1.601863156029039e-17
 3.189597550301221e-01  2.585729562537177e-04 -5.678926027206154e-18
-2.622626062494179e-01  1.882685946530381e-04  4.665341538958301e-18
 6.122231709850422e-01 -9.677880616132034e-04 -1.088529794324247e-17
 1.306547113845435e+00  5.008497293768735e-05 -2.325207900873149e-17
 5.924758945321047e-01  9.486302390521826e-04 -1.055356217568825e-17
-2.500403760336832e-01 -1.719779042299850e-04  4.451533759230428e-18
 3.445643631446648e-01 -2.681126540471006e-04 -6.129179112353319e-18
 8.779238496791021e-01  2.064983708077942e-04 -1.562582387106619e-17
 1.821463951708960e-01  5.884041435379511e-05 -3.242117070069861e-18
 2.149741868496808e-01 -8.510462638084963e-05 -3.824847673302414e-18
 7.751455502986759e-01 -7.630633510000090e-05 -1.379385568356019e-17
 2.280790707620701e-01  5.508245659498536e-05 -4.059505152132757e-18
 3.040076575877043e-01 -2.113375332022242e-04 -5.408007502031935e-18
 9.341655354133609e-01  5.818343416654901e-06 -1.662464980380796e-17
 3.218446425778507e-01  2.393771251868723e-04 -5.730068762641690e-18
 2.465158618815719e-01 -5.142074644164193e-05 -4.386515563321611e-18
 7.509776408860707e-01  1.427007905041482e-04 -1.336600911362953e-17
 1.877949153935359e-01  6.158347668839302e-05 -3.342667276074669e-18
 2.110819139300255e-01 -8.384841426087579e-05 -3.755592970906765e-18
 9.009996580465629e-01 -1.230431438709039e-04 -1.603309943616101e-17
 3.186245960173912e-01  2.591019296918569e-04 -5.672966950445304e-18
-2.636426159235206e-01  1.888946359056777e-04  4.689894033991274e-18
 6.121169081557215e-01 -9.684170797061297e-04 -1.088340039944147e-17
 1.307665953308401e+00  5.154278378921111e-05 -2.327200504122030e-17
 5.924231972666307e-01  9.508041229106451e-04 -1.055264664819840e-17
-2.514338379164305e-01 -1.732030578314823e-04  4.476344696125338e-18
 3.442241809225409e-01 -2.679014522602058e-04 -6.123127319882558e-18
 8.784739109378691e-01  2.076999805609161e-04 -1.563562522049872e-17
 1.819420459924491e-01  5.902907187781774e-05 -3.238482218594267e-18
 2.144444590083948e-01 -8.439294471488979e-05 -3.815427841861079e-18
 7.748836082205725e-01 -7.548622129058480e-05 -1.378920248294146e-17
 2.278520067071745e-01  5.519657918172494e-05 -4.055465375510252e-18
 3.040877191842454e-01 -2.111688380880329e-04 -5.409434042331158e-18
 9.342285936040158e-01  7.791734857201642e-06 -1.662579217829628e-17
 3.211122801744189e-01  2.392174058897790e-04 -5.717033923702313e-18
 2.458764547722365e-01 -5.092856382237721e-05 -4.375141501413377e-18
 7.514491070459152e-01  1.431776883755133e-04 -1.337440431535164e-17
 1.878448651722448e-01  6.208940123294290e-05 -3.343561386553622e-18
 2.099339730999442e-01 -8.253599550403369e-05 -3.735177448095563e-18
 9.007916941994636e-01 -1.236212173908351e-04 -1.602939247157090e-17
 3.192989885968175e-01  2.605767128894542e-04 -5.684983720752301e-18
-2.641256239517207e-01  1.881390786109317e-04  4.698497462571915e-18
 6.112980435248515e-01 -9.665172884385108e-04 -1.086884726568021e-17
 1.307740955690677e+00  5.240788814718634e-05 -2.327334870932534e-17
 5.923834137652131e-01  9.520184736322253e-04 -1.055195111396790e-17
-2.520354012549837e-01 -1.739474337193077e-04  4.487057850732923e-18
 3.440025846346919e-01 -2.674280703597394e-04 -6.119188581654170e-18
 8.786020213123130e-01  2.092026032633413e-04 -1.563792047005811e-17
 1.815016769122064e-01  5.902019531615248e-05 -3.230645187255127e-18
 2.138617764866707e-01 -8.367609451920227e-05 -3.805065693780828e-18
 7.749834685290187e-01 -7.476816738868564e-05 -1.379098704045890e-17
 2.279055046284640e-01  5.578238970406992e-05 -4.056423443556419e-18
 3.033590275625645e-01 -2.098071105745306e-04 -5.396480070718061e-18
 9.334292285727832e-01  8.340092760866066e-06 -1.661157218564866e-17
 3.213669840647675e-01  2.397115919931718e-04 -5.721571793393352e-18
 2.464973362317436e-01 -5.083612306940824e-05 -4.386191744676569e-18
 7.505168422863830e-01  1.456420126704135e-04 -1.335783891220926e-17
 1.866626501332690e-01  6.122981613430257e-05 -3.322513669756934e-18
 2.106380347002729e-01 -8.311804997705940e-05 -3.747701094993572e-18
 9.011230039358314e-01 -1.201997005650308e-04 -1.603532375159716e-17
 3.178739688126457e-01  2.595460159214553e-04 -5.659613208798549e-18
-2.646770025826269e-01  1.889862616707028e-04  4.708301199013027e-18
 6.120210443089148e-01 -9.670698333224532e-04 -1.088170817958978e-17
 1.307367018081345e+00  5.689386834251677e-05 -2.326674013242246e-17
 5.914805362744938e-01  9.510371906987679e-04 -1.053587328537897e-17
-2.515743760261613e-01 -1.736376966118441e-04  4.478850115897074e-18
 3.439319278710572e-01 -2.662431466163805e-04 -6.117943376775291e-18
 8.769962657030531e-01  2.103341120848307e-04 -1.560935580140047e-17
 1.814409583381602e-01  5.908048145307691e-05 -3.229565232121510e-18
 2.150642746191073e-01 -8.436869878067577e-05 -3.826458447068419e-18
 7.742010884971604e-01 -7.119158348951260e-05 -1.377710041538787e-17
 2.263385307886618e-01  5.494482112863527e-05 -4.028528716180838e-18
 3.034920405462004e-01 -2.100213396714046e-04 -5.398844876285555e-18
 9.341020272154273e-01  1.064172270467094e-05 -1.662356915573325e-17
 3.208299394267799e-01  2.401932491870943e-04 -5.712019383414100e-18
 2.455702070525689e-01 -4.988114938516204e-05 -4.369702237219778e-18
 7.505648058528621e-01  1.464342321459198e-04 -1.335870069540152e-17
 1.866396369846111e-01  6.172663159087521e-05 -3.322109205122655e-18
 2.096095105214922e-01 -8.183389046915759e-05 -3.729410579327153e-18
 9.008686294635210e-01 -1.201216752835818e-04 -1.603079764972630e-17
 3.186369242434653e-01  2.613892947248167e-04 -5.673209862035057e-18
-2.652504079023522e-01  1.878079841633033e-04  4.718517828310024e-18
 6.105887126637616e-01 -9.636940893023526e-04 -1.085625288103067e-17
 1.307297265340479e+00  5.669857576009373e-05 -2.326549681335169e-17
 5.920008230588529e-01  9.534976098426418e-04 -1.054515763582473e-17
-2.519321748298863e-01 -1.747664887360691e-04  4.485229305490892e-18
 3.434370366556060e-01 -2.649921176090223e-04 -6.109149039155610e-18
 8.768092868563236e-01  2.124852306544512e-04 -1.560605032879207e-17
 1.807751833467254e-01  5.897859688148640e-05 -3.217716041020827e-18
 2.143468942547991e-01 -8.347557925502324e-05 -3.813700838587269e-18
 7.744301905899400e-01 -7.029550362529983e-05 -1.378118676735517e-17
 2.265775501123028e-01  5.589114898223344e-05 -4.032792014458893e-18
 3.025590988579415e-01 -2.081240191068665e-04 -5.382261781721168e-18
 9.333335205383739e-01  1.155005971334107e-05 -1.660990199690682e-17
 3.212778639413763e-01  2.413750981622024e-04 -5.720002799983740e-18
 2.455794999188750e-01 -4.911039514272533e-05 -4.369875661416093e-18
 7.494064149680524e-01  1.483893322657086e-04 -1.333810570377310e-17
 1.862405069130147e-01  6.175296363634288e-05 -3.315006456597328e-18
 2.101860070278055e-01 -8.190207559614926e-05 -3.739669220293749e-18
 9.002482090937800e-01 -1.160837472572594e-04 -1.601979789085157e-17
 3.173733847184679e-01  2.604153879835470e-04 -5.650713519649027e-18
-2.648963586825793e-01  1.877037563801178e-04  4.712218008691384e-18
 6.111429709667147e-01 -9.622917787419210e-04 -1.086613092418689e-17
 1.306288266236649e+00  6.219845720052430e-05 -2.324759695527571e-17
 5.912384374956587e-01  9.530967749352082e-04 -1.053158600487275e-17
-2.517648013353910e-01 -1.752977702531769e-04  4.482256076598256e-18
 3.429887928750866e-01 -2.634333368892174e-04 -6.101188143455162e-18
 8.762886976604748e-01  2.141936964896520e-04 -1.559680341761018e-17
 1.810138679131406e-01  5.981294103632072e-05 -3.221972241196635e-18
 2.141976079798097e-01 -8.259287645654190e-05 -3.811053372188461e-18
 7.732985726172971e-01 -6.748457262482183e-05 -1.376107717782831e-17
 2.259920940098123e-01  5.595908836990530e-05 -4.022373810625147e-18
 3.033975137645566e-01 -2.083404979506408e-04 -5.397180067493768e-18
 9.332714434454401e-01  1.703468274096473e-05 -1.660885363019795e-17
 3.195352884905941e-01  2.405987525054177e-04 -5.688983683928185e-18
 2.452824631186930e-01 -4.867044044449408e-05 -4.364594044677122e-18
 7.506827492333247e-01  1.515081855761454e-04 -1.336085152337020e-17
 1.856329432481959e-01  6.225856498664000e-05 -3.304199491473004e-18
 2.083378890873463e-01 -7.963396073059678e-05 -3.706802968076168e-18
 9.005953390345118e-01 -1.154567270270993e-04 -1.602598205119731e-17
 3.183702002225635e-01  2.634425355253440e-04 -5.668484319632194e-18
-2.662014405286946e-01  1.864756762954984e-04  4.735456126183173e-18
 6.101812598145824e-01 -9.596046944642296e-04 -1.084904366618873e-17
 1.307521130187372e+00  6.672394319549572e-05 -2.326958371492548e-17
 5.913969916783394e-01  9.578666504278581e-04 -1.053445687396069e-17
-2.530247273753812e-01 -1.771705856012529e-04  4.504697217973167e-18
 3.435980379426327e-01 -2.628669143759781e-04 -6.112036228666718e-18
 8.779018688063203e-01  2.215004374959272e-04 -1.562558686215396e-17
 1.757078921653044e-01  5.625638770797622e-05 -3.127509546146454e-18
 2.042145167263431e-01 -7.576382958935285e-05 -3.633462529344066e-18
 9.008325163384077e-01 -1.146758063834736e-04 -1.603021092791238e-17
 3.187213555540000e-01  2.639445123707369e-04 -5.674738617275618e-18
-2.651730366614082e-01  1.852859912365232e-04  4.717166750986905e-18
 6.100471830852520e-01 -9.569860412298506e-04 -1.084668461530881e-17
 1.306503698980214e+00  6.893637469028300e-05 -2.325150007604654e-17
 5.913837344994616e-01  9.583132307031130e-04 -1.053422530378906e-17
-2.527017897370932e-01 -1.778229447870964e-04  4.498956853043660e-18
 3.428071459305063e-01 -2.611278991738445e-04 -6.097979026583803e-18
 8.768060544909777e-01  2.220161763073075e-04 -1.560609063627411e-17
 1.801918080208355e-01  6.081438162498316e-05 -3.207352986270218e-18
 2.130837908347425e-01 -8.004462072302719e-05 -3.791257753720021e-18
 7.739829132574235e-01 -6.191730387772346e-05 -1.377331300825778e-17
 2.266344319552431e-01  5.894014511858431e-05 -4.033835644559689e-18
 3.026855014823461e-01 -2.043406344436875e-04 -5.384550025189358e-18
 9.328893516458396e-01  2.599623005285091e-05 -1.660214589212820e-17
 3.187574526223688e-01  2.434451625976923e-04 -5.675170403141886e-18
 2.380095741916208e-01 -4.273791203950601e-05 -4.235225162325707e-18
 8.550498461205376e-01  1.509037693632572e-04 -1.521818243054356e-17
 1.906124367504423e-01  1.144123470479856e-04 -3.393351210448043e-18
-2.340096564056072e-01  2.553108045760046e-04  4.161857746747146e-18
 9.016937617965926e-01 -1.282461660417411e-03 -1.603353927272394e-17
 9.920182394018529e-01  1.153066107122277e-03 -1.766599529340921e-17
-2.713851407555574e-01 -3.735664588487450e-04  4.833460579592379e-18
 2.463297043984366e-01 -2.630983746146966e-04 -4.381027698114302e-18
 1.316800740422380e+00  5.356016751527064e-07 -2.343404545728921e-17
 2.660562726120160e-01  3.221170162929142e-04 -4.738098430321433e-18
-2.635530975412115e-01  3.489479257566528e-04  4.686656585741745e-18
 1.063735683036590e+00 -1.140477646421320e-03 -1.891872735597496e-17
 8.876164687156627e-01  1.582797112373046e-03 -1.581245657533192e-17
-4.756907568869888e-01 -5.141221550089960e-04  8.470766957619727e-18
 2.070346686323078e-01 -2.066211266459070e-04 -3.682305899857436e-18
 1.287660281682407e+00 -9.190378230200387e-05 -2.291450641077974e-17
 3.320883453439136e-01  4.265151886161392e-04 -5.914290451654540e-18
-2.250021522053337e-01  2.218516723478430e-04  4.001902273392601e-18
 5.045446960430138e-01 -4.465501659598989e-04 -8.974386543531978e-18
 7.391470629786763e-01 -1.641830882133817e-04 -1.315231669246299e-17
 8.838471281725486e-01  1.021782611437972e-04 -1.573016379151615e-17
 6.421720628995062e-01  8.941953106386631e-04 -1.143740540457518e-17
-1.263322706516900e-01 -1.924714690354847e-04  2.250210983891174e-18
-1.612632100202811e-01  1.749491136589000e-04  2.868073678934555e-18
 5.610053897014295e-01 -6.813323085856841e-04 -9.976759604100083e-18
 9.533159226892047e-01 -1.448197861781924e-04 -1.696390601415525e-17
 5.482910764226601e-01  3.684619542208479e-04 -9.761279549710255e-18
 2.874126981600274e-01  6.600759723531180e-05 -5.115530053928113e-18
 3.983754576128665e-01  3.601303622930654e-05 -7.089936514482692e-18
 2.535084790762612e-01 -1.008849453153637e-05 -4.511382144007015e-18
 4.643320855168821e-01 -2.751521627781162e-04 -8.260516397655655e-18
 1.021006448658062e+00  4.304960706416263e-05 -1.817046998352762e-17
 3.756749426395939e-01  5.098680936585890e-04 -6.690822435006249e-18
-1.641115382100756e-01  1.092148020359061e-04  2.919438426164090e-18
 8.633809607000046e-01 -6.746168273812672e-04 -1.535796259300987e-17
 5.605872265051940e-01  8.250839208654323e-04 -9.984795825867021e-18
-5.626189533106433e-01  5.854721146309926e-05  1.001187384653092e-17
 6.221184024247429e-01 -1.392931098109288e-03 -1.105702733559043e-17
 1.654070934923315e+00  8.732100964503738e-04 -2.944513736294455e-17
 9.520320627451283e-02 -1.639710531254930e-05 -1.694086060837074e-18
-5.347778793662649e-01  7.412259027121224e-04  9.509394435805704e-18
 1.195371870979642e+00 -1.719202343751985e-03 -2.125540415572026e-17
 8.397593264930515e-01  1.844782311930358e-03 -1.496347341679214e-17
-5.714863625745900e-01 -1.818335485502797e-04  1.017214991629142e-17
 4.056890135886442e-01 -6.163501155558164e-04 -7.213387090159052e-18
 1.114171342742918e+00  2.383303460341070e-04 -1.983045683352291e-17
 4.751131118818717e-01  3.784125204689827e-04 -8.459092435444677e-18
 2.595704199374463e-01  7.713043433396043e-05 -4.620157747969512e-18
 3.673521480979460e-01  5.246472301990592e-05 -6.538008731413417e-18
 3.408127398213824e-01 -6.823669648589974e-06 -6.065099168464159e-18
 5.992366231900145e-01 -1.384916036655235e-04 -1.066270751025619e-17
 7.162547053264953e-01  4.081301581299385e-04 -1.275080025551940e-17
-5.607517160300824e-02 -1.894947086934912e-04  9.998715701121769e-19
 6.587719139415670e-02  5.377544828929667e-05 -1.172915860178115e-18
 1.624909789246151e+00 -1.338152655428977e-03 -2.890345904949987e-17
 8.084006429289607e-01  2.706016332223998e-03 -1.441425696540709e-17
-1.310515113683312e+00 -1.330529467652061e-03  2.333585039248344e-17
 2.823900748260532e-01 -7.173485967270747e-04 -5.018097750351499e-18
 2.073547078514252e+00  5.605414048448223e-04 -3.690700298237614e-17
 2.995022826146524e-01  7.051738624774322e-04 -5.337245655538453e-18
-7.400510173239063e-01  5.284334785459191e-04  1.316466121480943e-17
 8.130725317673156e-01 -1.295475877278329e-03 -1.445628502077180e-17
 1.195231378225776e+00  1.366758176104315e-03 -2.128461103256263e-17
 9.207782161578201e-02  3.011161646805565e-05 -1.638944055974676e-18
 6.957733978892687e-02  7.126608372657876e-05 -1.238943873882787e-18
 6.814882374268807e-01 -4.376347746196286e-05 -1.212744638410438e-17
 5.551443178172959e-01  3.363339778218320e-04 -9.882911059562392e-18
 3.816654719437351e-01  1.364269525199896e-04 -6.793594019913500e-18
 5.379882352561985e-01  1.970599235842171e-04 -9.576167121749237e-18
 3.926087719429179e-01  2.573163806129829e-04 -6.989585252123919e-18
 2.329350932305523e-01  4.907466329038941e-05 -4.145861992296875e-18
 6.935071247897936e-01 -8.896250129212613e-05 -1.234087246969917e-17
 8.046543189080567e-01  8.849781937795742e-04 -1.432887613674550e-17
 1.171977272090662e-01  7.274077488302669e-05 -2.086420699552329e-18
 1.463521628749158e-01  4.828867695999298e-05 -2.605007531894320e-18
 8.487136654480446e-01  5.868916771876406e-05 -1.510447508654079e-17
 7.756393201914453e-01  1.037384443001055e-03 -1.381408559492760e-17
-2.016575197839587e-01 -4.481200588768124e-04  3.593340376257818e-18
-2.447149100321407e-01  4.699605160289591e-04  4.350165058697136e-18
 2.895662642296898e+00 -6.472033870960859e-03 -5.146527295598989e-17
 3.009327732651984e+00  2.687231237357749e-02 -5.383067995786213e-17
-4.327209866212946e+00 -4.702964901135503e-02  7.749107379906642e-17
-4.300422556322399e+00  5.320028240246139e-02  7.598453564557224e-17
 5.217515414716683e+00 -5.851967898713062e-02 -9.225064203356635e-17
 5.134410979578357e+00  5.235359389196347e-02 -9.191088211989664e-17
-1.179396803047806e-01 -1.236635014111271e-03  2.111583209219105e-18
-1.775674119408397e+00 -1.193887971638699e-02  3.172290670766388e-17
-4.722042779359061e+00 -7.127415631457456e-03  8.410761556937056e-17
 6.708893128453656e-01 -9.773578721043862e-03 -1.183885552397068e-17
 9.438771893803258e+00  1.776081041830169e-03 -1.679924534117941e-16
 2.680651548186468e+00  7.441889606132508e-02 -4.847001907661409e-17
-8.569939934600006e+00 -8.946183363676244e-02  1.534314917450179e-16
-3.463568572872489e+00  5.781222564188444e-02  6.104433464331607e-17
 6.675602753789973e+00 -3.922813325060141e-02 -1.183972591214657e-16
 4.870625894616061e+00  6.753409754414152e-02 -8.737248597569519e-17
-1.195605466930891e+00 -1.570611112832627e-02  2.143860003280456e-17
-1.122388101180923e+00 -5.426025409336141e-03  2.002998557395028e-17
 1.682124383686203e+00  1.028619688008575e-02 -3.004109682769843e-17
 3.018498069690587e+00  3.249954523195261e-02 -5.405169476544623e-17
 7.231737153251350e-01  1.279713327738377e-02 -1.300122475064193e-17
-9.153940973499910e-01 -1.136550948823270e-02  1.640730638624203e-17
 4.111523073453939e+00  4.798832976319070e-02 -7.366252021312038e-17
-1.103009078061078e+01 -4.100064030678227e-01  2.005062894505775e-16
-1.420644119299399e+01  6.291376627050898e-01  2.463564061385801e-16
 2.409112208714649e+01 -1.428956086611849e+00 -4.140482497525395e-16
 3.103360783432095e+01  3.623770934322931e+00 -5.895129995768333e-16
 2.129230152434967e+01  9.874806216324204e+00 -4.803819506559739e-16
-2.841623247913685e+01 -1.446264063750369e+01  6.542991317529579e-16
-3.180468313407127e+01  6.895262812635927e+00  4.951559538236635e-16
-1.836024026916919e+01  2.511754721988707e+01  6.866870327972802e-17
 5.471305258764519e-01  2.277783793584891e+01 -2.437708506017262e-16
 1.691674029799196e+01  1.178859006050948e+01 -4.221770530335007e-16
 2.869862589995619e+01  1.534315170821870e+01 -6.683715909326309e-16
 1.397975513663640e+00  4.399207563465181e-01 -2.939866779736938e-17
-2.935176934539444e+01 -1.399685979790312e+01  6.661623973134109e-16
 2.728003812875393e+01 -2.341404222957945e+00 -4.614237414787632e-16
-4.655410617707355e+00 -4.694149940771779e+00  1.310792705070980e-16
 6.631689366704840e+00 -2.090538611348462e+01  9.677642512340041e-17
 2.580208077085987e+01 -1.311351122856033e+01 -3.244422410417125e-16
-1.151686347889135e+01 -1.255741262709157e+01  3.339791764127321e-16
 2.340170528905250e+01 -2.249918632345921e+01 -1.852902940202170e-16
-2.801068208529692e+01  1.620825949510461e+01  3.319495217492744e-16
 9.203102496230956e+00 -6.193927654511316e+00 -1.001398301771438e-16
 3.174201755897653e+01 -7.178730422840386e+00 -4.911282184421519e-16
-2.023250087029413e+01 -6.294694748290617e+00  4.247371890894806e-16
-2.858927760760888e+01  4.358085768474189e+00  4.640025494544751e-16
-2.716356038244438e+01 -7.407743280414569e+00  5.595198300660769e-16
-2.692348123207028e+00 -2.477109250643181e+01  3.024275232550452e-16
 2.279933133584689e+01 -2.253776825579848e+01 -1.741739156514754e-16
-1.520171913253309e-01  5.164560805953721e+00 -5.035865889151301e-17
-3.251876571432409e+01 -9.923669312600373e-01  5.889064353951617e-16
-2.029008166034733e+01  2.201929849406373e+00  3.384621767244737e-16
-1.203104870824358e+01 -1.288993371521831e-01  2.154312567693208e-16
-2.488638612217635e+01  2.672139766484723e+00  4.154276612367725e-16
 4.253049956965803e+00 -7.238004386242386e-01 -6.825131060043735e-17
 2.024603810332620e+01 -1.261650244898107e+00 -3.473394004555182e-16
 6.904266869406385e+00 -3.831224641024532e-02 -1.224760202346136e-16
-4.122825721946462e+00  1.386817527989667e-01  7.194569710083678e-17
 2.573139248282717e+00 -7.548394854830578e-02 -4.501651219347655e-17
 2.796768574419685e+00 -6.110187145962013e-02 -4.914403335556594e-17
 2.712842009569694e+00 -5.376537590115835e-02 -4.772583987528623e-17
 3.499142945062655e+00 -4.814060964966360e-02 -6.177679532093996e-17
 2.164914783348895e+00 -1.740791455503155e-02 -3.834838097527026e-17
 5.243881862114527e-01 -4.278120283177685e-03 -9.288157154710871e-18
 1.097715910840538e+00 -9.899153844857409e-03 -1.943345384711505e-17
 1.945669218784196e+00 -1.259945865908079e-02 -3.449604975519063e-17
 1.279214592141736e+00 -5.059683967572720e-03 -2.271316325005299e-17
 5.884712491051510e-01 -2.420784229513385e-03 -1.044767507781695e-17
 8.579962504665950e-01 -3.611053533616171e-03 -1.523196444235961e-17
 1.073720076175435e+00 -3.395852929316202e-03 -1.907323837997876e-17
 7.007544382037507e-01 -1.675946457263334e-03 -1.245354137660072e-17
 4.777562381460996e-01 -1.287648536165187e-03 -8.489012022281455e-18
 9.270209592476890e-01 -2.553539312144070e-03 -1.647120707981188e-17
 1.000848528517741e+00 -1.299282433541272e-03 -1.779794380150869e-17
 2.953964853173904e-01 -3.581113097482887e-04 -5.253253466945573e-18
 2.986215096138808e-01 -6.026469489167241e-04 -5.308133986417458e-18
 9.226059278784160e-01 -1.730102310655761e-03 -1.640109684595692e-17
 7.999217831049080e-01 -5.528035470602688e-04 -1.422988248505172e-17
 4.600514209891494e-01 -3.707251415550480e-04 -8.183354739546526e-18
 4.005415849494226e-01 -3.633873916469586e-04 -7.124381581620031e-18
 2.938984963986135e-01 -3.487395729161766e-04 -5.226691160726649e-18
 7.570973199958850e-01 -1.279613148791123e-03 -1.346030236464921e-17
 1.174374906037969e+00 -2.360748233494234e-04 -2.089697674909515e-17
 1.967759922450727e-01  3.323065127443093e-05 -3.502204947300452e-18
-5.142889285942799e-01  7.323429176979466e-04  9.144860389322309e-18
 8.427913257751137e-01 -2.417815194776415e-03 -1.497363477224950e-17
 1.752889439113230e+00  1.825803191228316e-04 -3.119663444473470e-17
 2.485050646371432e-01  3.258402706917499e-04 -4.425792086131796e-18
-8.732911764803920e-01  7.950627554756493e-04  1.553308918701961e-17
 6.916542367260278e-01 -2.063310380253292e-03 -1.228761241496505e-17
 1.763385336019496e+00  1.592840111475665e-04 -3.138318202208739e-17
 2.222275265694081e-01  2.502537410583995e-04 -3.957375123674618e-18
-6.022109769646735e-01  7.529456093206241e-04  1.070932644389547e-17
 8.137412475370589e-01 -1.686266029327128e-03 -1.446417037558757e-17
 1.195889066624414e+00  5.976516144556300e-04 -2.128841312118141e-17
 1.621953106491907e-01  4.002819229751696e-05 -2.886870320400348e-18
 9.464096710590564e-02  1.013600606957709e-05 -1.684353072052098e-18
 6.979811643800171e-01 -4.350598791624500e-04 -1.241693733037465e-17
 6.639057765424636e-01  1.046726078458919e-04 -1.181607069519638e-17
 2.668437300816788e-01  1.384063488069172e-05 -4.748944639259158e-18
 2.308819728695398e-01 -1.090418492554546e-04 -4.107699747810408e-18
 7.294214084512020e-01 -5.373195524366680e-04 -1.297540330006740e-17
 7.947507611745788e-01  3.596921636194815e-04 -1.414723351419335e-17
 1.131309432240416e-01 -1.080156317992963e-05 -2.013189100007893e-18
 1.437296350885150e-01 -4.974601628029051e-05 -2.557329284547101e-18
 8.144322480880821e-01 -5.269947428163580e-04 -1.448837866513817e-17
 6.735309954166077e-01  3.358987466206922e-04 -1.198973871789053e-17
 2.360844220024612e-01  3.221585526924288e-05 -4.201734909940499e-18
 3.789339391149802e-01 -1.123070084979600e-04 -6.742427541600619e-18
 5.221361373230188e-01 -5.592040429726150e-05 -9.291460831936172e-18
 3.855902717104976e-01 -3.930612171086223e-05 -6.861634955695406e-18
 4.538260782700306e-01 -1.604943580404584e-04 -8.074727459718957e-18
 6.034837133795884e-01 -6.801647738408850e-05 -1.073901367285616e-17
 4.151048359603453e-01  5.235036556990032e-05 -7.387823590396964e-18
 5.247210322901953e-01 -1.467894754491506e-04 -9.336528546794254e-18
 8.718274432844075e-01  3.393073220337369e-04 -1.551869534441982e-17
 1.360416871550306e-01  4.549000445567630e-05 -2.421491541330427e-18
-5.229643350540899e-01  4.249920214852708e-04  9.302407523754817e-18
 6.363603093464556e-01 -1.453980980870249e-03 -1.130985160355015e-17
 1.640917593274013e+00 -9.722765412639980e-05 -2.920108695326614e-17
 5.463343387740999e-01  1.170199064723239e-03 -9.734694638185726e-18
-5.107388646834221e-01 -1.035454891179440e-04  9.090271202840064e-18
 5.460210146033171e-01 -7.291461731746332e-04 -9.709603693922547e-18
 8.410552774834896e-01  6.319680593936427e-04 -1.497407514295042e-17
-1.161028486927619e-01 -8.749779756148125e-05  2.067087765426795e-18
 4.137937888166633e-01 -5.298164720361152e-04 -7.358510503433761e-18
 1.015189145420928e+00  2.688454461133729e-05 -1.806677803446031e-17
 4.915786364056133e-01  3.176142904911565e-04 -8.751491592224422e-18
 2.643086695963076e-01  3.900746997792444e-05 -4.704088869968755e-18
 2.815190204401894e-01 -2.179869342641816e-05 -5.009742759760793e-18
 2.818985075509900e-01 -1.398249997271346e-04 -5.015283687046752e-18
 9.057614947849821e-01 -7.045889497283788e-04 -1.611186683683350e-17
 1.021122384579118e+00  1.194316836098895e-03 -1.818436204408636e-17
-1.370454349074743e-01 -3.911820231677541e-04  2.442906241073712e-18
-2.925150499983768e-01  4.917752083030656e-04  5.200601421652931e-18
 9.309830394416158e-01 -1.276583196470861e-03 -1.655483726812300e-17
 1.066466689585097e+00  9.233214579592412e-04 -1.898853367219938e-17
 7.043915131289644e-02 -2.284706100302354e-05 -1.253313912783382e-18
 1.710766912995386e-02  8.419874680342015e-05 -3.053164845270849e-19
 6.348571054766791e-01 -3.423597472947550e-04 -1.129452189461824e-17
 4.026024082795406e-01  1.712763884942095e-05 -7.164966098989391e-18
 5.486289509055778e-01 -3.998909663689499e-04 -9.759397879517299e-18
 9.927917627391968e-01  4.288440425274962e-04 -1.767231989449439e-17
 2.498116395941090e-01  2.383109595772925e-04 -4.448144707465851e-18
 5.841269663891379e-03  8.482801210772058e-05 -1.048238504155200e-19
 4.622476402871507e-01 -1.437797605476651e-04 -8.224770930950245e-18
 3.724959325055871e-01 -8.681707434721185e-05 -6.628117431922543e-18
 4.156874117978156e-01 -2.351075619837224e-04 -7.395237672216488e-18
 6.285582835070056e-01 -2.317607499512888e-04 -1.118356315525499e-17
 8.849484797527231e-01 -2.784317891275673e-05 -1.574842771389148e-17
 6.073612172070787e-01  7.165105854738318e-04 -1.081607929719070e-17
-1.337642887052445e-01 -1.361631585752720e-04  2.381894113268299e-18
 3.436249300564705e-01 -2.697889511793278e-04 -6.112443471866159e-18
 8.828896104917381e-01  1.871643392136935e-04 -1.571399679419237e-17
 1.939024249064874e-01  6.364266850463854e-05 -3.451378713339499e-18
 2.265393057228393e-01 -9.627434294715422e-05 -4.030547951048424e-18
 7.807842675198040e-01 -8.463982139852563e-05 -1.389411775028406e-17
 2.345123876522965e-01  5.371402148978109e-05 -4.173979528581763e-18
 3.138382164673660e-01 -2.251572397155437e-04 -5.582812023814317e-18
 9.436510089578318e-01 -5.946109323393432e-06 -1.679333425463738e-17
 3.306876935012032e-01  2.435905558363831e-04 -5.887484837572430e-18
 2.532096788613471e-01 -5.649868054811488e-05 -4.505587760829340e-18
 7.571858630155812e-01  1.319716939324173e-04 -1.347638159756690e-17
 1.979058897587180e-01  6.591723513695240e-05 -3.522648674042911e-18
 2.208031705731962e-01 -9.284718082828799e-05 -3.928501846336033e-18
 9.068879538585275e-01 -1.318622169480639e-04 -1.613779808788393e-17
 3.261604601409442e-01  2.615508180845916e-04 -5.807101743505431e-18
-2.536019208432481e-01  1.861196259735504e-04  4.511236347597269e-18
 6.199554480008037e-01 -9.842996466727437e-04 -1.102273339748673e-17
 1.313372723116507e+00  3.817201567848988e-05 -2.337342658218543e-17
 6.006215738911477e-01  9.549074013038553e-04 -1.069858866804872e-17
-2.404859559499203e-01 -1.649617688655714e-04  4.281429352053231e-18
 3.518210341545401e-01 -2.757667715219940e-04 -6.258241479453448e-18
 8.837108113568314e-01  1.992653534586741e-04 -1.572873537276236e-17
 1.875485438196374e-01  6.003563704589304e-05 -3.338266882227710e-18
 2.169420010168994e-01 -8.914890738440323e-05 -3.859825721900298e-18
 9.066142060162484e-01 -1.297057049761772e-04 -1.613294856797904e-17
 3.252150013076861e-01  2.600661976937896e-04 -5.790260847572864e-18
-2.524845059933305e-01  1.859814162069495e-04  4.491352093142614e-18
 6.207362613031759e-01 -9.835873771723560e-04 -1.103663631408784e-17
 1.311861798166854e+00  4.182796575758435e-05 -2.334657531092969e-17
 5.995775034764391e-01  9.523928355055818e-04 -1.067998236670565e-17
-2.399486025258977e-01 -1.646331892309336e-04  4.271863091464687e-18
 3.511661274172408e-01 -2.744572576060174e-04 -6.246600184083469e-18
 8.817389438642507e-01  1.982635553225910e-04 -1.569363335147285e-17
 1.914899598722866e-01  6.344245516532513e-05 -3.408444076085934e-18
 2.256280888281254e-01 -9.393951700724292e-05 -4.014355820943106e-18
 7.799570096300414e-01 -7.782919826585681e-05 -1.387946579140217e-17
 2.334398096192332e-01  5.503077973242133e-05 -4.154905275297349e-18
 3.127652702315003e-01 -2.217093248025487e-04 -5.563753053707829e-18
 9.419423046388393e-01  9.994628872498062e-07 -1.676299711994481e-17
 3.292083947241616e-01  2.438013738859137e-04 -5.861161105474391e-18
 2.528509369272653e-01 -5.516651273250490e-05 -4.499217240521165e-18
 7.567580673870498e-01  1.368162887307252e-04 -1.346881822395368e-17
 1.967579137787044e-01  6.627596557953186e-05 -3.502222759251753e-18
 2.196052569569716e-01 -9.078358673539839e-05 -3.907204780049457e-18
 9.059490732880768e-01 -1.275593477363173e-04 -1.612113378837361e-17
 3.252143172701535e-01  2.619904446684911e-04 -5.790268573874271e-18
-2.543045491083354e-01  1.856107944995388e-04  4.523745729742175e-18
 6.193693222205192e-01 -9.807614444797797e-04 -1.101233903488795e-17
 1.312285346616890e+00  4.377654258989268e-05 -2.335413286243501e-17
 5.994179175845882e-01  9.547298362236272e-04 -1.067716631982479e-17
-2.415691385778437e-01 -1.662390525062301e-04  4.300719006479979e-18
 3.506294478686386e-01 -2.739433673977010e-04 -6.237054663901165e-18
 8.825417464755992e-01  2.001940291031181e-04 -1.570794010553479e-17
 1.907681145047096e-01  6.345727865041704e-05 -3.395598105331353e-18
 2.241345979791278e-01 -9.241926907240430e-05 -3.987793039719485e-18
 7.802511349835984e-01 -7.799327120387262e-05 -1.388469831606067e-17
 2.335151909008726e-01  5.573631601116480e-05 -4.156254074405017e-18
 3.115045668047345e-01 -2.199167452056443e-04 -5.541335740134734e-18
 9.418558173720433e-01  5.486759959601829e-07 -1.676145340376585e-17
 3.295940503672828e-01  2.450777502718278e-04 -5.868037396361557e-18
 2.516689368876842e-01 -5.395274794338632e-05 -4.478194588250852e-18
 7.558502631516740e-01  1.360950943972780e-04 -1.345265542876238e-17
 1.973011823557863e-01  6.694050545247383e-05 -3.511897766252969e-18
 2.196563437893481e-01 -9.046875361205766e-05 -3.908117138000101e-18
 9.050133934204796e-01 -1.259661667785751e-04 -1.610449869668417e-17
 3.246403539705638e-01  2.614826975658626e-04 -5.780049025742423e-18
-2.545687467699472e-01  1.855195742369226e-04  4.528448363132799e-18
 6.190787092711227e-01 -9.800641057726089e-04 -1.100717428269454e-17
 1.312465471414829e+00  4.466677520407963e-05 -2.335734753147692e-17
 5.990676003962350e-01  9.555470640350157e-04 -1.067094040314024e-17
-2.429077269462165e-01 -1.671779073098111e-04  4.324550475013914e-18
 3.504802824368492e-01 -2.742883026522013e-04 -6.234396470411499e-18
 8.834049702572655e-01  2.014984373449291e-04 -1.572331553059419e-17
 1.901385429563782e-01  6.333068319491864e-05 -3.384392870038704e-18
 2.227816840566433e-01 -9.119457449994633e-05 -3.963728781889188e-18
 7.802204689580847e-01 -7.886799395386559e-05 -1.388414355672208e-17
 2.339610326927783e-01  5.631730854024433e-05 -4.164194320833406e-18
 3.111800144665890e-01 -2.191670657114864e-04 -5.535567690601529e-18
 9.409932442578165e-01  1.302140819599921e-06 -1.674611063417112e-17
 3.290334344923794e-01  2.443976192165370e-04 -5.858053479083652e-18
 2.517599118908074e-01 -5.411137187758681e-05 -4.479811999126291e-18
 7.558605515044918e-01  1.367884878278011e-04 -1.345284557765377e-17
 1.969372810610250e-01  6.684256495826711e-05 -3.505420686524813e-18
 2.190968900427097e-01 -8.990872963688399e-05 -3.898166735936804e-18
 9.044124411407090e-01 -1.260258676063863e-04 -1.609380323521570e-17
 3.245842531228774e-01  2.613411588561392e-04 -5.779049150208247e-18
-2.541074095151807e-01  1.850694852392147e-04  4.520242927086891e-18
 6.187426094982182e-01 -9.782718269933321e-04 -1.100121135410264e-17
 1.311136609463966e+00  4.522429009788542e-05 -2.333370455599818e-17
 5.986794313518605e-01  9.537401588177309e-04 -1.066401393272497e-17
-2.419856695705920e-01 -1.665875450610396e-04  4.308135262440438e-18
 3.501980910853651e-01 -2.732991160621784e-04 -6.229384691922332e-18
 8.819943255016298e-01  2.010739910746556e-04 -1.569820708172414e-17
 1.900402958149340e-01  6.311108869445010e-05 -3.382642209460451e-18
 2.234787954238558e-01 -9.182698899745220e-05 -3.976128103879984e-18
 7.798470370158899e-01 -7.749221618394955e-05 -1.387751201634346e-17
 2.330321044626028e-01  5.574990578983663e-05 -4.147656993301090e-18
 3.107139128807992e-01 -2.189199463618409e-04 -5.527275399191454e-18
 9.410667831360496e-01  7.354335235532066e-07 -1.674741347794759e-17
 3.291742805350237e-01  2.447780169789817e-04 -5.860564089233715e-18
 2.514900282587298e-01 -5.380209900413306e-05 -4.475012106828951e-18
 7.553066004931485e-01  1.370372899364332e-04 -1.344298991394715e-17
 1.961583160435277e-01  6.615879703321417e-05 -3.491550988939846e-18
 2.186524610866199e-01 -8.980655353096951e-05 -3.890258507317527e-18
 9.050772513652514e-01 -1.270019655009644e-04 -1.610562438263796e-17
 3.251007731547821e-01  2.626756493700779e-04 -5.788254950729982e-18
-2.553453189235253e-01  1.849821771662981e-04  4.542273887274788e-18
 6.171606227361580e-01 -9.764040069051718e-04 -1.097307729664821e-17
 1.311397048462599e+00  4.116359166282655e-05 -2.333829770936569e-17
 6.000148134868895e-01  9.565492583445754e-04 -1.068780751518145e-17
-2.422621027541537e-01 -1.679071374683569e-04  4.313068284048690e-18
 3.483972074777519e-01 -2.710878246222105e-04 -6.197358561379536e-18
 8.816210484517611e-01  1.985065414269438e-04 -1.569153774208207e-17
 1.910071328631123e-01  6.400933339060389e-05 -3.399857426090640e-18
 2.229085610751589e-01 -9.111965737413533e-05 -3.965987544444052e-18
 7.787092827277158e-01 -7.838046255529054e-05 -1.385725523341580e-17
 2.336633598560068e-01  5.608185167835090e-05 -4.158894417709280e-18
 3.110683532182120e-01 -2.188810765446616e-04 -5.533583450177354e-18
 9.397142639915247e-01  1.621045874552618e-06 -1.672335289628857e-17
 3.284812229304647e-01  2.435110773838406e-04 -5.848217161592025e-18
 2.518649018338969e-01 -5.429334599040578e-05 -4.481678513248279e-18
 7.551838457594495e-01  1.373116616934667e-04 -1.344080816770729e-17
 1.959959586907169e-01  6.609414401953030e-05 -3.488660963730830e-18
 2.187153604732798e-01 -8.980078879608895e-05 -3.891378085901390e-18
 9.044685663412136e-01 -1.259081987705965e-04 -1.609480336760413e-17
 3.239665675852396e-01  2.611449261130285e-04 -5.768054667993666e-18
-2.557477410822137e-01  1.859642557656515e-04  4.549425336285578e-18
 6.180387137928164e-01 -9.787270869982159e-04 -1.098868004228692e-17
 1.311684965586218e+00  4.429489995163049e-05 -2.334345367686018e-17
 5.985751688869280e-01  9.546440555841552e-04 -1.066216774955371e-17
-2.428800997711450e-01 -1.672858481269803e-04  4.324059923619273e-18
 3.490739129360179e-01 -2.720492821121419e-04 -6.209391323384512e-18
 8.808824780115900e-01  1.997384368170619e-04 -1.567840672824190e-17
 1.900778790511716e-01  6.305666264267371e-05 -3.383310436995353e-18
 2.236481138266969e-01 -9.201445859049425e-05 -3.979139607720099e-18
 7.786274281711418e-01 -7.671995884914489e-05 -1.385581563431259e-17
 2.323940759294009e-01  5.520543568233613e-05 -4.136296970833452e-18
 3.108882558345712e-01 -2.191673593380395e-04 -5.530375488511946e-18
 9.398800316437567e-01  1.965158667864602e-06 -1.672630654551234e-17
 3.280011167918589e-01  2.430939800131082e-04 -5.839668828874025e-18
 2.516684028833666e-01 -5.428982592583724e-05 -4.478181657928559e-18
 7.548966454098894e-01  1.377322979461426e-04 -1.343570138970875e-17
 1.953675554774968e-01  6.558342881889421e-05 -3.477472536131995e-18
 2.184865197254853e-01 -8.975686308243573e-05 -3.887306027285778e-18
 9.039041061447505e-01 -1.256456519241192e-04 -1.608476084510456e-17
 3.234876995812470e-01  2.602420695183548e-04 -5.759523341862093e-18
-2.550460165701020e-01  1.857858731304582e-04  4.536939240408773e-18
 6.179409390757562e-01 -9.772064351948940e-04 -1.098695565975857e-17
 1.310170425967388e+00  4.487910418073080e-05 -2.331650669977273e-17
 5.977432717074922e-01  9.519728134471661e-04 -1.064733572987150e-17
-2.425968145067112e-01 -1.667189597321350e-04  4.319012642843741e-18
 3.494370138362604e-01 -2.725330804635026e-04 -6.215848446937545e-18
 8.804367681653206e-01  2.009100589096777e-04 -1.567048678036293e-17
 1.888464578787000e-01  6.203113288664670e-05 -3.361385264399691e-18
 2.235769049026316e-01 -9.228865014330038e-05 -3.977869477971426e-18
 7.792076645640131e-01 -7.582118537395401e-05 -1.386615085011220e-17
 2.308367903575477e-01  5.441711314147749e-05 -4.108575038929836e-18
 3.090980866029914e-01 -2.180477120188519e-04 -5.498528868832414e-18
 9.407672666998669e-01 -1.106729818668471e-06 -1.674206427048667e-17
 3.291154478848038e-01  2.450007851862663e-04 -5.859519268752401e-18
 2.506258507273308e-01 -5.318743148369056e-05 -4.459639489492461e-18
 7.533441669766729e-01  1.371597313133785e-04 -1.340806733921327e-17
 1.946468547566005e-01  6.483328905896427e-05 -3.464639109750481e-18
 2.185713772867610e-01 -9.016748414251435e-05 -3.888811887423336e-18
 9.043866412128030e-01 -1.251443807328438e-04 -1.609335325876712e-17
 3.219481771955819e-01  2.590782298065997e-04 -5.732113815271298e-18
-2.578705888578446e-01  1.884688801434751e-04  4.587178282512158e-18
 6.192344940529514e-01 -9.834677620541121e-04 -1.100991167301208e-17
 1.312751245330046e+00  5.030265427601238e-05 -2.336249116920309e-17
 5.961557511889646e-01  9.527482398441766e-04 -1.061909188700406e-17
-2.452472155769560e-01 -1.678470946695406e-04  4.366191166898174e-18
 3.475124751695271e-01 -2.709039164291539e-04 -6.181615567450610e-18
 8.794217822355384e-01  1.966334022542663e-04 -1.565237992076359e-17
 1.904312861756133e-01  6.329541847648549e-05 -3.389602189135511e-18
 2.235448433290298e-01 -9.193583599855889e-05 -3.977302597109075e-18
 7.767256603208658e-01 -7.576772609178332e-05 -1.382198116203009e-17
 2.307647819911017e-01  5.417201657256475e-05 -4.107291122896544e-18
 3.097198057305791e-01 -2.184063014680100e-04 -5.509589447096580e-18
 9.388910694650947e-01  1.312400124422397e-06 -1.670869999322278e-17
 3.267315965648550e-01  2.421030834310454e-04 -5.817066155446789e-18
 2.499410815222266e-01 -5.357957575123491e-05 -4.447449136159431e-18
 7.537493515174045e-01  1.367870786141802e-04 -1.341527425555270e-17
 1.938145593160105e-01  6.457311517734866e-05 -3.449824587176063e-18
 2.149715077880384e-01 -8.726525131741611e-05 -3.824777811990983e-18
 9.093314549994174e-01 -1.337442755245941e-04 -1.618126376803423e-17
 3.344455048314411e-01  2.826125843091942e-04 -5.954760441643987e-18
-3.062331484849063e-01  1.852155607110981e-04  5.447881129844189e-18
 5.582005088383736e-01 -9.554242058095800e-04 -9.924027296213872e-18
 1.456023863495488e+00 -2.671790216148523e-04 -2.590893640223774e-17
 7.540124686335341e-01  1.552004963874370e-03 -1.343449763503953e-17
-5.037209807428612e-01 -6.325322858704686e-04  8.970814797252813e-18
 1.004063897037866e-01  2.314443926961754e-05 -1.787089274562068e-18
 1.135081270928464e+00 -3.275604719882342e-04 -2.019675960064534e-17
 4.129253179500721e-01  4.216660180465433e-04 -7.352831031070031e-18
 5.818009449725436e-02  5.646669710513899e-05 -1.035964324078220e-18
 6.564926399769542e-01 -1.907769609258623e-04 -1.168110953132055e-17
 3.013994776205013e-01  7.976267656289333e-05 -5.364582725954714e-18
 3.419560601674102e-01 -2.309420675162085e-04 -6.083143109347693e-18
 8.827230629431894e-01  2.642979461913743e-05 -1.570938140411314e-17
 2.801424314460640e-01  1.634383106933155e-04 -4.987148009327027e-18
 3.939698102165869e-01 -1.924843028786131e-04 -7.009184943555615e-18
 7.795577885365637e-01  5.099333139786005e-04 -1.387840018632021e-17
-2.685011744274454e-01 -4.232007171316539e-04  4.782646887436634e-18
 2.508198604208356e-01 -3.525309187206097e-04 -4.460016510109336e-18
 1.633144320711550e+00 -2.414326972145131e-04 -2.906127067622825e-17
 5.058759205732233e-01  1.126770973939461e-03 -9.014242523791114e-18
 1.176024425009295e+00 -3.403630920808462e-04 -2.092526033532640e-17
-1.060217607509146e+01 -1.158946154361525e-01  1.898691450391754e-16
-5.751262729465084e+00  3.200874594018573e-01  9.906179802799759e-17
 3.056329312737648e+01 -1.485420426568305e+00 -5.286481031365217e-16
 5.853922272259636e+00  1.987881121482371e+00 -1.246022859885062e-16
-3.246823532372173e+01 -1.632825235474601e+00  5.945876632279123e-16
-4.320194782346261e+00  3.378312531700788e+00  4.217208542758327e-17
 3.252282648061456e+01 -1.122069880950974e+00 -5.672536314402948e-16
 1.696588343247523e-01  4.012901840135299e-02 -3.431592402185021e-18
-3.250833592749272e+01  1.461948893574993e+00  5.635036213792832e-16
 2.101317935987278e+01 -1.568613820989261e+01 -2.127852203365180e-16
 2.728804624043786e+01  1.280553832169705e+01 -6.171955875596144e-16
-3.252494402237458e+01 -3.219213738323394e-01  5.821278012068842e-16
 2.008084593334685e+01 -2.108629027572572e+01 -1.407086341394556e-16
 1.847905317887705e+01  2.170006222991741e+01 -5.518170503262484e-16
-2.802056544010991e+01 -1.641442081464240e+01  6.673115971273385e-16
-2.030771918944575e+01  2.396877026451014e+01  1.151296796098618e-16
 2.503466041437009e+01 -2.073855206416043e+01 -2.324405557781654e-16
-5.376052258573126e-01  3.197674113395447e+00 -2.328761361769743e-17
-3.236114587856393e+01 -3.426794398541067e+00  6.111142602696244e-16
-1.892950335260112e+01  1.172637209961465e+01  2.163888786140129e-16
 2.374684968359101e+01  2.750159506010565e-01 -4.254292053741411e-16
 2.814767456895372e+01 -1.081589250135654e+01 -3.897920783693568e-16
 3.079132581540643e+01  9.747872190143033e+00 -6.481242177317700e-16
-2.643941744829715e+01 -1.630764458193843e+01  6.380760955766998e-16
-2.465619847801004e+01  1.724892408700905e+01  2.615600339615734e-16
 3.240147362316443e+01 -2.977641089765130e+00 -5.460286924931878e-16
-7.831419775631478e+00 -6.848639428234681e+00  2.097367387843668e-16
-3.169590746941076e+01  7.366442712262624e+00  4.883789588141439e-16
 1.619968283222957e+01 -1.192330991126486e+01 -1.657850017422934e-16
 3.250616755279849e+01 -2.625706632014685e-01 -5.757882081872060e-16
 3.105135516613572e+01  7.265934717769749e+00 -6.272507442942379e-16
-1.786194760226802e+01 -1.144243215685220e+01  4.354414977950716e-16
-3.252970399290167e+01  4.936252985733833e-01  5.738330647636961e-16
 2.382562264063065e+00 -1.598677781527045e+00 -2.597470406092860e-17
 3.246877047637291e+01  1.020376133671041e+00 -5.883044948696171e-16
-3.444662328233010e+00 -1.101897310525771e+00  7.262346971250385e-17
-3.022676090858861e+01  1.351493322778453e+00  5.240351632195946e-16
 6.471117303661421e+00 -3.696423441605719e-01 -1.113633106516788e-16
 1.129955038663506e+01  1.549107518223043e-01 -2.026806293947845e-16
-1.823518132698176e+00  2.214270943369529e-03  3.242892957243634e-17
 6.529899107783134e-01 -4.478327879373840e-04 -1.161613309284895e-17
 1.068192261378100e+00  8.666543308661023e-04 -1.901866010366799e-17
-2.806206412206990e-01 -9.571165868506050e-04  5.003813055629259e-18
-1.280164567803881e+00  2.085924101866706e-03  2.276062326378266e-17
-1.230125954959884e+00  4.635810754675520e-03  2.184392725844918e-17
 1.125724429477303e+01 -1.430772469671978e-01 -1.988660236024419e-16
 1.606998305438901e+01  7.776950115244534e-01 -2.939750511283357e-16
-2.905086363474392e+01 -3.310873391891287e+00  5.510127928461010e-16
-2.991257591842760e+01  8.353934207235115e+00  4.464963302469244e-16
 3.009399701171555e+01 -1.215846541149473e+01 -4.106347589638577e-16
 2.235938410307621e+01  1.874314402371025e+01 -5.904909073198998e-16
-2.958879413295116e+01 -1.333683279521675e+01  6.635989984592372e-16
-2.787711088044833e+01  1.674499097609063e+01  3.240577418417867e-16
 2.073340771282377e+01 -2.357592102559796e+01 -1.267416978668234e-16
 2.354364153888444e+01  2.067819431337631e+01 -6.314481198254358e-16
-2.737673355153767e+01 -1.608635335800349e+01  6.524830667433266e-16
-3.145667233628382e+01  7.947834210238977e+00  4.781478978124214e-16
 2.966865882627024e+01 -8.860644123526519e+00 -4.369492743392963e-16
 2.261915487559866e+01  6.064977545097733e+00 -4.648502831549996e-16
-3.243420225867670e+01  7.029262507837486e-01  5.699830062496786e-16
-6.698866431599747e+00  4.420719160327813e+00  7.379303532514434e-17
 3.219999842705495e+01 -4.708781305218743e+00 -5.246563642170076e-16
 1.173511601531314e+01  1.509669598342745e+01 -3.639534546750962e-16
-2.967167768340203e+01 -1.330190252547468e+01  6.647151142619767e-16
-2.783361290473390e+01  1.685171996592618e+01  3.221870418723356e-16
 1.315962990068111e+01 -1.988777138349682e+01 -2.985168515683006e-17
VECTORS SF_force double
0.000000000000000e+00 0.000000000000000e+00 0.000000000000000e+00
0.000000000000000e+00 0.000000000000000e+00 0.000000000000000e+00
0.000000000000000e+00 0.000000000000000e+00 0.000000000000000e+00
0.000000000000000e+00 0.000000000000000e+00 0.000000000000000e+00
0.000000000000000e+00 0.000000000000000e+00 0.000000000000000e+00
0.000000000000000e+00 0.000000000000000e+00 0.000000000000000e+00
0.000000000000000e+00 0.000000000000000e+00 0.000000000000000e+00
0.000000000000000e+00 0.000000000000000e+00 0.000000000000000e+00
0.000000000000000e+00 0.000000000000000e+00 0.000000000000000e+00
0.000000000000000e+00 0.000000000000000e+00 0.000000000000000e+00
0.000000000000000e+00 0.000000000000000e+00 0.000000000000000e+00
0.000000000000000e+00 0.000000000000000e+00 0.000000000000000e+00
0.000000000000000e+00 0.000000000000000e+00 0.000000000000000e+00
0.000000000000000e+00 0.000000000000000e+00 0.000000000000000e+00
0.000000000000000e+00 0.000000000000000e+00 0.000000000000000e+00
0.000000000000000e+00 0.000000000000000e+00 0.000000000000000e+00
0.000000000000000e+00 0.000000000000000e+00 0.000000000000000e+00
0.000000000000000e+00 0.000000000000000e+00 0.000000000000000e+00
0.000000000000000e+00 0.000000000000000e+00 0.000000000000000e+00
0.000000000000000e+00 0.000000000000000e+00 0.000000000000000e+00
0.000000000000000e+00 0.000000000000000e+00 0.000000000000000e+00
0.000000000000000e+00 0.000000000000000e+00 0.000000000000000e+00
0.000000000000000e+00 0.000000000000000e+00 0.000000000000000e+00
0.000000000000000e+00 0.000000000000000e+00 0.000000000000000e+00
0.000000000000000e+00 0.000000000000000e+00 0.000000000000000e+00
0.000000000000000e+00 0.000000000000000e+00 0.000000000000000e+00
0.000000000000000e+00 0.000000000000000e+00 0.000000000000000e+00
0.000000000000000e+00 0.000000000000000e+00 0.000000000000000e+00
0.000000000000000e+00 0.000000000000000e+00 0.000000000000000e+00
0.000000000000000e+00 0.000000000000000e+00 0.000000000000000e+00
0.000000000000000e+00 0.000000000000000e+00 0.000000000000000e+00
0.000000000000000e+00 0.000000000000000e+00 0.000000000000000e+00
0.000000000000000e+00 0.000000000000000e+00 0.000000000000000e+00
0.000000000000000e+00 0.000000000000000e+00 0.000000000000000e+00
0.000000000000000e+00 0.000000000000000e+00 0.000000000000000e+00
0.000000000000000e+00 0.000000000000000e+00 0.000000000000000e+00
0.000000000000000e+00 0.000000000000000e+00 0.000000000000000e+00
0.000000000000000e+00 0.000000000000000e+00 0.000000000000000e+00
0.000000000000000e+00 0.000000000000000e+00 0.000000000000000e+00
0.000000000000000e+00 0.000000000000000e+00 0.000000000000000e+00
0.000000000000000e+00 0.000000000000000e+00 0.000000000000000e+00
0.000000000000000e+00 0.000000000000000e+00 0.000000000000000e+00
0.000000000000000e+00 0.000000000000000e+00 0.000000000000000e+00
0.000000000000000e+00 0.000000000000000e+00 0.000000000000000e+00
0.000000000000000e+00 0.000000000000000e+00 0.000000000000000e+00
0.000000000000000e+00 0.000000000000000e+00 0.000000000000000e+00
0.000000000000000e+00 0.000000000000000e+00 0.000000000000000e+00
0.000000000000000e+00 0.000000000000000e+00 0.000000000000000e+00
0.000000000000000e+00 0.000000000000000e+00 0.000000000000000e+00
0.000000000000000e+00 0.000000000000000e+00 0.000000000000000e+00
0.000000000000000e+00 0.000000000000000e+00 0.000000000000000e+00
0.000000000000000e+00 0.000000000000000e+00 0.000000000000000e+00
0.000000000000000e+00 0.000000000000000e+00 0.000000000000000e+00
0.000000000000000e+00 0.000000000000000e+00 0.000000000000000e+00
0.000000000000000e+00 0.000000000000000e+00 0.000000000000000e+00
0.000000000000000e+00 0.000000000000000e+00 0.000000000000000e+00
0.000000000000000e+00 0.000000000000000e+00 0.000000000000000e+00
0.000000000000000e+00 0.000000000000000e+00 0.000000000000000e+00
0.000000000000000e+00 0.000000000000000e+00 0.000000000000000e+00
0.000000000000000e+00 0.000000000000000e+00 0.000000000000000e+00
0.000000000000000e+00 0.000000000000000e+00 0.000000000000000e+00
0.000000000000000e+00 0.000000000000000e+00 0.000000000000000e+00
0.000000000000000e+00 0.000000000000000e+00 0.000000000000000e+00
0.000000000000000e+00 0.000000000000000e+00 0.000000000000000e+00
0.000000000000000e+00 0.000000000000000e+00 0.000000000000000e+00
0.000000000000000e+00 0.000000000000000e+00 0.000000000000000e+00
0.000000000000000e+00 0.000000000000000e+00 0.000000000000000e+00
0.000000000000000e+00 0.000000000000000e+00 0.000000000000000e+00
0.000000000000000e+00 0.000000000000000e+00 0.000000000000000e+00
0.000000000000000e+00 0.000000000000000e+00 0.000000000000000e+00
0.000000000000000e+00 0.000000000000000e+00 0.000000000000000e+00
0.000000000000000e+00 0.000000000000000e+00 0.000000000000000e+00
0.000000000000000e+00 0.000000000000000e+00 0.000000000000000e+00
0.000000000000000e+00 0.000000000000000e+00 0.000000000000000e+00
0.000000000000000e+00 0.000000000000000e+00 0.000000000000000e+00
0.000000000000000e+00 0.000000000000000e+00 0.000000000000000e+00
0.000000000000000e+00 0.000000000000000e+00 0.000000000000000e+00
0.000000000000000e+00 0.000000000000000e+00 0.000000000000000e+00
0.000000000000000e+00 0.000000000000000e+00 0.000000000000000e+00
0.000000000000000e+00 0.000000000000000e+00 0.000000000000000e+00
0.000000000000000e+00 0.000000000000000e+00 0.000000000000000e+00
0.000000000000000e+00 0.000000000000000e+00 0.000000000000000e+00
0.000000000000000e+00 0.000000000000000e+00 0.000000000000000e+00
0.000000000000000e+00 0.000000000000000e+00 0.000000000000000e+00
0.000000000000000e+00 0.000000000000000e+00 0.000000000000000e+00
0.000000000000000e+00 0.000000000000000e+00 0.000000000000000e+00
0.000000000000000e+00 0.000000000000000e+00 0.000000000000000e+00
0.000000000000000e+00 0.000000000000000e+00 0.000000000000000e+00
0.000000000000000e+00 0.000000000000000e+00 0.000000000000000e+00
0.000000000000000e+00 0.000000000000000e+00 0.000000000000000e+00
0.000000000000000e+00 0.000000000000000e+00 0.000000000000000e+00
0.000000000000000e+00 0.000000000000000e+00 0.000000000000000e+00
0.000000000000000e+00 0.000000000000000e+00 0.000000000000000e+00
0.000000000000000e+00 0.000000000000000e+00 0.000000000000000e+00
0.000000000000000e+00 0.000000000000000e+00 0.000000000000000e+00
0.000000000000000e+00 0.000000000000000e+00 0.000000000000000e+00
0.000000000000000e+00 0.000000000000000e+00 0.000000000000000e+00
0.000000000000000e+00 0.000000000000000e+00 0.000000000000000e+00
0.000000000000000e+00 0.000000000000000e+00 0.000000000000000e+00
0.000000000000000e+00 0.000000000000000e+00 0.000000000000000e+00
0.000000000000000e+00 0.000000000000000e+00 0.000000000000000e+00
0.000000000000000e+00 0.000000000000000e+00 0.000000000000000e+00
0.000000000000000e+00 0.000000000000000e+00 0.000000000000000e+00
0.000000000000000e+00 0.000000000000000e+00 0.000000000000000e+00
0.000000000000000e+00 0.000000000000000e+00 0.000000000000000e+00
0.000000000000000e+00 0.000000000000000e+00 0.000000000000000e+00
0.000000000000000e+00 0.000000000000000e+00 0.000000000000000e+00
0.000000000000000e+00 0.000000000000000e+00 0.000000000000000e+00
0.000000000000000e+00 0.000000000000000e+00 0.000000000000000e+00
0.000000000000000e+00 0.000000000000000e+00 0.000000000000000e+00
0.000000000000000e+00 0.000000000000000e+00 0.000000000000000e+00
0.000000000000000e+00 0.000000000000000e+00 0.000000000000000e+00
0.000000000000000e+00 0.000000000000000e+00 0.000000000000000e+00
0.000000000000000e+00 0.000000000000000e+00 0.000000000000000e+00
0.000000000000000e+00 0.000000000000000e+00 0.000000000000000e+00
0.000000000000000e+00 0.000000000000000e+00 0.000000000000000e+00
0.000000000000000e+00 0.000000000000000e+00 0.000000000000000e+00
0.000000000000000e+00 0.000000000000000e+00 0.000000000000000e+00
0.000000000000000e+00 0.000000000000000e+00 0.000000000000000e+00
0.000000000000000e+00 0.000000000000000e+00 0.000000000000000e+00
0.000000000000000e+00 0.000000000000000e+00 0.000000000000000e+00
0.000000000000000e+00 0.000000000000000e+00 0.000000000000000e+00
0.000000000000000e+00 0.000000000000000e+00 0.000000000000000e+00
0.000000000000000e+00 0.000000000000000e+00 0.000000000000000e+00
0.000000000000000e+00 0.000000000000000e+00 0.000000000000000e+00
0.000000000000000e+00 0.000000000000000e+00 0.000000000000000e+00
0.000000000000000e+00 0.000000000000000e+00 0.000000000000000e+00
0.000000000000000e+00 0.000000000000000e+00 0.000000000000000e+00
0.000000000000000e+00 0.000000000000000e+00 0.000000000000000e+00
0.000000000000000e+00 0.000000000000000e+00 0.000000000000000e+00
0.000000000000000e+00 0.000000000000000e+00 0.000000000000000e+00
0.000000000000000e+00 0.000000000000000e+00 0.000000000000000e+00
0.000000000000000e+00 0.000000000000000e+00 0.000000000000000e+00
0.000000000000000e+00 0.000000000000000e+00 0.000000000000000e+00
0.000000000000000e+00 0.000000000000000e+00 0.000000000000000e+00
0.000000000000000e+00 0.000000000000000e+00 0.000000000000000e+00
0.000000000000000e+00 0.000000000000000e+00 0.000000000000000e+00
0.000000000000000e+00 0.000000000000000e+00 0.000000000000000e+00
0.000000000000000e+00 0.000000000000000e+00 0.000000000000000e+00
0.000000000000000e+00 0.000000000000000e+00 0.000000000000000e+00
0.000000000000000e+00 0.000000000000000e+00 0.000000000000000e+00
0.000000000000000e+00 0.000000000000000e+00 0.000000000000000e+00
0.000000000000000e+00 0.000000000000000e+00 0.000000000000000e+00
0.000000000000000e+00 0.000000000000000e+00 0.000000000000000e+00
0.000000000000000e+00 0.000000000000000e+00 0.000000000000000e+00
0.000000000000000e+00 0.000000000000000e+00 0.000000000000000e+00
0.000000000000000e+00 0.000000000000000e+00 0.000000000000000e+00
0.000000000000000e+00 0.000000000000000e+00 0.000000000000000e+00
0.000000000000000e+00 0.000000000000000e+00 0.000000000000000e+00
0.000000000000000e+00 0.000000000000000e+00 0.000000000000000e+00
0.000000000000000e+00 0.000000000000000e+00 0.000000000000000e+00
0.000000000000000e+00 0.000000000000000e+00 0.000000000000000e+00
0.000000000000000e+00 0.000000000000000e+00 0.000000000000000e+00
0.000000000000000e+00 0.000000000000000e+00 0.000000000000000e+00
0.000000000000000e+00 0.000000000000000e+00 0.000000000000000e+00
0.000000000000000e+00 0.000000000000000e+00 0.000000000000000e+00
0.000000000000000e+00 0.000000000000000e+00 0.000000000000000e+00
0.000000000000000e+00 0.000000000000000e+00 0.000000000000000e+00
0.000000000000000e+00 0.000000000000000e+00 0.000000000000000e+00
0.000000000000000e+00 0.000000000000000e+00 0.000000000000000e+00
0.000000000000000e+00 0.000000000000000e+00 0.000000000000000e+00
0.000000000000000e+00 0.000000000000000e+00 0.000000000000000e+00
0.000000000000000e+00 0.000000000000000e+00 0.000000000000000e+00
0.000000000000000e+00 0.000000000000000e+00 0.000000000000000e+00
0.000000000000000e+00 0.000000000000000e+00 0.000000000000000e+00
0.000000000000000e+00 0.000000000000000e+00 0.000000000000000e+00
0.000000000000000e+00 0.000000000000000e+00 0.000000000000000e+00
0.000000000000000e+00 0.000000000000000e+00 0.000000000000000e+00
0.000000000000000e+00 0.000000000000000e+00 0.000000000000000e+00
0.000000000000000e+00 0.000000000000000e+00 0.000000000000000e+00
0.000000000000000e+00 0.000000000000000e+00 0.000000000000000e+00
0.000000000000000e+00 0.000000000000000e+00 0.000000000000000e+00
0.000000000000000e+00 0.000000000000000e+00 0.000000000000000e+00
0.000000000000000e+00 0.000000000000000e+00 0.000000000000000e+00
0.000000000000000e+00 0.000000000000000e+00 0.000000000000000e+00
0.000000000000000e+00 0.000000000000000e+00 0.000000000000000e+00
0.000000000000000e+00 0.000000000000000e+00 0.000000000000000e+00
0.000000000000000e+00 0.000000000000000e+00 0.000000000000000e+00
0.000000000000000e+00 0.000000000000000e+00 0.000000000000000e+00
0.000000000000000e+00 0.000000000000000e+00 0.000000000000000e+00
0.000000000000000e+00 0.000000000000000e+00 0.000000000000000e+00
0.000000000000000e+00 0.000000000000000e+00 0.000000000000000e+00
0.000000000000000e+00 0.000000000000000e+00 0.000000000000000e+00
0.000000000000000e+00 0.000000000000000e+00 0.000000000000000e+00
0.000000000000000e+00 0.000000000000000e+00 0.000000000000000e+00
0.000000000000000e+00 0.000000000000000e+00 0.000000000000000e+00
0.000000000000000e+00 0.000000000000000e+00 0.000000000000000e+00
0.000000000000000e+00 0.000000000000000e+00 0.000000000000000e+00
0.000000000000000e+00 0.000000000000000e+00 0.000000000000000e+00
0.000000000000000e+00 0.000000000000000e+00 0.000000000000000e+00
0.000000000000000e+00 0.000000000000000e+00 0.000000000000000e+00
0.000000000000000e+00 0.000000000000000e+00 0.000000000000000e+00
0.000000000000000e+00 0.000000000000000e+00 0.000000000000000e+00
0.000000000000000e+00 0.000000000000000e+00 0.000000000000000e+00
0.000000000000000e+00 0.000000000000000e+00 0.000000000000000e+00
0.000000000000000e+00 0.000000000000000e+00 0.000000000000000e+00
0.000000000000000e+00 0.000000000000000e+00 0.000000000000000e+00
0.000000000000000e+00 0.000000000000000e+00 0.000000000000000e+00
0.000000000000000e+00 0.000000000000000e+00 0.000000000000000e+00
0.000000000000000e+00 0.000000000000000e+00 0.000000000000000e+00
0.000000000000000e+00 0.000000000000000e+00 0.000000000000000e+00
0.000000000000000e+00 0.000000000000000e+00 0.000000000000000e+00
0.000000000000000e+00 0.000000000000000e+00 0.000000000000000e+00
0.000000000000000e+00 0.000000000000000e+00 0.000000000000000e+00
0.000000000000000e+00 0.000000000000000e+00 0.000000000000000e+00
0.000000000000000e+00 0.000000000000000e+00 0.000000000000000e+00
0.000000000000000e+00 0.000000000000000e+00 0.000000000000000e+00
0.000000000000000e+00 0.000000000000000e+00 0.000000000000000e+00
0.000000000000000e+00 0.000000000000000e+00 0.000000000000000e+00
0.000000000000000e+00 0.000000000000000e+00 0.000000000000000e+00
0.000000000000000e+00 0.000000000000000e+00 0.000000000000000e+00
0.000000000000000e+00 0.000000000000000e+00 0.000000000000000e+00
0.000000000000000e+00 0.000000000000000e+00 0.000000000000000e+00
0.000000000000000e+00 0.000000000000000e+00 0.000000000000000e+00
0.000000000000000e+00 0.000000000000000e+00 0.000000000000000e+00
0.000000000000000e+00 0.000000000000000e+00 0.000000000000000e+00
0.000000000000000e+00 0.000000000000000e+00 0.000000000000000e+00
0.000000000000000e+00 0.000000000000000e+00 0.000000000000000e+00
0.000000000000000e+00 0.000000000000000e+00 0.000000000000000e+00
0.000000000000000e+00 0.000000000000000e+00 0.000000000000000e+00
0.000000000000000e+00 0.000000000000000e+00 0.000000000000000e+00
0.000000000000000e+00 0.000000000000000e+00 0.000000000000000e+00
0.000000000000000e+00 0.000000000000000e+00 0.000000000000000e+00
0.000000000000000e+00 0.000000000000000e+00 0.000000000000000e+00
0.000000000000000e+00 0.000000000000000e+00 0.000000000000000e+00
0.000000000000000e+00 0.000000000000000e+00 0.000000000000000e+00
0.000000000000000e+00 0.000000000000000e+00 0.000000000000000e+00
0.000000000000000e+00 0.000000000000000e+00 0.000000000000000e+00
0.000000000000000e+00 0.000000000000000e+00 0.000000000000000e+00
0.000000000000000e+00 0.000000000000000e+00 0.000000000000000e+00
0.000000000000000e+00 0.000000000000000e+00 0.000000000000000e+00
0.000000000000000e+00 0.000000000000000e+00 0.000000000000000e+00
0.000000000000000e+00 0.000000000000000e+00 0.000000000000000e+00
0.000000000000000e+00 0.000000000000000e+00 0.000000000000000e+00
0.000000000000000e+00 0.000000000000000e+00 0.000000000000000e+00
0.000000000000000e+00 0.000000000000000e+00 0.000000000000000e+00
0.000000000000000e+00 0.000000000000000e+00 0.000000000000000e+00
0.000000000000000e+00 0.000000000000000e+00 0.000000000000000e+00
0.000000000000000e+00 0.000000000000000e+00 0.000000000000000e+00
0.000000000000000e+00 0.000000000000000e+00 0.000000000000000e+00
0.000000000000000e+00 0.000000000000000e+00 0.000000000000000e+00
0.000000000000000e+00 0.000000000000000e+00 0.000000000000000e+00
0.000000000000000e+00 0.000000000000000e+00 0.000000000000000e+00
0.000000000000000e+00 0.000000000000000e+00 0.000000000000000e+00
0.000000000000000e+00 0.000000000000000e+00 0.000000000000000e+00
0.000000000000000e+00 0.000000000000000e+00 0.000000000000000e+00
0.000000000000000e+00 0.000000000000000e+00 0.000000000000000e+00
0.000000000000000e+00 0.000000000000000e+00 0.000000000000000e+00
0.000000000000000e+00 0.000000000000000e+00 0.000000000000000e+00
0.000000000000000e+00 0.000000000000000e+00 0.000000000000000e+00
0.000000000000000e+00 0.000000000000000e+00 0.000000000000000e+00
0.000000000000000e+00 0.000000000000000e+00 0.000000000000000e+00
0.000000000000000e+00 0.000000000000000e+00 0.000000000000000e+00
0.000000000000000e+00 0.000000000000000e+00 0.000000000000000e+00
0.000000000000000e+00 0.000000000000000e+00 0.000000000000000e+00
0.000000000000000e+00 0.000000000000000e+00 0.000000000000000e+00
0.000000000000000e+00 0.000000000000000e+00 0.000000000000000e+00
0.000000000000000e+00 0.000000000000000e+00 0.000000000000000e+00
0.000000000000000e+00 0.000000000000000e+00 0.000000000000000e+00
0.000000000000000e+00 0.000000000000000e+00 0.000000000000000e+00
0.000000000000000e+00 0.000000000000000e+00 0.000000000000000e+00
0.000000000000000e+00 0.000000000000000e+00 0.000000000000000e+00
0.000000000000000e+00 0.000000000000000e+00 0.000000000000000e+00
0.000000000000000e+00 0.000000000000000e+00 0.000000000000000e+00
0.000000000000000e+00 0.000000000000000e+00 0.000000000000000e+00
0.000000000000000e+00 0.000000000000000e+00 0.000000000000000e+00
0.000000000000000e+00 0.000000000000000e+00 0.000000000000000e+00
0.000000000000000e+00 0.000000000000000e+00 0.000000000000000e+00
0.000000000000000e+00 0.000000000000000e+00 0.000000000000000e+00
0.000000000000000e+00 0.000000000000000e+00 0.000000000000000e+00
0.000000000000000e+00 0.000000000000000e+00 0.000000000000000e+00
0.000000000000000e+00 0.000000000000000e+00 0.000000000000000e+00
0.000000000000000e+00 0.000000000000000e+00 0.000000000000000e+00
0.000000000000000e+00 0.000000000000000e+00 0.000000000000000e+00
0.000000000000000e+00 0.000000000000000e+00 0.000000000000000e+00
0.000000000000000e+00 0.000000000000000e+00 0.000000000000000e+00
0.000000000000000e+00 0.000000000000000e+00 0.000000000000000e+00
0.000000000000000e+00 0.000000000000000e+00 0.000000000000000e+00
0.000000000000000e+00 0.000000000000000e+00 0.000000000000000e+00
0.000000000000000e+00 0.000000000000000e+00 0.000000000000000e+00
0.000000000000000e+00 0.000000000000000e+00 0.000000000000000e+00
0.000000000000000e+00 0.000000000000000e+00 0.000000000000000e+00
0.000000000000000e+00 0.000000000000000e+00 0.000000000000000e+00
0.000000000000000e+00 0.000000000000000e+00 0.000000000000000e+00
0.000000000000000e+00 0.000000000000000e+00 0.000000000000000e+00
0.000000000000000e+00 0.000000000000000e+00 0.000000000000000e+00
0.000000000000000e+00 0.000000000000000e+00 0.000000000000000e+00
0.000000000000000e+00 0.000000000000000e+00 0.000000000000000e+00
0.000000000000000e+00 0.000000000000000e+00 0.000000000000000e+00
0.000000000000000e+00 0.000000000000000e+00 0.000000000000000e+00
0.000000000000000e+00 0.000000000000000e+00 0.000000000000000e+00
0.000000000000000e+00 0.000000000000000e+00 0.000000000000000e+00
0.000000000000000e+00 0.000000000000000e+00 0.000000000000000e+00
0.000000000000000e+00 0.000000000000000e+00 0.000000000000000e+00
0.000000000000000e+00 0.000000000000000e+00 0.000000000000000e+00
0.000000000000000e+00 0.000000000000000e+00 0.000000000000000e+00
0.000000000000000e+00 0.000000000000000e+00 0.000000000000000e+00
0.000000000000000e+00 0.000000000000000e+00 0.000000000000000e+00
0.000000000000000e+00 0.000000000000000e+00 0.000000000000000e+00
0.000000000000000e+00 0.000000000000000e+00 0.000000000000000e+00
0.000000000000000e+00 0.000000000000000e+00 0.000000000000000e+00
0.000000000000000e+00 0.000000000000000e+00 0.000000000000000e+00
0.000000000000000e+00 0.000000000000000e+00 0.000000000000000e+00
0.000000000000000e+00 0.000000000000000e+00 0.000000000000000e+00
0.000000000000000e+00 0.000000000000000e+00 0.000000000000000e+00
0.000000000000000e+00 0.000000000000000e+00 0.000000000000000e+00
0.000000000000000e+00 0.000000000000000e+00 0.000000000000000e+00
0.000000000000000e+00 0.000000000000000e+00 0.000000000000000e+00
0.000000000000000e+00 0.000000000000000e+00 0.000000000000000e+00
0.000000000000000e+00 0.000000000000000e+00 0.000000000000000e+00
0.000000000000000e+00 0.000000000000000e+00 0.000000000000000e+00
0.000000000000000e+00 0.000000000000000e+00 0.000000000000000e+00
0.000000000000000e+00 0.000000000000000e+00 0.000000000000000e+00
0.000000000000000e+00 0.000000000000000e+00 0.000000000000000e+00
0.000000000000000e+00 0.000000000000000e+00 0.000000000000000e+00
0.000000000000000e+00 0.000000000000000e+00 0.000000000000000e+00
0.000000000000000e+00 0.000000000000000e+00 0.000000000000000e+00
0.000000000000000e+00 0.000000000000000e+00 0.000000000000000e+00
0.000000000000000e+00 0.000000000000000e+00 0.000000000000000e+00
0.000000000000000e+00 0.000000000000000e+00 0.000000000000000e+00
0.000000000000000e+00 0.000000000000000e+00 0.000000000000000e+00
0.000000000000000e+00 0.000000000000000e+00 0.000000000000000e+00
0.000000000000000e+00 0.000000000000000e+00 0.000000000000000e+00
0.000000000000000e+00 0.000000000000000e+00 0.000000000000000e+00
0.000000000000000e+00 0.000000000000000e+00 0.000000000000000e+00
0.000000000000000e+00 0.000000000000000e+00 0.000000000000000e+00
0.000000000000000e+00 0.000000000000000e+00 0.000000000000000e+00
0.000000000000000e+00 0.000000000000000e+00 0.000000000000000e+00
0.000000000000000e+00 0.000000000000000e+00 0.000000000000000e+00
0.000000000000000e+00 0.000000000000000e+00 0.000000000000000e+00
0.000000000000000e+00 0.000000000000000e+00 0.000000000000000e+00
0.000000000000000e+00 0.000000000000000e+00 0.000000000000000e+00
0.000000000000000e+00 0.000000000000000e+00 0.000000000000000e+00
0.000000000000000e+00 0.000000000000000e+00 0.000000000000000e+00
0.000000000000000e+00 0.000000000000000e+00 0.000000000000000e+00
0.000000000000000e+00 0.000000000000000e+00 0.000000000000000e+00
0.000000000000000e+00 0.000000000000000e+00 0.000000000000000e+00
0.000000000000000e+00 0.000000000000000e+00 0.000000000000000e+00
0.000000000000000e+00 0.000000000000000e+00 0.000000000000000e+00
0.000000000000000e+00 0.000000000000000e+00 0.000000000000000e+00
0.000000000000000e+00 0.000000000000000e+00 0.000000000000000e+00
0.000000000000000e+00 0.000000000000000e+00 0.000000000000000e+00
0.000000000000000e+00 0.000000000000000e+00 0.000000000000000e+00
0.000000000000000e+00 0.000000000000000e+00 0.000000000000000e+00
0.000000000000000e+00 0.000000000000000e+00 0.000000000000000e+00
0.000000000000000e+00 0.000000000000000e+00 0.000000000000000e+00
0.000000000000000e+00 0.000000000000000e+00 0.000000000000000e+00
0.000000000000000e+00 0.000000000000000e+00 0.000000000000000e+00
0.000000000000000e+00 0.000000000000000e+00 0.000000000000000e+00
0.000000000000000e+00 0.000000000000000e+00 0.000000000000000e+00
0.000000000000000e+00 0.000000000000000e+00 0.000000000000000e+00
0.000000000000000e+00 0.000000000000000e+00 0.000000000000000e+00
0.000000000000000e+00 0.000000000000000e+00 0.000000000000000e+00
0.000000000000000e+00 0.000000000000000e+00 0.000000000000000e+00
0.000000000000000e+00 0.000000000000000e+00 0.000000000000000e+00
0.000000000000000e+00 0.000000000000000e+00 0.000000000000000e+00
0.000000000000000e+00 0.000000000000000e+00 0.000000000000000e+00
0.000000000000000e+00 0.000000000000000e+00 0.000000000000000e+00
0.000000000000000e+00 0.000000000000000e+00 0.000000000000000e+00
0.000000000000000e+00 0.000000000000000e+00 0.000000000000000e+00
0.000000000000000e+00 0.000000000000000e+00 0.000000000000000e+00
0.000000000000000e+00 0.000000000000000e+00 0.000000000000000e+00
0.000000000000000e+00 0.000000000000000e+00 0.000000000000000e+00
0.000000000000000e+00 0.000000000000000e+00 0.000000000000000e+00
0.000000000000000e+00 0.000000000000000e+00 0.000000000000000e+00
0.000000000000000e+00 0.000000000000000e+00 0.000000000000000e+00
0.000000000000000e+00 0.000000000000000e+00 0.000000000000000e+00
0.000000000000000e+00 0.000000000000000e+00 0.000000000000000e+00
0.000000000000000e+00 0.000000000000000e+00 0.000000000000000e+00
0.000000000000000e+00 0.000000000000000e+00 0.000000000000000e+00
0.000000000000000e+00 0.000000000000000e+00 0.000000000000000e+00
0.000000000000000e+00 0.000000000000000e+00 0.000000000000000e+00
0.000000000000000e+00 0.000000000000000e+00 0.000000000000000e+00
0.000000000000000e+00 0.000000000000000e+00 0.000000000000000e+00
0.000000000000000e+00 0.000000000000000e+00 0.000000000000000e+00
0.000000000000000e+00 0.000000000000000e+00 0.000000000000000e+00
0.000000000000000e+00 0.000000000000000e+00 0.000000000000000e+00
0.000000000000000e+00 0.000000000000000e+00 0.000000000000000e+00
0.000000000000000e+00 0.000000000000000e+00 0.000000000000000e+00
0.000000000000000e+00 0.000000000000000e+00 0.000000000000000e+00
0.000000000000000e+00 0.000000000000000e+00 0.000000000000000e+00
0.000000000000000e+00 0.000000000000000e+00 0.000000000000000e+00
0.000000000000000e+00 0.000000000000000e+00 0.000000000000000e+00
0.000000000000000e+00 0.000000000000000e+00 0.000000000000000e+00
0.000000000000000e+00 0.000000000000000e+00 0.000000000000000e+00
0.000000000000000e+00 0.000000000000000e+00 0.000000000000000e+00
0.000000000000000e+00 0.000000000000000e+00 0.000000000000000e+00
0.000000000000000e+00 0.000000000000000e+00 0.000000000000000e+00
0.000000000000000e+00 0.000000000000000e+00 0.000000000000000e+00
0.000000000000000e+00 0.000000000000000e+00 0.000000000000000e+00
0.000000000000000e+00 0.000000000000000e+00 0.000000000000000e+00
0.000000000000000e+00 0.000000000000000e+00 0.000000000000000e+00
0.000000000000000e+00 0.000000000000000e+00 0.000000000000000e+00
0.000000000000000e+00 0.000000000000000e+00 0.000000000000000e+00
0.000000000000000e+00 0.000000000000000e+00 0.000000000000000e+00
0.000000000000000e+00 0.000000000000000e+00 0.000000000000000e+00
0.000000000000000e+00 0.000000000000000e+00 0.000000000000000e+00
0.000000000000000e+00 0.000000000000000e+00 0.000000000000000e+00
0.000000000000000e+00 0.000000000000000e+00 0.000000000000000e+00
0.000000000000000e+00 0.000000000000000e+00 0.000000000000000e+00
0.000000000000000e+00 0.000000000000000e+00 0.000000000000000e+00
0.000000000000000e+00 0.000000000000000e+00 0.000000000000000e+00
0.000000000000000e+00 0.000000000000000e+00 0.000000000000000e+00
0.000000000000000e+00 0.000000000000000e+00 0.000000000000000e+00
0.000000000000000e+00 0.000000000000000e+00 0.000000000000000e+00
0.000000000000000e+00 0.000000000000000e+00 0.000000000000000e+00
0.000000000000000e+00 0.000000000000000e+00 0.000000000000000e+00
0.000000000000000e+00 0.000000000000000e+00 0.000000000000000e+00
0.000000000000000e+00 0.000000000000000e+00 0.000000000000000e+00
0.000000000000000e+00 0.000000000000000e+00 0.000000000000000e+00
0.000000000000000e+00 0.000000000000000e+00 0.000000000000000e+00
0.000000000000000e+00 0.000000000000000e+00 0.000000000000000e+00
0.000000000000000e+00 0.000000000000000e+00 0.000000000000000e+00
0.000000000000000e+00 0.000000000000000e+00 0.000000000000000e+00
0.000000000000000e+00 0.000000000000000e+00 0.000000000000000e+00
0.000000000000000e+00 0.000000000000000e+00 0.000000000000000e+00
0.000000000000000e+00 0.000000000000000e+00 0.000000000000000e+00
0.000000000000000e+00 0.000000000000000e+00 0.000000000000000e+00
0.000000000000000e+00 0.000000000000000e+00 0.000000000000000e+00
0.000000000000000e+00 0.000000000000000e+00 0.000000000000000e+00
0.000000000000000e+00 0.000000000000000e+00 0.000000000000000e+00
0.000000000000000e+00 0.000000000000000e+00 0.000000000000000e+00
0.000000000000000e+00 0.000000000000000e+00 0.000000000000000e+00
0.000000000000000e+00 0.000000000000000e+00 0.000000000000000e+00
0.000000000000000e+00 0.000000000000000e+00 0.000000000000000e+00
0.000000000000000e+00 0.000000000000000e+00 0.000000000000000e+00
0.000000000000000e+00 0.000000000000000e+00 0.000000000000000e+00
0.000000000000000e+00 0.000000000000000e+00 0.000000000000000e+00
0.000000000000000e+00 0.000000000000000e+00 0.000000000000000e+00
0.000000000000000e+00 0.000000000000000e+00 0.000000000000000e+00
0.000000000000000e+00 0.000000000000000e+00 0.000000000000000e+00
0.000000000000000e+00 0.000000000000000e+00 0.000000000000000e+00
0.000000000000000e+00 0.000000000000000e+00 0.000000000000000e+00
0.000000000000000e+00 0.000000000000000e+00 0.000000000000000e+00
0.000000000000000e+00 0.000000000000000e+00 0.000000000000000e+00
0.000000000000000e+00 0.000000000000000e+00 0.000000000000000e+00
0.000000000000000e+00 0.000000000000000e+00 0.000000000000000e+00
0.000000000000000e+00 0.000000000000000e+00 0.000000000000000e+00
0.000000000000000e+00 0.000000000000000e+00 0.000000000000000e+00
0.000000000000000e+00 0.000000000000000e+00 0.000000000000000e+00
0.000000000000000e+00 0.000000000000000e+00 0.000000000000000e+00
0.000000000000000e+00 0.000000000000000e+00 0.000000000000000e+00
0.000000000000000e+00 0.000000000000000e+00 0.000000000000000e+00
0.000000000000000e+00 0.000000000000000e+00 0.000000000000000e+00
0.000000000000000e+00 0.000000000000000e+00 0.000000000000000e+00
0.000000000000000e+00 0.000000000000000e+00 0.000000000000000e+00
0.000000000000000e+00 0.000000000000000e+00 0.000000000000000e+00
0.000000000000000e+00 0.000000000000000e+00 0.000000000000000e+00
0.000000000000000e+00 0.000000000000000e+00 0.000000000000000e+00
0.000000000000000e+00 0.000000000000000e+00 0.000000000000000e+00
0.000000000000000e+00 0.000000000000000e+00 0.000000000000000e+00
0.000000000000000e+00 0.000000000000000e+00 0.000000000000000e+00
0.000000000000000e+00 0.000000000000000e+00 0.000000000000000e+00
0.000000000000000e+00 0.000000000000000e+00 0.000000000000000e+00
0.000000000000000e+00 0.000000000000000e+00 0.000000000000000e+00
0.000000000000000e+00 0.000000000000000e+00 0.000000000000000e+00
0.000000000000000e+00 0.000000000000000e+00 0.000000000000000e+00
0.000000000000000e+00 0.000000000000000e+00 0.000000000000000e+00
0.000000000000000e+00 0.000000000000000e+00 0.000000000000000e+00
0.000000000000000e+00 0.000000000000000e+00 0.000000000000000e+00
0.000000000000000e+00 0.000000000000000e+00 0.000000000000000e+00
0.000000000000000e+00 0.000000000000000e+00 0.000000000000000e+00
0.000000000000000e+00 0.000000000000000e+00 0.000000000000000e+00
0.000000000000000e+00 0.000000000000000e+00 0.000000000000000e+00
0.000000000000000e+00 0.000000000000000e+00 0.000000000000000e+00
0.000000000000000e+00 0.000000000000000e+00 0.000000000000000e+00
0.000000000000000e+00 0.000000000000000e+00 0.000000000000000e+00
0.000000000000000e+00 0.000000000000000e+00 0.000000000000000e+00
0.000000000000000e+00 0.000000000000000e+00 0.000000000000000e+00
0.000000000000000e+00 0.000000000000000e+00 0.000000000000000e+00
0.000000000000000e+00 0.000000000000000e+00 0.000000000000000e+00
0.000000000000000e+00 0.000000000000000e+00 0.000000000000000e+00
0.000000000000000e+00 0.000000000000000e+00 0.000000000000000e+00
0.000000000000000e+00 0.000000000000000e+00 0.000000000000000e+00
0.000000000000000e+00 0.000000000000000e+00 0.000000000000000e+00
0.000000000000000e+00 0.000000000000000e+00 0.000000000000000e+00
0.000000000000000e+00 0.000000000000000e+00 0.000000000000000e+00
0.000000000000000e+00 0.000000000000000e+00 0.000000000000000e+00
0.000000000000000e+00 0.000000000000000e+00 0.000000000000000e+00
0.000000000000000e+00 0.000000000000000e+00 0.000000000000000e+00
0.000000000000000e+00 0.000000000000000e+00 0.000000000000000e+00
0.000000000000000e+00 0.000000000000000e+00 0.000000000000000e+00
0.000000000000000e+00 0.000000000000000e+00 0.000000000000000e+00
0.000000000000000e+00 0.000000000000000e+00 0.000000000000000e+00
0.000000000000000e+00 0.000000000000000e+00 0.000000000000000e+00
0.000000000000000e+00 0.000000000000000e+00 0.000000000000000e+00
0.000000000000000e+00 0.000000000000000e+00 0.000000000000000e+00
0.000000000000000e+00 0.000000000000000e+00 0.000000000000000e+00
0.000000000000000e+00 0.000000000000000e+00 0.000000000000000e+00
0.000000000000000e+00 0.000000000000000e+00 0.000000000000000e+00
0.000000000000000e+00 0.000000000000000e+00 0.000000000000000e+00
0.000000000000000e+00 0.000000000000000e+00 0.000000000000000e+00
0.000000000000000e+00 0.000000000000000e+00 0.000000000000000e+00
0.000000000000000e+00 0.000000000000000e+00 0.000000000000000e+00
0.000000000000000e+00 0.000000000000000e+00 0.000000000000000e+00
0.000000000000000e+00 0.000000000000000e+00 0.000000000000000e+00
0.000000000000000e+00 0.000000000000000e+00 0.000000000000000e+00
0.000000000000000e+00 0.000000000000000e+00 0.000000000000000e+00
0.000000000000000e+00 0.000000000000000e+00 0.000000000000000e+00
0.000000000000000e+00 0.000000000000000e+00 0.000000000000000e+00
0.000000000000000e+00 0.000000000000000e+00 0.000000000000000e+00
0.000000000000000e+00 0.000000000000000e+00 0.000000000000000e+00
0.000000000000000e+00 0.000000000000000e+00 0.000000000000000e+00
0.000000000000000e+00 0.000000000000000e+00 0.000000000000000e+00
0.000000000000000e+00 0.000000000000000e+00 0.000000000000000e+00
0.000000000000000e+00 0.000000000000000e+00 0.000000000000000e+00
0.000000000000000e+00 0.000000000000000e+00 0.000000000000000e+00
0.000000000000000e+00 0.000000000000000e+00 0.000000000000000e+00
0.000000000000000e+00 0.000000000000000e+00 0.000000000000000e+00
0.000000000000000e+00 0.000000000000000e+00 0.000000000000000e+00
0.000000000000000e+00 0.000000000000000e+00 0.000000000000000e+00
0.000000000000000e+00 0.000000000000000e+00 0.000000000000000e+00
0.000000000000000e+00 0.000000000000000e+00 0.000000000000000e+00
0.000000000000000e+00 0.000000000000000e+00 0.000000000000000e+00
0.000000000000000e+00 0.000000000000000e+00 0.000000000000000e+00
0.000000000000000e+00 0.000000000000000e+00 0.000000000000000e+00
0.000000000000000e+00 0.000000000000000e+00 0.000000000000000e+00
0.000000000000000e+00 0.000000000000000e+00 0.000000000000000e+00
0.000000000000000e+00 0.000000000000000e+00 0.000000000000000e+00
0.000000000000000e+00 0.000000000000000e+00 0.000000000000000e+00
0.000000000000000e+00 0.000000000000000e+00 0.000000000000000e+00
0.000000000000000e+00 0.000000000000000e+00 0.000000000000000e+00
0.000000000000000e+00 0.000000000000000e+00 0.000000000000000e+00
0.000000000000000e+00 0.000000000000000e+00 0.000000000000000e+00
0.000000000000000e+00 0.000000000000000e+00 0.000000000000000e+00
0.000000000000000e+00 0.000000000000000e+00 0.000000000000000e+00
0.000000000000000e+00 0.000000000000000e+00 0.000000000000000e+00
0.000000000000000e+00 0.000000000000000e+00 0.000000000000000e+00
0.000000000000000e+00 0.000000000000000e+00 0.000000000000000e+00
0.000000000000000e+00 0.000000000000000e+00 0.000000000000000e+00
0.000000000000000e+00 0.000000000000000e+00 0.000000000000000e+00
0.000000000000000e+00 0.000000000000000e+00 0.000000000000000e+00
0.000000000000000e+00 0.000000000000000e+00 0.000000000000000e+00
0.000000000000000e+00 0.000000000000000e+00 0.000000000000000e+00
0.000000000000000e+00 0.000000000000000e+00 0.000000000000000e+00
0.000000000000000e+00 0.000000000000000e+00 0.000000000000000e+00
0.000000000000000e+00 0.000000000000000e+00 0.000000000000000e+00
0.000000000000000e+00 0.000000000000000e+00 0.000000000000000e+00
0.000000000000000e+00 0.000000000000000e+00 0.000000000000000e+00
0.000000000000000e+00 0.000000000000000e+00 0.000000000000000e+00
0.000000000000000e+00 0.000000000000000e+00 0.000000000000000e+00
0.000000000000000e+00 0.000000000000000e+00 0.000000000000000e+00
0.000000000000000e+00 0.000000000000000e+00 0.000000000000000e+00
0.000000000000000e+00 0.000000000000000e+00 0.000000000000000e+00
0.000000000000000e+00 0.000000000000000e+00 0.000000000000000e+00
0.000000000000000e+00 0.000000000000000e+00 0.000000000000000e+00
0.000000000000000e+00 0.000000000000000e+00 0.000000000000000e+00
0.000000000000000e+00 0.000000000000000e+00 0.000000000000000e+00
0.000000000000000e+00 0.000000000000000e+00 0.000000000000000e+00
0.000000000000000e+00 0.000000000000000e+00 0.000000000000000e+00
0.000000000000000e+00 0.000000000000000e+00 0.000000000000000e+00
0.000000000000000e+00 0.000000000000000e+00 0.000000000000000e+00
0.000000000000000e+00 0.000000000000000e+00 0.000000000000000e+00
0.000000000000000e+00 0.000000000000000e+00 0.000000000000000e+00
0.000000000000000e+00 0.000000000000000e+00 0.000000000000000e+00
0.000000000000000e+00 0.000000000000000e+00 0.000000000000000e+00
0.000000000000000e+00 0.000000000000000e+00 0.000000000000000e+00
0.000000000000000e+00 0.000000000000000e+00 0.000000000000000e+00
0.000000000000000e+00 0.000000000000000e+00 0.000000000000000e+00
0.000000000000000e+00 0.000000000000000e+00 0.000000000000000e+00
0.000000000000000e+00 0.000000000000000e+00 0.000000000000000e+00
0.000000000000000e+00 0.000000000000000e+00 0.000000000000000e+00
0.000000000000000e+00 0.000000000000000e+00 0.000000000000000e+00
0.000000000000000e+00 0.000000000000000e+00 0.000000000000000e+00
0.000000000000000e+00 0.000000000000000e+00 0.000000000000000e+00
0.000000000000000e+00 0.000000000000000e+00 0.000000000000000e+00
0.000000000000000e+00 0.000000000000000e+00 0.000000000000000e+00
0.000000000000000e+00 0.000000000000000e+00 0.000000000000000e+00
0.000000000000000e+00 0.000000000000000e+00 0.000000000000000e+00
0.000000000000000e+00 0.000000000000000e+00 0.000000000000000e+00
0.000000000000000e+00 0.000000000000000e+00 0.000000000000000e+00
0.000000000000000e+00 0.000000000000000e+00 0.000000000000000e+00
0.000000000000000e+00 0.000000000000000e+00 0.000000000000000e+00
0.000000000000000e+00 0.000000000000000e+00 0.000000000000000e+00
0.000000000000000e+00 0.000000000000000e+00 0.000000000000000e+00
0.000000000000000e+00 0.000000000000000e+00 0.000000000000000e+00
0.000000000000000e+00 0.000000000000000e+00 0.000000000000000e+00
0.000000000000000e+00 0.000000000000000e+00 0.000000000000000e+00
0.000000000000000e+00 0.000000000000000e+00 0.000000000000000e+00
0.000000000000000e+00 0.000000000000000e+00 0.000000000000000e+00
0.000000000000000e+00 0.000000000000000e+00 0.000000000000000e+00
0.000000000000000e+00 0.000000000000000e+00 0.000000000000000e+00
0.000000000000000e+00 0.000000000000000e+00 0.000000000000000e+00
0.000000000000000e+00 0.000000000000000e+00 0.000000000000000e+00
0.000000000000000e+00 0.000000000000000e+00 0.000000000000000e+00
0.000000000000000e+00 0.000000000000000e+00 0.000000000000000e+00
0.000000000000000e+00 0.000000000000000e+00 0.000000000000000e+00
0.000000000000000e+00 0.000000000000000e+00 0.000000000000000e+00
0.000000000000000e+00 0.000000000000000e+00 0.000000000000000e+00
0.000000000000000e+00 0.000000000000000e+00 0.000000000000000e+00
0.000000000000000e+00 0.000000000000000e+00 0.000000000000000e+00
0.000000000000000e+00 0.000000000000000e+00 0.000000000000000e+00
0.000000000000000e+00 0.000000000000000e+00 0.000000000000000e+00
0.000000000000000e+00 0.000000000000000e+00 0.000000000000000e+00
0.000000000000000e+00 0.000000000000000e+00 0.000000000000000e+00
0.000000000000000e+00 0.000000000000000e+00 0.000000000000000e+00
0.000000000000000e+00 0.000000000000000e+00 0.000000000000000e+00
0.000000000000000e+00 0.000000000000000e+00 0.000000000000000e+00
0.000000000000000e+00 0.000000000000000e+00 0.000000000000000e+00
0.000000000000000e+00 0.000000000000000e+00 0.000000000000000e+00
0.000000000000000e+00 0.000000000000000e+00 0.000000000000000e+00
0.000000000000000e+00 0.000000000000000e+00 0.000000000000000e+00
0.000000000000000e+00 0.000000000000000e+00 0.000000000000000e+00
0.000000000000000e+00 0.000000000000000e+00 0.000000000000000e+00
0.000000000000000e+00 0.000000000000000e+00 0.000000000000000e+00
0.000000000000000e+00 0.000000000000000e+00 0.000000000000000e+00
0.000000000000000e+00 0.000000000000000e+00 0.000000000000000e+00
0.000000000000000e+00 0.000000000000000e+00 0.000000000000000e+00
0.000000000000000e+00 0.000000000000000e+00 0.000000000000000e+00
0.000000000000000e+00 0.000000000000000e+00 0.000000000000000e+00
0.000000000000000e+00 0.000000000000000e+00 0.000000000000000e+00
0.000000000000000e+00 0.000000000000000e+00 0.000000000000000e+00
0.000000000000000e+00 0.000000000000000e+00 0.000000000000000e+00
0.000000000000000e+00 0.000000000000000e+00 0.000000000000000e+00
0.000000000000000e+00 0.000000000000000e+00 0.000000000000000e+00
0.000000000000000e+00 0.000000000000000e+00 0.000000000000000e+00
0.000000000000000e+00 0.000000000000000e+00 0.000000000000000e+00
0.000000000000000e+00 0.000000000000000e+00 0.000000000000000e+00
0.000000000000000e+00 0.000000000000000e+00 0.000000000000000e+00
0.000000000000000e+00 0.000000000000000e+00 0.000000000000000e+00
0.000000000000000e+00 0.000000000000000e+00 0.000000000000000e+00
0.000000000000000e+00 0.000000000000000e+00 0.000000000000000e+00
0.000000000000000e+00 0.000000000000000e+00 0.000000000000000e+00
0.000000000000000e+00 0.000000000000000e+00 0.000000000000000e+00
0.000000000000000e+00 0.000000000000000e+00 0.000000000000000e+00
0.000000000000000e+00 0.000000000000000e+00 0.000000000000000e+00
0.000000000000000e+00 0.000000000000000e+00 0.000000000000000e+00
0.000000000000000e+00 0.000000000000000e+00 0.000000000000000e+00
0.000000000000000e+00 0.000000000000000e+00 0.000000000000000e+00
0.000000000000000e+00 0.000000000000000e+00 0.000000000000000e+00
0.000000000000000e+00 0.000000000000000e+00 0.000000000000000e+00
0.000000000000000e+00 0.000000000000000e+00 0.000000000000000e+00
0.000000000000000e+00 0.000000000000000e+00 0.000000000000000e+00
0.000000000000000e+00 0.000000000000000e+00 0.000000000000000e+00
0.000000000000000e+00 0.000000000000000e+00 0.000000000000000e+00
0.000000000000000e+00 0.000000000000000e+00 0.000000000000000e+00
0.000000000000000e+00 0.000000000000000e+00 0.000000000000000e+00
0.000000000000000e+00 0.000000000000000e+00 0.000000000000000e+00
0.000000000000000e+00 0.000000000000000e+00 0.000000000000000e+00
0.000000000000000e+00 0.000000000000000e+00 0.000000000000000e+00
0.000000000000000e+00 0.000000000000000e+00 0.000000000000000e+00
0.000000000000000e+00 0.000000000000000e+00 0.000000000000000e+00
0.000000000000000e+00 0.000000000000000e+00 0.000000000000000e+00
0.000000000000000e+00 0.000000000000000e+00 0.000000000000000e+00
0.000000000000000e+00 0.000000000000000e+00 0.000000000000000e+00
0.000000000000000e+00 0.000000000000000e+00 0.000000000000000e+00
0.000000000000000e+00 0.000000000000000e+00 0.000000000000000e+00
0.000000000000000e+00 0.000000000000000e+00 0.000000000000000e+00
0.000000000000000e+00 0.000000000000000e+00 0.000000000000000e+00
0.000000000000000e+00 0.000000000000000e+00 0.000000000000000e+00
0.000000000000000e+00 0.000000000000000e+00 0.000000000000000e+00
0.000000000000000e+00 0.000000000000000e+00 0.000000000000000e+00
0.000000000000000e+00 0.000000000000000e+00 0.000000000000000e+00
0.000000000000000e+00 0.000000000000000e+00 0.000000000000000e+00
0.000000000000000e+00 0.000000000000000e+00 0.000000000000000e+00
0.000000000000000e+00 0.000000000000000e+00 0.000000000000000e+00
0.000000000000000e+00 0.000000000000000e+00 0.000000000000000e+00
0.000000000000000e+00 0.000000000000000e+00 0.000000000000000e+00
0.000000000000000e+00 0.000000000000000e+00 0.000000000000000e+00
0.000000000000000e+00 0.000000000000000e+00 0.000000000000000e+00
0.000000000000000e+00 0.000000000000000e+00 0.000000000000000e+00
0.000000000000000e+00 0.000000000000000e+00 0.000000000000000e+00
0.000000000000000e+00 0.000000000000000e+00 0.000000000000000e+00
0.000000000000000e+00 0.000000000000000e+00 0.000000000000000e+00
0.000000000000000e+00 0.000000000000000e+00 0.000000000000000e+00
0.000000000000000e+00 0.000000000000000e+00 0.000000000000000e+00
0.000000000000000e+00 0.000000000000000e+00 0.000000000000000e+00
0.000000000000000e+00 0.000000000000000e+00 0.000000000000000e+00
0.000000000000000e+00 0.000000000000000e+00 0.000000000000000e+00
0.000000000000000e+00 0.000000000000000e+00 0.000000000000000e+00
0.000000000000000e+00 0.000000000000000e+00 0.000000000000000e+00
0.000000000000000e+00 0.000000000000000e+00 0.000000000000000e+00
0.000000000000000e+00 0.000000000000000e+00 0.000000000000000e+00
0.000000000000000e+00 0.000000000000000e+00 0.000000000000000e+00
0.000000000000000e+00 0.000000000000000e+00 0.000000000000000e+00
0.000000000000000e+00 0.000000000000000e+00 0.000000000000000e+00
0.000000000000000e+00 0.000000000000000e+00 0.000000000000000e+00
0.000000000000000e+00 0.000000000000000e+00 0.000000000000000e+00
0.000000000000000e+00 0.000000000000000e+00 0.000000000000000e+00
0.000000000000000e+00 0.000000000000000e+00 0.000000000000000e+00
0.000000000000000e+00 0.000000000000000e+00 0.000000000000000e+00
0.000000000000000e+00 0.000000000000000e+00 0.000000000000000e+00
0.000000000000000e+00 0.000000000000000e+00 0.000000000000000e+00
0.000000000000000e+00 0.000000000000000e+00 0.000000000000000e+00
0.000000000000000e+00 0.000000000000000e+00 0.000000000000000e+00
0.000000000000000e+00 0.000000000000000e+00 0.000000000000000e+00
0.000000000000000e+00 0.000000000000000e+00 0.000000000000000e+00
0.000000000000000e+00 0.000000000000000e+00 0.000000000000000e+00
0.000000000000000e+00 0.000000000000000e+00 0.000000000000000e+00
0.000000000000000e+00 0.000000000000000e+00 0.000000000000000e+00
0.000000000000000e+00 0.000000000000000e+00 0.000000000000000e+00
0.000000000000000e+00 0.000000000000000e+00 0.000000000000000e+00
0.000000000000000e+00 0.000000000000000e+00 0.000000000000000e+00
0.000000000000000e+00 0.000000000000000e+00 0.000000000000000e+00
0.000000000000000e+00 0.000000000000000e+00 0.000000000000000e+00
0.000000000000000e+00 0.000000000000000e+00 0.000000000000000e+00
0.000000000000000e+00 0.000000000000000e+00 0.000000000000000e+00
0.000000000000000e+00 0.000000000000000e+00 0.000000000000000e+00
0.000000000000000e+00 0.000000000000000e+00 0.000000000000000e+00
0.000000000000000e+00 0.000000000000000e+00 0.000000000000000e+00
0.000000000000000e+00 0.000000000000000e+00 0.000000000000000e+00
0.000000000000000e+00 0.000000000000000e+00 0.000000000000000e+00
0.000000000000000e+00 0.000000000000000e+00 0.000000000000000e+00
0.000000000000000e+00 0.000000000000000e+00 0.000000000000000e+00
0.000000000000000e+00 0.000000000000000e+00 0.000000000000000e+00
0.000000000000000e+00 0.000000000000000e+00 0.000000000000000e+00
0.000000000000000e+00 0.000000000000000e+00 0.000000000000000e+00
0.000000000000000e+00 0.000000000000000e+00 0.000000000000000e+00
0.000000000000000e+00 0.000000000000000e+00 0.000000000000000e+00
0.000000000000000e+00 0.000000000000000e+00 0.000000000000000e+00
0.000000000000000e+00 0.000000000000000e+00 0.000000000000000e+00
0.000000000000000e+00 0.000000000000000e+00 0.000000000000000e+00
0.000000000000000e+00 0.000000000000000e+00 0.000000000000000e+00
0.000000000000000e+00 0.000000000000000e+00 0.000000000000000e+00
0.000000000000000e+00 0.000000000000000e+00 0.000000000000000e+00
0.000000000000000e+00 0.000000000000000e+00 0.000000000000000e+00
0.000000000000000e+00 0.000000000000000e+00 0.000000000000000e+00
0.000000000000000e+00 0.000000000000000e+00 0.000000000000000e+00
0.000000000000000e+00 0.000000000000000e+00 0.000000000000000e+00
0.000000000000000e+00 0.000000000000000e+00 0.000000000000000e+00
0.000000000000000e+00 0.000000000000000e+00 0.000000000000000e+00
0.000000000000000e+00 0.000000000000000e+00 0.000000000000000e+00
0.000000000000000e+00 0.000000000000000e+00 0.000000000000000e+00
0.000000000000000e+00 0.000000000000000e+00 0.000000000000000e+00
0.000000000000000e+00 0.000000000000000e+00 0.000000000000000e+00
0.000000000000000e+00 0.000000000000000e+00 0.000000000000000e+00
0.000000000000000e+00 0.000000000000000e+00 0.000000000000000e+00
0.000000000000000e+00 0.000000000000000e+00 0.000000000000000e+00
0.000000000000000e+00 0.000000000000000e+00 0.000000000000000e+00
0.000000000000000e+00 0.000000000000000e+00 0.000000000000000e+00
0.000000000000000e+00 0.000000000000000e+00 0.000000000000000e+00
0.000000000000000e+00 0.000000000000000e+00 0.000000000000000e+00
0.000000000000000e+00 0.000000000000000e+00 0.000000000000000e+00
0.000000000000000e+00 0.000000000000000e+00 0.000000000000000e+00
0.000000000000000e+00 0.000000000000000e+00 0.000000000000000e+00
0.000000000000000e+00 0.000000000000000e+00 0.000000000000000e+00
0.000000000000000e+00 0.000000000000000e+00 0.000000000000000e+00
0.000000000000000e+00 0.000000000000000e+00 0.000000000000000e+00
0.000000000000000e+00 0.000000000000000e+00 0.000000000000000e+00
0.000000000000000e+00 0.000000000000000e+00 0.000000000000000e+00
0.000000000000000e+00 0.000000000000000e+00 0.000000000000000e+00
0.000000000000000e+00 0.000000000000000e+00 0.000000000000000e+00
0.000000000000000e+00 0.000000000000000e+00 0.000000000000000e+00
0.000000000000000e+00 0.000000000000000e+00 0.000000000000000e+00
0.000000000000000e+00 0.000000000000000e+00 0.000000000000000e+00
0.000000000000000e+00 0.000000000000000e+00 0.000000000000000e+00
0.000000000000000e+00 0.000000000000000e+00 0.000000000000000e+00
0.000000000000000e+00 0.000000000000000e+00 0.000000000000000e+00
0.000000000000000e+00 0.000000000000000e+00 0.000000000000000e+00
0.000000000000000e+00 0.000000000000000e+00 0.000000000000000e+00
0.000000000000000e+00 0.000000000000000e+00 0.000000000000000e+00
0.000000000000000e+00 0.000000000000000e+00 0.000000000000000e+00
0.000000000000000e+00 0.000000000000000e+00 0.000000000000000e+00
0.000000000000000e+00 0.000000000000000e+00 0.000000000000000e+00
0.000000000000000e+00 0.000000000000000e+00 0.000000000000000e+00
0.000000000000000e+00 0.000000000000000e+00 0.000000000000000e+00
0.000000000000000e+00 0.000000000000000e+00 0.000000000000000e+00
0.000000000000000e+00 0.000000000000000e+00 0.000000000000000e+00
0.000000000000000e+00 0.000000000000000e+00 0.000000000000000e+00
0.000000000000000e+00 0.000000000000000e+00 0.000000000000000e+00
0.000000000000000e+00 0.000000000000000e+00 0.000000000000000e+00
0.000000000000000e+00 0.000000000000000e+00 0.000000000000000e+00
0.000000000000000e+00 0.000000000000000e+00 0.000000000000000e+00
0.000000000000000e+00 0.000000000000000e+00 0.000000000000000e+00
0.000000000000000e+00 0.000000000000000e+00 0.000000000000000e+00
0.000000000000000e+00 0.000000000000000e+00 0.000000000000000e+00
0.000000000000000e+00 0.000000000000000e+00 0.000000000000000e+00
0.000000000000000e+00 0.000000000000000e+00 0.000000000000000e+00
0.000000000000000e+00 0.000000000000000e+00 0.000000000000000e+00
0.000000000000000e+00 0.000000000000000e+00 0.000000000000000e+00
0.000000000000000e+00 0.000000000000000e+00 0.000000000000000e+00
0.000000000000000e+00 0.000000000000000e+00 0.000000000000000e+00
0.000000000000000e+00 0.000000000000000e+00 0.000000000000000e+00
0.000000000000000e+00 0.000000000000000e+00 0.000000000000000e+00
0.000000000000000e+00 0.000000000000000e+00 0.000000000000000e+00
0.000000000000000e+00 0.000000000000000e+00 0.000000000000000e+00
0.000000000000000e+00 0.000000000000000e+00 0.000000000000000e+00
0.000000000000000e+00 0.000000000000000e+00 0.000000000000000e+00
0.000000000000000e+00 0.000000000000000e+00 0.000000000000000e+00
0.000000000000000e+00 0.000000000000000e+00 0.000000000000000e+00
0.000000000000000e+00 0.000000000000000e+00 0.000000000000000e+00
0.000000000000000e+00 0.000000000000000e+00 0.000000000000000e+00
0.000000000000000e+00 0.000000000000000e+00 0.000000000000000e+00
0.000000000000000e+00 0.000000000000000e+00 0.000000000000000e+00
0.000000000000000e+00 0.000000000000000e+00 0.000000000000000e+00
0.000000000000000e+00 0.000000000000000e+00 0.000000000000000e+00
0.000000000000000e+00 0.000000000000000e+00 0.000000000000000e+00
0.000000000000000e+00 0.000000000000000e+00 0.000000000000000e+00
0.000000000000000e+00 0.000000000000000e+00 0.000000000000000e+00
0.000000000000000e+00 0.000000000000000e+00 0.000000000000000e+00
0.000000000000000e+00 0.000000000000000e+00 0.000000000000000e+00
0.000000000000000e+00 0.000000000000000e+00 0.000000000000000e+00
0.000000000000000e+00 0.000000000000000e+00 0.000000000000000e+00
0.000000000000000e+00 0.000000000000000e+00 0.000000000000000e+00
0.000000000000000e+00 0.000000000000000e+00 0.000000000000000e+00
0.000000000000000e+00 0.000000000000000e+00 0.000000000000000e+00
0.000000000000000e+00 0.000000000000000e+00 0.000000000000000e+00
0.000000000000000e+00 0.000000000000000e+00 0.000000000000000e+00
0.000000000000000e+00 0.000000000000000e+00 0.000000000000000e+00
0.000000000000000e+00 0.000000000000000e+00 0.000000000000000e+00
0.000000000000000e+00 0.000000000000000e+00 0.000000000000000e+00
0.000000000000000e+00 0.000000000000000e+00 0.000000000000000e+00
0.000000000000000e+00 0.000000000000000e+00 0.000000000000000e+00
0.000000000000000e+00 0.000000000000000e+00 0.000000000000000e+00
0.000000000000000e+00 0.000000000000000e+00 0.000000000000000e+00
0.000000000000000e+00 0.000000000000000e+00 0.000000000000000e+00
0.000000000000000e+00 0.000000000000000e+00 0.000000000000000e+00
0.000000000000000e+00 0.000000000000000e+00 0.000000000000000e+00
0.000000000000000e+00 0.000000000000000e+00 0.000000000000000e+00
0.000000000000000e+00 0.000000000000000e+00 0.000000000000000e+00
0.000000000000000e+00 0.000000000000000e+00 0.000000000000000e+00
0.000000000000000e+00 0.000000000000000e+00 0.000000000000000e+00
0.000000000000000e+00 0.000000000000000e+00 0.000000000000000e+00
0.000000000000000e+00 0.000000000000000e+00 0.000000000000000e+00
0.000000000000000e+00 0.000000000000000e+00 0.000000000000000e+00
0.000000000000000e+00 0.000000000000000e+00 0.000000000000000e+00
0.000000000000000e+00 0.000000000000000e+00 0.000000000000000e+00
0.000000000000000e+00 0.000000000000000e+00 0.000000000000000e+00
0.000000000000000e+00 0.000000000000000e+00 0.000000000000000e+00
0.000000000000000e+00 0.000000000000000e+00 0.000000000000000e+00
0.000000000000000e+00 0.000000000000000e+00 0.000000000000000e+00
0.000000000000000e+00 0.000000000000000e+00 0.000000000000000e+00
0.000000000000000e+00 0.000000000000000e+00 0.000000000000000e+00
0.000000000000000e+00 0.000000000000000e+00 0.000000000000000e+00
0.000000000000000e+00 0.000000000000000e+00 0.000000000000000e+00
0.000000000000000e+00 0.000000000000000e+00 0.000000000000000e+00
0.000000000000000e+00 0.000000000000000e+00 0.000000000000000e+00
0.000000000000000e+00 0.000000000000000e+00 0.000000000000000e+00
0.000000000000000e+00 0.000000000000000e+00 0.000000000000000e+00
0.000000000000000e+00 0.000000000000000e+00 0.000000000000000e+00
0.000000000000000e+00 0.000000000000000e+00 0.000000000000000e+00
0.000000000000000e+00 0.000000000000000e+00 0.000000000000000e+00
0.000000000000000e+00 0.000000000000000e+00 0.000000000000000e+00
0.000000000000000e+00 0.000000000000000e+00 0.000000000000000e+00
0.000000000000000e+00 0.000000000000000e+00 0.000000000000000e+00
0.000000000000000e+00 0.000000000000000e+00 0.000000000000000e+00
0.000000000000000e+00 0.000000000000000e+00 0.000000000000000e+00
0.000000000000000e+00 0.000000000000000e+00 0.000000000000000e+00
0.000000000000000e+00 0.000000000000000e+00 0.000000000000000e+00
0.000000000000000e+00 0.000000000000000e+00 0.000000000000000e+00
0.000000000000000e+00 0.000000000000000e+00 0.000000000000000e+00
0.000000000000000e+00 0.000000000000000e+00 0.000000000000000e+00
0.000000000000000e+00 0.000000000000000e+00 0.000000000000000e+00
0.000000000000000e+00 0.000000000000000e+00 0.000000000000000e+00
0.000000000000000e+00 0.000000000000000e+00 0.000000000000000e+00
0.000000000000000e+00 0.000000000000000e+00 0.000000000000000e+00
0.000000000000000e+00 0.000000000000000e+00 0.000000000000000e+00
0.000000000000000e+00 0.000000000000000e+00 0.000000000000000e+00
0.000000000000000e+00 0.000000000000000e+00 0.000000000000000e+00
0.000000000000000e+00 0.000000000000000e+00 0.000000000000000e+00
0.000000000000000e+00 0.000000000000000e+00 0.000000000000000e+00
0.000000000000000e+00 0.000000000000000e+00 0.000000000000000e+00
0.000000000000000e+00 0.000000000000000e+00 0.000000000000000e+00
0.000000000000000e+00 0.000000000000000e+00 0.000000000000000e+00
0.000000000000000e+00 0.000000000000000e+00 0.000000000000000e+00
0.000000000000000e+00 0.000000000000000e+00 0.000000000000000e+00
0.000000000000000e+00 0.000000000000000e+00 0.000000000000000e+00
0.000000000000000e+00 0.000000000000000e+00 0.000000000000000e+00
0.000000000000000e+00 0.000000000000000e+00 0.000000000000000e+00
0.000000000000000e+00 0.000000000000000e+00 0.000000000000000e+00
0.000000000000000e+00 0.000000000000000e+00 0.000000000000000e+00
0.000000000000000e+00 0.000000000000000e+00 0.000000000000000e+00
0.000000000000000e+00 0.000000000000000e+00 0.000000000000000e+00
0.000000000000000e+00 0.000000000000000e+00 0.000000000000000e+00
0.000000000000000e+00 0.000000000000000e+00 0.000000000000000e+00
0.000000000000000e+00 0.000000000000000e+00 0.000000000000000e+00
0.000000000000000e+00 0.000000000000000e+00 0.000000000000000e+00
0.000000000000000e+00 0.000000000000000e+00 0.000000000000000e+00
0.000000000000000e+00 0.000000000000000e+00 0.000000000000000e+00
0.000000000000000e+00 0.000000000000000e+00 0.000000000000000e+00
0.000000000000000e+00 0.000000000000000e+00 0.000000000000000e+00
0.000000000000000e+00 0.000000000000000e+00 0.000000000000000e+00
0.000000000000000e+00 0.000000000000000e+00 0.000000000000000e+00
0.000000000000000e+00 0.000000000000000e+00 0.000000000000000e+00
0.000000000000000e+00 0.000000000000000e+00 0.000000000000000e+00
0.000000000000000e+00 0.000000000000000e+00 0.000000000000000e+00
0.000000000000000e+00 0.000000000000000e+00 0.000000000000000e+00
0.000000000000000e+00 0.000000000000000e+00 0.000000000000000e+00
0.000000000000000e+00 0.000000000000000e+00 0.000000000000000e+00
0.000000000000000e+00 0.000000000000000e+00 0.000000000000000e+00
0.000000000000000e+00 0.000000000000000e+00 0.000000000000000e+00
0.000000000000000e+00 0.000000000000000e+00 0.000000000000000e+00
0.000000000000000e+00 0.000000000000000e+00 0.000000000000000e+00
0.000000000000000e+00 0.000000000000000e+00 0.000000000000000e+00
0.000000000000000e+00 0.000000000000000e+00 0.000000000000000e+00
0.000000000000000e+00 0.000000000000000e+00 0.000000000000000e+00
0.000000000000000e+00 0.000000000000000e+00 0.000000000000000e+00
0.000000000000000e+00 0.000000000000000e+00 0.000000000000000e+00
0.000000000000000e+00 0.000000000000000e+00 0.000000000000000e+00
0.000000000000000e+00 0.000000000000000e+00 0.000000000000000e+00
0.000000000000000e+00 0.000000000000000e+00 0.000000000000000e+00
0.000000000000000e+00 0.000000000000000e+00 0.000000000000000e+00
0.000000000000000e+00 0.000000000000000e+00 0.000000000000000e+00
0.000000000000000e+00 0.000000000000000e+00 0.000000000000000e+00
0.000000000000000e+00 0.000000000000000e+00 0.000000000000000e+00
0.000000000000000e+00 0.000000000000000e+00 0.000000000000000e+00
0.000000000000000e+00 0.000000000000000e+00 0.000000000000000e+00
0.000000000000000e+00 0.000000000000000e+00 0.000000000000000e+00
0.000000000000000e+00 0.000000000000000e+00 0.000000000000000e+00
0.000000000000000e+00 0.000000000000000e+00 0.000000000000000e+00
0.000000000000000e+00 0.000000000000000e+00 0.000000000000000e+00
0.000000000000000e+00 0.000000000000000e+00 0.000000000000000e+00
0.000000000000000e+00 0.000000000000000e+00 0.000000000000000e+00
0.000000000000000e+00 0.000000000000000e+00 0.000000000000000e+00
0.000000000000000e+00 0.000000000000000e+00 0.000000000000000e+00
0.000000000000000e+00 0.000000000000000e+00 0.000000000000000e+00
0.000000000000000e+00 0.000000000000000e+00 0.000000000000000e+00
0.000000000000000e+00 0.000000000000000e+00 0.000000000000000e+00
0.000000000000000e+00 0.000000000000000e+00 0.000000000000000e+00
0.000000000000000e+00 0.000000000000000e+00 0.000000000000000e+00
0.000000000000000e+00 0.000000000000000e+00 0.000000000000000e+00
0.000000000000000e+00 0.000000000000000e+00 0.000000000000000e+00
0.000000000000000e+00 0.000000000000000e+00 0.000000000000000e+00
0.000000000000000e+00 0.000000000000000e+00 0.000000000000000e+00
0.000000000000000e+00 0.000000000000000e+00 0.000000000000000e+00
0.000000000000000e+00 0.000000000000000e+00 0.000000000000000e+00
0.000000000000000e+00 0.000000000000000e+00 0.000000000000000e+00
0.000000000000000e+00 0.000000000000000e+00 0.000000000000000e+00
0.000000000000000e+00 0.000000000000000e+00 0.000000000000000e+00
0.000000000000000e+00 0.000000000000000e+00 0.000000000000000e+00
0.000000000000000e+00 0.000000000000000e+00 0.000000000000000e+00
0.000000000000000e+00 0.000000000000000e+00 0.000000000000000e+00
0.000000000000000e+00 0.000000000000000e+00 0.000000000000000e+00
0.000000000000000e+00 0.000000000000000e+00 0.000000000000000e+00
0.000000000000000e+00 0.000000000000000e+00 0.000000000000000e+00
0.000000000000000e+00 0.000000000000000e+00 0.000000000000000e+00
0.000000000000000e+00 0.000000000000000e+00 0.000000000000000e+00
0.000000000000000e+00 0.000000000000000e+00 0.000000000000000e+00
0.000000000000000e+00 0.000000000000000e+00 0.000000000000000e+00
0.000000000000000e+00 0.000000000000000e+00 0.000000000000000e+00
0.000000000000000e+00 0.000000000000000e+00 0.000000000000000e+00
0.000000000000000e+00 0.000000000000000e+00 0.000000000000000e+00
0.000000000000000e+00 0.000000000000000e+00 0.000000000000000e+00
0.000000000000000e+00 0.000000000000000e+00 0.000000000000000e+00
0.000000000000000e+00 0.000000000000000e+00 0.000000000000000e+00
0.000000000000000e+00 0.000000000000000e+00 0.000000000000000e+00
0.000000000000000e+00 0.000000000000000e+00 0.000000000000000e+00
0.000000000000000e+00 0.000000000000000e+00 0.000000000000000e+00
0.000000000000000e+00 0.000000000000000e+00 0.000000000000000e+00
0.000000000000000e+00 0.000000000000000e+00 0.000000000000000e+00
0.000000000000000e+00 0.000000000000000e+00 0.000000000000000e+00
0.000000000000000e+00 0.000000000000000e+00 0.000000000000000e+00
0.000000000000000e+00 0.000000000000000e+00 0.000000000000000e+00
0.000000000000000e+00 0.000000000000000e+00 0.000000000000000e+00
0.000000000000000e+00 0.000000000000000e+00 0.000000000000000e+00
0.000000000000000e+00 0.000000000000000e+00 0.000000000000000e+00
0.000000000000000e+00 0.000000000000000e+00 0.000000000000000e+00
0.000000000000000e+00 0.000000000000000e+00 0.000000000000000e+00
0.000000000000000e+00 0.000000000000000e+00 0.000000000000000e+00
0.000000000000000e+00 0.000000000000000e+00 0.000000000000000e+00
0.000000000000000e+00 0.000000000000000e+00 0.000000000000000e+00
0.000000000000000e+00 0.000000000000000e+00 0.000000000000000e+00
0.000000000000000e+00 0.000000000000000e+00 0.000000000000000e+00
0.000000000000000e+00 0.000000000000000e+00 0.000000000000000e+00
0.000000000000000e+00 0.000000000000000e+00 0.000000000000000e+00
0.000000000000000e+00 0.000000000000000e+00 0.000000000000000e+00
0.000000000000000e+00 0.000000000000000e+00 0.000000000000000e+00
0.000000000000000e+00 0.000000000000000e+00 0.000000000000000e+00
0.000000000000000e+00 0.000000000000000e+00 0.000000000000000e+00
0.000000000000000e+00 0.000000000000000e+00 0.000000000000000e+00
0.000000000000000e+00 0.000000000000000e+00 0.000000000000000e+00
0.000000000000000e+00 0.000000000000000e+00 0.000000000000000e+00
0.000000000000000e+00 0.000000000000000e+00 0.000000000000000e+00
0.000000000000000e+00 0.000000000000000e+00 0.000000000000000e+00
0.000000000000000e+00 0.000000000000000e+00 0.000000000000000e+00
0.000000000000000e+00 0.000000000000000e+00 0.000000000000000e+00
0.000000000000000e+00 0.000000000000000e+00 0.000000000000000e+00
0.000000000000000e+00 0.000000000000000e+00 0.000000000000000e+00
0.000000000000000e+00 0.000000000000000e+00 0.000000000000000e+00
0.000000000000000e+00 0.000000000000000e+00 0.000000000000000e+00
0.000000000000000e+00 0.000000000000000e+00 0.000000000000000e+00
0.000000000000000e+00 0.000000000000000e+00 0.000000000000000e+00
0.000000000000000e+00 0.000000000000000e+00 0.000000000000000e+00
0.000000000000000e+00 0.000000000000000e+00 0.000000000000000e+00
0.000000000000000e+00 0.000000000000000e+00 0.000000000000000e+00
0.000000000000000e+00 0.000000000000000e+00 0.000000000000000e+00
0.000000000000000e+00 0.000000000000000e+00 0.000000000000000e+00
0.000000000000000e+00 0.000000000000000e+00 0.000000000000000e+00
0.000000000000000e+00 0.000000000000000e+00 0.000000000000000e+00
0.000000000000000e+00 0.000000000000000e+00 0.000000000000000e+00
0.000000000000000e+00 0.000000000000000e+00 0.000000000000000e+00
0.000000000000000e+00 0.000000000000000e+00 0.000000000000000e+00
0.000000000000000e+00 0.000000000000000e+00 0.000000000000000e+00
0.000000000000000e+00 0.000000000000000e+00 0.000000000000000e+00
0.000000000000000e+00 0.000000000000000e+00 0.000000000000000e+00
0.000000000000000e+00 0.000000000000000e+00 0.000000000000000e+00
0.000000000000000e+00 0.000000000000000e+00 0.000000000000000e+00
0.000000000000000e+00 0.000000000000000e+00 0.000000000000000e+00
0.000000000000000e+00 0.000000000000000e+00 0.000000000000000e+00
0.000000000000000e+00 0.000000000000000e+00 0.000000000000000e+00
0.000000000000000e+00 0.000000000000000e+00 0.000000000000000e+00
0.000000000000000e+00 0.000000000000000e+00 0.000000000000000e+00
0.000000000000000e+00 0.000000000000000e+00 0.000000000000000e+00
0.000000000000000e+00 0.000000000000000e+00 0.000000000000000e+00
0.000000000000000e+00 0.000000000000000e+00 0.000000000000000e+00
0.000000000000000e+00 0.000000000000000e+00 0.000000000000000e+00
0.000000000000000e+00 0.000000000000000e+00 0.000000000000000e+00
0.000000000000000e+00 0.000000000000000e+00 0.000000000000000e+00
0.000000000000000e+00 0.000000000000000e+00 0.000000000000000e+00
0.000000000000000e+00 0.000000000000000e+00 0.000000000000000e+00
0.000000000000000e+00 0.000000000000000e+00 0.000000000000000e+00
0.000000000000000e+00 0.000000000000000e+00 0.000000000000000e+00
0.000000000000000e+00 0.000000000000000e+00 0.000000000000000e+00
0.000000000000000e+00 0.000000000000000e+00 0.000000000000000e+00
0.000000000000000e+00 0.000000000000000e+00 0.000000000000000e+00
0.000000000000000e+00 0.000000000000000e+00 0.000000000000000e+00
0.000000000000000e+00 0.000000000000000e+00 0.000000000000000e+00
0.000000000000000e+00 0.000000000000000e+00 0.000000000000000e+00
0.000000000000000e+00 0.000000000000000e+00 0.000000000000000e+00
0.000000000000000e+00 0.000000000000000e+00 0.000000000000000e+00
0.000000000000000e+00 0.000000000000000e+00 0.000000000000000e+00
0.000000000000000e+00 0.000000000000000e+00 0.000000000000000e+00
0.000000000000000e+00 0.000000000000000e+00 0.000000000000000e+00
0.000000000000000e+00 0.000000000000000e+00 0.000000000000000e+00
0.000000000000000e+00 0.000000000000000e+00 0.000000000000000e+00
0.000000000000000e+00 0.000000000000000e+00 0.000000000000000e+00
0.000000000000000e+00 0.000000000000000e+00 0.000000000000000e+00
0.000000000000000e+00 0.000000000000000e+00 0.000000000000000e+00
0.000000000000000e+00 0.000000000000000e+00 0.000000000000000e+00
0.000000000000000e+00 0.000000000000000e+00 0.000000000000000e+00
0.000000000000000e+00 0.000000000000000e+00 0.000000000000000e+00
0.000000000000000e+00 0.000000000000000e+00 0.000000000000000e+00
0.000000000000000e+00 0.000000000000000e+00 0.000000000000000e+00
0.000000000000000e+00 0.000000000000000e+00 0.000000000000000e+00
0.000000000000000e+00 0.000000000000000e+00 0.000000000000000e+00
0.000000000000000e+00 0.000000000000000e+00 0.000000000000000e+00
0.000000000000000e+00 0.000000000000000e+00 0.000000000000000e+00
0.000000000000000e+00 0.000000000000000e+00 0.000000000000000e+00
0.000000000000000e+00 0.000000000000000e+00 0.000000000000000e+00
0.000000000000000e+00 0.000000000000000e+00 0.000000000000000e+00
0.000000000000000e+00 0.000000000000000e+00 0.000000000000000e+00
0.000000000000000e+00 0.000000000000000e+00 0.000000000000000e+00
0.000000000000000e+00 0.000000000000000e+00 0.000000000000000e+00
0.000000000000000e+00 0.000000000000000e+00 0.000000000000000e+00
0.000000000000000e+00 0.000000000000000e+00 0.000000000000000e+00
0.000000000000000e+00 0.000000000000000e+00 0.000000000000000e+00
0.000000000000000e+00 0.000000000000000e+00 0.000000000000000e+00
0.000000000000000e+00 0.000000000000000e+00 0.000000000000000e+00
0.000000000000000e+00 0.000000000000000e+00 0.000000000000000e+00
0.000000000000000e+00 0.000000000000000e+00 0.000000000000000e+00
0.000000000000000e+00 0.000000000000000e+00 0.000000000000000e+00
0.000000000000000e+00 0.000000000000000e+00 0.000000000000000e+00
0.000000000000000e+00 0.000000000000000e+00 0.000000000000000e+00
0.000000000000000e+00 0.000000000000000e+00 0.000000000000000e+00
0.000000000000000e+00 0.000000000000000e+00 0.000000000000000e+00
0.000000000000000e+00 0.000000000000000e+00 0.000000000000000e+00
0.000000000000000e+00 0.000000000000000e+00 0.000000000000000e+00
0.000000000000000e+00 0.000000000000000e+00 0.000000000000000e+00
0.000000000000000e+00 0.000000000000000e+00 0.000000000000000e+00
0.000000000000000e+00 0.000000000000000e+00 0.000000000000000e+00
0.000000000000000e+00 0.000000000000000e+00 0.000000000000000e+00
0.000000000000000e+00 0.000000000000000e+00 0.000000000000000e+00
0.000000000000000e+00 0.000000000000000e+00 0.000000000000000e+00
0.000000000000000e+00 0.000000000000000e+00 0.000000000000000e+00
0.000000000000000e+00 0.000000000000000e+00 0.000000000000000e+00
0.000000000000000e+00 0.000000000000000e+00 0.000000000000000e+00
0.000000000000000e+00 0.000000000000000e+00 0.000000000000000e+00
0.000000000000000e+00 0.000000000000000e+00 0.000000000000000e+00
0.000000000000000e+00 0.000000000000000e+00 0.000000000000000e+00
0.000000000000000e+00 0.000000000000000e+00 0.000000000000000e+00
0.000000000000000e+00 0.000000000000000e+00 0.000000000000000e+00
0.000000000000000e+00 0.000000000000000e+00 0.000000000000000e+00
0.000000000000000e+00 0.000000000000000e+00 0.000000000000000e+00
0.000000000000000e+00 0.000000000000000e+00 0.000000000000000e+00
0.000000000000000e+00 0.000000000000000e+00 0.000000000000000e+00
0.000000000000000e+00 0.000000000000000e+00 0.000000000000000e+00
0.000000000000000e+00 0.000000000000000e+00 0.000000000000000e+00
0.000000000000000e+00 0.000000000000000e+00 0.000000000000000e+00
0.000000000000000e+00 0.000000000000000e+00 0.000000000000000e+00
0.000000000000000e+00 0.000000000000000e+00 0.000000000000000e+00
0.000000000000000e+00 0.000000000000000e+00 0.000000000000000e+00
0.000000000000000e+00 0.000000000000000e+00 0.000000000000000e+00
0.000000000000000e+00 0.000000000000000e+00 0.000000000000000e+00
0.000000000000000e+00 0.000000000000000e+00 0.000000000000000e+00
0.000000000000000e+00 0.000000000000000e+00 0.000000000000000e+00
0.000000000000000e+00 0.000000000000000e+00 0.000000000000000e+00
0.000000000000000e+00 0.000000000000000e+00 0.000000000000000e+00
0.000000000000000e+00 0.000000000000000e+00 0.000000000000000e+00
0.000000000000000e+00 0.000000000000000e+00 0.000000000000000e+00
0.000000000000000e+00 0.000000000000000e+00 0.000000000000000e+00
0.000000000000000e+00 0.000000000000000e+00 0.000000000000000e+00
0.000000000000000e+00 0.000000000000000e+00 0.000000000000000e+00
0.000000000000000e+00 0.000000000000000e+00 0.000000000000000e+00
0.000000000000000e+00 0.000000000000000e+00 0.000000000000000e+00
0.000000000000000e+00 0.000000000000000e+00 0.000000000000000e+00
0.000000000000000e+00 0.000000000000000e+00 0.000000000000000e+00
0.000000000000000e+00 0.000000000000000e+00 0.000000000000000e+00
0.000000000000000e+00 0.000000000000000e+00 0.000000000000000e+00
0.000000000000000e+00 0.000000000000000e+00 0.000000000000000e+00
0.000000000000000e+00 0.000000000000000e+00 0.000000000000000e+00
0.000000000000000e+00 0.000000000000000e+00 0.000000000000000e+00
0.000000000000000e+00 0.000000000000000e+00 0.000000000000000e+00
0.000000000000000e+00 0.000000000000000e+00 0.000000000000000e+00
0.000000000000000e+00 0.000000000000000e+00 0.000000000000000e+00
0.000000000000000e+00 0.000000000000000e+00 0.000000000000000e+00
0.000000000000000e+00 0.000000000000000e+00 0.000000000000000e+00
0.000000000000000e+00 0.000000000000000e+00 0.000000000000000e+00
0.000000000000000e+00 0.000000000000000e+00 0.000000000000000e+00
0.000000000000000e+00 0.000000000000000e+00 0.000000000000000e+00
0.000000000000000e+00 0.000000000000000e+00 0.000000000000000e+00
0.000000000000000e+00 0.000000000000000e+00 0.000000000000000e+00
0.000000000000000e+00 0.000000000000000e+00 0.000000000000000e+00
0.000000000000000e+00 0.000000000000000e+00 0.000000000000000e+00
0.000000000000000e+00 0.000000000000000e+00 0.000000000000000e+00
0.000000000000000e+00 0.000000000000000e+00 0.000000000000000e+00
0.000000000000000e+00 0.000000000000000e+00 0.000000000000000e+00
0.000000000000000e+00 0.000000000000000e+00 0.000000000000000e+00
0.000000000000000e+00 0.000000000000000e+00 0.000000000000000e+00
0.000000000000000e+00 0.000000000000000e+00 0.000000000000000e+00
0.000000000000000e+00 0.000000000000000e+00 0.000000000000000e+00
0.000000000000000e+00 0.000000000000000e+00 0.000000000000000e+00
0.000000000000000e+00 0.000000000000000e+00 0.000000000000000e+00
0.000000000000000e+00 0.000000000000000e+00 0.000000000000000e+00
0.000000000000000e+00 0.000000000000000e+00 0.000000000000000e+00
0.000000000000000e+00 0.000000000000000e+00 0.000000000000000e+00
0.000000000000000e+00 0.000000000000000e+00 0.000000000000000e+00
0.000000000000000e+00 0.000000000000000e+00 0.000000000000000e+00
0.000000000000000e+00 0.000000000000000e+00 0.000000000000000e+00
0.000000000000000e+00 0.000000000000000e+00 0.000000000000000e+00
0.000000000000000e+00 0.000000000000000e+00 0.000000000000000e+00
0.000000000000000e+00 0.000000000000000e+00 0.000000000000000e+00
0.000000000000000e+00 0.000000000000000e+00 0.000000000000000e+00
0.000000000000000e+00 0.000000000000000e+00 0.000000000000000e+00
0.000000000000000e+00 0.000000000000000e+00 0.000000000000000e+00
0.000000000000000e+00 0.000000000000000e+00 0.000000000000000e+00
0.000000000000000e+00 0.000000000000000e+00 0.000000000000000e+00
0.000000000000000e+00 0.000000000000000e+00 0.000000000000000e+00
0.000000000000000e+00 0.000000000000000e+00 0.000000000000000e+00
0.000000000000000e+00 0.000000000000000e+00 0.000000000000000e+00
0.000000000000000e+00 0.000000000000000e+00 0.000000000000000e+00
0.000000000000000e+00 0.000000000000000e+00 0.000000000000000e+00
0.000000000000000e+00 0.000000000000000e+00 0.000000000000000e+00
0.000000000000000e+00 0.000000000000000e+00 0.000000000000000e+00
0.000000000000000e+00 0.000000000000000e+00 0.000000000000000e+00
0.000000000000000e+00 0.000000000000000e+00 0.000000000000000e+00
0.000000000000000e+00 0.000000000000000e+00 0.000000000000000e+00
0.000000000000000e+00 0.000000000000000e+00 0.000000000000000e+00
0.000000000000000e+00 0.000000000000000e+00 0.000000000000000e+00
0.000000000000000e+00 0.000000000000000e+00 0.000000000000000e+00
0.000000000000000e+00 0.000000000000000e+00 0.000000000000000e+00
0.000000000000000e+00 0.000000000000000e+00 0.000000000000000e+00
0.000000000000000e+00 0.000000000000000e+00 0.000000000000000e+00
0.000000000000000e+00 0.000000000000000e+00 0.000000000000000e+00
0.000000000000000e+00 0.000000000000000e+00 0.000000000000000e+00
0.000000000000000e+00 0.000000000000000e+00 0.000000000000000e+00
0.000000000000000e+00 0.000000000000000e+00 0.000000000000000e+00
0.000000000000000e+00 0.000000000000000e+00 0.000000000000000e+00
0.000000000000000e+00 0.000000000000000e+00 0.000000000000000e+00
0.000000000000000e+00 0.000000000000000e+00 0.000000000000000e+00
0.000000000000000e+00 0.000000000000000e+00 0.000000000000000e+00
0.000000000000000e+00 0.000000000000000e+00 0.000000000000000e+00
0.000000000000000e+00 0.000000000000000e+00 0.000000000000000e+00
0.000000000000000e+00 0.000000000000000e+00 0.000000000000000e+00
0.000000000000000e+00 0.000000000000000e+00 0.000000000000000e+00
0.000000000000000e+00 0.000000000000000e+00 0.000000000000000e+00
0.000000000000000e+00 0.000000000000000e+00 0.000000000000000e+00
0.000000000000000e+00 0.000000000000000e+00 0.000000000000000e+00
0.000000000000000e+00 0.000000000000000e+00 0.000000000000000e+00
0.000000000000000e+00 0.000000000000000e+00 0.000000000000000e+00
0.000000000000000e+00 0.000000000000000e+00 0.000000000000000e+00
0.000000000000000e+00 0.000000000000000e+00 0.000000000000000e+00
0.000000000000000e+00 0.000000000000000e+00 0.000000000000000e+00
0.000000000000000e+00 0.000000000000000e+00 0.000000000000000e+00
0.000000000000000e+00 0.000000000000000e+00 0.000000000000000e+00
0.000000000000000e+00 0.000000000000000e+00 0.000000000000000e+00
0.000000000000000e+00 0.000000000000000e+00 0.000000000000000e+00
0.000000000000000e+00 0.000000000000000e+00 0.000000000000000e+00
0.000000000000000e+00 0.000000000000000e+00 0.000000000000000e+00
0.000000000000000e+00 0.000000000000000e+00 0.000000000000000e+00
0.000000000000000e+00 0.000000000000000e+00 0.000000000000000e+00
0.000000000000000e+00 0.000000000000000e+00 0.000000000000000e+00
0.000000000000000e+00 0.000000000000000e+00 0.000000000000000e+00
0.000000000000000e+00 0.000000000000000e+00 0.000000000000000e+00
0.000000000000000e+00 0.000000000000000e+00 0.000000000000000e+00
0.000000000000000e+00 0.000000000000000e+00 0.000000000000000e+00
0.000000000000000e+00 0.000000000000000e+00 0.000000000000000e+00
0.000000000000000e+00 0.000000000000000e+00 0.000000000000000e+00
0.000000000000000e+00 0.000000000000000e+00 0.000000000000000e+00
0.000000000000000e+00 0.000000000000000e+00 0.000000000000000e+00
0.000000000000000e+00 0.000000000000000e+00 0.000000000000000e+00
0.000000000000000e+00 0.000000000000000e+00 0.000000000000000e+00
0.000000000000000e+00 0.000000000000000e+00 0.000000000000000e+00
0.000000000000000e+00 0.000000000000000e+00 0.000000000000000e+00
0.000000000000000e+00 0.000000000000000e+00 0.000000000000000e+00
0.000000000000000e+00 0.000000000000000e+00 0.000000000000000e+00
0.000000000000000e+00 0.000000000000000e+00 0.000000000000000e+00
0.000000000000000e+00 0.000000000000000e+00 0.000000000000000e+00
0.000000000000000e+00 0.000000000000000e+00 0.000000000000000e+00
0.000000000000000e+00 0.000000000000000e+00 0.000000000000000e+00
0.000000000000000e+00 0.000000000000000e+00 0.000000000000000e+00
0.000000000000000e+00 0.000000000000000e+00 0.000000000000000e+00
0.000000000000000e+00 0.000000000000000e+00 0.000000000000000e+00
0.000000000000000e+00 0.000000000000000e+00 0.000000000000000e+00
0.000000000000000e+00 0.000000000000000e+00 0.000000000000000e+00
0.000000000000000e+00 0.000000000000000e+00 0.000000000000000e+00
0.000000000000000e+00 0.000000000000000e+00 0.000000000000000e+00
0.000000000000000e+00 0.000000000000000e+00 0.000000000000000e+00
0.000000000000000e+00 0.000000000000000e+00 0.000000000000000e+00
0.000000000000000e+00 0.000000000000000e+00 0.000000000000000e+00
0.000000000000000e+00 0.000000000000000e+00 0.000000000000000e+00
0.000000000000000e+00 0.000000000000000e+00 0.000000000000000e+00
0.000000000000000e+00 0.000000000000000e+00 0.000000000000000e+00
0.000000000000000e+00 0.000000000000000e+00 0.000000000000000e+00
0.000000000000000e+00 0.000000000000000e+00 0.000000000000000e+00
0.000000000000000e+00 0.000000000000000e+00 0.000000000000000e+00
0.000000000000000e+00 0.000000000000000e+00 0.000000000000000e+00
0.000000000000000e+00 0.000000000000000e+00 0.000000000000000e+00
0.000000000000000e+00 0.000000000000000e+00 0.000000000000000e+00
0.000000000000000e+00 0.000000000000000e+00 0.000000000000000e+00
0.000000000000000e+00 0.000000000000000e+00 0.000000000000000e+00
0.000000000000000e+00 0.000000000000000e+00 0.000000000000000e+00
0.000000000000000e+00 0.000000000000000e+00 0.000000000000000e+00
0.000000000000000e+00 0.000000000000000e+00 0.000000000000000e+00
0.000000000000000e+00 0.000000000000000e+00 0.000000000000000e+00
0.000000000000000e+00 0.000000000000000e+00 0.000000000000000e+00
0.000000000000000e+00 0.000000000000000e+00 0.000000000000000e+00
0.000000000000000e+00 0.000000000000000e+00 0.000000000000000e+00
0.000000000000000e+00 0.000000000000000e+00 0.000000000000000e+00
0.000000000000000e+00 0.000000000000000e+00 0.000000000000000e+00
0.000000000000000e+00 0.000000000000000e+00 0.000000000000000e+00
0.000000000000000e+00 0.000000000000000e+00 0.000000000000000e+00
0.000000000000000e+00 0.000000000000000e+00 0.000000000000000e+00
0.000000000000000e+00 0.000000000000000e+00 0.000000000000000e+00
0.000000000000000e+00 0.000000000000000e+00 0.000000000000000e+00
0.000000000000000e+00 0.000000000000000e+00 0.000000000000000e+00
0.000000000000000e+00 0.000000000000000e+00 0.000000000000000e+00
0.000000000000000e+00 0.000000000000000e+00 0.000000000000000e+00
0.000000000000000e+00 0.000000000000000e+00 0.000000000000000e+00
0.000000000000000e+00 0.000000000000000e+00 0.000000000000000e+00
0.000000000000000e+00 0.000000000000000e+00 0.000000000000000e+00
0.000000000000000e+00 0.000000000000000e+00 0.000000000000000e+00
0.000000000000000e+00 0.000000000000000e+00 0.000000000000000e+00
0.000000000000000e+00 0.000000000000000e+00 0.000000000000000e+00
0.000000000000000e+00 0.000000000000000e+00 0.000000000000000e+00
0.000000000000000e+00 0.000000000000000e+00 0.000000000000000e+00
0.000000000000000e+00 0.000000000000000e+00 0.000000000000000e+00
0.000000000000000e+00 0.000000000000000e+00 0.000000000000000e+00
0.000000000000000e+00 0.000000000000000e+00 0.000000000000000e+00
0.000000000000000e+00 0.000000000000000e+00 0.000000000000000e+00
0.000000000000000e+00 0.000000000000000e+00 0.000000000000000e+00
0.000000000000000e+00 0.000000000000000e+00 0.000000000000000e+00
0.000000000000000e+00 0.000000000000000e+00 0.000000000000000e+00
0.000000000000000e+00 0.000000000000000e+00 0.000000000000000e+00
0.000000000000000e+00 0.000000000000000e+00 0.000000000000000e+00
0.000000000000000e+00 0.000000000000000e+00 0.000000000000000e+00
0.000000000000000e+00 0.000000000000000e+00 0.000000000000000e+00
0.000000000000000e+00 0.000000000000000e+00 0.000000000000000e+00
0.000000000000000e+00 0.000000000000000e+00 0.000000000000000e+00
0.000000000000000e+00 0.000000000000000e+00 0.000000000000000e+00
0.000000000000000e+00 0.000000000000000e+00 0.000000000000000e+00
0.000000000000000e+00 0.000000000000000e+00 0.000000000000000e+00
0.000000000000000e+00 0.000000000000000e+00 0.000000000000000e+00
0.000000000000000e+00 0.000000000000000e+00 0.000000000000000e+00
0.000000000000000e+00 0.000000000000000e+00 0.000000000000000e+00
0.000000000000000e+00 0.000000000000000e+00 0.000000000000000e+00
0.000000000000000e+00 0.000000000000000e+00 0.000000000000000e+00
0.000000000000000e+00 0.000000000000000e+00 0.000000000000000e+00
0.000000000000000e+00 0.000000000000000e+00 0.000000000000000e+00
0.000000000000000e+00 0.000000000000000e+00 0.000000000000000e+00
0.000000000000000e+00 0.000000000000000e+00 0.000000000000000e+00
0.000000000000000e+00 0.000000000000000e+00 0.000000000000000e+00
0.000000000000000e+00 0.000000000000000e+00 0.000000000000000e+00
0.000000000000000e+00 0.000000000000000e+00 0.000000000000000e+00
0.000000000000000e+00 0.000000000000000e+00 0.000000000000000e+00
0.000000000000000e+00 0.000000000000000e+00 0.000000000000000e+00
0.000000000000000e+00 0.000000000000000e+00 0.000000000000000e+00
0.000000000000000e+00 0.000000000000000e+00 0.000000000000000e+00
0.000000000000000e+00 0.000000000000000e+00 0.000000000000000e+00
0.000000000000000e+00 0.000000000000000e+00 0.000000000000000e+00
0.000000000000000e+00 0.000000000000000e+00 0.000000000000000e+00
0.000000000000000e+00 0.000000000000000e+00 0.000000000000000e+00
0.000000000000000e+00 0.000000000000000e+00 0.000000000000000e+00
0.000000000000000e+00 0.000000000000000e+00 0.000000000000000e+00
0.000000000000000e+00 0.000000000000000e+00 0.000000000000000e+00
0.000000000000000e+00 0.000000000000000e+00 0.000000000000000e+00
0.000000000000000e+00 0.000000000000000e+00 0.000000000000000e+00
0.000000000000000e+00 0.000000000000000e+00 0.000000000000000e+00
0.000000000000000e+00 0.000000000000000e+00 0.000000000000000e+00
0.000000000000000e+00 0.000000000000000e+00 0.000000000000000e+00
0.000000000000000e+00 0.000000000000000e+00 0.000000000000000e+00
0.000000000000000e+00 0.000000000000000e+00 0.000000000000000e+00
0.000000000000000e+00 0.000000000000000e+00 0.000000000000000e+00
0.000000000000000e+00 0.000000000000000e+00 0.000000000000000e+00
0.000000000000000e+00 0.000000000000000e+00 0.000000000000000e+00
0.000000000000000e+00 0.000000000000000e+00 0.000000000000000e+00
0.000000000000000e+00 0.000000000000000e+00 0.000000000000000e+00
0.000000000000000e+00 0.000000000000000e+00 0.000000000000000e+00
0.000000000000000e+00 0.000000000000000e+00 0.000000000000000e+00
0.000000000000000e+00 0.000000000000000e+00 0.000000000000000e+00
0.000000000000000e+00 0.000000000000000e+00 0.000000000000000e+00
0.000000000000000e+00 0.000000000000000e+00 0.000000000000000e+00
0.000000000000000e+00 0.000000000000000e+00 0.000000000000000e+00
0.000000000000000e+00 0.000000000000000e+00 0.000000000000000e+00
0.000000000000000e+00 0.000000000000000e+00 0.000000000000000e+00
0.000000000000000e+00 0.000000000000000e+00 0.000000000000000e+00
0.000000000000000e+00 0.000000000000000e+00 0.000000000000000e+00
0.000000000000000e+00 0.000000000000000e+00 0.000000000000000e+00
0.000000000000000e+00 0.000000000000000e+00 0.000000000000000e+00
0.000000000000000e+00 0.000000000000000e+00 0.000000000000000e+00
0.000000000000000e+00 0.000000000000000e+00 0.000000000000000e+00
0.000000000000000e+00 0.000000000000000e+00 0.000000000000000e+00
0.000000000000000e+00 0.000000000000000e+00 0.000000000000000e+00
0.000000000000000e+00 0.000000000000000e+00 0.000000000000000e+00
0.000000000000000e+00 0.000000000000000e+00 0.000000000000000e+00
0.000000000000000e+00 0.000000000000000e+00 0.000000000000000e+00
0.000000000000000e+00 0.000000000000000e+00 0.000000000000000e+00
0.000000000000000e+00 0.000000000000000e+00 0.000000000000000e+00
0.000000000000000e+00 0.000000000000000e+00 0.000000000000000e+00
0.000000000000000e+00 0.000000000000000e+00 0.000000000000000e+00
0.000000000000000e+00 0.000000000000000e+00 0.000000000000000e+00
0.000000000000000e+00 0.000000000000000e+00 0.000000000000000e+00
0.000000000000000e+00 0.000000000000000e+00 0.000000000000000e+00
0.000000000000000e+00 0.000000000000000e+00 0.000000000000000e+00
0.000000000000000e+00 0.000000000000000e+00 0.000000000000000e+00
0.000000000000000e+00 0.000000000000000e+00 0.000000000000000e+00
0.000000000000000e+00 0.000000000000000e+00 0.000000000000000e+00
0.000000000000000e+00 0.000000000000000e+00 0.000000000000000e+00
0.000000000000000e+00 0.000000000000000e+00 0.000000000000000e+00
0.000000000000000e+00 0.000000000000000e+00 0.000000000000000e+00
0.000000000000000e+00 0.000000000000000e+00 0.000000000000000e+00
0.000000000000000e+00 0.000000000000000e+00 0.000000000000000e+00
0.000000000000000e+00 0.000000000000000e+00 0.000000000000000e+00
0.000000000000000e+00 0.000000000000000e+00 0.000000000000000e+00
0.000000000000000e+00 0.000000000000000e+00 0.000000000000000e+00
0.000000000000000e+00 0.000000000000000e+00 0.000000000000000e+00
0.000000000000000e+00 0.000000000000000e+00 0.000000000000000e+00
0.000000000000000e+00 0.000000000000000e+00 0.000000000000000e+00
0.000000000000000e+00 0.000000000000000e+00 0.000000000000000e+00
0.000000000000000e+00 0.000000000000000e+00 0.000000000000000e+00
0.000000000000000e+00 0.000000000000000e+00 0.000000000000000e+00
0.000000000000000e+00 0.000000000000000e+00 0.000000000000000e+00
0.000000000000000e+00 0.000000000000000e+00 0.000000000000000e+00
0.000000000000000e+00 0.000000000000000e+00 0.000000000000000e+00
0.000000000000000e+00 0.000000000000000e+00 0.000000000000000e+00
0.000000000000000e+00 0.000000000000000e+00 0.000000000000000e+00
0.000000000000000e+00 0.000000000000000e+00 0.000000000000000e+00
0.000000000000000e+00 0.000000000000000e+00 0.000000000000000e+00
0.000000000000000e+00 0.000000000000000e+00 0.000000000000000e+00
0.000000000000000e+00 0.000000000000000e+00 0.000000000000000e+00
0.000000000000000e+00 0.000000000000000e+00 0.000000000000000e+00
0.000000000000000e+00 0.000000000000000e+00 0.000000000000000e+00
0.000000000000000e+00 0.000000000000000e+00 0.000000000000000e+00
0.000000000000000e+00 0.000000000000000e+00 0.000000000000000e+00
0.000000000000000e+00 0.000000000000000e+00 0.000000000000000e+00
0.000000000000000e+00 0.000000000000000e+00 0.000000000000000e+00
0.000000000000000e+00 0.000000000000000e+00 0.000000000000000e+00
0.000000000000000e+00 0.000000000000000e+00 0.000000000000000e+00
0.000000000000000e+00 0.000000000000000e+00 0.000000000000000e+00
0.000000000000000e+00 0.000000000000000e+00 0.000000000000000e+00
0.000000000000000e+00 0.000000000000000e+00 0.000000000000000e+00
0.000000000000000e+00 0.000000000000000e+00 0.000000000000000e+00
0.000000000000000e+00 0.000000000000000e+00 0.000000000000000e+00
0.000000000000000e+00 0.000000000000000e+00 0.000000000000000e+00
0.000000000000000e+00 0.000000000000000e+00 0.000000000000000e+00
0.000000000000000e+00 0.000000000000000e+00 0.000000000000000e+00
0.000000000000000e+00 0.000000000000000e+00 0.000000000000000e+00
0.000000000000000e+00 0.000000000000000e+00 0.000000000000000e+00
0.000000000000000e+00 0.000000000000000e+00 0.000000000000000e+00
0.000000000000000e+00 0.000000000000000e+00 0.000000000000000e+00
0.000000000000000e+00 0.000000000000000e+00 0.000000000000000e+00
0.000000000000000e+00 0.000000000000000e+00 0.000000000000000e+00
0.000000000000000e+00 0.000000000000000e+00 0.000000000000000e+00
0.000000000000000e+00 0.000000000000000e+00 0.000000000000000e+00
0.000000000000000e+00 0.000000000000000e+00 0.000000000000000e+00
0.000000000000000e+00 0.000000000000000e+00 0.000000000000000e+00
0.000000000000000e+00 0.000000000000000e+00 0.000000000000000e+00
0.000000000000000e+00 0.000000000000000e+00 0.000000000000000e+00
0.000000000000000e+00 0.000000000000000e+00 0.000000000000000e+00
0.000000000000000e+00 0.000000000000000e+00 0.000000000000000e+00
0.000000000000000e+00 0.000000000000000e+00 0.000000000000000e+00
0.000000000000000e+00 0.000000000000000e+00 0.000000000000000e+00
0.000000000000000e+00 0.000000000000000e+00 0.000000000000000e+00
0.000000000000000e+00 0.000000000000000e+00 0.000000000000000e+00
0.000000000000000e+00 0.000000000000000e+00 0.000000000000000e+00
0.000000000000000e+00 0.000000000000000e+00 0.000000000000000e+00
0.000000000000000e+00 0.000000000000000e+00 0.000000000000000e+00
0.000000000000000e+00 0.000000000000000e+00 0.000000000000000e+00
0.000000000000000e+00 0.000000000000000e+00 0.000000000000000e+00
0.000000000000000e+00 0.000000000000000e+00 0.000000000000000e+00
0.000000000000000e+00 0.000000000000000e+00 0.000000000000000e+00
0.000000000000000e+00 0.000000000000000e+00 0.000000000000000e+00
0.000000000000000e+00 0.000000000000000e+00 0.000000000000000e+00
0.000000000000000e+00 0.000000000000000e+00 0.000000000000000e+00
0.000000000000000e+00 0.000000000000000e+00 0.000000000000000e+00
0.000000000000000e+00 0.000000000000000e+00 0.000000000000000e+00
0.000000000000000e+00 0.000000000000000e+00 0.000000000000000e+00
0.000000000000000e+00 0.000000000000000e+00 0.000000000000000e+00
0.000000000000000e+00 0.000000000000000e+00 0.000000000000000e+00
0.000000000000000e+00 0.000000000000000e+00 0.000000000000000e+00
0.000000000000000e+00 0.000000000000000e+00 0.000000000000000e+00
0.000000000000000e+00 0.000000000000000e+00 0.000000000000000e+00
0.000000000000000e+00 0.000000000000000e+00 0.000000000000000e+00
0.000000000000000e+00 0.000000000000000e+00 0.000000000000000e+00
0.000000000000000e+00 0.000000000000000e+00 0.000000000000000e+00
0.000000000000000e+00 0.000000000000000e+00 0.000000000000000e+00
0.000000000000000e+00 0.000000000000000e+00 0.000000000000000e+00
0.000000000000000e+00 0.000000000000000e+00 0.000000000000000e+00
0.000000000000000e+00 0.000000000000000e+00 0.000000000000000e+00
0.000000000000000e+00 0.000000000000000e+00 0.000000000000000e+00
0.000000000000000e+00 0.000000000000000e+00 0.000000000000000e+00
0.000000000000000e+00 0.000000000000000e+00 0.000000000000000e+00
0.000000000000000e+00 0.000000000000000e+00 0.000000000000000e+00
0.000000000000000e+00 0.000000000000000e+00 0.000000000000000e+00
0.000000000000000e+00 0.000000000000000e+00 0.000000000000000e+00
0.000000000000000e+00 0.000000000000000e+00 0.000000000000000e+00
0.000000000000000e+00 0.000000000000000e+00 0.000000000000000e+00
0.000000000000000e+00 0.000000000000000e+00 0.000000000000000e+00
0.000000000000000e+00 0.000000000000000e+00 0.000000000000000e+00
0.000000000000000e+00 0.000000000000000e+00 0.000000000000000e+00
0.000000000000000e+00 0.000000000000000e+00 0.000000000000000e+00
0.000000000000000e+00 0.000000000000000e+00 0.000000000000000e+00
0.000000000000000e+00 0.000000000000000e+00 0.000000000000000e+00
0.000000000000000e+00 0.000000000000000e+00 0.000000000000000e+00
0.000000000000000e+00 0.000000000000000e+00 0.000000000000000e+00
0.000000000000000e+00 0.000000000000000e+00 0.000000000000000e+00
0.000000000000000e+00 0.000000000000000e+00 0.000000000000000e+00
0.000000000000000e+00 0.000000000000000e+00 0.000000000000000e+00
0.000000000000000e+00 0.000000000000000e+00 0.000000000000000e+00
0.000000000000000e+00 0.000000000000000e+00 0.000000000000000e+00
0.000000000000000e+00 0.000000000000000e+00 0.000000000000000e+00
0.000000000000000e+00 0.000000000000000e+00 0.000000000000000e+00
0.000000000000000e+00 0.000000000000000e+00 0.000000000000000e+00
0.000000000000000e+00 0.000000000000000e+00 0.000000000000000e+00
0.000000000000000e+00 0.000000000000000e+00 0.000000000000000e+00
0.000000000000000e+00 0.000000000000000e+00 0.000000000000000e+00
0.000000000000000e+00 0.000000000000000e+00 0.000000000000000e+00
0.000000000000000e+00 0.000000000000000e+00 0.000000000000000e+00
0.000000000000000e+00 0.000000000000000e+00 0.000000000000000e+00
0.000000000000000e+00 0.000000000000000e+00 0.000000000000000e+00
0.000000000000000e+00 0.000000000000000e+00 0.000000000000000e+00
0.000000000000000e+00 0.000000000000000e+00 0.000000000000000e+00
0.000000000000000e+00 0.000000000000000e+00 0.000000000000000e+00
0.000000000000000e+00 0.000000000000000e+00 0.000000000000000e+00
0.000000000000000e+00 0.000000000000000e+00 0.000000000000000e+00
0.000000000000000e+00 0.000000000000000e+00 0.000000000000000e+00
0.000000000000000e+00 0.000000000000000e+00 0.000000000000000e+00
0.000000000000000e+00 0.000000000000000e+00 0.000000000000000e+00
0.000000000000000e+00 0.000000000000000e+00 0.000000000000000e+00
0.000000000000000e+00 0.000000000000000e+00 0.000000000000000e+00
0.000000000000000e+00 0.000000000000000e+00 0.000000000000000e+00
0.000000000000000e+00 0.000000000000000e+00 0.000000000000000e+00
0.000000000000000e+00 0.000000000000000e+00 0.000000000000000e+00
0.000000000000000e+00 0.000000000000000e+00 0.000000000000000e+00
0.000000000000000e+00 0.000000000000000e+00 0.000000000000000e+00
0.000000000000000e+00 0.000000000000000e+00 0.000000000000000e+00
0.000000000000000e+00 0.000000000000000e+00 0.000000000000000e+00
0.000000000000000e+00 0.000000000000000e+00 0.000000000000000e+00
0.000000000000000e+00 0.000000000000000e+00 0.000000000000000e+00
0.000000000000000e+00 0.000000000000000e+00 0.000000000000000e+00
0.000000000000000e+00 0.000000000000000e+00 0.000000000000000e+00
0.000000000000000e+00 0.000000000000000e+00 0.000000000000000e+00
0.000000000000000e+00 0.000000000000000e+00 0.000000000000000e+00
0.000000000000000e+00 0.000000000000000e+00 0.000000000000000e+00
0.000000000000000e+00 0.000000000000000e+00 0.000000000000000e+00
0.000000000000000e+00 0.000000000000000e+00 0.000000000000000e+00
0.000000000000000e+00 0.000000000000000e+00 0.000000000000000e+00
0.000000000000000e+00 0.000000000000000e+00 0.000000000000000e+00
0.000000000000000e+00 0.000000000000000e+00 0.000000000000000e+00
0.000000000000000e+00 0.000000000000000e+00 0.000000000000000e+00
0.000000000000000e+00 0.000000000000000e+00 0.000000000000000e+00
0.000000000000000e+00 0.000000000000000e+00 0.000000000000000e+00
0.000000000000000e+00 0.000000000000000e+00 0.000000000000000e+00
0.000000000000000e+00 0.000000000000000e+00 0.000000000000000e+00
0.000000000000000e+00 0.000000000000000e+00 0.000000000000000e+00
0.000000000000000e+00 0.000000000000000e+00 0.000000000000000e+00
0.000000000000000e+00 0.000000000000000e+00 0.000000000000000e+00
0.000000000000000e+00 0.000000000000000e+00 0.000000000000000e+00
0.000000000000000e+00 0.000000000000000e+00 0.000000000000000e+00
0.000000000000000e+00 0.000000000000000e+00 0.000000000000000e+00
0.000000000000000e+00 0.000000000000000e+00 0.000000000000000e+00
0.000000000000000e+00 0.000000000000000e+00 0.000000000000000e+00
0.000000000000000e+00 0.000000000000000e+00 0.000000000000000e+00
0.000000000000000e+00 0.000000000000000e+00 0.000000000000000e+00
0.000000000000000e+00 0.000000000000000e+00 0.000000000000000e+00
0.000000000000000e+00 0.000000000000000e+00 0.000000000000000e+00
0.000000000000000e+00 0.000000000000000e+00 0.000000000000000e+00
0.000000000000000e+00 0.000000000000000e+00 0.000000000000000e+00
0.000000000000000e+00 0.000000000000000e+00 0.000000000000000e+00
0.000000000000000e+00 0.000000000000000e+00 0.000000000000000e+00
0.000000000000000e+00 0.000000000000000e+00 0.000000000000000e+00
0.000000000000000e+00 0.000000000000000e+00 0.000000000000000e+00
0.000000000000000e+00 0.000000000000000e+00 0.000000000000000e+00
0.000000000000000e+00 0.000000000000000e+00 0.000000000000000e+00
0.000000000000000e+00 0.000000000000000e+00 0.000000000000000e+00
0.000000000000000e+00 0.000000000000000e+00 0.000000000000000e+00
0.000000000000000e+00 0.000000000000000e+00 0.000000000000000e+00
0.000000000000000e+00 0.000000000000000e+00 0.000000000000000e+00
0.000000000000000e+00 0.000000000000000e+00 0.000000000000000e+00
0.000000000000000e+00 0.000000000000000e+00 0.000000000000000e+00
0.000000000000000e+00 0.000000000000000e+00 0.000000000000000e+00
0.000000000000000e+00 0.000000000000000e+00 0.000000000000000e+00
0.000000000000000e+00 0.000000000000000e+00 0.000000000000000e+00
0.000000000000000e+00 0.000000000000000e+00 0.000000000000000e+00
0.000000000000000e+00 0.000000000000000e+00 0.000000000000000e+00
0.000000000000000e+00 0.000000000000000e+00 0.000000000000000e+00
0.000000000000000e+00 0.000000000000000e+00 0.000000000000000e+00
0.000000000000000e+00 0.000000000000000e+00 0.000000000000000e+00
0.000000000000000e+00 0.000000000000000e+00 0.000000000000000e+00
0.000000000000000e+00 0.000000000000000e+00 0.000000000000000e+00
0.000000000000000e+00 0.000000000000000e+00 0.000000000000000e+00
0.000000000000000e+00 0.000000000000000e+00 0.000000000000000e+00
0.000000000000000e+00 0.000000000000000e+00 0.000000000000000e+00
0.000000000000000e+00 0.000000000000000e+00 0.000000000000000e+00
0.000000000000000e+00 0.000000000000000e+00 0.000000000000000e+00
0.000000000000000e+00 0.000000000000000e+00 0.000000000000000e+00
0.000000000000000e+00 0.000000000000000e+00 0.000000000000000e+00
0.000000000000000e+00 0.000000000000000e+00 0.000000000000000e+00
0.000000000000000e+00 0.000000000000000e+00 0.000000000000000e+00
0.000000000000000e+00 0.000000000000000e+00 0.000000000000000e+00
0.000000000000000e+00 0.000000000000000e+00 0.000000000000000e+00
0.000000000000000e+00 0.000000000000000e+00 0.000000000000000e+00
0.000000000000000e+00 0.000000000000000e+00 0.000000000000000e+00
0.000000000000000e+00 0.000000000000000e+00 0.000000000000000e+00
0.000000000000000e+00 0.000000000000000e+00 0.000000000000000e+00
0.000000000000000e+00 0.000000000000000e+00 0.000000000000000e+00
0.000000000000000e+00 0.000000000000000e+00 0.000000000000000e+00
0.000000000000000e+00 0.000000000000000e+00 0.000000000000000e+00
0.000000000000000e+00 0.000000000000000e+00 0.000000000000000e+00
0.000000000000000e+00 0.000000000000000e+00 0.000000000000000e+00
0.000000000000000e+00 0.000000000000000e+00 0.000000000000000e+00
0.000000000000000e+00 0.000000000000000e+00 0.000000000000000e+00
0.000000000000000e+00 0.000000000000000e+00 0.000000000000000e+00
0.000000000000000e+00 0.000000000000000e+00 0.000000000000000e+00
0.000000000000000e+00 0.000000000000000e+00 0.000000000000000e+00
0.000000000000000e+00 0.000000000000000e+00 0.000000000000000e+00
0.000000000000000e+00 0.000000000000000e+00 0.000000000000000e+00
0.000000000000000e+00 0.000000000000000e+00 0.000000000000000e+00
0.000000000000000e+00 0.000000000000000e+00 0.000000000000000e+00
0.000000000000000e+00 0.000000000000000e+00 0.000000000000000e+00
0.000000000000000e+00 0.000000000000000e+00 0.000000000000000e+00
0.000000000000000e+00 0.000000000000000e+00 0.000000000000000e+00
0.000000000000000e+00 0.000000000000000e+00 0.000000000000000e+00
0.000000000000000e+00 0.000000000000000e+00 0.000000000000000e+00
0.000000000000000e+00 0.000000000000000e+00 0.000000000000000e+00
0.000000000000000e+00 0.000000000000000e+00 0.000000000000000e+00
0.000000000000000e+00 0.000000000000000e+00 0.000000000000000e+00
0.000000000000000e+00 0.000000000000000e+00 0.000000000000000e+00
0.000000000000000e+00 0.000000000000000e+00 0.000000000000000e+00
0.000000000000000e+00 0.000000000000000e+00 0.000000000000000e+00
0.000000000000000e+00 0.000000000000000e+00 0.000000000000000e+00
0.000000000000000e+00 0.000000000000000e+00 0.000000000000000e+00
0.000000000000000e+00 0.000000000000000e+00 0.000000000000000e+00
0.000000000000000e+00 0.000000000000000e+00 0.000000000000000e+00
0.000000000000000e+00 0.000000000000000e+00 0.000000000000000e+00
0.000000000000000e+00 0.000000000000000e+00 0.000000000000000e+00
0.000000000000000e+00 0.000000000000000e+00 0.000000000000000e+00
0.000000000000000e+00 0.000000000000000e+00 0.000000000000000e+00
0.000000000000000e+00 0.000000000000000e+00 0.000000000000000e+00
0.000000000000000e+00 0.000000000000000e+00 0.000000000000000e+00
0.000000000000000e+00 0.000000000000000e+00 0.000000000000000e+00
0.000000000000000e+00 0.000000000000000e+00 0.000000000000000e+00
0.000000000000000e+00 0.000000000000000e+00 0.000000000000000e+00
0.000000000000000e+00 0.000000000000000e+00 0.000000000000000e+00
0.000000000000000e+00 0.000000000000000e+00 0.000000000000000e+00
0.000000000000000e+00 0.000000000000000e+00 0.000000000000000e+00
0.000000000000000e+00 0.000000000000000e+00 0.000000000000000e+00
0.000000000000000e+00 0.000000000000000e+00 0.000000000000000e+00
0.000000000000000e+00 0.000000000000000e+00 0.000000000000000e+00
0.000000000000000e+00 0.000000000000000e+00 0.000000000000000e+00
0.000000000000000e+00 0.000000000000000e+00 0.000000000000000e+00
0.000000000000000e+00 0.000000000000000e+00 0.000000000000000e+00
0.000000000000000e+00 0.000000000000000e+00 0.000000000000000e+00
0.000000000000000e+00 0.000000000000000e+00 0.000000000000000e+00
0.000000000000000e+00 0.000000000000000e+00 0.000000000000000e+00
0.000000000000000e+00 0.000000000000000e+00 0.000000000000000e+00
0.000000000000000e+00 0.000000000000000e+00 0.000000000000000e+00
0.000000000000000e+00 0.000000000000000e+00 0.000000000000000e+00
0.000000000000000e+00 0.000000000000000e+00 0.000000000000000e+00
0.000000000000000e+00 0.000000000000000e+00 0.000000000000000e+00
0.000000000000000e+00 0.000000000000000e+00 0.000000000000000e+00
0.000000000000000e+00 0.000000000000000e+00 0.000000000000000e+00
0.000000000000000e+00 0.000000000000000e+00 0.000000000000000e+00
0.000000000000000e+00 0.000000000000000e+00 0.000000000000000e+00
0.000000000000000e+00 0.000000000000000e+00 0.000000000000000e+00
0.000000000000000e+00 0.000000000000000e+00 0.000000000000000e+00
0.000000000000000e+00 0.000000000000000e+00 0.000000000000000e+00
0.000000000000000e+00 0.000000000000000e+00 0.000000000000000e+00
0.000000000000000e+00 0.000000000000000e+00 0.000000000000000e+00
0.000000000000000e+00 0.000000000000000e+00 0.000000000000000e+00
0.000000000000000e+00 0.000000000000000e+00 0.000000000000000e+00
0.000000000000000e+00 0.000000000000000e+00 0.000000000000000e+00
0.000000000000000e+00 0.000000000000000e+00 0.000000000000000e+00
0.000000000000000e+00 0.000000000000000e+00 0.000000000000000e+00
0.000000000000000e+00 0.000000000000000e+00 0.000000000000000e+00
0.000000000000000e+00 0.000000000000000e+00 0.000000000000000e+00
0.000000000000000e+00 0.000000000000000e+00 0.000000000000000e+00
0.000000000000000e+00 0.000000000000000e+00 0.000000000000000e+00
0.000000000000000e+00 0.000000000000000e+00 0.000000000000000e+00
0.000000000000000e+00 0.000000000000000e+00 0.000000000000000e+00
0.000000000000000e+00 0.000000000000000e+00 0.000000000000000e+00
0.000000000000000e+00 0.000000000000000e+00 0.000000000000000e+00
0.000000000000000e+00 0.000000000000000e+00 0.000000000000000e+00
0.000000000000000e+00 0.000000000000000e+00 0.000000000000000e+00
0.000000000000000e+00 0.000000000000000e+00 0.000000000000000e+00
0.000000000000000e+00 0.000000000000000e+00 0.000000000000000e+00
0.000000000000000e+00 0.000000000000000e+00 0.000000000000000e+00
0.000000000000000e+00 0.000000000000000e+00 0.000000000000000e+00
0.000000000000000e+00 0.000000000000000e+00 0.000000000000000e+00
0.000000000000000e+00 0.000000000000000e+00 0.000000000000000e+00
0.000000000000000e+00 0.000000000000000e+00 0.000000000000000e+00
0.000000000000000e+00 0.000000000000000e+00 0.000000000000000e+00
0.000000000000000e+00 0.000000000000000e+00 0.000000000000000e+00
0.000000000000000e+00 0.000000000000000e+00 0.000000000000000e+00
0.000000000000000e+00 0.000000000000000e+00 0.000000000000000e+00
0.000000000000000e+00 0.000000000000000e+00 0.000000000000000e+00
0.000000000000000e+00 0.000000000000000e+00 0.000000000000000e+00
0.000000000000000e+00 0.000000000000000e+00 0.000000000000000e+00
0.000000000000000e+00 0.000000000000000e+00 0.000000000000000e+00
0.000000000000000e+00 0.000000000000000e+00 0.000000000000000e+00
0.000000000000000e+00 0.000000000000000e+00 0.000000000000000e+00
0.000000000000000e+00 0.000000000000000e+00 0.000000000000000e+00
0.000000000000000e+00 0.000000000000000e+00 0.000000000000000e+00
0.000000000000000e+00 0.000000000000000e+00 0.000000000000000e+00
0.000000000000000e+00 0.000000000000000e+00 0.000000000000000e+00
0.000000000000000e+00 0.000000000000000e+00 0.000000000000000e+00
0.000000000000000e+00 0.000000000000000e+00 0.000000000000000e+00
0.000000000000000e+00 0.000000000000000e+00 0.000000000000000e+00
0.000000000000000e+00 0.000000000000000e+00 0.000000000000000e+00
0.000000000000000e+00 0.000000000000000e+00 0.000000000000000e+00
0.000000000000000e+00 0.000000000000000e+00 0.000000000000000e+00
0.000000000000000e+00 0.000000000000000e+00 0.000000000000000e+00
0.000000000000000e+00 0.000000000000000e+00 0.000000000000000e+00
0.000000000000000e+00 0.000000000000000e+00 0.000000000000000e+00
0.000000000000000e+00 0.000000000000000e+00 0.000000000000000e+00
0.000000000000000e+00 0.000000000000000e+00 0.000000000000000e+00
0.000000000000000e+00 0.000000000000000e+00 0.000000000000000e+00
0.000000000000000e+00 0.000000000000000e+00 0.000000000000000e+00
0.000000000000000e+00 0.000000000000000e+00 0.000000000000000e+00
0.000000000000000e+00 0.000000000000000e+00 0.000000000000000e+00
0.000000000000000e+00 0.000000000000000e+00 0.000000000000000e+00
0.000000000000000e+00 0.000000000000000e+00 0.000000000000000e+00
0.000000000000000e+00 0.000000000000000e+00 0.000000000000000e+00
0.000000000000000e+00 0.000000000000000e+00 0.000000000000000e+00
0.000000000000000e+00 0.000000000000000e+00 0.000000000000000e+00
0.000000000000000e+00 0.000000000000000e+00 0.000000000000000e+00
0.000000000000000e+00 0.000000000000000e+00 0.000000000000000e+00
0.000000000000000e+00 0.000000000000000e+00 0.000000000000000e+00
0.000000000000000e+00 0.000000000000000e+00 0.000000000000000e+00
0.000000000000000e+00 0.000000000000000e+00 0.000000000000000e+00
0.000000000000000e+00 0.000000000000000e+00 0.000000000000000e+00
0.000000000000000e+00 0.000000000000000e+00 0.000000000000000e+00
0.000000000000000e+00 0.000000000000000e+00 0.000000000000000e+00
0.000000000000000e+00 0.000000000000000e+00 0.000000000000000e+00
0.000000000000000e+00 0.000000000000000e+00 0.000000000000000e+00
0.000000000000000e+00 0.000000000000000e+00 0.000000000000000e+00
0.000000000000000e+00 0.000000000000000e+00 0.000000000000000e+00
0.000000000000000e+00 0.000000000000000e+00 0.000000000000000e+00
0.000000000000000e+00 0.000000000000000e+00 0.000000000000000e+00
0.000000000000000e+00 0.000000000000000e+00 0.000000000000000e+00
0.000000000000000e+00 0.000000000000000e+00 0.000000000000000e+00
0.000000000000000e+00 0.000000000000000e+00 0.000000000000000e+00
0.000000000000000e+00 0.000000000000000e+00 0.000000000000000e+00
0.000000000000000e+00 0.000000000000000e+00 0.000000000000000e+00
0.000000000000000e+00 0.000000000000000e+00 0.000000000000000e+00
0.000000000000000e+00 0.000000000000000e+00 0.000000000000000e+00
0.000000000000000e+00 0.000000000000000e+00 0.000000000000000e+00
0.000000000000000e+00 0.000000000000000e+00 0.000000000000000e+00
0.000000000000000e+00 0.000000000000000e+00 0.000000000000000e+00
0.000000000000000e+00 0.000000000000000e+00 0.000000000000000e+00
0.000000000000000e+00 0.000000000000000e+00 0.000000000000000e+00
0.000000000000000e+00 0.000000000000000e+00 0.000000000000000e+00
0.000000000000000e+00 0.000000000000000e+00 0.000000000000000e+00
0.000000000000000e+00 0.000000000000000e+00 0.000000000000000e+00
0.000000000000000e+00 0.000000000000000e+00 0.000000000000000e+00
0.000000000000000e+00 0.000000000000000e+00 0.000000000000000e+00
0.000000000000000e+00 0.000000000000000e+00 0.000000000000000e+00
0.000000000000000e+00 0.000000000000000e+00 0.000000000000000e+00
0.000000000000000e+00 0.000000000000000e+00 0.000000000000000e+00
0.000000000000000e+00 0.000000000000000e+00 0.000000000000000e+00
0.000000000000000e+00 0.000000000000000e+00 0.000000000000000e+00
0.000000000000000e+00 0.000000000000000e+00 0.000000000000000e+00
0.000000000000000e+00 0.000000000000000e+00 0.000000000000000e+00
0.000000000000000e+00 0.000000000000000e+00 0.000000000000000e+00
0.000000000000000e+00 0.000000000000000e+00 0.000000000000000e+00
0.000000000000000e+00 0.000000000000000e+00 0.000000000000000e+00
0.000000000000000e+00 0.000000000000000e+00 0.000000000000000e+00
0.000000000000000e+00 0.000000000000000e+00 0.000000000000000e+00
0.000000000000000e+00 0.000000000000000e+00 0.000000000000000e+00
0.000000000000000e+00 0.000000000000000e+00 0.000000000000000e+00
0.000000000000000e+00 0.000000000000000e+00 0.000000000000000e+00
0.000000000000000e+00 0.000000000000000e+00 0.000000000000000e+00
0.000000000000000e+00 0.000000000000000e+00 0.000000000000000e+00
0.000000000000000e+00 0.000000000000000e+00 0.000000000000000e+00
0.000000000000000e+00 0.000000000000000e+00 0.000000000000000e+00
0.000000000000000e+00 0.000000000000000e+00 0.000000000000000e+00
0.000000000000000e+00 0.000000000000000e+00 0.000000000000000e+00
0.000000000000000e+00 0.000000000000000e+00 0.000000000000000e+00
0.000000000000000e+00 0.000000000000000e+00 0.000000000000000e+00
0.000000000000000e+00 0.000000000000000e+00 0.000000000000000e+00
0.000000000000000e+00 0.000000000000000e+00 0.000000000000000e+00
0.000000000000000e+00 0.000000000000000e+00 0.000000000000000e+00
0.000000000000000e+00 0.000000000000000e+00 0.000000000000000e+00
0.000000000000000e+00 0.000000000000000e+00 0.000000000000000e+00
0.000000000000000e+00 0.000000000000000e+00 0.000000000000000e+00
0.000000000000000e+00 0.000000000000000e+00 0.000000000000000e+00
0.000000000000000e+00 0.000000000000000e+00 0.000000000000000e+00
0.000000000000000e+00 0.000000000000000e+00 0.000000000000000e+00
0.000000000000000e+00 0.000000000000000e+00 0.000000000000000e+00
0.000000000000000e+00 0.000000000000000e+00 0.000000000000000e+00
0.000000000000000e+00 0.000000000000000e+00 0.000000000000000e+00
0.000000000000000e+00 0.000000000000000e+00 0.000000000000000e+00
0.000000000000000e+00 0.000000000000000e+00 0.000000000000000e+00
0.000000000000000e+00 0.000000000000000e+00 0.000000000000000e+00
0.000000000000000e+00 0.000000000000000e+00 0.000000000000000e+00
0.000000000000000e+00 0.000000000000000e+00 0.000000000000000e+00
0.000000000000000e+00 0.000000000000000e+00 0.000000000000000e+00
0.000000000000000e+00 0.000000000000000e+00 0.000000000000000e+00
0.000000000000000e+00 0.000000000000000e+00 0.000000000000000e+00
0.000000000000000e+00 0.000000000000000e+00 0.000000000000000e+00
0.000000000000000e+00 0.000000000000000e+00 0.000000000000000e+00
0.000000000000000e+00 0.000000000000000e+00 0.000000000000000e+00
0.000000000000000e+00 0.000000000000000e+00 0.000000000000000e+00
0.000000000000000e+00 0.000000000000000e+00 0.000000000000000e+00
0.000000000000000e+00 0.000000000000000e+00 0.000000000000000e+00
0.000000000000000e+00 0.000000000000000e+00 0.000000000000000e+00
0.000000000000000e+00 0.000000000000000e+00 0.000000000000000e+00
0.000000000000000e+00 0.000000000000000e+00 0.000000000000000e+00
0.000000000000000e+00 0.000000000000000e+00 0.000000000000000e+00
0.000000000000000e+00 0.000000000000000e+00 0.000000000000000e+00
0.000000000000000e+00 0.000000000000000e+00 0.000000000000000e+00
0.000000000000000e+00 0.000000000000000e+00 0.000000000000000e+00
0.000000000000000e+00 0.000000000000000e+00 0.000000000000000e+00
0.000000000000000e+00 0.000000000000000e+00 0.000000000000000e+00
0.000000000000000e+00 0.000000000000000e+00 0.000000000000000e+00
0.000000000000000e+00 0.000000000000000e+00 0.000000000000000e+00
0.000000000000000e+00 0.000000000000000e+00 0.000000000000000e+00
0.000000000000000e+00 0.000000000000000e+00 0.000000000000000e+00
0.000000000000000e+00 0.000000000000000e+00 0.000000000000000e+00
0.000000000000000e+00 0.000000000000000e+00 0.000000000000000e+00
0.000000000000000e+00 0.000000000000000e+00 0.000000000000000e+00
0.000000000000000e+00 0.000000000000000e+00 0.000000000000000e+00
0.000000000000000e+00 0.000000000000000e+00 0.000000000000000e+00
0.000000000000000e+00 0.000000000000000e+00 0.000000000000000e+00
0.000000000000000e+00 0.000000000000000e+00 0.000000000000000e+00
0.000000000000000e+00 0.000000000000000e+00 0.000000000000000e+00
0.000000000000000e+00 0.000000000000000e+00 0.000000000000000e+00
0.000000000000000e+00 0.000000000000000e+00 0.000000000000000e+00
0.000000000000000e+00 0.000000000000000e+00 0.000000000000000e+00
0.000000000000000e+00 0.000000000000000e+00 0.000000000000000e+00
0.000000000000000e+00 0.000000000000000e+00 0.000000000000000e+00
0.000000000000000e+00 0.000000000000000e+00 0.000000000000000e+00
0.000000000000000e+00 0.000000000000000e+00 0.000000000000000e+00
0.000000000000000e+00 0.000000000000000e+00 0.000000000000000e+00
0.000000000000000e+00 0.000000000000000e+00 0.000000000000000e+00
0.000000000000000e+00 0.000000000000000e+00 0.000000000000000e+00
0.000000000000000e+00 0.000000000000000e+00 0.000000000000000e+00
0.000000000000000e+00 0.000000000000000e+00 0.000000000000000e+00
0.000000000000000e+00 0.000000000000000e+00 0.000000000000000e+00
0.000000000000000e+00 0.000000000000000e+00 0.000000000000000e+00
0.000000000000000e+00 0.000000000000000e+00 0.000000000000000e+00
0.000000000000000e+00 0.000000000000000e+00 0.000000000000000e+00
0.000000000000000e+00 0.000000000000000e+00 0.000000000000000e+00
0.000000000000000e+00 0.000000000000000e+00 0.000000000000000e+00
0.000000000000000e+00 0.000000000000000e+00 0.000000000000000e+00
0.000000000000000e+00 0.000000000000000e+00 0.000000000000000e+00
0.000000000000000e+00 0.000000000000000e+00 0.000000000000000e+00
0.000000000000000e+00 0.000000000000000e+00 0.000000000000000e+00
0.000000000000000e+00 0.000000000000000e+00 0.000000000000000e+00
0.000000000000000e+00 0.000000000000000e+00 0.000000000000000e+00
0.000000000000000e+00 0.000000000000000e+00 0.000000000000000e+00
0.000000000000000e+00 0.000000000000000e+00 0.000000000000000e+00
0.000000000000000e+00 0.000000000000000e+00 0.000000000000000e+00
0.000000000000000e+00 0.000000000000000e+00 0.000000000000000e+00
0.000000000000000e+00 0.000000000000000e+00 0.000000000000000e+00
0.000000000000000e+00 0.000000000000000e+00 0.000000000000000e+00
0.000000000000000e+00 0.000000000000000e+00 0.000000000000000e+00
0.000000000000000e+00 0.000000000000000e+00 0.000000000000000e+00
0.000000000000000e+00 0.000000000000000e+00 0.000000000000000e+00
0.000000000000000e+00 0.000000000000000e+00 0.000000000000000e+00
0.000000000000000e+00 0.000000000000000e+00 0.000000000000000e+00
0.000000000000000e+00 0.000000000000000e+00 0.000000000000000e+00
0.000000000000000e+00 0.000000000000000e+00 0.000000000000000e+00
0.000000000000000e+00 0.000000000000000e+00 0.000000000000000e+00
0.000000000000000e+00 0.000000000000000e+00 0.000000000000000e+00
0.000000000000000e+00 0.000000000000000e+00 0.000000000000000e+00
0.000000000000000e+00 0.000000000000000e+00 0.000000000000000e+00
0.000000000000000e+00 0.000000000000000e+00 0.000000000000000e+00
0.000000000000000e+00 0.000000000000000e+00 0.000000000000000e+00
0.000000000000000e+00 0.000000000000000e+00 0.000000000000000e+00
0.000000000000000e+00 0.000000000000000e+00 0.000000000000000e+00
0.000000000000000e+00 0.000000000000000e+00 0.000000000000000e+00
0.000000000000000e+00 0.000000000000000e+00 0.000000000000000e+00
0.000000000000000e+00 0.000000000000000e+00 0.000000000000000e+00
0.000000000000000e+00 0.000000000000000e+00 0.000000000000000e+00
0.000000000000000e+00 0.000000000000000e+00 0.000000000000000e+00
0.000000000000000e+00 0.000000000000000e+00 0.000000000000000e+00
0.000000000000000e+00 0.000000000000000e+00 0.000000000000000e+00
0.000000000000000e+00 0.000000000000000e+00 0.000000000000000e+00
0.000000000000000e+00 0.000000000000000e+00 0.000000000000000e+00
0.000000000000000e+00 0.000000000000000e+00 0.000000000000000e+00
0.000000000000000e+00 0.000000000000000e+00 0.000000000000000e+00
0.000000000000000e+00 0.000000000000000e+00 0.000000000000000e+00
0.000000000000000e+00 0.000000000000000e+00 0.000000000000000e+00
0.000000000000000e+00 0.000000000000000e+00 0.000000000000000e+00
0.000000000000000e+00 0.000000000000000e+00 0.000000000000000e+00
0.000000000000000e+00 0.000000000000000e+00 0.000000000000000e+00
0.000000000000000e+00 0.000000000000000e+00 0.000000000000000e+00
0.000000000000000e+00 0.000000000000000e+00 0.000000000000000e+00
0.000000000000000e+00 0.000000000000000e+00 0.000000000000000e+00
0.000000000000000e+00 0.000000000000000e+00 0.000000000000000e+00
0.000000000000000e+00 0.000000000000000e+00 0.000000000000000e+00
0.000000000000000e+00 0.000000000000000e+00 0.000000000000000e+00
0.000000000000000e+00 0.000000000000000e+00 0.000000000000000e+00
0.000000000000000e+00 0.000000000000000e+00 0.000000000000000e+00
0.000000000000000e+00 0.000000000000000e+00 0.000000000000000e+00
0.000000000000000e+00 0.000000000000000e+00 0.000000000000000e+00
0.000000000000000e+00 0.000000000000000e+00 0.000000000000000e+00
0.000000000000000e+00 0.000000000000000e+00 0.000000000000000e+00
0.000000000000000e+00 0.000000000000000e+00 0.000000000000000e+00
0.000000000000000e+00 0.000000000000000e+00 0.000000000000000e+00
0.000000000000000e+00 0.000000000000000e+00 0.000000000000000e+00
0.000000000000000e+00 0.000000000000000e+00 0.000000000000000e+00
0.000000000000000e+00 0.000000000000000e+00 0.000000000000000e+00
0.000000000000000e+00 0.000000000000000e+00 0.000000000000000e+00
0.000000000000000e+00 0.000000000000000e+00 0.000000000000000e+00
0.000000000000000e+00 0.000000000000000e+00 0.000000000000000e+00
0.000000000000000e+00 0.000000000000000e+00 0.000000000000000e+00
0.000000000000000e+00 0.000000000000000e+00 0.000000000000000e+00
0.000000000000000e+00 0.000000000000000e+00 0.000000000000000e+00
0.000000000000000e+00 0.000000000000000e+00 0.000000000000000e+00
0.000000000000000e+00 0.000000000000000e+00 0.000000000000000e+00
0.000000000000000e+00 0.000000000000000e+00 0.000000000000000e+00
0.000000000000000e+00 0.000000000000000e+00 0.000000000000000e+00
0.000000000000000e+00 0.000000000000000e+00 0.000000000000000e+00
0.000000000000000e+00 0.000000000000000e+00 0.000000000000000e+00
0.000000000000000e+00 0.000000000000000e+00 0.000000000000000e+00
0.000000000000000e+00 0.000000000000000e+00 0.000000000000000e+00
0.000000000000000e+00 0.000000000000000e+00 0.000000000000000e+00
0.000000000000000e+00 0.000000000000000e+00 0.000000000000000e+00
0.000000000000000e+00 0.000000000000000e+00 0.000000000000000e+00
0.000000000000000e+00 0.000000000000000e+00 0.000000000000000e+00
0.000000000000000e+00 0.000000000000000e+00 0.000000000000000e+00
0.000000000000000e+00 0.000000000000000e+00 0.000000000000000e+00
0.000000000000000e+00 0.000000000000000e+00 0.000000000000000e+00
0.000000000000000e+00 0.000000000000000e+00 0.000000000000000e+00
0.000000000000000e+00 0.000000000000000e+00 0.000000000000000e+00
0.000000000000000e+00 0.000000000000000e+00 0.000000000000000e+00
0.000000000000000e+00 0.000000000000000e+00 0.000000000000000e+00
0.000000000000000e+00 0.000000000000000e+00 0.000000000000000e+00
0.000000000000000e+00 0.000000000000000e+00 0.000000000000000e+00
0.000000000000000e+00 0.000000000000000e+00 0.000000000000000e+00
0.000000000000000e+00 0.000000000000000e+00 0.000000000000000e+00
0.000000000000000e+00 0.000000000000000e+00 0.000000000000000e+00
0.000000000000000e+00 0.000000000000000e+00 0.000000000000000e+00
0.000000000000000e+00 0.000000000000000e+00 0.000000000000000e+00
0.000000000000000e+00 0.000000000000000e+00 0.000000000000000e+00
0.000000000000000e+00 0.000000000000000e+00 0.000000000000000e+00
0.000000000000000e+00 0.000000000000000e+00 0.000000000000000e+00
0.000000000000000e+00 0.000000000000000e+00 0.000000000000000e+00
0.000000000000000e+00 0.000000000000000e+00 0.000000000000000e+00
0.000000000000000e+00 0.000000000000000e+00 0.000000000000000e+00
0.000000000000000e+00 0.000000000000000e+00 0.000000000000000e+00
0.000000000000000e+00 0.000000000000000e+00 0.000000000000000e+00
0.000000000000000e+00 0.000000000000000e+00 0.000000000000000e+00
0.000000000000000e+00 0.000000000000000e+00 0.000000000000000e+00
0.000000000000000e+00 0.000000000000000e+00 0.000000000000000e+00
0.000000000000000e+00 0.000000000000000e+00 0.000000000000000e+00
0.000000000000000e+00 0.000000000000000e+00 0.000000000000000e+00
0.000000000000000e+00 0.000000000000000e+00 0.000000000000000e+00
0.000000000000000e+00 0.000000000000000e+00 0.000000000000000e+00
0.000000000000000e+00 0.000000000000000e+00 0.000000000000000e+00
0.000000000000000e+00 0.000000000000000e+00 0.000000000000000e+00
0.000000000000000e+00 0.000000000000000e+00 0.000000000000000e+00
0.000000000000000e+00 0.000000000000000e+00 0.000000000000000e+00
0.000000000000000e+00 0.000000000000000e+00 0.000000000000000e+00
0.000000000000000e+00 0.000000000000000e+00 0.000000000000000e+00
0.000000000000000e+00 0.000000000000000e+00 0.000000000000000e+00
0.000000000000000e+00 0.000000000000000e+00 0.000000000000000e+00
0.000000000000000e+00 0.000000000000000e+00 0.000000000000000e+00
0.000000000000000e+00 0.000000000000000e+00 0.000000000000000e+00
0.000000000000000e+00 0.000000000000000e+00 0.000000000000000e+00
0.000000000000000e+00 0.000000000000000e+00 0.000000000000000e+00
0.000000000000000e+00 0.000000000000000e+00 0.000000000000000e+00
0.000000000000000e+00 0.000000000000000e+00 0.000000000000000e+00
0.000000000000000e+00 0.000000000000000e+00 0.000000000000000e+00
0.000000000000000e+00 0.000000000000000e+00 0.000000000000000e+00
0.000000000000000e+00 0.000000000000000e+00 0.000000000000000e+00
0.000000000000000e+00 0.000000000000000e+00 0.000000000000000e+00
0.000000000000000e+00 0.000000000000000e+00 0.000000000000000e+00
0.000000000000000e+00 0.000000000000000e+00 0.000000000000000e+00
0.000000000000000e+00 0.000000000000000e+00 0.000000000000000e+00
0.000000000000000e+00 0.000000000000000e+00 0.000000000000000e+00
0.000000000000000e+00 0.000000000000000e+00 0.000000000000000e+00
0.000000000000000e+00 0.000000000000000e+00 0.000000000000000e+00
0.000000000000000e+00 0.000000000000000e+00 0.000000000000000e+00
0.000000000000000e+00 0.000000000000000e+00 0.000000000000000e+00
0.000000000000000e+00 0.000000000000000e+00 0.000000000000000e+00
0.000000000000000e+00 0.000000000000000e+00 0.000000000000000e+00
0.000000000000000e+00 0.000000000000000e+00 0.000000000000000e+00
0.000000000000000e+00 0.000000000000000e+00 0.000000000000000e+00
0.000000000000000e+00 0.000000000000000e+00 0.000000000000000e+00
0.000000000000000e+00 0.000000000000000e+00 0.000000000000000e+00
0.000000000000000e+00 0.000000000000000e+00 0.000000000000000e+00
0.000000000000000e+00 0.000000000000000e+00 0.000000000000000e+00
0.000000000000000e+00 0.000000000000000e+00 0.000000000000000e+00
0.000000000000000e+00 0.000000000000000e+00 0.000000000000000e+00
0.000000000000000e+00 0.000000000000000e+00 0.000000000000000e+00
0.000000000000000e+00 0.000000000000000e+00 0.000000000000000e+00
0.000000000000000e+00 0.000000000000000e+00 0.000000000000000e+00
0.000000000000000e+00 0.000000000000000e+00 0.000000000000000e+00
0.000000000000000e+00 0.000000000000000e+00 0.000000000000000e+00
0.000000000000000e+00 0.000000000000000e+00 0.000000000000000e+00
0.000000000000000e+00 0.000000000000000e+00 0.000000000000000e+00
0.000000000000000e+00 0.000000000000000e+00 0.000000000000000e+00
0.000000000000000e+00 0.000000000000000e+00 0.000000000000000e+00
0.000000000000000e+00 0.000000000000000e+00 0.000000000000000e+00
0.000000000000000e+00 0.000000000000000e+00 0.000000000000000e+00
0.000000000000000e+00 0.000000000000000e+00 0.000000000000000e+00
0.000000000000000e+00 0.000000000000000e+00 0.000000000000000e+00
0.000000000000000e+00 0.000000000000000e+00 0.000000000000000e+00
0.000000000000000e+00 0.000000000000000e+00 0.000000000000000e+00
0.000000000000000e+00 0.000000000000000e+00 0.000000000000000e+00
0.000000000000000e+00 0.000000000000000e+00 0.000000000000000e+00
0.000000000000000e+00 0.000000000000000e+00 0.000000000000000e+00
0.000000000000000e+00 0.000000000000000e+00 0.000000000000000e+00
0.000000000000000e+00 0.000000000000000e+00 0.000000000000000e+00
0.000000000000000e+00 0.000000000000000e+00 0.000000000000000e+00
0.000000000000000e+00 0.000000000000000e+00 0.000000000000000e+00
0.000000000000000e+00 0.000000000000000e+00 0.000000000000000e+00
0.000000000000000e+00 0.000000000000000e+00 0.000000000000000e+00
0.000000000000000e+00 0.000000000000000e+00 0.000000000000000e+00
0.000000000000000e+00 0.000000000000000e+00 0.000000000000000e+00
0.000000000000000e+00 0.000000000000000e+00 0.000000000000000e+00
0.000000000000000e+00 0.000000000000000e+00 0.000000000000000e+00
0.000000000000000e+00 0.000000000000000e+00 0.000000000000000e+00
0.000000000000000e+00 0.000000000000000e+00 0.000000000000000e+00
0.000000000000000e+00 0.000000000000000e+00 0.000000000000000e+00
0.000000000000000e+00 0.000000000000000e+00 0.000000000000000e+00
0.000000000000000e+00 0.000000000000000e+00 0.000000000000000e+00
0.000000000000000e+00 0.000000000000000e+00 0.000000000000000e+00
0.000000000000000e+00 0.000000000000000e+00 0.000000000000000e+00
0.000000000000000e+00 0.000000000000000e+00 0.000000000000000e+00
0.000000000000000e+00 0.000000000000000e+00 0.000000000000000e+00
0.000000000000000e+00 0.000000000000000e+00 0.000000000000000e+00
0.000000000000000e+00 0.000000000000000e+00 0.000000000000000e+00
0.000000000000000e+00 0.000000000000000e+00 0.000000000000000e+00
0.000000000000000e+00 0.000000000000000e+00 0.000000000000000e+00
0.000000000000000e+00 0.000000000000000e+00 0.000000000000000e+00
0.000000000000000e+00 0.000000000000000e+00 0.000000000000000e+00
0.000000000000000e+00 0.000000000000000e+00 0.000000000000000e+00
0.000000000000000e+00 0.000000000000000e+00 0.000000000000000e+00
0.000000000000000e+00 0.000000000000000e+00 0.000000000000000e+00
0.000000000000000e+00 0.000000000000000e+00 0.000000000000000e+00
0.000000000000000e+00 0.000000000000000e+00 0.000000000000000e+00
0.000000000000000e+00 0.000000000000000e+00 0.000000000000000e+00
0.000000000000000e+00 0.000000000000000e+00 0.000000000000000e+00
0.000000000000000e+00 0.000000000000000e+00 0.000000000000000e+00
0.000000000000000e+00 0.000000000000000e+00 0.000000000000000e+00
0.000000000000000e+00 0.000000000000000e+00 0.000000000000000e+00
0.000000000000000e+00 0.000000000000000e+00 0.000000000000000e+00
0.000000000000000e+00 0.000000000000000e+00 0.000000000000000e+00
0.000000000000000e+00 0.000000000000000e+00 0.000000000000000e+00
0.000000000000000e+00 0.000000000000000e+00 0.000000000000000e+00
0.000000000000000e+00 0.000000000000000e+00 0.000000000000000e+00
0.000000000000000e+00 0.000000000000000e+00 0.000000000000000e+00
0.000000000000000e+00 0.000000000000000e+00 0.000000000000000e+00
0.000000000000000e+00 0.000000000000000e+00 0.000000000000000e+00
0.000000000000000e+00 0.000000000000000e+00 0.000000000000000e+00
0.000000000000000e+00 0.000000000000000e+00 0.000000000000000e+00
0.000000000000000e+00 0.000000000000000e+00 0.000000000000000e+00
0.000000000000000e+00 0.000000000000000e+00 0.000000000000000e+00
0.000000000000000e+00 0.000000000000000e+00 0.000000000000000e+00
0.000000000000000e+00 0.000000000000000e+00 0.000000000000000e+00
0.000000000000000e+00 0.000000000000000e+00 0.000000000000000e+00
0.000000000000000e+00 0.000000000000000e+00 0.000000000000000e+00
0.000000000000000e+00 0.000000000000000e+00 0.000000000000000e+00
0.000000000000000e+00 0.000000000000000e+00 0.000000000000000e+00
0.000000000000000e+00 0.000000000000000e+00 0.000000000000000e+00
0.000000000000000e+00 0.000000000000000e+00 0.000000000000000e+00
0.000000000000000e+00 0.000000000000000e+00 0.000000000000000e+00
0.000000000000000e+00 0.000000000000000e+00 0.000000000000000e+00
0.000000000000000e+00 0.000000000000000e+00 0.000000000000000e+00
0.000000000000000e+00 0.000000000000000e+00 0.000000000000000e+00
0.000000000000000e+00 0.000000000000000e+00 0.000000000000000e+00
0.000000000000000e+00 0.000000000000000e+00 0.000000000000000e+00
0.000000000000000e+00 0.000000000000000e+00 0.000000000000000e+00
0.000000000000000e+00 0.000000000000000e+00 0.000000000000000e+00
0.000000000000000e+00 0.000000000000000e+00 0.000000000000000e+00
0.000000000000000e+00 0.000000000000000e+00 0.000000000000000e+00
0.000000000000000e+00 0.000000000000000e+00 0.000000000000000e+00
0.000000000000000e+00 0.000000000000000e+00 0.000000000000000e+00
0.000000000000000e+00 0.000000000000000e+00 0.000000000000000e+00
0.000000000000000e+00 0.000000000000000e+00 0.000000000000000e+00
0.000000000000000e+00 0.000000000000000e+00 0.000000000000000e+00
0.000000000000000e+00 0.000000000000000e+00 0.000000000000000e+00
0.000000000000000e+00 0.000000000000000e+00 0.000000000000000e+00
0.000000000000000e+00 0.000000000000000e+00 0.000000000000000e+00
0.000000000000000e+00 0.000000000000000e+00 0.000000000000000e+00
0.000000000000000e+00 0.000000000000000e+00 0.000000000000000e+00
0.000000000000000e+00 0.000000000000000e+00 0.000000000000000e+00
0.000000000000000e+00 0.000000000000000e+00 0.000000000000000e+00
0.000000000000000e+00 0.000000000000000e+00 0.000000000000000e+00
0.000000000000000e+00 0.000000000000000e+00 0.000000000000000e+00
0.000000000000000e+00 0.000000000000000e+00 0.000000000000000e+00
0.000000000000000e+00 0.000000000000000e+00 0.000000000000000e+00
0.000000000000000e+00 0.000000000000000e+00 0.000000000000000e+00
0.000000000000000e+00 0.000000000000000e+00 0.000000000000000e+00
0.000000000000000e+00 0.000000000000000e+00 0.000000000000000e+00
0.000000000000000e+00 0.000000000000000e+00 0.000000000000000e+00
0.000000000000000e+00 0.000000000000000e+00 0.000000000000000e+00
0.000000000000000e+00 0.000000000000000e+00 0.000000000000000e+00
0.000000000000000e+00 0.000000000000000e+00 0.000000000000000e+00
0.000000000000000e+00 0.000000000000000e+00 0.000000000000000e+00
0.000000000000000e+00 0.000000000000000e+00 0.000000000000000e+00
0.000000000000000e+00 0.000000000000000e+00 0.000000000000000e+00
0.000000000000000e+00 0.000000000000000e+00 0.000000000000000e+00
0.000000000000000e+00 0.000000000000000e+00 0.000000000000000e+00
0.000000000000000e+00 0.000000000000000e+00 0.000000000000000e+00
0.000000000000000e+00 0.000000000000000e+00 0.000000000000000e+00
0.000000000000000e+00 0.000000000000000e+00 0.000000000000000e+00
0.000000000000000e+00 0.000000000000000e+00 0.000000000000000e+00
0.000000000000000e+00 0.000000000000000e+00 0.000000000000000e+00
0.000000000000000e+00 0.000000000000000e+00 0.000000000000000e+00
0.000000000000000e+00 0.000000000000000e+00 0.000000000000000e+00
0.000000000000000e+00 0.000000000000000e+00 0.000000000000000e+00
0.000000000000000e+00 0.000000000000000e+00 0.000000000000000e+00
0.000000000000000e+00 0.000000000000000e+00 0.000000000000000e+00
0.000000000000000e+00 0.000000000000000e+00 0.000000000000000e+00
0.000000000000000e+00 0.000000000000000e+00 0.000000000000000e+00
0.000000000000000e+00 0.000000000000000e+00 0.000000000000000e+00
0.000000000000000e+00 0.000000000000000e+00 0.000000000000000e+00
0.000000000000000e+00 0.000000000000000e+00 0.000000000000000e+00
0.000000000000000e+00 0.000000000000000e+00 0.000000000000000e+00
0.000000000000000e+00 0.000000000000000e+00 0.000000000000000e+00
0.000000000000000e+00 0.000000000000000e+00 0.000000000000000e+00
0.000000000000000e+00 0.000000000000000e+00 0.000000000000000e+00
0.000000000000000e+00 0.000000000000000e+00 0.000000000000000e+00
0.000000000000000e+00 0.000000000000000e+00 0.000000000000000e+00
0.000000000000000e+00 0.000000000000000e+00 0.000000000000000e+00
0.000000000000000e+00 0.000000000000000e+00 0.000000000000000e+00
0.000000000000000e+00 0.000000000000000e+00 0.000000000000000e+00
0.000000000000000e+00 0.000000000000000e+00 0.000000000000000e+00
0.000000000000000e+00 0.000000000000000e+00 0.000000000000000e+00
0.000000000000000e+00 0.000000000000000e+00 0.000000000000000e+00
0.000000000000000e+00 0.000000000000000e+00 0.000000000000000e+00
0.000000000000000e+00 0.000000000000000e+00 0.000000000000000e+00
0.000000000000000e+00 0.000000000000000e+00 0.000000000000000e+00
0.000000000000000e+00 0.000000000000000e+00 0.000000000000000e+00
0.000000000000000e+00 0.000000000000000e+00 0.000000000000000e+00
0.000000000000000e+00 0.000000000000000e+00 0.000000000000000e+00
0.000000000000000e+00 0.000000000000000e+00 0.000000000000000e+00
0.000000000000000e+00 0.000000000000000e+00 0.000000000000000e+00
0.000000000000000e+00 0.000000000000000e+00 0.000000000000000e+00
0.000000000000000e+00 0.000000000000000e+00 0.000000000000000e+00
0.000000000000000e+00 0.000000000000000e+00 0.000000000000000e+00
0.000000000000000e+00 0.000000000000000e+00 0.000000000000000e+00
0.000000000000000e+00 0.000000000000000e+00 0.000000000000000e+00
0.000000000000000e+00 0.000000000000000e+00 0.000000000000000e+00
0.000000000000000e+00 0.000000000000000e+00 0.000000000000000e+00
0.000000000000000e+00 0.000000000000000e+00 0.000000000000000e+00
0.000000000000000e+00 0.000000000000000e+00 0.000000000000000e+00
0.000000000000000e+00 0.000000000000000e+00 0.000000000000000e+00
0.000000000000000e+00 0.000000000000000e+00 0.000000000000000e+00
0.000000000000000e+00 0.000000000000000e+00 0.000000000000000e+00
0.000000000000000e+00 0.000000000000000e+00 0.000000000000000e+00
0.000000000000000e+00 0.000000000000000e+00 0.000000000000000e+00
0.000000000000000e+00 0.000000000000000e+00 0.000000000000000e+00
0.000000000000000e+00 0.000000000000000e+00 0.000000000000000e+00
0.000000000000000e+00 0.000000000000000e+00 0.000000000000000e+00
0.000000000000000e+00 0.000000000000000e+00 0.000000000000000e+00
0.000000000000000e+00 0.000000000000000e+00 0.000000000000000e+00
0.000000000000000e+00 0.000000000000000e+00 0.000000000000000e+00
0.000000000000000e+00 0.000000000000000e+00 0.000000000000000e+00
0.000000000000000e+00 0.000000000000000e+00 0.000000000000000e+00
0.000000000000000e+00 0.000000000000000e+00 0.000000000000000e+00
0.000000000000000e+00 0.000000000000000e+00 0.000000000000000e+00
0.000000000000000e+00 0.000000000000000e+00 0.000000000000000e+00
0.000000000000000e+00 0.000000000000000e+00 0.000000000000000e+00
0.000000000000000e+00 0.000000000000000e+00 0.000000000000000e+00
0.000000000000000e+00 0.000000000000000e+00 0.000000000000000e+00
0.000000000000000e+00 0.000000000000000e+00 0.000000000000000e+00
0.000000000000000e+00 0.000000000000000e+00 0.000000000000000e+00
0.000000000000000e+00 0.000000000000000e+00 0.000000000000000e+00
0.000000000000000e+00 0.000000000000000e+00 0.000000000000000e+00
0.000000000000000e+00 0.000000000000000e+00 0.000000000000000e+00
0.000000000000000e+00 0.000000000000000e+00 0.000000000000000e+00
0.000000000000000e+00 0.000000000000000e+00 0.000000000000000e+00
0.000000000000000e+00 0.000000000000000e+00 0.000000000000000e+00
0.000000000000000e+00 0.000000000000000e+00 0.000000000000000e+00
0.000000000000000e+00 0.000000000000000e+00 0.000000000000000e+00
0.000000000000000e+00 0.000000000000000e+00 0.000000000000000e+00
0.000000000000000e+00 0.000000000000000e+00 0.000000000000000e+00
0.000000000000000e+00 0.000000000000000e+00 0.000000000000000e+00
0.000000000000000e+00 0.000000000000000e+00 0.000000000000000e+00
0.000000000000000e+00 0.000000000000000e+00 0.000000000000000e+00
0.000000000000000e+00 0.000000000000000e+00 0.000000000000000e+00
0.000000000000000e+00 0.000000000000000e+00 0.000000000000000e+00
0.000000000000000e+00 0.000000000000000e+00 0.000000000000000e+00
0.000000000000000e+00 0.000000000000000e+00 0.000000000000000e+00
0.000000000000000e+00 0.000000000000000e+00 0.000000000000000e+00
0.000000000000000e+00 0.000000000000000e+00 0.000000000000000e+00
0.000000000000000e+00 0.000000000000000e+00 0.000000000000000e+00
0.000000000000000e+00 0.000000000000000e+00 0.000000000000000e+00
0.000000000000000e+00 0.000000000000000e+00 0.000000000000000e+00
0.000000000000000e+00 0.000000000000000e+00 0.000000000000000e+00
0.000000000000000e+00 0.000000000000000e+00 0.000000000000000e+00
0.000000000000000e+00 0.000000000000000e+00 0.000000000000000e+00
0.000000000000000e+00 0.000000000000000e+00 0.000000000000000e+00
0.000000000000000e+00 0.000000000000000e+00 0.000000000000000e+00
0.000000000000000e+00 0.000000000000000e+00 0.000000000000000e+00
0.000000000000000e+00 0.000000000000000e+00 0.000000000000000e+00
0.000000000000000e+00 0.000000000000000e+00 0.000000000000000e+00
0.000000000000000e+00 0.000000000000000e+00 0.000000000000000e+00
0.000000000000000e+00 0.000000000000000e+00 0.000000000000000e+00
0.000000000000000e+00 0.000000000000000e+00 0.000000000000000e+00
0.000000000000000e+00 0.000000000000000e+00 0.000000000000000e+00
0.000000000000000e+00 0.000000000000000e+00 0.000000000000000e+00
0.000000000000000e+00 0.000000000000000e+00 0.000000000000000e+00
0.000000000000000e+00 0.000000000000000e+00 0.000000000000000e+00
0.000000000000000e+00 0.000000000000000e+00 0.000000000000000e+00
0.000000000000000e+00 0.000000000000000e+00 0.000000000000000e+00
0.000000000000000e+00 0.000000000000000e+00 0.000000000000000e+00
0.000000000000000e+00 0.000000000000000e+00 0.000000000000000e+00
0.000000000000000e+00 0.000000000000000e+00 0.000000000000000e+00
0.000000000000000e+00 0.000000000000000e+00 0.000000000000000e+00
0.000000000000000e+00 0.000000000000000e+00 0.000000000000000e+00
0.000000000000000e+00 0.000000000000000e+00 0.000000000000000e+00
0.000000000000000e+00 0.000000000000000e+00 0.000000000000000e+00
0.000000000000000e+00 0.000000000000000e+00 0.000000000000000e+00
0.000000000000000e+00 0.000000000000000e+00 0.000000000000000e+00
0.000000000000000e+00 0.000000000000000e+00 0.000000000000000e+00
0.000000000000000e+00 0.000000000000000e+00 0.000000000000000e+00
0.000000000000000e+00 0.000000000000000e+00 0.000000000000000e+00
0.000000000000000e+00 0.000000000000000e+00 0.000000000000000e+00
0.000000000000000e+00 0.000000000000000e+00 0.000000000000000e+00
0.000000000000000e+00 0.000000000000000e+00 0.000000000000000e+00
0.000000000000000e+00 0.000000000000000e+00 0.000000000000000e+00
0.000000000000000e+00 0.000000000000000e+00 0.000000000000000e+00
0.000000000000000e+00 0.000000000000000e+00 0.000000000000000e+00
0.000000000000000e+00 0.000000000000000e+00 0.000000000000000e+00
0.000000000000000e+00 0.000000000000000e+00 0.000000000000000e+00
0.000000000000000e+00 0.000000000000000e+00 0.000000000000000e+00
0.000000000000000e+00 0.000000000000000e+00 0.000000000000000e+00
0.000000000000000e+00 0.000000000000000e+00 0.000000000000000e+00
0.000000000000000e+00 0.000000000000000e+00 0.000000000000000e+00
0.000000000000000e+00 0.000000000000000e+00 0.000000000000000e+00
0.000000000000000e+00 0.000000000000000e+00 0.000000000000000e+00
0.000000000000000e+00 0.000000000000000e+00 0.000000000000000e+00
0.000000000000000e+00 0.000000000000000e+00 0.000000000000000e+00
0.000000000000000e+00 0.000000000000000e+00 0.000000000000000e+00
0.000000000000000e+00 0.000000000000000e+00 0.000000000000000e+00
0.000000000000000e+00 0.000000000000000e+00 0.000000000000000e+00
0.000000000000000e+00 0.000000000000000e+00 0.000000000000000e+00
0.000000000000000e+00 0.000000000000000e+00 0.000000000000000e+00
0.000000000000000e+00 0.000000000000000e+00 0.000000000000000e+00
0.000000000000000e+00 0.000000000000000e+00 0.000000000000000e+00
0.000000000000000e+00 0.000000000000000e+00 0.000000000000000e+00
0.000000000000000e+00 0.000000000000000e+00 0.000000000000000e+00
0.000000000000000e+00 0.000000000000000e+00 0.000000000000000e+00
0.000000000000000e+00 0.000000000000000e+00 0.000000000000000e+00
0.000000000000000e+00 0.000000000000000e+00 0.000000000000000e+00
0.000000000000000e+00 0.000000000000000e+00 0.000000000000000e+00
0.000000000000000e+00 0.000000000000000e+00 0.000000000000000e+00
0.000000000000000e+00 0.000000000000000e+00 0.000000000000000e+00
0.000000000000000e+00 0.000000000000000e+00 0.000000000000000e+00
0.000000000000000e+00 0.000000000000000e+00 0.000000000000000e+00
0.000000000000000e+00 0.000000000000000e+00 0.000000000000000e+00
0.000000000000000e+00 0.000000000000000e+00 0.000000000000000e+00
0.000000000000000e+00 0.000000000000000e+00 0.000000000000000e+00
0.000000000000000e+00 0.000000000000000e+00 0.000000000000000e+00
0.000000000000000e+00 0.000000000000000e+00 0.000000000000000e+00
0.000000000000000e+00 0.000000000000000e+00 0.000000000000000e+00
0.000000000000000e+00 0.000000000000000e+00 0.000000000000000e+00
0.000000000000000e+00 0.000000000000000e+00 0.000000000000000e+00
0.000000000000000e+00 0.000000000000000e+00 0.000000000000000e+00
0.000000000000000e+00 0.000000000000000e+00 0.000000000000000e+00
0.000000000000000e+00 0.000000000000000e+00 0.000000000000000e+00
0.000000000000000e+00 0.000000000000000e+00 0.000000000000000e+00
0.000000000000000e+00 0.000000000000000e+00 0.000000000000000e+00
0.000000000000000e+00 0.000000000000000e+00 0.000000000000000e+00
0.000000000000000e+00 0.000000000000000e+00 0.000000000000000e+00
0.000000000000000e+00 0.000000000000000e+00 0.000000000000000e+00
0.000000000000000e+00 0.000000000000000e+00 0.000000000000000e+00
0.000000000000000e+00 0.000000000000000e+00 0.000000000000000e+00
0.000000000000000e+00 0.000000000000000e+00 0.000000000000000e+00
0.000000000000000e+00 0.000000000000000e+00 0.000000000000000e+00
0.000000000000000e+00 0.000000000000000e+00 0.000000000000000e+00
0.000000000000000e+00 0.000000000000000e+00 0.000000000000000e+00
0.000000000000000e+00 0.000000000000000e+00 0.000000000000000e+00
0.000000000000000e+00 0.000000000000000e+00 0.000000000000000e+00
0.000000000000000e+00 0.000000000000000e+00 0.000000000000000e+00
0.000000000000000e+00 0.000000000000000e+00 0.000000000000000e+00
0.000000000000000e+00 0.000000000000000e+00 0.000000000000000e+00
0.000000000000000e+00 0.000000000000000e+00 0.000000000000000e+00
0.000000000000000e+00 0.000000000000000e+00 0.000000000000000e+00
0.000000000000000e+00 0.000000000000000e+00 0.000000000000000e+00
0.000000000000000e+00 0.000000000000000e+00 0.000000000000000e+00
0.000000000000000e+00 0.000000000000000e+00 0.000000000000000e+00
0.000000000000000e+00 0.000000000000000e+00 0.000000000000000e+00
0.000000000000000e+00 0.000000000000000e+00 0.000000000000000e+00
0.000000000000000e+00 0.000000000000000e+00 0.000000000000000e+00
0.000000000000000e+00 0.000000000000000e+00 0.000000000000000e+00
0.000000000000000e+00 0.000000000000000e+00 0.000000000000000e+00
0.000000000000000e+00 0.000000000000000e+00 0.000000000000000e+00
0.000000000000000e+00 0.000000000000000e+00 0.000000000000000e+00
0.000000000000000e+00 0.000000000000000e+00 0.000000000000000e+00
0.000000000000000e+00 0.000000000000000e+00 0.000000000000000e+00
0.000000000000000e+00 0.000000000000000e+00 0.000000000000000e+00
0.000000000000000e+00 0.000000000000000e+00 0.000000000000000e+00
0.000000000000000e+00 0.000000000000000e+00 0.000000000000000e+00
0.000000000000000e+00 0.000000000000000e+00 0.000000000000000e+00
0.000000000000000e+00 0.000000000000000e+00 0.000000000000000e+00
0.000000000000000e+00 0.000000000000000e+00 0.000000000000000e+00
0.000000000000000e+00 0.000000000000000e+00 0.000000000000000e+00
0.000000000000000e+00 0.000000000000000e+00 0.000000000000000e+00
0.000000000000000e+00 0.000000000000000e+00 0.000000000000000e+00
0.000000000000000e+00 0.000000000000000e+00 0.000000000000000e+00
0.000000000000000e+00 0.000000000000000e+00 0.000000000000000e+00
0.000000000000000e+00 0.000000000000000e+00 0.000000000000000e+00
0.000000000000000e+00 0.000000000000000e+00 0.000000000000000e+00
0.000000000000000e+00 0.000000000000000e+00 0.000000000000000e+00
0.000000000000000e+00 0.000000000000000e+00 0.000000000000000e+00
0.000000000000000e+00 0.000000000000000e+00 0.000000000000000e+00
0.000000000000000e+00 0.000000000000000e+00 0.000000000000000e+00
0.000000000000000e+00 0.000000000000000e+00 0.000000000000000e+00
0.000000000000000e+00 0.000000000000000e+00 0.000000000000000e+00
0.000000000000000e+00 0.000000000000000e+00 0.000000000000000e+00
0.000000000000000e+00 0.000000000000000e+00 0.000000000000000e+00
0.000000000000000e+00 0.000000000000000e+00 0.000000000000000e+00
0.000000000000000e+00 0.000000000000000e+00 0.000000000000000e+00
0.000000000000000e+00 0.000000000000000e+00 0.000000000000000e+00
0.000000000000000e+00 0.000000000000000e+00 0.000000000000000e+00
0.000000000000000e+00 0.000000000000000e+00 0.000000000000000e+00
0.000000000000000e+00 0.000000000000000e+00 0.000000000000000e+00
0.000000000000000e+00 0.000000000000000e+00 0.000000000000000e+00
0.000000000000000e+00 0.000000000000000e+00 0.000000000000000e+00
0.000000000000000e+00 0.000000000000000e+00 0.000000000000000e+00
0.000000000000000e+00 0.000000000000000e+00 0.000000000000000e+00
0.000000000000000e+00 0.000000000000000e+00 0.000000000000000e+00
0.000000000000000e+00 0.000000000000000e+00 0.000000000000000e+00
0.000000000000000e+00 0.000000000000000e+00 0.000000000000000e+00
0.000000000000000e+00 0.000000000000000e+00 0.000000000000000e+00
0.000000000000000e+00 0.000000000000000e+00 0.000000000000000e+00
0.000000000000000e+00 0.000000000000000e+00 0.000000000000000e+00
0.000000000000000e+00 0.000000000000000e+00 0.000000000000000e+00
0.000000000000000e+00 0.000000000000000e+00 0.000000000000000e+00
0.000000000000000e+00 0.000000000000000e+00 0.000000000000000e+00
0.000000000000000e+00 0.000000000000000e+00 0.000000000000000e+00
0.000000000000000e+00 0.000000000000000e+00 0.000000000000000e+00
0.000000000000000e+00 0.000000000000000e+00 0.000000000000000e+00
0.000000000000000e+00 0.000000000000000e+00 0.000000000000000e+00
0.000000000000000e+00 0.000000000000000e+00 0.000000000000000e+00
0.000000000000000e+00 0.000000000000000e+00 0.000000000000000e+00
0.000000000000000e+00 0.000000000000000e+00 0.000000000000000e+00
0.000000000000000e+00 0.000000000000000e+00 0.000000000000000e+00
0.000000000000000e+00 0.000000000000000e+00 0.000000000000000e+00
0.000000000000000e+00 0.000000000000000e+00 0.000000000000000e+00
0.000000000000000e+00 0.000000000000000e+00 0.000000000000000e+00
0.000000000000000e+00 0.000000000000000e+00 0.000000000000000e+00
0.000000000000000e+00 0.000000000000000e+00 0.000000000000000e+00
0.000000000000000e+00 0.000000000000000e+00 0.000000000000000e+00
0.000000000000000e+00 0.000000000000000e+00 0.000000000000000e+00
0.000000000000000e+00 0.000000000000000e+00 0.000000000000000e+00
0.000000000000000e+00 0.000000000000000e+00 0.000000000000000e+00
0.000000000000000e+00 0.000000000000000e+00 0.000000000000000e+00
0.000000000000000e+00 0.000000000000000e+00 0.000000000000000e+00
0.000000000000000e+00 0.000000000000000e+00 0.000000000000000e+00
0.000000000000000e+00 0.000000000000000e+00 0.000000000000000e+00
0.000000000000000e+00 0.000000000000000e+00 0.000000000000000e+00
0.000000000000000e+00 0.000000000000000e+00 0.000000000000000e+00
0.000000000000000e+00 0.000000000000000e+00 0.000000000000000e+00
0.000000000000000e+00 0.000000000000000e+00 0.000000000000000e+00
0.000000000000000e+00 0.000000000000000e+00 0.000000000000000e+00
0.000000000000000e+00 0.000000000000000e+00 0.000000000000000e+00
0.000000000000000e+00 0.000000000000000e+00 0.000000000000000e+00
0.000000000000000e+00 0.000000000000000e+00 0.000000000000000e+00
0.000000000000000e+00 0.000000000000000e+00 0.000000000000000e+00
0.000000000000000e+00 0.000000000000000e+00 0.000000000000000e+00
0.000000000000000e+00 0.000000000000000e+00 0.000000000000000e+00
0.000000000000000e+00 0.000000000000000e+00 0.000000000000000e+00
0.000000000000000e+00 0.000000000000000e+00 0.000000000000000e+00
0.000000000000000e+00 0.000000000000000e+00 0.000000000000000e+00
0.000000000000000e+00 0.000000000000000e+00 0.000000000000000e+00
0.000000000000000e+00 0.000000000000000e+00 0.000000000000000e+00
0.000000000000000e+00 0.000000000000000e+00 0.000000000000000e+00
0.000000000000000e+00 0.000000000000000e+00 0.000000000000000e+00
0.000000000000000e+00 0.000000000000000e+00 0.000000000000000e+00
0.000000000000000e+00 0.000000000000000e+00 0.000000000000000e+00
0.000000000000000e+00 0.000000000000000e+00 0.000000000000000e+00
0.000000000000000e+00 0.000000000000000e+00 0.000000000000000e+00
0.000000000000000e+00 0.000000000000000e+00 0.000000000000000e+00
0.000000000000000e+00 0.000000000000000e+00 0.000000000000000e+00
0.000000000000000e+00 0.000000000000000e+00 0.000000000000000e+00
0.000000000000000e+00 0.000000000000000e+00 0.000000000000000e+00
0.000000000000000e+00 0.000000000000000e+00 0.000000000000000e+00
0.000000000000000e+00 0.000000000000000e+00 0.000000000000000e+00
0.000000000000000e+00 0.000000000000000e+00 0.000000000000000e+00
0.000000000000000e+00 0.000000000000000e+00 0.000000000000000e+00
0.000000000000000e+00 0.000000000000000e+00 0.000000000000000e+00
0.000000000000000e+00 0.000000000000000e+00 0.000000000000000e+00
0.000000000000000e+00 0.000000000000000e+00 0.000000000000000e+00
0.000000000000000e+00 0.000000000000000e+00 0.000000000000000e+00
0.000000000000000e+00 0.000000000000000e+00 0.000000000000000e+00
0.000000000000000e+00 0.000000000000000e+00 0.000000000000000e+00
0.000000000000000e+00 0.000000000000000e+00 0.000000000000000e+00
0.000000000000000e+00 0.000000000000000e+00 0.000000000000000e+00
0.000000000000000e+00 0.000000000000000e+00 0.000000000000000e+00
0.000000000000000e+00 0.000000000000000e+00 0.000000000000000e+00
0.000000000000000e+00 0.000000000000000e+00 0.000000000000000e+00
0.000000000000000e+00 0.000000000000000e+00 0.000000000000000e+00
0.000000000000000e+00 0.000000000000000e+00 0.000000000000000e+00
0.000000000000000e+00 0.000000000000000e+00 0.000000000000000e+00
0.000000000000000e+00 0.000000000000000e+00 0.000000000000000e+00
0.000000000000000e+00 0.000000000000000e+00 0.000000000000000e+00
0.000000000000000e+00 0.000000000000000e+00 0.000000000000000e+00
0.000000000000000e+00 0.000000000000000e+00 0.000000000000000e+00
0.000000000000000e+00 0.000000000000000e+00 0.000000000000000e+00
0.000000000000000e+00 0.000000000000000e+00 0.000000000000000e+00
0.000000000000000e+00 0.000000000000000e+00 0.000000000000000e+00
0.000000000000000e+00 0.000000000000000e+00 0.000000000000000e+00
0.000000000000000e+00 0.000000000000000e+00 0.000000000000000e+00
0.000000000000000e+00 0.000000000000000e+00 0.000000000000000e+00
0.000000000000000e+00 0.000000000000000e+00 0.000000000000000e+00
0.000000000000000e+00 0.000000000000000e+00 0.000000000000000e+00
0.000000000000000e+00 0.000000000000000e+00 0.000000000000000e+00
0.000000000000000e+00 0.000000000000000e+00 0.000000000000000e+00
0.000000000000000e+00 0.000000000000000e+00 0.000000000000000e+00
0.000000000000000e+00 0.000000000000000e+00 0.000000000000000e+00
0.000000000000000e+00 0.000000000000000e+00 0.000000000000000e+00
0.000000000000000e+00 0.000000000000000e+00 0.000000000000000e+00
0.000000000000000e+00 0.000000000000000e+00 0.000000000000000e+00
0.000000000000000e+00 0.000000000000000e+00 0.000000000000000e+00
0.000000000000000e+00 0.000000000000000e+00 0.000000000000000e+00
0.000000000000000e+00 0.000000000000000e+00 0.000000000000000e+00
0.000000000000000e+00 0.000000000000000e+00 0.000000000000000e+00
0.000000000000000e+00 0.000000000000000e+00 0.000000000000000e+00
0.000000000000000e+00 0.000000000000000e+00 0.000000000000000e+00
0.000000000000000e+00 0.000000000000000e+00 0.000000000000000e+00
0.000000000000000e+00 0.000000000000000e+00 0.000000000000000e+00
0.000000000000000e+00 0.000000000000000e+00 0.000000000000000e+00
0.000000000000000e+00 0.000000000000000e+00 0.000000000000000e+00
0.000000000000000e+00 0.000000000000000e+00 0.000000000000000e+00
0.000000000000000e+00 0.000000000000000e+00 0.000000000000000e+00
0.000000000000000e+00 0.000000000000000e+00 0.000000000000000e+00
0.000000000000000e+00 0.000000000000000e+00 0.000000000000000e+00
0.000000000000000e+00 0.000000000000000e+00 0.000000000000000e+00
0.000000000000000e+00 0.000000000000000e+00 0.000000000000000e+00
0.000000000000000e+00 0.000000000000000e+00 0.000000000000000e+00
0.000000000000000e+00 0.000000000000000e+00 0.000000000000000e+00
0.000000000000000e+00 0.000000000000000e+00 0.000000000000000e+00
0.000000000000000e+00 0.000000000000000e+00 0.000000000000000e+00
0.000000000000000e+00 0.000000000000000e+00 0.000000000000000e+00
0.000000000000000e+00 0.000000000000000e+00 0.000000000000000e+00
0.000000000000000e+00 0.000000000000000e+00 0.000000000000000e+00
0.000000000000000e+00 0.000000000000000e+00 0.000000000000000e+00
0.000000000000000e+00 0.000000000000000e+00 0.000000000000000e+00
0.000000000000000e+00 0.000000000000000e+00 0.000000000000000e+00
0.000000000000000e+00 0.000000000000000e+00 0.000000000000000e+00
0.000000000000000e+00 0.000000000000000e+00 0.000000000000000e+00
0.000000000000000e+00 0.000000000000000e+00 0.000000000000000e+00
0.000000000000000e+00 0.000000000000000e+00 0.000000000000000e+00
0.000000000000000e+00 0.000000000000000e+00 0.000000000000000e+00
0.000000000000000e+00 0.000000000000000e+00 0.000000000000000e+00
0.000000000000000e+00 0.000000000000000e+00 0.000000000000000e+00
0.000000000000000e+00 0.000000000000000e+00 0.000000000000000e+00
0.000000000000000e+00 0.000000000000000e+00 0.000000000000000e+00
0.000000000000000e+00 0.000000000000000e+00 0.000000000000000e+00
0.000000000000000e+00 0.000000000000000e+00 0.000000000000000e+00
0.000000000000000e+00 0.000000000000000e+00 0.000000000000000e+00
0.000000000000000e+00 0.000000000000000e+00 0.000000000000000e+00
0.000000000000000e+00 0.000000000000000e+00 0.000000000000000e+00
0.000000000000000e+00 0.000000000000000e+00 0.000000000000000e+00
0.000000000000000e+00 0.000000000000000e+00 0.000000000000000e+00
0.000000000000000e+00 0.000000000000000e+00 0.000000000000000e+00
0.000000000000000e+00 0.000000000000000e+00 0.000000000000000e+00
0.000000000000000e+00 0.000000000000000e+00 0.000000000000000e+00
0.000000000000000e+00 0.000000000000000e+00 0.000000000000000e+00
0.000000000000000e+00 0.000000000000000e+00 0.000000000000000e+00
0.000000000000000e+00 0.000000000000000e+00 0.000000000000000e+00
0.000000000000000e+00 0.000000000000000e+00 0.000000000000000e+00
0.000000000000000e+00 0.000000000000000e+00 0.000000000000000e+00
0.000000000000000e+00 0.000000000000000e+00 0.000000000000000e+00
0.000000000000000e+00 0.000000000000000e+00 0.000000000000000e+00
0.000000000000000e+00 0.000000000000000e+00 0.000000000000000e+00
0.000000000000000e+00 0.000000000000000e+00 0.000000000000000e+00
0.000000000000000e+00 0.000000000000000e+00 0.000000000000000e+00
0.000000000000000e+00 0.000000000000000e+00 0.000000000000000e+00
0.000000000000000e+00 0.000000000000000e+00 0.000000000000000e+00
0.000000000000000e+00 0.000000000000000e+00 0.000000000000000e+00
0.000000000000000e+00 0.000000000000000e+00 0.000000000000000e+00
0.000000000000000e+00 0.000000000000000e+00 0.000000000000000e+00
0.000000000000000e+00 0.000000000000000e+00 0.000000000000000e+00
0.000000000000000e+00 0.000000000000000e+00 0.000000000000000e+00
0.000000000000000e+00 0.000000000000000e+00 0.000000000000000e+00
0.000000000000000e+00 0.000000000000000e+00 0.000000000000000e+00
0.000000000000000e+00 0.000000000000000e+00 0.000000000000000e+00
0.000000000000000e+00 0.000000000000000e+00 0.000000000000000e+00
0.000000000000000e+00 0.000000000000000e+00 0.000000000000000e+00
0.000000000000000e+00 0.000000000000000e+00 0.000000000000000e+00
0.000000000000000e+00 0.000000000000000e+00 0.000000000000000e+00
0.000000000000000e+00 0.000000000000000e+00 0.000000000000000e+00
0.000000000000000e+00 0.000000000000000e+00 0.000000000000000e+00
0.000000000000000e+00 0.000000000000000e+00 0.000000000000000e+00
0.000000000000000e+00 0.000000000000000e+00 0.000000000000000e+00
0.000000000000000e+00 0.000000000000000e+00 0.000000000000000e+00
0.000000000000000e+00 0.000000000000000e+00 0.000000000000000e+00
0.000000000000000e+00 0.000000000000000e+00 0.000000000000000e+00
0.000000000000000e+00 0.000000000000000e+00 0.000000000000000e+00
0.000000000000000e+00 0.000000000000000e+00 0.000000000000000e+00
0.000000000000000e+00 0.000000000000000e+00 0.000000000000000e+00
0.000000000000000e+00 0.000000000000000e+00 0.000000000000000e+00
0.000000000000000e+00 0.000000000000000e+00 0.000000000000000e+00
0.000000000000000e+00 0.000000000000000e+00 0.000000000000000e+00
0.000000000000000e+00 0.000000000000000e+00 0.000000000000000e+00
0.000000000000000e+00 0.000000000000000e+00 0.000000000000000e+00
0.000000000000000e+00 0.000000000000000e+00 0.000000000000000e+00
0.000000000000000e+00 0.000000000000000e+00 0.000000000000000e+00
0.000000000000000e+00 0.000000000000000e+00 0.000000000000000e+00
0.000000000000000e+00 0.000000000000000e+00 0.000000000000000e+00
0.000000000000000e+00 0.000000000000000e+00 0.000000000000000e+00
0.000000000000000e+00 0.000000000000000e+00 0.000000000000000e+00
0.000000000000000e+00 0.000000000000000e+00 0.000000000000000e+00
0.000000000000000e+00 0.000000000000000e+00 0.000000000000000e+00
0.000000000000000e+00 0.000000000000000e+00 0.000000000000000e+00
0.000000000000000e+00 0.000000000000000e+00 0.000000000000000e+00
0.000000000000000e+00 0.000000000000000e+00 0.000000000000000e+00
0.000000000000000e+00 0.000000000000000e+00 0.000000000000000e+00
0.000000000000000e+00 0.000000000000000e+00 0.000000000000000e+00
0.000000000000000e+00 0.000000000000000e+00 0.000000000000000e+00
0.000000000000000e+00 0.000000000000000e+00 0.000000000000000e+00
0.000000000000000e+00 0.000000000000000e+00 0.000000000000000e+00
0.000000000000000e+00 0.000000000000000e+00 0.000000000000000e+00
0.000000000000000e+00 0.000000000000000e+00 0.000000000000000e+00
0.000000000000000e+00 0.000000000000000e+00 0.000000000000000e+00
0.000000000000000e+00 0.000000000000000e+00 0.000000000000000e+00
0.000000000000000e+00 0.000000000000000e+00 0.000000000000000e+00
0.000000000000000e+00 0.000000000000000e+00 0.000000000000000e+00
0.000000000000000e+00 0.000000000000000e+00 0.000000000000000e+00
0.000000000000000e+00 0.000000000000000e+00 0.000000000000000e+00
0.000000000000000e+00 0.000000000000000e+00 0.000000000000000e+00
0.000000000000000e+00 0.000000000000000e+00 0.000000000000000e+00
0.000000000000000e+00 0.000000000000000e+00 0.000000000000000e+00
0.000000000000000e+00 0.000000000000000e+00 0.000000000000000e+00
0.000000000000000e+00 0.000000000000000e+00 0.000000000000000e+00
0.000000000000000e+00 0.000000000000000e+00 0.000000000000000e+00
0.000000000000000e+00 0.000000000000000e+00 0.000000000000000e+00
0.000000000000000e+00 0.000000000000000e+00 0.000000000000000e+00
0.000000000000000e+00 0.000000000000000e+00 0.000000000000000e+00
0.000000000000000e+00 0.000000000000000e+00 0.000000000000000e+00
0.000000000000000e+00 0.000000000000000e+00 0.000000000000000e+00
0.000000000000000e+00 0.000000000000000e+00 0.000000000000000e+00
0.000000000000000e+00 0.000000000000000e+00 0.000000000000000e+00
0.000000000000000e+00 0.000000000000000e+00 0.000000000000000e+00
0.000000000000000e+00 0.000000000000000e+00 0.000000000000000e+00
0.000000000000000e+00 0.000000000000000e+00 0.000000000000000e+00
0.000000000000000e+00 0.000000000000000e+00 0.000000000000000e+00
0.000000000000000e+00 0.000000000000000e+00 0.000000000000000e+00
0.000000000000000e+00 0.000000000000000e+00 0.000000000000000e+00
0.000000000000000e+00 0.000000000000000e+00 0.000000000000000e+00
0.000000000000000e+00 0.000000000000000e+00 0.000000000000000e+00
0.000000000000000e+00 0.000000000000000e+00 0.000000000000000e+00
0.000000000000000e+00 0.000000000000000e+00 0.000000000000000e+00
0.000000000000000e+00 0.000000000000000e+00 0.000000000000000e+00
0.000000000000000e+00 0.000000000000000e+00 0.000000000000000e+00
0.000000000000000e+00 0.000000000000000e+00 0.000000000000000e+00
0.000000000000000e+00 0.000000000000000e+00 0.000000000000000e+00
0.000000000000000e+00 0.000000000000000e+00 0.000000000000000e+00
0.000000000000000e+00 0.000000000000000e+00 0.000000000000000e+00
0.000000000000000e+00 0.000000000000000e+00 0.000000000000000e+00
0.000000000000000e+00 0.000000000000000e+00 0.000000000000000e+00
0.000000000000000e+00 0.000000000000000e+00 0.000000000000000e+00
0.000000000000000e+00 0.000000000000000e+00 0.000000000000000e+00
0.000000000000000e+00 0.000000000000000e+00 0.000000000000000e+00
0.000000000000000e+00 0.000000000000000e+00 0.000000000000000e+00
0.000000000000000e+00 0.000000000000000e+00 0.000000000000000e+00
0.000000000000000e+00 0.000000000000000e+00 0.000000000000000e+00
0.000000000000000e+00 0.000000000000000e+00 0.000000000000000e+00
0.000000000000000e+00 0.000000000000000e+00 0.000000000000000e+00
0.000000000000000e+00 0.000000000000000e+00 0.000000000000000e+00
0.000000000000000e+00 0.000000000000000e+00 0.000000000000000e+00
0.000000000000000e+00 0.000000000000000e+00 0.000000000000000e+00
0.000000000000000e+00 0.000000000000000e+00 0.000000000000000e+00
0.000000000000000e+00 0.000000000000000e+00 0.000000000000000e+00
0.000000000000000e+00 0.000000000000000e+00 0.000000000000000e+00
0.000000000000000e+00 0.000000000000000e+00 0.000000000000000e+00
0.000000000000000e+00 0.000000000000000e+00 0.000000000000000e+00
0.000000000000000e+00 0.000000000000000e+00 0.000000000000000e+00
0.000000000000000e+00 0.000000000000000e+00 0.000000000000000e+00
0.000000000000000e+00 0.000000000000000e+00 0.000000000000000e+00
0.000000000000000e+00 0.000000000000000e+00 0.000000000000000e+00
0.000000000000000e+00 0.000000000000000e+00 0.000000000000000e+00
0.000000000000000e+00 0.000000000000000e+00 0.000000000000000e+00
0.000000000000000e+00 0.000000000000000e+00 0.000000000000000e+00
0.000000000000000e+00 0.000000000000000e+00 0.000000000000000e+00
0.000000000000000e+00 0.000000000000000e+00 0.000000000000000e+00
0.000000000000000e+00 0.000000000000000e+00 0.000000000000000e+00
0.000000000000000e+00 0.000000000000000e+00 0.000000000000000e+00
0.000000000000000e+00 0.000000000000000e+00 0.000000000000000e+00
0.000000000000000e+00 0.000000000000000e+00 0.000000000000000e+00
0.000000000000000e+00 0.000000000000000e+00 0.000000000000000e+00
0.000000000000000e+00 0.000000000000000e+00 0.000000000000000e+00
0.000000000000000e+00 0.000000000000000e+00 0.000000000000000e+00
0.000000000000000e+00 0.000000000000000e+00 0.000000000000000e+00
0.000000000000000e+00 0.000000000000000e+00 0.000000000000000e+00
0.000000000000000e+00 0.000000000000000e+00 0.000000000000000e+00
0.000000000000000e+00 0.000000000000000e+00 0.000000000000000e+00
0.000000000000000e+00 0.000000000000000e+00 0.000000000000000e+00
0.000000000000000e+00 0.000000000000000e+00 0.000000000000000e+00
0.000000000000000e+00 0.000000000000000e+00 0.000000000000000e+00
0.000000000000000e+00 0.000000000000000e+00 0.000000000000000e+00
0.000000000000000e+00 0.000000000000000e+00 0.000000000000000e+00
0.000000000000000e+00 0.000000000000000e+00 0.000000000000000e+00
0.000000000000000e+00 0.000000000000000e+00 0.000000000000000e+00
0.000000000000000e+00 0.000000000000000e+00 0.000000000000000e+00
0.000000000000000e+00 0.000000000000000e+00 0.000000000000000e+00
0.000000000000000e+00 0.000000000000000e+00 0.000000000000000e+00
0.000000000000000e+00 0.000000000000000e+00 0.000000000000000e+00
0.000000000000000e+00 0.000000000000000e+00 0.000000000000000e+00
0.000000000000000e+00 0.000000000000000e+00 0.000000000000000e+00
0.000000000000000e+00 0.000000000000000e+00 0.000000000000000e+00
0.000000000000000e+00 0.000000000000000e+00 0.000000000000000e+00
0.000000000000000e+00 0.000000000000000e+00 0.000000000000000e+00
0.000000000000000e+00 0.000000000000000e+00 0.000000000000000e+00
0.000000000000000e+00 0.000000000000000e+00 0.000000000000000e+00
0.000000000000000e+00 0.000000000000000e+00 0.000000000000000e+00
0.000000000000000e+00 0.000000000000000e+00 0.000000000000000e+00
0.000000000000000e+00 0.000000000000000e+00 0.000000000000000e+00
0.000000000000000e+00 0.000000000000000e+00 0.000000000000000e+00
0.000000000000000e+00 0.000000000000000e+00 0.000000000000000e+00
0.000000000000000e+00 0.000000000000000e+00 0.000000000000000e+00
0.000000000000000e+00 0.000000000000000e+00 0.000000000000000e+00
0.000000000000000e+00 0.000000000000000e+00 0.000000000000000e+00
0.000000000000000e+00 0.000000000000000e+00 0.000000000000000e+00
0.000000000000000e+00 0.000000000000000e+00 0.000000000000000e+00
0.000000000000000e+00 0.000000000000000e+00 0.000000000000000e+00
0.000000000000000e+00 0.000000000000000e+00 0.000000000000000e+00
0.000000000000000e+00 0.000000000000000e+00 0.000000000000000e+00
0.000000000000000e+00 0.000000000000000e+00 0.000000000000000e+00
0.000000000000000e+00 0.000000000000000e+00 0.000000000000000e+00
0.000000000000000e+00 0.000000000000000e+00 0.000000000000000e+00
0.000000000000000e+00 0.000000000000000e+00 0.000000000000000e+00
0.000000000000000e+00 0.000000000000000e+00 0.000000000000000e+00
0.000000000000000e+00 0.000000000000000e+00 0.000000000000000e+00
0.000000000000000e+00 0.000000000000000e+00 0.000000000000000e+00
0.000000000000000e+00 0.000000000000000e+00 0.000000000000000e+00
0.000000000000000e+00 0.000000000000000e+00 0.000000000000000e+00
0.000000000000000e+00 0.000000000000000e+00 0.000000000000000e+00
0.000000000000000e+00 0.000000000000000e+00 0.000000000000000e+00
0.000000000000000e+00 0.000000000000000e+00 0.000000000000000e+00
0.000000000000000e+00 0.000000000000000e+00 0.000000000000000e+00
0.000000000000000e+00 0.000000000000000e+00 0.000000000000000e+00
0.000000000000000e+00 0.000000000000000e+00 0.000000000000000e+00
0.000000000000000e+00 0.000000000000000e+00 0.000000000000000e+00
0.000000000000000e+00 0.000000000000000e+00 0.000000000000000e+00
0.000000000000000e+00 0.000000000000000e+00 0.000000000000000e+00
0.000000000000000e+00 0.000000000000000e+00 0.000000000000000e+00
0.000000000000000e+00 0.000000000000000e+00 0.000000000000000e+00
0.000000000000000e+00 0.000000000000000e+00 0.000000000000000e+00
0.000000000000000e+00 0.000000000000000e+00 0.000000000000000e+00
0.000000000000000e+00 0.000000000000000e+00 0.000000000000000e+00
0.000000000000000e+00 0.000000000000000e+00 0.000000000000000e+00
0.000000000000000e+00 0.000000000000000e+00 0.000000000000000e+00
0.000000000000000e+00 0.000000000000000e+00 0.000000000000000e+00
0.000000000000000e+00 0.000000000000000e+00 0.000000000000000e+00
0.000000000000000e+00 0.000000000000000e+00 0.000000000000000e+00
0.000000000000000e+00 0.000000000000000e+00 0.000000000000000e+00
0.000000000000000e+00 0.000000000000000e+00 0.000000000000000e+00
0.000000000000000e+00 0.000000000000000e+00 0.000000000000000e+00
0.000000000000000e+00 0.000000000000000e+00 0.000000000000000e+00
0.000000000000000e+00 0.000000000000000e+00 0.000000000000000e+00
0.000000000000000e+00 0.000000000000000e+00 0.000000000000000e+00
0.000000000000000e+00 0.000000000000000e+00 0.000000000000000e+00
0.000000000000000e+00 0.000000000000000e+00 0.000000000000000e+00
0.000000000000000e+00 0.000000000000000e+00 0.000000000000000e+00
0.000000000000000e+00 0.000000000000000e+00 0.000000000000000e+00
0.000000000000000e+00 0.000000000000000e+00 0.000000000000000e+00
0.000000000000000e+00 0.000000000000000e+00 0.000000000000000e+00
0.000000000000000e+00 0.000000000000000e+00 0.000000000000000e+00
0.000000000000000e+00 0.000000000000000e+00 0.000000000000000e+00
0.000000000000000e+00 0.000000000000000e+00 0.000000000000000e+00
0.000000000000000e+00 0.000000000000000e+00 0.000000000000000e+00
0.000000000000000e+00 0.000000000000000e+00 0.000000000000000e+00
0.000000000000000e+00 0.000000000000000e+00 0.000000000000000e+00
0.000000000000000e+00 0.000000000000000e+00 0.000000000000000e+00
0.000000000000000e+00 0.000000000000000e+00 0.000000000000000e+00
0.000000000000000e+00 0.000000000000000e+00 0.000000000000000e+00
0.000000000000000e+00 0.000000000000000e+00 0.000000000000000e+00
0.000000000000000e+00 0.000000000000000e+00 0.000000000000000e+00
0.000000000000000e+00 0.000000000000000e+00 0.000000000000000e+00
0.000000000000000e+00 0.000000000000000e+00 0.000000000000000e+00
0.000000000000000e+00 0.000000000000000e+00 0.000000000000000e+00
0.000000000000000e+00 0.000000000000000e+00 0.000000000000000e+00
0.000000000000000e+00 0.000000000000000e+00 0.000000000000000e+00
0.000000000000000e+00 0.000000000000000e+00 0.000000000000000e+00
0.000000000000000e+00 0.000000000000000e+00 0.000000000000000e+00
0.000000000000000e+00 0.000000000000000e+00 0.000000000000000e+00
0.000000000000000e+00 0.000000000000000e+00 0.000000000000000e+00
0.000000000000000e+00 0.000000000000000e+00 0.000000000000000e+00
0.000000000000000e+00 0.000000000000000e+00 0.000000000000000e+00
0.000000000000000e+00 0.000000000000000e+00 0.000000000000000e+00
0.000000000000000e+00 0.000000000000000e+00 0.000000000000000e+00
0.000000000000000e+00 0.000000000000000e+00 0.000000000000000e+00
0.000000000000000e+00 0.000000000000000e+00 0.000000000000000e+00
0.000000000000000e+00 0.000000000000000e+00 0.000000000000000e+00
0.000000000000000e+00 0.000000000000000e+00 0.000000000000000e+00
0.000000000000000e+00 0.000000000000000e+00 0.000000000000000e+00
0.000000000000000e+00 0.000000000000000e+00 0.000000000000000e+00
0.000000000000000e+00 0.000000000000000e+00 0.000000000000000e+00
0.000000000000000e+00 0.000000000000000e+00 0.000000000000000e+00
0.000000000000000e+00 0.000000000000000e+00 0.000000000000000e+00
0.000000000000000e+00 0.000000000000000e+00 0.000000000000000e+00
0.000000000000000e+00 0.000000000000000e+00 0.000000000000000e+00
0.000000000000000e+00 0.000000000000000e+00 0.000000000000000e+00
0.000000000000000e+00 0.000000000000000e+00 0.000000000000000e+00
0.000000000000000e+00 0.000000000000000e+00 0.000000000000000e+00
0.000000000000000e+00 0.000000000000000e+00 0.000000000000000e+00
0.000000000000000e+00 0.000000000000000e+00 0.000000000000000e+00
0.000000000000000e+00 0.000000000000000e+00 0.000000000000000e+00
0.000000000000000e+00 0.000000000000000e+00 0.000000000000000e+00
0.000000000000000e+00 0.000000000000000e+00 0.000000000000000e+00
0.000000000000000e+00 0.000000000000000e+00 0.000000000000000e+00
0.000000000000000e+00 0.000000000000000e+00 0.000000000000000e+00
0.000000000000000e+00 0.000000000000000e+00 0.000000000000000e+00
0.000000000000000e+00 0.000000000000000e+00 0.000000000000000e+00
0.000000000000000e+00 0.000000000000000e+00 0.000000000000000e+00
0.000000000000000e+00 0.000000000000000e+00 0.000000000000000e+00
0.000000000000000e+00 0.000000000000000e+00 0.000000000000000e+00
0.000000000000000e+00 0.000000000000000e+00 0.000000000000000e+00
0.000000000000000e+00 0.000000000000000e+00 0.000000000000000e+00
0.000000000000000e+00 0.000000000000000e+00 0.000000000000000e+00
0.000000000000000e+00 0.000000000000000e+00 0.000000000000000e+00
0.000000000000000e+00 0.000000000000000e+00 0.000000000000000e+00
0.000000000000000e+00 0.000000000000000e+00 0.000000000000000e+00
0.000000000000000e+00 0.000000000000000e+00 0.000000000000000e+00
0.000000000000000e+00 0.000000000000000e+00 0.000000000000000e+00
0.000000000000000e+00 0.000000000000000e+00 0.000000000000000e+00
0.000000000000000e+00 0.000000000000000e+00 0.000000000000000e+00
0.000000000000000e+00 0.000000000000000e+00 0.000000000000000e+00
0.000000000000000e+00 0.000000000000000e+00 0.000000000000000e+00
0.000000000000000e+00 0.000000000000000e+00 0.000000000000000e+00
0.000000000000000e+00 0.000000000000000e+00 0.000000000000000e+00
0.000000000000000e+00 0.000000000000000e+00 0.000000000000000e+00
0.000000000000000e+00 0.000000000000000e+00 0.000000000000000e+00
0.000000000000000e+00 0.000000000000000e+00 0.000000000000000e+00
0.000000000000000e+00 0.000000000000000e+00 0.000000000000000e+00
0.000000000000000e+00 0.000000000000000e+00 0.000000000000000e+00
0.000000000000000e+00 0.000000000000000e+00 0.000000000000000e+00
0.000000000000000e+00 0.000000000000000e+00 0.000000000000000e+00
0.000000000000000e+00 0.000000000000000e+00 0.000000000000000e+00
0.000000000000000e+00 0.000000000000000e+00 0.000000000000000e+00
0.000000000000000e+00 0.000000000000000e+00 0.000000000000000e+00
0.000000000000000e+00 0.000000000000000e+00 0.000000000000000e+00
0.000000000000000e+00 0.000000000000000e+00 0.000000000000000e+00
0.000000000000000e+00 0.000000000000000e+00 0.000000000000000e+00
0.000000000000000e+00 0.000000000000000e+00 0.000000000000000e+00
0.000000000000000e+00 0.000000000000000e+00 0.000000000000000e+00
0.000000000000000e+00 0.000000000000000e+00 0.000000000000000e+00
0.000000000000000e+00 0.000000000000000e+00 0.000000000000000e+00
0.000000000000000e+00 0.000000000000000e+00 0.000000000000000e+00
0.000000000000000e+00 0.000000000000000e+00 0.000000000000000e+00
0.000000000000000e+00 0.000000000000000e+00 0.000000000000000e+00
0.000000000000000e+00 0.000000000000000e+00 0.000000000000000e+00
0.000000000000000e+00 0.000000000000000e+00 0.000000000000000e+00
0.000000000000000e+00 0.000000000000000e+00 0.000000000000000e+00
0.000000000000000e+00 0.000000000000000e+00 0.000000000000000e+00
0.000000000000000e+00 0.000000000000000e+00 0.000000000000000e+00
0.000000000000000e+00 0.000000000000000e+00 0.000000000000000e+00
0.000000000000000e+00 0.000000000000000e+00 0.000000000000000e+00
0.000000000000000e+00 0.000000000000000e+00 0.000000000000000e+00
0.000000000000000e+00 0.000000000000000e+00 0.000000000000000e+00
0.000000000000000e+00 0.000000000000000e+00 0.000000000000000e+00
0.000000000000000e+00 0.000000000000000e+00 0.000000000000000e+00
0.000000000000000e+00 0.000000000000000e+00 0.000000000000000e+00
0.000000000000000e+00 0.000000000000000e+00 0.000000000000000e+00
0.000000000000000e+00 0.000000000000000e+00 0.000000000000000e+00
0.000000000000000e+00 0.000000000000000e+00 0.000000000000000e+00
0.000000000000000e+00 0.000000000000000e+00 0.000000000000000e+00
0.000000000000000e+00 0.000000000000000e+00 0.000000000000000e+00
0.000000000000000e+00 0.000000000000000e+00 0.000000000000000e+00
0.000000000000000e+00 0.000000000000000e+00 0.000000000000000e+00
0.000000000000000e+00 0.000000000000000e+00 0.000000000000000e+00
0.000000000000000e+00 0.000000000000000e+00 0.000000000000000e+00
0.000000000000000e+00 0.000000000000000e+00 0.000000000000000e+00
0.000000000000000e+00 0.000000000000000e+00 0.000000000000000e+00
0.000000000000000e+00 0.000000000000000e+00 0.000000000000000e+00
0.000000000000000e+00 0.000000000000000e+00 0.000000000000000e+00
0.000000000000000e+00 0.000000000000000e+00 0.000000000000000e+00
0.000000000000000e+00 0.000000000000000e+00 0.000000000000000e+00
0.000000000000000e+00 0.000000000000000e+00 0.000000000000000e+00
0.000000000000000e+00 0.000000000000000e+00 0.000000000000000e+00
0.000000000000000e+00 0.000000000000000e+00 0.000000000000000e+00
0.000000000000000e+00 0.000000000000000e+00 0.000000000000000e+00
0.000000000000000e+00 0.000000000000000e+00 0.000000000000000e+00
0.000000000000000e+00 0.000000000000000e+00 0.000000000000000e+00
0.000000000000000e+00 0.000000000000000e+00 0.000000000000000e+00
0.000000000000000e+00 0.000000000000000e+00 0.000000000000000e+00
0.000000000000000e+00 0.000000000000000e+00 0.000000000000000e+00
0.000000000000000e+00 0.000000000000000e+00 0.000000000000000e+00
0.000000000000000e+00 0.000000000000000e+00 0.000000000000000e+00
0.000000000000000e+00 0.000000000000000e+00 0.000000000000000e+00
0.000000000000000e+00 0.000000000000000e+00 0.000000000000000e+00
0.000000000000000e+00 0.000000000000000e+00 0.000000000000000e+00
0.000000000000000e+00 0.000000000000000e+00 0.000000000000000e+00
0.000000000000000e+00 0.000000000000000e+00 0.000000000000000e+00
0.000000000000000e+00 0.000000000000000e+00 0.000000000000000e+00
0.000000000000000e+00 0.000000000000000e+00 0.000000000000000e+00
0.000000000000000e+00 0.000000000000000e+00 0.000000000000000e+00
0.000000000000000e+00 0.000000000000000e+00 0.000000000000000e+00
0.000000000000000e+00 0.000000000000000e+00 0.000000000000000e+00
0.000000000000000e+00 0.000000000000000e+00 0.000000000000000e+00
0.000000000000000e+00 0.000000000000000e+00 0.000000000000000e+00
0.000000000000000e+00 0.000000000000000e+00 0.000000000000000e+00
0.000000000000000e+00 0.000000000000000e+00 0.000000000000000e+00
0.000000000000000e+00 0.000000000000000e+00 0.000000000000000e+00
0.000000000000000e+00 0.000000000000000e+00 0.000000000000000e+00
0.000000000000000e+00 0.000000000000000e+00 0.000000000000000e+00
0.000000000000000e+00 0.000000000000000e+00 0.000000000000000e+00
0.000000000000000e+00 0.000000000000000e+00 0.000000000000000e+00
0.000000000000000e+00 0.000000000000000e+00 0.000000000000000e+00
0.000000000000000e+00 0.000000000000000e+00 0.000000000000000e+00
0.000000000000000e+00 0.000000000000000e+00 0.000000000000000e+00
0.000000000000000e+00 0.000000000000000e+00 0.000000000000000e+00
0.000000000000000e+00 0.000000000000000e+00 0.000000000000000e+00
0.000000000000000e+00 0.000000000000000e+00 0.000000000000000e+00
0.000000000000000e+00 0.000000000000000e+00 0.000000000000000e+00
0.000000000000000e+00 0.000000000000000e+00 0.000000000000000e+00
0.000000000000000e+00 0.000000000000000e+00 0.000000000000000e+00
0.000000000000000e+00 0.000000000000000e+00 0.000000000000000e+00
0.000000000000000e+00 0.000000000000000e+00 0.000000000000000e+00
0.000000000000000e+00 0.000000000000000e+00 0.000000000000000e+00
0.000000000000000e+00 0.000000000000000e+00 0.000000000000000e+00
0.000000000000000e+00 0.000000000000000e+00 0.000000000000000e+00
0.000000000000000e+00 0.000000000000000e+00 0.000000000000000e+00
0.000000000000000e+00 0.000000000000000e+00 0.000000000000000e+00
0.000000000000000e+00 0.000000000000000e+00 0.000000000000000e+00
0.000000000000000e+00 0.000000000000000e+00 0.000000000000000e+00
0.000000000000000e+00 0.000000000000000e+00 0.000000000000000e+00
0.000000000000000e+00 0.000000000000000e+00 0.000000000000000e+00
0.000000000000000e+00 0.000000000000000e+00 0.000000000000000e+00
0.000000000000000e+00 0.000000000000000e+00 0.000000000000000e+00
0.000000000000000e+00 0.000000000000000e+00 0.000000000000000e+00
0.000000000000000e+00 0.000000000000000e+00 0.000000000000000e+00
0.000000000000000e+00 0.000000000000000e+00 0.000000000000000e+00
0.000000000000000e+00 0.000000000000000e+00 0.000000000000000e+00
0.000000000000000e+00 0.000000000000000e+00 0.000000000000000e+00
0.000000000000000e+00 0.000000000000000e+00 0.000000000000000e+00
0.000000000000000e+00 0.000000000000000e+00 0.000000000000000e+00
0.000000000000000e+00 0.000000000000000e+00 0.000000000000000e+00
0.000000000000000e+00 0.000000000000000e+00 0.000000000000000e+00
0.000000000000000e+00 0.000000000000000e+00 0.000000000000000e+00
0.000000000000000e+00 0.000000000000000e+00 0.000000000000000e+00
0.000000000000000e+00 0.000000000000000e+00 0.000000000000000e+00
0.000000000000000e+00 0.000000000000000e+00 0.000000000000000e+00
0.000000000000000e+00 0.000000000000000e+00 0.000000000000000e+00
0.000000000000000e+00 0.000000000000000e+00 0.000000000000000e+00
0.000000000000000e+00 0.000000000000000e+00 0.000000000000000e+00
0.000000000000000e+00 0.000000000000000e+00 0.000000000000000e+00
0.000000000000000e+00 0.000000000000000e+00 0.000000000000000e+00
0.000000000000000e+00 0.000000000000000e+00 0.000000000000000e+00
0.000000000000000e+00 0.000000000000000e+00 0.000000000000000e+00
0.000000000000000e+00 0.000000000000000e+00 0.000000000000000e+00
0.000000000000000e+00 0.000000000000000e+00 0.000000000000000e+00
0.000000000000000e+00 0.000000000000000e+00 0.000000000000000e+00
0.000000000000000e+00 0.000000000000000e+00 0.000000000000000e+00
0.000000000000000e+00 0.000000000000000e+00 0.000000000000000e+00
0.000000000000000e+00 0.000000000000000e+00 0.000000000000000e+00
0.000000000000000e+00 0.000000000000000e+00 0.000000000000000e+00
0.000000000000000e+00 0.000000000000000e+00 0.000000000000000e+00
0.000000000000000e+00 0.000000000000000e+00 0.000000000000000e+00
0.000000000000000e+00 0.000000000000000e+00 0.000000000000000e+00
0.000000000000000e+00 0.000000000000000e+00 0.000000000000000e+00
0.000000000000000e+00 0.000000000000000e+00 0.000000000000000e+00
0.000000000000000e+00 0.000000000000000e+00 0.000000000000000e+00
0.000000000000000e+00 0.000000000000000e+00 0.000000000000000e+00
0.000000000000000e+00 0.000000000000000e+00 0.000000000000000e+00
0.000000000000000e+00 0.000000000000000e+00 0.000000000000000e+00
0.000000000000000e+00 0.000000000000000e+00 0.000000000000000e+00
0.000000000000000e+00 0.000000000000000e+00 0.000000000000000e+00
0.000000000000000e+00 0.000000000000000e+00 0.000000000000000e+00
0.000000000000000e+00 0.000000000000000e+00 0.000000000000000e+00
0.000000000000000e+00 0.000000000000000e+00 0.000000000000000e+00
0.000000000000000e+00 0.000000000000000e+00 0.000000000000000e+00
0.000000000000000e+00 0.000000000000000e+00 0.000000000000000e+00
0.000000000000000e+00 0.000000000000000e+00 0.000000000000000e+00
0.000000000000000e+00 0.000000000000000e+00 0.000000000000000e+00
0.000000000000000e+00 0.000000000000000e+00 0.000000000000000e+00
0.000000000000000e+00 0.000000000000000e+00 0.000000000000000e+00
0.000000000000000e+00 0.000000000000000e+00 0.000000000000000e+00
0.000000000000000e+00 0.000000000000000e+00 0.000000000000000e+00
0.000000000000000e+00 0.000000000000000e+00 0.000000000000000e+00
0.000000000000000e+00 0.000000000000000e+00 0.000000000000000e+00
0.000000000000000e+00 0.000000000000000e+00 0.000000000000000e+00
0.000000000000000e+00 0.000000000000000e+00 0.000000000000000e+00
0.000000000000000e+00 0.000000000000000e+00 0.000000000000000e+00
0.000000000000000e+00 0.000000000000000e+00 0.000000000000000e+00
0.000000000000000e+00 0.000000000000000e+00 0.000000000000000e+00
0.000000000000000e+00 0.000000000000000e+00 0.000000000000000e+00
0.000000000000000e+00 0.000000000000000e+00 0.000000000000000e+00
0.000000000000000e+00 0.000000000000000e+00 0.000000000000000e+00
0.000000000000000e+00 0.000000000000000e+00 0.000000000000000e+00
0.000000000000000e+00 0.000000000000000e+00 0.000000000000000e+00
0.000000000000000e+00 0.000000000000000e+00 0.000000000000000e+00
0.000000000000000e+00 0.000000000000000e+00 0.000000000000000e+00
0.000000000000000e+00 0.000000000000000e+00 0.000000000000000e+00
0.000000000000000e+00 0.000000000000000e+00 0.000000000000000e+00
0.000000000000000e+00 0.000000000000000e+00 0.000000000000000e+00
0.000000000000000e+00 0.000000000000000e+00 0.000000000000000e+00
0.000000000000000e+00 0.000000000000000e+00 0.000000000000000e+00
0.000000000000000e+00 0.000000000000000e+00 0.000000000000000e+00
0.000000000000000e+00 0.000000000000000e+00 0.000000000000000e+00
0.000000000000000e+00 0.000000000000000e+00 0.000000000000000e+00
0.000000000000000e+00 0.000000000000000e+00 0.000000000000000e+00
0.000000000000000e+00 0.000000000000000e+00 0.000000000000000e+00
0.000000000000000e+00 0.000000000000000e+00 0.000000000000000e+00
0.000000000000000e+00 0.000000000000000e+00 0.000000000000000e+00
0.000000000000000e+00 0.000000000000000e+00 0.000000000000000e+00
0.000000000000000e+00 0.000000000000000e+00 0.000000000000000e+00
0.000000000000000e+00 0.000000000000000e+00 0.000000000000000e+00
0.000000000000000e+00 0.000000000000000e+00 0.000000000000000e+00
0.000000000000000e+00 0.000000000000000e+00 0.000000000000000e+00
0.000000000000000e+00 0.000000000000000e+00 0.000000000000000e+00
0.000000000000000e+00 0.000000000000000e+00 0.000000000000000e+00
0.000000000000000e+00 0.000000000000000e+00 0.000000000000000e+00
0.000000000000000e+00 0.000000000000000e+00 0.000000000000000e+00
0.000000000000000e+00 0.000000000000000e+00 0.000000000000000e+00
0.000000000000000e+00 0.000000000000000e+00 0.000000000000000e+00
0.000000000000000e+00 0.000000000000000e+00 0.000000000000000e+00
0.000000000000000e+00 0.000000000000000e+00 0.000000000000000e+00
0.000000000000000e+00 0.000000000000000e+00 0.000000000000000e+00
0.000000000000000e+00 0.000000000000000e+00 0.000000000000000e+00
0.000000000000000e+00 0.000000000000000e+00 0.000000000000000e+00
0.000000000000000e+00 0.000000000000000e+00 0.000000000000000e+00
0.000000000000000e+00 0.000000000000000e+00 0.000000000000000e+00
0.000000000000000e+00 0.000000000000000e+00 0.000000000000000e+00
0.000000000000000e+00 0.000000000000000e+00 0.000000000000000e+00
0.000000000000000e+00 0.000000000000000e+00 0.000000000000000e+00
0.000000000000000e+00 0.000000000000000e+00 0.000000000000000e+00
0.000000000000000e+00 0.000000000000000e+00 0.000000000000000e+00
0.000000000000000e+00 0.000000000000000e+00 0.000000000000000e+00
0.000000000000000e+00 0.000000000000000e+00 0.000000000000000e+00
0.000000000000000e+00 0.000000000000000e+00 0.000000000000000e+00
0.000000000000000e+00 0.000000000000000e+00 0.000000000000000e+00
0.000000000000000e+00 0.000000000000000e+00 0.000000000000000e+00
0.000000000000000e+00 0.000000000000000e+00 0.000000000000000e+00
0.000000000000000e+00 0.000000000000000e+00 0.000000000000000e+00
0.000000000000000e+00 0.000000000000000e+00 0.000000000000000e+00
0.000000000000000e+00 0.000000000000000e+00 0.000000000000000e+00
0.000000000000000e+00 0.000000000000000e+00 0.000000000000000e+00
0.000000000000000e+00 0.000000000000000e+00 0.000000000000000e+00
0.000000000000000e+00 0.000000000000000e+00 0.000000000000000e+00
0.000000000000000e+00 0.000000000000000e+00 0.000000000000000e+00
0.000000000000000e+00 0.000000000000000e+00 0.000000000000000e+00
0.000000000000000e+00 0.000000000000000e+00 0.000000000000000e+00
0.000000000000000e+00 0.000000000000000e+00 0.000000000000000e+00
0.000000000000000e+00 0.000000000000000e+00 0.000000000000000e+00
0.000000000000000e+00 0.000000000000000e+00 0.000000000000000e+00
0.000000000000000e+00 0.000000000000000e+00 0.000000000000000e+00
0.000000000000000e+00 0.000000000000000e+00 0.000000000000000e+00
0.000000000000000e+00 0.000000000000000e+00 0.000000000000000e+00
0.000000000000000e+00 0.000000000000000e+00 0.000000000000000e+00
0.000000000000000e+00 0.000000000000000e+00 0.000000000000000e+00
0.000000000000000e+00 0.000000000000000e+00 0.000000000000000e+00
0.000000000000000e+00 0.000000000000000e+00 0.000000000000000e+00
0.000000000000000e+00 0.000000000000000e+00 0.000000000000000e+00
0.000000000000000e+00 0.000000000000000e+00 0.000000000000000e+00
0.000000000000000e+00 0.000000000000000e+00 0.000000000000000e+00
0.000000000000000e+00 0.000000000000000e+00 0.000000000000000e+00
0.000000000000000e+00 0.000000000000000e+00 0.000000000000000e+00
0.000000000000000e+00 0.000000000000000e+00 0.000000000000000e+00
0.000000000000000e+00 0.000000000000000e+00 0.000000000000000e+00
0.000000000000000e+00 0.000000000000000e+00 0.000000000000000e+00
0.000000000000000e+00 0.000000000000000e+00 0.000000000000000e+00
0.000000000000000e+00 0.000000000000000e+00 0.000000000000000e+00
0.000000000000000e+00 0.000000000000000e+00 0.000000000000000e+00
0.000000000000000e+00 0.000000000000000e+00 0.000000000000000e+00
0.000000000000000e+00 0.000000000000000e+00 0.000000000000000e+00
0.000000000000000e+00 0.000000000000000e+00 0.000000000000000e+00
0.000000000000000e+00 0.000000000000000e+00 0.000000000000000e+00
0.000000000000000e+00 0.000000000000000e+00 0.000000000000000e+00
0.000000000000000e+00 0.000000000000000e+00 0.000000000000000e+00
0.000000000000000e+00 0.000000000000000e+00 0.000000000000000e+00
0.000000000000000e+00 0.000000000000000e+00 0.000000000000000e+00
0.000000000000000e+00 0.000000000000000e+00 0.000000000000000e+00
0.000000000000000e+00 0.000000000000000e+00 0.000000000000000e+00
0.000000000000000e+00 0.000000000000000e+00 0.000000000000000e+00
0.000000000000000e+00 0.000000000000000e+00 0.000000000000000e+00
0.000000000000000e+00 0.000000000000000e+00 0.000000000000000e+00
0.000000000000000e+00 0.000000000000000e+00 0.000000000000000e+00
0.000000000000000e+00 0.000000000000000e+00 0.000000000000000e+00
0.000000000000000e+00 0.000000000000000e+00 0.000000000000000e+00
0.000000000000000e+00 0.000000000000000e+00 0.000000000000000e+00
0.000000000000000e+00 0.000000000000000e+00 0.000000000000000e+00
0.000000000000000e+00 0.000000000000000e+00 0.000000000000000e+00
0.000000000000000e+00 0.000000000000000e+00 0.000000000000000e+00
0.000000000000000e+00 0.000000000000000e+00 0.000000000000000e+00
0.000000000000000e+00 0.000000000000000e+00 0.000000000000000e+00
0.000000000000000e+00 0.000000000000000e+00 0.000000000000000e+00
0.000000000000000e+00 0.000000000000000e+00 0.000000000000000e+00
0.000000000000000e+00 0.000000000000000e+00 0.000000000000000e+00
0.000000000000000e+00 0.000000000000000e+00 0.000000000000000e+00
0.000000000000000e+00 0.000000000000000e+00 0.000000000000000e+00
0.000000000000000e+00 0.000000000000000e+00 0.000000000000000e+00
0.000000000000000e+00 0.000000000000000e+00 0.000000000000000e+00
0.000000000000000e+00 0.000000000000000e+00 0.000000000000000e+00
0.000000000000000e+00 0.000000000000000e+00 0.000000000000000e+00
0.000000000000000e+00 0.000000000000000e+00 0.000000000000000e+00
0.000000000000000e+00 0.000000000000000e+00 0.000000000000000e+00
0.000000000000000e+00 0.000000000000000e+00 0.000000000000000e+00
0.000000000000000e+00 0.000000000000000e+00 0.000000000000000e+00
0.000000000000000e+00 0.000000000000000e+00 0.000000000000000e+00
0.000000000000000e+00 0.000000000000000e+00 0.000000000000000e+00
0.000000000000000e+00 0.000000000000000e+00 0.000000000000000e+00
0.000000000000000e+00 0.000000000000000e+00 0.000000000000000e+00
0.000000000000000e+00 0.000000000000000e+00 0.000000000000000e+00
0.000000000000000e+00 0.000000000000000e+00 0.000000000000000e+00
0.000000000000000e+00 0.000000000000000e+00 0.000000000000000e+00
0.000000000000000e+00 0.000000000000000e+00 0.000000000000000e+00
0.000000000000000e+00 0.000000000000000e+00 0.000000000000000e+00
0.000000000000000e+00 0.000000000000000e+00 0.000000000000000e+00
0.000000000000000e+00 0.000000000000000e+00 0.000000000000000e+00
0.000000000000000e+00 0.000000000000000e+00 0.000000000000000e+00
0.000000000000000e+00 0.000000000000000e+00 0.000000000000000e+00
0.000000000000000e+00 0.000000000000000e+00 0.000000000000000e+00
0.000000000000000e+00 0.000000000000000e+00 0.000000000000000e+00
0.000000000000000e+00 0.000000000000000e+00 0.000000000000000e+00
0.000000000000000e+00 0.000000000000000e+00 0.000000000000000e+00
0.000000000000000e+00 0.000000000000000e+00 0.000000000000000e+00
0.000000000000000e+00 0.000000000000000e+00 0.000000000000000e+00
0.000000000000000e+00 0.000000000000000e+00 0.000000000000000e+00
0.000000000000000e+00 0.000000000000000e+00 0.000000000000000e+00
0.000000000000000e+00 0.000000000000000e+00 0.000000000000000e+00
0.000000000000000e+00 0.000000000000000e+00 0.000000000000000e+00
0.000000000000000e+00 0.000000000000000e+00 0.000000000000000e+00
0.000000000000000e+00 0.000000000000000e+00 0.000000000000000e+00
0.000000000000000e+00 0.000000000000000e+00 0.000000000000000e+00
0.000000000000000e+00 0.000000000000000e+00 0.000000000000000e+00
0.000000000000000e+00 0.000000000000000e+00 0.000000000000000e+00
0.000000000000000e+00 0.000000000000000e+00 0.000000000000000e+00
0.000000000000000e+00 0.000000000000000e+00 0.000000000000000e+00
0.000000000000000e+00 0.000000000000000e+00 0.000000000000000e+00
0.000000000000000e+00 0.000000000000000e+00 0.000000000000000e+00
0.000000000000000e+00 0.000000000000000e+00 0.000000000000000e+00
0.000000000000000e+00 0.000000000000000e+00 0.000000000000000e+00
0.000000000000000e+00 0.000000000000000e+00 0.000000000000000e+00
0.000000000000000e+00 0.000000000000000e+00 0.000000000000000e+00
0.000000000000000e+00 0.000000000000000e+00 0.000000000000000e+00
0.000000000000000e+00 0.000000000000000e+00 0.000000000000000e+00
0.000000000000000e+00 0.000000000000000e+00 0.000000000000000e+00
0.000000000000000e+00 0.000000000000000e+00 0.000000000000000e+00
0.000000000000000e+00 0.000000000000000e+00 0.000000000000000e+00
0.000000000000000e+00 0.000000000000000e+00 0.000000000000000e+00
0.000000000000000e+00 0.000000000000000e+00 0.000000000000000e+00
0.000000000000000e+00 0.000000000000000e+00 0.000000000000000e+00
0.000000000000000e+00 0.000000000000000e+00 0.000000000000000e+00
0.000000000000000e+00 0.000000000000000e+00 0.000000000000000e+00
0.000000000000000e+00 0.000000000000000e+00 0.000000000000000e+00
0.000000000000000e+00 0.000000000000000e+00 0.000000000000000e+00
0.000000000000000e+00 0.000000000000000e+00 0.000000000000000e+00
0.000000000000000e+00 0.000000000000000e+00 0.000000000000000e+00
0.000000000000000e+00 0.000000000000000e+00 0.000000000000000e+00
0.000000000000000e+00 0.000000000000000e+00 0.000000000000000e+00
0.000000000000000e+00 0.000000000000000e+00 0.000000000000000e+00
0.000000000000000e+00 0.000000000000000e+00 0.000000000000000e+00
0.000000000000000e+00 0.000000000000000e+00 0.000000000000000e+00
0.000000000000000e+00 0.000000000000000e+00 0.000000000000000e+00
0.000000000000000e+00 0.000000000000000e+00 0.000000000000000e+00
0.000000000000000e+00 0.000000000000000e+00 0.000000000000000e+00
0.000000000000000e+00 0.000000000000000e+00 0.000000000000000e+00
0.000000000000000e+00 0.000000000000000e+00 0.000000000000000e+00
0.000000000000000e+00 0.000000000000000e+00 0.000000000000000e+00
0.000000000000000e+00 0.000000000000000e+00 0.000000000000000e+00
0.000000000000000e+00 0.000000000000000e+00 0.000000000000000e+00
0.000000000000000e+00 0.000000000000000e+00 0.000000000000000e+00
0.000000000000000e+00 0.000000000000000e+00 0.000000000000000e+00
0.000000000000000e+00 0.000000000000000e+00 0.000000000000000e+00
0.000000000000000e+00 0.000000000000000e+00 0.000000000000000e+00
0.000000000000000e+00 0.000000000000000e+00 0.000000000000000e+00
0.000000000000000e+00 0.000000000000000e+00 0.000000000000000e+00
0.000000000000000e+00 0.000000000000000e+00 0.000000000000000e+00
0.000000000000000e+00 0.000000000000000e+00 0.000000000000000e+00
0.000000000000000e+00 0.000000000000000e+00 0.000000000000000e+00
0.000000000000000e+00 0.000000000000000e+00 0.000000000000000e+00
0.000000000000000e+00 0.000000000000000e+00 0.000000000000000e+00
0.000000000000000e+00 0.000000000000000e+00 0.000000000000000e+00
0.000000000000000e+00 0.000000000000000e+00 0.000000000000000e+00
0.000000000000000e+00 0.000000000000000e+00 0.000000000000000e+00
0.000000000000000e+00 0.000000000000000e+00 0.000000000000000e+00
0.000000000000000e+00 0.000000000000000e+00 0.000000000000000e+00
0.000000000000000e+00 0.000000000000000e+00 0.000000000000000e+00
0.000000000000000e+00 0.000000000000000e+00 0.000000000000000e+00
0.000000000000000e+00 0.000000000000000e+00 0.000000000000000e+00
0.000000000000000e+00 0.000000000000000e+00 0.000000000000000e+00
0.000000000000000e+00 0.000000000000000e+00 0.000000000000000e+00
0.000000000000000e+00 0.000000000000000e+00 0.000000000000000e+00
0.000000000000000e+00 0.000000000000000e+00 0.000000000000000e+00
0.000000000000000e+00 0.000000000000000e+00 0.000000000000000e+00
0.000000000000000e+00 0.000000000000000e+00 0.000000000000000e+00
0.000000000000000e+00 0.000000000000000e+00 0.000000000000000e+00
0.000000000000000e+00 0.000000000000000e+00 0.000000000000000e+00
0.000000000000000e+00 0.000000000000000e+00 0.000000000000000e+00
0.000000000000000e+00 0.000000000000000e+00 0.000000000000000e+00
0.000000000000000e+00 0.000000000000000e+00 0.000000000000000e+00
0.000000000000000e+00 0.000000000000000e+00 0.000000000000000e+00
0.000000000000000e+00 0.000000000000000e+00 0.000000000000000e+00
0.000000000000000e+00 0.000000000000000e+00 0.000000000000000e+00
0.000000000000000e+00 0.000000000000000e+00 0.000000000000000e+00
0.000000000000000e+00 0.000000000000000e+00 0.000000000000000e+00
0.000000000000000e+00 0.000000000000000e+00 0.000000000000000e+00
0.000000000000000e+00 0.000000000000000e+00 0.000000000000000e+00
0.000000000000000e+00 0.000000000000000e+00 0.000000000000000e+00
0.000000000000000e+00 0.000000000000000e+00 0.000000000000000e+00
0.000000000000000e+00 0.000000000000000e+00 0.000000000000000e+00
0.000000000000000e+00 0.000000000000000e+00 0.000000000000000e+00
0.000000000000000e+00 0.000000000000000e+00 0.000000000000000e+00
0.000000000000000e+00 0.000000000000000e+00 0.000000000000000e+00
0.000000000000000e+00 0.000000000000000e+00 0.000000000000000e+00
0.000000000000000e+00 0.000000000000000e+00 0.000000000000000e+00
0.000000000000000e+00 0.000000000000000e+00 0.000000000000000e+00
0.000000000000000e+00 0.000000000000000e+00 0.000000000000000e+00
0.000000000000000e+00 0.000000000000000e+00 0.000000000000000e+00
0.000000000000000e+00 0.000000000000000e+00 0.000000000000000e+00
0.000000000000000e+00 0.000000000000000e+00 0.000000000000000e+00
0.000000000000000e+00 0.000000000000000e+00 0.000000000000000e+00
0.000000000000000e+00 0.000000000000000e+00 0.000000000000000e+00
0.000000000000000e+00 0.000000000000000e+00 0.000000000000000e+00
0.000000000000000e+00 0.000000000000000e+00 0.000000000000000e+00
0.000000000000000e+00 0.000000000000000e+00 0.000000000000000e+00
0.000000000000000e+00 0.000000000000000e+00 0.000000000000000e+00
0.000000000000000e+00 0.000000000000000e+00 0.000000000000000e+00
0.000000000000000e+00 0.000000000000000e+00 0.000000000000000e+00
0.000000000000000e+00 0.000000000000000e+00 0.000000000000000e+00
0.000000000000000e+00 0.000000000000000e+00 0.000000000000000e+00
0.000000000000000e+00 0.000000000000000e+00 0.000000000000000e+00
0.000000000000000e+00 0.000000000000000e+00 0.000000000000000e+00
0.000000000000000e+00 0.000000000000000e+00 0.000000000000000e+00
0.000000000000000e+00 0.000000000000000e+00 0.000000000000000e+00
0.000000000000000e+00 0.000000000000000e+00 0.000000000000000e+00
0.000000000000000e+00 0.000000000000000e+00 0.000000000000000e+00
0.000000000000000e+00 0.000000000000000e+00 0.000000000000000e+00
0.000000000000000e+00 0.000000000000000e+00 0.000000000000000e+00
0.000000000000000e+00 0.000000000000000e+00 0.000000000000000e+00
0.000000000000000e+00 0.000000000000000e+00 0.000000000000000e+00
0.000000000000000e+00 0.000000000000000e+00 0.000000000000000e+00
0.000000000000000e+00 0.000000000000000e+00 0.000000000000000e+00
0.000000000000000e+00 0.000000000000000e+00 0.000000000000000e+00
0.000000000000000e+00 0.000000000000000e+00 0.000000000000000e+00
0.000000000000000e+00 0.000000000000000e+00 0.000000000000000e+00
0.000000000000000e+00 0.000000000000000e+00 0.000000000000000e+00
0.000000000000000e+00 0.000000000000000e+00 0.000000000000000e+00
0.000000000000000e+00 0.000000000000000e+00 0.000000000000000e+00
0.000000000000000e+00 0.000000000000000e+00 0.000000000000000e+00
0.000000000000000e+00 0.000000000000000e+00 0.000000000000000e+00
0.000000000000000e+00 0.000000000000000e+00 0.000000000000000e+00
0.000000000000000e+00 0.000000000000000e+00 0.000000000000000e+00
0.000000000000000e+00 0.000000000000000e+00 0.000000000000000e+00
0.000000000000000e+00 0.000000000000000e+00 0.000000000000000e+00
0.000000000000000e+00 0.000000000000000e+00 0.000000000000000e+00
0.000000000000000e+00 0.000000000000000e+00 0.000000000000000e+00
0.000000000000000e+00 0.000000000000000e+00 0.000000000000000e+00
0.000000000000000e+00 0.000000000000000e+00 0.000000000000000e+00
0.000000000000000e+00 0.000000000000000e+00 0.000000000000000e+00
0.000000000000000e+00 0.000000000000000e+00 0.000000000000000e+00
0.000000000000000e+00 0.000000000000000e+00 0.000000000000000e+00
0.000000000000000e+00 0.000000000000000e+00 0.000000000000000e+00
0.000000000000000e+00 0.000000000000000e+00 0.000000000000000e+00
0.000000000000000e+00 0.000000000000000e+00 0.000000000000000e+00
0.000000000000000e+00 0.000000000000000e+00 0.000000000000000e+00
0.000000000000000e+00 0.000000000000000e+00 0.000000000000000e+00
0.000000000000000e+00 0.000000000000000e+00 0.000000000000000e+00
0.000000000000000e+00 0.000000000000000e+00 0.000000000000000e+00
0.000000000000000e+00 0.000000000000000e+00 0.000000000000000e+00
0.000000000000000e+00 0.000000000000000e+00 0.000000000000000e+00
0.000000000000000e+00 0.000000000000000e+00 0.000000000000000e+00
0.000000000000000e+00 0.000000000000000e+00 0.000000000000000e+00
0.000000000000000e+00 0.000000000000000e+00 0.000000000000000e+00
0.000000000000000e+00 0.000000000000000e+00 0.000000000000000e+00
0.000000000000000e+00 0.000000000000000e+00 0.000000000000000e+00
0.000000000000000e+00 0.000000000000000e+00 0.000000000000000e+00
0.000000000000000e+00 0.000000000000000e+00 0.000000000000000e+00
0.000000000000000e+00 0.000000000000000e+00 0.000000000000000e+00
0.000000000000000e+00 0.000000000000000e+00 0.000000000000000e+00
0.000000000000000e+00 0.000000000000000e+00 0.000000000000000e+00
0.000000000000000e+00 0.000000000000000e+00 0.000000000000000e+00
0.000000000000000e+00 0.000000000000000e+00 0.000000000000000e+00
0.000000000000000e+00 0.000000000000000e+00 0.000000000000000e+00
0.000000000000000e+00 0.000000000000000e+00 0.000000000000000e+00
0.000000000000000e+00 0.000000000000000e+00 0.000000000000000e+00
0.000000000000000e+00 0.000000000000000e+00 0.000000000000000e+00
0.000000000000000e+00 0.000000000000000e+00 0.000000000000000e+00
0.000000000000000e+00 0.000000000000000e+00 0.000000000000000e+00
0.000000000000000e+00 0.000000000000000e+00 0.000000000000000e+00
0.000000000000000e+00 0.000000000000000e+00 0.000000000000000e+00
0.000000000000000e+00 0.000000000000000e+00 0.000000000000000e+00
0.000000000000000e+00 0.000000000000000e+00 0.000000000000000e+00
0.000000000000000e+00 0.000000000000000e+00 0.000000000000000e+00
0.000000000000000e+00 0.000000000000000e+00 0.000000000000000e+00
0.000000000000000e+00 0.000000000000000e+00 0.000000000000000e+00
0.000000000000000e+00 0.000000000000000e+00 0.000000000000000e+00
0.000000000000000e+00 0.000000000000000e+00 0.000000000000000e+00
0.000000000000000e+00 0.000000000000000e+00 0.000000000000000e+00
0.000000000000000e+00 0.000000000000000e+00 0.000000000000000e+00
0.000000000000000e+00 0.000000000000000e+00 0.000000000000000e+00
0.000000000000000e+00 0.000000000000000e+00 0.000000000000000e+00
0.000000000000000e+00 0.000000000000000e+00 0.000000000000000e+00
0.000000000000000e+00 0.000000000000000e+00 0.000000000000000e+00
0.000000000000000e+00 0.000000000000000e+00 0.000000000000000e+00
0.000000000000000e+00 0.000000000000000e+00 0.000000000000000e+00
0.000000000000000e+00 0.000000000000000e+00 0.000000000000000e+00
0.000000000000000e+00 0.000000000000000e+00 0.000000000000000e+00
0.000000000000000e+00 0.000000000000000e+00 0.000000000000000e+00
0.000000000000000e+00 0.000000000000000e+00 0.000000000000000e+00
0.000000000000000e+00 0.000000000000000e+00 0.000000000000000e+00
0.000000000000000e+00 0.000000000000000e+00 0.000000000000000e+00
0.000000000000000e+00 0.000000000000000e+00 0.000000000000000e+00
0.000000000000000e+00 0.000000000000000e+00 0.000000000000000e+00
0.000000000000000e+00 0.000000000000000e+00 0.000000000000000e+00
-7.960435026887770e-02  7.591539645071846e-02  6.366512479051582e-19
-1.099880614585036e-01 -1.620597605933658e-03  1.974019803847032e-18
-7.756575723106479e-02  7.799713651905080e-02  5.789829301100770e-19
-6.474952912168951e-02 -8.892411640561523e-02  2.065958099230422e-18
-9.408056154691212e-02 -5.699866611612592e-02  2.259916404439015e-18
-8.088236609213584e-02  7.455228269702839e-02  6.734005625913619e-19
-9.530170218843097e-02  5.493255464647120e-02  1.131595426864238e-18
-7.312015859058692e-02 -8.217933078145222e-02  2.145623213377427e-18
-1.095910230040252e-01 -9.476691243844346e-03  2.047672539180056e-18
-8.451306022014367e-02  7.040981928840817e-02  7.805754021329083e-19
-1.069380109484223e-01  2.577327713728003e-02  1.638278405214006e-18
-8.341425314796980e-02 -7.170817506927876e-02  2.221231584195764e-18
-1.037034573513448e-01 -3.668232453618132e-02  2.222424284497251e-18
-9.632554525053734e-02  5.311675189793328e-02  1.168472649050582e-18
-8.506285470003087e-02  6.974461090493922e-02  7.971944252100312e-19
-9.248865333570931e-02 -5.954703186681028e-02  2.257770031263594e-18
-9.899108674786858e-02 -4.796628758280014e-02  2.254500649651760e-18
-1.082077953521820e-01  1.977556636408269e-02  1.722500032730144e-18
-1.064509997184436e-01  2.771614437370134e-02  1.609649204382462e-18
-1.098035644483124e-01 -6.570938627412671e-03  2.021599415152863e-18
-1.099319073492731e-01 -3.869850972680638e-03  1.996130735744044e-18
-1.099995930001288e-01  2.992320269413751e-04  1.954499469327058e-18
-1.099988487268256e-01  5.032680924368731e-04  1.952389827643335e-18
-1.099960081609870e-01  9.371172007860928e-04  1.947881634402590e-18
-1.099956723464021e-01 -9.757382143169760e-04  1.967529552685920e-18
-1.099927534420830e-01 -1.262612461952917e-03  1.970425135983003e-18
-1.099977277666898e-01  7.070262831862463e-04  1.950276337430172e-18
-1.099971485907364e-01  7.920239310756903e-04  1.949392710348367e-18
-1.099995763477534e-01 -3.052921792067092e-04  1.960710439589967e-18
-1.099997494364144e-01 -2.347848503721831e-04  1.959989082718682e-18
-1.099999344602302e-01  1.200780786507948e-04  1.956346287754045e-18
-1.099999716782432e-01  7.893532559761429e-05  1.956769676934614e-18
-1.099999769905845e-01 -7.114823121460011e-05  1.958311825499240e-18
-1.099999516150011e-01 -1.031731425267070e-04  1.958640418240461e-18
-1.099999875831240e-01  5.226578699192810e-05  1.957043979801833e-18
-1.099998758143462e-01  1.652901338342612e-04  1.955880706637820e-18
-1.099999999977707e-01  7.002607639525956e-07  1.957574017784989e-18
-1.099998869262819e-01 -1.577219234267377e-04  1.959199735935272e-18
-1.099999888951651e-01 -4.942735559450442e-05  1.958088863249030e-18
-1.099999546049527e-01  9.993451990582489e-05  1.956553614001935e-18
-1.099999768873264e-01  7.130769655916802e-05  1.956848140753933e-18
-1.099999771434164e-01 -7.091154917266348e-05  1.958309396397064e-18
-1.099999592114667e-01 -9.472843070074031e-05  1.958553787082339e-18
-1.099999974631443e-01  2.362431333361153e-05  1.957338436365787e-18
-1.099999424821110e-01  1.124896981952929e-04  1.956424398365519e-18
-1.099999653369568e-01  8.732621727303328e-05  1.956683350720065e-18
-1.099999999809265e-01  2.048436881050054e-06  1.957560165465377e-18
-1.099999677527630e-01 -8.422820805368228e-05  1.958446053111626e-18
-1.099999449838917e-01 -1.100160930300874e-04  1.958710609062532e-18
-1.099999982852246e-01 -1.942293764773455e-05  1.957780745861685e-18
-1.099999551716250e-01  9.930881337407048e-05  1.956560052993857e-18
-1.099999756965157e-01  7.312158293101332e-05  1.956829482538498e-18
-1.099999782394481e-01 -6.919046813428090e-05  1.958291732419806e-18
-1.099999583445898e-01 -9.572976787842611e-05  1.958564060030972e-18
-1.099999870039704e-01  5.347079834836687e-05  1.957031588441161e-18
-1.099998829349391e-01  1.604814619284648e-04  1.955930240714244e-18
-1.099999999907100e-01  1.429590584156510e-06  1.957566524060376e-18
-1.099998873096698e-01 -1.574543104339010e-04  1.959196993131832e-18
-1.099999890324399e-01 -4.912090231266438e-05  1.958085716995852e-18
-1.099999541280748e-01  1.004580577683306e-04  1.956548226353972e-18
-1.099999767319923e-01  7.154691520671869e-05  1.956845680104876e-18
-1.099999771014085e-01 -7.097668300968656e-05  1.958310064875999e-18
-1.099999593075170e-01 -9.461683004958109e-05  1.958552642135519e-18
-1.099999974025556e-01  2.390476308696674e-05  1.957335553768203e-18
-1.099999423189708e-01  1.126491146682790e-04  1.956422757515896e-18
-1.099999653165579e-01  8.735190880701036e-05  1.956683086385865e-18
-1.099999999804271e-01  2.075082908388751e-06  1.957559891678237e-18
-1.099999678279385e-01 -8.412997339588533e-05  1.958445045124042e-18
-1.099999451359776e-01 -1.098639241951499e-04  1.958709048289582e-18
-1.099999983143607e-01 -1.925722122024379e-05  1.957779043704103e-18
-1.099999551037308e-01  9.938398831667203e-05  1.956559279390372e-18
-1.099999757848343e-01  7.298860044419759e-05  1.956830850456977e-18
-1.099999782038458e-01 -6.924704597392497e-05  1.958292313102970e-18
-1.099999586453554e-01 -9.538354168067101e-05  1.958560508035049e-18
-1.099999868618852e-01  5.376230096415856e-05  1.957028590829105e-18
-1.099998832204832e-01  1.602856200037285e-04  1.955932258000475e-18
-1.099999999929558e-01  1.244853934905244e-06  1.957568422202304e-18
-1.099998876733225e-01 -1.572000520614828e-04  1.959194387191053e-18
-1.099999891694158e-01 -4.881319839819277e-05  1.958082557887561e-18
-1.099999541622813e-01  1.004205951996408e-04  1.956548611877002e-18
-1.099999768367233e-01  7.138571466763521e-05  1.956847338245669e-18
-1.099999771556887e-01 -7.089250943531842e-05  1.958309200989080e-18
-1.099999595247240e-01 -9.436397098212743e-05  1.958550047965914e-18
-1.099999973828173e-01  2.399541834365719e-05  1.957334621967108e-18
-1.099999424175997e-01  1.125527639326028e-04  1.956423749239924e-18
-1.099999652884625e-01  8.738728150887927e-05  1.956682722444211e-18
-1.099999999757290e-01  2.310746269543340e-06  1.957557470239203e-18
-1.099999679263775e-01 -8.400116573567190e-05  1.958443723423965e-18
-1.099999450828582e-01 -1.099170965098143e-04  1.958709593670476e-18
-1.099999983205719e-01 -1.922170903634413e-05  1.957778678939852e-18
-1.099999550645138e-01  9.942738489638842e-05  1.956558832808367e-18
-1.099999758213540e-01  7.293354151283682e-05  1.956831416817406e-18
-1.099999783463257e-01 -6.902034349282057e-05  1.958289986352930e-18
-1.099999588071075e-01 -9.519682025691086e-05  1.958558592418820e-18
-1.099999869835789e-01  5.351273101861539e-05  1.957031157235318e-18
-1.099998828311195e-01  1.605526079137389e-04  1.955929507867497e-18
-1.099999999816171e-01  2.011014468919971e-06  1.957560549979356e-18
-1.099998873227167e-01 -1.574451953778685e-04  1.959196899710129e-18
-1.099999886928148e-01 -4.987565087538657e-05  1.958093465719122e-18
-1.099999542800052e-01  1.002915584647958e-04  1.956549939777615e-18
-1.099999760668828e-01  7.256228451994677e-05  1.956835235717621e-18
-1.099999776497377e-01 -7.012173070041172e-05  1.958301290309774e-18
-1.099999590289560e-01 -9.494012808994561e-05  1.958555958948113e-18
-1.099999974786113e-01  2.355218506712523e-05  1.957339177732779e-18
-1.099999420652102e-01  1.128966355862340e-04  1.956420209812409e-18
-1.099999651712466e-01  8.753470431594070e-05  1.956681205642426e-18
-1.099999999765964e-01  2.269077143225711e-06  1.957557898389777e-18
-1.099999680773114e-01 -8.380328398878466e-05  1.958441692946948e-18
-1.099999451887587e-01 -1.098110650882988e-04  1.958708506120764e-18
-1.099999982936101e-01 -1.937538885180649e-05  1.957780257464310e-18
-1.099999549578894e-01  9.954527725148921e-05  1.956557619609737e-18
-1.099999755199844e-01  7.338666597707571e-05  1.956826755764914e-18
-1.099999783487538e-01 -6.901647351044492e-05  1.958289946633479e-18
-1.099999586041858e-01 -9.543100830087582e-05  1.958560995004665e-18
-1.099999868759610e-01  5.373349372486570e-05  1.957028887063517e-18
-1.099998829241153e-01  1.604888808032087e-04  1.955930164295378e-18
-1.099999999887423e-01  1.573728876374132e-06  1.957565043056768e-18
-1.099998880639846e-01 -1.569264502449427e-04  1.959191582984079e-18
-1.099999891795249e-01 -4.879041228171490e-05  1.958082323948395e-18
-1.099999543001520e-01  1.002694589695130e-04  1.956550167200436e-18
-1.099999766815001e-01  7.162450259025234e-05  1.956844882024125e-18
-1.099999775220556e-01 -7.032174061026430e-05  1.958303343066682e-18
-1.099999595800696e-01 -9.429943259868912e-05  1.958549385842410e-18
-1.099999974355888e-01  2.375227108411353e-05  1.957337121156002e-18
-1.099999421399846e-01  1.128237562154741e-04  1.956420959952169e-18
-1.099999649561098e-01  8.780463857231720e-05  1.956678428337384e-18
-1.099999999760858e-01  2.293694758057530e-06  1.957557645443641e-18
-1.099999678929811e-01 -8.404488712097643e-05  1.958444172050987e-18
-1.099999453820668e-01 -1.096172534093574e-04  1.958706518216317e-18
-1.099999983695732e-01 -1.893921422056005e-05  1.957775777280276e-18
-1.099999549566799e-01  9.954661386491067e-05  1.956557605854994e-18
-1.099999756530123e-01  7.318699765572843e-05  1.956828809651771e-18
-1.099999784447488e-01 -6.886330459934592e-05  1.958288374586906e-18
-1.099999587832301e-01 -9.522440655321741e-05  1.958558875433067e-18
-1.099999868679821e-01  5.374982513340610e-05  1.957028719122233e-18
-1.099998827472186e-01  1.606100808449985e-04  1.955928915860891e-18
-1.099999999868328e-01  1.701977772927676e-06  1.957563725311962e-18
-1.099998879725420e-01 -1.569905352269226e-04  1.959192239806657e-18
-1.099999892073419e-01 -4.872765719046858e-05  1.958081679657669e-18
-1.099999540328991e-01  1.005622195648950e-04  1.956547154435588e-18
-1.099999766215260e-01  7.171655083873964e-05  1.956843935194500e-18
-1.099999774185458e-01 -7.048346856992801e-05  1.958305002920637e-18
-1.099999596482540e-01 -9.421986212940546e-05  1.958548569498167e-18
-1.099999973589975e-01  2.410436616439656e-05  1.957333502143926e-18
-1.099999420569974e-01  1.129046373535131e-04  1.956420127451001e-18
-1.099999651104972e-01  8.761101151456794e-05  1.956680420532572e-18
-1.099999999738151e-01  2.400124253848911e-06  1.957556551878823e-18
-1.099999681796479e-01 -8.366884944771391e-05  1.958440313502076e-18
-1.099999454664569e-01 -1.095325359571054e-04  1.958705649277093e-18
-1.099999983357868e-01 -1.913444058005316e-05  1.957777782558932e-18
-1.099999549479259e-01  9.955628660969715e-05  1.956557506315268e-18
-1.099999754544893e-01  7.348477169344899e-05  1.956825746598753e-18
-1.099999785963767e-01 -6.862067190397094e-05  1.958285884322499e-18
-1.099999587792351e-01 -9.522902130905289e-05  1.958558922776911e-18
-1.099999869034009e-01  5.367729079965792e-05  1.957029465016484e-18
-1.099998826102604e-01  1.607038545368293e-04  1.955927949932937e-18
-1.099999999842835e-01  1.859448613290236e-06  1.957562107310916e-18
-1.099998880935569e-01 -1.569057197047789e-04  1.959191370511585e-18
-1.099999892668045e-01 -4.859323835584709e-05  1.958080299611180e-18
-1.099999539477242e-01  1.006553450946893e-04  1.956546196088807e-18
-1.099999766604274e-01  7.165685844361600e-05  1.956844549204472e-18
-1.099999774880311e-01 -7.037494292711096e-05  1.958303889095654e-18
-1.099999599021803e-01 -9.392293998729835e-05  1.958545523249942e-18
-1.099999973524835e-01  2.413407443524678e-05  1.957333196786310e-18
-1.099999422172403e-01  1.127484089458210e-04  1.956421735492851e-18
-1.099999649720075e-01  8.778471982619507e-05  1.956678633278185e-18
-1.099999999663210e-01  2.722003281535761e-06  1.957553244555377e-18
-1.099999681247167e-01 -8.374103675874998e-05  1.958441054222906e-18
-1.099999453281728e-01 -1.096713222117619e-04  1.958707072794513e-18
-1.099999983919663e-01 -1.880870361315034e-05  1.957774436729709e-18
-1.099999546802539e-01  9.985159998616590e-05  1.956554467314061e-18
-1.099999755825163e-01  7.329287659516825e-05  1.956827720529570e-18
-1.099999785476487e-01 -6.869873906107636e-05  1.958286685567008e-18
-1.099999590780121e-01 -9.488327341660622e-05  1.958555375660012e-18
-1.099999868295499e-01  5.382841981531647e-05  1.957027910906481e-18
-1.099998828409812e-01  1.605458512111475e-04  1.955929577465662e-18
-1.099999999825093e-01  1.961601783678963e-06  1.957561057692624e-18
-1.099998885056390e-01 -1.566165601498145e-04  1.959188406835693e-18
-1.099999892794377e-01 -4.856463244815618e-05  1.958080005920692e-18
-1.099999539919521e-01  1.006069994682363e-04  1.956546693609647e-18
-1.099999765859934e-01  7.177103064892029e-05  1.956843374801897e-18
-1.099999775653496e-01 -7.025398586791846e-05  1.958302647681785e-18
-1.099999599603270e-01 -9.385481541338990e-05  1.958544824329484e-18
-1.099999973442932e-01  2.417137619774961e-05  1.957332813378493e-18
-1.099999421156858e-01  1.128474443424076e-04  1.956420716132844e-18
-1.099999648316112e-01  8.796046966932465e-05  1.956676825013871e-18
-1.099999999660405e-01  2.733314612645290e-06  1.957553128330567e-18
-1.099999681006925e-01 -8.377258824042086e-05  1.958441377975381e-18
-1.099999455065000e-01 -1.094923146299738e-04  1.958705236730182e-18
-1.099999984173641e-01 -1.865957728139248e-05  1.957772904962807e-18
-1.099999546812850e-01  9.985046402982658e-05  1.956554479003950e-18
-1.099999755864590e-01  7.328695891642362e-05  1.956827781401735e-18
-1.099999785679864e-01 -6.866616665090682e-05  1.958286351259261e-18
-1.099999591950486e-01 -9.474749380198120e-05  1.958553982656598e-18
-1.099999867327577e-01  5.402585543311655e-05  1.957025880604698e-18
-1.099998827154785e-01  1.606318178133058e-04  1.955928691956584e-18
-1.099999999838067e-01  1.887447187903466e-06  1.957561819627246e-18
-1.099998884320500e-01 -1.566682369536758e-04  1.959188936486477e-18
-1.099999893457727e-01 -4.841414900000700e-05  1.958078460938439e-18
-1.099999537988644e-01  1.008178933239532e-04  1.956544523315666e-18
-1.099999765567003e-01  7.181591269747831e-05  1.956842913133847e-18
-1.099999775133611e-01 -7.033533943627412e-05  1.958303482634952e-18
-1.099999599575958e-01 -9.385801635758106e-05  1.958544857169418e-18
-1.099999973022890e-01  2.436178003870203e-05  1.957330856300683e-18
-1.099999419078722e-01  1.130498326253379e-04  1.956418632968468e-18
-1.099999648845831e-01  8.789420015252117e-05  1.956677506851780e-18
-1.099999999701723e-01  2.561646213062373e-06  1.957554892234539e-18
-1.099999681951020e-01 -8.364852937966655e-05  1.958440104995783e-18
-1.099999458109435e-01 -1.091860313161618e-04  1.958702095198332e-18
-1.099999984137105e-01 -1.868110324082155e-05  1.957773126069200e-18
-1.099999548992754e-01  9.961002617739881e-05  1.956556953294938e-18
-1.099999754783609e-01  7.344902946992297e-05  1.956826114261939e-18
-1.099999787641731e-01 -6.835116225112890e-05  1.958283118194862e-18
-1.099999590677314e-01 -9.489519139252559e-05  1.958555497929926e-18
-1.099999868322289e-01  5.382294480131878e-05  1.957027967207938e-18
-1.099998824701761e-01  1.607997119929304e-04  1.955926962539431e-18
-1.099999999804489e-01  2.073924463288294e-06  1.957559903581228e-18
-1.099998884877203e-01 -1.566291448743467e-04  1.959188535820281e-18
-1.099999893199006e-01 -4.847289639486062e-05  1.958079064086155e-18
-1.099999539534486e-01  1.006490889353271e-04  1.956546260470448e-18
-1.099999765502627e-01  7.182577248238796e-05  1.956842811713574e-18
-1.099999776907501e-01 -7.005736519214948e-05  1.958300629707422e-18
-1.099999600213736e-01 -9.378324022377648e-05  1.958544090006807e-18
-1.099999973577359e-01  2.411012261398580e-05  1.957333442976046e-18
-1.099999420170411e-01  1.129435589650992e-04  1.956419726834511e-18
-1.099999647488649e-01  8.806388818937663e-05  1.956675760953578e-18
-1.099999999677531e-01  2.663499995973080e-06  1.957553845680869e-18
-1.099999681176475e-01 -8.375032208700243e-05  1.958441149500477e-18
-1.099999456630170e-01 -1.093349589423684e-04  1.958703622743062e-18
-1.099999984125447e-01 -1.868796653121195e-05  1.957773196566269e-18
-1.099999547879088e-01  9.973293304057281e-05  1.956555688489667e-18
-1.099999755077334e-01  7.340502700317157e-05  1.956826566894017e-18
-1.099999786478080e-01 -6.853817691158808e-05  1.958285037631705e-18
-1.099999590893314e-01 -9.487014992037481e-05  1.958555241022294e-18
-1.099999868072341e-01  5.387400344301569e-05  1.957027442154130e-18
-1.099998827694635e-01  1.605948449347224e-04  1.955929072800207e-18
-1.099999999827440e-01  1.948393741291939e-06  1.957561193404640e-18
-1.099998885925361e-01 -1.565555159205026e-04  1.959187781174850e-18
-1.099999892933837e-01 -4.853303401110263e-05  1.958079681506416e-18
-1.099999541356202e-01  1.004497953012529e-04  1.956548311382100e-18
-1.099999766026612e-01  7.174548003008113e-05  1.956843637621848e-18
-1.099999776641566e-01 -7.009910828202338e-05  1.958301058129243e-18
-1.099999598462462e-01 -9.398842561604110e-05  1.958546195095574e-18
-1.099999973916228e-01  2.395501803020697e-05  1.957335037222357e-18
-1.099999420542421e-01  1.129073217751095e-04  1.956420099820510e-18
-1.099999649067856e-01  8.786640917768224e-05  1.956677792789071e-18
-1.099999999739807e-01  2.392525640911868e-06  1.957556629954757e-18
-1.099999679605218e-01 -8.395644172349836e-05  1.958443264508624e-18
-1.099999454122579e-01 -1.095869526854128e-04  1.958706207424675e-18
-1.099999983643840e-01 -1.896932897363140e-05  1.957776086606077e-18
-1.099999551635930e-01  9.931770977451096e-05  1.956559961443634e-18
-1.099999758274727e-01  7.292431246913556e-05  1.956831511751368e-18
-1.099999775603601e-01 -7.026179772249473e-05  1.958302727856959e-18
-1.099999599995276e-01 -9.380886017119104e-05  1.958544352853685e-18
-1.099999973603118e-01  2.409836789294956e-05  1.957333563797374e-18
-1.099999421236861e-01  1.128396457025411e-04  1.956420796403409e-18
-1.099999649877933e-01  8.776493705581414e-05  1.956678836819890e-18
-1.099999999767683e-01  2.260730819675931e-06  1.957557984148277e-18
-1.099999678175751e-01 -8.414352246178102e-05  1.958445184151342e-18
-1.099999453956421e-01 -1.096036298517653e-04  1.958706378480801e-18
-1.099999983689759e-01 -1.894268246605031e-05  1.957775812904611e-18
-1.099999553177075e-01  9.914687234533074e-05  1.956561719478810e-18
-1.099999759647217e-01  7.271698959148824e-05  1.956833644361131e-18
-1.099999783916180e-01 -6.894812181287616e-05  1.958289245107436e-18
-1.099999587167610e-01 -9.530115841510010e-05  1.958559662847670e-18
-1.099999871112297e-01  5.324968736703960e-05  1.957033862184980e-18
-1.099998837877757e-01  1.598958278984803e-04  1.955936273068402e-18
-1.099999999947026e-01  1.079518569355205e-06  1.957570120994210e-18
-1.099998872581568e-01 -1.574902939912189e-04  1.959197361933079e-18
-1.099999890167475e-01 -4.915603067632410e-05  1.958086077647764e-18
-1.099999536362182e-01  1.009951968200336e-04  1.956542698692168e-18
-1.099999961127484e-01  2.924372168843327e-05  1.957280674954408e-18
-1.099999771660047e-01 -7.087650094687455e-05  1.958309036691262e-18
-1.099999955861250e-01  3.116171404011283e-05  1.957260958907853e-18
-1.099999975735880e-01  2.310434106017387e-05  1.957343780857483e-18
-1.099999981801376e-01 -2.000923876644098e-05  1.957786768022545e-18
-1.099999650235625e-01  8.772009437181407e-05  1.956679298198734e-18
-1.099999997433297e-01  7.514480013838646e-06  1.957503999629524e-18
-1.099999668160910e-01 -8.544272229603634e-05  1.958458515135074e-18
-1.099999993449476e-01  1.200464303508887e-05  1.957457857745946e-18
-1.099999979145277e-01 -2.141970636289744e-05  1.957801255337871e-18
-1.099999998109488e-01 -6.449122269514890e-06  1.957647471773773e-18
-1.099999749418792e-01  7.424813719223755e-05  1.956817894173053e-18
-1.099999625887121e-01 -9.072200325579287e-05  1.958512682597872e-18
-1.099999535665178e-01 -1.010710832619338e-04  1.958618855074699e-18
-1.099998908888890e-01  1.549336388381191e-04  1.955987384131158e-18
-1.099999350255360e-01  1.195590974817919e-04  1.956351630157314e-18
-1.099999541122550e-01 -1.004753787100207e-04  1.958612744138877e-18
-1.099999950797322e-01 -3.290074204196642e-05  1.957919168360172e-18
-1.099999996277222e-01  9.049920399789649e-06  1.957488221479966e-18
-1.099999962626945e-01 -2.867415432070378e-05  1.957875762758959e-18
-1.099999996772534e-01  8.426398208712514e-06  1.957494628825440e-18
-1.099999771018236e-01 -7.097603981322614e-05  1.958310058274775e-18
-1.099999955240766e-01  3.137997851100663e-05  1.957258715215479e-18
-1.099999043171992e-01  1.450868944171782e-04  1.956088794825841e-18
-1.099999988072018e-01 -1.619924496410093e-05  1.957747632879642e-18
-1.099999767263350e-01 -7.155561254992336e-05  1.958316006491835e-18
-1.099999999611020e-01  2.925320152280553e-06  1.957551155455510e-18
-1.099999999469546e-01 -3.416124719048938e-06  1.957616311246128e-18
-1.099999996969465e-01  8.165273725933059e-06  1.957497312135104e-18
-1.099999711635320e-01  7.964936944057021e-05  1.956762331233619e-18
-1.099999967170316e-01 -2.687476442058376e-05  1.957857282766874e-18
-1.099998288054395e-01 -1.940689926819917e-04  1.959572154538299e-18
-1.099999712517430e-01 -7.952745204972938e-05  1.958397816819860e-18
-1.099997724546805e-01  2.237407393501265e-04  1.955278308491037e-18
-1.099999189832725e-01  1.335053310791396e-04  1.956208052182154e-18
-1.099997388045250e-01 -2.397142803799005e-04  1.960039541614133e-18
-1.099999904610197e-01 -4.581021165116535e-05  1.958051726275268e-18
-1.099997532917302e-01  2.329715828396445e-04  1.955183123899927e-18
-1.099999990794724e-01 -1.423081173260369e-05  1.957727412788644e-18
-1.099997581792078e-01 -2.306523698790375e-04  1.959946778571263e-18
-1.099999855920649e-01 -5.630049241172968e-05  1.958159423450404e-18
-1.099998462107224e-01  1.839391674787080e-04  1.955688567759988e-18
-1.099999829180723e-01  6.130272196344633e-05  1.956951045557700e-18
-1.099999628850198e-01 -9.036201750641572e-05  1.958508989148218e-18
-1.099999969431442e-01 -2.593276316120147e-05  1.957847608070078e-18
-1.099999999693355e-01 -2.597329252314327e-06  1.957607898818447e-18
-1.099999996556202e-01 -8.704222640724497e-06  1.957670639346614e-18
-1.099999990054842e-01 -1.479166649667206e-05  1.957733174050894e-18
-1.099999947816092e-01 -3.388282571813211e-05  1.957929253607728e-18
-1.099999955486389e-01  3.129375881149578e-05  1.957259601528687e-18
-1.099999898651633e-01  4.721931705151008e-05  1.957095871058843e-18
-1.099999718627829e-01 -7.867774089117638e-05  1.958389097220564e-18
-1.099999631982568e-01 -8.997989817976846e-05  1.958505068585377e-18
-1.099999914980210e-01  4.324852878609110e-05  1.957136698524446e-18
-1.099999957186053e-01  3.069049898232068e-05  1.957265802829040e-18
-1.099999234923229e-01 -1.297369762908776e-04  1.958912851505902e-18
-1.099999982733363e-01 -1.949014972037596e-05  1.957781436229748e-18
-1.099998608081131e-01  1.749919874557181e-04  1.955780756562449e-18
-1.099999792681476e-01 -6.753522804289146e-05  1.958274743736104e-18
-1.099998035223093e-01 -2.079063569926712e-04  1.959713878486410e-18
-1.099999921253832e-01  4.162229637714337e-05  1.957153418636343e-18
-1.099999770807161e-01  7.100874489705250e-05  1.956851215815263e-18
-1.099999625436307e-01 -9.077664769594504e-05  1.958513243247367e-18
-1.099999746892188e-01 -7.462151932441183e-05  1.958347471317275e-18
-1.099999997200403e-01 -7.847996460632591e-06  1.957661843080090e-18
-1.099999928874322e-01 -3.955710791883302e-05  1.957987521086897e-18
-1.099999906837061e-01 -4.527233702211413e-05  1.958046203771818e-18
-1.099999986098183e-01 -1.748827927365714e-05  1.957760873726228e-18
-1.099999725323164e-01 -7.773602497792346e-05  1.958379433346801e-18
-1.099999386173713e-01 -1.162074631109180e-04  1.958774109841139e-18
-1.099999998847274e-01 -5.035861736662539e-06  1.957632952348172e-18
-1.099999999189470e-01  4.222745029856544e-06  1.957537824136013e-18
-1.099999002863889e-01 -1.481113919744087e-04  1.959101228974871e-18
-1.099999121938336e-01 -1.389868656699076e-04  1.959007689688955e-18
-1.099999961101795e-01 -2.925338292111639e-05  1.957881711408227e-18
-1.099999805396712e-01 -6.543142876975102e-05  1.958253150591103e-18
-1.099998948833166e-01 -1.520712307582776e-04  1.959141818725763e-18
-1.099998850319922e-01 -1.590375692313310e-04  1.959213220006833e-18
-1.099999678414091e-01 -8.411235869861348e-05  1.958444864379152e-18
-1.099999622830167e-01 -9.109190319573667e-05  1.958516477745168e-18
-1.099996458048555e-01 -2.791465677090082e-04  1.960443039001764e-18
-1.099996720717677e-01 -2.685965441111098e-04  1.960335108792853e-18
-1.099999959871320e-01 -2.971247004810688e-05  1.957886426171906e-18
-1.099998533957342e-01 -1.795909710995318e-04  1.959423835739618e-18
-1.099987529980588e-01 -5.237736839326764e-04  1.962940605192993e-18
-1.099994180696549e-01 -3.578048870684642e-04  1.961247171839315e-18
-1.099999627887601e-01 -9.047912090373844e-05  1.958510190630030e-18
-1.099993358891713e-01 -3.822354525659978e-04  1.961496724525141e-18
-1.099973638509643e-01 -7.615417509831359e-04  1.965358864178006e-18
-1.099981672049046e-01 -6.349894186290887e-04  1.964072881577560e-18
-1.099991043673686e-01 -4.438900501969981e-04  1.962126082911798e-18
-1.099974411907834e-01 -7.502875982351968e-04  1.965244608201169e-18
-1.099937706042085e-01 -1.170652924087605e-03  1.969498386751051e-18
-1.099926528087859e-01 -1.271348923702318e-03  1.970513109064212e-18
-1.099907875872992e-01 -1.423603148902917e-03  1.972044272077261e-18
-1.099830980177167e-01 -1.928250612668199e-03  1.977092496380268e-18
-1.099696124343704e-01 -2.585409258569373e-03  1.983604570698102e-18
-1.099465247881991e-01 -3.429531600355745e-03  1.991866748910858e-18
-1.099427730788725e-01 -3.547766583002298e-03  1.993014804263491e-18
-1.099802075678921e-01 -2.086610486719078e-03  1.978668147556041e-18
-1.097772079905557e-01 -6.997471386021452e-03  2.025512839695498e-18
-1.089691083805470e-01 -1.502442740168565e-02  2.093605800296360e-18
-1.093696479546259e-01 -1.175925619591315e-02  2.067185431802127e-18
-1.098627494920735e-01 -5.493293551396588e-03  2.011580271926682e-18
-1.057415893069144e-01  3.031033307055146e-02  1.570370053428461e-18
-9.359814762622715e-02  5.778742736044679e-02  1.071945861314007e-18
-9.638516919807759e-02 -5.300848195013588e-02  2.259931953841421e-18
-7.626704182250946e-02 -7.926751119874724e-02  2.171707865796286e-18
-7.393897394894339e-02 -8.144340446824039e-02  2.152633633870455e-18
-1.072021467508890e-01  2.465156652224702e-02  1.654504185975527e-18
-1.097403826811452e-01  7.553039718929971e-03  1.875356273569469e-18
-1.036193062168416e-01  3.691936320063410e-02  1.464696110575004e-18
-3.780886117844353e-02  1.032980639527630e-01 -3.884962971656089e-19
-8.112496843465908e-02 -7.428821909613592e-02  2.207000047084392e-18
-9.546288122197664e-02 -5.465197442726760e-02  2.260405027330433e-18
-5.586729978307032e-02  9.475676659188240e-02  2.063388626267952e-20
-9.068902738082127e-02 -6.225351646871512e-02  2.253551686820829e-18
-3.301794586730166e-02 -1.049276667552646e-01  1.665687390625825e-18
-9.068902738078398e-02 -6.225351646876937e-02  2.253551686820724e-18
-8.023063268090903e-02  7.525320976291296e-02  6.546004181476483e-19
-1.096948752245382e-01  8.187450731023402e-03  1.868028071410030e-18
-9.347198643654862e-02  5.799127306419127e-02  1.067606231898511e-18
-5.896491996305447e-02  9.286085404383546e-02  9.523954504089875e-20
-1.097284682886626e-01  7.724198794948560e-03  1.873385645414353e-18
-9.416778298145280e-02 -5.685445143836964e-02  2.259986860483287e-18
-8.651675348194617e-02 -6.793269733305222e-02  2.237652616218740e-18
-9.211945627917816e-02 -6.011660149100673e-02  2.257051850228672e-18
-9.123296994347341e-02  6.145360197167615e-02  9.921860908494908e-19
-1.067677716101228e-01  2.646966084800844e-02  1.628093703468712e-18
-1.086621441827970e-01  1.710375460526019e-02  1.758037607366838e-18
-1.079787642433924e-01  2.099015179720723e-02  1.705944726849885e-18
-1.099992335613390e-01  4.106286861899968e-04  1.953348512478485e-18
-1.097452000334454e-01 -7.482718063576643e-03  2.029928953253866e-18
-1.099882528958071e-01  1.607552465054381e-03  1.940855141417526e-18
-1.099278596040518e-01  3.983174973786066e-03  1.915371712469608e-18
-1.099682830751536e-01  2.641347667918986e-03  1.929877884476971e-18
-1.099892290207028e-01  1.539317846095758e-03  1.941573598646521e-18
-1.099961557636432e-01  9.196288491928573e-04  1.948063947627526e-18
-1.099876705945796e-01  1.646911405687115e-03  1.940440379855565e-18
-1.099889479165811e-01  1.559274255392480e-03  1.941363551207432e-18
-1.099947211583969e-01 -1.077644322786260e-03  1.968559673405692e-18
-1.099991413499965e-01 -4.346288801044754e-04  1.962031585903393e-18
-1.099609915734837e-01  2.929220404167120e-03  1.926790335718131e-18
-1.099941772706247e-01  1.131797931748684e-03  1.945848777735937e-18
-1.099895461236460e-01 -1.516490525618323e-03  1.972976562803100e-18
-1.099999934073241e-01  3.808396729406685e-05  1.957189796495967e-18
-1.099954972184414e-01  9.952847169365070e-04  1.947274891472669e-18
-1.099956412656653e-01  9.792356994048532e-04  1.947442352789832e-18
-1.099968608688139e-01  8.310228677476993e-04  1.948986890086445e-18
-1.099962740521507e-01 -9.053698935132198e-04  1.966817251824000e-18
-1.099957530452630e-01 -9.665981613029702e-04  1.967437078094013e-18
-1.099958250040259e-01  9.583745007143003e-04  1.947659963871399e-18
-1.099959577136540e-01  9.430199658454469e-04  1.947820087865443e-18
-1.099999289047190e-01 -1.250638104684879e-04  1.958864932744748e-18
-1.099999547259123e-01 -9.980128842681505e-05  1.958605829026858e-18
-1.099998539248693e-01  1.792665817666503e-04  1.955736714163208e-18
-1.099999148348516e-01  1.368806973629253e-04  1.956173297693667e-18
-1.099999509101138e-01  1.039219538855293e-04  1.956512578812247e-18
-1.099999862463154e-01  5.500736627715160e-05  1.957015787280510e-18
-1.099999991477184e-01 -1.369313225860584e-05  1.957721889541891e-18
-1.099999266467797e-01  1.270342592091928e-04  1.956274676476116e-18
-1.099997187204338e-01  2.487597744325338e-04  1.955020290729250e-18
-1.099999996431249e-01 -8.860725082465291e-06  1.957672247129982e-18
-1.099998505377591e-01 -1.813330377797535e-04  1.959441683980837e-18
-1.099999427599713e-01  1.122176589074951e-04  1.956427198415232e-18
-1.099995368423391e-01  3.192091333647373e-04  1.954293212420814e-18
-1.099999998143451e-01  6.390932038210442e-06  1.957515544940626e-18
-1.099997570006460e-01 -2.312137512353783e-04  1.959952525586852e-18
-1.099999706628694e-01  8.033783534560737e-05  1.956755248586658e-18
-1.099996343708744e-01  2.836164203278770e-04  1.954660650254073e-18
-1.099999975189144e-01 -2.336319231757995e-05  1.957821216909630e-18
-1.099998928903416e-01 -1.535060692531354e-04  1.959156525702696e-18
-1.099999483268392e-01  1.066212578538993e-04  1.956484798472101e-18
-1.099999152536980e-01  1.365436896698024e-04  1.956176767779159e-18
-1.099999928333036e-01 -3.970734295406433e-05  1.957989063734024e-18
-1.099999951427654e-01 -3.268931815358463e-05  1.957916997178274e-18
-1.099999837936048e-01  5.971102598926508e-05  1.956967415236761e-18
-1.099999781901571e-01  6.926878728975063e-05  1.956869112991426e-18
-1.099999996822278e-01 -8.361207689906860e-06  1.957667115466118e-18
-1.099999923555425e-01 -4.100951748426524e-05  1.958002434601949e-18
-1.099999725857240e-01  7.766041387268958e-05  1.956782792339153e-18
-1.099999623068223e-01  9.106315173753106e-05  1.956644901151105e-18
-1.099999880167555e-01 -5.134504425774213e-05  1.958108551171056e-18
-1.099999947356993e-01 -3.403154504103342e-05  1.957930780827723e-18
-1.099999769310274e-01  7.124025096048283e-05  1.956848834510671e-18
-1.099999962384157e-01  2.876714209152699e-05  1.957285573873036e-18
-1.099999978379946e-01 -2.180919786207334e-05  1.957805255859535e-18
-1.099999976395774e-01  2.278799895894321e-05  1.957347032332016e-18
-1.099999994597879e-01  1.090167796991569e-05  1.957469192355035e-18
-1.099999953334743e-01 -3.204115416396697e-05  1.957910340922634e-18
-1.099996421667894e-01  2.805765104450194e-04  1.954692022961416e-18
-1.099999328064992e-01  1.215835744987846e-04  1.956330789900993e-18
-1.099962546880438e-01 -9.077194516608005e-04  1.966841048073058e-18
-1.099998213303491e-01 -1.982606648021953e-04  1.959615089418467e-18
-1.099920001624937e-01  1.326612322390026e-03  1.943808386406461e-18
-1.099998020373585e-01  2.086905409084761e-04  1.955433470271761e-18
-1.099941350449678e-01 -1.135894233332754e-03  1.969147739488416e-18
-1.099999996588145e-01  8.663760284589686e-06  1.957492189688195e-18
-1.099939681870669e-01  1.151938567137565e-03  1.945638119132517e-18
-1.099999152722290e-01 -1.365287602342523e-04  1.958982488332281e-18
-1.099922316590138e-01 -1.307277579465404e-03  1.970874768087761e-18
-1.099999729496993e-01  7.714314837693433e-05  1.956788113531588e-18
-1.099961141780138e-01  9.245894966247119e-04  1.948012238711346e-18
-1.099999971688143e-01  2.495717862622483e-05  1.957324736421146e-18
-1.099997031969108e-01 -2.555319773745064e-04  1.960201429024668e-18
-1.099999999777040e-01  2.214733533286159e-06  1.957558456770337e-18
-1.099999990599012e-01  1.438129480726947e-05  1.957433433439616e-18
-1.099999994567924e-01  1.093186168867923e-05  1.957468882174980e-18
-1.099999918551123e-01  4.233054626530600e-05  1.957146136816236e-18
-1.099999994290495e-01  1.120754339827799e-05  1.957466049151844e-18
-1.099999894730891e-01 -4.812400873509589e-05  1.958075482118364e-18
-1.099999993858451e-01 -1.162385479852188e-05  1.957700632705447e-18
-1.099999985150421e-01 -1.807458632187070e-05  1.957766896131504e-18
-1.099999895357615e-01 -4.798054079670756e-05  1.958074009152745e-18
-1.099999682430609e-01  8.358543837801207e-05  1.956721837581884e-18
-1.099999380552481e-01  1.167383463517593e-04  1.956380666267818e-18
-1.099999876863956e-01 -5.204798519765548e-05  1.958115767754706e-18
-1.099999160861489e-01 -1.358714102931241e-04  1.958975748785108e-18
-1.099999991436594e-01  1.372570041094539e-05  1.957440170924457e-18
-1.099998517583912e-01  1.805910625905576e-04  1.955723067048826e-18
-1.099999893826693e-01  4.833024468825080e-05  1.957084448094388e-18
-1.099999425988553e-01 -1.123754797647059e-04  1.958734808459567e-18
-1.099999810305232e-01 -6.460096339351195e-05  1.958244626596341e-18
-1.099999962069117e-01 -2.888735582663015e-05  1.957877952334263e-18
-1.099999974539656e-01  2.366701262730832e-05  1.957337997482711e-18
-1.099999436361696e-01  1.113554643998059e-04  1.956436072743582e-18
-1.099999630876823e-01  9.011497344817202e-05  1.956654657234920e-18
-1.099999998953385e-01  4.798483875978004e-06  1.957531908208376e-18
-1.099999696301118e-01 -8.173967461792048e-05  1.958420517744249e-18
-1.099999468800008e-01 -1.081036398376210e-04  1.958690993044241e-18
-1.099999986029223e-01 -1.753160051033435e-05  1.957761318713475e-18
-1.099999529328666e-01  1.017583758858073e-04  1.956534844787528e-18
-1.099999741802633e-01  7.536803927472655e-05  1.956806374032120e-18
-1.099999792014233e-01 -6.764381981466105e-05  1.958275858289673e-18
-1.099999597969890e-01 -9.404605645619990e-05  1.958546786354930e-18
-1.099999859772009e-01  5.554291609819368e-05  1.957010279911435e-18
-1.099998800106523e-01  1.624735117791945e-04  1.955909721084510e-18
-1.099999999550062e-01  3.146197607254615e-06  1.957548885911417e-18
-1.099998892938738e-01 -1.560619602468915e-04  1.959182722550738e-18
-1.099999896348280e-01 -4.775288115722254e-05  1.958071671795659e-18
-1.099999525368633e-01  1.021855554692606e-04  1.956530448625140e-18
-1.099999756096612e-01  7.325212534022233e-05  1.956828139716988e-18
-1.099999779025930e-01 -6.972394842796210e-05  1.958297207741288e-18
-1.099999603616194e-01 -9.338330729570815e-05  1.958539986896336e-18
-1.099999970600064e-01  2.543223357560540e-05  1.957319853467748e-18
-1.099999408018538e-01  1.141209384666339e-04  1.956407608062133e-18
-1.099999643315854e-01  8.858357561517629e-05  1.956670413928078e-18
-1.099999999493845e-01  3.336962902821517e-06  1.957546925767261e-18
-1.099999687756080e-01 -8.288163358413632e-05  1.958432235750872e-18
-1.099999459189003e-01 -1.090772154448257e-04  1.958700979076005e-18
-1.099999984238803e-01 -1.862112371335121e-05  1.957772509982329e-18
-1.099999540028547e-01  1.005950783312362e-04  1.956546816289024e-18
-1.099999748482894e-01  7.438666299184510e-05  1.956816469205242e-18
-1.099999778033131e-01 -6.988040179669699e-05  1.958298813476012e-18
-1.099999602263710e-01 -9.354248618477490e-05  1.958541619994689e-18
-1.099999971164033e-01  2.518712328974115e-05  1.957322372890545e-18
-1.099999409642198e-01  1.139643281398330e-04  1.956409220065845e-18
-1.099999644216160e-01  8.847170816460327e-05  1.956671564927696e-18
-1.099999999571229e-01  3.071300243339677e-06  1.957549655492293e-18
-1.099999685655166e-01 -8.315999811811207e-05  1.958435092106509e-18
-1.099999458608545e-01 -1.091357366081441e-04  1.958701579326704e-18
-1.099999984144496e-01 -1.867675002890028e-05  1.957773081354685e-18
-1.099999541334461e-01  1.004521760672374e-04  1.956548286881905e-18
-1.099999749054681e-01  7.430206136756036e-05  1.956817339473761e-18
-1.099999786291553e-01 -6.856810706459434e-05  1.958285344821206e-18
-1.099999589246546e-01 -9.506089747698159e-05  1.958557197953525e-18
-1.099999864960068e-01  5.450576345459756e-05  1.957020945510849e-18
-1.099998815474632e-01  1.614296874628065e-04  1.955920473349553e-18
-1.099999999778024e-01  2.209837289058483e-06  1.957558507079221e-18
-1.099998882932692e-01 -1.567656474283455e-04  1.959189934873947e-18
-1.099999892964360e-01 -4.852611572804045e-05  1.958079610477889e-18
-1.099999534561640e-01  1.011911146160591e-04  1.956540682503707e-18
-1.099999761716820e-01  7.240324104622053e-05  1.956836871696564e-18
-1.099999774989327e-01 -7.035790097331861e-05  1.958303714189778e-18
-1.099999597441299e-01 -9.410786226415462e-05  1.958547420446463e-18
-1.099999972433284e-01  2.462656439567730e-05  1.957328134688328e-18
-1.099999415391074e-01  1.134080811721582e-04  1.956414945532182e-18
-1.099999648215942e-01  8.797299567077463e-05  1.956676696135492e-18
-1.099999999656301e-01  2.749784850600912e-06  1.957552959097550e-18
-1.099999683241217e-01 -8.347869280985791e-05  1.958438362282783e-18
-1.099999453791109e-01 -1.096202196114231e-04  1.958706548640363e-18
-1.099999983514459e-01 -1.904420722057456e-05  1.957776855722614e-18
-1.099999543118388e-01  1.002566372024410e-04  1.956550299147416e-18
-1.099999751670412e-01  7.391380278936159e-05  1.956821333344616e-18
-1.099999783442020e-01 -6.902372786070454e-05  1.958290021088289e-18
-1.099999587410707e-01 -9.527309525351216e-05  1.958559374941498e-18
-1.099999865929227e-01  5.430982195732542e-05  1.957022960463288e-18
-1.099998820435730e-01  1.610912783232690e-04  1.955923959209393e-18
-1.099999999839767e-01  1.877510839057782e-06  1.957561921722647e-18
-1.099998878354866e-01 -1.570865376075370e-04  1.959193223757180e-18
-1.099999891839230e-01 -4.878049557364357e-05  1.958082222136092e-18
-1.099999536259058e-01  1.010064279824660e-04  1.956542583112533e-18
-1.099999763532929e-01  7.212679758308854e-05  1.956839715284705e-18
-1.099999773285020e-01 -7.062385545658098e-05  1.958306443742464e-18
-1.099999595630245e-01 -9.431931344736629e-05  1.958549589807572e-18
-1.099999973105689e-01  2.432436550590382e-05  1.957331240868766e-18
-1.099999418177406e-01  1.131374987237876e-04  1.956417730627152e-18
-1.099999649277668e-01  8.784013891657858e-05  1.956678063079846e-18
-1.099999999698459e-01  2.575619682983139e-06  1.957554748656405e-18
-1.099999680620468e-01 -8.382331789557967e-05  1.958441898516410e-18
-1.099999450335840e-01 -1.099663968110005e-04  1.958710099336268e-18
-1.099999983362683e-01 -1.913167278811768e-05  1.957777754129444e-18
-1.099999542691613e-01  1.003034512847791e-04  1.956549817390231e-18
-1.099999753169452e-01  7.369037490512429e-05  1.956823631652683e-18
-1.099999780430982e-01 -6.950192687463440e-05  1.958294929050939e-18
-1.099999585032354e-01 -9.554729944963172e-05  1.958562188057440e-18
-1.099999865729794e-01  5.435020028074263e-05  1.957022545235769e-18
-1.099998821681792e-01  1.610061694852546e-04  1.955924835889302e-18
-1.099999999897900e-01  1.498710921187851e-06  1.957565813857650e-18
-1.099998874427690e-01 -1.573612979473855e-04  1.959196039830981e-18
-1.099999891674784e-01 -4.881756394500204e-05  1.958082602707492e-18
-1.099999536966111e-01  1.009293978554689e-04  1.956543375827390e-18
-1.099999764967649e-01  7.190765675443960e-05  1.956841969430367e-18
-1.099999771689885e-01 -7.087186974443124e-05  1.958308989160441e-18
-1.099999594650875e-01 -9.443346347365489e-05  1.958550760914718e-18
-1.099999973191928e-01  2.428533517688189e-05  1.957331642044690e-18
-1.099999420893784e-01  1.128730850601381e-04  1.956420452215611e-18
-1.099999652492283e-01  8.743665417009482e-05  1.956682214459833e-18
-1.099999999719845e-01  2.482606555177082e-06  1.957555704370562e-18
-1.099999682193607e-01 -8.361662250646445e-05  1.958439777595963e-18
-1.099999449989275e-01 -1.100010583829443e-04  1.958710454854575e-18
-1.099999982488419e-01 -1.962790683063175e-05  1.957782851198104e-18
-1.099999546571425e-01  9.987705703185354e-05  1.956554205340870e-18
-1.099999752506570e-01  7.378925914874261e-05  1.956822614473323e-18
-1.099999781799953e-01 -6.928492264709669e-05  1.958292701847578e-18
-1.099999583399440e-01 -9.573510601929109e-05  1.958564114795753e-18
-1.099999867917261e-01  5.390565832351839e-05  1.957027116635749e-18
-1.099998825417387e-01  1.607507499307482e-04  1.955927466880376e-18
-1.099999999884386e-01  1.594817461384628e-06  1.957564826373813e-18
-1.099998875516808e-01 -1.572851471113080e-04  1.959195259347020e-18
-1.099999890457546e-01 -4.909107661307708e-05  1.958085410784575e-18
-1.099999539498410e-01  1.006530317244508e-04  1.956546219895518e-18
-1.099999765016571e-01  7.190017252451055e-05  1.956842046415174e-18
-1.099999771394979e-01 -7.091762729043331e-05  1.958309458777783e-18
-1.099999592476996e-01 -9.468634720790703e-05  1.958553355334546e-18
-1.099999973656465e-01  2.407400442374894e-05  1.957333814218107e-18
-1.099999419972302e-01  1.129628519107117e-04  1.956419528253945e-18
-1.099999651582811e-01  8.755099591490409e-05  1.956681038021428e-18
-1.099999999792435e-01  2.136903419676600e-06  1.957559256473878e-18
-1.099999678909167e-01 -8.404758898766621e-05  1.958444199774947e-18
-1.099999450416297e-01 -1.099583483062706e-04  1.958710016783989e-18
-1.099999982834969e-01 -1.943272004184259e-05  1.957780846341484e-18
-1.099999547380667e-01  9.978789106021072e-05  1.956555122928980e-18
-1.099999754905195e-01  7.343081802163991e-05  1.956826301594331e-18
-1.099999780227034e-01 -6.953419796447252e-05  1.958295260261715e-18
-1.099999584458995e-01 -9.561328528127841e-05  1.958562865017529e-18
-1.099999867514281e-01  5.398782784050168e-05  1.957026271656661e-18
-1.099998828550838e-01  1.605361883221437e-04  1.955929676999310e-18
-1.099999999909667e-01  1.409695024231536e-06  1.957566728484596e-18
-1.099998873528828e-01 -1.574241183339316e-04  1.959196683687999e-18
-1.099999889574591e-01 -4.928852616561267e-05  1.958087437935675e-18
-1.099999539071717e-01  1.006996525631116e-04  1.956545740123986e-18
-1.099999764100145e-01  7.204024007601458e-05  1.956840605641075e-18
-1.099999770090287e-01 -7.111970943376031e-05  1.958311532776541e-18
-1.099999590536666e-01 -9.491149346067658e-05  1.958555665177454e-18
-1.099999973716187e-01  2.404670087045353e-05  1.957334094858481e-18
-1.099999421723887e-01  1.127921587400574e-04  1.956421285181419e-18
-1.099999652737787e-01  8.740576304569478e-05  1.956682532291816e-18
-1.099999999766518e-01  2.266389179521455e-06  1.957557926008612e-18
-1.099999678432428e-01 -8.410996065522634e-05  1.958444839772759e-18
-1.099999447807869e-01 -1.102189810174388e-04  1.958712690048406e-18
-1.099999982883257e-01 -1.940536661172517e-05  1.957780565380861e-18
-1.099999547682736e-01  9.975458734579575e-05  1.956555465650114e-18
-1.099999756547208e-01  7.318442970073118e-05  1.956828836066981e-18
-1.099999780273887e-01 -6.952678565937087e-05  1.958295184186353e-18
-1.099999584361131e-01 -9.562454351854848e-05  1.958562980517666e-18
-1.099999868612588e-01  5.376358266357982e-05  1.957028577648959e-18
-1.099998828886708e-01  1.605131727856385e-04  1.955929914073306e-18
-1.099999999908882e-01  1.415812966747438e-06  1.957566665623562e-18
-1.099998871334390e-01 -1.575773797114449e-04  1.959198254487715e-18
-1.099999889800313e-01 -4.923812472574963e-05  1.958086920480890e-18
-1.099999539410207e-01  1.006626705143189e-04  1.956546120703488e-18
-1.099999766626308e-01  7.165347583953849e-05  1.956844583998714e-18
-1.099999769701947e-01 -7.117974825769929e-05  1.958312148962548e-18
-1.099999592655688e-01 -9.466558583750647e-05  1.958553142337010e-18
-1.099999973953593e-01  2.393785443690145e-05  1.957335213638538e-18
-1.099999424197621e-01  1.125506506234836e-04  1.956423770991889e-18
-1.099999652738617e-01  8.740565860912153e-05  1.956682533366342e-18
-1.099999999775264e-01  2.223534905213591e-06  1.957558366336278e-18
-1.099999677173850e-01 -8.427439823845957e-05  1.958446527069402e-18
-1.099999447883465e-01 -1.102114360784169e-04  1.958712612661433e-18
-1.099999982950301e-01 -1.936732605347461e-05  1.957780174647254e-18
-1.099999549525651e-01  9.955116061225040e-05  1.956557559065590e-18
-1.099999757811618e-01  7.299413495198496e-05  1.956830793526564e-18
-1.099999780766011e-01 -6.944888196032414e-05  1.958294384629938e-18
-1.099999585357270e-01 -9.550988574617263e-05  1.958561804223455e-18
-1.099999869404879e-01  5.360123531400365e-05  1.957030247118976e-18
-1.099998833958851e-01  1.601652009865934e-04  1.955933498383617e-18
-1.099999999910875e-01  1.400239748140092e-06  1.957566825636273e-18
-1.099998876543891e-01 -1.572133000020515e-04  1.959194522971889e-18
-1.099999889393274e-01 -4.932897513924484e-05  1.958087853211510e-18
-1.099999544396497e-01  1.001163068612807e-04  1.956551743265243e-18
-1.099999766912917e-01  7.160946316981551e-05  1.956845036722960e-18
-1.099999771513780e-01 -7.089919785013399e-05  1.958309269633399e-18
-1.099999590553582e-01 -9.490953300481132e-05  1.958555645064585e-18
-1.099999974744512e-01  2.357160702314857e-05  1.957338978105202e-18
-1.099999419602265e-01  1.129988792853672e-04  1.956419157427233e-18
-1.099999649974375e-01  8.775284868904813e-05  1.956678961195097e-18
-1.099999999900460e-01  1.479796869264726e-06  1.957566008197219e-18
-1.099999673998085e-01 -8.468790350194307e-05  1.958450770034117e-18
-1.099999448205610e-01 -1.101792787692772e-04  1.958712282830056e-18
-1.099999982174976e-01 -1.980278938796991e-05  1.957784647495042e-18
-1.099999545953109e-01  9.994513229903491e-05  1.956553504791862e-18
-1.099999753010128e-01  7.371415398181916e-05  1.956823387047771e-18
-1.099999775639356e-01 -7.025619966719032e-05  1.958302670402607e-18
-1.099999573849299e-01 -9.682620265597493e-05  1.958575308421718e-18
-1.099999855791778e-01  5.632566559849316e-05  1.957002230361375e-18
-1.099998776316834e-01  1.640762462999775e-04  1.955893211232948e-18
-1.099999988963437e-01 -1.558217921150328e-05  1.957741294339583e-18
-1.099998612403054e-01 -1.747201003820685e-04  1.959373928915946e-18
-1.099999893056318e-01 -4.850526590645594e-05  1.958079396417198e-18
-1.099999059911709e-01  1.438121465176344e-04  1.956101922187752e-18
-1.099999034447623e-01  1.457468452367490e-04  1.956081998544855e-18
-1.099999243732058e-01 -1.289879410812857e-04  1.958905171117586e-18
-1.099998360482094e-01 -1.899193697150730e-04  1.959529647563481e-18
-1.099999806834186e-01  6.518932028308826e-05  1.956911072403526e-18
-1.099999171861760e-01  1.349779031580855e-04  1.956192890057512e-18
-1.099999781101489e-01  6.939572524069005e-05  1.956867807326252e-18
-1.099999962938965e-01 -2.855420612966254e-05  1.957874530890149e-18
-1.099999247420404e-01 -1.286730173092050e-04  1.958901941954083e-18
-1.099999997575284e-01  7.303674925238035e-06  1.957506165827915e-18
-1.099999446534574e-01  1.103459842871378e-04  1.956446462888874e-18
-1.099999974269755e-01 -2.379212732182913e-05  1.957825622424817e-18
-1.099999814900876e-01 -6.381363727918214e-05  1.958236545285028e-18
-1.099999950729980e-01 -3.292324925065255e-05  1.957919399493723e-18
-1.099999927825367e-01  3.984773256367113e-05  1.957171663329710e-18
-1.099982061999384e-01  6.281980545549447e-04  1.951094783133669e-18
-1.098670111915946e-01 -5.407388632783977e-03  2.010773472121256e-18
-1.099918618954883e-01 -1.338027190964116e-03  1.971184128792449e-18
-1.063927693839736e-01  2.793883717710066e-02  1.606324838463919e-18
-1.099990008531908e-01  4.688403775904279e-04  1.952746267176909e-18
-9.637972763103253e-02 -5.301837513323007e-02  2.259936763527300e-18
-1.099976738259061e-01  7.153690582404319e-04  1.950189658506593e-18
-8.882778020820557e-02  6.488162654621601e-02  9.141611632962590e-19
-1.099820446287516e-01 -1.987425288961363e-03  1.977681748369550e-18
-9.395295530485553e-02 -5.720875972684373e-02  2.259804134676499e-18
-1.099836093322852e-01 -1.898862354987152e-03  1.976799642161176e-18
-1.067386674152044e-01  2.658678014401735e-02  1.626372401383003e-18
-1.067300215359505e-01  2.662146695686523e-02  1.625862143247219e-18
-1.098890222915474e-01 -4.939916983889826e-03  2.006362084527419e-18
-9.652192478602155e-02 -5.275905643206222e-02  2.259802926067815e-18
-1.099976476096759e-01  7.193888638852997e-04  1.950147889914783e-18
-8.880732675646069e-02  6.490961958270236e-02  9.135095514438718e-19
-1.099849891271779e-01 -1.817186477630440e-03  1.975985007287843e-18
-9.393395882657173e-02 -5.723994566007078e-02  2.259786493820567e-18
-1.099861824308018e-01 -1.743466173548886e-03  1.975248794205297e-18
-1.079478696634212e-01  2.114846176744220e-02  1.703768343512233e-18
-1.059224164964839e-01  2.967223758912234e-02  1.580144288235148e-18
-1.071519151825859e-01  2.486899822477471e-02  1.651376223542443e-18
-8.719769391654041e-02 -6.705641039928439e-02  2.240767233593049e-18
-1.031069059044862e-01 -3.832709165594692e-02  2.228707324566748e-18
-8.211663449602777e-02  7.319056181671038e-02  7.093570284982271e-19
-8.422341301307361e-02  7.075603649462814e-02  7.718635285563139e-19
-6.699623389306358e-02 -8.724393757818277e-02  2.088677663512599e-18
-1.040105383599522e-01 -3.580234503594484e-02  2.218847687651396e-18
-8.662405043526569e-02  6.779582499083904e-02  8.450008329093311e-19
-1.059932123685432e-01  2.941834345772769e-02  1.584012855194410e-18
-8.546460410206222e-02 -6.925172521806007e-02  2.232480895307790e-18
-1.099933353162884e-01 -1.210861676019611e-03  1.969903770602693e-18
-8.766266414475193e-02  6.644740262075220e-02  8.773387527822231e-19
-1.099710036412315e-01 -2.525541157885617e-03  1.983014205897532e-18
-9.380398968392542e-02 -5.745268940074028e-02  2.259659402546026e-18
-1.099935976538883e-01  1.186791959225463e-03  1.945273419110155e-18
-1.059197670383407e-01  2.968169386243935e-02  1.579999978193964e-18
-1.099862146317118e-01 -1.741433601071334e-03  1.975228483315071e-18
-1.098684091662045e-01 -5.378909488677809e-03  2.010505737886973e-18
-1.099984314008123e-01  5.874430701930645e-04  1.951517533511045e-18
-1.099999239905407e-01  1.293138630997956e-04  1.956251207103314e-18
-1.099999086466903e-01  1.417664266625234e-04  1.956122988474245e-18
-1.099999953763149e-01 -3.189373979366245e-05  1.957908827055929e-18
-1.099998462921528e-01 -1.838904638288824e-04  1.959467885048824e-18
-1.099999848381870e-01  5.775464107816450e-05  1.956987534970610e-18
-1.099999314205201e-01  1.228311067402031e-04  1.956317947295256e-18
-1.099999796902344e-01 -6.684420663709741e-05  1.958267651253725e-18
-1.099999720925582e-01 -7.835583162712635e-05  1.958385793808942e-18
-1.099999688441208e-01  8.279065389921648e-05  1.956730014400258e-18
-1.099999708763178e-01  8.004504456224837e-05  1.956758260704164e-18
-1.099999418432656e-01 -1.131126788061067e-04  1.958742369465292e-18
-1.099999607890363e-01 -9.287847117407921e-05  1.958534807494972e-18
-1.099999767362880e-01  7.154031053115077e-05  1.956845748041965e-18
-1.099999036149639e-01  1.456183319170470e-04  1.956083322001469e-18
-1.099999937801723e-01 -3.699137696138955e-05  1.957961175020742e-18
-1.099981829971331e-01 -6.322478383891154e-04  1.964044993878075e-18
-1.098934317675734e-01  4.840831988988169e-03  1.905946913783562e-18
-1.098293492186413e-01  6.124871444339245e-03  1.891613449436012e-18
-1.058608571865514e-01 -2.989111767278882e-02  2.191040604534569e-18
-1.084082728646183e-01 -1.864527753910856e-02  2.120827983112165e-18
-9.817431280531683e-02  4.961657288853927e-02  1.237336740784101e-18
-9.300877671633373e-02  5.873131578409517e-02  1.051759192280104e-18
-8.445347980611101e-02 -7.048127232562371e-02  2.227119882219487e-18
-9.770317538966893e-02 -5.053800073979502e-02  2.258004149214499e-18
-1.032144119948782e-01  3.803662914285993e-02  1.446011033234294e-18
-9.298946598764837e-02  5.876188573669091e-02  1.051101439670747e-18
-1.054751219588144e-01 -3.122496833902556e-02  2.197880817081086e-18
-1.076726364387331e-01 -2.250785112649214e-02  2.147422995862340e-18
-1.078380666866635e-01  2.170141408486206e-02  1.696132884373394e-18
-1.099211436752965e-01 -4.164393487022106e-03  1.998965500662230e-18
-1.000371279225505e-01 -4.574465036490261e-02  2.250289684761762e-18
-1.097243941756830e-01 -7.781858568443656e-03  2.032632248215166e-18
-8.396402819275249e-02  7.106364731454887e-02  7.640868768448270e-19
-9.135680192025106e-02  6.126936218783366e-02  9.962828254383067e-19
-7.892047051925215e-02 -7.662610086008408e-02  2.191789262898317e-18
-8.560112986828622e-02 -6.908289632950201e-02  2.233175878672355e-18
 7.196176813421101e-02 -8.319557636676354e-02 -4.258411784608813e-19
 1.099951874559056e-01  1.028949240791959e-03 -1.968067647448119e-18
 9.677729168311222e-02 -5.228915580196094e-02 -1.185015264924991e-18
 1.025174917988203e-01  3.987685889433534e-02 -2.234141292866093e-18
 8.195538095393352e-02  7.337108103807359e-02 -2.212354968040262e-18
 1.095545467944433e-01 -9.889452799020487e-03 -1.848043306646756e-18
 9.701088758402886e-02 -5.185448572841940e-02 -1.193638459727494e-18
 1.098518791601100e-01 -5.706544049818834e-03 -1.896312558631437e-18
 1.077288296096639e-01  2.223733956506335e-02 -2.145643612344138e-18
 1.074627192480360e-01 -2.348965669859204e-02 -1.671079585733783e-18
 1.079800030511368e-01 -2.098377804582408e-02 -1.706032260891459e-18
 9.902384823593197e-02  4.789861668719713e-02 -2.254388385541749e-18
 9.319128039481532e-02  5.844129754184824e-02 -2.258913099396997e-18
 8.474877855868951e-02 -7.012591912274757e-02 -7.876872622116845e-19
 9.816007994913688e-02 -4.964472483939247e-02 -1.236794199062596e-18
 1.031806428816591e-01  3.812813835643523e-02 -2.227975389153759e-18
 9.347289258607350e-02  5.798981248109268e-02 -2.259285879271983e-18
 1.059095636784334e-01 -2.971808071601850e-02 -1.579444535531184e-18
 1.071618305486149e-01 -2.482623760197800e-02 -1.651992029173930e-18
 1.097143687528952e-01  7.921949832816444e-03 -2.033893220708173e-18
 1.099607962724593e-01  2.936542716634256e-03 -1.987055445305456e-18
 1.099864377641104e-01 -1.727283405061502e-03 -1.939592647070073e-18
 1.099898783980293e-01  1.492196363301624e-03 -1.972732862329676e-18
 1.099977241460864e-01  7.075893451717519e-04 -1.964810934689136e-18
 1.099934392693015e-01 -1.201381584013480e-03 -1.945120697372803e-18
 1.099999266830298e-01 -1.270028661168519e-04 -1.956274999673848e-18
 1.099975817840587e-01  7.293844385752148e-04 -1.965032337854224e-18
 1.099999323441062e-01 -1.220011966927835e-04 -1.956326490755824e-18
 1.099997465913232e-01 -2.361140500057808e-04 -1.955150716949627e-18
 1.099999386712297e-01  1.161564705354144e-04 -1.958773586869424e-18
 1.099999995126979e-01 -1.035405152867482e-05 -1.957474819959378e-18
 1.099999687651652e-01 -8.289549217415699e-05 -1.956728935819957e-18
 1.099999769748228e-01  7.117259567924463e-05 -1.958312075554765e-18
 1.099999976780120e-01  2.260170956301586e-05 -1.957813395782285e-18
 1.099999891660122e-01 -4.882086767431771e-05 -1.957079403265764e-18
 1.099999684932314e-01  8.325555862037666e-05 -1.958436072669552e-18
 1.099999996963460e-01 -8.173358957723086e-06 -1.957497229051599e-18
 1.099999653491510e-01 -8.731085557116142e-05 -1.956683508772982e-18
 1.099999873451692e-01  5.276421667148221e-05 -1.958123120700381e-18
 1.099999972752549e-01 -2.448354228986159e-05 -1.957329604756681e-18
 1.099999690791313e-01 -8.247781572292932e-05 -1.956733232881165e-18
 1.099999722148227e-01  7.818400198633847e-05 -1.958384030497647e-18
 1.099999975699408e-01  2.312169870479601e-05 -1.957818736558562e-18
 1.099999483207256e-01 -1.066275650450075e-04 -1.956484733559204e-18
 1.099999881562987e-01  5.104521591664940e-05 -1.958105473027108e-18
 1.099998737498611e-01  1.666583767697533e-04 -1.959291320256888e-18
 1.099999999927028e-01 -1.267003189194449e-06 -1.957568194622262e-18
 1.099998678085150e-01 -1.705347740473706e-04 -1.955826677391542e-18
 1.099999858532659e-01 -5.578782324884481e-05 -1.957007761373859e-18
 1.099999506390592e-01  1.042084663424227e-04 -1.958651038448514e-18
 1.099999971315549e-01 -2.512086452274570e-05 -1.957323053944946e-18
 1.099999683008321e-01 -8.350937584798425e-05 -1.956722620124854e-18
 1.099999727510252e-01  7.742592348435761e-05 -1.958376251058791e-18
 1.099999976547156e-01  2.271480756536575e-05 -1.957814557408587e-18
 1.099999861829950e-01 -5.513384460162566e-05 -1.957014486634811e-18
 1.099999686678242e-01  8.302456037985276e-05 -1.958433702353634e-18
 1.099999999785150e-01 -2.174085250868787e-06 -1.957558874431104e-18
 1.099999653236102e-01 -8.734302759988468e-05 -1.956683177762545e-18
 1.099999874917109e-01  5.245782479009051e-05 -1.958119975242989e-18
 1.099999972209433e-01 -2.472634992838448e-05 -1.957327109029860e-18
 1.099999690874587e-01 -8.246670870622791e-05 -1.956733347149924e-18
 1.099999722676289e-01  7.810967169031109e-05 -1.958383267720606e-18
 1.099999976079965e-01  2.293993668945712e-05 -1.957816869697131e-18
 1.099999483340467e-01 -1.066138217549399e-04 -1.956484875003581e-18
 1.099999882033772e-01  5.094366322207379e-05 -1.958104430447879e-18
 1.099998742337698e-01  1.663386748720378e-04 -1.959288044047760e-18
 1.099999999925513e-01 -1.280092709023973e-06 -1.957568060129503e-18
 1.099998679736866e-01 -1.704282002422362e-04 -1.955827775338101e-18
 1.099999857039588e-01 -5.608144798014942e-05 -1.957004741829310e-18
 1.099999508493632e-01  1.039862375502137e-04 -1.958648758871014e-18
 1.099999971776391e-01 -2.491825251324449e-05 -1.957325136529864e-18
 1.099999682856173e-01 -8.352941461905029e-05 -1.956722413962997e-18
 1.099999729819068e-01  7.709720951501888e-05 -1.958372877750980e-18
 1.099999976701671e-01  2.263985815064647e-05 -1.957813787605553e-18
 1.099999862089844e-01 -5.508196769816748e-05 -1.957015020113660e-18
 1.099999687932045e-01  8.285827635366932e-05 -1.958431996076964e-18
 1.099999999753035e-01 -2.330912733010712e-06 -1.957557263028545e-18
 1.099999653550746e-01 -8.730339239920849e-05 -1.956683585559779e-18
 1.099999875266414e-01  5.238452703896108e-05 -1.958119222756853e-18
 1.099999971757991e-01 -2.492637393233625e-05 -1.957325053052487e-18
 1.099999690571006e-01 -8.250719273373606e-05 -1.956732930650987e-18
 1.099999722766027e-01  7.809703296119875e-05 -1.958383138021957e-18
 1.099999976345554e-01  2.281222788845282e-05 -1.957815558008241e-18
 1.099999481758798e-01 -1.067768875186395e-04 -1.956483196747327e-18
 1.099999882497573e-01  5.084341828344656e-05 -1.958103401292942e-18
 1.099998742549408e-01  1.663246738357171e-04 -1.959287900568962e-18
 1.099999999922771e-01 -1.303450993950848e-06 -1.957567820126730e-18
 1.099998679455655e-01 -1.704463495578104e-04 -1.955827588360028e-18
 1.099999856601112e-01 -5.616738610449818e-05 -1.957003858065982e-18
 1.099999511057577e-01  1.037146607550423e-04 -1.958645973080944e-18
 1.099999971335648e-01 -2.511206218948211e-05 -1.957323144421490e-18
 1.099999683462998e-01 -8.344946365796640e-05 -1.956723236509994e-18
 1.099999729637937e-01  7.712304822776962e-05 -1.958373142912026e-18
 1.099999977505068e-01  2.224608774619605e-05 -1.957809743187436e-18
 1.099999860700097e-01 -5.535880776443631e-05 -1.957012173209327e-18
 1.099999683328623e-01  8.346717462007088e-05 -1.958438244093115e-18
 1.099999999839808e-01 -1.877270633382845e-06 -1.957561924190747e-18
 1.099999646516709e-01 -8.818520890928868e-05 -1.956674512697570e-18
 1.099999879846361e-01  5.141380982328799e-05 -1.958109257140659e-18
 1.099999971997509e-01 -2.482044937190248e-05 -1.957326141815118e-18
 1.099999694858157e-01 -8.193362898256288e-05 -1.956738831439668e-18
 1.099999720828238e-01  7.836949603468298e-05 -1.958385934032531e-18
 1.099999976940189e-01  2.252367117698459e-05 -1.957812594251078e-18
 1.099999477855216e-01 -1.071782741714807e-04 -1.956479065698393e-18
 1.099999882648960e-01  5.081065505313356e-05 -1.958103064932063e-18
 1.099998742869254e-01  1.663035193157105e-04 -1.959287683783158e-18
 1.099999999890156e-01 -1.554511723202030e-06 -1.957565240510898e-18
 1.099998677211180e-01 -1.705911383116599e-04 -1.955826096713869e-18
 1.099999856812334e-01 -5.612600444414588e-05 -1.957004283623405e-18
 1.099999511677792e-01  1.036488596988291e-04 -1.958645298102743e-18
 1.099999970954655e-01 -2.527839997380355e-05 -1.957321434683160e-18
 1.099999682873400e-01 -8.352714601045485e-05 -1.956722437302782e-18
 1.099999730217305e-01  7.704036914980650e-05 -1.958372294445588e-18
 1.099999977586152e-01  2.220595818665324e-05 -1.957809331015087e-18
 1.099999860801170e-01 -5.533872047381897e-05 -1.957012379778813e-18
 1.099999686947974e-01  8.298881555995204e-05 -1.958433335568616e-18
 1.099999999700744e-01 -2.565847150568627e-06 -1.957554849069690e-18
 1.099999649273239e-01 -8.784069351226195e-05 -1.956678057373695e-18
 1.099999875311294e-01  5.237510198694809e-05 -1.958119125997737e-18
 1.099999971863465e-01 -2.487978493125548e-05 -1.957325531925251e-18
 1.099999686798574e-01 -8.300861596571851e-05 -1.956727771995940e-18
 1.099999724868263e-01  7.780036882210031e-05 -1.958380093646876e-18
 1.099999976227963e-01  2.286885942814066e-05 -1.957816139667471e-18
 1.099999479228416e-01 -1.070372461524250e-04 -1.956480517153831e-18
 1.099999883809836e-01  5.055871220012135e-05 -1.958100478376691e-18
 1.099998742782296e-01  1.663092709475934e-04 -1.959287742724334e-18
 1.099999999879826e-01 -1.625959330820811e-06 -1.957564506394304e-18
 1.099998670796930e-01 -1.710042391261029e-04 -1.955821840838146e-18
 1.099999856213554e-01 -5.624323537152719e-05 -1.957003078052613e-18
 1.099999509561679e-01  1.038731948059362e-04 -1.958647599298597e-18
 1.099999970758961e-01 -2.536341400406312e-05 -1.957320560846622e-18
 1.099999679603888e-01 -8.395661599168070e-05 -1.956718018836253e-18
 1.099999731676712e-01  7.683170917073484e-05 -1.958370153137293e-18
 1.099999977125101e-01  2.243318333735580e-05 -1.957811664850470e-18
 1.099999860929174e-01 -5.531327058867533e-05 -1.957012641494935e-18
 1.099999690973528e-01  8.245351024896341e-05 -1.958427842664960e-18
 1.099999999634624e-01 -2.835172332750473e-06 -1.957552081733614e-18
 1.099999651358677e-01 -8.757915174991612e-05 -1.956680748331578e-18
 1.099999875601354e-01  5.231414705693530e-05 -1.958118500224171e-18
 1.099999970991668e-01 -2.526228869621622e-05 -1.957321600286552e-18
 1.099999686190718e-01 -8.308912775422712e-05 -1.956726943684809e-18
 1.099999724928976e-01  7.779178418076119e-05 -1.958380005550851e-18
 1.099999976707115e-01  2.263721249862667e-05 -1.957813760432129e-18
 1.099999477683975e-01 -1.071958475534394e-04 -1.956478884833535e-18
 1.099999884041088e-01  5.050837400178144e-05 -1.958099961581529e-18
 1.099998745148034e-01  1.661527231925413e-04 -1.959286138463132e-18
 1.099999999859255e-01 -1.759635092304868e-06 -1.957563132887805e-18
 1.099998670165935e-01 -1.710448235730439e-04 -1.955821422724766e-18
 1.099999855337955e-01 -5.641422435730166e-05 -1.957001319644666e-18
 1.099999512387197e-01  1.035735450128284e-04 -1.958644525534173e-18
 1.099999970403886e-01 -2.551694394883314e-05 -1.957318982750314e-18
 1.099999680406804e-01 -8.385135193573988e-05 -1.956719101815072e-18
 1.099999731683618e-01  7.683072049675497e-05 -1.958370142991316e-18
 1.099999978032641e-01  2.198367172605248e-05 -1.957807047897036e-18
 1.099999858943578e-01 -5.570674105373685e-05 -1.957008595195239e-18
 1.099999689876101e-01  8.259978650845228e-05 -1.958429343647387e-18
 1.099999999675173e-01 -2.673223360331056e-06 -1.957553745772636e-18
 1.099999649144724e-01 -8.785678560572940e-05 -1.956677891804572e-18
 1.099999877564262e-01  5.189976896482808e-05 -1.958114246133034e-18
 1.099999970607215e-01 -2.542914038263319e-05 -1.957319885261909e-18
 1.099999686707262e-01 -8.302071534224978e-05 -1.956727647516741e-18
 1.099999725619224e-01  7.769411974219064e-05 -1.958379003312602e-18
 1.099999977401373e-01  2.229730280024261e-05 -1.957810269218973e-18
 1.099999476340062e-01 -1.073336657956544e-04 -1.956477466409508e-18
 1.099999884037041e-01  5.050925553068462e-05 -1.958099970631715e-18
 1.099998748140029e-01  1.659545226921434e-04 -1.959284107349605e-18
 1.099999999825201e-01 -1.960997023209255e-06 -1.957561063906511e-18
 1.099998667505395e-01 -1.712158388841839e-04 -1.955819660869820e-18
 1.099999854150924e-01 -5.664520616199830e-05 -1.956998944278069e-18
 1.099999512320261e-01  1.035806536372164e-04 -1.958644598453587e-18
 1.099999970377810e-01 -2.552818227212417e-05 -1.957318867234219e-18
 1.099999676662755e-01 -8.434108299417212e-05 -1.956714063343370e-18
 1.099999734026615e-01  7.649453369657092e-05 -1.958366692963714e-18
 1.099999977583215e-01  2.220741282120517e-05 -1.957809345955703e-18
 1.099999859011498e-01 -5.569332779717176e-05 -1.957008733132449e-18
 1.099999693190745e-01  8.215718220635541e-05 -1.958424801947772e-18
 1.099999999590944e-01 -2.999861869278490e-06 -1.957550389530718e-18
 1.099999648572652e-01 -8.792838197245362e-05 -1.956677155159842e-18
 1.099999877836346e-01  5.184206939406665e-05 -1.958113653775113e-18
 1.099999970196204e-01 -2.560631648326939e-05 -1.957318064110392e-18
 1.099999684886755e-01 -8.326157767464327e-05 -1.956725169503965e-18
 1.099999726640405e-01  7.754940534039573e-05 -1.958377518242008e-18
 1.099999977644207e-01  2.217718137351783e-05 -1.957809035447102e-18
 1.099999473875300e-01 -1.075859682645950e-04 -1.956474869706954e-18
 1.099999885092508e-01  5.027886854919159e-05 -1.958097605367503e-18
 1.099998750064863e-01  1.658268895911746e-04 -1.959282799391329e-18
 1.099999999789217e-01 -2.153403007020077e-06 -1.957559086940886e-18
 1.099998665142812e-01 -1.713675589113383e-04 -1.955818097797158e-18
 1.099999853809778e-01 -5.671141502967169e-05 -1.956998263398895e-18
 1.099999515486729e-01  1.032438353905687e-04 -1.958641143403567e-18
 1.099999969462068e-01 -2.591976904356096e-05 -1.957314842192722e-18
 1.099999677045969e-01 -8.429108831539094e-05 -1.956714577702509e-18
 1.099999734132593e-01  7.647929252639366e-05 -1.958366536554826e-18
 1.099999978561309e-01  2.171753052203249e-05 -1.957804314333673e-18
 1.099999857629328e-01 -5.596565461741936e-05 -1.957005932613563e-18
 1.099999692459800e-01  8.225498998840223e-05 -1.958425805586398e-18
 1.099999999519038e-01 -3.252858362394770e-06 -1.957547789955694e-18
 1.099999644925985e-01 -8.838340902961935e-05 -1.956672473432451e-18
 1.099999878073291e-01  5.179176937938581e-05 -1.958113137382406e-18
 1.099999970154914e-01 -2.562404740131825e-05 -1.957317881858172e-18
 1.099999681551826e-01 -8.370100801338072e-05 -1.956720648581963e-18
 1.099999729456840e-01  7.714887370476755e-05 -1.958373407937136e-18
 1.099999977732333e-01  2.213342684351941e-05 -1.957808586042033e-18
 1.099999473463399e-01 -1.076280742789298e-04 -1.956474436349927e-18
 1.099999886031852e-01  5.007293748158797e-05 -1.958095491172266e-18
 1.099998754936795e-01  1.655033985617600e-04 -1.959279484308700e-18
 1.099999999712272e-01 -2.515937768658148e-06 -1.957555361890974e-18
 1.099998662028805e-01 -1.715673287631875e-04 -1.955816039692756e-18
 1.099999853167555e-01 -5.683584694236923e-05 -1.956996983763283e-18
 1.099999517841876e-01  1.029926032478261e-04 -1.958638566275831e-18
 1.099999968853885e-01 -2.617660094144324e-05 -1.957312202255939e-18
 1.099999675285614e-01 -8.452050266972264e-05 -1.956712217420596e-18
 1.099999736220599e-01  7.617838306560941e-05 -1.958363448535285e-18
 1.099999979038981e-01  2.147422517509528e-05 -1.957801815309692e-18
 1.099999856628355e-01 -5.616205047282170e-05 -1.957003912936142e-18
 1.099999694688365e-01  8.195642116739325e-05 -1.958422741866220e-18
 1.099999999435275e-01 -3.524754007527209e-06 -1.957544996177644e-18
 1.099999643789096e-01 -8.852479060879635e-05 -1.956671018764854e-18
 1.099999879162406e-01  5.155993459869834e-05 -1.958110757302462e-18
 1.099999969138893e-01 -2.605655928283900e-05 -1.957313436147576e-18
 1.099999678511416e-01 -8.409962991533681e-05 -1.956716547475955e-18
 1.099999730305969e-01  7.702770850129941e-05 -1.958372164519812e-18
 1.099999977789327e-01  2.210508383499363e-05 -1.957808294929342e-18
 1.099999468970596e-01 -1.080862803243958e-04 -1.956469720453784e-18
 1.099999888898272e-01  4.943923365836506e-05 -1.958088985196826e-18
 1.099998755764036e-01  1.654484078482248e-04 -1.959278920771269e-18
 1.099999999719256e-01 -2.485214511680691e-06 -1.957555677573709e-18
 1.099998652729732e-01 -1.721625036745343e-04 -1.955809907937941e-18
 1.099999850545111e-01 -5.734114808882412e-05 -1.956991787310612e-18
 1.099999518156019e-01  1.029590461736766e-04 -1.958638222048139e-18
 1.099999968149387e-01 -2.647099160026075e-05 -1.957309176245124e-18
 1.099999671204335e-01 -8.505000576276118e-05 -1.956706769705545e-18
 1.099999737939823e-01  7.592972507549944e-05 -1.958360896724329e-18
 1.099999979532612e-01  2.121986001917324e-05 -1.957799202678596e-18
 1.099999854260525e-01 -5.662391855878943e-05 -1.956999163195508e-18
 1.099999696977807e-01  8.164855936978781e-05 -1.958419582772423e-18
 1.099999999364114e-01 -3.740242822343212e-06 -1.957542781981715e-18
 1.099999639883725e-01 -8.900874495786518e-05 -1.956666039359652e-18
 1.099999881724305e-01  5.101044081706777e-05 -1.958105116012678e-18
 1.099999968560801e-01 -2.629947325458155e-05 -1.957310939265979e-18
 1.099999677168659e-01 -8.427507573593974e-05 -1.956714742444287e-18
 1.099999734137500e-01  7.647858664935906e-05 -1.958366529310931e-18
 1.099999979078549e-01  2.145394693998327e-05 -1.957801607028611e-18
 1.099999466742304e-01 -1.083128173725925e-04 -1.956467388902396e-18
 1.099999889976383e-01  4.919877414399802e-05 -1.958086516481296e-18
 1.099998766608624e-01  1.647258176000221e-04 -1.959271515718203e-18
 1.099999999580308e-01 -3.038610359036637e-06 -1.957549991385135e-18
 1.099998649418845e-01 -1.723739164945706e-04 -1.955807729855897e-18
 1.099999847411161e-01 -5.793922811965438e-05 -1.956985636678323e-18
 1.099999526316996e-01  1.020834157709490e-04 -1.958629239787274e-18
 1.099999966486722e-01 -2.715312189571499e-05 -1.957302164645226e-18
 1.099999665069502e-01 -8.583979130788978e-05 -1.956698644028309e-18
 1.099999732716092e-01  7.668275676892509e-05 -1.958368624555174e-18
 1.099999979171632e-01  2.140616805815283e-05 -1.957801116283607e-18
 1.099999463538363e-01 -1.086377146993574e-04 -1.956464044998595e-18
 1.099999890475852e-01  4.908697455800330e-05 -1.958085368670026e-18
 1.099998765963321e-01  1.647689037298321e-04 -1.959271957264141e-18
 1.099999999478744e-01 -3.386378518835669e-06 -1.957546418012882e-18
 1.099998641587281e-01 -1.728729628470795e-04 -1.955802588398712e-18
 1.099999846713829e-01 -5.807146841794561e-05 -1.956984276716312e-18
 1.099999526708938e-01  1.020411732983033e-04 -1.958628806458722e-18
 1.099999965966613e-01 -2.736301199144997e-05 -1.957300007175143e-18
 1.099999665029162e-01 -8.584496039422813e-05 -1.956698590846035e-18
 1.099999743563369e-01  7.511061933573479e-05 -1.958352490718184e-18
 1.099999981270397e-01  2.029904436918712e-05 -1.957789744724893e-18
 1.099999849215984e-01 -5.759555576423629e-05 -1.956989170998827e-18
 1.099999704511689e-01  8.062717837439253e-05 -1.958409101861175e-18
 1.099999998959075e-01 -4.785422961462853e-06 -1.957532042414655e-18
 1.099999632843744e-01 -8.987455819058668e-05 -1.956657130914725e-18
 1.099999886208008e-01  5.003422458388370e-05 -1.958095093724797e-18
 1.099999965045950e-01 -2.773065119178911e-05 -1.957296228177483e-18
 1.099999667630501e-01 -8.551098052949400e-05 -1.956702026997214e-18
 1.099999740157031e-01  7.560783398896496e-05 -1.958357593356138e-18
 1.099999981751825e-01  2.003646099733618e-05 -1.957787047632896e-18
 1.099999448791854e-01 -1.101207342078205e-04 -1.956448781268712e-18
 1.099999894786072e-01  4.811139386225524e-05 -1.958075352603331e-18
 1.099998762604910e-01  1.649929591811734e-04 -1.959274253375820e-18
 1.099999903136369e-01 -4.616275250278438e-05 -1.957106734856884e-18
 1.099998622098978e-01 -1.741085966396137e-04 -1.955789858028603e-18
 1.099999779028522e-01  6.972353947473199e-05 -1.958297203544054e-18
 1.099999529817724e-01  1.017054953853574e-04 -1.958625363022563e-18
 1.099998598994322e-01 -1.755622545322865e-04 -1.955774881104338e-18
 1.099999637497416e-01 -8.930316599142775e-05 -1.956663010043764e-18
 1.099998586924657e-01  1.763168667665763e-04 -1.959390289768639e-18
 1.099999982547730e-01  1.959463858308469e-05 -1.957782509484498e-18
 1.099998857590228e-01 -1.585339139450459e-04 -1.955950301320222e-18
 1.099999938290642e-01  3.684570209573301e-05 -1.957959679134505e-18
 1.099999601358300e-01  9.364889607064189e-05 -1.958542711706326e-18
 1.099999952841338e-01  3.221009878241544e-05 -1.957912075889142e-18
 1.099999993927844e-01 -1.155799942670338e-05 -1.957462447698082e-18
 1.099998968541444e-01 -1.506388977928151e-04 -1.956031617194076e-18
 1.099999470498280e-01 -1.079306951947448e-04 -1.956471321753167e-18
 1.099999768667306e-01  7.133946074946526e-05 -1.958313788109115e-18
 1.099999115373506e-01  1.395054657155399e-04 -1.959013006433134e-18
 1.099999989186326e-01  1.542403143617840e-05 -1.957739669825301e-18
 1.099999683156518e-01 -8.348985280034334e-05 -1.956722820980811e-18
 1.099999990285148e-01 -1.461939374838521e-05 -1.957430986500931e-18
 1.099999999827459e-01 -1.948287945571064e-06 -1.957561194491685e-18
 1.099999986644956e-01 -1.714091246554980e-05 -1.957405072333954e-18
 1.099999799533250e-01  6.640984894788010e-05 -1.958263193068268e-18
 1.099999999567411e-01  3.084944435750190e-06 -1.957612908663187e-18
 1.099998820428415e-01 -1.610917778658127e-04 -1.955923954063756e-18
 1.099999999548529e-01  3.151551752463866e-06 -1.957613592995568e-18
 1.099999768301727e-01  7.139580790283220e-05 -1.958314366405055e-18
 1.099999127136066e-01 -1.385748853144570e-04 -1.956155852777830e-18
 1.099999984564393e-01  1.842778554381237e-05 -1.957770524082296e-18
 1.099997841229850e-01  2.179286503101944e-04 -1.959816508675319e-18
 1.099999878140320e-01 -5.177753130850457e-05 -1.957049000560892e-18
 1.099997459833964e-01 -2.363970985144058e-04 -1.955147797910242e-18
 1.099999636655809e-01  8.940677157291015e-05 -1.958499188234282e-18
 1.099999342211996e-01  1.202968481984102e-04 -1.958816048552238e-18
 1.099997821828374e-01 -2.189057520073256e-04 -1.955328159353728e-18
 1.099999971673317e-01 -2.496371254181748e-05 -1.957324669261152e-18
 1.099998464188981e-01  1.838146315049726e-04 -1.959467108154828e-18
 1.099999986889444e-01 -1.698329053546963e-05 -1.957406692277120e-18
 1.099999602026532e-01 -9.357037262524122e-05 -1.956619102921088e-18
 1.099999969229748e-01 -2.601817565689218e-05 -1.957313830687078e-18
 1.099999991387792e-01 -1.376475567713280e-05 -1.957439769558935e-18
 1.099999997553011e-01 -7.337143725873832e-06 -1.957505821908510e-18
 1.099999974621560e-01  2.362891416447106e-05 -1.957823946094997e-18
 1.099999902658640e-01 -4.627644934160335e-05 -1.957105565812991e-18
 1.099999670026081e-01 -8.520225967956351e-05 -1.956705203255016e-18
 1.099999344526569e-01  1.200850161524734e-04 -1.958813876173978e-18
 1.099999820745682e-01  6.279804620051695e-05 -1.958226120857158e-18
 1.099995426963563e-01 -3.171854227643892e-04 -1.954314109491296e-18
 1.099999691707362e-01 -8.235555241390084e-05 -1.956734490722469e-18
 1.099995031113483e-01  3.306285777175913e-04 -1.960969458551487e-18
 1.099999976955332e-01 -2.251627438711173e-05 -1.957349825199082e-18
 1.099996128076412e-01 -2.918598446801630e-04 -1.954575568319999e-18
 1.099999930212509e-01  3.918321940001515e-05 -1.957983681899652e-18
 1.099999018825349e-01  1.469211782546393e-04 -1.959089028366594e-18
 1.099999374283517e-01 -1.173275697929178e-04 -1.956374601054639e-18
 1.099999186891434e-01 -1.337474552012271e-04 -1.956205559210380e-18
 1.099999937127531e-01  3.719131886969921e-05 -1.957963228151411e-18
 1.099999999845031e-01  1.846414783366344e-06 -1.957600183714989e-18
 1.099999766567838e-01 -7.166245152512432e-05 -1.956844491672749e-18
 1.099999939520441e-01 -3.647670739761504e-05 -1.957206320201472e-18
 1.099999932028270e-01 -3.867011699362347e-05 -1.957183770381464e-18
 1.099999726399030e-01 -7.758363565316734e-05 -1.956783582171647e-18
 1.099999985618485e-01 -1.778744658736082e-05 -1.957398427603991e-18
 1.099999990519403e-01  1.444205894327923e-05 -1.957729582787027e-18
 1.099999360573589e-01 -1.186059731939283e-04 -1.956361441525649e-18
 1.099999100709939e-01 -1.406569343941168e-04 -1.956134413451437e-18
 1.099999988925426e-01  1.560898920716066e-05 -1.957741569734904e-18
 1.099999999747431e-01 -2.357209043740987e-06 -1.957556992833532e-18
 1.099999085691829e-01 -1.418265537145874e-04 -1.956122369311292e-18
 1.099999101466795e-01 -1.405977323750349e-04 -1.956135023077596e-18
 1.099999382644368e-01  1.165410658004333e-04 -1.958777531206697e-18
 1.099999198770232e-01  1.327668949415956e-04 -1.958943918480784e-18
 1.099966284691271e-01 -8.612348255531768e-04 -1.948672337365491e-18
 1.099963070997470e-01 -9.013458925693416e-04 -1.948254491571645e-18
 1.099950234791484e-01  1.046331602087748e-03 -1.968243326733926e-18
 1.099953860677752e-01  1.007493821830264e-03 -1.967850735347561e-18
 1.099965026441572e-01 -8.771579412236798e-04 -1.948506493930961e-18
 1.099959499033637e-01 -9.439305359113830e-04 -1.947810593095369e-18
 1.099978937367976e-01 -6.807154090376252e-04 -1.950549625740103e-18
 1.099999940511695e-01 -3.617654779603805e-05 -1.957209405996393e-18
 1.099905466807059e-01  1.442096002140887e-03 -1.972229992206165e-18
 1.099999107744210e-01 -1.401057434264035e-04 -1.956140089256726e-18
 1.099695843984404e-01 -2.586601483454647e-03 -1.930463540234781e-18
 1.099952379378790e-01 -1.023538464993461e-03 -1.946979980268273e-18
 1.099918920721796e-01  1.335544226868743e-03 -1.971159154268577e-18
 1.099988349798361e-01  5.062638429733107e-04 -1.962762156901479e-18
 1.099923918938806e-01 -1.293725420223231e-03 -1.944153258706656e-18
 1.099922466070690e-01 -1.306019268479686e-03 -1.944024358329711e-18
 1.099979702347152e-01 -6.682396595684950e-04 -1.950679170905509e-18
 1.099975752795714e-01 -7.303647136530380e-04 -1.950033829845144e-18
 1.099933971533445e-01 -1.205231374693850e-03 -1.945080392668390e-18
 1.099848731022432e-01 -1.824195352305679e-03 -1.938569066993160e-18
 1.099908197110208e-01 -1.421119030079886e-03 -1.942816356774481e-18
 1.099903068553992e-01 -1.460273212466926e-03 -1.942404934896509e-18
 1.099616557076124e-01 -2.904182163782909e-03 -1.927059413601430e-18
 1.099291067037368e-01  3.948607263122775e-03 -1.996890087190375e-18
 1.099352170864354e-01  3.774658151175647e-03 -1.995211564804715e-18
 1.090584246383854e-01 -1.436175530335846e-02 -1.793262937511475e-18
 1.017938048969770e-01 -4.168958244689093e-02 -1.383196867180344e-18
 1.015998745605976e-01 -4.215999868679734e-02 -1.374912289539742e-18
 1.069505614436796e-01  2.572114707554160e-02 -2.167588258580966e-18
 6.503545682265673e-02  8.871521490628471e-02 -2.068900136718370e-18
-3.720234819171338e-03  1.099370722408513e-01 -1.063357464012275e-18
 9.487369571734042e-02 -5.566849971872265e-02 -1.116416972897026e-18
 9.352422049354628e-02 -5.790699595968063e-02 -1.069401715883204e-18
 6.684805521047466e-02 -8.735752694861075e-02 -2.920740268147177e-19
 9.840056589618627e-02 -4.916633636249739e-02 -1.245989201167588e-18
 1.093444635304520e-01 -1.199117572373814e-02 -1.822710184812082e-18
 8.068692067124429e-02 -7.476376684325274e-02 -6.677494554145551e-19
 3.344348690756333e-02  1.047928107432164e-01 -1.671874804506550e-18
 9.237267818409443e-02  5.972678063563818e-02 -2.257552968402552e-18
 6.626085892386928e-02 -8.780375034513625e-02 -2.770393851624064e-19
 9.237267818402133e-02  5.972678063575131e-02 -2.257552968402413e-18
 1.008180842604492e-01  4.399674858501370e-02 -2.246228678527546e-18
 9.835965441873426e-02  4.924813075261941e-02 -2.256434031067947e-18
 1.080745428911176e-01  2.049129519761764e-02 -2.133856020981884e-18
 1.053013365617375e-01 -3.180610819184885e-02 -1.547166684676607e-18
 1.095552750199703e-01  9.881382256475434e-03 -2.051194414304159e-18
 1.094767118919112e-01 -1.071678838717105e-02 -1.838157569090507e-18
-5.475828958628074e-03  1.098636213549134e-01 -1.031359890981746e-18
 8.133174596677741e-02  7.406177892810509e-02 -2.208353309454336e-18
 6.401079049994481e-02 -8.945735687785610e-02 -2.200065271642315e-19
 1.091388288955653e-01 -1.373739521541278e-02 -1.801108900269116e-18
 1.097574504089840e-01  7.300827331155554e-03 -2.028278102099433e-18
 1.099993082635754e-01  3.901045178226748e-04 -1.961577084681616e-18
 1.094501912247827e-01  1.098433615920600e-02 -2.060656773499209e-18
 1.089861692253424e-01  1.490016501871549e-02 -2.092632667536363e-18
 1.097636988151153e-01  7.206276599228386e-03 -2.027417825516938e-18
 1.099843334298650e-01  1.856448218565280e-03 -1.976376738497452e-18
 1.099449470573642e-01  3.479743748225364e-03 -1.992354582887386e-18
 1.099546232419466e-01  3.159244802402825e-03 -1.989233771893988e-18
 1.099726544656102e-01  2.452604694491910e-03 -1.982294188620889e-18
 1.099790167391503e-01  2.148459236200729e-03 -1.979282428771147e-18
 1.099894218770545e-01  1.525475385328425e-03 -1.973066667856379e-18
 1.099960364576320e-01  9.337899181320729e-04 -1.967105028974903e-18
 1.099964525882664e-01  8.834126992517365e-04 -1.966594826892528e-18
 1.099956686619635e-01  9.761534753664388e-04 -1.967533753773371e-18
 1.099976173845581e-01  7.239956631697605e-04 -1.964977603697873e-18
 1.099990759353403e-01  4.508806617775667e-04 -1.962197402924439e-18
 1.099991013618907e-01  4.446342051934270e-04 -1.962133675347990e-18
 1.099990375483661e-01  4.601504461245508e-04 -1.962291963449162e-18
 1.099994364973644e-01  3.520941098969305e-04 -1.961188823621511e-18
 1.099996864894978e-01  2.626256120881516e-04 -1.960274016216091e-18
 1.099995936604658e-01  2.989891843008752e-04 -1.960645986707376e-18
 1.099995848548889e-01  3.022114359441942e-04 -1.960678937466715e-18
 1.099999034866718e-01  1.457152113121083e-04 -1.959076666041883e-18
 1.099999497041027e-01  1.051907543546324e-04 -1.958661114462335e-18
 1.099997320818649e-01  2.427795664346851e-04 -1.960070916677060e-18
 1.099997938398207e-01  2.129675958040629e-04 -1.959765708565161e-18
 1.099999707261244e-01  8.025117878945994e-05 -1.958405243495191e-18
 1.099999712176213e-01  7.957463414460257e-05 -1.958398300991509e-18
 1.099999569594877e-01  9.730832839165214e-05 -1.958580254517257e-18
 1.099999168711975e-01  1.352343505892239e-04 -1.958969217198953e-18
 1.099998478620956e-01  1.829489430282192e-04 -1.959458239203629e-18
 1.099999982131990e-01  1.982665276234146e-05 -1.957784892606046e-18
 1.099999546025511e-01 -9.993716337447240e-05 -1.956553586798516e-18
 1.099999091610530e-01  1.413667571168658e-04 -1.959032088237078e-18
 1.099995903492192e-01  3.002049365059383e-04 -1.960658419192051e-18
 1.099999998476676e-01 -5.789046004747193e-06 -1.957521729693986e-18
 1.099997889652867e-01 -2.154706298058971e-04 -1.955363574688242e-18
 1.099999655451207e-01  8.706360997899645e-05 -1.958475146548760e-18
 1.099995706805211e-01  3.073273515031379e-04 -1.960731249390832e-18
 1.099999999572330e-01 -3.067355828172201e-06 -1.957549696021684e-18
 1.099998235342866e-01 -1.970340725299099e-04 -1.955553618813366e-18
 1.099999476975404e-01  1.072685335986590e-04 -1.958682427180100e-18
 1.099998126252565e-01  2.030330228953676e-04 -1.959663968746708e-18
 1.099999864046021e-01 -5.468991920825349e-05 -1.957019051750724e-18
 1.099999769643518e-01 -7.118877719013588e-05 -1.956849363978010e-18
 1.099999652167010e-01  8.747756568619792e-05 -1.958479393948653e-18
 1.099999816982358e-01  6.345382358550088e-05 -1.958232852034279e-18
 1.099999976575458e-01 -2.270109775166713e-05 -1.957347925530122e-18
 1.099999989806087e-01 -1.497551380747205e-05 -1.957427326644146e-18
 1.099999801353541e-01  6.610765174349821e-05 -1.958260091341200e-18
 1.099999699223256e-01  8.134548169656779e-05 -1.958416472755474e-18
 1.099999892748647e-01 -4.857498942757937e-05 -1.957081931512586e-18
 1.099999807499040e-01 -6.507703648126129e-05 -1.956912227261989e-18
 1.099999614198109e-01  9.212838889920114e-05 -1.958527111897467e-18
 1.099999731036096e-01  7.692337165276397e-05 -1.958371093795943e-18
 1.099999880028913e-01 -5.137473790641520e-05 -1.957053142477753e-18
 1.099999971275266e-01 -2.513849742310669e-05 -1.957322872701612e-18
 1.099999938027930e-01  3.692404936588603e-05 -1.957960483656718e-18
 1.099999990856872e-01  1.418269167890845e-05 -1.957726918483172e-18
 1.099999997820208e-01  6.924980734710330e-06 -1.957652360531827e-18
 1.099999923607087e-01  4.099565766543687e-05 -1.958002292289286e-18
 1.099999982509092e-01  1.961631696099632e-05 -1.957782732153196e-18
 1.099999983660863e-01 -1.895945525222793e-05 -1.957386382156894e-18
 1.099999985969873e-01  1.756880015723819e-05 -1.957761700820712e-18
 1.099999927228546e-01 -4.001214644855167e-05 -1.957169972974654e-18
 1.099999322283403e-01 -1.221055300283803e-04 -1.956325416708511e-18
 1.099999746190590e-01  7.472487068288417e-05 -1.958348531966361e-18
 1.099997653098781e-01  2.272262565207351e-04 -1.959911703399900e-18
 1.099999999252215e-01  4.056007036544834e-06 -1.957622885417723e-18
 1.099997809146154e-01 -2.195421065268618e-04 -1.955321598472687e-18
 1.099999977279232e-01 -2.235747790078775e-05 -1.957351457351712e-18
 1.099999196588347e-01  1.329475454178742e-04 -1.958945770715878e-18
 1.099999727255511e-01 -7.746210652872388e-05 -1.956784832363461e-18
 1.099999996250331e-01 -9.082545653893699e-06 -1.957487886219478e-18
 1.099998889582887e-01  1.562983176421537e-04 -1.959185145064975e-18
 1.099999999980731e-01 -6.510292101335169e-07 -1.957574523626702e-18
 1.099999727529409e-01 -7.742320181078107e-05 -1.956785232582740e-18
 1.099999995473815e-01 -9.978778126882203e-06 -1.957478676374490e-18
 1.099999996636671e-01  8.601927424139612e-06 -1.957669588443629e-18
 1.099999992688965e-01  1.268237717542895e-05 -1.957711506557099e-18
 1.099999752700103e-01  7.376040295253406e-05 -1.958338633995251e-18
 1.099999987744127e-01  1.642038771426684e-05 -1.957749904457545e-18
 1.099998967189968e-01 -1.507375532422092e-04 -1.956030601140061e-18
 1.099999958394874e-01 -3.025413499924960e-05 -1.957270288461687e-18
 1.099999123574857e-01  1.388572842504589e-04 -1.959006361199328e-18
 1.099999788406736e-01 -6.822793623177427e-05 -1.956879818934652e-18
 1.099999451599972e-01 -1.098398722974909e-04 -1.956451672020192e-18
 1.099998580226451e-01  1.767342577527619e-04 -1.959394566389139e-18
 1.099999570613280e-01  9.719313726861447e-05 -1.958579072782682e-18
 1.099999276548796e-01 -1.261583178870392e-04 -1.956283694395337e-18
 1.099999889404521e-01 -4.932646701777306e-05 -1.957074204402068e-18
 1.099999996730517e-01 -8.481069873316442e-06 -1.957494067019174e-18
 1.099999991521648e-01 -1.365736710403597e-05 -1.957440873175724e-18
 1.099999741131086e-01  7.546598802857573e-05 -1.958356137673871e-18
 1.099999999336304e-01  3.821156053288918e-06 -1.957620472558831e-18
 1.099999520889667e-01 -1.026665717978503e-04 -1.956525498386248e-18
 1.099999857231821e-01  5.604373004787845e-05 -1.958156787643776e-18
 1.099998728722373e-01  1.672366334458815e-04 -1.959297246015809e-18
 1.099999999998590e-01  1.759351579644493e-07 -1.957583020416952e-18
 1.099998709636990e-01 -1.684872977237047e-04 -1.955847770617242e-18
 1.099999864559976e-01 -5.458644767093297e-05 -1.957020115797826e-18
 1.099999500038231e-01  1.048768627573565e-04 -1.958657894674084e-18
 1.099999975157151e-01 -2.337825063470755e-05 -1.957340965506192e-18
 1.099999696718044e-01 -8.168354811501186e-05 -1.956741404239627e-18
 1.099999723568321e-01  7.798394772111343e-05 -1.958381977539973e-18
 1.099999974913864e-01  2.349244379069222e-05 -1.957822544431670e-18
 1.099999869375621e-01 -5.360723921662066e-05 -1.957030185378990e-18
 1.099999678728454e-01  8.407123715337494e-05 -1.958444442429658e-18
 1.099999999929358e-01 -1.246617776647516e-06 -1.957568404079115e-18
 1.099999661854935e-01 -8.625074036792229e-05 -1.956694415955298e-18
 1.099999871448115e-01  5.318027101376675e-05 -1.958127391942006e-18
 1.099999974517460e-01 -2.367732637457351e-05 -1.957337891473206e-18
 1.099999700115619e-01 -8.122472172165270e-05 -1.956746124560530e-18
 1.099999719403362e-01  7.856923802515419e-05 -1.958387983773187e-18
 1.099999974951311e-01  2.347490317959000e-05 -1.957822364274905e-18
 1.099999494986175e-01 -1.054054149927088e-04 -1.956497311669012e-18
 1.099999877805796e-01  5.184855118840459e-05 -1.958113720318827e-18
 1.099998736441315e-01  1.667281470834154e-04 -1.959292035239931e-18
 1.099999999977618e-01 -7.016537408525522e-07 -1.957574003472499e-18
 1.099998694544893e-01 -1.694697472975886e-04 -1.955837649446578e-18
 1.099999860265086e-01 -5.544517866783572e-05 -1.957011285005516e-18
 1.099999507495626e-01  1.040917562968422e-04 -1.958649841261732e-18
 1.099999972981346e-01 -2.438053136620825e-05 -1.957330663563671e-18
 1.099999688232806e-01 -8.281833869107020e-05 -1.956729729578202e-18
 1.099999718675404e-01  7.867108898998212e-05 -1.958389028959363e-18
 1.099999974874434e-01  2.351089901201982e-05 -1.957822733982195e-18
 1.099999493343601e-01 -1.055766931492532e-04 -1.956495548925016e-18
 1.099999878473421e-01  5.170671630709567e-05 -1.958112264205065e-18
 1.099998736703761e-01  1.667108311632551e-04 -1.959291857792195e-18
 1.099999999970870e-01 -8.005045226524418e-07 -1.957572987804614e-18
 1.099998691721506e-01 -1.696529094257988e-04 -1.955835762497695e-18
 1.099999859610983e-01 -5.557479729750731e-05 -1.957009952057129e-18
 1.099999507471044e-01  1.040943539904673e-04 -1.958649867908344e-18
 1.099999973235740e-01 -2.426548274885863e-05 -1.957331846099144e-18
 1.099999689649508e-01 -8.262995700913729e-05 -1.956731667652739e-18
 1.099999728581938e-01  7.727351782049935e-05 -1.958374687053152e-18
 1.099999976455531e-01  2.275913543373365e-05 -1.957815012698272e-18
 1.099999864815345e-01 -5.453496261811414e-05 -1.957020645242500e-18
 1.099999683533593e-01  8.344015745295085e-05 -1.958437966866308e-18
 1.099999999863769e-01 -1.731188086647455e-06 -1.957563425178487e-18
 1.099999655056401e-01 -8.711347717013987e-05 -1.956685539549261e-18
 1.099999875126165e-01  5.241396891219442e-05 -1.958119525011816e-18
 1.099999973666893e-01 -2.406923930902631e-05 -1.957333863196487e-18
 1.099999696046526e-01 -8.177392882579151e-05 -1.956740474415610e-18
 1.099999724151942e-01  7.790158171845429e-05 -1.958381132297841e-18
 1.099999975909870e-01  2.302135482871167e-05 -1.957817705936231e-18
 1.099999490370542e-01 -1.058860019253346e-04 -1.956492365598793e-18
 1.099999880601134e-01  5.125207155320381e-05 -1.958107596681897e-18
 1.099998742382108e-01  1.663357380382145e-04 -1.959288013951892e-18
 1.099999999959168e-01 -9.477509667919432e-07 -1.957571474880068e-18
 1.099998688291653e-01 -1.698751492849124e-04 -1.955833472960044e-18
 1.099999857986244e-01 -5.589545911830224e-05 -1.957006654481991e-18
 1.099999509256987e-01  1.039054560162859e-04 -1.958647930228580e-18
 1.099999972956773e-01 -2.439161551149238e-05 -1.957330549634376e-18
 1.099999688025448e-01 -8.284587548068054e-05 -1.956729446278674e-18
 1.099999730349103e-01  7.702154852994252e-05 -1.958372101305105e-18
 1.099999976763586e-01  2.260975526853322e-05 -1.957813478419561e-18
 1.099999864520287e-01 -5.459444495209004e-05 -1.957020033558037e-18
 1.099999684840221e-01  8.326772522734252e-05 -1.958436197513131e-18
 1.099999999827465e-01 -1.948258051426216e-06 -1.957561194798846e-18
 1.099999654277825e-01 -8.721173425212042e-05 -1.956684528607867e-18
 1.099999875955101e-01  5.223971239653632e-05 -1.958117736064610e-18
 1.099999973339679e-01 -2.421831893790667e-05 -1.957332330875142e-18
 1.099999696517734e-01 -8.171051862245945e-05 -1.956741126770986e-18
 1.099999725264602e-01  7.774431122718666e-05 -1.958379518380785e-18
 1.099999976634117e-01  2.267265626539866e-05 -1.957814124474049e-18
 1.099999490523151e-01 -1.058701469235901e-04 -1.956492528774761e-18
 1.099999880172813e-01  5.134391781664920e-05 -1.958108539606640e-18
 1.099998746240008e-01  1.660804143666134e-04 -1.959285397459511e-18
 1.099999999942219e-01 -1.127434340709699e-06 -1.957569628668512e-18
 1.099998689658649e-01 -1.697866086053236e-04 -1.955834385116096e-18
 1.099999857571877e-01 -5.597694559025185e-05 -1.957005816500677e-18
 1.099999511809535e-01  1.036348772589730e-04 -1.958645154672703e-18
 1.099999972928749e-01 -2.440425058112013e-05 -1.957330419763752e-18
 1.099999689272286e-01 -8.268015876684073e-05 -1.956731151176606e-18
 1.099999731110401e-01  7.691274516681794e-05 -1.958370984744896e-18
 1.099999977305789e-01  2.234440784963309e-05 -1.957810753036140e-18
 1.099999864214445e-01 -5.465603297504612e-05 -1.957019400219192e-18
 1.099999684646086e-01  8.329336729951982e-05 -1.958436460630620e-18
 1.099999999814241e-01 -2.021537873690397e-06 -1.957560441851762e-18
 1.099999654230494e-01 -8.721770390700993e-05 -1.956684467187601e-18
 1.099999875759665e-01  5.228084857422453e-05 -1.958118158376092e-18
 1.099999972921174e-01 -2.440766472646536e-05 -1.957330384671168e-18
 1.099999695209991e-01 -8.188637966561928e-05 -1.956739317535370e-18
 1.099999723712024e-01  7.796367499641011e-05 -1.958381769500829e-18
 1.099999976343868e-01  2.281304063794508e-05 -1.957815566355946e-18
 1.099999487016410e-01 -1.062338754244627e-04 -1.956488785355882e-18
 1.099999881176870e-01  5.112835459788447e-05 -1.958106326559714e-18
 1.099998742282148e-01  1.663423483515828e-04 -1.959288081692570e-18
 1.099999999948594e-01 -1.063418319897135e-06 -1.957570286421216e-18
 1.099998686093180e-01 -1.700174482535674e-04 -1.955832006977389e-18
 1.099999857643911e-01 -5.596278836010152e-05 -1.957005962089268e-18
 1.099999510689445e-01  1.037536975009341e-04 -1.958646373514192e-18
 1.099999972667343e-01 -2.452179372917744e-05 -1.957329211585403e-18
 1.099999688406315e-01 -8.279528990193347e-05 -1.956729966704917e-18
 1.099999730893035e-01  7.694382647858583e-05 -1.958371303707254e-18
 1.099999977240719e-01  2.237641867301401e-05 -1.957811081819921e-18
 1.099999864456799e-01 -5.460723550127751e-05 -1.957019902026805e-18
 1.099999684761779e-01  8.327808712802154e-05 -1.958436303838298e-18
 1.099999999777630e-01 -2.211803350686654e-06 -1.957558486877948e-18
 1.099999654035900e-01 -8.724224278207334e-05 -1.956684214713272e-18
 1.099999874523188e-01  5.254036197619688e-05 -1.958120822581564e-18
 1.099999972960533e-01 -2.438992007870168e-05 -1.957330567061021e-18
 1.099999693132713e-01 -8.216495176046847e-05 -1.956736451611526e-18
 1.099999724206025e-01  7.789394466156750e-05 -1.958381053926101e-18
 1.099999976047636e-01  2.295543348376882e-05 -1.957817028863530e-18
 1.099999488051557e-01 -1.061266368236893e-04 -1.956489889035718e-18
 1.099999881039050e-01  5.115799726900526e-05 -1.958106630882124e-18
 1.099998743707477e-01  1.662480666374886e-04 -1.959287115518750e-18
 1.099999999941823e-01 -1.131293362150807e-06 -1.957569589017763e-18
 1.099998686443361e-01 -1.699947903170709e-04 -1.955832240402644e-18
 1.099999857319381e-01 -5.602654142089216e-05 -1.957005306472187e-18
 1.099999510390765e-01  1.037853587870861e-04 -1.958646698290870e-18
 1.099999973093260e-01 -2.432998565399915e-05 -1.957331183101666e-18
 1.099999688291303e-01 -8.281056868352016e-05 -1.956729809516309e-18
 1.099999732000261e-01  7.678537270384504e-05 -1.958369677622722e-18
 1.099999977282078e-01  2.235607732524111e-05 -1.957810872893568e-18
 1.099999864632064e-01 -5.457191895449644e-05 -1.957020265203399e-18
 1.099999684062856e-01  8.337035496224505e-05 -1.958437250612961e-18
 1.099999999797876e-01 -2.108710650646929e-06 -1.957559546154021e-18
 1.099999652884388e-01 -8.738731125396804e-05 -1.956682722138170e-18
 1.099999875053461e-01  5.242922498741986e-05 -1.958119681633061e-18
 1.099999973470472e-01 -2.415883952699229e-05 -1.957332942237244e-18
 1.099999693512405e-01 -8.211410402043926e-05 -1.956736974729290e-18
 1.099999725696942e-01  7.768311567350019e-05 -1.958378890388101e-18
 1.099999975888227e-01  2.303169403338800e-05 -1.957817812129286e-18
 1.099999489461745e-01 -1.059803704876308e-04 -1.956491394378783e-18
 1.099999881442810e-01  5.107110694377826e-05 -1.958105738834137e-18
 1.099998744767233e-01  1.661779318891032e-04 -1.959286396795652e-18
 1.099999999942020e-01 -1.129379053734317e-06 -1.957569608686937e-18
 1.099998688629532e-01 -1.698532691304139e-04 -1.955833698371978e-18
 1.099999858437535e-01 -5.580657624850556e-05 -1.957007568524316e-18
 1.099999512165941e-01  1.035970406870457e-04 -1.958644766549941e-18
 1.099999972371513e-01 -2.465414025380701e-05 -1.957327851246475e-18
 1.099999689822904e-01 -8.260687067360614e-05 -1.956731905165030e-18
 1.099999729734777e-01  7.710923497352285e-05 -1.958373001158191e-18
 1.099999977405659e-01  2.229518838654413e-05 -1.957810247501767e-18
 1.099999863840311e-01 -5.473127898909708e-05 -1.957018626427914e-18
 1.099999684191906e-01  8.335332633070007e-05 -1.958437075879616e-18
 1.099999999812161e-01 -2.032826486166567e-06 -1.957560325861666e-18
 1.099999653732016e-01 -8.728054979383697e-05 -1.956683820581844e-18
 1.099999875219958e-01  5.239428115953908e-05 -1.958119322894225e-18
 1.099999973160767e-01 -2.429944534448204e-05 -1.957331497012390e-18
 1.099999694600586e-01 -8.196820172393406e-05 -1.956738475758934e-18
 1.099999724262857e-01  7.788591854660413e-05 -1.958380971561826e-18
 1.099999976283050e-01  2.284234696597935e-05 -1.957815867359588e-18
 1.099999488201177e-01 -1.061111276485900e-04 -1.956490048653124e-18
 1.099999880521539e-01  5.126915180415718e-05 -1.958107772033622e-18
 1.099998742744156e-01  1.663117935711800e-04 -1.959287768575500e-18
 1.099999999936523e-01 -1.181702704309298e-06 -1.957569071070653e-18
 1.099998686542164e-01 -1.699883968703365e-04 -1.955832306268818e-18
 1.099999858266656e-01 -5.584024794654906e-05 -1.957007222255750e-18
 1.099999510014896e-01  1.038251887123037e-04 -1.958647106859980e-18
 1.099999972689327e-01 -2.451192982418185e-05 -1.957329312972567e-18
 1.099999688434257e-01 -8.279157753597483e-05 -1.956730004897854e-18
 1.099999730800610e-01  7.695703856230071e-05 -1.958371439292133e-18
 1.099999977285779e-01  2.235425656235987e-05 -1.957810854192475e-18
 1.099999864840621e-01 -5.452986415245378e-05 -1.957020697672364e-18
 1.099999683043941e-01  8.350468385106066e-05 -1.958438628980214e-18
 1.099999999785080e-01 -2.174434038717743e-06 -1.957558870847313e-18
 1.099999652860369e-01 -8.739033461340404e-05 -1.956682691031506e-18
 1.099999874515154e-01  5.254204392862280e-05 -1.958120839848717e-18
 1.099999973278114e-01 -2.424626593494084e-05 -1.957332043620337e-18
 1.099999693765120e-01 -8.208024331403083e-05 -1.956737323085485e-18
 1.099999724316926e-01  7.787828190555671e-05 -1.958380893194335e-18
 1.099999976218329e-01  2.287349331372324e-05 -1.957816187261816e-18
 1.099999487990022e-01 -1.061330147468852e-04 -1.956489823395365e-18
 1.099999878817400e-01  5.163348687864880e-05 -1.958111512411442e-18
 1.099998738559698e-01  1.665883268735324e-04 -1.959290602407983e-18
 1.099999999867641e-01 -1.706405408443423e-06 -1.957563679818394e-18
 1.099998683076575e-01 -1.702125081556107e-04 -1.955829997439347e-18
 1.099999859043236e-01 -5.568705895386581e-05 -1.957008797599018e-18
 1.099999512463710e-01  1.035654185812119e-04 -1.958644442174206e-18
 1.099999973450886e-01 -2.416775600412509e-05 -1.957332850588824e-18
 1.099999693195206e-01 -8.215658492132765e-05 -1.956736537688973e-18
 1.099999732400099e-01  7.672807202778655e-05 -1.958369089590650e-18
 1.099999977831413e-01  2.208413073745149e-05 -1.957808079718775e-18
 1.099999864632999e-01 -5.457173052400267e-05 -1.957020267141116e-18
 1.099999683499278e-01  8.344468116879320e-05 -1.958438013284776e-18
 1.099999999835417e-01 -1.902828697728524e-06 -1.957561661583105e-18
 1.099999653807876e-01 -8.727098858724312e-05 -1.956683918954771e-18
 1.099999875709343e-01  5.229143552855531e-05 -1.958118267063646e-18
 1.099999973206696e-01 -2.427864504173366e-05 -1.957331710809680e-18
 1.099999695403720e-01 -8.186035158887419e-05 -1.956739585309164e-18
 1.099999722855599e-01  7.808441566754526e-05 -1.958383008543252e-18
 1.099999975367094e-01  2.327925768877789e-05 -1.957820354828495e-18
 1.099999460925092e-01 -1.089019971549090e-04 -1.956461324941744e-18
 1.099999897555135e-01  4.747406495501518e-05 -1.958068809208210e-18
 1.099998478421944e-01  1.829609083861908e-04 -1.959458361789172e-18
 1.099999987065919e-01  1.686860128937333e-05 -1.957754508482253e-18
 1.099997960427713e-01 -2.118266948204762e-04 -1.955401140748761e-18
 1.099999559763215e-01 -9.841345054994098e-05 -1.956569266842150e-18
 1.099998831284253e-01  1.603487845114893e-04 -1.959226658391267e-18
 1.099999969398335e-01  2.594680222721304e-05 -1.957847752257465e-18
 1.099999285073874e-01 -1.254127967689629e-04 -1.956291369525391e-18
 1.099999922060879e-01  4.140845963469685e-05 -1.958006530927899e-18
 1.099999924589980e-01  4.073107300890836e-05 -1.957999575527231e-18
 1.099999913296832e-01 -4.367458679491998e-05 -1.957132317937409e-18
 1.099999748867349e-01  7.432978952906576e-05 -1.958344477414640e-18
 1.099999999005982e-01 -4.676357665629367e-06 -1.957533163104425e-18
 1.099999742315754e-01 -7.529311179907390e-05 -1.956807144797873e-18
 1.099999810970231e-01  6.448763055827426e-05 -1.958243463326075e-18
 1.099999778448800e-01 -6.981493999542666e-05 -1.956863495326158e-18
 1.099999712939691e-01 -7.946902477730883e-05 -1.956764186530804e-18
 1.099997927189535e-01  2.135457496264041e-04 -1.959771628938489e-18
 1.099999978612195e-01  2.169174125105808e-05 -1.957804049448840e-18
 1.099997206356103e-01 -2.479114511428607e-04 -1.955029041025731e-18
 1.099999999351207e-01  3.778013183644969e-06 -1.957620029308038e-18
 1.099994333365013e-01 -3.530802295976551e-04 -1.953943357201574e-18
 1.098807549016329e-01  5.120517771398381e-03 -2.008070563946732e-18
 1.099895158084078e-01  1.518687667671968e-03 -1.972998598143720e-18
 1.060169263949122e-01 -2.933276866877199e-02 -1.585314124450405e-18
 1.099937301816168e-01 -1.174444861889029e-03 -1.945402639538954e-18
 9.415241605712933e-02  5.687989583855747e-02 -2.259974819703325e-18
 1.099802587535169e-01  2.083910868871636e-03 -1.978641320872601e-18
 8.909266837967061e-02 -6.451741192104629e-02 -9.226173372423745e-19
 1.099733973532051e-01  2.419064818060772e-03 -1.981962799145539e-18
 9.694222890606455e-02  5.198273035080119e-02 -2.259306270773019e-18
 1.051856528656835e-01 -3.218661882242166e-02 -1.541198346812325e-18
 1.099734673140522e-01  2.415882224989246e-03 -1.981931344194600e-18
 9.183413122987195e-02  6.055156762012509e-02 -2.256443269594150e-18
 8.590499288941768e-02 -6.870467376146278e-02 -8.228662551987199e-19
 1.000829600060337e-01 -4.564428897935191e-02 -1.312117168587254e-18
 8.245667671416110e-02  7.280725558113181e-02 -2.215483022312350e-18
 9.275905789472165e-02  5.912492857064273e-02 -2.258245244911403e-18
 7.177399890508472e-02 -8.335762161418005e-02 -4.208346449985402e-19
 1.090315758851219e-01 -1.456418415177532e-02 -1.790705249039936e-18
 1.004432573496798e-01  4.484586996576070e-02 -2.248282600266310e-18
 1.097655970510549e-01  7.177304788385441e-03 -2.027153932058000e-18
 1.060422093191440e-01  2.924123531444556e-02 -2.187590676910432e-18
 1.063118938290396e-01 -2.824502133974993e-02 -1.601739630448757e-18
 1.005544852025971e-01 -4.459591355315637e-02 -1.331280198575022e-18
 9.872025054106513e-02  4.852125444698704e-02 -2.255382879212480e-18
 1.097845822977992e-01  6.880805890133222e-03 -2.024445378700277e-18
 9.320561425563520e-02 -5.841843434421758e-02 -1.058476894222141e-18
 1.081711581855442e-01  1.997499779218774e-02 -2.130270637108410e-18
 9.439081512068594e-02  5.648339597485631e-02 -2.260143523349560e-18
 1.099127935360827e-01  4.379248462280055e-03 -2.001024456794612e-18
 1.071855252551652e-01 -2.472373709159446e-02 -1.653466860249743e-18
 9.846925047453110e-02 -4.902863154304819e-02 -1.248626392164778e-18
 1.099895202438608e-01  1.518366400202401e-03 -1.972995376171353e-18
 9.769003929748495e-02  5.056338815838759e-02 -2.258031223288302e-18
 1.099999502705547e-01 -1.045967276251151e-04 -1.956505634375482e-18
 1.064980063301081e-01 -2.753497135847757e-02 -1.612347230024991e-18
 1.099911566765374e-01  1.394794951707411e-03 -1.971754846699535e-18
 1.098730303335517e-01  5.283673468559652e-03 -2.009609461562056e-18
 1.099982825649092e-01 -6.146810313704392e-04 -1.951235024642287e-18
 1.099999922218702e-01  4.136651324250483e-05 -1.958006100224822e-18
 1.099999806438473e-01  6.525605827399904e-05 -1.958251350576902e-18
 1.099999669874344e-01 -8.522184732285293e-05 -1.956705001729063e-18
 1.099997808797234e-01 -2.195595881610408e-04 -1.955321418234301e-18
 1.099998840296975e-01  1.597293117116645e-04 -1.959220309572500e-18
 1.099992215360744e-01  4.138374772218209e-04 -1.961819388798601e-18
 1.099984361434331e-01  5.865543444518856e-04 -1.963580014867384e-18
 1.098891671726861e-01 -4.936693032119701e-03 -1.904886082835951e-18
 1.097507822556543e-01 -7.400391494500324e-03 -1.877109751456196e-18
 1.069187347288927e-01  2.585312677361501e-02 -2.168377907680302e-18
 1.059001803420376e-01  2.975150086170179e-02 -2.190305894977685e-18
 9.321656434105816e-02 -5.840096003020237e-02 -1.058851306282563e-18
 1.033863369723867e-01 -3.756681151537928e-02 -1.453897848739630e-18
 9.791074567860639e-02  5.013467742649974e-02 -2.257554109576677e-18
 8.488808852633917e-02  6.995721854350939e-02 -2.229469800578542e-18
 9.339778637064820e-02 -5.811070040072391e-02 -1.065058680718437e-18
 9.846998840135832e-02 -4.902714946064352e-02 -1.248654752311209e-18
 1.083825826374914e-01  1.879403577806723e-02 -2.121899231741709e-18
 1.071274994369932e-01  2.497396372979159e-02 -2.163060043784050e-18
 1.082977664271220e-01 -1.927676806148944e-02 -1.729226146690053e-18
 1.098644259063163e-01  5.459663018488400e-03 -2.011264564209212e-18
 9.760879460960764e-02  5.072004746507396e-02 -2.258194994621705e-18
 1.095496428287008e-01  9.943628920269055e-03 -2.051733744600241e-18
 8.183964402608043e-02 -7.350015418816726e-02 -7.012467035286691e-19
 1.027254144381609e-01 -3.933813961676396e-02 -1.423936191097329e-18
 9.682502435112997e-02  5.220071512348285e-02 -2.259460190262966e-18
 7.234115756580098e-02  8.286589721978448e-02 -2.138814181659188e-18
 7.960592909997330e-02  7.591374086507655e-02 -2.196668575818180e-18
 1.099880379005280e-01 -1.622195670065510e-03 -1.940700861708048e-18
 7.756497696214773e-02  7.799791246476701e-02 -2.181761504056540e-18
 6.475047595839294e-02 -8.892342696478552e-02 -2.386560481213808e-19
 9.407989946703996e-02 -5.699975891415347e-02 -1.088612217123881e-18
 8.088294590456648e-02  7.455165364898980e-02 -2.205399661798795e-18
 9.530088584993782e-02  5.493397087610803e-02 -2.260419537520507e-18
 7.312035106205220e-02 -8.217915952698839e-02 -4.569028574630369e-19
 1.095908345974582e-01 -9.478869776113669e-03 -1.852907682794345e-18
 8.451472310043426e-02  7.040782328162745e-02 -2.227455117450493e-18
 1.069369378143029e-01  2.577772935888391e-02 -2.167927172251970e-18
 8.341566463643593e-02 -7.170653312817189e-02 -7.477226750555253e-19
 1.037028763145837e-01 -3.668396712573637e-02 -1.468601949307250e-18
 9.632791554321707e-02  5.311245322049060e-02 -2.259981323791649e-18
 8.506227091909703e-02  6.974532289756862e-02 -2.230392433243541e-18
 9.249148876018294e-02 -5.954262764545173e-02 -1.034217501407981e-18
 9.899070243325740e-02 -4.796708070927663e-02 -1.268813300966625e-18
 1.082085893315316e-01  1.977122138058004e-02 -2.128843040397624e-18
 1.064522132277310e-01  2.771148315983201e-02 -2.179169537860719e-18
 1.098039175964611e-01 -6.565034689135186e-03 -1.886638345941837e-18
 1.099322183715558e-01 -3.861005556656675e-03 -1.916704528317011e-18
 1.099996054644737e-01  2.946144261525804e-04 -1.960601247723027e-18
 1.099988926311587e-01  4.935786855024400e-04 -1.962632847490676e-18
 1.099959855484816e-01  9.397676405316198e-04 -1.967165541911963e-18
 1.099957300425463e-01 -9.692122611958216e-04 -1.947546919866694e-18
 1.099927352157795e-01 -1.264199253037065e-03 -1.944462739171202e-18
 1.099977374582496e-01  7.055168785702489e-04 -1.964789877753497e-18
 1.099971296855992e-01  7.946451594543848e-04 -1.965694822422530e-18
 1.099995685631165e-01 -3.080842874807709e-04 -1.954408080680007e-18
 1.099997370591074e-01 -2.405138815225800e-04 -1.955105340641974e-18
 1.099999291003151e-01  1.248916554747525e-04 -1.958863167395594e-18
 1.099999647840562e-01  8.801992025738466e-05 -1.958484958745421e-18
 1.099999741711184e-01 -7.538138534874181e-05 -1.956806236743314e-18
 1.099999416513367e-01 -1.132991725097437e-04 -1.956416066526377e-18
 1.099999866429825e-01  5.420833545972543e-05 -1.958137946000076e-18
 1.099998624105707e-01  1.739817676919822e-04 -1.959366363642036e-18
 1.099999999835893e-01  1.900087796059862e-06 -1.957600735169433e-18
 1.099998766491983e-01 -1.647336064930748e-04 -1.955886439611271e-18
 1.099999864554641e-01 -5.458752312973126e-05 -1.957020104738382e-18
 1.099999490167785e-01  1.059070635127262e-04 -1.958668462046965e-18
 1.099999708189349e-01  8.012386310066808e-05 -1.958403937024412e-18
 1.099999741271297e-01 -7.544554840206393e-05 -1.956805576708417e-18
 1.099999505972797e-01 -1.042525586665458e-04 -1.956509176400968e-18
 1.099999968669305e-01  2.625405196064524e-05 -1.957850907839466e-18
 1.099999358195461e-01  1.188263257747374e-04 -1.958800967913017e-18
 1.099999665978471e-01  8.572323192373501e-05 -1.958461393385685e-18
 1.099999999974308e-01  7.517935251215526e-07 -1.957588937109269e-18
 1.099999697007136e-01 -8.164460819492091e-05 -1.956741804847635e-18
 1.099999419273112e-01 -1.130309167168492e-04 -1.956418827668495e-18
 1.099999971529408e-01 -2.502704494299898e-05 -1.957324018287633e-18
 1.099999504808468e-01  1.043753381351357e-04 -1.958652750179986e-18
 1.099999694142371e-01  8.202967058840726e-05 -1.958423493505751e-18
 1.099999753455809e-01 -7.364761747056736e-05 -1.956824071479395e-18
 1.099999492517415e-01 -1.056627382185064e-04 -1.956494663372892e-18
 1.099999859888036e-01  5.551993315803177e-05 -1.958151410548065e-18
 1.099998702129255e-01  1.689767425205420e-04 -1.959315077678793e-18
 1.099999999684690e-01  2.633774110169300e-06 -1.957608273260703e-18
 1.099998772959210e-01 -1.643011937799430e-04 -1.955890894004017e-18
 1.099999865996125e-01 -5.429627087618698e-05 -1.957023099814778e-18
 1.099999486045747e-01  1.063343354555269e-04 -1.958672844775304e-18
 1.099999706725537e-01  8.032457459896334e-05 -1.958405996657117e-18
 1.099999741056954e-01 -7.547679313571305e-05 -1.956805255298682e-18
 1.099999507709395e-01 -1.040691637847169e-04 -1.956511063807239e-18
 1.099999968030706e-01  2.652026438761258e-05 -1.957853641938982e-18
 1.099999357314216e-01  1.189078764547867e-04 -1.958801804248348e-18
 1.099999665596375e-01  8.577224834494055e-05 -1.958461896331622e-18
 1.099999999966961e-01  8.525397404821682e-07 -1.957589972226959e-18
 1.099999697551005e-01 -8.157129976877271e-05 -1.956742559032961e-18
 1.099999420769192e-01 -1.128852266144599e-04 -1.956420327243826e-18
 1.099999971857865e-01 -2.488226142534614e-05 -1.957325506470209e-18
 1.099999505643872e-01  1.042872586693207e-04 -1.958651846682173e-18
 1.099999694045850e-01  8.204261287370940e-05 -1.958423626311260e-18
 1.099999755382071e-01 -7.335934710553853e-05 -1.956827036780688e-18
 1.099999492982395e-01 -1.056143204935257e-04 -1.956495161674914e-18
 1.099999860520924e-01  5.539439887461250e-05 -1.958150121855207e-18
 1.099998699660451e-01  1.691373794623295e-04 -1.959316723771484e-18
 1.099999999633176e-01  2.840789755950964e-06 -1.957610400179583e-18
 1.099998772599143e-01 -1.643252985753857e-04 -1.955890645695217e-18
 1.099999865736954e-01 -5.434875159926184e-05 -1.957022560133187e-18
 1.099999485277046e-01  1.064138256412855e-04 -1.958673660140092e-18
 1.099999705468505e-01  8.049653401445651e-05 -1.958407761240604e-18
 1.099999742010822e-01 -7.533764809581424e-05 -1.956806686660941e-18
 1.099999507479371e-01 -1.040934741867751e-04 -1.956510813617334e-18
 1.099999968193431e-01  2.645268373733991e-05 -1.957852947861939e-18
 1.099999356049724e-01  1.190247952816795e-04 -1.958803003296507e-18
 1.099999664196435e-01  8.595159845019157e-05 -1.958463736597440e-18
 1.099999999960916e-01  9.272649962420105e-07 -1.957590739991058e-18
 1.099999698165892e-01 -8.148833921469060e-05 -1.956743412516782e-18
 1.099999421239923e-01 -1.128393472680377e-04 -1.956420799475166e-18
 1.099999971813411e-01 -2.490190600792273e-05 -1.957325304550148e-18
 1.099999505317990e-01  1.043216264097980e-04 -1.958652199218274e-18
 1.099999693779245e-01  8.207835055897137e-05 -1.958423993028538e-18
 1.099999756157080e-01 -7.324304474891393e-05 -1.956828233124375e-18
 1.099999494425568e-01 -1.054639033605906e-04 -1.956496709724611e-18
 1.099999860714471e-01  5.535595179573004e-05 -1.958149727169879e-18
 1.099998696834054e-01  1.693210967083132e-04 -1.959318606369537e-18
 1.099999999482634e-01  3.373725642009481e-06 -1.957615875634305e-18
 1.099998771805399e-01 -1.643784234727694e-04 -1.955890098443633e-18
 1.099999861583979e-01 -5.518289800755598e-05 -1.957013982191149e-18
 1.099999488244219e-01  1.061066658053981e-04 -1.958670509464798e-18
 1.099999698852363e-01  8.139562060815260e-05 -1.958416987254530e-18
 1.099999747425239e-01 -7.454290085758406e-05 -1.956814862035706e-18
 1.099999505094685e-01 -1.043451698170156e-04 -1.956508223292332e-18
 1.099999968989602e-01  2.611950825471519e-05 -1.957849526021769e-18
 1.099999355299830e-01  1.190940785274844e-04 -1.958803713822164e-18
 1.099999663695094e-01  8.601573552332890e-05 -1.958464394690372e-18
 1.099999999949997e-01  1.048822431087754e-06 -1.957591988930111e-18
 1.099999699302256e-01 -8.133479829339801e-05 -1.956744992116268e-18
 1.099999421310442e-01 -1.128324727092215e-04 -1.956420870234255e-18
 1.099999971782099e-01 -2.491573358419599e-05 -1.957325162421101e-18
 1.099999503141047e-01  1.045509180435380e-04 -1.958654551232386e-18
 1.099999691643395e-01  8.236409609776238e-05 -1.958426925159145e-18
 1.099999755260915e-01 -7.337751179071804e-05 -1.956826849929535e-18
 1.099999493687026e-01 -1.055409060036961e-04 -1.956495917236101e-18
 1.099999858896983e-01  5.571594144069049e-05 -1.958153422698269e-18
 1.099998699357194e-01  1.691571009050685e-04 -1.959316925862461e-18
 1.099999999636924e-01  2.826243578411536e-06 -1.957610250729562e-18
 1.099998779071955e-01 -1.638914336827123e-04 -1.955895115018521e-18
 1.099999867103088e-01 -5.407154396358552e-05 -1.957025410772139e-18
 1.099999486598635e-01  1.062771253447596e-04 -1.958672257946128e-18
 1.099999704995685e-01  8.056111985861605e-05 -1.958408423995251e-18
 1.099999744018554e-01 -7.504392787297507e-05 -1.956809708102531e-18
 1.099999509504570e-01 -1.038792424891894e-04 -1.956513018374285e-18
 1.099999967675151e-01  2.666733252651715e-05 -1.957855152377931e-18
 1.099999355033882e-01  1.191186399781790e-04 -1.958803965708861e-18
 1.099999664495925e-01  8.591326133107836e-05 -1.958463343230448e-18
 1.099999999940957e-01  1.139694897407823e-06 -1.957592922595605e-18
 1.099999700260045e-01 -8.120516039488754e-05 -1.956746325803080e-18
 1.099999421744621e-01 -1.127901368297350e-04 -1.956421305992712e-18
 1.099999972130821e-01 -2.476129811522256e-05 -1.957326749810037e-18
 1.099999502205960e-01  1.046492540648641e-04 -1.958655559935183e-18
 1.099999692513993e-01  8.224774267448125e-05 -1.958425731219322e-18
 1.099999756302725e-01 -7.322116780012637e-05 -1.956828458161269e-18
 1.099999496733306e-01 -1.052229285239747e-04 -1.956499189760415e-18
 1.099999859056223e-01  5.568449398121401e-05 -1.958153099870432e-18
 1.099998699863712e-01  1.691241597162770e-04 -1.959316588305123e-18
 1.099999999597826e-01  2.974525871701039e-06 -1.957611774206680e-18
 1.099998778841718e-01 -1.639068859378058e-04 -1.955894955842477e-18
 1.099999867582935e-01 -5.397383833234075e-05 -1.957026415515953e-18
 1.099999483258826e-01  1.066222449512170e-04 -1.958675797981125e-18
 1.099999704861985e-01  8.057937334490504e-05 -1.958408611305258e-18
 1.099999742702775e-01 -7.523654868590244e-05 -1.956807726652064e-18
 1.099999511046512e-01 -1.037158344322816e-04 -1.956514700076779e-18
 1.099999967063707e-01  2.691836549569022e-05 -1.957857730562359e-18
 1.099999354601647e-01  1.191585480206386e-04 -1.958804374980286e-18
 1.099999663878019e-01  8.599233927454432e-05 -1.958464154627953e-18
 1.099999999935053e-01  1.195326317391764e-06 -1.957593494177728e-18
 1.099999700025962e-01 -8.123686291397926e-05 -1.956745999654635e-18
 1.099999423492021e-01 -1.126195906016389e-04 -1.956423061402957e-18
 1.099999972624787e-01 -2.454087711632405e-05 -1.957329015434798e-18
 1.099999501910535e-01  1.046803024309724e-04 -1.958655878420122e-18
 1.099999692272566e-01  8.228002527548669e-05 -1.958426062481673e-18
 1.099999756635055e-01 -7.317122500577395e-05 -1.956828971896759e-18
 1.099999497352666e-01 -1.051581608738101e-04 -1.956499856326715e-18
 1.099999858053902e-01  5.588214312146136e-05 -1.958155128859798e-18
 1.099998698138962e-01  1.692363018151053e-04 -1.959317737455053e-18
 1.099999999606696e-01  2.941540628744779e-06 -1.957611435311077e-18
 1.099998780507369e-01 -1.637950639459206e-04 -1.955896107737047e-18
 1.099999868341676e-01 -5.381898285776283e-05 -1.957028007949970e-18
 1.099999483354829e-01  1.066123400100468e-04 -1.958675696382302e-18
 1.099999704133909e-01  8.067870288819294e-05 -1.958409630584532e-18
 1.099999744268849e-01 -7.500723062111245e-05 -1.956810085598890e-18
 1.099999510849975e-01 -1.037366768023182e-04 -1.956514485579237e-18
 1.099999967149129e-01  2.688343564929107e-05 -1.957857371822894e-18
 1.099999351733859e-01  1.194229914260903e-04 -1.958807086936640e-18
 1.099999662941563e-01  8.611204587780292e-05 -1.958465382903279e-18
 1.099999999946824e-01  1.081583994259647e-06 -1.957592325537626e-18
 1.099999700969368e-01 -8.110901900670513e-05 -1.956747314883243e-18
 1.099999426034426e-01 -1.123709895424227e-04 -1.956425620213045e-18
 1.099999972687393e-01 -2.451279925056000e-05 -1.957329304036083e-18
 1.099999502093410e-01  1.046610838525665e-04 -1.958655681281658e-18
 1.099999691395858e-01  8.239714888954450e-05 -1.958427264324052e-18
 1.099999757590033e-01 -7.302751974654362e-05 -1.956830450115591e-18
 1.099999497988497e-01 -1.050916291265826e-04 -1.956500541047786e-18
 1.099999857821229e-01  5.592792454042296e-05 -1.958155598833177e-18
 1.099998697094537e-01  1.693041735565205e-04 -1.959318432953860e-18
 1.099999999584983e-01  3.021648563878559e-06 -1.957612258352368e-18
 1.099998783193596e-01 -1.636145655663667e-04 -1.955897967072787e-18
 1.099999869129932e-01 -5.365763012871629e-05 -1.957029667193443e-18
 1.099999484351785e-01  1.065094270093642e-04 -1.958674640762807e-18
 1.099999704747533e-01  8.059499599846059e-05 -1.958408771618665e-18
 1.099999746050063e-01 -7.474555457323589e-05 -1.956812777395107e-18
 1.099999513519964e-01 -1.034531700565695e-04 -1.956517403259622e-18
 1.099999967241940e-01  2.684543291399452e-05 -1.957856981523763e-18
 1.099999353016407e-01  1.193047979975219e-04 -1.958805874824546e-18
 1.099999661690838e-01  8.627166629095420e-05 -1.958467020719222e-18
 1.099999999922739e-01  1.303730677767967e-06 -1.957594607971237e-18
 1.099999701003025e-01 -8.110445433603672e-05 -1.956747361843473e-18
 1.099999426088261e-01 -1.123657195011105e-04 -1.956425674456612e-18
 1.099999972850541e-01 -2.443947713910684e-05 -1.957330057684486e-18
 1.099999501106661e-01  1.047647409124640e-04 -1.958656744564256e-18
 1.099999690254108e-01  8.254943135948040e-05 -1.958428826939232e-18
 1.099999757536896e-01 -7.303552338605484e-05 -1.956830367786537e-18
 1.099999497646516e-01 -1.051274183141803e-04 -1.956500172718289e-18
 1.099999856930068e-01  5.610292564660860e-05 -1.958157395320044e-18
 1.099998694586776e-01  1.694670288292189e-04 -1.959320101769766e-18
 1.099999999570294e-01  3.074651725418381e-06 -1.957612802914459e-18
 1.099998782969457e-01 -1.636296339066392e-04 -1.955897811852184e-18
 1.099999868763638e-01 -5.373266946853302e-05 -1.957028895539619e-18
 1.099999482982479e-01  1.066507512542910e-04 -1.958676090381241e-18
 1.099999702789217e-01  8.086183460909981e-05 -1.958411509803399e-18
 1.099999745949991e-01 -7.476028030519801e-05 -1.956812625915470e-18
 1.099999512618741e-01 -1.035489511110425e-04 -1.956516417540250e-18
 1.099999967101519e-01  2.690290947492388e-05 -1.957857571824650e-18
 1.099999351873559e-01  1.194101229640224e-04 -1.958806954966481e-18
 1.099999660687075e-01  8.639955541700413e-05 -1.958468332947219e-18
 1.099999999912262e-01  1.389315180732329e-06 -1.957595487302269e-18
 1.099999700761634e-01 -8.113718707983253e-05 -1.956747025096836e-18
 1.099999425916461e-01 -1.123825366237005e-04 -1.956425501361046e-18
 1.099999973070252e-01 -2.434038658945913e-05 -1.957331076194887e-18
 1.099999500561280e-01  1.048219886835462e-04 -1.958657331793737e-18
 1.099999690260516e-01  8.254857754617534e-05 -1.958428818178013e-18
 1.099999758078715e-01 -7.295387342309354e-05 -1.956831207674479e-18
 1.099999498255932e-01 -1.050636328001086e-04 -1.956500829175804e-18
 1.099999856947320e-01  5.609954300495607e-05 -1.958157360595332e-18
 1.099998694562067e-01  1.694686326437263e-04 -1.959320118204405e-18
 1.099999999584402e-01  3.023759761202418e-06 -1.957612280043120e-18
 1.099998783804162e-01 -1.635735113889423e-04 -1.955898389976121e-18
 1.099999869904901e-01 -5.349852309248066e-05 -1.957031303339590e-18
 1.099999483366378e-01  1.066111484864234e-04 -1.958675684160382e-18
 1.099999704746104e-01  8.059519100217555e-05 -1.958408773619714e-18
 1.099999746482676e-01 -7.468186166394928e-05 -1.956813432586496e-18
 1.099999514735832e-01 -1.033238081121830e-04 -1.956518734570389e-18
 1.099999967154574e-01  2.688120762193556e-05 -1.957857348940413e-18
 1.099999352707383e-01  1.193332868351112e-04 -1.958806166987058e-18
 1.099999661198100e-01  8.633446940123442e-05 -1.958467665121482e-18
 1.099999999917011e-01  1.351193211487818e-06 -1.957595095621335e-18
 1.099999701302203e-01 -8.106386752626393e-05 -1.956747779390621e-18
 1.099999425744762e-01 -1.123993412756791e-04 -1.956425328393792e-18
 1.099999972953736e-01 -2.439298605031630e-05 -1.957330535547181e-18
 1.099999500215071e-01  1.048583134192976e-04 -1.958657704401082e-18
 1.099999691018242e-01  8.244754505479713e-05 -1.958427781454330e-18
 1.099999757427470e-01 -7.305200230202294e-05 -1.956830198276926e-18
 1.099999498787303e-01 -1.050079844569970e-04 -1.956501401887951e-18
 1.099999857287934e-01  5.603271559431043e-05 -1.958156674574127e-18
 1.099998696457616e-01  1.693455503303496e-04 -1.959318856951704e-18
 1.099999999590004e-01  3.003310129163803e-06 -1.957612069940550e-18
 1.099998782920820e-01 -1.636329035108068e-04 -1.955897778171634e-18
 1.099999869462277e-01 -5.358945508780278e-05 -1.957030368258668e-18
 1.099999484496370e-01  1.064944935695779e-04 -1.958674487584445e-18
 1.099999705836417e-01  8.044624234746228e-05 -1.958407245166740e-18
 1.099999746349166e-01 -7.470152395112861e-05 -1.956813230326042e-18
 1.099999514324143e-01 -1.033676276618396e-04 -1.956518283607788e-18
 1.099999967868079e-01  2.658763301342258e-05 -1.957854333837724e-18
 1.099999355127858e-01  1.191099615071579e-04 -1.958803876707965e-18
 1.099999661147673e-01  8.634089424589922e-05 -1.958467731044685e-18
 1.099999999938000e-01  1.167887160733094e-06 -1.957593212255606e-18
 1.099999698750598e-01 -8.140937236152605e-05 -1.956744224913066e-18
 1.099999424151681e-01 -1.125551406011955e-04 -1.956423724777242e-18
 1.099999972294426e-01 -2.468851153549539e-05 -1.957327497956855e-18
 1.099999506270010e-01  1.042211941038638e-04 -1.958651169007049e-18
 1.099999694388526e-01  8.199665508550646e-05 -1.958423154721514e-18
 1.099999747120860e-01 -7.458780323238684e-05 -1.956814400138439e-18
 1.099999514913592e-01 -1.033048816711389e-04 -1.956518929349043e-18
 1.099999967558574e-01  2.671537605702935e-05 -1.957855645800292e-18
 1.099999356958084e-01  1.189408171192040e-04 -1.958802142067930e-18
 1.099999663533991e-01  8.603633560921882e-05 -1.958464606062067e-18
 1.099999999921776e-01  1.311828753903070e-06 -1.957594691174313e-18
 1.099999699783752e-01 -8.126965306271346e-05 -1.956745662316727e-18
 1.099999420255331e-01 -1.129352882493813e-04 -1.956419811964235e-18
 1.099999971886776e-01 -2.486947682687282e-05 -1.957325637878765e-18
 1.099999503760394e-01  1.044857349682139e-04 -1.958653882602170e-18
 1.099999694240663e-01  8.201648888928384e-05 -1.958423358243502e-18
 1.099999754730253e-01 -7.345702000688074e-05 -1.956826032067122e-18
 1.099999494949197e-01 -1.054092741004895e-04 -1.956497271952275e-18
 1.099999860427794e-01  5.541288932440464e-05 -1.958150311672124e-18
 1.099998707817112e-01  1.686060698981993e-04 -1.959311279274473e-18
 1.099999999705437e-01  2.545653019785138e-06 -1.957607367885431e-18
 1.099998777289684e-01 -1.640110117542523e-04 -1.955893883225510e-18
 1.099999865639545e-01 -5.436846314773828e-05 -1.957022357430837e-18
 1.099999493410595e-01  1.055697130328282e-04 -1.958665001664302e-18
 1.099999711102824e-01  7.972287624570847e-05 -1.958399822215021e-18
 1.099999740933769e-01 -7.549474406814467e-05 -1.956805070640149e-18
 1.099999504804825e-01 -1.043757221123995e-04 -1.956507908862757e-18
 1.099999970216901e-01  2.559742423928072e-05 -1.957844163982295e-18
 1.099999364232967e-01  1.182661009802447e-04 -1.958795222551230e-18
 1.099999659312475e-01  8.657438620687391e-05 -1.958470126823810e-18
 1.099999922009927e-01 -4.142199306982440e-05 -1.957155478025622e-18
 1.099999694542206e-01 -8.197603609245589e-05 -1.956738395159749e-18
 1.099999996173229e-01  9.175452942768967e-06 -1.957675480385237e-18
 1.099999966678923e-01 -2.707514823515911e-05 -1.957302966138306e-18
 1.099999999835188e-01 -1.904157807418819e-06 -1.957561647926579e-18
 1.099999686545783e-01  8.304210829270663e-05 -1.958433882416339e-18
 1.099999590442673e-01 -9.492238659296772e-05 -1.956605190853858e-18
 1.099999436910860e-01 -1.113012033829096e-04 -1.956436631233123e-18
 1.099998885930159e-01  1.565551789802507e-04 -1.959187777721449e-18
 1.099999252243266e-01  1.282600581379769e-04 -1.958897707531475e-18
 1.099999554731434e-01 -9.897427154481484e-05 -1.956563495655503e-18
 1.099999927481350e-01 -3.994258630844168e-05 -1.957170688129720e-18
 1.099999999412799e-01  3.594214202891790e-06 -1.957618140949892e-18
 1.099999976616484e-01 -2.268121068828141e-05 -1.957348129935483e-18
 1.099999986196026e-01  1.742662870268570e-05 -1.957760240463131e-18
 1.099999740056992e-01 -7.562238732030178e-05 -1.956803757591774e-18
 1.099999978700183e-01  2.164707655023969e-05 -1.957803590691850e-18
 1.099999006940792e-01  1.478082970441507e-04 -1.959098122039905e-18
 1.099999989107251e-01 -1.548032410243914e-05 -1.957422138658088e-18
 1.099999756437169e-01 -7.320096765570896e-05 -1.956828665949672e-18
 1.099999997622534e-01  7.232164619085398e-06 -1.957655516382865e-18
 1.099999999972131e-01 -7.830022339295363e-07 -1.957573167636518e-18
 1.099999998693980e-01  5.360262515370671e-06 -1.957636285175522e-18
 1.099999751790476e-01  7.389593276173830e-05 -1.958340024896015e-18
 1.099999978044988e-01 -2.197749381352779e-05 -1.957355362912924e-18
 1.099998445695898e-01 -1.849179981642701e-04 -1.955678481424363e-18
 1.099999680475800e-01 -8.384230045975049e-05 -1.956719194938487e-18
 1.099997927303729e-01  2.135398673739777e-04 -1.959771568703705e-18
 1.099999165738980e-01  1.354759589562497e-04 -1.958971694346354e-18
 1.099997574447315e-01 -2.310023813836556e-04 -1.955203430637143e-18
 1.099999909573242e-01 -4.460256223713472e-05 -1.957122776700274e-18
 1.099997678269189e-01  2.260044776192096e-04 -1.959899194859266e-18
 1.099999982937452e-01 -1.937462310211400e-05 -1.957382115170659e-18
 1.099997703886779e-01 -2.247541726284964e-04 -1.955267859065273e-18
 1.099999897209082e-01 -4.755418008016356e-05 -1.957092427895678e-18
 1.099998535621031e-01  1.794890409793857e-04 -1.959422791405394e-18
 1.099999877890887e-01  5.183049589267554e-05 -1.958113534958652e-18
 1.099999649033635e-01 -8.787069343091661e-05 -1.956677748709025e-18
 1.099999982605136e-01 -1.956238681323372e-05 -1.957380185375340e-18
 1.099999999262617e-01 -4.027701916504604e-06 -1.957539828263323e-18
 1.099999995390834e-01 -1.006983657403400e-05 -1.957477740634352e-18
 1.099999984900479e-01 -1.822606431876076e-05 -1.957393919688360e-18
 1.099999938157337e-01 -3.688547826380865e-05 -1.957202117803511e-18
 1.099999954688502e-01  3.157297737692438e-05 -1.957905532985397e-18
 1.099999875613525e-01  5.231158814656138e-05 -1.958118473953956e-18
 1.099999779915459e-01 -6.958347067281915e-05 -1.956865876199457e-18
 1.099999594745613e-01 -9.442242753504622e-05 -1.956610335409154e-18
 1.099999950420567e-01  3.302646626923656e-05 -1.957920459460456e-18
 1.099999951484477e-01  3.267019170408258e-05 -1.957916800762079e-18
 1.099999334535974e-01 -1.209967110746108e-04 -1.956336831225371e-18
 1.099999984978746e-01 -1.817876623272091e-05 -1.957394405798298e-18
 1.099998716771372e-01  1.680208716424186e-04 -1.959305282510155e-18
 1.099999758556584e-01 -7.288178468257888e-05 -1.956831949210524e-18
 1.099998146130410e-01 -2.019532039160894e-04 -1.955502917761147e-18
 1.099999883254514e-01  5.067938942624890e-05 -1.958101717303088e-18
 1.099999799699879e-01  6.638224324831142e-05 -1.958262909726272e-18
 1.099999539505769e-01 -1.006522276061315e-04 -1.956546228170639e-18
 1.099999765554897e-01 -7.181776712593035e-05 -1.956842894058725e-18
 1.099999999950182e-01 -1.046872382358742e-06 -1.957570456427540e-18
 1.099999922199915e-01 -4.137150903535228e-05 -1.957155997068845e-18
 1.099999899565213e-01 -4.700601218026477e-05 -1.957098064314731e-18
 1.099999990184673e-01 -1.469480095805522e-05 -1.957430211540437e-18
 1.099999705599712e-01 -8.047860230374626e-05 -1.956753800426104e-18
 1.099999323616556e-01 -1.219853726504806e-04 -1.956326653654425e-18
 1.099999999999717e-01 -7.874767000736853e-08 -1.957580403645419e-18
 1.099999991985568e-01  1.327845881105745e-05 -1.957717629827587e-18
 1.099998941892619e-01 -1.525724455664539e-04 -1.956011703268344e-18
 1.099998989981238e-01 -1.490650949119108e-04 -1.956047825601631e-18
 1.099999966585869e-01 -2.711292754855142e-05 -1.957302577803985e-18
 1.099999853254692e-01 -5.681898041249069e-05 -1.956997157215820e-18
 1.099998963654477e-01 -1.509953334688052e-04 -1.956027946250049e-18
 1.099998748347670e-01 -1.659407591402939e-04 -1.955874004266376e-18
 1.099999638395796e-01 -8.919243885502365e-05 -1.956664149323640e-18
 1.099999670166735e-01 -8.518409882325933e-05 -1.956705390101529e-18
 1.099996677410767e-01 -2.703642962883198e-04 -1.954797404877017e-18
 1.099996608823705e-01 -2.731405562025066e-04 -1.954768757756078e-18
 1.099999929729275e-01 -3.931864518965281e-05 -1.957177102898506e-18
 1.099998576576453e-01 -1.769612888066459e-04 -1.955760466640126e-18
 1.099987839728105e-01 -5.172277089817817e-04 -1.952245245279525e-18
 1.099994131507321e-01 -3.593139219604124e-04 -1.953878949047227e-18
 1.099999615571114e-01 -9.196430819621725e-05 -1.956635628753858e-18
 1.099993442174022e-01 -3.798312012365874e-04 -1.953666914705174e-18
 1.099973431147133e-01 -7.645310353412371e-04 -1.949678651650861e-18
 1.099981356478130e-01 -6.404326703750476e-04 -1.950967821341375e-18
 1.099991250137803e-01 -4.387438919129454e-04 -1.953057707219845e-18
 1.099975017314976e-01 -7.413587722249000e-04 -1.949919561011440e-18
 1.099937223350335e-01 -1.175179511184103e-03 -1.945394951645015e-18
 1.099925340968405e-01 -1.281578306365629e-03 -1.944280596560141e-18
 1.099908143718490e-01 -1.421532207663098e-03 -1.942812016507980e-18
 1.099832556673040e-01 -1.919237562265603e-03 -1.937563758627852e-18
 1.099696431385094e-01 -2.584102936967198e-03 -1.930490257241884e-18
 1.099462909125383e-01 -3.437021177629011e-03 -1.921311251443222e-18
 1.099425909602437e-01 -3.553405823783329e-03 -1.920049596418659e-18
 1.099803322122320e-01 -2.080030405316420e-03 -1.935859644206724e-18
 1.097775677276654e-01 -6.991825498236719e-03 -1.881784298072751e-18
 1.089687539714625e-01 -1.502699763448530e-02 -1.784832017741752e-18
 1.093690837487915e-01 -1.176450253728497e-02 -1.825477315612405e-18
 1.098628181706245e-01 -5.491919847217527e-03 -1.898712417086952e-18
 1.057404843985704e-01  3.031418742364140e-02 -2.193245315187441e-18
 9.359867948494689e-02  5.778656590137670e-02 -2.259436122408574e-18
 9.638474647895227e-02 -5.300925057183950e-02 -1.170630742601457e-18
 7.626716775531885e-02 -7.926739003261063e-02 -5.428215879705767e-19
 7.393865900149613e-02 -8.144369039440956e-02 -4.790223015208019e-19
 1.072021458455544e-01  2.465157045927174e-02 -2.161075991927532e-18
 1.097403848378467e-01  7.553008383503370e-03 -2.030565468607194e-18
 1.036192992854653e-01  3.691938265449635e-02 -2.223362277376793e-18
 3.780886586141628e-02  1.032980622387148e-01 -1.734203932318558e-18
 8.112496505829420e-02 -7.428822278322796e-02 -6.804310202655459e-19
 9.546287707253615e-02 -5.465198167526788e-02 -1.137346511538218e-18
 5.586730258155220e-02  9.475676494193572e-02 -1.967816627721398e-18
 9.068902790998197e-02 -6.225351569785018e-02 -9.742871705753391e-19
 3.301794435434507e-02 -1.049276672313520e-01  4.904999585620645e-19
 9.068902790993962e-02 -6.225351569791183e-02 -9.742871705739521e-19
 8.023063315482651e-02  7.525320925764969e-02 -2.200999207334222e-18
 1.096948748499341e-01  8.187455749941718e-03 -2.036274280299557e-18
 9.347200844247716e-02  5.799123759439385e-02 -2.259284787403508e-18
 5.896495189450737e-02  9.286083376794763e-02 -2.003462988180209e-18
 1.097284543639105e-01  7.724396604729559e-03 -2.032114103304970e-18
 9.416775650415066e-02 -5.685449529258842e-02 -1.091668268840388e-18
 8.651674308447679e-02 -6.793271057491075e-02 -8.416847209514890e-19
 9.211935381417882e-02 -6.011675850258478e-02 -1.021695930153508e-18
 9.123282279229483e-02  6.145382042924340e-02 -2.255012588531810e-18
 1.067674713659653e-01  2.647087188057353e-02 -2.172033102268384e-18
 1.086624159338660e-01  1.710202804978031e-02 -2.109494434297870e-18
 1.079798823076926e-01  2.098439936754958e-02 -2.137237889199994e-18
 1.099992118901007e-01  4.163935118187765e-04 -1.961845479463944e-18
 1.097458441424439e-01 -7.473265247693131e-03 -1.876273120500118e-18
 1.099883275581563e-01  1.602435945579822e-03 -1.973837934945243e-18
 1.099282439709218e-01  3.972553016568727e-03 -1.997120767748678e-18
 1.099682202161860e-01  2.643963404508072e-03 -1.984181417093283e-18
 1.099891036360723e-01  1.548251056291857e-03 -1.973295016123887e-18
 1.099961475571789e-01  9.206098952779837e-04 -1.966971586176963e-18
 1.099877742866677e-01  1.639971787868544e-03 -1.974213755962955e-18
 1.099890205405835e-01  1.554143018859355e-03 -1.973354075115543e-18
 1.099947821308265e-01 -1.071402814992906e-03 -1.946480079829576e-18
 1.099991782228608e-01 -4.251944205341433e-04 -1.953197870035185e-18
 1.099611104520726e-01  2.924754373798947e-03 -1.986939915566176e-18
 1.099942760193832e-01  1.122159958163482e-03 -1.969009133608204e-18
 1.099895853200540e-01 -1.513644979020382e-03 -1.941843718801465e-18
 1.099999918013065e-01  4.247013611731246e-05 -1.958017432064514e-18
 1.099956318746307e-01  9.802900084640248e-04 -1.967575600473795e-18
 1.099938732200797e-01  1.160971164582601e-03 -1.969400736361076e-18
 1.099966785598566e-01  8.548133126838407e-04 -1.966305000018881e-18
 1.099849660538016e-01 -1.818582454568628e-03 -1.938628391662261e-18
 1.099955860033052e-01 -9.854236598873564e-04 -1.947377790284165e-18
 1.099647297072090e-01  2.785358221205487e-03 -1.985572079699275e-18
 1.099958254749200e-01  9.583204531436282e-04 -1.967353316621872e-18
 1.099827520890515e-01 -1.947881648919207e-03 -1.937260489267373e-18
 1.099999518253441e-01 -1.029486374285914e-04 -1.956522595572880e-18
 1.099946250505703e-01  1.087409759209211e-03 -1.968658299364017e-18
 1.099999294455614e-01  1.245872042874825e-04 -1.958860045414312e-18
 1.099999723838720e-01 -7.794579753061396e-05 -1.956779856533542e-18
 1.099999830602837e-01  6.104700856706547e-05 -1.958208147123561e-18
 1.099999987287041e-01 -1.672378745899252e-05 -1.957409359284532e-18
 1.099999194164834e-01  1.331479144670580e-04 -1.958947825122138e-18
 1.099996990142464e-01  2.573262037951265e-04 -1.960219789613846e-18
 1.099999991379493e-01 -1.377138789812320e-05 -1.957439701400503e-18
 1.099998235084007e-01 -1.970485236139563e-04 -1.955553469873057e-18
 1.099999402674527e-01  1.146348847429944e-04 -1.958757981534850e-18
 1.099995008535074e-01  3.313789057724052e-04 -1.960977127718705e-18
 1.099999998959172e-01  4.785204028887131e-06 -1.957630377130417e-18
 1.099997541192630e-01 -2.325805272282125e-04 -1.955187156581208e-18
 1.099999687701218e-01  8.288891471735031e-05 -1.958432310464237e-18
 1.099996422539914e-01  2.805423209833306e-04 -1.960457316667760e-18
 1.099999961243019e-01 -2.920023183055018e-05 -1.957281122002506e-18
 1.099998996920945e-01 -1.485521090941257e-04 -1.956053108694592e-18
 1.099999390240302e-01  1.158218873853399e-04 -1.958770155427610e-18
 1.099999204863947e-01  1.322610555425873e-04 -1.958938732009208e-18
 1.099999886253857e-01 -5.002414395349341e-05 -1.957067030418017e-18
 1.099999956620446e-01 -3.089255775168506e-05 -1.957263725742021e-18
 1.099999786949979e-01  6.846239818826990e-05 -1.958284259872651e-18
 1.099999773873285e-01  7.053217133980207e-05 -1.958305502768355e-18
 1.099999989056095e-01 -1.551663185567558e-05 -1.957421765518074e-18
 1.099999902715243e-01 -4.626299302034496e-05 -1.957105704172536e-18
 1.099999681497602e-01  8.370813402781901e-05 -1.958440716604978e-18
 1.099999548122154e-01  9.970612090703949e-05 -1.958604852751029e-18
 1.099999824400742e-01 -6.215451167477064e-05 -1.956942285221302e-18
 1.099999888073467e-01 -4.962240990343795e-05 -1.957071161327656e-18
 1.099999711674208e-01  7.964399877136769e-05 -1.958399012794473e-18
 1.099999901642293e-01  4.651740981671076e-05 -1.958058987197774e-18
 1.099999974109531e-01 -2.386609036290647e-05 -1.957335951265839e-18
 1.099999995872681e-01  9.528954492526232e-06 -1.957679111950383e-18
 1.099999989265947e-01  1.536714466575399e-05 -1.957739085476094e-18
 1.099999987835245e-01 -1.635923480408046e-05 -1.957413105906225e-18
 1.099999610130334e-01  9.261280196725477e-05 -1.958532081826679e-18
 1.099999492007161e-01  1.057158447598136e-04 -1.958666500617133e-18
 1.099999996031496e-01  9.343824989979335e-06 -1.957677210094626e-18
 1.099998579874620e-01 -1.767561544910474e-04 -1.955762580190182e-18
 1.099979175966639e-01 -6.768488734713384e-04 -1.950589777603226e-18
 1.099998559315324e-01  1.780310143918499e-04 -1.959407852878687e-18
 1.099885914959245e-01  1.584216128752067e-03 -1.973655430033500e-18
 1.099999979080253e-01  2.145307409400694e-05 -1.957801598063468e-18
 1.099888482289729e-01 -1.566290287248625e-03 -1.941289689968934e-18
 1.099999202952856e-01 -1.324199032653380e-04 -1.956219227907476e-18
 1.099978265529906e-01  6.914865278235445e-04 -1.964647306543592e-18
 1.099999767062082e-01  7.158654632798711e-05 -1.958316323966987e-18
 1.099999993108658e-01  1.231298050690823e-05 -1.957707711887415e-18
 1.099999940069841e-01  3.631065176290073e-05 -1.957954184853000e-18
 1.099999770074089e-01 -7.112221516134622e-05 -1.956850048644927e-18
 1.099999999933404e-01  1.210404297954347e-06 -1.957593649095567e-18
 1.099999987035578e-01  1.688837570008135e-05 -1.957754711603145e-18
 1.099999998750489e-01  5.243015128951757e-06 -1.957635080601784e-18
 1.099999996879360e-01 -8.285772629744244e-06 -1.957496073892290e-18
 1.099999990546408e-01  1.442147666417522e-05 -1.957729371359644e-18
 1.099999720364785e-01  7.843451990406098e-05 -1.958386601304398e-18
 1.099999993077478e-01 -1.234080457267303e-05 -1.957454403146249e-18
 1.099999172916388e-01 -1.348919292516958e-04 -1.956193775285006e-18
 1.099999881295171e-01 -5.110289670103011e-05 -1.957055937800843e-18
 1.099999753698537e-01  7.361135469081364e-05 -1.958337104355338e-18
 1.099999367495237e-01  1.179622852615252e-04 -1.958792106760686e-18
 1.099999694228409e-01  8.201813229572208e-05 -1.958423375107100e-18
 1.099999609048851e-01 -9.274116507539844e-05 -1.956627635224490e-18
 1.099999349164886e-01 -1.196593842235985e-04 -1.956350597806846e-18
 1.099999915163040e-01  4.320200248290795e-05 -1.958024946653593e-18
 1.099999579432171e-01  9.618986665839550e-05 -1.958568780235889e-18
 1.099999965256639e-01  2.764695067091883e-05 -1.957865213294468e-18
 1.099999785174082e-01 -6.874714322708324e-05 -1.956874478518496e-18
 1.099999708386676e-01 -8.009676794215460e-05 -1.956757728595195e-18
 1.099999965435283e-01  2.757578119707857e-05 -1.957864482371897e-18
 1.099999365195504e-01  1.181765410754816e-04 -1.958794304068691e-18
 1.099999643030945e-01  8.861894769845110e-05 -1.958491104975481e-18
 1.099999999578391e-01  3.045547915887866e-06 -1.957612503897798e-18
 1.099999713421137e-01 -7.940235593560400e-05 -1.956764872385726e-18
 1.099999440749386e-01 -1.109211898285441e-04 -1.956440542565460e-18
 1.099999975586753e-01 -2.317523224501864e-05 -1.957343052210923e-18
 1.099999483009278e-01  1.066479872149125e-04 -1.958676062029433e-18
 1.099999675770964e-01  8.445731290132807e-05 -1.958448403954513e-18
 1.099999763976539e-01 -7.205911146536758e-05 -1.956840411524434e-18
 1.099999505802409e-01 -1.042705352915098e-04 -1.956508991394450e-18
 1.099999848994758e-01  5.763779188460532e-05 -1.958173151391236e-18
 1.099998667958120e-01  1.711867506029602e-04 -1.959337723897397e-18
 1.099999999157672e-01  4.304787242089486e-06 -1.957625441375709e-18
 1.099998791745135e-01 -1.630386223973100e-04 -1.955903899898111e-18
 1.099999872078742e-01 -5.304966984078771e-05 -1.957035919012305e-18
 1.099999468382748e-01  1.081460895498750e-04 -1.958691428457052e-18
 1.099999692075489e-01  8.230636828017172e-05 -1.958426332795754e-18
 1.099999749322741e-01 -7.426236614455943e-05 -1.956817747804804e-18
 1.099999516829830e-01 -1.031006371369678e-04 -1.956521031297607e-18
 1.099999964280658e-01  2.803257910925839e-05 -1.957869173749707e-18
 1.099999339829368e-01  1.205145198526520e-04 -1.958818280809242e-18
 1.099999655907618e-01  8.700592622471403e-05 -1.958474554681377e-18
 1.099999999798172e-01  2.107175828935925e-06 -1.957602862856614e-18
 1.099999707326329e-01 -8.024225733534418e-05 -1.956756231857517e-18
 1.099999427822562e-01 -1.121958124082114e-04 -1.956427423276664e-18
 1.099999972953514e-01 -2.439308583688769e-05 -1.957330534521517e-18
 1.099999491845397e-01  1.057326754063281e-04 -1.958666673258033e-18
 1.099999683122734e-01  8.349430408001649e-05 -1.958438522472059e-18
 1.099999747929741e-01 -7.446841633939249e-05 -1.956815628234893e-18
 1.099999516064283e-01 -1.031822823941421e-04 -1.956520191059867e-18
 1.099999964455161e-01  2.796401997032709e-05 -1.957868469640010e-18
 1.099999342124484e-01  1.203048502252358e-04 -1.958816130614419e-18
 1.099999657672496e-01  8.678250914647082e-05 -1.958472262292870e-18
 1.099999999841580e-01  1.866873858930023e-06 -1.957600393918416e-18
 1.099999705213698e-01 -8.053134630053785e-05 -1.956753257813738e-18
 1.099999426568523e-01 -1.123186946513479e-04 -1.956426158474542e-18
 1.099999973057533e-01 -2.434613372295654e-05 -1.957331017122544e-18
 1.099999491954303e-01  1.057213446074446e-04 -1.958666557032004e-18
 1.099999684090057e-01  8.336676614238627e-05 -1.958437213787548e-18
 1.099999756120194e-01 -7.324858427362926e-05 -1.956828176142127e-18
 1.099999496390038e-01 -1.052588076997179e-04 -1.956498820504029e-18
 1.099999853480925e-01  5.677516542482869e-05 -1.958164296201398e-18
 1.099998682935796e-01  1.702216058687767e-04 -1.959327834040424e-18
 1.099999999498831e-01  3.320495045748854e-06 -1.957615328738090e-18
 1.099998779432345e-01 -1.638672434539313e-04 -1.955895364205689e-18
 1.099999868252479e-01 -5.383721070328420e-05 -1.957027820506741e-18
 1.099999476769690e-01  1.072896269454909e-04 -1.958682643540483e-18
 1.099999698368414e-01  8.146099645920594e-05 -1.958417658106404e-18
 1.099999743913688e-01 -7.505929765639405e-05 -1.956809549996966e-18
 1.099999510030884e-01 -1.038234950776790e-04 -1.956513592095325e-18
 1.099999965923190e-01  2.738046336301411e-05 -1.957862476420392e-18
 1.099999346873500e-01  1.198698406642066e-04 -1.958811669500646e-18
 1.099999661109436e-01  8.634576547195085e-05 -1.958467781026717e-18
 1.099999999917040e-01  1.350954278152121e-06 -1.957595093166434e-18
 1.099999702435255e-01 -8.090997146116044e-05 -1.956749362633185e-18
 1.099999424602611e-01 -1.125110626561682e-04 -1.956424178464599e-18
 1.099999972234093e-01 -2.471537831293135e-05 -1.957327221803107e-18
 1.099999497347881e-01  1.051586613417636e-04 -1.958660785264369e-18
 1.099999686426400e-01  8.305792067995528e-05 -1.958434044670416e-18
 1.099999755565552e-01 -7.333182950203814e-05 -1.956827319840595e-18
 1.099999493285799e-01 -1.055827156025060e-04 -1.956495486943631e-18
 1.099999855905945e-01  5.630336541394057e-05 -1.958159452943291e-18
 1.099998686918572e-01  1.699640377756543e-04 -1.959325194709659e-18
 1.099999999565400e-01  3.092111138703788e-06 -1.957612982294879e-18
 1.099998774209331e-01 -1.642174767116817e-04 -1.955891756391220e-18
 1.099999867152336e-01 -5.406152410339225e-05 -1.957025513810207e-18
 1.099999478362264e-01  1.071262219829778e-04 -1.958680967448029e-18
 1.099999700824010e-01  8.112873011788134e-05 -1.958414248560475e-18
 1.099999741594107e-01 -7.539846779952736e-05 -1.956806061018986e-18
 1.099999508401276e-01 -1.039960069717223e-04 -1.956511816698201e-18
 1.099999966323533e-01  2.721915201335769e-05 -1.957860819717331e-18
 1.099999350379704e-01  1.195476568206465e-04 -1.958808365418403e-18
 1.099999663711774e-01  8.601360253126141e-05 -1.958464372804337e-18
 1.099999999931156e-01  1.230666772239753e-06 -1.957593857281128e-18
 1.099999701773761e-01 -8.099985395529324e-05 -1.956748437946003e-18
 1.099999421224494e-01 -1.128408514049604e-04 -1.956420783993246e-18
 1.099999971430335e-01 -2.507055204279746e-05 -1.957323571091675e-18
 1.099999498181146e-01  1.050714625002169e-04 -1.958659890810845e-18
 1.099999686800798e-01  8.300832141802084e-05 -1.958433535722304e-18
 1.099999753974963e-01 -7.357003585361644e-05 -1.956824869526222e-18
 1.099999490719736e-01 -1.058497198129777e-04 -1.956492739005749e-18
 1.099999857347410e-01  5.602103839162800e-05 -1.958156554700956e-18
 1.099998690907565e-01  1.697056757672817e-04 -1.959322547232768e-18
 1.099999999571657e-01  3.069773349066473e-06 -1.957612752793339e-18
 1.099998773652090e-01 -1.642547988853942e-04 -1.955891371927766e-18
 1.099999865487113e-01 -5.439929509666066e-05 -1.957022040372490e-18
 1.099999481236501e-01  1.068306802491163e-04 -1.958677935979124e-18
 1.099999700799241e-01  8.113208836386093e-05 -1.958414283021154e-18
 1.099999741376183e-01 -7.543025448535311e-05 -1.956805734034512e-18
 1.099999505158897e-01 -1.043384003351295e-04 -1.956508292960574e-18
 1.099999967204981e-01  2.686057273832707e-05 -1.957857137014186e-18
 1.099999350496405e-01  1.195369182862472e-04 -1.958808255291545e-18
 1.099999662807709e-01  8.612914269109691e-05 -1.958465558328616e-18
 1.099999999953883e-01  1.007243503485040e-06 -1.957591561728651e-18
 1.099999698180837e-01 -8.148632170869562e-05 -1.956743433272521e-18
 1.099999419436072e-01 -1.130150565722009e-04 -1.956418990915727e-18
 1.099999971877994e-01 -2.487336101486579e-05 -1.957325597954515e-18
 1.099999498729989e-01  1.050139880391398e-04 -1.958659301258368e-18
 1.099999689778241e-01  8.261281793261801e-05 -1.958429477366383e-18
 1.099999752362800e-01 -7.381068867089891e-05 -1.956822394036910e-18
 1.099999490829510e-01 -1.058383113657290e-04 -1.956492856418756e-18
 1.099999857174577e-01  5.605496479303655e-05 -1.958156902974828e-18
 1.099998693643943e-01  1.695282163763778e-04 -1.959320728771704e-18
 1.099999999673645e-01  2.679508531792550e-06 -1.957608743145614e-18
 1.099998770999875e-01 -1.644323192246747e-04 -1.955889543250835e-18
 1.099999866403647e-01 -5.421364722817302e-05 -1.957023949467981e-18
 1.099999481102829e-01  1.068444431643270e-04 -1.958678077150193e-18
 1.099999703927143e-01  8.070688895808688e-05 -1.958409919818198e-18
 1.099999739182732e-01 -7.574944992149657e-05 -1.956802450513856e-18
 1.099999506734494e-01 -1.041721587374390e-04 -1.956510003836563e-18
 1.099999966811917e-01  2.702106159543271e-05 -1.957858785279387e-18
 1.099999354172272e-01  1.191981787506662e-04 -1.958804781407515e-18
 1.099999666518556e-01  8.565390016376104e-05 -1.958460681988185e-18
 1.099999999954444e-01  1.001095088464848e-06 -1.957591498556919e-18
 1.099999700224909e-01 -8.120991976390614e-05 -1.956746276839764e-18
 1.099999418387907e-01 -1.131170305891605e-04 -1.956417941304414e-18
 1.099999970999243e-01 -2.525899070433393e-05 -1.957321634185703e-18
 1.099999499988240e-01  1.048821060916975e-04 -1.958657948458475e-18
 1.099999689852284e-01  8.260295849170889e-05 -1.958429376195977e-18
 1.099999751735807e-01 -7.390407024839075e-05 -1.956821433459315e-18
 1.099999490105695e-01 -1.059135122540919e-04 -1.956492082468831e-18
 1.099999857866323e-01  5.591905451401860e-05 -1.958155507777130e-18
 1.099998695117790e-01  1.694325575430294e-04 -1.959319748534826e-18
 1.099999999664520e-01  2.716709352957154e-06 -1.957609125354299e-18
 1.099998768532169e-01 -1.645973179899874e-04 -1.955887843556883e-18
 1.099999864733802e-01 -5.455140825251083e-05 -1.957020476124466e-18
 1.099999481128340e-01  1.068418166917846e-04 -1.958678050209541e-18
 1.099999702522293e-01  8.089813739085904e-05 -1.958411882326270e-18
 1.099999738123662e-01 -7.590308757824855e-05 -1.956800870058002e-18
 1.099999503735243e-01 -1.044883828456511e-04 -1.956506749411201e-18
 1.099999967007133e-01  2.694147420649860e-05 -1.957857967895287e-18
 1.099999353361501e-01  1.192729758067115e-04 -1.958805548477232e-18
 1.099999666644206e-01  8.563776223830300e-05 -1.958460516400472e-18
 1.099999999971261e-01  7.951263197820929e-07 -1.957589382332570e-18
 1.099999698580570e-01 -8.143234312159154e-05 -1.956743988594267e-18
 1.099999418277011e-01 -1.131278142208838e-04 -1.956417830309160e-18
 1.099999971136671e-01 -2.519907159373394e-05 -1.957322250077365e-18
 1.099999500913474e-01  1.047850230029186e-04 -1.958656952611569e-18
 1.099999690797648e-01  8.247697093683110e-05 -1.958428083402007e-18
 1.099999751187747e-01 -7.398559943959233e-05 -1.956820594801155e-18
 1.099999489027458e-01 -1.060254368576442e-04 -1.956490930565339e-18
 1.099999858252486e-01  5.584303960726961e-05 -1.958154727438801e-18
 1.099998696462983e-01  1.693452017244050e-04 -1.959318853379456e-18
 1.099999999691229e-01  2.606325757766846e-06 -1.957607991250489e-18
 1.099998769196226e-01 -1.645529332850588e-04 -1.955888300775370e-18
 1.099999865086943e-01 -5.448015261048709e-05 -1.957021208878760e-18
 1.099999483772896e-01  1.065691961512362e-04 -1.958675253838826e-18
 1.099999704861094e-01  8.057949511915455e-05 -1.958408612554856e-18
 1.099999739430261e-01 -7.571349642170261e-05 -1.956802820363512e-18
 1.099999505428231e-01 -1.043100015624286e-04 -1.956508585226959e-18
 1.099999967859601e-01  2.659114028184652e-05 -1.957854369858545e-18
 1.099999355920441e-01  1.190367427199156e-04 -1.958803125822021e-18
 1.099999665587394e-01  8.577340024143808e-05 -1.958461908150957e-18
 1.099999999972637e-01  7.758549290329310e-07 -1.957589184328481e-18
 1.099999697620465e-01 -8.156193247586872e-05 -1.956742655402104e-18
 1.099999418180789e-01 -1.131371699236949e-04 -1.956417734011475e-18
 1.099999970907238e-01 -2.529902611690432e-05 -1.957321222672648e-18
 1.099999502660032e-01  1.046015142163881e-04 -1.958655070233661e-18
 1.099999691114867e-01  8.243465248743293e-05 -1.958427649159841e-18
 1.099999751687539e-01 -7.391125416814461e-05 -1.956821359561252e-18
 1.099999488497984e-01 -1.060803548804978e-04 -1.956490365360341e-18
 1.099999859265271e-01  5.564318278247977e-05 -1.958152675784900e-18
 1.099998697602397e-01  1.692711737471104e-04 -1.959318094796605e-18
 1.099999999686889e-01  2.624577839747465e-06 -1.957608178776276e-18
 1.099998768731749e-01 -1.645839795398598e-04 -1.955887980959790e-18
 1.099999864890985e-01 -5.451970397730557e-05 -1.957020802154102e-18
 1.099999484621936e-01  1.064815229436758e-04 -1.958674354539434e-18
 1.099999706195567e-01  8.039711829329662e-05 -1.958406741074077e-18
 1.099999738181481e-01 -7.589470796372180e-05 -1.956800956258394e-18
 1.099999504711487e-01 -1.043855584363014e-04 -1.956507807631995e-18
 1.099999967748563e-01  2.663703397403357e-05 -1.957854841201955e-18
 1.099999352861640e-01  1.193190667538283e-04 -1.958806021155408e-18
 1.099999664770948e-01  8.587804143664210e-05 -1.958462981848261e-18
 1.099999999998244e-01  1.964433114606481e-07 -1.957583231130164e-18
 1.099999694330418e-01 -8.200445012145550e-05 -1.956738102839019e-18
 1.099999417724946e-01 -1.131814815382998e-04 -1.956417277914504e-18
 1.099999970649898e-01 -2.541067067642060e-05 -1.957320075107390e-18
 1.099999499338020e-01  1.049502788009194e-04 -1.958658647751152e-18
 1.099999689485228e-01  8.265182390580716e-05 -1.958429877617133e-18
 1.099999746861181e-01 -7.462609030295645e-05 -1.956814006290566e-18
 1.099999481560280e-01 -1.067973366448552e-04 -1.956482986286700e-18
 1.099999844992151e-01  5.839668141526092e-05 -1.958180941582364e-18
 1.099998645452732e-01  1.726268273157572e-04 -1.959352480111460e-18
 1.099999990596696e-01 -1.438306802675555e-05 -1.957433415216308e-18
 1.099998502251735e-01 -1.815225588105170e-04 -1.955713468978114e-18
 1.099999868954166e-01 -5.369365079678010e-05 -1.957029296781366e-18
 1.099998980137104e-01  1.497897635662950e-04 -1.959118433188250e-18
 1.099998991822165e-01  1.489291850881333e-04 -1.959109611851970e-18
 1.099999190421447e-01 -1.334568153769339e-04 -1.956208551711073e-18
 1.099998400603581e-01 -1.875811707043844e-04 -1.955651038046810e-18
 1.099999788365243e-01  6.823462599888906e-05 -1.958281922114778e-18
 1.099999164827518e-01  1.355499450331976e-04 -1.958972452904363e-18
 1.099999799204189e-01  6.646433186489615e-05 -1.958263752274846e-18
 1.099999993815042e-01  1.166486360826779e-05 -1.957701053978819e-18
 1.099999276121864e-01 -1.261955376056564e-04 -1.956283311216474e-18
 1.099999328662699e-01 -1.215294865104277e-04 -1.956331346699115e-18
 1.099999502658188e-01  1.046017081508615e-04 -1.958655072222984e-18
 1.099999478606254e-01  1.071011655387404e-04 -1.958680710436376e-18
 1.099999865207019e-01 -5.445590290326398e-05 -1.957021458249381e-18
 1.099999716698356e-01 -7.894704135036249e-05 -1.956769556409887e-18
 1.099999956838591e-01  3.081478471670237e-05 -1.957897746657581e-18
 1.099981946095603e-01  6.302242753632727e-04 -1.964024409160082e-18
 1.098674332507134e-01 -5.398806432907927e-03 -1.899751254448788e-18
 1.099918748682076e-01 -1.336960349644070e-03 -1.943699834424292e-18
 1.063943687347098e-01  2.793274604371310e-02 -2.180413521861390e-18
 1.099990242037928e-01  4.633294868364142e-04 -1.962324389455021e-18
 9.638170311300749e-02 -5.301478383466293e-02 -1.170519730008779e-18
 1.099976413048492e-01  7.203522539028125e-04 -1.964940594681314e-18
 8.882779108057194e-02  6.488161166113421e-02 -2.247431490085050e-18
 1.099818657866094e-01 -1.997297698439740e-03 -1.936736984500812e-18
 9.395434829948170e-02 -5.720647197319233e-02 -1.084253982745654e-18
 1.099836729063779e-01 -1.895176514955066e-03 -1.937818402415298e-18
 1.067386628018059e-01  2.658679866554705e-02 -2.172711525107781e-18
 1.067304178528079e-01  2.661987800432220e-02 -2.172904674594565e-18
 1.098891220309903e-01 -4.937697769009457e-03 -1.904874956179078e-18
 9.652110623464039e-02 -5.276055393228189e-02 -1.175612694736801e-18
 1.099976669750018e-01  7.164217030239174e-04 -1.964900666529877e-18
 8.880683742376830e-02  6.491028906720681e-02 -2.247353244697516e-18
 1.099851350229512e-01 -1.808334588276323e-03 -1.938736691773227e-18
 9.393197727790861e-02 -5.724319736582169e-02 -1.083478523663661e-18
 1.099860934394973e-01 -1.749071158681815e-03 -1.939362658149279e-18
 1.079480353070897e-01  2.114761625666803e-02 -2.138348128079445e-18
 1.059203947834427e-01  2.967945364927729e-02 -2.189925376140181e-18
 1.071517364273483e-01  2.486976840672341e-02 -2.162420800845005e-18
 8.719589477317820e-02 -6.705874987430650e-02 -8.627506640871339e-19
 1.031061793284691e-01 -3.832904622196510e-02 -1.441080424569913e-18
 8.211623427321509e-02  7.319101084686845e-02 -2.213367388929389e-18
 8.422093156656603e-02  7.075899014301837e-02 -2.225834858589981e-18
 6.699517598123428e-02 -8.724474995805429e-02 -2.958509590317014e-19
 1.040093014395383e-01 -3.580593825134627e-02 -1.483076577644480e-18
 8.662428962289315e-02  6.779551937502280e-02 -2.238156896434725e-18
 1.059916437745676e-01  2.942399445971147e-02 -2.188568586554360e-18
 8.546385057861612e-02 -6.925265514242714e-02 -8.093852919409876e-19
 1.099933258474618e-01 -1.211721508456123e-03 -1.945012439928422e-18
 8.766190928589143e-02  6.644839847845932e-02 -2.242781398213676e-18
 1.099709439409551e-01 -2.528139382089295e-03 -1.931088411769468e-18
 9.380303985004169e-02 -5.745424018200451e-02 -1.079015540062186e-18
 1.099935700443154e-01  1.189348101370353e-03 -1.969686903703674e-18
 1.059176772682599e-01  2.968915024207836e-02 -2.189976643684469e-18
 1.099861497107744e-01 -1.745529088582100e-03 -1.939400053047319e-18
 1.098679150362671e-01 -5.388993002738643e-03 -1.899860657827461e-18
 1.099984219417479e-01  5.892116132126608e-04 -1.963607064602663e-18
 1.099999132864870e-01  1.381193878676487e-04 -1.958998796114738e-18
 1.099999068080649e-01  1.431859525069535e-04 -1.959050737934620e-18
 1.099999931253332e-01 -3.888992951559627e-05 -1.957181510508558e-18
 1.099998372414756e-01 -1.892269770218668e-04 -1.955634077819396e-18
 1.099999815524451e-01  6.370605694828738e-05 -1.958235441045935e-18
 1.099999211276495e-01  1.317266520316082e-04 -1.958933252619161e-18
 1.099999768004425e-01 -7.144159899242038e-05 -1.956846763408873e-18
 1.099999694135346e-01 -8.203061270033365e-05 -1.956737833680872e-18
 1.099999667838594e-01  8.548420788789223e-05 -1.958458940810858e-18
 1.099999705512335e-01  8.049054442847830e-05 -1.958407699777783e-18
 1.099999402245048e-01 -1.146760888072756e-04 -1.956401893819439e-18
 1.099999597756291e-01 -9.407103665920199e-05 -1.956613951180612e-18
 1.099999750971674e-01  7.401771762032657e-05 -1.958341274734040e-18
 1.099999077437213e-01  1.424653387897761e-04 -1.959043350541576e-18
 1.099999917633654e-01 -4.256829211386424e-05 -1.957143692431264e-18
 1.099982123586297e-01 -6.271187333847639e-04 -1.951105982367863e-18
 1.098930406449165e-01  4.849702858392892e-03 -2.005506678551622e-18
 1.098295907118594e-01  6.120539524046779e-03 -2.017434896387978e-18
 1.058583490818552e-01 -2.989999882381368e-02 -1.576663968222150e-18
 1.084089301372128e-01 -1.864145558975703e-02 -1.737732042368166e-18
 9.817235130165071e-02  4.962045384622398e-02 -2.256926233208641e-18
 9.300848046778881e-02  5.873178493007781e-02 -2.258644609032200e-18
 8.445149760069455e-02 -7.048364741555194e-02 -7.787212646985091e-19
 9.770263840068168e-02 -5.053903886646047e-02 -1.219464729302426e-18
 1.032135778690376e-01  3.803889251111393e-02 -2.227644537900225e-18
 9.298680552155278e-02  5.876609565809933e-02 -2.258611407775433e-18
 1.054739683811116e-01 -3.122886475586725e-02 -1.556169840433712e-18
 1.076709289716240e-01 -2.251601772932932e-02 -1.684788712840521e-18
 1.078375256648492e-01  2.170410234225230e-02 -2.142099169548979e-18
 1.099213727514144e-01 -4.158342511694209e-03 -1.913456488370486e-18
 1.000365536164369e-01 -4.574590627089713e-02 -1.310247230772867e-18
 1.097244116339044e-01 -7.781612403188615e-03 -1.872723548436037e-18
 8.396378580354709e-02  7.106393370434842e-02 -2.224391827317870e-18
 9.135879891865843e-02  6.126638442196583e-02 -2.255328647085584e-18
 7.892110490296533e-02 -7.662544747598610e-02 -6.171965652708072e-19
 8.560264967969013e-02 -6.908101307751804e-02 -8.136189473744401e-19
-7.196029722604862e-02 -8.319684863706497e-02  2.135436723193995e-18
-1.099951933488170e-01  1.028319092668460e-03  1.946930067540032e-18
-9.677740936353917e-02 -5.228893799726595e-02  2.259519282740845e-18
-1.025165260566334e-01  3.987934158533168e-02  1.414658119553152e-18
-8.195527008650244e-02  7.337120487662989e-02  7.046293145300807e-19
-1.095542391921572e-01 -9.892859800258894e-03  2.051293908105554e-18
-9.701134692639664e-02 -5.185362636813631e-02  2.259209811869696e-18
-1.098520538295149e-01 -5.703180642178217e-03  2.013546443464998e-18
-1.077294344886687e-01  2.223440902636286e-02  1.688723315426820e-18
-1.074612346469034e-01 -2.349644756475170e-02  2.153818318081810e-18
-1.079810014516338e-01 -2.097863974384960e-02  2.137198627660180e-18
-9.902124333755551e-02  4.790400158530166e-02  1.270004927873118e-18
-9.319192767535740e-02  5.844026536687628e-02  1.058009019372922e-18
-8.474944409110549e-02 -7.012511480381717e-02  2.228727530555237e-18
-9.812941087510967e-02 -4.970531884319702e-02  2.257034014112016e-18
-1.031829719165910e-01  3.812183503531749e-02  1.444576059945955e-18
-9.321341966931242e-02  5.840597909077978e-02  1.058743774073597e-18
-1.059092758752052e-01 -2.971910637266260e-02  2.190134919233063e-18
-1.067857336748211e-01 -2.639710369586295e-02  2.171600160538516e-18
-1.097139774634593e-01  7.927367100589118e-03  1.871040283359365e-18
-1.098971440330660e-01  4.755810485661469e-03  1.906886543036949e-18
-1.099862667136267e-01 -1.738141075676440e-03  1.975195580672518e-18
-1.099983925218903e-01  5.946785687399418e-04  1.951442499495132e-18
-1.099975714374647e-01  7.309431303488429e-04  1.950027818448846e-18
-1.099953139985712e-01 -1.015331648126713e-03  1.967929983608047e-18
-1.099999086751317e-01 -1.417443566535561e-04  1.959035959287597e-18
-1.099976101004719e-01  7.251014994624860e-04  1.950088527138437e-18
-1.099999359811341e-01 -1.186766461989599e-04  1.958799432885402e-18
-1.099997429259398e-01 -2.378155317041286e-04  1.960020106006745e-18
-1.099999514606628e-01  1.033375623575245e-04  1.956518593020582e-18
-1.099999993483985e-01 -1.197298193895290e-05  1.957704219193580e-18
-1.099999837012029e-01 -5.988100753345725e-05  1.958196178292436e-18
-1.099999755519258e-01  7.333877337250581e-05  1.956827248412463e-18
-1.099999998760450e-01  5.222073136006729e-06  1.957527555639257e-18
-1.099999899362129e-01 -4.705351232817310e-05  1.958064491398506e-18
-1.099999614355722e-01  9.210956841404383e-05  1.956634134094953e-18
-1.099999998342880e-01 -6.037930701307291e-06  1.957643247345131e-18
-1.099999603296483e-01 -9.342095991633993e-05  1.958540373194372e-18
-1.099999905117930e-01  4.568813205002901e-05  1.957111614936045e-18
-1.099999982953971e-01 -1.936524211229420e-05  1.957780153242049e-18
-1.099999768958272e-01 -7.129458217143318e-05  1.958313327515837e-18
-1.099999752391660e-01  7.380638744171621e-05  1.956822438281839e-18
-1.099999993721306e-01  1.175292408340428e-05  1.957460444550486e-18
-1.099999513185150e-01 -1.034887640612973e-04  1.958643655860750e-18
-1.099999844053462e-01  5.857323249086080e-05  1.956979116538299e-18
-1.099998773538694e-01  1.642623926664170e-04  1.955891293702624e-18
-1.099999999408409e-01 -3.607625411845748e-06  1.957618278737379e-18
-1.099998736500469e-01 -1.667242444178774e-04  1.959291995246733e-18
-1.099999849254200e-01 -5.758825696422096e-05  1.958172642899631e-18
-1.099999575379708e-01  9.665218356552656e-05  1.956587391012007e-18
-1.099999979834934e-01 -2.106255951457208e-05  1.957797587011072e-18
-1.099999762795134e-01 -7.223923078455124e-05  1.958323022469133e-18
-1.099999755469327e-01  7.334626216857996e-05  1.956827171378945e-18
-1.099999994533834e-01  1.096611135143126e-05  1.957468530211472e-18
-1.099999871797548e-01 -5.310794419070187e-05  1.958126649432031e-18
-1.099999614669693e-01  9.207206544253341e-05  1.956634519983110e-18
-1.099999999993902e-01 -3.662284765973197e-07  1.957584975603330e-18
-1.099999601572290e-01 -9.362375761564238e-05  1.958542453798654e-18
-1.099999905782000e-01  4.552796795959950e-05  1.957113261745682e-18
-1.099999982373092e-01 -1.969243334873047e-05  1.957783513979400e-18
-1.099999768859138e-01 -7.130987588330903e-05  1.958313484476750e-18
-1.099999750963824e-01  7.401888411371852e-05  1.956820252414724e-18
-1.099999993969801e-01  1.151800141053058e-05  1.957462858737834e-18
-1.099999508805911e-01 -1.039531986483013e-04  1.958648419964036e-18
-1.099999844710350e-01  5.844973921288223e-05  1.956980386555879e-18
-1.099998770743429e-01  1.644494737205341e-04  1.955889366538246e-18
-1.099999999427168e-01 -3.549969144977544e-06  1.957617686373564e-18
-1.099998732431864e-01 -1.669924635879355e-04  1.959294743860700e-18
-1.099999847427732e-01 -5.793608229435766e-05  1.958176213428125e-18
-1.099999576204464e-01  9.655827236967604e-05  1.956588357383182e-18
-1.099999980185569e-01 -2.087863604413399e-05  1.957795697888224e-18
-1.099999762825267e-01 -7.223464216484647e-05  1.958322975376358e-18
-1.099999757024574e-01  7.311264428788585e-05  1.956829574485549e-18
-1.099999994644052e-01  1.085499100420233e-05  1.957469672128817e-18
-1.099999871086272e-01 -5.325506373568637e-05  1.958128159766110e-18
-1.099999615728413e-01  9.194549152359232e-05  1.956635822368265e-18
-1.099999999996221e-01 -2.883033257830922e-07  1.957584174954840e-18
-1.099999600449989e-01 -9.375552570143350e-05  1.958543805670599e-18
-1.099999906465024e-01  4.536264263953404e-05  1.957114961618810e-18
-1.099999982612259e-01 -1.955838077023824e-05  1.957782137063480e-18
-1.099999767677483e-01 -7.149192124096967e-05  1.958315352823771e-18
-1.099999753498389e-01  7.364125739929422e-05  1.956824136902594e-18
-1.099999993857595e-01  1.162466651336791e-05  1.957461762592968e-18
-1.099999509479748e-01 -1.038818709173960e-04  1.958647688296685e-18
-1.099999846037637e-01  5.819941321060010e-05  1.956982960926683e-18
-1.099998771349920e-01  1.644089006807241e-04  1.955889784490814e-18
-1.099999999436354e-01 -3.521390920852977e-06  1.957617392759041e-18
-1.099998729518578e-01 -1.671842549329655e-04  1.959296709262560e-18
-1.099999846828931e-01 -5.804966202191085e-05  1.958177379352928e-18
-1.099999576033719e-01  9.657772180258272e-05  1.956588157243464e-18
-1.099999979854242e-01 -2.105247356327635e-05  1.957797483415946e-18
-1.099999761127154e-01 -7.249277213872080e-05  1.958325624546074e-18
-1.099999757219319e-01  7.308333846899328e-05  1.956829875938765e-18
-1.099999994625501e-01  1.087377343399750e-05  1.957469479113161e-18
-1.099999870787061e-01 -5.331683103406122e-05  1.958128793870179e-18
-1.099999615079465e-01  9.202309637883102e-05  1.956635023851689e-18
-1.099999999997988e-01 -2.103198031318841e-07  1.957583373705619e-18
-1.099999597860919e-01 -9.405880131804486e-05  1.958546917109831e-18
-1.099999909171784e-01  4.470146135087153e-05  1.957121759833364e-18
-1.099999981970060e-01 -1.991629081518535e-05  1.957785813316304e-18
-1.099999770961685e-01 -7.098480374653853e-05  1.958310148220368e-18
-1.099999750209991e-01  7.413082720970800e-05  1.956819100898541e-18
-1.099999994225760e-01  1.127090166824840e-05  1.957465398053434e-18
-1.099999506022291e-01 -1.042473362677831e-04  1.958651437167441e-18
-1.099999846426127e-01  5.812594040269107e-05  1.956983716524455e-18
-1.099998774205897e-01  1.642177067493761e-04  1.955891754021555e-18
-1.099999999419747e-01 -3.572888010487743e-06  1.957617921843376e-18
-1.099998729864953e-01 -1.671614634801344e-04  1.959296475705075e-18
-1.099999845976209e-01 -5.821102252130181e-05  1.958179035755919e-18
-1.099999577524468e-01  9.640777920765857e-05  1.956589905994856e-18
-1.099999979677029e-01 -2.114486506808291e-05  1.957798432389724e-18
-1.099999760966063e-01 -7.251721189894515e-05  1.958325875369050e-18
-1.099999757306251e-01  7.307025289128744e-05  1.956830010543028e-18
-1.099999994721776e-01  1.077594033821056e-05  1.957470484484013e-18
-1.099999869823309e-01 -5.351529694819937e-05  1.958130831320239e-18
-1.099999618181451e-01  9.165154988477898e-05  1.956638846877296e-18
-1.099999999986974e-01 -5.352898762601945e-07  1.957586712635468e-18
-1.099999599643385e-01 -9.385011401100974e-05  1.958544776095670e-18
-1.099999906904390e-01  4.525597526515227e-05  1.957116058369237e-18
-1.099999982069579e-01 -1.986124965996813e-05  1.957785247965533e-18
-1.099999766106213e-01 -7.173327481826770e-05  1.958317829847841e-18
-1.099999754680935e-01  7.346440495033559e-05  1.956825956101742e-18
-1.099999994110679e-01  1.138266322161724e-05  1.957464249539272e-18
-1.099999508988972e-01 -1.039338258515330e-04  1.958648221241367e-18
-1.099999846736805e-01  5.806711659830588e-05  1.956984321470565e-18
-1.099998779403535e-01  1.638691773706439e-04  1.955895344284128e-18
-1.099999999338218e-01 -3.815647129078564e-06  1.957620415960042e-18
-1.099998731105651e-01 -1.670797999429992e-04  1.959295638849867e-18
-1.099999846000274e-01 -5.820647464017732e-05  1.958178989070923e-18
-1.099999579431182e-01  9.618997966968448e-05  1.956592147199214e-18
-1.099999979401089e-01 -2.128793061783658e-05  1.957799901845209e-18
-1.099999760160830e-01 -7.263925334966959e-05  1.958327127867616e-18
-1.099999758430499e-01  7.290081212255221e-05  1.956831753486107e-18
-1.099999994789414e-01  1.070667339743905e-05  1.957471196297037e-18
-1.099999869627201e-01 -5.355559154941447e-05  1.958131244983631e-18
-1.099999619706424e-01  9.146833974585836e-05  1.956640732008792e-18
-1.099999999974429e-01 -7.500240861579519e-07  1.957588918929141e-18
-1.099999599420105e-01 -9.387628053437082e-05  1.958545044549839e-18
-1.099999907041608e-01  4.522261066081207e-05  1.957116401422621e-18
-1.099999981569163e-01 -2.013649368582751e-05  1.957788075107362e-18
-1.099999764963584e-01 -7.190827885268494e-05  1.958319625917274e-18
-1.099999754339585e-01  7.351549837928542e-05  1.956825430527847e-18
-1.099999994261526e-01  1.123594227573311e-05  1.957465757312140e-18
-1.099999505838407e-01 -1.042667375903579e-04  1.958651636181738e-18
-1.099999847210624e-01  5.797728865421594e-05  1.956985245263278e-18
-1.099998777618065e-01  1.639889861873995e-04  1.955894110114601e-18
-1.099999999295401e-01 -3.937148731165131e-06  1.957621664268667e-18
-1.099998725127770e-01 -1.674729015895683e-04  1.959299667188131e-18
-1.099999845064199e-01 -5.838310841064095e-05  1.958180802252890e-18
-1.099999578914355e-01  9.624906435886567e-05  1.956591539205739e-18
-1.099999979160188e-01 -2.141204870359411e-05  1.957801176684738e-18
-1.099999758614802e-01 -7.287299734899833e-05  1.958329526750954e-18
-1.099999759290420e-01  7.277094313098123e-05  1.956833089373149e-18
-1.099999994899254e-01  1.059322302481226e-05  1.957472362153875e-18
-1.099999869098968e-01 -5.366397769825430e-05  1.958132357671883e-18
-1.099999620628756e-01  9.135735269422524e-05  1.956641874001828e-18
-1.099999999956878e-01 -9.739837650934400e-07  1.957591220002252e-18
-1.099999597542735e-01 -9.409600511466440e-05  1.958547298799077e-18
-1.099999907171390e-01  4.519103106289196e-05  1.957116726122482e-18
-1.099999981446836e-01 -2.020320701663268e-05  1.957788760344905e-18
-1.099999762985289e-01 -7.221026956121657e-05  1.958322725241490e-18
-1.099999755500726e-01  7.334155306872042e-05  1.956827219819113e-18
-1.099999994218954e-01  1.127754313858408e-05  1.957465329802626e-18
-1.099999504096134e-01 -1.044503832144345e-04  1.958653519973230e-18
-1.099999848812489e-01  5.767256708239728e-05  1.956988379017440e-18
-1.099998779019704e-01  1.638949406504129e-04  1.955895078892714e-18
-1.099999999264582e-01 -4.022333821340712e-06  1.957622539459676e-18
-1.099998721819362e-01 -1.676900642919587e-04  1.959301892568303e-18
-1.099999844181453e-01 -5.854919094400467e-05  1.958182507119635e-18
-1.099999579667795e-01  9.616291743742898e-05  1.956592425674901e-18
-1.099999978811519e-01 -2.159042680964216e-05  1.957803008834481e-18
-1.099999757074355e-01 -7.310515420277702e-05  1.958331909336881e-18
-1.099999760015950e-01  7.266118969313859e-05  1.956834218341021e-18
-1.099999995006013e-01  1.048177820256033e-05  1.957473507398930e-18
-1.099999867880554e-01 -5.391314859459774e-05  1.958134915644016e-18
-1.099999622563446e-01  9.112410613716501e-05  1.956644273968482e-18
-1.099999999950130e-01 -1.047427811561554e-06  1.957591974601139e-18
-1.099999597318270e-01 -9.412224176519816e-05  1.958547567971670e-18
-1.099999908296378e-01  4.491636197499701e-05  1.957119550249630e-18
-1.099999980773227e-01 -2.056669565205753e-05  1.957792493859821e-18
-1.099999762859602e-01 -7.222941339235023e-05  1.958322921713724e-18
-1.099999755651755e-01  7.331889764474618e-05  1.956827452864139e-18
-1.099999994612996e-01  1.088641570998264e-05  1.957469349196114e-18
-1.099999501641819e-01 -1.047085356998977e-04  1.958656168028493e-18
-1.099999848597301e-01  5.771359567777716e-05  1.956987957080574e-18
-1.099998781341037e-01  1.637390677271931e-04  1.955896684561464e-18
-1.099999999134371e-01 -4.363920034885026e-06  1.957626048902207e-18
-1.099998719998170e-01 -1.678094867506481e-04  1.959303116349654e-18
-1.099999843608524e-01 -5.865673194205966e-05  1.958183611044727e-18
-1.099999583180809e-01  9.576022356355873e-05  1.956596569459995e-18
-1.099999978437745e-01 -2.178002651980437e-05  1.957804956237452e-18
-1.099999757757929e-01 -7.300222551874679e-05  1.958330852998547e-18
-1.099999761866725e-01  7.238046316347542e-05  1.956837105997808e-18
-1.099999995439022e-01  1.001705970616837e-05  1.957478282983252e-18
-1.099999867415740e-01 -5.400790224749672e-05  1.958135888376185e-18
-1.099999622435481e-01  9.113955210946375e-05  1.956644115038998e-18
-1.099999999922514e-01 -1.305620492367142e-06  1.957594627387996e-18
-1.099999594222514e-01 -9.448334778146020e-05  1.958551272695539e-18
-1.099999908992107e-01  4.474565364019651e-05  1.957121305453890e-18
-1.099999980535957e-01 -2.069320912524713e-05  1.957793793317550e-18
-1.099999760846893e-01 -7.253528614990691e-05  1.958326060863337e-18
-1.099999757214011e-01  7.308413742729980e-05  1.956829867720311e-18
-1.099999994649327e-01  1.084964302716257e-05  1.957469727086728e-18
-1.099999499189097e-01 -1.049658864351834e-04  1.958658807848898e-18
-1.099999850927399e-01  5.726776543359364e-05  1.956992541971065e-18
-1.099998783720166e-01  1.635791597641299e-04  1.955898331791640e-18
-1.099999999127285e-01 -4.381744701499230e-06  1.957626232031571e-18
-1.099998716158729e-01 -1.680609753227720e-04  1.959305693470632e-18
-1.099999841801209e-01 -5.899468718245324e-05  1.958187080195721e-18
-1.099999585253666e-01  9.552181732750760e-05  1.956599022686361e-18
-1.099999977895933e-01 -2.205197135920945e-05  1.957807749407666e-18
-1.099999755841532e-01 -7.329041996109893e-05  1.958333810681292e-18
-1.099999762815876e-01  7.223607226412509e-05  1.956838591250973e-18
-1.099999995568485e-01  9.873869350996576e-06  1.957479754442529e-18
-1.099999865649964e-01 -5.436635529359327e-05  1.958139568208607e-18
-1.099999625390513e-01  9.078219682543515e-05  1.956647791993558e-18
-1.099999999906505e-01 -1.434167152078565e-06  1.957595948129737e-18
-1.099999592626731e-01 -9.466895061906641e-05  1.958553176857386e-18
-1.099999910710155e-01  4.432128697474297e-05  1.957125668724687e-18
-1.099999979938033e-01 -2.100864679865237e-05  1.957797033260978e-18
-1.099999760138094e-01 -7.264269636725791e-05  1.958327163202908e-18
-1.099999759159530e-01  7.279072548518089e-05  1.956832885883713e-18
-1.099999995086711e-01  1.039674528989373e-05  1.957474381224830e-18
-1.099999497449528e-01 -1.051480280867727e-04  1.958660676192432e-18
-1.099999851458758e-01  5.716561078425889e-05  1.956993592518594e-18
-1.099998790306849e-01  1.631356326368102e-04  1.955902900593540e-18
-1.099999998941871e-01 -4.824811147499327e-06  1.957630784048384e-18
-1.099998713389269e-01 -1.682421453805532e-04  1.959307549998577e-18
-1.099999840291169e-01 -5.927557668970973e-05  1.958189963546072e-18
-1.099999588483794e-01  9.514911871391335e-05  1.956602857777623e-18
-1.099999977406711e-01 -2.229466996889648e-05  1.957810242177087e-18
-1.099999753810110e-01 -7.359468007883397e-05  1.958336933228315e-18
-1.099999765849648e-01  7.177260734941115e-05  1.956843358583566e-18
-1.099999995900690e-01  9.496566129926719e-06  1.957483631687263e-18
-1.099999864865898e-01 -5.452476517374469e-05  1.958141194417243e-18
-1.099999627770349e-01  9.049337486891881e-05  1.956650763769442e-18
-1.099999999810358e-01 -2.042566319354374e-06  1.957602199039062e-18
-1.099999589220371e-01 -9.506392642523018e-05  1.958557229028286e-18
-1.099999911023901e-01  4.424335041277324e-05  1.957126470052899e-18
-1.099999979138926e-01 -2.142296852370885e-05  1.957801288844086e-18
-1.099999755495815e-01 -7.334228951509880e-05  1.958334343006873e-18
-1.099999761238614e-01  7.247585721823739e-05  1.956836124740751e-18
-1.099999995209759e-01  1.026573282892048e-05  1.957475727549251e-18
-1.099999491925646e-01 -1.057243262561425e-04  1.958666587616362e-18
-1.099999854749043e-01  5.652893778625413e-05  1.957000139957816e-18
-1.099998793427196e-01  1.629250965838142e-04  1.955905069328031e-18
-1.099999998761477e-01 -5.219911979672278e-06  1.957634843244872e-18
-1.099998701190210e-01 -1.690378610890937e-04  1.959315703978740e-18
-1.099999837354816e-01 -5.981800529985164e-05  1.958195531577402e-18
-1.099999592069027e-01  9.473373056828072e-05  1.956607132120269e-18
-1.099999975663668e-01 -2.313869617420256e-05  1.957818911137783e-18
-1.099999746402845e-01 -7.469361905544217e-05  1.958348211244974e-18
-1.099999760581254e-01  7.257555925033090e-05  1.956835099168740e-18
-1.099999995284993e-01  1.018479795049084e-05  1.957476559259614e-18
-1.099999491986928e-01 -1.057179500529459e-04  1.958666522212249e-18
-1.099999855910776e-01  5.630242166624503e-05  1.957002469396106e-18
-1.099998799596668e-01  1.625080270614879e-04  1.955909365545175e-18
-1.099999998664853e-01 -5.419705175373055e-06  1.957636895875424e-18
-1.099998699926657e-01 -1.691200657073862e-04  1.959316546352686e-18
-1.099999835754940e-01 -6.011148806945372e-05  1.958198544159078e-18
-1.099999594584293e-01  9.444121909264180e-05  1.956610142045637e-18
-1.099999975439191e-01 -2.324516651837183e-05  1.957820004682406e-18
-1.099999746496627e-01 -7.467980667966470e-05  1.958348069494728e-18
-1.099999771064090e-01  7.096893314928759e-05  1.956851625323742e-18
-1.099999996579607e-01  8.674595878402876e-06  1.957492078341211e-18
-1.099999858789045e-01 -5.573724764300644e-05  1.958153641419669e-18
-1.099999637659166e-01  8.928324029618707e-05  1.956663215060899e-18
-1.099999999557726e-01 -3.119294563857309e-06  1.957613261581039e-18
-1.099999578685293e-01 -9.627523953508413e-05  1.958569656082026e-18
-1.099999915514564e-01  4.311240537942912e-05  1.957138098093946e-18
-1.099999979106756e-01 -2.143948076970872e-05  1.957801458444163e-18
-1.099999386815900e-01 -1.161466590023247e-04  1.958773486243862e-18
-1.099999767966900e-01  7.144737659052612e-05  1.956846703979371e-18
-1.099999175458854e-01  1.346844399896628e-04  1.956195911686419e-18
-1.099999479480400e-01 -1.070113473964284e-04  1.958679789143239e-18
-1.099999735474891e-01 -7.628598598244831e-05  1.958364552789091e-18
-1.099998801232614e-01  1.623972539469443e-04  1.955910506610048e-18
-1.099999999975314e-01 -7.369227584772271e-07  1.957588784319335e-18
-1.099998663179201e-01 -1.714935558055772e-04  1.959340867704743e-18
-1.099999792150714e-01  6.762162246715994e-05  1.956886055251182e-18
-1.099999595342920e-01  9.435281709904429e-05  1.956611051694073e-18
-1.099998669587653e-01 -1.710820093333601e-04  1.959336650618848e-18
-1.099999724837079e-01 -7.780477787748596e-05  1.958380138892823e-18
-1.099998650066593e-01  1.723325758553813e-04  1.955808155768691e-18
-1.099999997196448e-01  7.853540126303153e-06  1.957500515488541e-18
-1.099998885323989e-01 -1.565977643222805e-04  1.959188214191616e-18
-1.099999903868722e-01  4.598791119684661e-05  1.957108532591098e-18
-1.099999584340017e-01  9.562697246680791e-05  1.956597940629555e-18
-1.099999969619363e-01  2.585292932896991e-05  1.957315529226436e-18
-1.099999984463657e-01 -1.848782085902006e-05  1.957771140744078e-18
-1.099999038747014e-01 -1.454219942806474e-04  1.959073660248851e-18
-1.099999573642500e-01 -9.684969358562724e-05  1.958575549414462e-18
-1.099999795694014e-01  6.704275672141120e-05  1.956892009192161e-18
-1.099999252875533e-01  1.282058214537434e-04  1.956262614910594e-18
-1.099999984759848e-01  1.831074270743048e-05  1.957393049398409e-18
-1.099999775743294e-01 -7.023992446326606e-05  1.958302503365770e-18
-1.099999976796693e-01 -2.259364322955367e-05  1.957813312933131e-18
-1.099999995585202e-01 -9.855227897883265e-06  1.957682463779495e-18
-1.099999999853482e-01 -1.795368003226228e-06  1.957599659242908e-18
-1.099999812338929e-01  6.425374059275797e-05  1.956920694941323e-18
-1.099999995220024e-01 -1.025472748760101e-05  1.957686567842774e-18
-1.099998881751996e-01 -1.568484732305692e-04  1.959190783777786e-18
-1.099999990658325e-01  1.433585761542993e-05  1.957433900395809e-18
-1.099999793726678e-01  6.736477290139078e-05  1.956888697091780e-18
-1.099998976074714e-01 -1.500877935110893e-04  1.959121488108160e-18
-1.099999981425238e-01  2.021496299798264e-05  1.957373478292335e-18
-1.099997665010039e-01  2.266489015844961e-04  1.955248322227755e-18
-1.099999887978020e-01 -4.964356338076243e-05  1.958091082972799e-18
-1.099997326726480e-01 -2.425117439071404e-04  1.960068175411574e-18
-1.099999692736070e-01  8.221803624770295e-05  1.956735905481829e-18
-1.099999284745548e-01  1.254415911408443e-04  1.956291073089385e-18
-1.099998039852335e-01 -2.076612871021569e-04  1.959711368720602e-18
-1.099999960867140e-01 -2.934148708320308e-05  1.957882616228889e-18
-1.099998648122926e-01  1.724565954668958e-04  1.955806878053248e-18
-1.099999991089862e-01 -1.400082131297843e-05  1.957725050245865e-18
-1.099999662236940e-01 -8.620200772841453e-05  1.958466305974654e-18
-1.099999963916239e-01 -2.817521446481775e-05  1.957870638627643e-18
-1.099999988534674e-01 -1.588197481126525e-05  1.957744373867429e-18
-1.099999999791354e-01  2.142470309755317e-06  1.957559199274180e-18
-1.099999978669402e-01  2.166271245336173e-05  1.957358598288270e-18
-1.099999838632522e-01 -5.958258304481585e-05  1.958193114973087e-18
-1.099999700762484e-01 -8.113707186071788e-05  1.958414334159359e-18
-1.099999217457590e-01  1.312094770381295e-04  1.956231690410151e-18
-1.099999842887987e-01  5.879170008128546e-05  1.956976869789069e-18
-1.099995087758441e-01 -3.287386088884028e-04  1.960950140614798e-18
-1.099999706375249e-01 -8.037253029820221e-05  1.958406488761126e-18
-1.099994761428914e-01  3.394823845381759e-04  1.954083831910626e-18
-1.099999980479677e-01 -2.072310457411121e-05  1.957794100382270e-18
-1.099995961631662e-01 -2.980670064290404e-04  1.960636556203282e-18
-1.099999952698402e-01  3.225887623191667e-05  1.957249680336236e-18
-1.099998949309189e-01  1.520367941021039e-04  1.956017220091224e-18
-1.099999488344944e-01 -1.060962232507177e-04  1.958670402350594e-18
-1.099999134008258e-01 -1.380282969954512e-04  1.958997862223913e-18
-1.099999970214167e-01  2.559859891645939e-05  1.957318143437557e-18
-1.099999998959533e-01  4.784375545282746e-06  1.957532053177289e-18
-1.099999813970075e-01 -6.397388493170812e-05  1.958238190114974e-18
-1.099999931862094e-01 -3.871735871073506e-05  1.957978898285935e-18
-1.099999923542067e-01 -4.101310063975905e-05  1.958002471393800e-18
-1.099999752376894e-01 -7.380858818548546e-05  1.958339128505824e-18
-1.099999982371166e-01 -1.969350917611471e-05  1.957783525029708e-18
-1.099999997895141e-01  6.804914468873387e-06  1.957511290979642e-18
-1.099999404271202e-01 -1.144815704662278e-04  1.958756409127824e-18
-1.099999239796402e-01 -1.293231353812301e-04  1.958908608113283e-18
-1.099999993970120e-01  1.151769580532727e-05  1.957462861878386e-18
-1.099999991027378e-01 -1.404982721258723e-05  1.957725553652483e-18
-1.099999111743091e-01 -1.397914305642182e-04  1.959015938157316e-18
-1.099999211864007e-01 -1.316775820199875e-04  1.958932749488164e-18
-1.099999363801705e-01  1.183062060984025e-04  1.956364527268477e-18
-1.099999272387128e-01  1.265206617190976e-04  1.956279964037908e-18
-1.099965742737380e-01 -8.681290468623466e-04  1.966439958454461e-18
-1.099963495545694e-01 -8.961499143249738e-04  1.966723863542798e-18
-1.099949174009261e-01  1.057424211659484e-03  1.946626112193578e-18
-1.099954262948371e-01  1.003092327271859e-03  1.947193408942615e-18
-1.099964117223257e-01 -8.884864729237979e-04  1.966646230815691e-18
-1.099959756551301e-01 -9.409249045474596e-04  1.967177256315333e-18
-1.099979391556280e-01 -6.733361082758803e-04  1.964462821474520e-18
-1.099999933109010e-01 -3.836146109180895e-05  1.957975243786226e-18
-1.099905730511588e-01  1.440083288448500e-03  1.942617116302447e-18
-1.099999153744728e-01 -1.364463586687815e-04  1.958981643505680e-18
-1.099695321629929e-01 -2.588821324931816e-03  1.983638199915556e-18
-1.099951660123407e-01 -1.031239020586132e-03  1.968090792489877e-18
-1.099918395256766e-01  1.339864828175020e-03  1.943669363000002e-18
-1.099987807805744e-01  5.179061566514314e-04  1.952238217666532e-18
-1.099923440444704e-01 -1.297787194740162e-03  1.970779257865553e-18
-1.099921020459154e-01 -1.318137899042095e-03  1.970984047306474e-18
-1.099979807627025e-01 -6.665044096726051e-04  1.964393368700651e-18
-1.099976366807362e-01 -7.210580092632823e-04  1.964947763769656e-18
-1.099934225904087e-01 -1.202907663848637e-03  1.969823599164175e-18
-1.099847650176792e-01 -1.830700414008412e-03  1.976119869779042e-18
-1.099907209808924e-01 -1.428740040537871e-03  1.972095866432266e-18
-1.099903775068284e-01 -1.454941890706016e-03  1.972358968393681e-18
-1.099619721962832e-01 -2.892174044520623e-03  1.986620500284498e-18
-1.099292610620657e-01  3.944307587927274e-03  1.915796001356972e-18
-1.099356313458004e-01  3.762573667084821e-03  1.917776618172693e-18
-1.090587819630829e-01 -1.435904163684726e-02  2.088365051646038e-18
-1.017956254362771e-01 -4.168513694396530e-02  2.239874219935446e-18
-1.015995851044725e-01 -4.216069623000805e-02  2.241271647292593e-18
-1.069506825278553e-01  2.572064359276174e-02  1.639044701634886e-18
-6.503532345568505e-02  8.871531267495138e-02  2.458635478401562e-19
 3.720330636354091e-03  1.099370689983873e-01 -1.195771168405958e-18
-9.487371107990222e-02 -5.566847353688804e-02  2.260364200950888e-18
-9.352424464294534e-02 -5.790695695653911e-02  2.259348439963225e-18
-6.684807635156065e-02 -8.735751077094563e-02  2.087207946630583e-18
-9.840056597381830e-02 -4.916633620712643e-02  2.256321691750419e-18
-1.093444626617007e-01 -1.199118364565866e-02  2.069120199765935e-18
-8.068692278165433e-02 -7.476376456564582e-02  2.204090559116530e-18
-3.344348615576427e-02  1.047928109831451e-01 -4.815413356402722e-19
-9.237267837862845e-02  5.972678033477474e-02  1.030211026960684e-18
-6.626085817256742e-02 -8.780375091210439e-02  2.081342654020306e-18
-9.237267837856269e-02  5.972678033487643e-02  1.030211026958470e-18
-1.008180820797759e-01  4.399675358200366e-02  1.342127370480042e-18
-9.835965941843657e-02  4.924812076708237e-02  1.244420916553846e-18
-1.080745438525806e-01  2.049129012669994e-02  1.712774861687707e-18
-1.053013330056686e-01 -3.180611996502028e-02  2.200759157198194e-18
-1.095552707188751e-01  9.881429942774553e-03  1.848138621678999e-18
-1.094767183960507e-01 -1.071672194431546e-02  2.058379217313281e-18
 5.476012658588729e-03  1.098636121987755e-01 -1.226260882313693e-18
-8.133207625846380e-02  7.406141621308218e-02  6.864471662396447e-19
-6.401094877792360e-02 -8.945724362258206e-02  2.058291869487026e-18
-1.091390752306499e-01 -1.373543802718046e-02  2.083386665567723e-18
-1.097575255964916e-01  7.299696907094597e-03  1.878264357556269e-18
-1.099993223095969e-01  3.861235934043499e-04  1.953601872785968e-18
-1.094499605050151e-01  1.098663485561424e-02  1.834908921814743e-18
-1.089853245176151e-01  1.490634226730711e-02  1.786366600443704e-18
-1.097637033456247e-01  7.206207591629343e-03  1.879334866725587e-18
-1.099845455167261e-01  1.843840415860275e-03  1.938361391326591e-18
-1.099448846187945e-01  3.481715979215282e-03  1.920827001918610e-18
-1.099543481061490e-01  3.168806171379631e-03  1.924210450568854e-18
-1.099726111600529e-01  2.454545709451398e-03  1.931874230173917e-18
-1.099791449574675e-01  2.141885716911880e-03  1.935202974735606e-18
-1.099895187389895e-01  1.518475408240513e-03  1.941792903006522e-18
-1.099959915017614e-01  9.390705747666335e-04  1.947861267723754e-18
-1.099963619686071e-01  8.946248773178388e-04  1.948324524018617e-18
-1.099957072358517e-01  9.717971417744801e-04  1.947519955285427e-18
-1.099976931793228e-01  7.123869928156669e-04  1.950220642562668e-18
-1.099990638096526e-01  4.538292629868958e-04  1.952901621311685e-18
-1.099990693532983e-01  4.524835999770876e-04  1.952915546166058e-18
-1.099990464795895e-01  4.580104595620897e-04  1.952858352626639e-18
-1.099994447305778e-01  3.495124669330650e-04  1.953980217438066e-18
-1.099996779734635e-01  2.661686200284817e-04  1.954840696023948e-18
-1.099995985127738e-01  2.971986348135183e-04  1.954520459796592e-18
-1.099996048713972e-01  2.948357787751861e-04  1.954544850443316e-18
-1.099998978003003e-01  1.499464019511892e-04  1.956038749175258e-18
-1.099999384516204e-01  1.163642543018903e-04  1.956384516981652e-18
-1.099997414639291e-01  2.384908147431983e-04  1.955126205307267e-18
-1.099998158279562e-01  2.012903765076581e-04  1.955509749692847e-18
-1.099999691497555e-01  8.238357125269047e-05  1.956734202465702e-18
-1.099999643304862e-01  8.858494072775010e-05  1.956670399882482e-18
-1.099999553666020e-01  9.909261086088208e-05  1.956562277865989e-18
-1.099999245238148e-01  1.288594389886179e-04  1.956255885636224e-18
-1.099998590461792e-01  1.760960552251843e-04  1.955769381311478e-18
-1.099999971356463e-01  2.510294338172589e-05  1.957323238150970e-18
-1.099999640116538e-01 -8.897996872900716e-05  1.958494809148885e-18
-1.099999147577590e-01  1.369426366425696e-04  1.956172659918112e-18
-1.099996203523934e-01  2.890022998148011e-04  1.954605062823290e-18
-1.099999999658095e-01 -2.742603698624940e-06  1.957609391397859e-18
-1.099998032160706e-01 -2.080683198212762e-04  1.959715537145755e-18
-1.099999673371054e-01  8.476930877174865e-05  1.956709657621094e-18
-1.099995769915787e-01  3.050601149125464e-04  1.954439302949088e-18
-1.099999999977197e-01  7.082513754957241e-07  1.957573935683450e-18
-1.099998201889102e-01 -1.988929546109806e-04  1.959621565653293e-18
-1.099999600547844e-01  9.374404412533810e-05  1.956617315878012e-18
-1.099998050449318e-01  2.070991959086812e-04  1.955449874286899e-18
-1.099999936218405e-01 -3.745924471362935e-05  1.957965979374228e-18
-1.099999742781951e-01 -7.522497178823998e-05  1.958353664257466e-18
-1.099999738639789e-01  7.582825273353983e-05  1.956801639877357e-18
-1.099999805799565e-01  6.536366839912097e-05  1.956909279198741e-18
-1.099999991195104e-01 -1.391789014310032e-05  1.957724198345512e-18
-1.099999992341498e-01 -1.298025473849108e-05  1.957714566522491e-18
-1.099999836096458e-01  6.004896009677704e-05  1.956963939812801e-18
-1.099999749381847e-01  7.425361077816982e-05  1.956817837868198e-18
-1.099999913865870e-01 -4.353103205360249e-05  1.958028325004436e-18
-1.099999867945117e-01 -5.389997413974411e-05  1.958134780396174e-18
-1.099999649653341e-01  8.779308185270562e-05  1.956678547242640e-18
-1.099999804197158e-01  6.563278218186840e-05  1.956906511300709e-18
-1.099999893613905e-01 -4.837865175663859e-05  1.958078096495096e-18
-1.099999985531431e-01 -1.784120179337309e-05  1.957764498868309e-18
-1.099999945064355e-01  3.476469637558733e-05  1.957223920358856e-18
-1.099999993306852e-01  1.213462902289748e-05  1.957456521933324e-18
-1.099999995037917e-01  1.044824343587050e-05  1.957473852013252e-18
-1.099999930912183e-01  3.898630375166725e-05  1.957180519691178e-18
-1.099999993036522e-01  1.237725656003796e-05  1.957454028542436e-18
-1.099999989956700e-01 -1.486447319294913e-05  1.957733921938595e-18
-1.099999963218495e-01  2.844631881881787e-05  1.957288871700423e-18
-1.099999912202674e-01 -4.394930081136798e-05  1.958032619604124e-18
-1.099999191673293e-01 -1.333535937770352e-04  1.958949933968338e-18
-1.099999734223426e-01  7.646622715566506e-05  1.956795077062480e-18
-1.099997472683475e-01  2.357984301199737e-04  1.955153971877752e-18
-1.099999998198841e-01  6.294876772389191e-06  1.957516531972161e-18
-1.099997689977033e-01 -2.254339190761944e-04  1.959893353413010e-18
-1.099999960158595e-01 -2.960592610097520e-05  1.957885331982793e-18
-1.099999135512566e-01  1.379083610394482e-04  1.956162715979605e-18
-1.099999801895804e-01 -6.601736048222361e-05  1.958259164596311e-18
-1.099999992154824e-01 -1.313749764561717e-05  1.957716181804030e-18
-1.099999044896789e-01  1.449560674787403e-04  1.956090142094588e-18
-1.099999999728912e-01  2.442110435291996e-06  1.957556120469619e-18
-1.099999779291884e-01 -6.968197776536094e-05  1.958296776981273e-18
-1.099999993364579e-01 -1.208218654631557e-05  1.957705341018753e-18
-1.099999998703725e-01  5.340226910331778e-06  1.957526341551198e-18
-1.099999847694897e-01  5.788533494372240e-05  1.956986190916069e-18
-1.099999767220370e-01  7.156221969646369e-05  1.956845522679637e-18
-1.099999382940783e-01 -1.165130847863562e-04  1.958777244239447e-18
-1.099999025667940e-01 -1.464079771722576e-04  1.959083767589111e-18
-1.099999485991486e-01  1.063399483406490e-04  1.956487693671230e-18
-1.099999190400674e-01  1.334585275255720e-04  1.956208534082400e-18
-1.099999708332421e-01 -8.010421869765370e-05  1.958403735439921e-18
-1.099999481197735e-01 -1.068346718811194e-04  1.958677976922703e-18
-1.099999830095949e-01  6.113827614133316e-05  1.956952736807537e-18
-1.099999852373734e-01  5.698927609847840e-05  1.956995405921741e-18
-1.099999997727985e-01 -7.069956967849253e-06  1.957653849945836e-18
-1.099999743605071e-01  7.510451227483485e-05  1.956809084883965e-18
-1.099999907880116e-01 -4.501818892428558e-05  1.958043594348677e-18
-1.099999209691127e-01 -1.318589736171537e-04  1.958934609354032e-18
-1.099999960589952e-01  2.944522056805266e-05  1.957278603670015e-18
-1.099999946972724e-01  3.415552681657828e-05  1.957230182750950e-18
-1.099999973238363e-01  2.426429406375838e-05  1.957331858317121e-18
-1.099999819247802e-01  6.305987618642317e-05  1.956932973759565e-18
-1.099999927759418e-01  3.986593422032617e-05  1.957171476196935e-18
-1.099999999842694e-01 -1.860297867048586e-06  1.957600326354471e-18
-1.099999306524477e-01 -1.235170298360864e-04  1.958849071238570e-18
-1.099999847877833e-01 -5.785056109497158e-05  1.958175335529877e-18
-1.099999567129625e-01  9.758660942778760e-05  1.956577775443717e-18
-1.099999983832540e-01 -1.885958823675247e-05  1.957774959395686e-18
-1.099999775723020e-01 -7.024309951100391e-05  1.958302535952149e-18
-1.099999751064667e-01  7.400389632358877e-05  1.956820406588284e-18
-1.099999993613253e-01  1.185362344138058e-05  1.957459409708871e-18
-1.099999879370464e-01 -5.151552778679139e-05  1.958110301408867e-18
-1.099999604507482e-01  9.327826007513875e-05  1.956622108686569e-18
-1.099999999981178e-01  6.434620283681969e-07  1.957574601377540e-18
-1.099999609472370e-01 -9.269091812242694e-05  1.958532883270869e-18
-1.099999902549730e-01  4.630233033339580e-05  1.957105299701385e-18
-1.099999984528361e-01 -1.844928226268686e-05  1.957770744889151e-18
-1.099999776022296e-01 -7.019621742811549e-05  1.958302054788378e-18
-1.099999748453770e-01  7.439096985718755e-05  1.956816424901937e-18
-1.099999993150092e-01  1.227590936059784e-05  1.957455070050205e-18
-1.099999520859276e-01 -1.026698280149705e-04  1.958635255247392e-18
-1.099999840996503e-01  5.914454023944272e-05  1.956973241118499e-18
-1.099998766128372e-01  1.647578846096101e-04  1.955886189515353e-18
-1.099999999643805e-01 -2.799331716010803e-06  1.957609974232199e-18
-1.099998748265191e-01 -1.659462264662851e-04  1.959284022331639e-18
-1.099999850295732e-01 -5.738896788821613e-05  1.958170597130302e-18
-1.099999575757213e-01  9.660921012549393e-05  1.956587833220308e-18
-1.099999981272126e-01 -2.029810779900853e-05  1.957789735105053e-18
-1.099999767438735e-01 -7.152864630579358e-05  1.958315729735592e-18
-1.099999747922258e-01  7.446952171640029e-05  1.956815616864229e-18
-1.099999993384779e-01  1.206378182181253e-05  1.957457250001259e-18
-1.099999522093533e-01 -1.025375051310432e-04  1.958633897874335e-18
-1.099999840541325e-01  5.922913618834313e-05  1.956972371115811e-18
-1.099998771694580e-01  1.643858392176754e-04  1.955890022052331e-18
-1.099999999568216e-01 -3.082078752647761e-06  1.957612879220768e-18
-1.099998749965461e-01 -1.658334833245319e-04  1.959282866962646e-18
-1.099999850165126e-01 -5.741399634911140e-05  1.958170854056217e-18
-1.099999577716856e-01  9.638582549574727e-05  1.956590131903648e-18
-1.099999981392069e-01 -2.023300351912618e-05  1.957789066395680e-18
-1.099999769868236e-01 -7.115404580991275e-05  1.958311885175166e-18
-1.099999756552789e-01  7.318359111248201e-05  1.956828844693103e-18
-1.099999994583081e-01  1.091660168403731e-05  1.957469038992958e-18
-1.099999875284051e-01 -5.238082371148455e-05  1.958119184737896e-18
-1.099999611930422e-01  9.239875095698493e-05  1.956631158533265e-18
-1.099999999998924e-01 -1.538112150533347e-07  1.957582793102069e-18
-1.099999604926291e-01 -9.322885818666042e-05  1.958538402319321e-18
-1.099999904836831e-01  4.575576025330013e-05  1.957110919580573e-18
-1.099999983325564e-01 -1.915300361828468e-05  1.957777973229917e-18
-1.099999771661915e-01 -7.087621108589120e-05  1.958309033716372e-18
-1.099999752220126e-01  7.383194812208650e-05  1.956822175349869e-18
-1.099999993706496e-01  1.176677813942037e-05  1.957460302178736e-18
-1.099999516414779e-01 -1.031449100958046e-04  1.958640128633676e-18
-1.099999843264256e-01  5.872125742867627e-05  1.956977594231351e-18
-1.099998773251402e-01  1.642816303686981e-04  1.955891095530950e-18
-1.099999999516592e-01 -3.261127145019940e-06  1.957614718786084e-18
-1.099998743264514e-01 -1.662773732450867e-04  1.959287415845193e-18
-1.099999848760403e-01 -5.768250058380999e-05  1.958173610339815e-18
-1.099999577512896e-01  9.640909955219464e-05  1.956589892408201e-18
-1.099999981005155e-01 -2.044227355829365e-05  1.957791215880751e-18
-1.099999767081721e-01 -7.158352855250731e-05  1.958316292995390e-18
-1.099999757068525e-01  7.310603133188254e-05  1.956829642509488e-18
-1.099999994587054e-01  1.091259688098081e-05  1.957469080147926e-18
-1.099999873737767e-01 -5.270454390172403e-05  1.958122508093455e-18
-1.099999613316923e-01  9.223354139817908e-05  1.956632858468911e-18
-1.099999999999178e-01 -1.342795141191158e-07  1.957582592421393e-18
-1.099999602707530e-01 -9.349028140385265e-05  1.958541084399362e-18
-1.099999905888942e-01  4.550212256239914e-05  1.957113527488065e-18
-1.099999983426921e-01 -1.909470362137352e-05  1.957777374399003e-18
-1.099999771470637e-01 -7.090589140445391e-05  1.958309338330460e-18
-1.099999754031777e-01  7.356154066402697e-05  1.956824956912317e-18
-1.099999993890572e-01  1.159341925893884e-05  1.957462083705843e-18
-1.099999516118180e-01 -1.031765363183678e-04  1.958640453053791e-18
-1.099999843657824e-01  5.864748585383351e-05  1.956978352907882e-18
-1.099998774008097e-01  1.642309556383009e-04  1.955891617542026e-18
-1.099999999491115e-01 -3.345956056655527e-06  1.957615590326998e-18
-1.099998739638321e-01 -1.665170892964112e-04  1.959289872387294e-18
-1.099999848421188e-01 -5.774715216893484e-05  1.958174274007695e-18
-1.099999576181665e-01  9.656086962672397e-05  1.956588330656734e-18
-1.099999980775116e-01 -2.056568527251165e-05  1.957792483481900e-18
-1.099999765157166e-01 -7.187865997624713e-05  1.958319321938581e-18
-1.099999757057553e-01  7.310768227390135e-05  1.956829625527131e-18
-1.099999994481565e-01  1.101841815761428e-05  1.957467992685019e-18
-1.099999873274813e-01 -5.280107877734165e-05  1.958123499130352e-18
-1.099999614791572e-01  9.205750315753787e-05  1.956634669822198e-18
-1.099999999997812e-01 -2.193133296434573e-07  1.957583466110524e-18
-1.099999603127157e-01 -9.344089541008099e-05  1.958540577722991e-18
-1.099999905807442e-01  4.552182063364045e-05  1.957113324952500e-18
-1.099999983264003e-01 -1.918832734799967e-05  1.957778336058852e-18
-1.099999770869589e-01 -7.099907387462440e-05  1.958310294676853e-18
-1.099999754447069e-01  7.349941381618340e-05  1.956825595982172e-18
-1.099999993874002e-01  1.160913054130267e-05  1.957461922248636e-18
-1.099999516739583e-01 -1.031102651972603e-04  1.958639773247957e-18
-1.099999844027393e-01  5.857812788694762e-05  1.956979066193490e-18
-1.099998777200432e-01  1.640169975638389e-04  1.955893821564658e-18
-1.099999999477704e-01 -3.389761600219858e-06  1.957616040389176e-18
-1.099998742698583e-01 -1.663148079110497e-04  1.959287799465644e-18
-1.099999848416040e-01 -5.774813291934779e-05  1.958174284075387e-18
-1.099999578382568e-01  9.630982133357860e-05  1.956590914003519e-18
-1.099999980782003e-01 -2.056200138707423e-05  1.957792445643572e-18
-1.099999766413438e-01 -7.168614792152237e-05  1.958317346182838e-18
-1.099999757449651e-01  7.304866220726161e-05  1.956830232634661e-18
-1.099999994653565e-01  1.084534660483949e-05  1.957469771238445e-18
-1.099999873187516e-01 -5.281926204860133e-05  1.958123685801505e-18
-1.099999614124826e-01  9.213713849911517e-05  1.956633850411439e-18
-1.099999999998842e-01 -1.595215383901646e-07  1.957582851773422e-18
-1.099999602698958e-01 -9.349129001956678e-05  1.958541094747265e-18
-1.099999906204465e-01  4.542578188155141e-05  1.957114312422339e-18
-1.099999983177065e-01 -1.923810110801208e-05  1.957778847311438e-18
-1.099999770990140e-01 -7.098039423260767e-05  1.958310102964852e-18
-1.099999753459825e-01  7.364701757101518e-05  1.956824077650293e-18
-1.099999993782955e-01  1.169508258304967e-05  1.957461038960601e-18
-1.099999514753652e-01 -1.033219108365151e-04  1.958641944295813e-18
-1.099999845144746e-01  5.836793064596100e-05  1.956981227882244e-18
-1.099998774808649e-01  1.641773269226391e-04  1.955892169982274e-18
-1.099999999565589e-01 -3.091438606277568e-06  1.957612975385189e-18
-1.099998742058459e-01 -1.663571400639858e-04  1.959288233273961e-18
-1.099999846758340e-01 -5.806303694686352e-05  1.958177516649797e-18
-1.099999578691372e-01  9.627454498880989e-05  1.956591277004698e-18
-1.099999981285945e-01 -2.029061746558391e-05  1.957789658169191e-18
-1.099999766471395e-01 -7.167725402702321e-05  1.958317254904444e-18
-1.099999758730341e-01  7.285555478783291e-05  1.956832219022386e-18
-1.099999994530379e-01  1.096957750164197e-05  1.957468494591888e-18
-1.099999873878927e-01 -5.267507384086224e-05  1.958122205550498e-18
-1.099999615912193e-01  9.192350208932801e-05  1.956636048628773e-18
-1.099999999997139e-01 -2.508054702277742e-07  1.957583789679631e-18
-1.099999604451024e-01 -9.328491778955895e-05  1.958538977465580e-18
-1.099999905901451e-01  4.549909841303362e-05  1.957113558582362e-18
-1.099999983117762e-01 -1.927197930399513e-05  1.957779195292059e-18
-1.099999771107266e-01 -7.096224059631658e-05  1.958309916651275e-18
-1.099999753970222e-01  7.357074469960878e-05  1.956824862234650e-18
-1.099999993897810e-01  1.158654972059419e-05  1.957462154300735e-18
-1.099999515278028e-01 -1.032660690249322e-04  1.958641371474673e-18
-1.099999843976681e-01  5.858765014363648e-05  1.956978968265512e-18
-1.099998773285601e-01  1.642793404285477e-04  1.955891119120115e-18
-1.099999999500760e-01 -3.314097047664462e-06  1.957615263004417e-18
-1.099998740315297e-01 -1.664723627097731e-04  1.959289414042626e-18
-1.099999847927296e-01 -5.784115512640498e-05  1.958175238974993e-18
-1.099999578593622e-01  9.628571285115651e-05  1.956591162085014e-18
-1.099999981022354e-01 -2.043301652284646e-05  1.957791120798683e-18
-1.099999767675860e-01 -7.149217097277508e-05  1.958315355386786e-18
-1.099999758090143e-01  7.295215032393796e-05  1.956831225399033e-18
-1.099999994731189e-01  1.076632792442512e-05  1.957470583264823e-18
-1.099999873955716e-01 -5.265903567280394e-05  1.958122040900804e-18
-1.099999614543716e-01  9.208711491958291e-05  1.956634365131010e-18
-1.099999999996515e-01 -2.768373192645670e-07  1.957584057146312e-18
-1.099999604323317e-01 -9.329997548857883e-05  1.958539131950698e-18
-1.099999905748044e-01  4.553617139315250e-05  1.957113177397954e-18
-1.099999983015138e-01 -1.933046632286033e-05  1.957779796042299e-18
-1.099999771278780e-01 -7.093564877062759e-05  1.958309643735156e-18
-1.099999753593910e-01  7.362698784690714e-05  1.956824283687051e-18
-1.099999993905283e-01  1.157945341229947e-05  1.957462227226023e-18
-1.099999516699172e-01 -1.031145762972287e-04  1.958639817471026e-18
-1.099999843731768e-01  5.863361510196772e-05  1.956978495556413e-18
-1.099998776897961e-01  1.640372819157059e-04  1.955893612612026e-18
-1.099999999486473e-01 -3.361182927588923e-06  1.957615746769303e-18
-1.099998743614307e-01 -1.662542313264880e-04  1.959287178692883e-18
-1.099999848654244e-01 -5.770274131359995e-05  1.958173818117040e-18
-1.099999578842552e-01  9.625727015611561e-05  1.956591454766372e-18
-1.099999980761436e-01 -2.057300066933436e-05  1.957792558620601e-18
-1.099999767706332e-01 -7.148748230417857e-05  1.958315307266648e-18
-1.099999756900154e-01  7.313136113221111e-05  1.956829381955353e-18
-1.099999994849898e-01  1.064435090120934e-05  1.957471836745684e-18
-1.099999873004891e-01 -5.285728149460113e-05  1.958124076112497e-18
-1.099999611930123e-01  9.239878659416112e-05  1.956631158166573e-18
-1.099999999999906e-01  4.517463933878076e-08  1.957580748596449e-18
-1.099999602695622e-01 -9.349168252846653e-05  1.958541098774215e-18
-1.099999906857154e-01  4.526745494971660e-05  1.957115940335587e-18
-1.099999983070146e-01 -1.929913866008827e-05  1.957779474259837e-18
-1.099999772284128e-01 -7.077957769307611e-05  1.958308041950667e-18
-1.099999752786875e-01  7.374746161337681e-05  1.956823044426651e-18
-1.099999993983470e-01  1.150493858946396e-05  1.957462992977904e-18
-1.099999514250334e-01 -1.033754819715354e-04  1.958642493824049e-18
-1.099999842009075e-01  5.895591628914352e-05  1.956975180963059e-18
-1.099998767769300e-01  1.646482923531645e-04  1.955887318456204e-18
-1.099999999364282e-01 -3.739752886415142e-06  1.957619636220654e-18
-1.099998734246080e-01 -1.668729162568925e-04  1.959293518783916e-18
-1.099999848607895e-01 -5.771157646044989e-05  1.958173908812479e-18
-1.099999577552578e-01  9.640457175539248e-05  1.956589939000289e-18
-1.099999981633635e-01 -2.010124305518389e-05  1.957787713034674e-18
-1.099999769453211e-01 -7.121817729414479e-05  1.958312543364283e-18
-1.099999759488980e-01  7.274092255793518e-05  1.956833398176994e-18
-1.099999994831812e-01  1.066302491448329e-05  1.957471644844795e-18
-1.099999874389837e-01 -5.256827358213317e-05  1.958121109125862e-18
-1.099999613956364e-01  9.215724859061565e-05  1.956633643487755e-18
-1.099999999998036e-01 -2.077525221340312e-07  1.957583347327826e-18
-1.099999604057352e-01 -9.333132720610250e-05  1.958539453604892e-18
-1.099999905569559e-01  4.557926693060806e-05  1.957112734289326e-18
-1.099999983185844e-01 -1.923308022272328e-05  1.957778795739291e-18
-1.099999770895075e-01 -7.099512504580396e-05  1.958310254149428e-18
-1.099999752832631e-01  7.374063656233966e-05  1.956823114632999e-18
-1.099999993276910e-01  1.216174106146520e-05  1.957456243313692e-18
-1.099999490761364e-01 -1.058453937272107e-04  1.958667829468666e-18
-1.099999863803878e-01  5.473860130833916e-05  1.957018551128907e-18
-1.099998515908423e-01  1.806930896179691e-04  1.955722015776450e-18
-1.099999990116404e-01  1.474581534343016e-05  1.957429687264668e-18
-1.099998029891454e-01 -2.081882541389289e-04  1.959716765388896e-18
-1.099999542464446e-01 -1.003283612723971e-04  1.958611235976175e-18
-1.099998936760708e-01  1.529419925286595e-04  1.956007897174704e-18
-1.099999959236235e-01  2.994666551405864e-05  1.957273449096255e-18
-1.099999406178714e-01 -1.142981396979219e-04  1.958754527837960e-18
-1.099999936035783e-01  3.751283371029914e-05  1.957195668178640e-18
-1.099999961189835e-01  2.922026000064907e-05  1.957280916125686e-18
-1.099999920429875e-01 -4.183948680065195e-05  1.958010956672883e-18
-1.099999686556935e-01  8.304063111198905e-05  1.956727442621917e-18
-1.099999999644249e-01 -2.797586322174085e-06  1.957609956299702e-18
-1.099999699959891e-01 -8.124580882115310e-05  1.958415449963819e-18
-1.099999848848929e-01  5.766561617205696e-05  1.956988450500369e-18
-1.099999808003826e-01 -6.499165657308322e-05  1.958248636731208e-18
-1.099999786208700e-01 -6.858139768683283e-05  1.958285481230075e-18
-1.099998005082589e-01  2.094949718054562e-04  1.955425177824370e-18
-1.099999994872883e-01  1.062057090743203e-05  1.957472081117387e-18
-1.099997268867095e-01 -2.451221109888863e-04  1.960094893017387e-18
-1.099999994574288e-01  1.092545769241124e-05  1.957468947985042e-18
-1.099994264678934e-01 -3.552136462367258e-04  1.961220697237765e-18
-1.098808471275016e-01  5.118538320905895e-03  1.902869623424307e-18
-1.099894650292243e-01  1.522360858996738e-03  1.941752025582135e-18
-1.060163495237643e-01 -2.933485356457415e-02  2.188092364516205e-18
-1.099936852331890e-01 -1.178647030330708e-03  1.969579004009541e-18
-9.415235489714842e-02  5.687999707560973e-02  1.091132157315609e-18
-1.099800406044647e-01  2.095392240192425e-03  1.935696617425826e-18
-8.909069661331707e-02 -6.452013466317208e-02  2.248396162805529e-18
-1.099735383435840e-01  2.412646719314727e-03  1.932321227413788e-18
-9.694276790709969e-02  5.198172515904186e-02  1.191118849893254e-18
-1.051880020378723e-01 -3.217894074205280e-02  2.202572895489055e-18
-1.099734302762708e-01  2.417567635078082e-03  1.932268743605200e-18
-9.183618571900998e-02  6.054845161177507e-02  1.012221126249695e-18
-8.590394192882032e-02 -6.870598781103311e-02  2.234692182389692e-18
-1.000836765126188e-01 -4.564271788267470e-02  2.250070753221462e-18
-8.245450058460686e-02  7.280972004714087e-02  7.192827693991396e-19
-9.276036304565079e-02  5.912288091457507e-02  1.043315185220497e-18
-7.177258409718316e-02 -8.335883979526547e-02  2.133760544457258e-18
-1.090317600585479e-01 -1.456280531131238e-02  2.089977762355550e-18
-1.004416629770109e-01  4.484944078149165e-02  1.326667492319550e-18
-1.097657388720684e-01  7.175135529650033e-03  1.879690345495961e-18
-1.060427385839397e-01  2.923931588834091e-02  1.586733676514246e-18
-1.063127572932826e-01 -2.824177113248321e-02  2.182136269438664e-18
-1.005537377959030e-01 -4.459759876128708e-02  2.247697835156570e-18
-9.872227142379592e-02  4.851714258822687e-02  1.258384564972717e-18
-1.097837588296817e-01  6.893931913375422e-03  1.882900297140650e-18
-9.320608688741337e-02 -5.841768026150907e-02  2.258933939618601e-18
-1.081724450588395e-01  1.996802769409950e-02  1.719893461842541e-18
-9.439371971807803e-02  5.647854174626759e-02  1.099552339886165e-18
-1.099127229442866e-01  4.381019855290855e-03  1.911014625921645e-18
-1.071871987162227e-01 -2.471648096653195e-02  2.161476921813459e-18
-9.846891790747490e-02 -4.902929946604312e-02  2.256130093209880e-18
-1.099895665753552e-01  1.515006457236033e-03  1.941829396523110e-18
-9.769220354858657e-02  5.055920653868581e-02  1.219071813156476e-18
-1.099999549072131e-01 -9.960126033031046e-05  1.958603777037294e-18
-1.065004163478226e-01 -2.752564836185348e-02  2.178117984840757e-18
-1.099912106787334e-01  1.390529908503089e-03  1.943137606623339e-18
-1.098735737903618e-01  5.272360243182133e-03  1.901159721341676e-18
-1.099982990210330e-01 -6.117290898453222e-04  1.963836235974361e-18
-1.099999892503419e-01  4.863049084456794e-05  1.957081360819277e-18
-1.099999819366368e-01  6.303919035064045e-05  1.956933186510017e-18
-1.099999654204789e-01 -8.722094594159913e-05  1.958476760900471e-18
-1.099997881119779e-01 -2.159058126718925e-04  1.959795795742311e-18
-1.099998872042581e-01  1.575279355183383e-04  1.955960663102799e-18
-1.099992492723253e-01  4.063982342513262e-04  1.953392258431094e-18
-1.099984128321836e-01  5.909098073776665e-04  1.951481583594944e-18
-1.098896756670395e-01 -4.925361082482426e-03  2.006224155524458e-18
-1.097504943022081e-01 -7.404660722879491e-03  2.029221160262069e-18
-1.069211659817106e-01  2.584306996297967e-02  1.637261533007644e-18
-1.058996688749465e-01  2.975332136378489e-02  1.578906360846307e-18
-9.321883494582953e-02 -5.839733565276896e-02  2.258951773060362e-18
-1.033865885127846e-01 -3.756611925243433e-02  2.225865895192359e-18
-9.791168615043168e-02  5.013284068531649e-02  1.227358522121467e-18
-8.489001363203519e-02  6.995488249974292e-02  7.919580479818168e-19
-9.339940210724702e-02 -5.810810344529192e-02  2.259193425224066e-18
-9.847199190964523e-02 -4.902312525070924e-02  2.256121360925664e-18
-1.083826415911064e-01  1.879369579762683e-02  1.735699993500748e-18
-1.071298731937063e-01  2.496377915100964e-02  1.650010120471833e-18
-1.082982470343608e-01 -1.927406779288021e-02  2.125330533655132e-18
-1.098640981083141e-01  5.466255285540085e-03  1.898998889152938e-18
-9.760927451497892e-02  5.071912389483327e-02  1.215952899341090e-18
-1.095496472054962e-01  9.943580700696900e-03  1.847399968090396e-18
-8.183947900433086e-02 -7.350033793323435e-02  2.211620422236672e-18
-1.027245137711416e-01 -3.934049148755645e-02  2.232314515550605e-18
-9.682550682759461e-02  5.219982018723238e-02  1.186791201922421e-18
-7.233910110369569e-02  8.286769244711269e-02  4.359251569154689e-19

TENSORS stress double
0.000000000000000e+00 0.000000000000000e+00 0.000000000000000e+00
0.000000000000000e+00 0.000000000000000e+00 0.000000000000000e+00
0.000000000000000e+00 0.000000000000000e+00 0.000000000000000e+00

0.000000000000000e+00 0.000000000000000e+00 0.000000000000000e+00
0.000000000000000e+00 0.000000000000000e+00 0.000000000000000e+00
0.000000000000000e+00 0.000000000000000e+00 0.000000000000000e+00

0.000000000000000e+00 0.000000000000000e+00 0.000000000000000e+00
0.000000000000000e+00 0.000000000000000e+00 0.000000000000000e+00
0.000000000000000e+00 0.000000000000000e+00 0.000000000000000e+00

0.000000000000000e+00 0.000000000000000e+00 0.000000000000000e+00
0.000000000000000e+00 0.000000000000000e+00 0.000000000000000e+00
0.000000000000000e+00 0.000000000000000e+00 0.000000000000000e+00

0.000000000000000e+00 0.000000000000000e+00 0.000000000000000e+00
0.000000000000000e+00 0.000000000000000e+00 0.000000000000000e+00
0.000000000000000e+00 0.000000000000000e+00 0.000000000000000e+00

0.000000000000000e+00 0.000000000000000e+00 0.000000000000000e+00
0.000000000000000e+00 0.000000000000000e+00 0.000000000000000e+00
0.000000000000000e+00 0.000000000000000e+00 0.000000000000000e+00

0.000000000000000e+00 0.000000000000000e+00 0.000000000000000e+00
0.000000000000000e+00 0.000000000000000e+00 0.000000000000000e+00
0.000000000000000e+00 0.000000000000000e+00 0.000000000000000e+00

0.000000000000000e+00 0.000000000000000e+00 0.000000000000000e+00
0.000000000000000e+00 0.000000000000000e+00 0.000000000000000e+00
0.000000000000000e+00 0.000000000000000e+00 0.000000000000000e+00

0.000000000000000e+00 0.000000000000000e+00 0.000000000000000e+00
0.000000000000000e+00 0.000000000000000e+00 0.000000000000000e+00
0.000000000000000e+00 0.000000000000000e+00 0.000000000000000e+00

0.000000000000000e+00 0.000000000000000e+00 0.000000000000000e+00
0.000000000000000e+00 0.000000000000000e+00 0.000000000000000e+00
0.000000000000000e+00 0.000000000000000e+00 0.000000000000000e+00

0.000000000000000e+00 0.000000000000000e+00 0.000000000000000e+00
0.000000000000000e+00 0.000000000000000e+00 0.000000000000000e+00
0.000000000000000e+00 0.000000000000000e+00 0.000000000000000e+00

0.000000000000000e+00 0.000000000000000e+00 0.000000000000000e+00
0.000000000000000e+00 0.000000000000000e+00 0.000000000000000e+00
0.000000000000000e+00 0.000000000000000e+00 0.000000000000000e+00

0.000000000000000e+00 0.000000000000000e+00 0.000000000000000e+00
0.000000000000000e+00 0.000000000000000e+00 0.000000000000000e+00
0.000000000000000e+00 0.000000000000000e+00 0.000000000000000e+00

0.000000000000000e+00 0.000000000000000e+00 0.000000000000000e+00
0.000000000000000e+00 0.000000000000000e+00 0.000000000000000e+00
0.000000000000000e+00 0.000000000000000e+00 0.000000000000000e+00

0.000000000000000e+00 0.000000000000000e+00 0.000000000000000e+00
0.000000000000000e+00 0.000000000000000e+00 0.000000000000000e+00
0.000000000000000e+00 0.000000000000000e+00 0.000000000000000e+00

0.000000000000000e+00 0.000000000000000e+00 0.000000000000000e+00
0.000000000000000e+00 0.000000000000000e+00 0.000000000000000e+00
0.000000000000000e+00 0.000000000000000e+00 0.000000000000000e+00

0.000000000000000e+00 0.000000000000000e+00 0.000000000000000e+00
0.000000000000000e+00 0.000000000000000e+00 0.000000000000000e+00
0.000000000000000e+00 0.000000000000000e+00 0.000000000000000e+00

0.000000000000000e+00 0.000000000000000e+00 0.000000000000000e+00
0.000000000000000e+00 0.000000000000000e+00 0.000000000000000e+00
0.000000000000000e+00 0.000000000000000e+00 0.000000000000000e+00

0.000000000000000e+00 0.000000000000000e+00 0.000000000000000e+00
0.000000000000000e+00 0.000000000000000e+00 0.000000000000000e+00
0.000000000000000e+00 0.000000000000000e+00 0.000000000000000e+00

0.000000000000000e+00 0.000000000000000e+00 0.000000000000000e+00
0.000000000000000e+00 0.000000000000000e+00 0.000000000000000e+00
0.000000000000000e+00 0.000000000000000e+00 0.000000000000000e+00

0.000000000000000e+00 0.000000000000000e+00 0.000000000000000e+00
0.000000000000000e+00 0.000000000000000e+00 0.000000000000000e+00
0.000000000000000e+00 0.000000000000000e+00 0.000000000000000e+00

0.000000000000000e+00 0.000000000000000e+00 0.000000000000000e+00
0.000000000000000e+00 0.000000000000000e+00 0.000000000000000e+00
0.000000000000000e+00 0.000000000000000e+00 0.000000000000000e+00

0.000000000000000e+00 0.000000000000000e+00 0.000000000000000e+00
0.000000000000000e+00 0.000000000000000e+00 0.000000000000000e+00
0.000000000000000e+00 0.000000000000000e+00 0.000000000000000e+00

0.000000000000000e+00 0.000000000000000e+00 0.000000000000000e+00
0.000000000000000e+00 0.000000000000000e+00 0.000000000000000e+00
0.000000000000000e+00 0.000000000000000e+00 0.000000000000000e+00

0.000000000000000e+00 0.000000000000000e+00 0.000000000000000e+00
0.000000000000000e+00 0.000000000000000e+00 0.000000000000000e+00
0.000000000000000e+00 0.000000000000000e+00 0.000000000000000e+00

0.000000000000000e+00 0.000000000000000e+00 0.000000000000000e+00
0.000000000000000e+00 0.000000000000000e+00 0.000000000000000e+00
0.000000000000000e+00 0.000000000000000e+00 0.000000000000000e+00

0.000000000000000e+00 0.000000000000000e+00 0.000000000000000e+00
0.000000000000000e+00 0.000000000000000e+00 0.000000000000000e+00
0.000000000000000e+00 0.000000000000000e+00 0.000000000000000e+00

0.000000000000000e+00 0.000000000000000e+00 0.000000000000000e+00
0.000000000000000e+00 0.000000000000000e+00 0.000000000000000e+00
0.000000000000000e+00 0.000000000000000e+00 0.000000000000000e+00

0.000000000000000e+00 0.000000000000000e+00 0.000000000000000e+00
0.000000000000000e+00 0.000000000000000e+00 0.000000000000000e+00
0.000000000000000e+00 0.000000000000000e+00 0.000000000000000e+00

0.000000000000000e+00 0.000000000000000e+00 0.000000000000000e+00
0.000000000000000e+00 0.000000000000000e+00 0.000000000000000e+00
0.000000000000000e+00 0.000000000000000e+00 0.000000000000000e+00

0.000000000000000e+00 0.000000000000000e+00 0.000000000000000e+00
0.000000000000000e+00 0.000000000000000e+00 0.000000000000000e+00
0.000000000000000e+00 0.000000000000000e+00 0.000000000000000e+00

0.000000000000000e+00 0.000000000000000e+00 0.000000000000000e+00
0.000000000000000e+00 0.000000000000000e+00 0.000000000000000e+00
0.000000000000000e+00 0.000000000000000e+00 0.000000000000000e+00

0.000000000000000e+00 0.000000000000000e+00 0.000000000000000e+00
0.000000000000000e+00 0.000000000000000e+00 0.000000000000000e+00
0.000000000000000e+00 0.000000000000000e+00 0.000000000000000e+00

0.000000000000000e+00 0.000000000000000e+00 0.000000000000000e+00
0.000000000000000e+00 0.000000000000000e+00 0.000000000000000e+00
0.000000000000000e+00 0.000000000000000e+00 0.000000000000000e+00

0.000000000000000e+00 0.000000000000000e+00 0.000000000000000e+00
0.000000000000000e+00 0.000000000000000e+00 0.000000000000000e+00
0.000000000000000e+00 0.000000000000000e+00 0.000000000000000e+00

0.000000000000000e+00 0.000000000000000e+00 0.000000000000000e+00
0.000000000000000e+00 0.000000000000000e+00 0.000000000000000e+00
0.000000000000000e+00 0.000000000000000e+00 0.000000000000000e+00

0.000000000000000e+00 0.000000000000000e+00 0.000000000000000e+00
0.000000000000000e+00 0.000000000000000e+00 0.000000000000000e+00
0.000000000000000e+00 0.000000000000000e+00 0.000000000000000e+00

0.000000000000000e+00 0.000000000000000e+00 0.000000000000000e+00
0.000000000000000e+00 0.000000000000000e+00 0.000000000000000e+00
0.000000000000000e+00 0.000000000000000e+00 0.000000000000000e+00

0.000000000000000e+00 0.000000000000000e+00 0.000000000000000e+00
0.000000000000000e+00 0.000000000000000e+00 0.000000000000000e+00
0.000000000000000e+00 0.000000000000000e+00 0.000000000000000e+00

0.000000000000000e+00 0.000000000000000e+00 0.000000000000000e+00
0.000000000000000e+00 0.000000000000000e+00 0.000000000000000e+00
0.000000000000000e+00 0.000000000000000e+00 0.000000000000000e+00

0.000000000000000e+00 0.000000000000000e+00 0.000000000000000e+00
0.000000000000000e+00 0.000000000000000e+00 0.000000000000000e+00
0.000000000000000e+00 0.000000000000000e+00 0.000000000000000e+00

0.000000000000000e+00 0.000000000000000e+00 0.000000000000000e+00
0.000000000000000e+00 0.000000000000000e+00 0.000000000000000e+00
0.000000000000000e+00 0.000000000000000e+00 0.000000000000000e+00

0.000000000000000e+00 0.000000000000000e+00 0.000000000000000e+00
0.000000000000000e+00 0.000000000000000e+00 0.000000000000000e+00
0.000000000000000e+00 0.000000000000000e+00 0.000000000000000e+00

0.000000000000000e+00 0.000000000000000e+00 0.000000000000000e+00
0.000000000000000e+00 0.000000000000000e+00 0.000000000000000e+00
0.000000000000000e+00 0.000000000000000e+00 0.000000000000000e+00

0.000000000000000e+00 0.000000000000000e+00 0.000000000000000e+00
0.000000000000000e+00 0.000000000000000e+00 0.000000000000000e+00
0.000000000000000e+00 0.000000000000000e+00 0.000000000000000e+00

0.000000000000000e+00 0.000000000000000e+00 0.000000000000000e+00
0.000000000000000e+00 0.000000000000000e+00 0.000000000000000e+00
0.000000000000000e+00 0.000000000000000e+00 0.000000000000000e+00

0.000000000000000e+00 0.000000000000000e+00 0.000000000000000e+00
0.000000000000000e+00 0.000000000000000e+00 0.000000000000000e+00
0.000000000000000e+00 0.000000000000000e+00 0.000000000000000e+00

0.000000000000000e+00 0.000000000000000e+00 0.000000000000000e+00
0.000000000000000e+00 0.000000000000000e+00 0.000000000000000e+00
0.000000000000000e+00 0.000000000000000e+00 0.000000000000000e+00

0.000000000000000e+00 0.000000000000000e+00 0.000000000000000e+00
0.000000000000000e+00 0.000000000000000e+00 0.000000000000000e+00
0.000000000000000e+00 0.000000000000000e+00 0.000000000000000e+00

0.000000000000000e+00 0.000000000000000e+00 0.000000000000000e+00
0.000000000000000e+00 0.000000000000000e+00 0.000000000000000e+00
0.000000000000000e+00 0.000000000000000e+00 0.000000000000000e+00

0.000000000000000e+00 0.000000000000000e+00 0.000000000000000e+00
0.000000000000000e+00 0.000000000000000e+00 0.000000000000000e+00
0.000000000000000e+00 0.000000000000000e+00 0.000000000000000e+00

0.000000000000000e+00 0.000000000000000e+00 0.000000000000000e+00
0.000000000000000e+00 0.000000000000000e+00 0.000000000000000e+00
0.000000000000000e+00 0.000000000000000e+00 0.000000000000000e+00

0.000000000000000e+00 0.000000000000000e+00 0.000000000000000e+00
0.000000000000000e+00 0.000000000000000e+00 0.000000000000000e+00
0.000000000000000e+00 0.000000000000000e+00 0.000000000000000e+00

0.000000000000000e+00 0.000000000000000e+00 0.000000000000000e+00
0.000000000000000e+00 0.000000000000000e+00 0.000000000000000e+00
0.000000000000000e+00 0.000000000000000e+00 0.000000000000000e+00

0.000000000000000e+00 0.000000000000000e+00 0.000000000000000e+00
0.000000000000000e+00 0.000000000000000e+00 0.000000000000000e+00
0.000000000000000e+00 0.000000000000000e+00 0.000000000000000e+00

0.000000000000000e+00 0.000000000000000e+00 0.000000000000000e+00
0.000000000000000e+00 0.000000000000000e+00 0.000000000000000e+00
0.000000000000000e+00 0.000000000000000e+00 0.000000000000000e+00

0.000000000000000e+00 0.000000000000000e+00 0.000000000000000e+00
0.000000000000000e+00 0.000000000000000e+00 0.000000000000000e+00
0.000000000000000e+00 0.000000000000000e+00 0.000000000000000e+00

0.000000000000000e+00 0.000000000000000e+00 0.000000000000000e+00
0.000000000000000e+00 0.000000000000000e+00 0.000000000000000e+00
0.000000000000000e+00 0.000000000000000e+00 0.000000000000000e+00

0.000000000000000e+00 0.000000000000000e+00 0.000000000000000e+00
0.000000000000000e+00 0.000000000000000e+00 0.000000000000000e+00
0.000000000000000e+00 0.000000000000000e+00 0.000000000000000e+00

0.000000000000000e+00 0.000000000000000e+00 0.000000000000000e+00
0.000000000000000e+00 0.000000000000000e+00 0.000000000000000e+00
0.000000000000000e+00 0.000000000000000e+00 0.000000000000000e+00

0.000000000000000e+00 0.000000000000000e+00 0.000000000000000e+00
0.000000000000000e+00 0.000000000000000e+00 0.000000000000000e+00
0.000000000000000e+00 0.000000000000000e+00 0.000000000000000e+00

0.000000000000000e+00 0.000000000000000e+00 0.000000000000000e+00
0.000000000000000e+00 0.000000000000000e+00 0.000000000000000e+00
0.000000000000000e+00 0.000000000000000e+00 0.000000000000000e+00

0.000000000000000e+00 0.000000000000000e+00 0.000000000000000e+00
0.000000000000000e+00 0.000000000000000e+00 0.000000000000000e+00
0.000000000000000e+00 0.000000000000000e+00 0.000000000000000e+00

0.000000000000000e+00 0.000000000000000e+00 0.000000000000000e+00
0.000000000000000e+00 0.000000000000000e+00 0.000000000000000e+00
0.000000000000000e+00 0.000000000000000e+00 0.000000000000000e+00

0.000000000000000e+00 0.000000000000000e+00 0.000000000000000e+00
0.000000000000000e+00 0.000000000000000e+00 0.000000000000000e+00
0.000000000000000e+00 0.000000000000000e+00 0.000000000000000e+00

0.000000000000000e+00 0.000000000000000e+00 0.000000000000000e+00
0.000000000000000e+00 0.000000000000000e+00 0.000000000000000e+00
0.000000000000000e+00 0.000000000000000e+00 0.000000000000000e+00

0.000000000000000e+00 0.000000000000000e+00 0.000000000000000e+00
0.000000000000000e+00 0.000000000000000e+00 0.000000000000000e+00
0.000000000000000e+00 0.000000000000000e+00 0.000000000000000e+00

0.000000000000000e+00 0.000000000000000e+00 0.000000000000000e+00
0.000000000000000e+00 0.000000000000000e+00 0.000000000000000e+00
0.000000000000000e+00 0.000000000000000e+00 0.000000000000000e+00

0.000000000000000e+00 0.000000000000000e+00 0.000000000000000e+00
0.000000000000000e+00 0.000000000000000e+00 0.000000000000000e+00
0.000000000000000e+00 0.000000000000000e+00 0.000000000000000e+00

0.000000000000000e+00 0.000000000000000e+00 0.000000000000000e+00
0.000000000000000e+00 0.000000000000000e+00 0.000000000000000e+00
0.000000000000000e+00 0.000000000000000e+00 0.000000000000000e+00

0.000000000000000e+00 0.000000000000000e+00 0.000000000000000e+00
0.000000000000000e+00 0.000000000000000e+00 0.000000000000000e+00
0.000000000000000e+00 0.000000000000000e+00 0.000000000000000e+00

0.000000000000000e+00 0.000000000000000e+00 0.000000000000000e+00
0.000000000000000e+00 0.000000000000000e+00 0.000000000000000e+00
0.000000000000000e+00 0.000000000000000e+00 0.000000000000000e+00

0.000000000000000e+00 0.000000000000000e+00 0.000000000000000e+00
0.000000000000000e+00 0.000000000000000e+00 0.000000000000000e+00
0.000000000000000e+00 0.000000000000000e+00 0.000000000000000e+00

0.000000000000000e+00 0.000000000000000e+00 0.000000000000000e+00
0.000000000000000e+00 0.000000000000000e+00 0.000000000000000e+00
0.000000000000000e+00 0.000000000000000e+00 0.000000000000000e+00

0.000000000000000e+00 0.000000000000000e+00 0.000000000000000e+00
0.000000000000000e+00 0.000000000000000e+00 0.000000000000000e+00
0.000000000000000e+00 0.000000000000000e+00 0.000000000000000e+00

0.000000000000000e+00 0.000000000000000e+00 0.000000000000000e+00
0.000000000000000e+00 0.000000000000000e+00 0.000000000000000e+00
0.000000000000000e+00 0.000000000000000e+00 0.000000000000000e+00

0.000000000000000e+00 0.000000000000000e+00 0.000000000000000e+00
0.000000000000000e+00 0.000000000000000e+00 0.000000000000000e+00
0.000000000000000e+00 0.000000000000000e+00 0.000000000000000e+00

0.000000000000000e+00 0.000000000000000e+00 0.000000000000000e+00
0.000000000000000e+00 0.000000000000000e+00 0.000000000000000e+00
0.000000000000000e+00 0.000000000000000e+00 0.000000000000000e+00

0.000000000000000e+00 0.000000000000000e+00 0.000000000000000e+00
0.000000000000000e+00 0.000000000000000e+00 0.000000000000000e+00
0.000000000000000e+00 0.000000000000000e+00 0.000000000000000e+00

0.000000000000000e+00 0.000000000000000e+00 0.000000000000000e+00
0.000000000000000e+00 0.000000000000000e+00 0.000000000000000e+00
0.000000000000000e+00 0.000000000000000e+00 0.000000000000000e+00

0.000000000000000e+00 0.000000000000000e+00 0.000000000000000e+00
0.000000000000000e+00 0.000000000000000e+00 0.000000000000000e+00
0.000000000000000e+00 0.000000000000000e+00 0.000000000000000e+00

0.000000000000000e+00 0.000000000000000e+00 0.000000000000000e+00
0.000000000000000e+00 0.000000000000000e+00 0.000000000000000e+00
0.000000000000000e+00 0.000000000000000e+00 0.000000000000000e+00

0.000000000000000e+00 0.000000000000000e+00 0.000000000000000e+00
0.000000000000000e+00 0.000000000000000e+00 0.000000000000000e+00
0.000000000000000e+00 0.000000000000000e+00 0.000000000000000e+00

0.000000000000000e+00 0.000000000000000e+00 0.000000000000000e+00
0.000000000000000e+00 0.000000000000000e+00 0.000000000000000e+00
0.000000000000000e+00 0.000000000000000e+00 0.000000000000000e+00

0.000000000000000e+00 0.000000000000000e+00 0.000000000000000e+00
0.000000000000000e+00 0.000000000000000e+00 0.000000000000000e+00
0.000000000000000e+00 0.000000000000000e+00 0.000000000000000e+00

0.000000000000000e+00 0.000000000000000e+00 0.000000000000000e+00
0.000000000000000e+00 0.000000000000000e+00 0.000000000000000e+00
0.000000000000000e+00 0.000000000000000e+00 0.000000000000000e+00

0.000000000000000e+00 0.000000000000000e+00 0.000000000000000e+00
0.000000000000000e+00 0.000000000000000e+00 0.000000000000000e+00
0.000000000000000e+00 0.000000000000000e+00 0.000000000000000e+00

0.000000000000000e+00 0.000000000000000e+00 0.000000000000000e+00
0.000000000000000e+00 0.000000000000000e+00 0.000000000000000e+00
0.000000000000000e+00 0.000000000000000e+00 0.000000000000000e+00

0.000000000000000e+00 0.000000000000000e+00 0.000000000000000e+00
0.000000000000000e+00 0.000000000000000e+00 0.000000000000000e+00
0.000000000000000e+00 0.000000000000000e+00 0.000000000000000e+00

0.000000000000000e+00 0.000000000000000e+00 0.000000000000000e+00
0.000000000000000e+00 0.000000000000000e+00 0.000000000000000e+00
0.000000000000000e+00 0.000000000000000e+00 0.000000000000000e+00

0.000000000000000e+00 0.000000000000000e+00 0.000000000000000e+00
0.000000000000000e+00 0.000000000000000e+00 0.000000000000000e+00
0.000000000000000e+00 0.000000000000000e+00 0.000000000000000e+00

0.000000000000000e+00 0.000000000000000e+00 0.000000000000000e+00
0.000000000000000e+00 0.000000000000000e+00 0.000000000000000e+00
0.000000000000000e+00 0.000000000000000e+00 0.000000000000000e+00

0.000000000000000e+00 0.000000000000000e+00 0.000000000000000e+00
0.000000000000000e+00 0.000000000000000e+00 0.000000000000000e+00
0.000000000000000e+00 0.000000000000000e+00 0.000000000000000e+00

0.000000000000000e+00 0.000000000000000e+00 0.000000000000000e+00
0.000000000000000e+00 0.000000000000000e+00 0.000000000000000e+00
0.000000000000000e+00 0.000000000000000e+00 0.000000000000000e+00

0.000000000000000e+00 0.000000000000000e+00 0.000000000000000e+00
0.000000000000000e+00 0.000000000000000e+00 0.000000000000000e+00
0.000000000000000e+00 0.000000000000000e+00 0.000000000000000e+00

0.000000000000000e+00 0.000000000000000e+00 0.000000000000000e+00
0.000000000000000e+00 0.000000000000000e+00 0.000000000000000e+00
0.000000000000000e+00 0.000000000000000e+00 0.000000000000000e+00

0.000000000000000e+00 0.000000000000000e+00 0.000000000000000e+00
0.000000000000000e+00 0.000000000000000e+00 0.000000000000000e+00
0.000000000000000e+00 0.000000000000000e+00 0.000000000000000e+00

0.000000000000000e+00 0.000000000000000e+00 0.000000000000000e+00
0.000000000000000e+00 0.000000000000000e+00 0.000000000000000e+00
0.000000000000000e+00 0.000000000000000e+00 0.000000000000000e+00

0.000000000000000e+00 0.000000000000000e+00 0.000000000000000e+00
0.000000000000000e+00 0.000000000000000e+00 0.000000000000000e+00
0.000000000000000e+00 0.000000000000000e+00 0.000000000000000e+00

0.000000000000000e+00 0.000000000000000e+00 0.000000000000000e+00
0.000000000000000e+00 0.000000000000000e+00 0.000000000000000e+00
0.000000000000000e+00 0.000000000000000e+00 0.000000000000000e+00

0.000000000000000e+00 0.000000000000000e+00 0.000000000000000e+00
0.000000000000000e+00 0.000000000000000e+00 0.000000000000000e+00
0.000000000000000e+00 0.000000000000000e+00 0.000000000000000e+00

0.000000000000000e+00 0.000000000000000e+00 0.000000000000000e+00
0.000000000000000e+00 0.000000000000000e+00 0.000000000000000e+00
0.000000000000000e+00 0.000000000000000e+00 0.000000000000000e+00

0.000000000000000e+00 0.000000000000000e+00 0.000000000000000e+00
0.000000000000000e+00 0.000000000000000e+00 0.000000000000000e+00
0.000000000000000e+00 0.000000000000000e+00 0.000000000000000e+00

0.000000000000000e+00 0.000000000000000e+00 0.000000000000000e+00
0.000000000000000e+00 0.000000000000000e+00 0.000000000000000e+00
0.000000000000000e+00 0.000000000000000e+00 0.000000000000000e+00

0.000000000000000e+00 0.000000000000000e+00 0.000000000000000e+00
0.000000000000000e+00 0.000000000000000e+00 0.000000000000000e+00
0.000000000000000e+00 0.000000000000000e+00 0.000000000000000e+00

0.000000000000000e+00 0.000000000000000e+00 0.000000000000000e+00
0.000000000000000e+00 0.000000000000000e+00 0.000000000000000e+00
0.000000000000000e+00 0.000000000000000e+00 0.000000000000000e+00

0.000000000000000e+00 0.000000000000000e+00 0.000000000000000e+00
0.000000000000000e+00 0.000000000000000e+00 0.000000000000000e+00
0.000000000000000e+00 0.000000000000000e+00 0.000000000000000e+00

0.000000000000000e+00 0.000000000000000e+00 0.000000000000000e+00
0.000000000000000e+00 0.000000000000000e+00 0.000000000000000e+00
0.000000000000000e+00 0.000000000000000e+00 0.000000000000000e+00

0.000000000000000e+00 0.000000000000000e+00 0.000000000000000e+00
0.000000000000000e+00 0.000000000000000e+00 0.000000000000000e+00
0.000000000000000e+00 0.000000000000000e+00 0.000000000000000e+00

0.000000000000000e+00 0.000000000000000e+00 0.000000000000000e+00
0.000000000000000e+00 0.000000000000000e+00 0.000000000000000e+00
0.000000000000000e+00 0.000000000000000e+00 0.000000000000000e+00

0.000000000000000e+00 0.000000000000000e+00 0.000000000000000e+00
0.000000000000000e+00 0.000000000000000e+00 0.000000000000000e+00
0.000000000000000e+00 0.000000000000000e+00 0.000000000000000e+00

0.000000000000000e+00 0.000000000000000e+00 0.000000000000000e+00
0.000000000000000e+00 0.000000000000000e+00 0.000000000000000e+00
0.000000000000000e+00 0.000000000000000e+00 0.000000000000000e+00

0.000000000000000e+00 0.000000000000000e+00 0.000000000000000e+00
0.000000000000000e+00 0.000000000000000e+00 0.000000000000000e+00
0.000000000000000e+00 0.000000000000000e+00 0.000000000000000e+00

0.000000000000000e+00 0.000000000000000e+00 0.000000000000000e+00
0.000000000000000e+00 0.000000000000000e+00 0.000000000000000e+00
0.000000000000000e+00 0.000000000000000e+00 0.000000000000000e+00

0.000000000000000e+00 0.000000000000000e+00 0.000000000000000e+00
0.000000000000000e+00 0.000000000000000e+00 0.000000000000000e+00
0.000000000000000e+00 0.000000000000000e+00 0.000000000000000e+00

0.000000000000000e+00 0.000000000000000e+00 0.000000000000000e+00
0.000000000000000e+00 0.000000000000000e+00 0.000000000000000e+00
0.000000000000000e+00 0.000000000000000e+00 0.000000000000000e+00

0.000000000000000e+00 0.000000000000000e+00 0.000000000000000e+00
0.000000000000000e+00 0.000000000000000e+00 0.000000000000000e+00
0.000000000000000e+00 0.000000000000000e+00 0.000000000000000e+00

0.000000000000000e+00 0.000000000000000e+00 0.000000000000000e+00
0.000000000000000e+00 0.000000000000000e+00 0.000000000000000e+00
0.000000000000000e+00 0.000000000000000e+00 0.000000000000000e+00

0.000000000000000e+00 0.000000000000000e+00 0.000000000000000e+00
0.000000000000000e+00 0.000000000000000e+00 0.000000000000000e+00
0.000000000000000e+00 0.000000000000000e+00 0.000000000000000e+00

0.000000000000000e+00 0.000000000000000e+00 0.000000000000000e+00
0.000000000000000e+00 0.000000000000000e+00 0.000000000000000e+00
0.000000000000000e+00 0.000000000000000e+00 0.000000000000000e+00

0.000000000000000e+00 0.000000000000000e+00 0.000000000000000e+00
0.000000000000000e+00 0.000000000000000e+00 0.000000000000000e+00
0.000000000000000e+00 0.000000000000000e+00 0.000000000000000e+00

0.000000000000000e+00 0.000000000000000e+00 0.000000000000000e+00
0.000000000000000e+00 0.000000000000000e+00 0.000000000000000e+00
0.000000000000000e+00 0.000000000000000e+00 0.000000000000000e+00

0.000000000000000e+00 0.000000000000000e+00 0.000000000000000e+00
0.000000000000000e+00 0.000000000000000e+00 0.000000000000000e+00
0.000000000000000e+00 0.000000000000000e+00 0.000000000000000e+00

0.000000000000000e+00 0.000000000000000e+00 0.000000000000000e+00
0.000000000000000e+00 0.000000000000000e+00 0.000000000000000e+00
0.000000000000000e+00 0.000000000000000e+00 0.000000000000000e+00

0.000000000000000e+00 0.000000000000000e+00 0.000000000000000e+00
0.000000000000000e+00 0.000000000000000e+00 0.000000000000000e+00
0.000000000000000e+00 0.000000000000000e+00 0.000000000000000e+00

0.000000000000000e+00 0.000000000000000e+00 0.000000000000000e+00
0.000000000000000e+00 0.000000000000000e+00 0.000000000000000e+00
0.000000000000000e+00 0.000000000000000e+00 0.000000000000000e+00

0.000000000000000e+00 0.000000000000000e+00 0.000000000000000e+00
0.000000000000000e+00 0.000000000000000e+00 0.000000000000000e+00
0.000000000000000e+00 0.000000000000000e+00 0.000000000000000e+00

0.000000000000000e+00 0.000000000000000e+00 0.000000000000000e+00
0.000000000000000e+00 0.000000000000000e+00 0.000000000000000e+00
0.000000000000000e+00 0.000000000000000e+00 0.000000000000000e+00

0.000000000000000e+00 0.000000000000000e+00 0.000000000000000e+00
0.000000000000000e+00 0.000000000000000e+00 0.000000000000000e+00
0.000000000000000e+00 0.000000000000000e+00 0.000000000000000e+00

0.000000000000000e+00 0.000000000000000e+00 0.000000000000000e+00
0.000000000000000e+00 0.000000000000000e+00 0.000000000000000e+00
0.000000000000000e+00 0.000000000000000e+00 0.000000000000000e+00

0.000000000000000e+00 0.000000000000000e+00 0.000000000000000e+00
0.000000000000000e+00 0.000000000000000e+00 0.000000000000000e+00
0.000000000000000e+00 0.000000000000000e+00 0.000000000000000e+00

0.000000000000000e+00 0.000000000000000e+00 0.000000000000000e+00
0.000000000000000e+00 0.000000000000000e+00 0.000000000000000e+00
0.000000000000000e+00 0.000000000000000e+00 0.000000000000000e+00

0.000000000000000e+00 0.000000000000000e+00 0.000000000000000e+00
0.000000000000000e+00 0.000000000000000e+00 0.000000000000000e+00
0.000000000000000e+00 0.000000000000000e+00 0.000000000000000e+00

0.000000000000000e+00 0.000000000000000e+00 0.000000000000000e+00
0.000000000000000e+00 0.000000000000000e+00 0.000000000000000e+00
0.000000000000000e+00 0.000000000000000e+00 0.000000000000000e+00

0.000000000000000e+00 0.000000000000000e+00 0.000000000000000e+00
0.000000000000000e+00 0.000000000000000e+00 0.000000000000000e+00
0.000000000000000e+00 0.000000000000000e+00 0.000000000000000e+00

0.000000000000000e+00 0.000000000000000e+00 0.000000000000000e+00
0.000000000000000e+00 0.000000000000000e+00 0.000000000000000e+00
0.000000000000000e+00 0.000000000000000e+00 0.000000000000000e+00

0.000000000000000e+00 0.000000000000000e+00 0.000000000000000e+00
0.000000000000000e+00 0.000000000000000e+00 0.000000000000000e+00
0.000000000000000e+00 0.000000000000000e+00 0.000000000000000e+00

0.000000000000000e+00 0.000000000000000e+00 0.000000000000000e+00
0.000000000000000e+00 0.000000000000000e+00 0.000000000000000e+00
0.000000000000000e+00 0.000000000000000e+00 0.000000000000000e+00

0.000000000000000e+00 0.000000000000000e+00 0.000000000000000e+00
0.000000000000000e+00 0.000000000000000e+00 0.000000000000000e+00
0.000000000000000e+00 0.000000000000000e+00 0.000000000000000e+00

0.000000000000000e+00 0.000000000000000e+00 0.000000000000000e+00
0.000000000000000e+00 0.000000000000000e+00 0.000000000000000e+00
0.000000000000000e+00 0.000000000000000e+00 0.000000000000000e+00

0.000000000000000e+00 0.000000000000000e+00 0.000000000000000e+00
0.000000000000000e+00 0.000000000000000e+00 0.000000000000000e+00
0.000000000000000e+00 0.000000000000000e+00 0.000000000000000e+00

0.000000000000000e+00 0.000000000000000e+00 0.000000000000000e+00
0.000000000000000e+00 0.000000000000000e+00 0.000000000000000e+00
0.000000000000000e+00 0.000000000000000e+00 0.000000000000000e+00

0.000000000000000e+00 0.000000000000000e+00 0.000000000000000e+00
0.000000000000000e+00 0.000000000000000e+00 0.000000000000000e+00
0.000000000000000e+00 0.000000000000000e+00 0.000000000000000e+00

0.000000000000000e+00 0.000000000000000e+00 0.000000000000000e+00
0.000000000000000e+00 0.000000000000000e+00 0.000000000000000e+00
0.000000000000000e+00 0.000000000000000e+00 0.000000000000000e+00

0.000000000000000e+00 0.000000000000000e+00 0.000000000000000e+00
0.000000000000000e+00 0.000000000000000e+00 0.000000000000000e+00
0.000000000000000e+00 0.000000000000000e+00 0.000000000000000e+00

0.000000000000000e+00 0.000000000000000e+00 0.000000000000000e+00
0.000000000000000e+00 0.000000000000000e+00 0.000000000000000e+00
0.000000000000000e+00 0.000000000000000e+00 0.000000000000000e+00

0.000000000000000e+00 0.000000000000000e+00 0.000000000000000e+00
0.000000000000000e+00 0.000000000000000e+00 0.000000000000000e+00
0.000000000000000e+00 0.000000000000000e+00 0.000000000000000e+00

0.000000000000000e+00 0.000000000000000e+00 0.000000000000000e+00
0.000000000000000e+00 0.000000000000000e+00 0.000000000000000e+00
0.000000000000000e+00 0.000000000000000e+00 0.000000000000000e+00

0.000000000000000e+00 0.000000000000000e+00 0.000000000000000e+00
0.000000000000000e+00 0.000000000000000e+00 0.000000000000000e+00
0.000000000000000e+00 0.000000000000000e+00 0.000000000000000e+00

0.000000000000000e+00 0.000000000000000e+00 0.000000000000000e+00
0.000000000000000e+00 0.000000000000000e+00 0.000000000000000e+00
0.000000000000000e+00 0.000000000000000e+00 0.000000000000000e+00

0.000000000000000e+00 0.000000000000000e+00 0.000000000000000e+00
0.000000000000000e+00 0.000000000000000e+00 0.000000000000000e+00
0.000000000000000e+00 0.000000000000000e+00 0.000000000000000e+00

0.000000000000000e+00 0.000000000000000e+00 0.000000000000000e+00
0.000000000000000e+00 0.000000000000000e+00 0.000000000000000e+00
0.000000000000000e+00 0.000000000000000e+00 0.000000000000000e+00

0.000000000000000e+00 0.000000000000000e+00 0.000000000000000e+00
0.000000000000000e+00 0.000000000000000e+00 0.000000000000000e+00
0.000000000000000e+00 0.000000000000000e+00 0.000000000000000e+00

0.000000000000000e+00 0.000000000000000e+00 0.000000000000000e+00
0.000000000000000e+00 0.000000000000000e+00 0.000000000000000e+00
0.000000000000000e+00 0.000000000000000e+00 0.000000000000000e+00

0.000000000000000e+00 0.000000000000000e+00 0.000000000000000e+00
0.000000000000000e+00 0.000000000000000e+00 0.000000000000000e+00
0.000000000000000e+00 0.000000000000000e+00 0.000000000000000e+00

0.000000000000000e+00 0.000000000000000e+00 0.000000000000000e+00
0.000000000000000e+00 0.000000000000000e+00 0.000000000000000e+00
0.000000000000000e+00 0.000000000000000e+00 0.000000000000000e+00

0.000000000000000e+00 0.000000000000000e+00 0.000000000000000e+00
0.000000000000000e+00 0.000000000000000e+00 0.000000000000000e+00
0.000000000000000e+00 0.000000000000000e+00 0.000000000000000e+00

0.000000000000000e+00 0.000000000000000e+00 0.000000000000000e+00
0.000000000000000e+00 0.000000000000000e+00 0.000000000000000e+00
0.000000000000000e+00 0.000000000000000e+00 0.000000000000000e+00

0.000000000000000e+00 0.000000000000000e+00 0.000000000000000e+00
0.000000000000000e+00 0.000000000000000e+00 0.000000000000000e+00
0.000000000000000e+00 0.000000000000000e+00 0.000000000000000e+00

0.000000000000000e+00 0.000000000000000e+00 0.000000000000000e+00
0.000000000000000e+00 0.000000000000000e+00 0.000000000000000e+00
0.000000000000000e+00 0.000000000000000e+00 0.000000000000000e+00

0.000000000000000e+00 0.000000000000000e+00 0.000000000000000e+00
0.000000000000000e+00 0.000000000000000e+00 0.000000000000000e+00
0.000000000000000e+00 0.000000000000000e+00 0.000000000000000e+00

0.000000000000000e+00 0.000000000000000e+00 0.000000000000000e+00
0.000000000000000e+00 0.000000000000000e+00 0.000000000000000e+00
0.000000000000000e+00 0.000000000000000e+00 0.000000000000000e+00

0.000000000000000e+00 0.000000000000000e+00 0.000000000000000e+00
0.000000000000000e+00 0.000000000000000e+00 0.000000000000000e+00
0.000000000000000e+00 0.000000000000000e+00 0.000000000000000e+00

0.000000000000000e+00 0.000000000000000e+00 0.000000000000000e+00
0.000000000000000e+00 0.000000000000000e+00 0.000000000000000e+00
0.000000000000000e+00 0.000000000000000e+00 0.000000000000000e+00

0.000000000000000e+00 0.000000000000000e+00 0.000000000000000e+00
0.000000000000000e+00 0.000000000000000e+00 0.000000000000000e+00
0.000000000000000e+00 0.000000000000000e+00 0.000000000000000e+00

0.000000000000000e+00 0.000000000000000e+00 0.000000000000000e+00
0.000000000000000e+00 0.000000000000000e+00 0.000000000000000e+00
0.000000000000000e+00 0.000000000000000e+00 0.000000000000000e+00

0.000000000000000e+00 0.000000000000000e+00 0.000000000000000e+00
0.000000000000000e+00 0.000000000000000e+00 0.000000000000000e+00
0.000000000000000e+00 0.000000000000000e+00 0.000000000000000e+00

0.000000000000000e+00 0.000000000000000e+00 0.000000000000000e+00
0.000000000000000e+00 0.000000000000000e+00 0.000000000000000e+00
0.000000000000000e+00 0.000000000000000e+00 0.000000000000000e+00

0.000000000000000e+00 0.000000000000000e+00 0.000000000000000e+00
0.000000000000000e+00 0.000000000000000e+00 0.000000000000000e+00
0.000000000000000e+00 0.000000000000000e+00 0.000000000000000e+00

0.000000000000000e+00 0.000000000000000e+00 0.000000000000000e+00
0.000000000000000e+00 0.000000000000000e+00 0.000000000000000e+00
0.000000000000000e+00 0.000000000000000e+00 0.000000000000000e+00

0.000000000000000e+00 0.000000000000000e+00 0.000000000000000e+00
0.000000000000000e+00 0.000000000000000e+00 0.000000000000000e+00
0.000000000000000e+00 0.000000000000000e+00 0.000000000000000e+00

0.000000000000000e+00 0.000000000000000e+00 0.000000000000000e+00
0.000000000000000e+00 0.000000000000000e+00 0.000000000000000e+00
0.000000000000000e+00 0.000000000000000e+00 0.000000000000000e+00

0.000000000000000e+00 0.000000000000000e+00 0.000000000000000e+00
0.000000000000000e+00 0.000000000000000e+00 0.000000000000000e+00
0.000000000000000e+00 0.000000000000000e+00 0.000000000000000e+00

0.000000000000000e+00 0.000000000000000e+00 0.000000000000000e+00
0.000000000000000e+00 0.000000000000000e+00 0.000000000000000e+00
0.000000000000000e+00 0.000000000000000e+00 0.000000000000000e+00

0.000000000000000e+00 0.000000000000000e+00 0.000000000000000e+00
0.000000000000000e+00 0.000000000000000e+00 0.000000000000000e+00
0.000000000000000e+00 0.000000000000000e+00 0.000000000000000e+00

0.000000000000000e+00 0.000000000000000e+00 0.000000000000000e+00
0.000000000000000e+00 0.000000000000000e+00 0.000000000000000e+00
0.000000000000000e+00 0.000000000000000e+00 0.000000000000000e+00

0.000000000000000e+00 0.000000000000000e+00 0.000000000000000e+00
0.000000000000000e+00 0.000000000000000e+00 0.000000000000000e+00
0.000000000000000e+00 0.000000000000000e+00 0.000000000000000e+00

0.000000000000000e+00 0.000000000000000e+00 0.000000000000000e+00
0.000000000000000e+00 0.000000000000000e+00 0.000000000000000e+00
0.000000000000000e+00 0.000000000000000e+00 0.000000000000000e+00

0.000000000000000e+00 0.000000000000000e+00 0.000000000000000e+00
0.000000000000000e+00 0.000000000000000e+00 0.000000000000000e+00
0.000000000000000e+00 0.000000000000000e+00 0.000000000000000e+00

0.000000000000000e+00 0.000000000000000e+00 0.000000000000000e+00
0.000000000000000e+00 0.000000000000000e+00 0.000000000000000e+00
0.000000000000000e+00 0.000000000000000e+00 0.000000000000000e+00

0.000000000000000e+00 0.000000000000000e+00 0.000000000000000e+00
0.000000000000000e+00 0.000000000000000e+00 0.000000000000000e+00
0.000000000000000e+00 0.000000000000000e+00 0.000000000000000e+00

0.000000000000000e+00 0.000000000000000e+00 0.000000000000000e+00
0.000000000000000e+00 0.000000000000000e+00 0.000000000000000e+00
0.000000000000000e+00 0.000000000000000e+00 0.000000000000000e+00

0.000000000000000e+00 0.000000000000000e+00 0.000000000000000e+00
0.000000000000000e+00 0.000000000000000e+00 0.000000000000000e+00
0.000000000000000e+00 0.000000000000000e+00 0.000000000000000e+00

0.000000000000000e+00 0.000000000000000e+00 0.000000000000000e+00
0.000000000000000e+00 0.000000000000000e+00 0.000000000000000e+00
0.000000000000000e+00 0.000000000000000e+00 0.000000000000000e+00

0.000000000000000e+00 0.000000000000000e+00 0.000000000000000e+00
0.000000000000000e+00 0.000000000000000e+00 0.000000000000000e+00
0.000000000000000e+00 0.000000000000000e+00 0.000000000000000e+00

0.000000000000000e+00 0.000000000000000e+00 0.000000000000000e+00
0.000000000000000e+00 0.000000000000000e+00 0.000000000000000e+00
0.000000000000000e+00 0.000000000000000e+00 0.000000000000000e+00

0.000000000000000e+00 0.000000000000000e+00 0.000000000000000e+00
0.000000000000000e+00 0.000000000000000e+00 0.000000000000000e+00
0.000000000000000e+00 0.000000000000000e+00 0.000000000000000e+00

0.000000000000000e+00 0.000000000000000e+00 0.000000000000000e+00
0.000000000000000e+00 0.000000000000000e+00 0.000000000000000e+00
0.000000000000000e+00 0.000000000000000e+00 0.000000000000000e+00

0.000000000000000e+00 0.000000000000000e+00 0.000000000000000e+00
0.000000000000000e+00 0.000000000000000e+00 0.000000000000000e+00
0.000000000000000e+00 0.000000000000000e+00 0.000000000000000e+00

0.000000000000000e+00 0.000000000000000e+00 0.000000000000000e+00
0.000000000000000e+00 0.000000000000000e+00 0.000000000000000e+00
0.000000000000000e+00 0.000000000000000e+00 0.000000000000000e+00

0.000000000000000e+00 0.000000000000000e+00 0.000000000000000e+00
0.000000000000000e+00 0.000000000000000e+00 0.000000000000000e+00
0.000000000000000e+00 0.000000000000000e+00 0.000000000000000e+00

0.000000000000000e+00 0.000000000000000e+00 0.000000000000000e+00
0.000000000000000e+00 0.000000000000000e+00 0.000000000000000e+00
0.000000000000000e+00 0.000000000000000e+00 0.000000000000000e+00

0.000000000000000e+00 0.000000000000000e+00 0.000000000000000e+00
0.000000000000000e+00 0.000000000000000e+00 0.000000000000000e+00
0.000000000000000e+00 0.000000000000000e+00 0.000000000000000e+00

0.000000000000000e+00 0.000000000000000e+00 0.000000000000000e+00
0.000000000000000e+00 0.000000000000000e+00 0.000000000000000e+00
0.000000000000000e+00 0.000000000000000e+00 0.000000000000000e+00

0.000000000000000e+00 0.000000000000000e+00 0.000000000000000e+00
0.000000000000000e+00 0.000000000000000e+00 0.000000000000000e+00
0.000000000000000e+00 0.000000000000000e+00 0.000000000000000e+00

0.000000000000000e+00 0.000000000000000e+00 0.000000000000000e+00
0.000000000000000e+00 0.000000000000000e+00 0.000000000000000e+00
0.000000000000000e+00 0.000000000000000e+00 0.000000000000000e+00

0.000000000000000e+00 0.000000000000000e+00 0.000000000000000e+00
0.000000000000000e+00 0.000000000000000e+00 0.000000000000000e+00
0.000000000000000e+00 0.000000000000000e+00 0.000000000000000e+00

0.000000000000000e+00 0.000000000000000e+00 0.000000000000000e+00
0.000000000000000e+00 0.000000000000000e+00 0.000000000000000e+00
0.000000000000000e+00 0.000000000000000e+00 0.000000000000000e+00

0.000000000000000e+00 0.000000000000000e+00 0.000000000000000e+00
0.000000000000000e+00 0.000000000000000e+00 0.000000000000000e+00
0.000000000000000e+00 0.000000000000000e+00 0.000000000000000e+00

0.000000000000000e+00 0.000000000000000e+00 0.000000000000000e+00
0.000000000000000e+00 0.000000000000000e+00 0.000000000000000e+00
0.000000000000000e+00 0.000000000000000e+00 0.000000000000000e+00

0.000000000000000e+00 0.000000000000000e+00 0.000000000000000e+00
0.000000000000000e+00 0.000000000000000e+00 0.000000000000000e+00
0.000000000000000e+00 0.000000000000000e+00 0.000000000000000e+00

0.000000000000000e+00 0.000000000000000e+00 0.000000000000000e+00
0.000000000000000e+00 0.000000000000000e+00 0.000000000000000e+00
0.000000000000000e+00 0.000000000000000e+00 0.000000000000000e+00

0.000000000000000e+00 0.000000000000000e+00 0.000000000000000e+00
0.000000000000000e+00 0.000000000000000e+00 0.000000000000000e+00
0.000000000000000e+00 0.000000000000000e+00 0.000000000000000e+00

0.000000000000000e+00 0.000000000000000e+00 0.000000000000000e+00
0.000000000000000e+00 0.000000000000000e+00 0.000000000000000e+00
0.000000000000000e+00 0.000000000000000e+00 0.000000000000000e+00

0.000000000000000e+00 0.000000000000000e+00 0.000000000000000e+00
0.000000000000000e+00 0.000000000000000e+00 0.000000000000000e+00
0.000000000000000e+00 0.000000000000000e+00 0.000000000000000e+00

0.000000000000000e+00 0.000000000000000e+00 0.000000000000000e+00
0.000000000000000e+00 0.000000000000000e+00 0.000000000000000e+00
0.000000000000000e+00 0.000000000000000e+00 0.000000000000000e+00

0.000000000000000e+00 0.000000000000000e+00 0.000000000000000e+00
0.000000000000000e+00 0.000000000000000e+00 0.000000000000000e+00
0.000000000000000e+00 0.000000000000000e+00 0.000000000000000e+00

0.000000000000000e+00 0.000000000000000e+00 0.000000000000000e+00
0.000000000000000e+00 0.000000000000000e+00 0.000000000000000e+00
0.000000000000000e+00 0.000000000000000e+00 0.000000000000000e+00

0.000000000000000e+00 0.000000000000000e+00 0.000000000000000e+00
0.000000000000000e+00 0.000000000000000e+00 0.000000000000000e+00
0.000000000000000e+00 0.000000000000000e+00 0.000000000000000e+00

0.000000000000000e+00 0.000000000000000e+00 0.000000000000000e+00
0.000000000000000e+00 0.000000000000000e+00 0.000000000000000e+00
0.000000000000000e+00 0.000000000000000e+00 0.000000000000000e+00

0.000000000000000e+00 0.000000000000000e+00 0.000000000000000e+00
0.000000000000000e+00 0.000000000000000e+00 0.000000000000000e+00
0.000000000000000e+00 0.000000000000000e+00 0.000000000000000e+00

0.000000000000000e+00 0.000000000000000e+00 0.000000000000000e+00
0.000000000000000e+00 0.000000000000000e+00 0.000000000000000e+00
0.000000000000000e+00 0.000000000000000e+00 0.000000000000000e+00

0.000000000000000e+00 0.000000000000000e+00 0.000000000000000e+00
0.000000000000000e+00 0.000000000000000e+00 0.000000000000000e+00
0.000000000000000e+00 0.000000000000000e+00 0.000000000000000e+00

0.000000000000000e+00 0.000000000000000e+00 0.000000000000000e+00
0.000000000000000e+00 0.000000000000000e+00 0.000000000000000e+00
0.000000000000000e+00 0.000000000000000e+00 0.000000000000000e+00

0.000000000000000e+00 0.000000000000000e+00 0.000000000000000e+00
0.000000000000000e+00 0.000000000000000e+00 0.000000000000000e+00
0.000000000000000e+00 0.000000000000000e+00 0.000000000000000e+00

0.000000000000000e+00 0.000000000000000e+00 0.000000000000000e+00
0.000000000000000e+00 0.000000000000000e+00 0.000000000000000e+00
0.000000000000000e+00 0.000000000000000e+00 0.000000000000000e+00

0.000000000000000e+00 0.000000000000000e+00 0.000000000000000e+00
0.000000000000000e+00 0.000000000000000e+00 0.000000000000000e+00
0.000000000000000e+00 0.000000000000000e+00 0.000000000000000e+00

0.000000000000000e+00 0.000000000000000e+00 0.000000000000000e+00
0.000000000000000e+00 0.000000000000000e+00 0.000000000000000e+00
0.000000000000000e+00 0.000000000000000e+00 0.000000000000000e+00

0.000000000000000e+00 0.000000000000000e+00 0.000000000000000e+00
0.000000000000000e+00 0.000000000000000e+00 0.000000000000000e+00
0.000000000000000e+00 0.000000000000000e+00 0.000000000000000e+00

0.000000000000000e+00 0.000000000000000e+00 0.000000000000000e+00
0.000000000000000e+00 0.000000000000000e+00 0.000000000000000e+00
0.000000000000000e+00 0.000000000000000e+00 0.000000000000000e+00

0.000000000000000e+00 0.000000000000000e+00 0.000000000000000e+00
0.000000000000000e+00 0.000000000000000e+00 0.000000000000000e+00
0.000000000000000e+00 0.000000000000000e+00 0.000000000000000e+00

0.000000000000000e+00 0.000000000000000e+00 0.000000000000000e+00
0.000000000000000e+00 0.000000000000000e+00 0.000000000000000e+00
0.000000000000000e+00 0.000000000000000e+00 0.000000000000000e+00

0.000000000000000e+00 0.000000000000000e+00 0.000000000000000e+00
0.000000000000000e+00 0.000000000000000e+00 0.000000000000000e+00
0.000000000000000e+00 0.000000000000000e+00 0.000000000000000e+00

0.000000000000000e+00 0.000000000000000e+00 0.000000000000000e+00
0.000000000000000e+00 0.000000000000000e+00 0.000000000000000e+00
0.000000000000000e+00 0.000000000000000e+00 0.000000000000000e+00

0.000000000000000e+00 0.000000000000000e+00 0.000000000000000e+00
0.000000000000000e+00 0.000000000000000e+00 0.000000000000000e+00
0.000000000000000e+00 0.000000000000000e+00 0.000000000000000e+00

0.000000000000000e+00 0.000000000000000e+00 0.000000000000000e+00
0.000000000000000e+00 0.000000000000000e+00 0.000000000000000e+00
0.000000000000000e+00 0.000000000000000e+00 0.000000000000000e+00

0.000000000000000e+00 0.000000000000000e+00 0.000000000000000e+00
0.000000000000000e+00 0.000000000000000e+00 0.000000000000000e+00
0.000000000000000e+00 0.000000000000000e+00 0.000000000000000e+00

0.000000000000000e+00 0.000000000000000e+00 0.000000000000000e+00
0.000000000000000e+00 0.000000000000000e+00 0.000000000000000e+00
0.000000000000000e+00 0.000000000000000e+00 0.000000000000000e+00

0.000000000000000e+00 0.000000000000000e+00 0.000000000000000e+00
0.000000000000000e+00 0.000000000000000e+00 0.000000000000000e+00
0.000000000000000e+00 0.000000000000000e+00 0.000000000000000e+00

0.000000000000000e+00 0.000000000000000e+00 0.000000000000000e+00
0.000000000000000e+00 0.000000000000000e+00 0.000000000000000e+00
0.000000000000000e+00 0.000000000000000e+00 0.000000000000000e+00

0.000000000000000e+00 0.000000000000000e+00 0.000000000000000e+00
0.000000000000000e+00 0.000000000000000e+00 0.000000000000000e+00
0.000000000000000e+00 0.000000000000000e+00 0.000000000000000e+00

0.000000000000000e+00 0.000000000000000e+00 0.000000000000000e+00
0.000000000000000e+00 0.000000000000000e+00 0.000000000000000e+00
0.000000000000000e+00 0.000000000000000e+00 0.000000000000000e+00

0.000000000000000e+00 0.000000000000000e+00 0.000000000000000e+00
0.000000000000000e+00 0.000000000000000e+00 0.000000000000000e+00
0.000000000000000e+00 0.000000000000000e+00 0.000000000000000e+00

0.000000000000000e+00 0.000000000000000e+00 0.000000000000000e+00
0.000000000000000e+00 0.000000000000000e+00 0.000000000000000e+00
0.000000000000000e+00 0.000000000000000e+00 0.000000000000000e+00

0.000000000000000e+00 0.000000000000000e+00 0.000000000000000e+00
0.000000000000000e+00 0.000000000000000e+00 0.000000000000000e+00
0.000000000000000e+00 0.000000000000000e+00 0.000000000000000e+00

0.000000000000000e+00 0.000000000000000e+00 0.000000000000000e+00
0.000000000000000e+00 0.000000000000000e+00 0.000000000000000e+00
0.000000000000000e+00 0.000000000000000e+00 0.000000000000000e+00

0.000000000000000e+00 0.000000000000000e+00 0.000000000000000e+00
0.000000000000000e+00 0.000000000000000e+00 0.000000000000000e+00
0.000000000000000e+00 0.000000000000000e+00 0.000000000000000e+00

0.000000000000000e+00 0.000000000000000e+00 0.000000000000000e+00
0.000000000000000e+00 0.000000000000000e+00 0.000000000000000e+00
0.000000000000000e+00 0.000000000000000e+00 0.000000000000000e+00

0.000000000000000e+00 0.000000000000000e+00 0.000000000000000e+00
0.000000000000000e+00 0.000000000000000e+00 0.000000000000000e+00
0.000000000000000e+00 0.000000000000000e+00 0.000000000000000e+00

0.000000000000000e+00 0.000000000000000e+00 0.000000000000000e+00
0.000000000000000e+00 0.000000000000000e+00 0.000000000000000e+00
0.000000000000000e+00 0.000000000000000e+00 0.000000000000000e+00

0.000000000000000e+00 0.000000000000000e+00 0.000000000000000e+00
0.000000000000000e+00 0.000000000000000e+00 0.000000000000000e+00
0.000000000000000e+00 0.000000000000000e+00 0.000000000000000e+00

0.000000000000000e+00 0.000000000000000e+00 0.000000000000000e+00
0.000000000000000e+00 0.000000000000000e+00 0.000000000000000e+00
0.000000000000000e+00 0.000000000000000e+00 0.000000000000000e+00

0.000000000000000e+00 0.000000000000000e+00 0.000000000000000e+00
0.000000000000000e+00 0.000000000000000e+00 0.000000000000000e+00
0.000000000000000e+00 0.000000000000000e+00 0.000000000000000e+00

0.000000000000000e+00 0.000000000000000e+00 0.000000000000000e+00
0.000000000000000e+00 0.000000000000000e+00 0.000000000000000e+00
0.000000000000000e+00 0.000000000000000e+00 0.000000000000000e+00

0.000000000000000e+00 0.000000000000000e+00 0.000000000000000e+00
0.000000000000000e+00 0.000000000000000e+00 0.000000000000000e+00
0.000000000000000e+00 0.000000000000000e+00 0.000000000000000e+00

0.000000000000000e+00 0.000000000000000e+00 0.000000000000000e+00
0.000000000000000e+00 0.000000000000000e+00 0.000000000000000e+00
0.000000000000000e+00 0.000000000000000e+00 0.000000000000000e+00

0.000000000000000e+00 0.000000000000000e+00 0.000000000000000e+00
0.000000000000000e+00 0.000000000000000e+00 0.000000000000000e+00
0.000000000000000e+00 0.000000000000000e+00 0.000000000000000e+00

0.000000000000000e+00 0.000000000000000e+00 0.000000000000000e+00
0.000000000000000e+00 0.000000000000000e+00 0.000000000000000e+00
0.000000000000000e+00 0.000000000000000e+00 0.000000000000000e+00

0.000000000000000e+00 0.000000000000000e+00 0.000000000000000e+00
0.000000000000000e+00 0.000000000000000e+00 0.000000000000000e+00
0.000000000000000e+00 0.000000000000000e+00 0.000000000000000e+00

0.000000000000000e+00 0.000000000000000e+00 0.000000000000000e+00
0.000000000000000e+00 0.000000000000000e+00 0.000000000000000e+00
0.000000000000000e+00 0.000000000000000e+00 0.000000000000000e+00

0.000000000000000e+00 0.000000000000000e+00 0.000000000000000e+00
0.000000000000000e+00 0.000000000000000e+00 0.000000000000000e+00
0.000000000000000e+00 0.000000000000000e+00 0.000000000000000e+00

0.000000000000000e+00 0.000000000000000e+00 0.000000000000000e+00
0.000000000000000e+00 0.000000000000000e+00 0.000000000000000e+00
0.000000000000000e+00 0.000000000000000e+00 0.000000000000000e+00

0.000000000000000e+00 0.000000000000000e+00 0.000000000000000e+00
0.000000000000000e+00 0.000000000000000e+00 0.000000000000000e+00
0.000000000000000e+00 0.000000000000000e+00 0.000000000000000e+00

0.000000000000000e+00 0.000000000000000e+00 0.000000000000000e+00
0.000000000000000e+00 0.000000000000000e+00 0.000000000000000e+00
0.000000000000000e+00 0.000000000000000e+00 0.000000000000000e+00

0.000000000000000e+00 0.000000000000000e+00 0.000000000000000e+00
0.000000000000000e+00 0.000000000000000e+00 0.000000000000000e+00
0.000000000000000e+00 0.000000000000000e+00 0.000000000000000e+00

0.000000000000000e+00 0.000000000000000e+00 0.000000000000000e+00
0.000000000000000e+00 0.000000000000000e+00 0.000000000000000e+00
0.000000000000000e+00 0.000000000000000e+00 0.000000000000000e+00

0.000000000000000e+00 0.000000000000000e+00 0.000000000000000e+00
0.000000000000000e+00 0.000000000000000e+00 0.000000000000000e+00
0.000000000000000e+00 0.000000000000000e+00 0.000000000000000e+00

0.000000000000000e+00 0.000000000000000e+00 0.000000000000000e+00
0.000000000000000e+00 0.000000000000000e+00 0.000000000000000e+00
0.000000000000000e+00 0.000000000000000e+00 0.000000000000000e+00

0.000000000000000e+00 0.000000000000000e+00 0.000000000000000e+00
0.000000000000000e+00 0.000000000000000e+00 0.000000000000000e+00
0.000000000000000e+00 0.000000000000000e+00 0.000000000000000e+00

0.000000000000000e+00 0.000000000000000e+00 0.000000000000000e+00
0.000000000000000e+00 0.000000000000000e+00 0.000000000000000e+00
0.000000000000000e+00 0.000000000000000e+00 0.000000000000000e+00

0.000000000000000e+00 0.000000000000000e+00 0.000000000000000e+00
0.000000000000000e+00 0.000000000000000e+00 0.000000000000000e+00
0.000000000000000e+00 0.000000000000000e+00 0.000000000000000e+00

0.000000000000000e+00 0.000000000000000e+00 0.000000000000000e+00
0.000000000000000e+00 0.000000000000000e+00 0.000000000000000e+00
0.000000000000000e+00 0.000000000000000e+00 0.000000000000000e+00

0.000000000000000e+00 0.000000000000000e+00 0.000000000000000e+00
0.000000000000000e+00 0.000000000000000e+00 0.000000000000000e+00
0.000000000000000e+00 0.000000000000000e+00 0.000000000000000e+00

0.000000000000000e+00 0.000000000000000e+00 0.000000000000000e+00
0.000000000000000e+00 0.000000000000000e+00 0.000000000000000e+00
0.000000000000000e+00 0.000000000000000e+00 0.000000000000000e+00

0.000000000000000e+00 0.000000000000000e+00 0.000000000000000e+00
0.000000000000000e+00 0.000000000000000e+00 0.000000000000000e+00
0.000000000000000e+00 0.000000000000000e+00 0.000000000000000e+00

0.000000000000000e+00 0.000000000000000e+00 0.000000000000000e+00
0.000000000000000e+00 0.000000000000000e+00 0.000000000000000e+00
0.000000000000000e+00 0.000000000000000e+00 0.000000000000000e+00

0.000000000000000e+00 0.000000000000000e+00 0.000000000000000e+00
0.000000000000000e+00 0.000000000000000e+00 0.000000000000000e+00
0.000000000000000e+00 0.000000000000000e+00 0.000000000000000e+00

0.000000000000000e+00 0.000000000000000e+00 0.000000000000000e+00
0.000000000000000e+00 0.000000000000000e+00 0.000000000000000e+00
0.000000000000000e+00 0.000000000000000e+00 0.000000000000000e+00

0.000000000000000e+00 0.000000000000000e+00 0.000000000000000e+00
0.000000000000000e+00 0.000000000000000e+00 0.000000000000000e+00
0.000000000000000e+00 0.000000000000000e+00 0.000000000000000e+00

0.000000000000000e+00 0.000000000000000e+00 0.000000000000000e+00
0.000000000000000e+00 0.000000000000000e+00 0.000000000000000e+00
0.000000000000000e+00 0.000000000000000e+00 0.000000000000000e+00

0.000000000000000e+00 0.000000000000000e+00 0.000000000000000e+00
0.000000000000000e+00 0.000000000000000e+00 0.000000000000000e+00
0.000000000000000e+00 0.000000000000000e+00 0.000000000000000e+00

0.000000000000000e+00 0.000000000000000e+00 0.000000000000000e+00
0.000000000000000e+00 0.000000000000000e+00 0.000000000000000e+00
0.000000000000000e+00 0.000000000000000e+00 0.000000000000000e+00

0.000000000000000e+00 0.000000000000000e+00 0.000000000000000e+00
0.000000000000000e+00 0.000000000000000e+00 0.000000000000000e+00
0.000000000000000e+00 0.000000000000000e+00 0.000000000000000e+00

0.000000000000000e+00 0.000000000000000e+00 0.000000000000000e+00
0.000000000000000e+00 0.000000000000000e+00 0.000000000000000e+00
0.000000000000000e+00 0.000000000000000e+00 0.000000000000000e+00

0.000000000000000e+00 0.000000000000000e+00 0.000000000000000e+00
0.000000000000000e+00 0.000000000000000e+00 0.000000000000000e+00
0.000000000000000e+00 0.000000000000000e+00 0.000000000000000e+00

0.000000000000000e+00 0.000000000000000e+00 0.000000000000000e+00
0.000000000000000e+00 0.000000000000000e+00 0.000000000000000e+00
0.000000000000000e+00 0.000000000000000e+00 0.000000000000000e+00

0.000000000000000e+00 0.000000000000000e+00 0.000000000000000e+00
0.000000000000000e+00 0.000000000000000e+00 0.000000000000000e+00
0.000000000000000e+00 0.000000000000000e+00 0.000000000000000e+00

0.000000000000000e+00 0.000000000000000e+00 0.000000000000000e+00
0.000000000000000e+00 0.000000000000000e+00 0.000000000000000e+00
0.000000000000000e+00 0.000000000000000e+00 0.000000000000000e+00

0.000000000000000e+00 0.000000000000000e+00 0.000000000000000e+00
0.000000000000000e+00 0.000000000000000e+00 0.000000000000000e+00
0.000000000000000e+00 0.000000000000000e+00 0.000000000000000e+00

0.000000000000000e+00 0.000000000000000e+00 0.000000000000000e+00
0.000000000000000e+00 0.000000000000000e+00 0.000000000000000e+00
0.000000000000000e+00 0.000000000000000e+00 0.000000000000000e+00

0.000000000000000e+00 0.000000000000000e+00 0.000000000000000e+00
0.000000000000000e+00 0.000000000000000e+00 0.000000000000000e+00
0.000000000000000e+00 0.000000000000000e+00 0.000000000000000e+00

0.000000000000000e+00 0.000000000000000e+00 0.000000000000000e+00
0.000000000000000e+00 0.000000000000000e+00 0.000000000000000e+00
0.000000000000000e+00 0.000000000000000e+00 0.000000000000000e+00

0.000000000000000e+00 0.000000000000000e+00 0.000000000000000e+00
0.000000000000000e+00 0.000000000000000e+00 0.000000000000000e+00
0.000000000000000e+00 0.000000000000000e+00 0.000000000000000e+00

0.000000000000000e+00 0.000000000000000e+00 0.000000000000000e+00
0.000000000000000e+00 0.000000000000000e+00 0.000000000000000e+00
0.000000000000000e+00 0.000000000000000e+00 0.000000000000000e+00

0.000000000000000e+00 0.000000000000000e+00 0.000000000000000e+00
0.000000000000000e+00 0.000000000000000e+00 0.000000000000000e+00
0.000000000000000e+00 0.000000000000000e+00 0.000000000000000e+00

0.000000000000000e+00 0.000000000000000e+00 0.000000000000000e+00
0.000000000000000e+00 0.000000000000000e+00 0.000000000000000e+00
0.000000000000000e+00 0.000000000000000e+00 0.000000000000000e+00

0.000000000000000e+00 0.000000000000000e+00 0.000000000000000e+00
0.000000000000000e+00 0.000000000000000e+00 0.000000000000000e+00
0.000000000000000e+00 0.000000000000000e+00 0.000000000000000e+00

0.000000000000000e+00 0.000000000000000e+00 0.000000000000000e+00
0.000000000000000e+00 0.000000000000000e+00 0.000000000000000e+00
0.000000000000000e+00 0.000000000000000e+00 0.000000000000000e+00

0.000000000000000e+00 0.000000000000000e+00 0.000000000000000e+00
0.000000000000000e+00 0.000000000000000e+00 0.000000000000000e+00
0.000000000000000e+00 0.000000000000000e+00 0.000000000000000e+00

0.000000000000000e+00 0.000000000000000e+00 0.000000000000000e+00
0.000000000000000e+00 0.000000000000000e+00 0.000000000000000e+00
0.000000000000000e+00 0.000000000000000e+00 0.000000000000000e+00

0.000000000000000e+00 0.000000000000000e+00 0.000000000000000e+00
0.000000000000000e+00 0.000000000000000e+00 0.000000000000000e+00
0.000000000000000e+00 0.000000000000000e+00 0.000000000000000e+00

0.000000000000000e+00 0.000000000000000e+00 0.000000000000000e+00
0.000000000000000e+00 0.000000000000000e+00 0.000000000000000e+00
0.000000000000000e+00 0.000000000000000e+00 0.000000000000000e+00

0.000000000000000e+00 0.000000000000000e+00 0.000000000000000e+00
0.000000000000000e+00 0.000000000000000e+00 0.000000000000000e+00
0.000000000000000e+00 0.000000000000000e+00 0.000000000000000e+00

0.000000000000000e+00 0.000000000000000e+00 0.000000000000000e+00
0.000000000000000e+00 0.000000000000000e+00 0.000000000000000e+00
0.000000000000000e+00 0.000000000000000e+00 0.000000000000000e+00

0.000000000000000e+00 0.000000000000000e+00 0.000000000000000e+00
0.000000000000000e+00 0.000000000000000e+00 0.000000000000000e+00
0.000000000000000e+00 0.000000000000000e+00 0.000000000000000e+00

0.000000000000000e+00 0.000000000000000e+00 0.000000000000000e+00
0.000000000000000e+00 0.000000000000000e+00 0.000000000000000e+00
0.000000000000000e+00 0.000000000000000e+00 0.000000000000000e+00

0.000000000000000e+00 0.000000000000000e+00 0.000000000000000e+00
0.000000000000000e+00 0.000000000000000e+00 0.000000000000000e+00
0.000000000000000e+00 0.000000000000000e+00 0.000000000000000e+00

0.000000000000000e+00 0.000000000000000e+00 0.000000000000000e+00
0.000000000000000e+00 0.000000000000000e+00 0.000000000000000e+00
0.000000000000000e+00 0.000000000000000e+00 0.000000000000000e+00

0.000000000000000e+00 0.000000000000000e+00 0.000000000000000e+00
0.000000000000000e+00 0.000000000000000e+00 0.000000000000000e+00
0.000000000000000e+00 0.000000000000000e+00 0.000000000000000e+00

0.000000000000000e+00 0.000000000000000e+00 0.000000000000000e+00
0.000000000000000e+00 0.000000000000000e+00 0.000000000000000e+00
0.000000000000000e+00 0.000000000000000e+00 0.000000000000000e+00

0.000000000000000e+00 0.000000000000000e+00 0.000000000000000e+00
0.000000000000000e+00 0.000000000000000e+00 0.000000000000000e+00
0.000000000000000e+00 0.000000000000000e+00 0.000000000000000e+00

0.000000000000000e+00 0.000000000000000e+00 0.000000000000000e+00
0.000000000000000e+00 0.000000000000000e+00 0.000000000000000e+00
0.000000000000000e+00 0.000000000000000e+00 0.000000000000000e+00

0.000000000000000e+00 0.000000000000000e+00 0.000000000000000e+00
0.000000000000000e+00 0.000000000000000e+00 0.000000000000000e+00
0.000000000000000e+00 0.000000000000000e+00 0.000000000000000e+00

0.000000000000000e+00 0.000000000000000e+00 0.000000000000000e+00
0.000000000000000e+00 0.000000000000000e+00 0.000000000000000e+00
0.000000000000000e+00 0.000000000000000e+00 0.000000000000000e+00

0.000000000000000e+00 0.000000000000000e+00 0.000000000000000e+00
0.000000000000000e+00 0.000000000000000e+00 0.000000000000000e+00
0.000000000000000e+00 0.000000000000000e+00 0.000000000000000e+00

0.000000000000000e+00 0.000000000000000e+00 0.000000000000000e+00
0.000000000000000e+00 0.000000000000000e+00 0.000000000000000e+00
0.000000000000000e+00 0.000000000000000e+00 0.000000000000000e+00

0.000000000000000e+00 0.000000000000000e+00 0.000000000000000e+00
0.000000000000000e+00 0.000000000000000e+00 0.000000000000000e+00
0.000000000000000e+00 0.000000000000000e+00 0.000000000000000e+00

0.000000000000000e+00 0.000000000000000e+00 0.000000000000000e+00
0.000000000000000e+00 0.000000000000000e+00 0.000000000000000e+00
0.000000000000000e+00 0.000000000000000e+00 0.000000000000000e+00

0.000000000000000e+00 0.000000000000000e+00 0.000000000000000e+00
0.000000000000000e+00 0.000000000000000e+00 0.000000000000000e+00
0.000000000000000e+00 0.000000000000000e+00 0.000000000000000e+00

0.000000000000000e+00 0.000000000000000e+00 0.000000000000000e+00
0.000000000000000e+00 0.000000000000000e+00 0.000000000000000e+00
0.000000000000000e+00 0.000000000000000e+00 0.000000000000000e+00

0.000000000000000e+00 0.000000000000000e+00 0.000000000000000e+00
0.000000000000000e+00 0.000000000000000e+00 0.000000000000000e+00
0.000000000000000e+00 0.000000000000000e+00 0.000000000000000e+00

0.000000000000000e+00 0.000000000000000e+00 0.000000000000000e+00
0.000000000000000e+00 0.000000000000000e+00 0.000000000000000e+00
0.000000000000000e+00 0.000000000000000e+00 0.000000000000000e+00

0.000000000000000e+00 0.000000000000000e+00 0.000000000000000e+00
0.000000000000000e+00 0.000000000000000e+00 0.000000000000000e+00
0.000000000000000e+00 0.000000000000000e+00 0.000000000000000e+00

0.000000000000000e+00 0.000000000000000e+00 0.000000000000000e+00
0.000000000000000e+00 0.000000000000000e+00 0.000000000000000e+00
0.000000000000000e+00 0.000000000000000e+00 0.000000000000000e+00

0.000000000000000e+00 0.000000000000000e+00 0.000000000000000e+00
0.000000000000000e+00 0.000000000000000e+00 0.000000000000000e+00
0.000000000000000e+00 0.000000000000000e+00 0.000000000000000e+00

0.000000000000000e+00 0.000000000000000e+00 0.000000000000000e+00
0.000000000000000e+00 0.000000000000000e+00 0.000000000000000e+00
0.000000000000000e+00 0.000000000000000e+00 0.000000000000000e+00

0.000000000000000e+00 0.000000000000000e+00 0.000000000000000e+00
0.000000000000000e+00 0.000000000000000e+00 0.000000000000000e+00
0.000000000000000e+00 0.000000000000000e+00 0.000000000000000e+00

0.000000000000000e+00 0.000000000000000e+00 0.000000000000000e+00
0.000000000000000e+00 0.000000000000000e+00 0.000000000000000e+00
0.000000000000000e+00 0.000000000000000e+00 0.000000000000000e+00

0.000000000000000e+00 0.000000000000000e+00 0.000000000000000e+00
0.000000000000000e+00 0.000000000000000e+00 0.000000000000000e+00
0.000000000000000e+00 0.000000000000000e+00 0.000000000000000e+00

0.000000000000000e+00 0.000000000000000e+00 0.000000000000000e+00
0.000000000000000e+00 0.000000000000000e+00 0.000000000000000e+00
0.000000000000000e+00 0.000000000000000e+00 0.000000000000000e+00

0.000000000000000e+00 0.000000000000000e+00 0.000000000000000e+00
0.000000000000000e+00 0.000000000000000e+00 0.000000000000000e+00
0.000000000000000e+00 0.000000000000000e+00 0.000000000000000e+00

0.000000000000000e+00 0.000000000000000e+00 0.000000000000000e+00
0.000000000000000e+00 0.000000000000000e+00 0.000000000000000e+00
0.000000000000000e+00 0.000000000000000e+00 0.000000000000000e+00

0.000000000000000e+00 0.000000000000000e+00 0.000000000000000e+00
0.000000000000000e+00 0.000000000000000e+00 0.000000000000000e+00
0.000000000000000e+00 0.000000000000000e+00 0.000000000000000e+00

0.000000000000000e+00 0.000000000000000e+00 0.000000000000000e+00
0.000000000000000e+00 0.000000000000000e+00 0.000000000000000e+00
0.000000000000000e+00 0.000000000000000e+00 0.000000000000000e+00

0.000000000000000e+00 0.000000000000000e+00 0.000000000000000e+00
0.000000000000000e+00 0.000000000000000e+00 0.000000000000000e+00
0.000000000000000e+00 0.000000000000000e+00 0.000000000000000e+00

0.000000000000000e+00 0.000000000000000e+00 0.000000000000000e+00
0.000000000000000e+00 0.000000000000000e+00 0.000000000000000e+00
0.000000000000000e+00 0.000000000000000e+00 0.000000000000000e+00

0.000000000000000e+00 0.000000000000000e+00 0.000000000000000e+00
0.000000000000000e+00 0.000000000000000e+00 0.000000000000000e+00
0.000000000000000e+00 0.000000000000000e+00 0.000000000000000e+00

0.000000000000000e+00 0.000000000000000e+00 0.000000000000000e+00
0.000000000000000e+00 0.000000000000000e+00 0.000000000000000e+00
0.000000000000000e+00 0.000000000000000e+00 0.000000000000000e+00

0.000000000000000e+00 0.000000000000000e+00 0.000000000000000e+00
0.000000000000000e+00 0.000000000000000e+00 0.000000000000000e+00
0.000000000000000e+00 0.000000000000000e+00 0.000000000000000e+00

0.000000000000000e+00 0.000000000000000e+00 0.000000000000000e+00
0.000000000000000e+00 0.000000000000000e+00 0.000000000000000e+00
0.000000000000000e+00 0.000000000000000e+00 0.000000000000000e+00

0.000000000000000e+00 0.000000000000000e+00 0.000000000000000e+00
0.000000000000000e+00 0.000000000000000e+00 0.000000000000000e+00
0.000000000000000e+00 0.000000000000000e+00 0.000000000000000e+00

0.000000000000000e+00 0.000000000000000e+00 0.000000000000000e+00
0.000000000000000e+00 0.000000000000000e+00 0.000000000000000e+00
0.000000000000000e+00 0.000000000000000e+00 0.000000000000000e+00

0.000000000000000e+00 0.000000000000000e+00 0.000000000000000e+00
0.000000000000000e+00 0.000000000000000e+00 0.000000000000000e+00
0.000000000000000e+00 0.000000000000000e+00 0.000000000000000e+00

0.000000000000000e+00 0.000000000000000e+00 0.000000000000000e+00
0.000000000000000e+00 0.000000000000000e+00 0.000000000000000e+00
0.000000000000000e+00 0.000000000000000e+00 0.000000000000000e+00

0.000000000000000e+00 0.000000000000000e+00 0.000000000000000e+00
0.000000000000000e+00 0.000000000000000e+00 0.000000000000000e+00
0.000000000000000e+00 0.000000000000000e+00 0.000000000000000e+00

0.000000000000000e+00 0.000000000000000e+00 0.000000000000000e+00
0.000000000000000e+00 0.000000000000000e+00 0.000000000000000e+00
0.000000000000000e+00 0.000000000000000e+00 0.000000000000000e+00

0.000000000000000e+00 0.000000000000000e+00 0.000000000000000e+00
0.000000000000000e+00 0.000000000000000e+00 0.000000000000000e+00
0.000000000000000e+00 0.000000000000000e+00 0.000000000000000e+00

0.000000000000000e+00 0.000000000000000e+00 0.000000000000000e+00
0.000000000000000e+00 0.000000000000000e+00 0.000000000000000e+00
0.000000000000000e+00 0.000000000000000e+00 0.000000000000000e+00

0.000000000000000e+00 0.000000000000000e+00 0.000000000000000e+00
0.000000000000000e+00 0.000000000000000e+00 0.000000000000000e+00
0.000000000000000e+00 0.000000000000000e+00 0.000000000000000e+00

0.000000000000000e+00 0.000000000000000e+00 0.000000000000000e+00
0.000000000000000e+00 0.000000000000000e+00 0.000000000000000e+00
0.000000000000000e+00 0.000000000000000e+00 0.000000000000000e+00

0.000000000000000e+00 0.000000000000000e+00 0.000000000000000e+00
0.000000000000000e+00 0.000000000000000e+00 0.000000000000000e+00
0.000000000000000e+00 0.000000000000000e+00 0.000000000000000e+00

0.000000000000000e+00 0.000000000000000e+00 0.000000000000000e+00
0.000000000000000e+00 0.000000000000000e+00 0.000000000000000e+00
0.000000000000000e+00 0.000000000000000e+00 0.000000000000000e+00

0.000000000000000e+00 0.000000000000000e+00 0.000000000000000e+00
0.000000000000000e+00 0.000000000000000e+00 0.000000000000000e+00
0.000000000000000e+00 0.000000000000000e+00 0.000000000000000e+00

0.000000000000000e+00 0.000000000000000e+00 0.000000000000000e+00
0.000000000000000e+00 0.000000000000000e+00 0.000000000000000e+00
0.000000000000000e+00 0.000000000000000e+00 0.000000000000000e+00

0.000000000000000e+00 0.000000000000000e+00 0.000000000000000e+00
0.000000000000000e+00 0.000000000000000e+00 0.000000000000000e+00
0.000000000000000e+00 0.000000000000000e+00 0.000000000000000e+00

0.000000000000000e+00 0.000000000000000e+00 0.000000000000000e+00
0.000000000000000e+00 0.000000000000000e+00 0.000000000000000e+00
0.000000000000000e+00 0.000000000000000e+00 0.000000000000000e+00

0.000000000000000e+00 0.000000000000000e+00 0.000000000000000e+00
0.000000000000000e+00 0.000000000000000e+00 0.000000000000000e+00
0.000000000000000e+00 0.000000000000000e+00 0.000000000000000e+00

0.000000000000000e+00 0.000000000000000e+00 0.000000000000000e+00
0.000000000000000e+00 0.000000000000000e+00 0.000000000000000e+00
0.000000000000000e+00 0.000000000000000e+00 0.000000000000000e+00

0.000000000000000e+00 0.000000000000000e+00 0.000000000000000e+00
0.000000000000000e+00 0.000000000000000e+00 0.000000000000000e+00
0.000000000000000e+00 0.000000000000000e+00 0.000000000000000e+00

0.000000000000000e+00 0.000000000000000e+00 0.000000000000000e+00
0.000000000000000e+00 0.000000000000000e+00 0.000000000000000e+00
0.000000000000000e+00 0.000000000000000e+00 0.000000000000000e+00

0.000000000000000e+00 0.000000000000000e+00 0.000000000000000e+00
0.000000000000000e+00 0.000000000000000e+00 0.000000000000000e+00
0.000000000000000e+00 0.000000000000000e+00 0.000000000000000e+00

0.000000000000000e+00 0.000000000000000e+00 0.000000000000000e+00
0.000000000000000e+00 0.000000000000000e+00 0.000000000000000e+00
0.000000000000000e+00 0.000000000000000e+00 0.000000000000000e+00

0.000000000000000e+00 0.000000000000000e+00 0.000000000000000e+00
0.000000000000000e+00 0.000000000000000e+00 0.000000000000000e+00
0.000000000000000e+00 0.000000000000000e+00 0.000000000000000e+00

0.000000000000000e+00 0.000000000000000e+00 0.000000000000000e+00
0.000000000000000e+00 0.000000000000000e+00 0.000000000000000e+00
0.000000000000000e+00 0.000000000000000e+00 0.000000000000000e+00

0.000000000000000e+00 0.000000000000000e+00 0.000000000000000e+00
0.000000000000000e+00 0.000000000000000e+00 0.000000000000000e+00
0.000000000000000e+00 0.000000000000000e+00 0.000000000000000e+00

0.000000000000000e+00 0.000000000000000e+00 0.000000000000000e+00
0.000000000000000e+00 0.000000000000000e+00 0.000000000000000e+00
0.000000000000000e+00 0.000000000000000e+00 0.000000000000000e+00

0.000000000000000e+00 0.000000000000000e+00 0.000000000000000e+00
0.000000000000000e+00 0.000000000000000e+00 0.000000000000000e+00
0.000000000000000e+00 0.000000000000000e+00 0.000000000000000e+00

0.000000000000000e+00 0.000000000000000e+00 0.000000000000000e+00
0.000000000000000e+00 0.000000000000000e+00 0.000000000000000e+00
0.000000000000000e+00 0.000000000000000e+00 0.000000000000000e+00

0.000000000000000e+00 0.000000000000000e+00 0.000000000000000e+00
0.000000000000000e+00 0.000000000000000e+00 0.000000000000000e+00
0.000000000000000e+00 0.000000000000000e+00 0.000000000000000e+00

0.000000000000000e+00 0.000000000000000e+00 0.000000000000000e+00
0.000000000000000e+00 0.000000000000000e+00 0.000000000000000e+00
0.000000000000000e+00 0.000000000000000e+00 0.000000000000000e+00

0.000000000000000e+00 0.000000000000000e+00 0.000000000000000e+00
0.000000000000000e+00 0.000000000000000e+00 0.000000000000000e+00
0.000000000000000e+00 0.000000000000000e+00 0.000000000000000e+00

0.000000000000000e+00 0.000000000000000e+00 0.000000000000000e+00
0.000000000000000e+00 0.000000000000000e+00 0.000000000000000e+00
0.000000000000000e+00 0.000000000000000e+00 0.000000000000000e+00

0.000000000000000e+00 0.000000000000000e+00 0.000000000000000e+00
0.000000000000000e+00 0.000000000000000e+00 0.000000000000000e+00
0.000000000000000e+00 0.000000000000000e+00 0.000000000000000e+00

0.000000000000000e+00 0.000000000000000e+00 0.000000000000000e+00
0.000000000000000e+00 0.000000000000000e+00 0.000000000000000e+00
0.000000000000000e+00 0.000000000000000e+00 0.000000000000000e+00

0.000000000000000e+00 0.000000000000000e+00 0.000000000000000e+00
0.000000000000000e+00 0.000000000000000e+00 0.000000000000000e+00
0.000000000000000e+00 0.000000000000000e+00 0.000000000000000e+00

0.000000000000000e+00 0.000000000000000e+00 0.000000000000000e+00
0.000000000000000e+00 0.000000000000000e+00 0.000000000000000e+00
0.000000000000000e+00 0.000000000000000e+00 0.000000000000000e+00

0.000000000000000e+00 0.000000000000000e+00 0.000000000000000e+00
0.000000000000000e+00 0.000000000000000e+00 0.000000000000000e+00
0.000000000000000e+00 0.000000000000000e+00 0.000000000000000e+00

0.000000000000000e+00 0.000000000000000e+00 0.000000000000000e+00
0.000000000000000e+00 0.000000000000000e+00 0.000000000000000e+00
0.000000000000000e+00 0.000000000000000e+00 0.000000000000000e+00

0.000000000000000e+00 0.000000000000000e+00 0.000000000000000e+00
0.000000000000000e+00 0.000000000000000e+00 0.000000000000000e+00
0.000000000000000e+00 0.000000000000000e+00 0.000000000000000e+00

0.000000000000000e+00 0.000000000000000e+00 0.000000000000000e+00
0.000000000000000e+00 0.000000000000000e+00 0.000000000000000e+00
0.000000000000000e+00 0.000000000000000e+00 0.000000000000000e+00

0.000000000000000e+00 0.000000000000000e+00 0.000000000000000e+00
0.000000000000000e+00 0.000000000000000e+00 0.000000000000000e+00
0.000000000000000e+00 0.000000000000000e+00 0.000000000000000e+00

0.000000000000000e+00 0.000000000000000e+00 0.000000000000000e+00
0.000000000000000e+00 0.000000000000000e+00 0.000000000000000e+00
0.000000000000000e+00 0.000000000000000e+00 0.000000000000000e+00

0.000000000000000e+00 0.000000000000000e+00 0.000000000000000e+00
0.000000000000000e+00 0.000000000000000e+00 0.000000000000000e+00
0.000000000000000e+00 0.000000000000000e+00 0.000000000000000e+00

0.000000000000000e+00 0.000000000000000e+00 0.000000000000000e+00
0.000000000000000e+00 0.000000000000000e+00 0.000000000000000e+00
0.000000000000000e+00 0.000000000000000e+00 0.000000000000000e+00

0.000000000000000e+00 0.000000000000000e+00 0.000000000000000e+00
0.000000000000000e+00 0.000000000000000e+00 0.000000000000000e+00
0.000000000000000e+00 0.000000000000000e+00 0.000000000000000e+00

0.000000000000000e+00 0.000000000000000e+00 0.000000000000000e+00
0.000000000000000e+00 0.000000000000000e+00 0.000000000000000e+00
0.000000000000000e+00 0.000000000000000e+00 0.000000000000000e+00

0.000000000000000e+00 0.000000000000000e+00 0.000000000000000e+00
0.000000000000000e+00 0.000000000000000e+00 0.000000000000000e+00
0.000000000000000e+00 0.000000000000000e+00 0.000000000000000e+00

0.000000000000000e+00 0.000000000000000e+00 0.000000000000000e+00
0.000000000000000e+00 0.000000000000000e+00 0.000000000000000e+00
0.000000000000000e+00 0.000000000000000e+00 0.000000000000000e+00

0.000000000000000e+00 0.000000000000000e+00 0.000000000000000e+00
0.000000000000000e+00 0.000000000000000e+00 0.000000000000000e+00
0.000000000000000e+00 0.000000000000000e+00 0.000000000000000e+00

0.000000000000000e+00 0.000000000000000e+00 0.000000000000000e+00
0.000000000000000e+00 0.000000000000000e+00 0.000000000000000e+00
0.000000000000000e+00 0.000000000000000e+00 0.000000000000000e+00

0.000000000000000e+00 0.000000000000000e+00 0.000000000000000e+00
0.000000000000000e+00 0.000000000000000e+00 0.000000000000000e+00
0.000000000000000e+00 0.000000000000000e+00 0.000000000000000e+00

0.000000000000000e+00 0.000000000000000e+00 0.000000000000000e+00
0.000000000000000e+00 0.000000000000000e+00 0.000000000000000e+00
0.000000000000000e+00 0.000000000000000e+00 0.000000000000000e+00

0.000000000000000e+00 0.000000000000000e+00 0.000000000000000e+00
0.000000000000000e+00 0.000000000000000e+00 0.000000000000000e+00
0.000000000000000e+00 0.000000000000000e+00 0.000000000000000e+00

0.000000000000000e+00 0.000000000000000e+00 0.000000000000000e+00
0.000000000000000e+00 0.000000000000000e+00 0.000000000000000e+00
0.000000000000000e+00 0.000000000000000e+00 0.000000000000000e+00

0.000000000000000e+00 0.000000000000000e+00 0.000000000000000e+00
0.000000000000000e+00 0.000000000000000e+00 0.000000000000000e+00
0.000000000000000e+00 0.000000000000000e+00 0.000000000000000e+00

0.000000000000000e+00 0.000000000000000e+00 0.000000000000000e+00
0.000000000000000e+00 0.000000000000000e+00 0.000000000000000e+00
0.000000000000000e+00 0.000000000000000e+00 0.000000000000000e+00

0.000000000000000e+00 0.000000000000000e+00 0.000000000000000e+00
0.000000000000000e+00 0.000000000000000e+00 0.000000000000000e+00
0.000000000000000e+00 0.000000000000000e+00 0.000000000000000e+00

0.000000000000000e+00 0.000000000000000e+00 0.000000000000000e+00
0.000000000000000e+00 0.000000000000000e+00 0.000000000000000e+00
0.000000000000000e+00 0.000000000000000e+00 0.000000000000000e+00

0.000000000000000e+00 0.000000000000000e+00 0.000000000000000e+00
0.000000000000000e+00 0.000000000000000e+00 0.000000000000000e+00
0.000000000000000e+00 0.000000000000000e+00 0.000000000000000e+00

0.000000000000000e+00 0.000000000000000e+00 0.000000000000000e+00
0.000000000000000e+00 0.000000000000000e+00 0.000000000000000e+00
0.000000000000000e+00 0.000000000000000e+00 0.000000000000000e+00

0.000000000000000e+00 0.000000000000000e+00 0.000000000000000e+00
0.000000000000000e+00 0.000000000000000e+00 0.000000000000000e+00
0.000000000000000e+00 0.000000000000000e+00 0.000000000000000e+00

0.000000000000000e+00 0.000000000000000e+00 0.000000000000000e+00
0.000000000000000e+00 0.000000000000000e+00 0.000000000000000e+00
0.000000000000000e+00 0.000000000000000e+00 0.000000000000000e+00

0.000000000000000e+00 0.000000000000000e+00 0.000000000000000e+00
0.000000000000000e+00 0.000000000000000e+00 0.000000000000000e+00
0.000000000000000e+00 0.000000000000000e+00 0.000000000000000e+00

0.000000000000000e+00 0.000000000000000e+00 0.000000000000000e+00
0.000000000000000e+00 0.000000000000000e+00 0.000000000000000e+00
0.000000000000000e+00 0.000000000000000e+00 0.000000000000000e+00

0.000000000000000e+00 0.000000000000000e+00 0.000000000000000e+00
0.000000000000000e+00 0.000000000000000e+00 0.000000000000000e+00
0.000000000000000e+00 0.000000000000000e+00 0.000000000000000e+00

0.000000000000000e+00 0.000000000000000e+00 0.000000000000000e+00
0.000000000000000e+00 0.000000000000000e+00 0.000000000000000e+00
0.000000000000000e+00 0.000000000000000e+00 0.000000000000000e+00

0.000000000000000e+00 0.000000000000000e+00 0.000000000000000e+00
0.000000000000000e+00 0.000000000000000e+00 0.000000000000000e+00
0.000000000000000e+00 0.000000000000000e+00 0.000000000000000e+00

0.000000000000000e+00 0.000000000000000e+00 0.000000000000000e+00
0.000000000000000e+00 0.000000000000000e+00 0.000000000000000e+00
0.000000000000000e+00 0.000000000000000e+00 0.000000000000000e+00

0.000000000000000e+00 0.000000000000000e+00 0.000000000000000e+00
0.000000000000000e+00 0.000000000000000e+00 0.000000000000000e+00
0.000000000000000e+00 0.000000000000000e+00 0.000000000000000e+00

0.000000000000000e+00 0.000000000000000e+00 0.000000000000000e+00
0.000000000000000e+00 0.000000000000000e+00 0.000000000000000e+00
0.000000000000000e+00 0.000000000000000e+00 0.000000000000000e+00

0.000000000000000e+00 0.000000000000000e+00 0.000000000000000e+00
0.000000000000000e+00 0.000000000000000e+00 0.000000000000000e+00
0.000000000000000e+00 0.000000000000000e+00 0.000000000000000e+00

0.000000000000000e+00 0.000000000000000e+00 0.000000000000000e+00
0.000000000000000e+00 0.000000000000000e+00 0.000000000000000e+00
0.000000000000000e+00 0.000000000000000e+00 0.000000000000000e+00

0.000000000000000e+00 0.000000000000000e+00 0.000000000000000e+00
0.000000000000000e+00 0.000000000000000e+00 0.000000000000000e+00
0.000000000000000e+00 0.000000000000000e+00 0.000000000000000e+00

0.000000000000000e+00 0.000000000000000e+00 0.000000000000000e+00
0.000000000000000e+00 0.000000000000000e+00 0.000000000000000e+00
0.000000000000000e+00 0.000000000000000e+00 0.000000000000000e+00

0.000000000000000e+00 0.000000000000000e+00 0.000000000000000e+00
0.000000000000000e+00 0.000000000000000e+00 0.000000000000000e+00
0.000000000000000e+00 0.000000000000000e+00 0.000000000000000e+00

0.000000000000000e+00 0.000000000000000e+00 0.000000000000000e+00
0.000000000000000e+00 0.000000000000000e+00 0.000000000000000e+00
0.000000000000000e+00 0.000000000000000e+00 0.000000000000000e+00

0.000000000000000e+00 0.000000000000000e+00 0.000000000000000e+00
0.000000000000000e+00 0.000000000000000e+00 0.000000000000000e+00
0.000000000000000e+00 0.000000000000000e+00 0.000000000000000e+00

0.000000000000000e+00 0.000000000000000e+00 0.000000000000000e+00
0.000000000000000e+00 0.000000000000000e+00 0.000000000000000e+00
0.000000000000000e+00 0.000000000000000e+00 0.000000000000000e+00

0.000000000000000e+00 0.000000000000000e+00 0.000000000000000e+00
0.000000000000000e+00 0.000000000000000e+00 0.000000000000000e+00
0.000000000000000e+00 0.000000000000000e+00 0.000000000000000e+00

0.000000000000000e+00 0.000000000000000e+00 0.000000000000000e+00
0.000000000000000e+00 0.000000000000000e+00 0.000000000000000e+00
0.000000000000000e+00 0.000000000000000e+00 0.000000000000000e+00

0.000000000000000e+00 0.000000000000000e+00 0.000000000000000e+00
0.000000000000000e+00 0.000000000000000e+00 0.000000000000000e+00
0.000000000000000e+00 0.000000000000000e+00 0.000000000000000e+00

0.000000000000000e+00 0.000000000000000e+00 0.000000000000000e+00
0.000000000000000e+00 0.000000000000000e+00 0.000000000000000e+00
0.000000000000000e+00 0.000000000000000e+00 0.000000000000000e+00

0.000000000000000e+00 0.000000000000000e+00 0.000000000000000e+00
0.000000000000000e+00 0.000000000000000e+00 0.000000000000000e+00
0.000000000000000e+00 0.000000000000000e+00 0.000000000000000e+00

0.000000000000000e+00 0.000000000000000e+00 0.000000000000000e+00
0.000000000000000e+00 0.000000000000000e+00 0.000000000000000e+00
0.000000000000000e+00 0.000000000000000e+00 0.000000000000000e+00

0.000000000000000e+00 0.000000000000000e+00 0.000000000000000e+00
0.000000000000000e+00 0.000000000000000e+00 0.000000000000000e+00
0.000000000000000e+00 0.000000000000000e+00 0.000000000000000e+00

0.000000000000000e+00 0.000000000000000e+00 0.000000000000000e+00
0.000000000000000e+00 0.000000000000000e+00 0.000000000000000e+00
0.000000000000000e+00 0.000000000000000e+00 0.000000000000000e+00

0.000000000000000e+00 0.000000000000000e+00 0.000000000000000e+00
0.000000000000000e+00 0.000000000000000e+00 0.000000000000000e+00
0.000000000000000e+00 0.000000000000000e+00 0.000000000000000e+00

0.000000000000000e+00 0.000000000000000e+00 0.000000000000000e+00
0.000000000000000e+00 0.000000000000000e+00 0.000000000000000e+00
0.000000000000000e+00 0.000000000000000e+00 0.000000000000000e+00

0.000000000000000e+00 0.000000000000000e+00 0.000000000000000e+00
0.000000000000000e+00 0.000000000000000e+00 0.000000000000000e+00
0.000000000000000e+00 0.000000000000000e+00 0.000000000000000e+00

0.000000000000000e+00 0.000000000000000e+00 0.000000000000000e+00
0.000000000000000e+00 0.000000000000000e+00 0.000000000000000e+00
0.000000000000000e+00 0.000000000000000e+00 0.000000000000000e+00

0.000000000000000e+00 0.000000000000000e+00 0.000000000000000e+00
0.000000000000000e+00 0.000000000000000e+00 0.000000000000000e+00
0.000000000000000e+00 0.000000000000000e+00 0.000000000000000e+00

0.000000000000000e+00 0.000000000000000e+00 0.000000000000000e+00
0.000000000000000e+00 0.000000000000000e+00 0.000000000000000e+00
0.000000000000000e+00 0.000000000000000e+00 0.000000000000000e+00

0.000000000000000e+00 0.000000000000000e+00 0.000000000000000e+00
0.000000000000000e+00 0.000000000000000e+00 0.000000000000000e+00
0.000000000000000e+00 0.000000000000000e+00 0.000000000000000e+00

0.000000000000000e+00 0.000000000000000e+00 0.000000000000000e+00
0.000000000000000e+00 0.000000000000000e+00 0.000000000000000e+00
0.000000000000000e+00 0.000000000000000e+00 0.000000000000000e+00

0.000000000000000e+00 0.000000000000000e+00 0.000000000000000e+00
0.000000000000000e+00 0.000000000000000e+00 0.000000000000000e+00
0.000000000000000e+00 0.000000000000000e+00 0.000000000000000e+00

0.000000000000000e+00 0.000000000000000e+00 0.000000000000000e+00
0.000000000000000e+00 0.000000000000000e+00 0.000000000000000e+00
0.000000000000000e+00 0.000000000000000e+00 0.000000000000000e+00

0.000000000000000e+00 0.000000000000000e+00 0.000000000000000e+00
0.000000000000000e+00 0.000000000000000e+00 0.000000000000000e+00
0.000000000000000e+00 0.000000000000000e+00 0.000000000000000e+00

0.000000000000000e+00 0.000000000000000e+00 0.000000000000000e+00
0.000000000000000e+00 0.000000000000000e+00 0.000000000000000e+00
0.000000000000000e+00 0.000000000000000e+00 0.000000000000000e+00

0.000000000000000e+00 0.000000000000000e+00 0.000000000000000e+00
0.000000000000000e+00 0.000000000000000e+00 0.000000000000000e+00
0.000000000000000e+00 0.000000000000000e+00 0.000000000000000e+00

0.000000000000000e+00 0.000000000000000e+00 0.000000000000000e+00
0.000000000000000e+00 0.000000000000000e+00 0.000000000000000e+00
0.000000000000000e+00 0.000000000000000e+00 0.000000000000000e+00

0.000000000000000e+00 0.000000000000000e+00 0.000000000000000e+00
0.000000000000000e+00 0.000000000000000e+00 0.000000000000000e+00
0.000000000000000e+00 0.000000000000000e+00 0.000000000000000e+00

0.000000000000000e+00 0.000000000000000e+00 0.000000000000000e+00
0.000000000000000e+00 0.000000000000000e+00 0.000000000000000e+00
0.000000000000000e+00 0.000000000000000e+00 0.000000000000000e+00

0.000000000000000e+00 0.000000000000000e+00 0.000000000000000e+00
0.000000000000000e+00 0.000000000000000e+00 0.000000000000000e+00
0.000000000000000e+00 0.000000000000000e+00 0.000000000000000e+00

0.000000000000000e+00 0.000000000000000e+00 0.000000000000000e+00
0.000000000000000e+00 0.000000000000000e+00 0.000000000000000e+00
0.000000000000000e+00 0.000000000000000e+00 0.000000000000000e+00

0.000000000000000e+00 0.000000000000000e+00 0.000000000000000e+00
0.000000000000000e+00 0.000000000000000e+00 0.000000000000000e+00
0.000000000000000e+00 0.000000000000000e+00 0.000000000000000e+00

0.000000000000000e+00 0.000000000000000e+00 0.000000000000000e+00
0.000000000000000e+00 0.000000000000000e+00 0.000000000000000e+00
0.000000000000000e+00 0.000000000000000e+00 0.000000000000000e+00

0.000000000000000e+00 0.000000000000000e+00 0.000000000000000e+00
0.000000000000000e+00 0.000000000000000e+00 0.000000000000000e+00
0.000000000000000e+00 0.000000000000000e+00 0.000000000000000e+00

0.000000000000000e+00 0.000000000000000e+00 0.000000000000000e+00
0.000000000000000e+00 0.000000000000000e+00 0.000000000000000e+00
0.000000000000000e+00 0.000000000000000e+00 0.000000000000000e+00

0.000000000000000e+00 0.000000000000000e+00 0.000000000000000e+00
0.000000000000000e+00 0.000000000000000e+00 0.000000000000000e+00
0.000000000000000e+00 0.000000000000000e+00 0.000000000000000e+00

0.000000000000000e+00 0.000000000000000e+00 0.000000000000000e+00
0.000000000000000e+00 0.000000000000000e+00 0.000000000000000e+00
0.000000000000000e+00 0.000000000000000e+00 0.000000000000000e+00

0.000000000000000e+00 0.000000000000000e+00 0.000000000000000e+00
0.000000000000000e+00 0.000000000000000e+00 0.000000000000000e+00
0.000000000000000e+00 0.000000000000000e+00 0.000000000000000e+00

0.000000000000000e+00 0.000000000000000e+00 0.000000000000000e+00
0.000000000000000e+00 0.000000000000000e+00 0.000000000000000e+00
0.000000000000000e+00 0.000000000000000e+00 0.000000000000000e+00

0.000000000000000e+00 0.000000000000000e+00 0.000000000000000e+00
0.000000000000000e+00 0.000000000000000e+00 0.000000000000000e+00
0.000000000000000e+00 0.000000000000000e+00 0.000000000000000e+00

0.000000000000000e+00 0.000000000000000e+00 0.000000000000000e+00
0.000000000000000e+00 0.000000000000000e+00 0.000000000000000e+00
0.000000000000000e+00 0.000000000000000e+00 0.000000000000000e+00

0.000000000000000e+00 0.000000000000000e+00 0.000000000000000e+00
0.000000000000000e+00 0.000000000000000e+00 0.000000000000000e+00
0.000000000000000e+00 0.000000000000000e+00 0.000000000000000e+00

0.000000000000000e+00 0.000000000000000e+00 0.000000000000000e+00
0.000000000000000e+00 0.000000000000000e+00 0.000000000000000e+00
0.000000000000000e+00 0.000000000000000e+00 0.000000000000000e+00

0.000000000000000e+00 0.000000000000000e+00 0.000000000000000e+00
0.000000000000000e+00 0.000000000000000e+00 0.000000000000000e+00
0.000000000000000e+00 0.000000000000000e+00 0.000000000000000e+00

0.000000000000000e+00 0.000000000000000e+00 0.000000000000000e+00
0.000000000000000e+00 0.000000000000000e+00 0.000000000000000e+00
0.000000000000000e+00 0.000000000000000e+00 0.000000000000000e+00

0.000000000000000e+00 0.000000000000000e+00 0.000000000000000e+00
0.000000000000000e+00 0.000000000000000e+00 0.000000000000000e+00
0.000000000000000e+00 0.000000000000000e+00 0.000000000000000e+00

0.000000000000000e+00 0.000000000000000e+00 0.000000000000000e+00
0.000000000000000e+00 0.000000000000000e+00 0.000000000000000e+00
0.000000000000000e+00 0.000000000000000e+00 0.000000000000000e+00

0.000000000000000e+00 0.000000000000000e+00 0.000000000000000e+00
0.000000000000000e+00 0.000000000000000e+00 0.000000000000000e+00
0.000000000000000e+00 0.000000000000000e+00 0.000000000000000e+00

0.000000000000000e+00 0.000000000000000e+00 0.000000000000000e+00
0.000000000000000e+00 0.000000000000000e+00 0.000000000000000e+00
0.000000000000000e+00 0.000000000000000e+00 0.000000000000000e+00

0.000000000000000e+00 0.000000000000000e+00 0.000000000000000e+00
0.000000000000000e+00 0.000000000000000e+00 0.000000000000000e+00
0.000000000000000e+00 0.000000000000000e+00 0.000000000000000e+00

0.000000000000000e+00 0.000000000000000e+00 0.000000000000000e+00
0.000000000000000e+00 0.000000000000000e+00 0.000000000000000e+00
0.000000000000000e+00 0.000000000000000e+00 0.000000000000000e+00

0.000000000000000e+00 0.000000000000000e+00 0.000000000000000e+00
0.000000000000000e+00 0.000000000000000e+00 0.000000000000000e+00
0.000000000000000e+00 0.000000000000000e+00 0.000000000000000e+00

0.000000000000000e+00 0.000000000000000e+00 0.000000000000000e+00
0.000000000000000e+00 0.000000000000000e+00 0.000000000000000e+00
0.000000000000000e+00 0.000000000000000e+00 0.000000000000000e+00

0.000000000000000e+00 0.000000000000000e+00 0.000000000000000e+00
0.000000000000000e+00 0.000000000000000e+00 0.000000000000000e+00
0.000000000000000e+00 0.000000000000000e+00 0.000000000000000e+00

0.000000000000000e+00 0.000000000000000e+00 0.000000000000000e+00
0.000000000000000e+00 0.000000000000000e+00 0.000000000000000e+00
0.000000000000000e+00 0.000000000000000e+00 0.000000000000000e+00

0.000000000000000e+00 0.000000000000000e+00 0.000000000000000e+00
0.000000000000000e+00 0.000000000000000e+00 0.000000000000000e+00
0.000000000000000e+00 0.000000000000000e+00 0.000000000000000e+00

0.000000000000000e+00 0.000000000000000e+00 0.000000000000000e+00
0.000000000000000e+00 0.000000000000000e+00 0.000000000000000e+00
0.000000000000000e+00 0.000000000000000e+00 0.000000000000000e+00

0.000000000000000e+00 0.000000000000000e+00 0.000000000000000e+00
0.000000000000000e+00 0.000000000000000e+00 0.000000000000000e+00
0.000000000000000e+00 0.000000000000000e+00 0.000000000000000e+00

0.000000000000000e+00 0.000000000000000e+00 0.000000000000000e+00
0.000000000000000e+00 0.000000000000000e+00 0.000000000000000e+00
0.000000000000000e+00 0.000000000000000e+00 0.000000000000000e+00

0.000000000000000e+00 0.000000000000000e+00 0.000000000000000e+00
0.000000000000000e+00 0.000000000000000e+00 0.000000000000000e+00
0.000000000000000e+00 0.000000000000000e+00 0.000000000000000e+00

0.000000000000000e+00 0.000000000000000e+00 0.000000000000000e+00
0.000000000000000e+00 0.000000000000000e+00 0.000000000000000e+00
0.000000000000000e+00 0.000000000000000e+00 0.000000000000000e+00

0.000000000000000e+00 0.000000000000000e+00 0.000000000000000e+00
0.000000000000000e+00 0.000000000000000e+00 0.000000000000000e+00
0.000000000000000e+00 0.000000000000000e+00 0.000000000000000e+00

0.000000000000000e+00 0.000000000000000e+00 0.000000000000000e+00
0.000000000000000e+00 0.000000000000000e+00 0.000000000000000e+00
0.000000000000000e+00 0.000000000000000e+00 0.000000000000000e+00

0.000000000000000e+00 0.000000000000000e+00 0.000000000000000e+00
0.000000000000000e+00 0.000000000000000e+00 0.000000000000000e+00
0.000000000000000e+00 0.000000000000000e+00 0.000000000000000e+00

0.000000000000000e+00 0.000000000000000e+00 0.000000000000000e+00
0.000000000000000e+00 0.000000000000000e+00 0.000000000000000e+00
0.000000000000000e+00 0.000000000000000e+00 0.000000000000000e+00

0.000000000000000e+00 0.000000000000000e+00 0.000000000000000e+00
0.000000000000000e+00 0.000000000000000e+00 0.000000000000000e+00
0.000000000000000e+00 0.000000000000000e+00 0.000000000000000e+00

0.000000000000000e+00 0.000000000000000e+00 0.000000000000000e+00
0.000000000000000e+00 0.000000000000000e+00 0.000000000000000e+00
0.000000000000000e+00 0.000000000000000e+00 0.000000000000000e+00

0.000000000000000e+00 0.000000000000000e+00 0.000000000000000e+00
0.000000000000000e+00 0.000000000000000e+00 0.000000000000000e+00
0.000000000000000e+00 0.000000000000000e+00 0.000000000000000e+00

0.000000000000000e+00 0.000000000000000e+00 0.000000000000000e+00
0.000000000000000e+00 0.000000000000000e+00 0.000000000000000e+00
0.000000000000000e+00 0.000000000000000e+00 0.000000000000000e+00

0.000000000000000e+00 0.000000000000000e+00 0.000000000000000e+00
0.000000000000000e+00 0.000000000000000e+00 0.000000000000000e+00
0.000000000000000e+00 0.000000000000000e+00 0.000000000000000e+00

0.000000000000000e+00 0.000000000000000e+00 0.000000000000000e+00
0.000000000000000e+00 0.000000000000000e+00 0.000000000000000e+00
0.000000000000000e+00 0.000000000000000e+00 0.000000000000000e+00

0.000000000000000e+00 0.000000000000000e+00 0.000000000000000e+00
0.000000000000000e+00 0.000000000000000e+00 0.000000000000000e+00
0.000000000000000e+00 0.000000000000000e+00 0.000000000000000e+00

0.000000000000000e+00 0.000000000000000e+00 0.000000000000000e+00
0.000000000000000e+00 0.000000000000000e+00 0.000000000000000e+00
0.000000000000000e+00 0.000000000000000e+00 0.000000000000000e+00

0.000000000000000e+00 0.000000000000000e+00 0.000000000000000e+00
0.000000000000000e+00 0.000000000000000e+00 0.000000000000000e+00
0.000000000000000e+00 0.000000000000000e+00 0.000000000000000e+00

0.000000000000000e+00 0.000000000000000e+00 0.000000000000000e+00
0.000000000000000e+00 0.000000000000000e+00 0.000000000000000e+00
0.000000000000000e+00 0.000000000000000e+00 0.000000000000000e+00

0.000000000000000e+00 0.000000000000000e+00 0.000000000000000e+00
0.000000000000000e+00 0.000000000000000e+00 0.000000000000000e+00
0.000000000000000e+00 0.000000000000000e+00 0.000000000000000e+00

0.000000000000000e+00 0.000000000000000e+00 0.000000000000000e+00
0.000000000000000e+00 0.000000000000000e+00 0.000000000000000e+00
0.000000000000000e+00 0.000000000000000e+00 0.000000000000000e+00

0.000000000000000e+00 0.000000000000000e+00 0.000000000000000e+00
0.000000000000000e+00 0.000000000000000e+00 0.000000000000000e+00
0.000000000000000e+00 0.000000000000000e+00 0.000000000000000e+00

0.000000000000000e+00 0.000000000000000e+00 0.000000000000000e+00
0.000000000000000e+00 0.000000000000000e+00 0.000000000000000e+00
0.000000000000000e+00 0.000000000000000e+00 0.000000000000000e+00

0.000000000000000e+00 0.000000000000000e+00 0.000000000000000e+00
0.000000000000000e+00 0.000000000000000e+00 0.000000000000000e+00
0.000000000000000e+00 0.000000000000000e+00 0.000000000000000e+00

0.000000000000000e+00 0.000000000000000e+00 0.000000000000000e+00
0.000000000000000e+00 0.000000000000000e+00 0.000000000000000e+00
0.000000000000000e+00 0.000000000000000e+00 0.000000000000000e+00

0.000000000000000e+00 0.000000000000000e+00 0.000000000000000e+00
0.000000000000000e+00 0.000000000000000e+00 0.000000000000000e+00
0.000000000000000e+00 0.000000000000000e+00 0.000000000000000e+00

0.000000000000000e+00 0.000000000000000e+00 0.000000000000000e+00
0.000000000000000e+00 0.000000000000000e+00 0.000000000000000e+00
0.000000000000000e+00 0.000000000000000e+00 0.000000000000000e+00

0.000000000000000e+00 0.000000000000000e+00 0.000000000000000e+00
0.000000000000000e+00 0.000000000000000e+00 0.000000000000000e+00
0.000000000000000e+00 0.000000000000000e+00 0.000000000000000e+00

0.000000000000000e+00 0.000000000000000e+00 0.000000000000000e+00
0.000000000000000e+00 0.000000000000000e+00 0.000000000000000e+00
0.000000000000000e+00 0.000000000000000e+00 0.000000000000000e+00

0.000000000000000e+00 0.000000000000000e+00 0.000000000000000e+00
0.000000000000000e+00 0.000000000000000e+00 0.000000000000000e+00
0.000000000000000e+00 0.000000000000000e+00 0.000000000000000e+00

0.000000000000000e+00 0.000000000000000e+00 0.000000000000000e+00
0.000000000000000e+00 0.000000000000000e+00 0.000000000000000e+00
0.000000000000000e+00 0.000000000000000e+00 0.000000000000000e+00

0.000000000000000e+00 0.000000000000000e+00 0.000000000000000e+00
0.000000000000000e+00 0.000000000000000e+00 0.000000000000000e+00
0.000000000000000e+00 0.000000000000000e+00 0.000000000000000e+00

0.000000000000000e+00 0.000000000000000e+00 0.000000000000000e+00
0.000000000000000e+00 0.000000000000000e+00 0.000000000000000e+00
0.000000000000000e+00 0.000000000000000e+00 0.000000000000000e+00

0.000000000000000e+00 0.000000000000000e+00 0.000000000000000e+00
0.000000000000000e+00 0.000000000000000e+00 0.000000000000000e+00
0.000000000000000e+00 0.000000000000000e+00 0.000000000000000e+00

0.000000000000000e+00 0.000000000000000e+00 0.000000000000000e+00
0.000000000000000e+00 0.000000000000000e+00 0.000000000000000e+00
0.000000000000000e+00 0.000000000000000e+00 0.000000000000000e+00

0.000000000000000e+00 0.000000000000000e+00 0.000000000000000e+00
0.000000000000000e+00 0.000000000000000e+00 0.000000000000000e+00
0.000000000000000e+00 0.000000000000000e+00 0.000000000000000e+00

0.000000000000000e+00 0.000000000000000e+00 0.000000000000000e+00
0.000000000000000e+00 0.000000000000000e+00 0.000000000000000e+00
0.000000000000000e+00 0.000000000000000e+00 0.000000000000000e+00

0.000000000000000e+00 0.000000000000000e+00 0.000000000000000e+00
0.000000000000000e+00 0.000000000000000e+00 0.000000000000000e+00
0.000000000000000e+00 0.000000000000000e+00 0.000000000000000e+00

0.000000000000000e+00 0.000000000000000e+00 0.000000000000000e+00
0.000000000000000e+00 0.000000000000000e+00 0.000000000000000e+00
0.000000000000000e+00 0.000000000000000e+00 0.000000000000000e+00

0.000000000000000e+00 0.000000000000000e+00 0.000000000000000e+00
0.000000000000000e+00 0.000000000000000e+00 0.000000000000000e+00
0.000000000000000e+00 0.000000000000000e+00 0.000000000000000e+00

0.000000000000000e+00 0.000000000000000e+00 0.000000000000000e+00
0.000000000000000e+00 0.000000000000000e+00 0.000000000000000e+00
0.000000000000000e+00 0.000000000000000e+00 0.000000000000000e+00

0.000000000000000e+00 0.000000000000000e+00 0.000000000000000e+00
0.000000000000000e+00 0.000000000000000e+00 0.000000000000000e+00
0.000000000000000e+00 0.000000000000000e+00 0.000000000000000e+00

0.000000000000000e+00 0.000000000000000e+00 0.000000000000000e+00
0.000000000000000e+00 0.000000000000000e+00 0.000000000000000e+00
0.000000000000000e+00 0.000000000000000e+00 0.000000000000000e+00

0.000000000000000e+00 0.000000000000000e+00 0.000000000000000e+00
0.000000000000000e+00 0.000000000000000e+00 0.000000000000000e+00
0.000000000000000e+00 0.000000000000000e+00 0.000000000000000e+00

0.000000000000000e+00 0.000000000000000e+00 0.000000000000000e+00
0.000000000000000e+00 0.000000000000000e+00 0.000000000000000e+00
0.000000000000000e+00 0.000000000000000e+00 0.000000000000000e+00

0.000000000000000e+00 0.000000000000000e+00 0.000000000000000e+00
0.000000000000000e+00 0.000000000000000e+00 0.000000000000000e+00
0.000000000000000e+00 0.000000000000000e+00 0.000000000000000e+00

0.000000000000000e+00 0.000000000000000e+00 0.000000000000000e+00
0.000000000000000e+00 0.000000000000000e+00 0.000000000000000e+00
0.000000000000000e+00 0.000000000000000e+00 0.000000000000000e+00

0.000000000000000e+00 0.000000000000000e+00 0.000000000000000e+00
0.000000000000000e+00 0.000000000000000e+00 0.000000000000000e+00
0.000000000000000e+00 0.000000000000000e+00 0.000000000000000e+00

0.000000000000000e+00 0.000000000000000e+00 0.000000000000000e+00
0.000000000000000e+00 0.000000000000000e+00 0.000000000000000e+00
0.000000000000000e+00 0.000000000000000e+00 0.000000000000000e+00

0.000000000000000e+00 0.000000000000000e+00 0.000000000000000e+00
0.000000000000000e+00 0.000000000000000e+00 0.000000000000000e+00
0.000000000000000e+00 0.000000000000000e+00 0.000000000000000e+00

0.000000000000000e+00 0.000000000000000e+00 0.000000000000000e+00
0.000000000000000e+00 0.000000000000000e+00 0.000000000000000e+00
0.000000000000000e+00 0.000000000000000e+00 0.000000000000000e+00

0.000000000000000e+00 0.000000000000000e+00 0.000000000000000e+00
0.000000000000000e+00 0.000000000000000e+00 0.000000000000000e+00
0.000000000000000e+00 0.000000000000000e+00 0.000000000000000e+00

0.000000000000000e+00 0.000000000000000e+00 0.000000000000000e+00
0.000000000000000e+00 0.000000000000000e+00 0.000000000000000e+00
0.000000000000000e+00 0.000000000000000e+00 0.000000000000000e+00

0.000000000000000e+00 0.000000000000000e+00 0.000000000000000e+00
0.000000000000000e+00 0.000000000000000e+00 0.000000000000000e+00
0.000000000000000e+00 0.000000000000000e+00 0.000000000000000e+00

0.000000000000000e+00 0.000000000000000e+00 0.000000000000000e+00
0.000000000000000e+00 0.000000000000000e+00 0.000000000000000e+00
0.000000000000000e+00 0.000000000000000e+00 0.000000000000000e+00

0.000000000000000e+00 0.000000000000000e+00 0.000000000000000e+00
0.000000000000000e+00 0.000000000000000e+00 0.000000000000000e+00
0.000000000000000e+00 0.000000000000000e+00 0.000000000000000e+00

0.000000000000000e+00 0.000000000000000e+00 0.000000000000000e+00
0.000000000000000e+00 0.000000000000000e+00 0.000000000000000e+00
0.000000000000000e+00 0.000000000000000e+00 0.000000000000000e+00

0.000000000000000e+00 0.000000000000000e+00 0.000000000000000e+00
0.000000000000000e+00 0.000000000000000e+00 0.000000000000000e+00
0.000000000000000e+00 0.000000000000000e+00 0.000000000000000e+00

0.000000000000000e+00 0.000000000000000e+00 0.000000000000000e+00
0.000000000000000e+00 0.000000000000000e+00 0.000000000000000e+00
0.000000000000000e+00 0.000000000000000e+00 0.000000000000000e+00

0.000000000000000e+00 0.000000000000000e+00 0.000000000000000e+00
0.000000000000000e+00 0.000000000000000e+00 0.000000000000000e+00
0.000000000000000e+00 0.000000000000000e+00 0.000000000000000e+00

0.000000000000000e+00 0.000000000000000e+00 0.000000000000000e+00
0.000000000000000e+00 0.000000000000000e+00 0.000000000000000e+00
0.000000000000000e+00 0.000000000000000e+00 0.000000000000000e+00

0.000000000000000e+00 0.000000000000000e+00 0.000000000000000e+00
0.000000000000000e+00 0.000000000000000e+00 0.000000000000000e+00
0.000000000000000e+00 0.000000000000000e+00 0.000000000000000e+00

0.000000000000000e+00 0.000000000000000e+00 0.000000000000000e+00
0.000000000000000e+00 0.000000000000000e+00 0.000000000000000e+00
0.000000000000000e+00 0.000000000000000e+00 0.000000000000000e+00

0.000000000000000e+00 0.000000000000000e+00 0.000000000000000e+00
0.000000000000000e+00 0.000000000000000e+00 0.000000000000000e+00
0.000000000000000e+00 0.000000000000000e+00 0.000000000000000e+00

0.000000000000000e+00 0.000000000000000e+00 0.000000000000000e+00
0.000000000000000e+00 0.000000000000000e+00 0.000000000000000e+00
0.000000000000000e+00 0.000000000000000e+00 0.000000000000000e+00

0.000000000000000e+00 0.000000000000000e+00 0.000000000000000e+00
0.000000000000000e+00 0.000000000000000e+00 0.000000000000000e+00
0.000000000000000e+00 0.000000000000000e+00 0.000000000000000e+00

0.000000000000000e+00 0.000000000000000e+00 0.000000000000000e+00
0.000000000000000e+00 0.000000000000000e+00 0.000000000000000e+00
0.000000000000000e+00 0.000000000000000e+00 0.000000000000000e+00

0.000000000000000e+00 0.000000000000000e+00 0.000000000000000e+00
0.000000000000000e+00 0.000000000000000e+00 0.000000000000000e+00
0.000000000000000e+00 0.000000000000000e+00 0.000000000000000e+00

0.000000000000000e+00 0.000000000000000e+00 0.000000000000000e+00
0.000000000000000e+00 0.000000000000000e+00 0.000000000000000e+00
0.000000000000000e+00 0.000000000000000e+00 0.000000000000000e+00

0.000000000000000e+00 0.000000000000000e+00 0.000000000000000e+00
0.000000000000000e+00 0.000000000000000e+00 0.000000000000000e+00
0.000000000000000e+00 0.000000000000000e+00 0.000000000000000e+00

0.000000000000000e+00 0.000000000000000e+00 0.000000000000000e+00
0.000000000000000e+00 0.000000000000000e+00 0.000000000000000e+00
0.000000000000000e+00 0.000000000000000e+00 0.000000000000000e+00

0.000000000000000e+00 0.000000000000000e+00 0.000000000000000e+00
0.000000000000000e+00 0.000000000000000e+00 0.000000000000000e+00
0.000000000000000e+00 0.000000000000000e+00 0.000000000000000e+00

0.000000000000000e+00 0.000000000000000e+00 0.000000000000000e+00
0.000000000000000e+00 0.000000000000000e+00 0.000000000000000e+00
0.000000000000000e+00 0.000000000000000e+00 0.000000000000000e+00

0.000000000000000e+00 0.000000000000000e+00 0.000000000000000e+00
0.000000000000000e+00 0.000000000000000e+00 0.000000000000000e+00
0.000000000000000e+00 0.000000000000000e+00 0.000000000000000e+00

0.000000000000000e+00 0.000000000000000e+00 0.000000000000000e+00
0.000000000000000e+00 0.000000000000000e+00 0.000000000000000e+00
0.000000000000000e+00 0.000000000000000e+00 0.000000000000000e+00

0.000000000000000e+00 0.000000000000000e+00 0.000000000000000e+00
0.000000000000000e+00 0.000000000000000e+00 0.000000000000000e+00
0.000000000000000e+00 0.000000000000000e+00 0.000000000000000e+00

0.000000000000000e+00 0.000000000000000e+00 0.000000000000000e+00
0.000000000000000e+00 0.000000000000000e+00 0.000000000000000e+00
0.000000000000000e+00 0.000000000000000e+00 0.000000000000000e+00

0.000000000000000e+00 0.000000000000000e+00 0.000000000000000e+00
0.000000000000000e+00 0.000000000000000e+00 0.000000000000000e+00
0.000000000000000e+00 0.000000000000000e+00 0.000000000000000e+00

0.000000000000000e+00 0.000000000000000e+00 0.000000000000000e+00
0.000000000000000e+00 0.000000000000000e+00 0.000000000000000e+00
0.000000000000000e+00 0.000000000000000e+00 0.000000000000000e+00

0.000000000000000e+00 0.000000000000000e+00 0.000000000000000e+00
0.000000000000000e+00 0.000000000000000e+00 0.000000000000000e+00
0.000000000000000e+00 0.000000000000000e+00 0.000000000000000e+00

0.000000000000000e+00 0.000000000000000e+00 0.000000000000000e+00
0.000000000000000e+00 0.000000000000000e+00 0.000000000000000e+00
0.000000000000000e+00 0.000000000000000e+00 0.000000000000000e+00

0.000000000000000e+00 0.000000000000000e+00 0.000000000000000e+00
0.000000000000000e+00 0.000000000000000e+00 0.000000000000000e+00
0.000000000000000e+00 0.000000000000000e+00 0.000000000000000e+00

0.000000000000000e+00 0.000000000000000e+00 0.000000000000000e+00
0.000000000000000e+00 0.000000000000000e+00 0.000000000000000e+00
0.000000000000000e+00 0.000000000000000e+00 0.000000000000000e+00

0.000000000000000e+00 0.000000000000000e+00 0.000000000000000e+00
0.000000000000000e+00 0.000000000000000e+00 0.000000000000000e+00
0.000000000000000e+00 0.000000000000000e+00 0.000000000000000e+00

0.000000000000000e+00 0.000000000000000e+00 0.000000000000000e+00
0.000000000000000e+00 0.000000000000000e+00 0.000000000000000e+00
0.000000000000000e+00 0.000000000000000e+00 0.000000000000000e+00

0.000000000000000e+00 0.000000000000000e+00 0.000000000000000e+00
0.000000000000000e+00 0.000000000000000e+00 0.000000000000000e+00
0.000000000000000e+00 0.000000000000000e+00 0.000000000000000e+00

0.000000000000000e+00 0.000000000000000e+00 0.000000000000000e+00
0.000000000000000e+00 0.000000000000000e+00 0.000000000000000e+00
0.000000000000000e+00 0.000000000000000e+00 0.000000000000000e+00

0.000000000000000e+00 0.000000000000000e+00 0.000000000000000e+00
0.000000000000000e+00 0.000000000000000e+00 0.000000000000000e+00
0.000000000000000e+00 0.000000000000000e+00 0.000000000000000e+00

0.000000000000000e+00 0.000000000000000e+00 0.000000000000000e+00
0.000000000000000e+00 0.000000000000000e+00 0.000000000000000e+00
0.000000000000000e+00 0.000000000000000e+00 0.000000000000000e+00

0.000000000000000e+00 0.000000000000000e+00 0.000000000000000e+00
0.000000000000000e+00 0.000000000000000e+00 0.000000000000000e+00
0.000000000000000e+00 0.000000000000000e+00 0.000000000000000e+00

0.000000000000000e+00 0.000000000000000e+00 0.000000000000000e+00
0.000000000000000e+00 0.000000000000000e+00 0.000000000000000e+00
0.000000000000000e+00 0.000000000000000e+00 0.000000000000000e+00

0.000000000000000e+00 0.000000000000000e+00 0.000000000000000e+00
0.000000000000000e+00 0.000000000000000e+00 0.000000000000000e+00
0.000000000000000e+00 0.000000000000000e+00 0.000000000000000e+00

0.000000000000000e+00 0.000000000000000e+00 0.000000000000000e+00
0.000000000000000e+00 0.000000000000000e+00 0.000000000000000e+00
0.000000000000000e+00 0.000000000000000e+00 0.000000000000000e+00

0.000000000000000e+00 0.000000000000000e+00 0.000000000000000e+00
0.000000000000000e+00 0.000000000000000e+00 0.000000000000000e+00
0.000000000000000e+00 0.000000000000000e+00 0.000000000000000e+00

0.000000000000000e+00 0.000000000000000e+00 0.000000000000000e+00
0.000000000000000e+00 0.000000000000000e+00 0.000000000000000e+00
0.000000000000000e+00 0.000000000000000e+00 0.000000000000000e+00

0.000000000000000e+00 0.000000000000000e+00 0.000000000000000e+00
0.000000000000000e+00 0.000000000000000e+00 0.000000000000000e+00
0.000000000000000e+00 0.000000000000000e+00 0.000000000000000e+00

0.000000000000000e+00 0.000000000000000e+00 0.000000000000000e+00
0.000000000000000e+00 0.000000000000000e+00 0.000000000000000e+00
0.000000000000000e+00 0.000000000000000e+00 0.000000000000000e+00

0.000000000000000e+00 0.000000000000000e+00 0.000000000000000e+00
0.000000000000000e+00 0.000000000000000e+00 0.000000000000000e+00
0.000000000000000e+00 0.000000000000000e+00 0.000000000000000e+00

0.000000000000000e+00 0.000000000000000e+00 0.000000000000000e+00
0.000000000000000e+00 0.000000000000000e+00 0.000000000000000e+00
0.000000000000000e+00 0.000000000000000e+00 0.000000000000000e+00

0.000000000000000e+00 0.000000000000000e+00 0.000000000000000e+00
0.000000000000000e+00 0.000000000000000e+00 0.000000000000000e+00
0.000000000000000e+00 0.000000000000000e+00 0.000000000000000e+00

0.000000000000000e+00 0.000000000000000e+00 0.000000000000000e+00
0.000000000000000e+00 0.000000000000000e+00 0.000000000000000e+00
0.000000000000000e+00 0.000000000000000e+00 0.000000000000000e+00

0.000000000000000e+00 0.000000000000000e+00 0.000000000000000e+00
0.000000000000000e+00 0.000000000000000e+00 0.000000000000000e+00
0.000000000000000e+00 0.000000000000000e+00 0.000000000000000e+00

0.000000000000000e+00 0.000000000000000e+00 0.000000000000000e+00
0.000000000000000e+00 0.000000000000000e+00 0.000000000000000e+00
0.000000000000000e+00 0.000000000000000e+00 0.000000000000000e+00

0.000000000000000e+00 0.000000000000000e+00 0.000000000000000e+00
0.000000000000000e+00 0.000000000000000e+00 0.000000000000000e+00
0.000000000000000e+00 0.000000000000000e+00 0.000000000000000e+00

0.000000000000000e+00 0.000000000000000e+00 0.000000000000000e+00
0.000000000000000e+00 0.000000000000000e+00 0.000000000000000e+00
0.000000000000000e+00 0.000000000000000e+00 0.000000000000000e+00

0.000000000000000e+00 0.000000000000000e+00 0.000000000000000e+00
0.000000000000000e+00 0.000000000000000e+00 0.000000000000000e+00
0.000000000000000e+00 0.000000000000000e+00 0.000000000000000e+00

0.000000000000000e+00 0.000000000000000e+00 0.000000000000000e+00
0.000000000000000e+00 0.000000000000000e+00 0.000000000000000e+00
0.000000000000000e+00 0.000000000000000e+00 0.000000000000000e+00

0.000000000000000e+00 0.000000000000000e+00 0.000000000000000e+00
0.000000000000000e+00 0.000000000000000e+00 0.000000000000000e+00
0.000000000000000e+00 0.000000000000000e+00 0.000000000000000e+00

0.000000000000000e+00 0.000000000000000e+00 0.000000000000000e+00
0.000000000000000e+00 0.000000000000000e+00 0.000000000000000e+00
0.000000000000000e+00 0.000000000000000e+00 0.000000000000000e+00

0.000000000000000e+00 0.000000000000000e+00 0.000000000000000e+00
0.000000000000000e+00 0.000000000000000e+00 0.000000000000000e+00
0.000000000000000e+00 0.000000000000000e+00 0.000000000000000e+00

0.000000000000000e+00 0.000000000000000e+00 0.000000000000000e+00
0.000000000000000e+00 0.000000000000000e+00 0.000000000000000e+00
0.000000000000000e+00 0.000000000000000e+00 0.000000000000000e+00

0.000000000000000e+00 0.000000000000000e+00 0.000000000000000e+00
0.000000000000000e+00 0.000000000000000e+00 0.000000000000000e+00
0.000000000000000e+00 0.000000000000000e+00 0.000000000000000e+00

0.000000000000000e+00 0.000000000000000e+00 0.000000000000000e+00
0.000000000000000e+00 0.000000000000000e+00 0.000000000000000e+00
0.000000000000000e+00 0.000000000000000e+00 0.000000000000000e+00

0.000000000000000e+00 0.000000000000000e+00 0.000000000000000e+00
0.000000000000000e+00 0.000000000000000e+00 0.000000000000000e+00
0.000000000000000e+00 0.000000000000000e+00 0.000000000000000e+00

0.000000000000000e+00 0.000000000000000e+00 0.000000000000000e+00
0.000000000000000e+00 0.000000000000000e+00 0.000000000000000e+00
0.000000000000000e+00 0.000000000000000e+00 0.000000000000000e+00

0.000000000000000e+00 0.000000000000000e+00 0.000000000000000e+00
0.000000000000000e+00 0.000000000000000e+00 0.000000000000000e+00
0.000000000000000e+00 0.000000000000000e+00 0.000000000000000e+00

0.000000000000000e+00 0.000000000000000e+00 0.000000000000000e+00
0.000000000000000e+00 0.000000000000000e+00 0.000000000000000e+00
0.000000000000000e+00 0.000000000000000e+00 0.000000000000000e+00

0.000000000000000e+00 0.000000000000000e+00 0.000000000000000e+00
0.000000000000000e+00 0.000000000000000e+00 0.000000000000000e+00
0.000000000000000e+00 0.000000000000000e+00 0.000000000000000e+00

0.000000000000000e+00 0.000000000000000e+00 0.000000000000000e+00
0.000000000000000e+00 0.000000000000000e+00 0.000000000000000e+00
0.000000000000000e+00 0.000000000000000e+00 0.000000000000000e+00

0.000000000000000e+00 0.000000000000000e+00 0.000000000000000e+00
0.000000000000000e+00 0.000000000000000e+00 0.000000000000000e+00
0.000000000000000e+00 0.000000000000000e+00 0.000000000000000e+00

0.000000000000000e+00 0.000000000000000e+00 0.000000000000000e+00
0.000000000000000e+00 0.000000000000000e+00 0.000000000000000e+00
0.000000000000000e+00 0.000000000000000e+00 0.000000000000000e+00

0.000000000000000e+00 0.000000000000000e+00 0.000000000000000e+00
0.000000000000000e+00 0.000000000000000e+00 0.000000000000000e+00
0.000000000000000e+00 0.000000000000000e+00 0.000000000000000e+00

0.000000000000000e+00 0.000000000000000e+00 0.000000000000000e+00
0.000000000000000e+00 0.000000000000000e+00 0.000000000000000e+00
0.000000000000000e+00 0.000000000000000e+00 0.000000000000000e+00

0.000000000000000e+00 0.000000000000000e+00 0.000000000000000e+00
0.000000000000000e+00 0.000000000000000e+00 0.000000000000000e+00
0.000000000000000e+00 0.000000000000000e+00 0.000000000000000e+00

0.000000000000000e+00 0.000000000000000e+00 0.000000000000000e+00
0.000000000000000e+00 0.000000000000000e+00 0.000000000000000e+00
0.000000000000000e+00 0.000000000000000e+00 0.000000000000000e+00

0.000000000000000e+00 0.000000000000000e+00 0.000000000000000e+00
0.000000000000000e+00 0.000000000000000e+00 0.000000000000000e+00
0.000000000000000e+00 0.000000000000000e+00 0.000000000000000e+00

0.000000000000000e+00 0.000000000000000e+00 0.000000000000000e+00
0.000000000000000e+00 0.000000000000000e+00 0.000000000000000e+00
0.000000000000000e+00 0.000000000000000e+00 0.000000000000000e+00

0.000000000000000e+00 0.000000000000000e+00 0.000000000000000e+00
0.000000000000000e+00 0.000000000000000e+00 0.000000000000000e+00
0.000000000000000e+00 0.000000000000000e+00 0.000000000000000e+00

0.000000000000000e+00 0.000000000000000e+00 0.000000000000000e+00
0.000000000000000e+00 0.000000000000000e+00 0.000000000000000e+00
0.000000000000000e+00 0.000000000000000e+00 0.000000000000000e+00

0.000000000000000e+00 0.000000000000000e+00 0.000000000000000e+00
0.000000000000000e+00 0.000000000000000e+00 0.000000000000000e+00
0.000000000000000e+00 0.000000000000000e+00 0.000000000000000e+00

0.000000000000000e+00 0.000000000000000e+00 0.000000000000000e+00
0.000000000000000e+00 0.000000000000000e+00 0.000000000000000e+00
0.000000000000000e+00 0.000000000000000e+00 0.000000000000000e+00

0.000000000000000e+00 0.000000000000000e+00 0.000000000000000e+00
0.000000000000000e+00 0.000000000000000e+00 0.000000000000000e+00
0.000000000000000e+00 0.000000000000000e+00 0.000000000000000e+00

0.000000000000000e+00 0.000000000000000e+00 0.000000000000000e+00
0.000000000000000e+00 0.000000000000000e+00 0.000000000000000e+00
0.000000000000000e+00 0.000000000000000e+00 0.000000000000000e+00

0.000000000000000e+00 0.000000000000000e+00 0.000000000000000e+00
0.000000000000000e+00 0.000000000000000e+00 0.000000000000000e+00
0.000000000000000e+00 0.000000000000000e+00 0.000000000000000e+00

0.000000000000000e+00 0.000000000000000e+00 0.000000000000000e+00
0.000000000000000e+00 0.000000000000000e+00 0.000000000000000e+00
0.000000000000000e+00 0.000000000000000e+00 0.000000000000000e+00

0.000000000000000e+00 0.000000000000000e+00 0.000000000000000e+00
0.000000000000000e+00 0.000000000000000e+00 0.000000000000000e+00
0.000000000000000e+00 0.000000000000000e+00 0.000000000000000e+00

0.000000000000000e+00 0.000000000000000e+00 0.000000000000000e+00
0.000000000000000e+00 0.000000000000000e+00 0.000000000000000e+00
0.000000000000000e+00 0.000000000000000e+00 0.000000000000000e+00

0.000000000000000e+00 0.000000000000000e+00 0.000000000000000e+00
0.000000000000000e+00 0.000000000000000e+00 0.000000000000000e+00
0.000000000000000e+00 0.000000000000000e+00 0.000000000000000e+00

0.000000000000000e+00 0.000000000000000e+00 0.000000000000000e+00
0.000000000000000e+00 0.000000000000000e+00 0.000000000000000e+00
0.000000000000000e+00 0.000000000000000e+00 0.000000000000000e+00

0.000000000000000e+00 0.000000000000000e+00 0.000000000000000e+00
0.000000000000000e+00 0.000000000000000e+00 0.000000000000000e+00
0.000000000000000e+00 0.000000000000000e+00 0.000000000000000e+00

0.000000000000000e+00 0.000000000000000e+00 0.000000000000000e+00
0.000000000000000e+00 0.000000000000000e+00 0.000000000000000e+00
0.000000000000000e+00 0.000000000000000e+00 0.000000000000000e+00

0.000000000000000e+00 0.000000000000000e+00 0.000000000000000e+00
0.000000000000000e+00 0.000000000000000e+00 0.000000000000000e+00
0.000000000000000e+00 0.000000000000000e+00 0.000000000000000e+00

0.000000000000000e+00 0.000000000000000e+00 0.000000000000000e+00
0.000000000000000e+00 0.000000000000000e+00 0.000000000000000e+00
0.000000000000000e+00 0.000000000000000e+00 0.000000000000000e+00

0.000000000000000e+00 0.000000000000000e+00 0.000000000000000e+00
0.000000000000000e+00 0.000000000000000e+00 0.000000000000000e+00
0.000000000000000e+00 0.000000000000000e+00 0.000000000000000e+00

0.000000000000000e+00 0.000000000000000e+00 0.000000000000000e+00
0.000000000000000e+00 0.000000000000000e+00 0.000000000000000e+00
0.000000000000000e+00 0.000000000000000e+00 0.000000000000000e+00

0.000000000000000e+00 0.000000000000000e+00 0.000000000000000e+00
0.000000000000000e+00 0.000000000000000e+00 0.000000000000000e+00
0.000000000000000e+00 0.000000000000000e+00 0.000000000000000e+00

0.000000000000000e+00 0.000000000000000e+00 0.000000000000000e+00
0.000000000000000e+00 0.000000000000000e+00 0.000000000000000e+00
0.000000000000000e+00 0.000000000000000e+00 0.000000000000000e+00

0.000000000000000e+00 0.000000000000000e+00 0.000000000000000e+00
0.000000000000000e+00 0.000000000000000e+00 0.000000000000000e+00
0.000000000000000e+00 0.000000000000000e+00 0.000000000000000e+00

0.000000000000000e+00 0.000000000000000e+00 0.000000000000000e+00
0.000000000000000e+00 0.000000000000000e+00 0.000000000000000e+00
0.000000000000000e+00 0.000000000000000e+00 0.000000000000000e+00

0.000000000000000e+00 0.000000000000000e+00 0.000000000000000e+00
0.000000000000000e+00 0.000000000000000e+00 0.000000000000000e+00
0.000000000000000e+00 0.000000000000000e+00 0.000000000000000e+00

0.000000000000000e+00 0.000000000000000e+00 0.000000000000000e+00
0.000000000000000e+00 0.000000000000000e+00 0.000000000000000e+00
0.000000000000000e+00 0.000000000000000e+00 0.000000000000000e+00

0.000000000000000e+00 0.000000000000000e+00 0.000000000000000e+00
0.000000000000000e+00 0.000000000000000e+00 0.000000000000000e+00
0.000000000000000e+00 0.000000000000000e+00 0.000000000000000e+00

0.000000000000000e+00 0.000000000000000e+00 0.000000000000000e+00
0.000000000000000e+00 0.000000000000000e+00 0.000000000000000e+00
0.000000000000000e+00 0.000000000000000e+00 0.000000000000000e+00

0.000000000000000e+00 0.000000000000000e+00 0.000000000000000e+00
0.000000000000000e+00 0.000000000000000e+00 0.000000000000000e+00
0.000000000000000e+00 0.000000000000000e+00 0.000000000000000e+00

0.000000000000000e+00 0.000000000000000e+00 0.000000000000000e+00
0.000000000000000e+00 0.000000000000000e+00 0.000000000000000e+00
0.000000000000000e+00 0.000000000000000e+00 0.000000000000000e+00

0.000000000000000e+00 0.000000000000000e+00 0.000000000000000e+00
0.000000000000000e+00 0.000000000000000e+00 0.000000000000000e+00
0.000000000000000e+00 0.000000000000000e+00 0.000000000000000e+00

0.000000000000000e+00 0.000000000000000e+00 0.000000000000000e+00
0.000000000000000e+00 0.000000000000000e+00 0.000000000000000e+00
0.000000000000000e+00 0.000000000000000e+00 0.000000000000000e+00

0.000000000000000e+00 0.000000000000000e+00 0.000000000000000e+00
0.000000000000000e+00 0.000000000000000e+00 0.000000000000000e+00
0.000000000000000e+00 0.000000000000000e+00 0.000000000000000e+00

0.000000000000000e+00 0.000000000000000e+00 0.000000000000000e+00
0.000000000000000e+00 0.000000000000000e+00 0.000000000000000e+00
0.000000000000000e+00 0.000000000000000e+00 0.000000000000000e+00

0.000000000000000e+00 0.000000000000000e+00 0.000000000000000e+00
0.000000000000000e+00 0.000000000000000e+00 0.000000000000000e+00
0.000000000000000e+00 0.000000000000000e+00 0.000000000000000e+00

0.000000000000000e+00 0.000000000000000e+00 0.000000000000000e+00
0.000000000000000e+00 0.000000000000000e+00 0.000000000000000e+00
0.000000000000000e+00 0.000000000000000e+00 0.000000000000000e+00

0.000000000000000e+00 0.000000000000000e+00 0.000000000000000e+00
0.000000000000000e+00 0.000000000000000e+00 0.000000000000000e+00
0.000000000000000e+00 0.000000000000000e+00 0.000000000000000e+00

0.000000000000000e+00 0.000000000000000e+00 0.000000000000000e+00
0.000000000000000e+00 0.000000000000000e+00 0.000000000000000e+00
0.000000000000000e+00 0.000000000000000e+00 0.000000000000000e+00

0.000000000000000e+00 0.000000000000000e+00 0.000000000000000e+00
0.000000000000000e+00 0.000000000000000e+00 0.000000000000000e+00
0.000000000000000e+00 0.000000000000000e+00 0.000000000000000e+00

0.000000000000000e+00 0.000000000000000e+00 0.000000000000000e+00
0.000000000000000e+00 0.000000000000000e+00 0.000000000000000e+00
0.000000000000000e+00 0.000000000000000e+00 0.000000000000000e+00

0.000000000000000e+00 0.000000000000000e+00 0.000000000000000e+00
0.000000000000000e+00 0.000000000000000e+00 0.000000000000000e+00
0.000000000000000e+00 0.000000000000000e+00 0.000000000000000e+00

0.000000000000000e+00 0.000000000000000e+00 0.000000000000000e+00
0.000000000000000e+00 0.000000000000000e+00 0.000000000000000e+00
0.000000000000000e+00 0.000000000000000e+00 0.000000000000000e+00

0.000000000000000e+00 0.000000000000000e+00 0.000000000000000e+00
0.000000000000000e+00 0.000000000000000e+00 0.000000000000000e+00
0.000000000000000e+00 0.000000000000000e+00 0.000000000000000e+00

0.000000000000000e+00 0.000000000000000e+00 0.000000000000000e+00
0.000000000000000e+00 0.000000000000000e+00 0.000000000000000e+00
0.000000000000000e+00 0.000000000000000e+00 0.000000000000000e+00

0.000000000000000e+00 0.000000000000000e+00 0.000000000000000e+00
0.000000000000000e+00 0.000000000000000e+00 0.000000000000000e+00
0.000000000000000e+00 0.000000000000000e+00 0.000000000000000e+00

0.000000000000000e+00 0.000000000000000e+00 0.000000000000000e+00
0.000000000000000e+00 0.000000000000000e+00 0.000000000000000e+00
0.000000000000000e+00 0.000000000000000e+00 0.000000000000000e+00

0.000000000000000e+00 0.000000000000000e+00 0.000000000000000e+00
0.000000000000000e+00 0.000000000000000e+00 0.000000000000000e+00
0.000000000000000e+00 0.000000000000000e+00 0.000000000000000e+00

0.000000000000000e+00 0.000000000000000e+00 0.000000000000000e+00
0.000000000000000e+00 0.000000000000000e+00 0.000000000000000e+00
0.000000000000000e+00 0.000000000000000e+00 0.000000000000000e+00

0.000000000000000e+00 0.000000000000000e+00 0.000000000000000e+00
0.000000000000000e+00 0.000000000000000e+00 0.000000000000000e+00
0.000000000000000e+00 0.000000000000000e+00 0.000000000000000e+00

0.000000000000000e+00 0.000000000000000e+00 0.000000000000000e+00
0.000000000000000e+00 0.000000000000000e+00 0.000000000000000e+00
0.000000000000000e+00 0.000000000000000e+00 0.000000000000000e+00

0.000000000000000e+00 0.000000000000000e+00 0.000000000000000e+00
0.000000000000000e+00 0.000000000000000e+00 0.000000000000000e+00
0.000000000000000e+00 0.000000000000000e+00 0.000000000000000e+00

0.000000000000000e+00 0.000000000000000e+00 0.000000000000000e+00
0.000000000000000e+00 0.000000000000000e+00 0.000000000000000e+00
0.000000000000000e+00 0.000000000000000e+00 0.000000000000000e+00

0.000000000000000e+00 0.000000000000000e+00 0.000000000000000e+00
0.000000000000000e+00 0.000000000000000e+00 0.000000000000000e+00
0.000000000000000e+00 0.000000000000000e+00 0.000000000000000e+00

0.000000000000000e+00 0.000000000000000e+00 0.000000000000000e+00
0.000000000000000e+00 0.000000000000000e+00 0.000000000000000e+00
0.000000000000000e+00 0.000000000000000e+00 0.000000000000000e+00

0.000000000000000e+00 0.000000000000000e+00 0.000000000000000e+00
0.000000000000000e+00 0.000000000000000e+00 0.000000000000000e+00
0.000000000000000e+00 0.000000000000000e+00 0.000000000000000e+00

0.000000000000000e+00 0.000000000000000e+00 0.000000000000000e+00
0.000000000000000e+00 0.000000000000000e+00 0.000000000000000e+00
0.000000000000000e+00 0.000000000000000e+00 0.000000000000000e+00

0.000000000000000e+00 0.000000000000000e+00 0.000000000000000e+00
0.000000000000000e+00 0.000000000000000e+00 0.000000000000000e+00
0.000000000000000e+00 0.000000000000000e+00 0.000000000000000e+00

0.000000000000000e+00 0.000000000000000e+00 0.000000000000000e+00
0.000000000000000e+00 0.000000000000000e+00 0.000000000000000e+00
0.000000000000000e+00 0.000000000000000e+00 0.000000000000000e+00

0.000000000000000e+00 0.000000000000000e+00 0.000000000000000e+00
0.000000000000000e+00 0.000000000000000e+00 0.000000000000000e+00
0.000000000000000e+00 0.000000000000000e+00 0.000000000000000e+00

0.000000000000000e+00 0.000000000000000e+00 0.000000000000000e+00
0.000000000000000e+00 0.000000000000000e+00 0.000000000000000e+00
0.000000000000000e+00 0.000000000000000e+00 0.000000000000000e+00

0.000000000000000e+00 0.000000000000000e+00 0.000000000000000e+00
0.000000000000000e+00 0.000000000000000e+00 0.000000000000000e+00
0.000000000000000e+00 0.000000000000000e+00 0.000000000000000e+00

0.000000000000000e+00 0.000000000000000e+00 0.000000000000000e+00
0.000000000000000e+00 0.000000000000000e+00 0.000000000000000e+00
0.000000000000000e+00 0.000000000000000e+00 0.000000000000000e+00

0.000000000000000e+00 0.000000000000000e+00 0.000000000000000e+00
0.000000000000000e+00 0.000000000000000e+00 0.000000000000000e+00
0.000000000000000e+00 0.000000000000000e+00 0.000000000000000e+00

0.000000000000000e+00 0.000000000000000e+00 0.000000000000000e+00
0.000000000000000e+00 0.000000000000000e+00 0.000000000000000e+00
0.000000000000000e+00 0.000000000000000e+00 0.000000000000000e+00

0.000000000000000e+00 0.000000000000000e+00 0.000000000000000e+00
0.000000000000000e+00 0.000000000000000e+00 0.000000000000000e+00
0.000000000000000e+00 0.000000000000000e+00 0.000000000000000e+00

0.000000000000000e+00 0.000000000000000e+00 0.000000000000000e+00
0.000000000000000e+00 0.000000000000000e+00 0.000000000000000e+00
0.000000000000000e+00 0.000000000000000e+00 0.000000000000000e+00

0.000000000000000e+00 0.000000000000000e+00 0.000000000000000e+00
0.000000000000000e+00 0.000000000000000e+00 0.000000000000000e+00
0.000000000000000e+00 0.000000000000000e+00 0.000000000000000e+00

0.000000000000000e+00 0.000000000000000e+00 0.000000000000000e+00
0.000000000000000e+00 0.000000000000000e+00 0.000000000000000e+00
0.000000000000000e+00 0.000000000000000e+00 0.000000000000000e+00

0.000000000000000e+00 0.000000000000000e+00 0.000000000000000e+00
0.000000000000000e+00 0.000000000000000e+00 0.000000000000000e+00
0.000000000000000e+00 0.000000000000000e+00 0.000000000000000e+00

0.000000000000000e+00 0.000000000000000e+00 0.000000000000000e+00
0.000000000000000e+00 0.000000000000000e+00 0.000000000000000e+00
0.000000000000000e+00 0.000000000000000e+00 0.000000000000000e+00

0.000000000000000e+00 0.000000000000000e+00 0.000000000000000e+00
0.000000000000000e+00 0.000000000000000e+00 0.000000000000000e+00
0.000000000000000e+00 0.000000000000000e+00 0.000000000000000e+00

0.000000000000000e+00 0.000000000000000e+00 0.000000000000000e+00
0.000000000000000e+00 0.000000000000000e+00 0.000000000000000e+00
0.000000000000000e+00 0.000000000000000e+00 0.000000000000000e+00

0.000000000000000e+00 0.000000000000000e+00 0.000000000000000e+00
0.000000000000000e+00 0.000000000000000e+00 0.000000000000000e+00
0.000000000000000e+00 0.000000000000000e+00 0.000000000000000e+00

0.000000000000000e+00 0.000000000000000e+00 0.000000000000000e+00
0.000000000000000e+00 0.000000000000000e+00 0.000000000000000e+00
0.000000000000000e+00 0.000000000000000e+00 0.000000000000000e+00

0.000000000000000e+00 0.000000000000000e+00 0.000000000000000e+00
0.000000000000000e+00 0.000000000000000e+00 0.000000000000000e+00
0.000000000000000e+00 0.000000000000000e+00 0.000000000000000e+00

0.000000000000000e+00 0.000000000000000e+00 0.000000000000000e+00
0.000000000000000e+00 0.000000000000000e+00 0.000000000000000e+00
0.000000000000000e+00 0.000000000000000e+00 0.000000000000000e+00

0.000000000000000e+00 0.000000000000000e+00 0.000000000000000e+00
0.000000000000000e+00 0.000000000000000e+00 0.000000000000000e+00
0.000000000000000e+00 0.000000000000000e+00 0.000000000000000e+00

0.000000000000000e+00 0.000000000000000e+00 0.000000000000000e+00
0.000000000000000e+00 0.000000000000000e+00 0.000000000000000e+00
0.000000000000000e+00 0.000000000000000e+00 0.000000000000000e+00

0.000000000000000e+00 0.000000000000000e+00 0.000000000000000e+00
0.000000000000000e+00 0.000000000000000e+00 0.000000000000000e+00
0.000000000000000e+00 0.000000000000000e+00 0.000000000000000e+00

0.000000000000000e+00 0.000000000000000e+00 0.000000000000000e+00
0.000000000000000e+00 0.000000000000000e+00 0.000000000000000e+00
0.000000000000000e+00 0.000000000000000e+00 0.000000000000000e+00

0.000000000000000e+00 0.000000000000000e+00 0.000000000000000e+00
0.000000000000000e+00 0.000000000000000e+00 0.000000000000000e+00
0.000000000000000e+00 0.000000000000000e+00 0.000000000000000e+00

0.000000000000000e+00 0.000000000000000e+00 0.000000000000000e+00
0.000000000000000e+00 0.000000000000000e+00 0.000000000000000e+00
0.000000000000000e+00 0.000000000000000e+00 0.000000000000000e+00

0.000000000000000e+00 0.000000000000000e+00 0.000000000000000e+00
0.000000000000000e+00 0.000000000000000e+00 0.000000000000000e+00
0.000000000000000e+00 0.000000000000000e+00 0.000000000000000e+00

0.000000000000000e+00 0.000000000000000e+00 0.000000000000000e+00
0.000000000000000e+00 0.000000000000000e+00 0.000000000000000e+00
0.000000000000000e+00 0.000000000000000e+00 0.000000000000000e+00

0.000000000000000e+00 0.000000000000000e+00 0.000000000000000e+00
0.000000000000000e+00 0.000000000000000e+00 0.000000000000000e+00
0.000000000000000e+00 0.000000000000000e+00 0.000000000000000e+00

0.000000000000000e+00 0.000000000000000e+00 0.000000000000000e+00
0.000000000000000e+00 0.000000000000000e+00 0.000000000000000e+00
0.000000000000000e+00 0.000000000000000e+00 0.000000000000000e+00

0.000000000000000e+00 0.000000000000000e+00 0.000000000000000e+00
0.000000000000000e+00 0.000000000000000e+00 0.000000000000000e+00
0.000000000000000e+00 0.000000000000000e+00 0.000000000000000e+00

0.000000000000000e+00 0.000000000000000e+00 0.000000000000000e+00
0.000000000000000e+00 0.000000000000000e+00 0.000000000000000e+00
0.000000000000000e+00 0.000000000000000e+00 0.000000000000000e+00

0.000000000000000e+00 0.000000000000000e+00 0.000000000000000e+00
0.000000000000000e+00 0.000000000000000e+00 0.000000000000000e+00
0.000000000000000e+00 0.000000000000000e+00 0.000000000000000e+00

0.000000000000000e+00 0.000000000000000e+00 0.000000000000000e+00
0.000000000000000e+00 0.000000000000000e+00 0.000000000000000e+00
0.000000000000000e+00 0.000000000000000e+00 0.000000000000000e+00

0.000000000000000e+00 0.000000000000000e+00 0.000000000000000e+00
0.000000000000000e+00 0.000000000000000e+00 0.000000000000000e+00
0.000000000000000e+00 0.000000000000000e+00 0.000000000000000e+00

0.000000000000000e+00 0.000000000000000e+00 0.000000000000000e+00
0.000000000000000e+00 0.000000000000000e+00 0.000000000000000e+00
0.000000000000000e+00 0.000000000000000e+00 0.000000000000000e+00

0.000000000000000e+00 0.000000000000000e+00 0.000000000000000e+00
0.000000000000000e+00 0.000000000000000e+00 0.000000000000000e+00
0.000000000000000e+00 0.000000000000000e+00 0.000000000000000e+00

0.000000000000000e+00 0.000000000000000e+00 0.000000000000000e+00
0.000000000000000e+00 0.000000000000000e+00 0.000000000000000e+00
0.000000000000000e+00 0.000000000000000e+00 0.000000000000000e+00

0.000000000000000e+00 0.000000000000000e+00 0.000000000000000e+00
0.000000000000000e+00 0.000000000000000e+00 0.000000000000000e+00
0.000000000000000e+00 0.000000000000000e+00 0.000000000000000e+00

0.000000000000000e+00 0.000000000000000e+00 0.000000000000000e+00
0.000000000000000e+00 0.000000000000000e+00 0.000000000000000e+00
0.000000000000000e+00 0.000000000000000e+00 0.000000000000000e+00

0.000000000000000e+00 0.000000000000000e+00 0.000000000000000e+00
0.000000000000000e+00 0.000000000000000e+00 0.000000000000000e+00
0.000000000000000e+00 0.000000000000000e+00 0.000000000000000e+00

0.000000000000000e+00 0.000000000000000e+00 0.000000000000000e+00
0.000000000000000e+00 0.000000000000000e+00 0.000000000000000e+00
0.000000000000000e+00 0.000000000000000e+00 0.000000000000000e+00

0.000000000000000e+00 0.000000000000000e+00 0.000000000000000e+00
0.000000000000000e+00 0.000000000000000e+00 0.000000000000000e+00
0.000000000000000e+00 0.000000000000000e+00 0.000000000000000e+00

0.000000000000000e+00 0.000000000000000e+00 0.000000000000000e+00
0.000000000000000e+00 0.000000000000000e+00 0.000000000000000e+00
0.000000000000000e+00 0.000000000000000e+00 0.000000000000000e+00

0.000000000000000e+00 0.000000000000000e+00 0.000000000000000e+00
0.000000000000000e+00 0.000000000000000e+00 0.000000000000000e+00
0.000000000000000e+00 0.000000000000000e+00 0.000000000000000e+00

0.000000000000000e+00 0.000000000000000e+00 0.000000000000000e+00
0.000000000000000e+00 0.000000000000000e+00 0.000000000000000e+00
0.000000000000000e+00 0.000000000000000e+00 0.000000000000000e+00

0.000000000000000e+00 0.000000000000000e+00 0.000000000000000e+00
0.000000000000000e+00 0.000000000000000e+00 0.000000000000000e+00
0.000000000000000e+00 0.000000000000000e+00 0.000000000000000e+00

0.000000000000000e+00 0.000000000000000e+00 0.000000000000000e+00
0.000000000000000e+00 0.000000000000000e+00 0.000000000000000e+00
0.000000000000000e+00 0.000000000000000e+00 0.000000000000000e+00

0.000000000000000e+00 0.000000000000000e+00 0.000000000000000e+00
0.000000000000000e+00 0.000000000000000e+00 0.000000000000000e+00
0.000000000000000e+00 0.000000000000000e+00 0.000000000000000e+00

0.000000000000000e+00 0.000000000000000e+00 0.000000000000000e+00
0.000000000000000e+00 0.000000000000000e+00 0.000000000000000e+00
0.000000000000000e+00 0.000000000000000e+00 0.000000000000000e+00

0.000000000000000e+00 0.000000000000000e+00 0.000000000000000e+00
0.000000000000000e+00 0.000000000000000e+00 0.000000000000000e+00
0.000000000000000e+00 0.000000000000000e+00 0.000000000000000e+00

0.000000000000000e+00 0.000000000000000e+00 0.000000000000000e+00
0.000000000000000e+00 0.000000000000000e+00 0.000000000000000e+00
0.000000000000000e+00 0.000000000000000e+00 0.000000000000000e+00

0.000000000000000e+00 0.000000000000000e+00 0.000000000000000e+00
0.000000000000000e+00 0.000000000000000e+00 0.000000000000000e+00
0.000000000000000e+00 0.000000000000000e+00 0.000000000000000e+00

0.000000000000000e+00 0.000000000000000e+00 0.000000000000000e+00
0.000000000000000e+00 0.000000000000000e+00 0.000000000000000e+00
0.000000000000000e+00 0.000000000000000e+00 0.000000000000000e+00

0.000000000000000e+00 0.000000000000000e+00 0.000000000000000e+00
0.000000000000000e+00 0.000000000000000e+00 0.000000000000000e+00
0.000000000000000e+00 0.000000000000000e+00 0.000000000000000e+00

0.000000000000000e+00 0.000000000000000e+00 0.000000000000000e+00
0.000000000000000e+00 0.000000000000000e+00 0.000000000000000e+00
0.000000000000000e+00 0.000000000000000e+00 0.000000000000000e+00

0.000000000000000e+00 0.000000000000000e+00 0.000000000000000e+00
0.000000000000000e+00 0.000000000000000e+00 0.000000000000000e+00
0.000000000000000e+00 0.000000000000000e+00 0.000000000000000e+00

0.000000000000000e+00 0.000000000000000e+00 0.000000000000000e+00
0.000000000000000e+00 0.000000000000000e+00 0.000000000000000e+00
0.000000000000000e+00 0.000000000000000e+00 0.000000000000000e+00

0.000000000000000e+00 0.000000000000000e+00 0.000000000000000e+00
0.000000000000000e+00 0.000000000000000e+00 0.000000000000000e+00
0.000000000000000e+00 0.000000000000000e+00 0.000000000000000e+00

0.000000000000000e+00 0.000000000000000e+00 0.000000000000000e+00
0.000000000000000e+00 0.000000000000000e+00 0.000000000000000e+00
0.000000000000000e+00 0.000000000000000e+00 0.000000000000000e+00

0.000000000000000e+00 0.000000000000000e+00 0.000000000000000e+00
0.000000000000000e+00 0.000000000000000e+00 0.000000000000000e+00
0.000000000000000e+00 0.000000000000000e+00 0.000000000000000e+00

0.000000000000000e+00 0.000000000000000e+00 0.000000000000000e+00
0.000000000000000e+00 0.000000000000000e+00 0.000000000000000e+00
0.000000000000000e+00 0.000000000000000e+00 0.000000000000000e+00

0.000000000000000e+00 0.000000000000000e+00 0.000000000000000e+00
0.000000000000000e+00 0.000000000000000e+00 0.000000000000000e+00
0.000000000000000e+00 0.000000000000000e+00 0.000000000000000e+00

0.000000000000000e+00 0.000000000000000e+00 0.000000000000000e+00
0.000000000000000e+00 0.000000000000000e+00 0.000000000000000e+00
0.000000000000000e+00 0.000000000000000e+00 0.000000000000000e+00

0.000000000000000e+00 0.000000000000000e+00 0.000000000000000e+00
0.000000000000000e+00 0.000000000000000e+00 0.000000000000000e+00
0.000000000000000e+00 0.000000000000000e+00 0.000000000000000e+00

0.000000000000000e+00 0.000000000000000e+00 0.000000000000000e+00
0.000000000000000e+00 0.000000000000000e+00 0.000000000000000e+00
0.000000000000000e+00 0.000000000000000e+00 0.000000000000000e+00

0.000000000000000e+00 0.000000000000000e+00 0.000000000000000e+00
0.000000000000000e+00 0.000000000000000e+00 0.000000000000000e+00
0.000000000000000e+00 0.000000000000000e+00 0.000000000000000e+00

0.000000000000000e+00 0.000000000000000e+00 0.000000000000000e+00
0.000000000000000e+00 0.000000000000000e+00 0.000000000000000e+00
0.000000000000000e+00 0.000000000000000e+00 0.000000000000000e+00

0.000000000000000e+00 0.000000000000000e+00 0.000000000000000e+00
0.000000000000000e+00 0.000000000000000e+00 0.000000000000000e+00
0.000000000000000e+00 0.000000000000000e+00 0.000000000000000e+00

0.000000000000000e+00 0.000000000000000e+00 0.000000000000000e+00
0.000000000000000e+00 0.000000000000000e+00 0.000000000000000e+00
0.000000000000000e+00 0.000000000000000e+00 0.000000000000000e+00

0.000000000000000e+00 0.000000000000000e+00 0.000000000000000e+00
0.000000000000000e+00 0.000000000000000e+00 0.000000000000000e+00
0.000000000000000e+00 0.000000000000000e+00 0.000000000000000e+00

0.000000000000000e+00 0.000000000000000e+00 0.000000000000000e+00
0.000000000000000e+00 0.000000000000000e+00 0.000000000000000e+00
0.000000000000000e+00 0.000000000000000e+00 0.000000000000000e+00

0.000000000000000e+00 0.000000000000000e+00 0.000000000000000e+00
0.000000000000000e+00 0.000000000000000e+00 0.000000000000000e+00
0.000000000000000e+00 0.000000000000000e+00 0.000000000000000e+00

0.000000000000000e+00 0.000000000000000e+00 0.000000000000000e+00
0.000000000000000e+00 0.000000000000000e+00 0.000000000000000e+00
0.000000000000000e+00 0.000000000000000e+00 0.000000000000000e+00

0.000000000000000e+00 0.000000000000000e+00 0.000000000000000e+00
0.000000000000000e+00 0.000000000000000e+00 0.000000000000000e+00
0.000000000000000e+00 0.000000000000000e+00 0.000000000000000e+00

0.000000000000000e+00 0.000000000000000e+00 0.000000000000000e+00
0.000000000000000e+00 0.000000000000000e+00 0.000000000000000e+00
0.000000000000000e+00 0.000000000000000e+00 0.000000000000000e+00

0.000000000000000e+00 0.000000000000000e+00 0.000000000000000e+00
0.000000000000000e+00 0.000000000000000e+00 0.000000000000000e+00
0.000000000000000e+00 0.000000000000000e+00 0.000000000000000e+00

0.000000000000000e+00 0.000000000000000e+00 0.000000000000000e+00
0.000000000000000e+00 0.000000000000000e+00 0.000000000000000e+00
0.000000000000000e+00 0.000000000000000e+00 0.000000000000000e+00

0.000000000000000e+00 0.000000000000000e+00 0.000000000000000e+00
0.000000000000000e+00 0.000000000000000e+00 0.000000000000000e+00
0.000000000000000e+00 0.000000000000000e+00 0.000000000000000e+00

0.000000000000000e+00 0.000000000000000e+00 0.000000000000000e+00
0.000000000000000e+00 0.000000000000000e+00 0.000000000000000e+00
0.000000000000000e+00 0.000000000000000e+00 0.000000000000000e+00

0.000000000000000e+00 0.000000000000000e+00 0.000000000000000e+00
0.000000000000000e+00 0.000000000000000e+00 0.000000000000000e+00
0.000000000000000e+00 0.000000000000000e+00 0.000000000000000e+00

0.000000000000000e+00 0.000000000000000e+00 0.000000000000000e+00
0.000000000000000e+00 0.000000000000000e+00 0.000000000000000e+00
0.000000000000000e+00 0.000000000000000e+00 0.000000000000000e+00

0.000000000000000e+00 0.000000000000000e+00 0.000000000000000e+00
0.000000000000000e+00 0.000000000000000e+00 0.000000000000000e+00
0.000000000000000e+00 0.000000000000000e+00 0.000000000000000e+00

0.000000000000000e+00 0.000000000000000e+00 0.000000000000000e+00
0.000000000000000e+00 0.000000000000000e+00 0.000000000000000e+00
0.000000000000000e+00 0.000000000000000e+00 0.000000000000000e+00

0.000000000000000e+00 0.000000000000000e+00 0.000000000000000e+00
0.000000000000000e+00 0.000000000000000e+00 0.000000000000000e+00
0.000000000000000e+00 0.000000000000000e+00 0.000000000000000e+00

0.000000000000000e+00 0.000000000000000e+00 0.000000000000000e+00
0.000000000000000e+00 0.000000000000000e+00 0.000000000000000e+00
0.000000000000000e+00 0.000000000000000e+00 0.000000000000000e+00

0.000000000000000e+00 0.000000000000000e+00 0.000000000000000e+00
0.000000000000000e+00 0.000000000000000e+00 0.000000000000000e+00
0.000000000000000e+00 0.000000000000000e+00 0.000000000000000e+00

0.000000000000000e+00 0.000000000000000e+00 0.000000000000000e+00
0.000000000000000e+00 0.000000000000000e+00 0.000000000000000e+00
0.000000000000000e+00 0.000000000000000e+00 0.000000000000000e+00

0.000000000000000e+00 0.000000000000000e+00 0.000000000000000e+00
0.000000000000000e+00 0.000000000000000e+00 0.000000000000000e+00
0.000000000000000e+00 0.000000000000000e+00 0.000000000000000e+00

0.000000000000000e+00 0.000000000000000e+00 0.000000000000000e+00
0.000000000000000e+00 0.000000000000000e+00 0.000000000000000e+00
0.000000000000000e+00 0.000000000000000e+00 0.000000000000000e+00

0.000000000000000e+00 0.000000000000000e+00 0.000000000000000e+00
0.000000000000000e+00 0.000000000000000e+00 0.000000000000000e+00
0.000000000000000e+00 0.000000000000000e+00 0.000000000000000e+00

0.000000000000000e+00 0.000000000000000e+00 0.000000000000000e+00
0.000000000000000e+00 0.000000000000000e+00 0.000000000000000e+00
0.000000000000000e+00 0.000000000000000e+00 0.000000000000000e+00

0.000000000000000e+00 0.000000000000000e+00 0.000000000000000e+00
0.000000000000000e+00 0.000000000000000e+00 0.000000000000000e+00
0.000000000000000e+00 0.000000000000000e+00 0.000000000000000e+00

0.000000000000000e+00 0.000000000000000e+00 0.000000000000000e+00
0.000000000000000e+00 0.000000000000000e+00 0.000000000000000e+00
0.000000000000000e+00 0.000000000000000e+00 0.000000000000000e+00

0.000000000000000e+00 0.000000000000000e+00 0.000000000000000e+00
0.000000000000000e+00 0.000000000000000e+00 0.000000000000000e+00
0.000000000000000e+00 0.000000000000000e+00 0.000000000000000e+00

0.000000000000000e+00 0.000000000000000e+00 0.000000000000000e+00
0.000000000000000e+00 0.000000000000000e+00 0.000000000000000e+00
0.000000000000000e+00 0.000000000000000e+00 0.000000000000000e+00

0.000000000000000e+00 0.000000000000000e+00 0.000000000000000e+00
0.000000000000000e+00 0.000000000000000e+00 0.000000000000000e+00
0.000000000000000e+00 0.000000000000000e+00 0.000000000000000e+00

0.000000000000000e+00 0.000000000000000e+00 0.000000000000000e+00
0.000000000000000e+00 0.000000000000000e+00 0.000000000000000e+00
0.000000000000000e+00 0.000000000000000e+00 0.000000000000000e+00

0.000000000000000e+00 0.000000000000000e+00 0.000000000000000e+00
0.000000000000000e+00 0.000000000000000e+00 0.000000000000000e+00
0.000000000000000e+00 0.000000000000000e+00 0.000000000000000e+00

0.000000000000000e+00 0.000000000000000e+00 0.000000000000000e+00
0.000000000000000e+00 0.000000000000000e+00 0.000000000000000e+00
0.000000000000000e+00 0.000000000000000e+00 0.000000000000000e+00

0.000000000000000e+00 0.000000000000000e+00 0.000000000000000e+00
0.000000000000000e+00 0.000000000000000e+00 0.000000000000000e+00
0.000000000000000e+00 0.000000000000000e+00 0.000000000000000e+00

0.000000000000000e+00 0.000000000000000e+00 0.000000000000000e+00
0.000000000000000e+00 0.000000000000000e+00 0.000000000000000e+00
0.000000000000000e+00 0.000000000000000e+00 0.000000000000000e+00

0.000000000000000e+00 0.000000000000000e+00 0.000000000000000e+00
0.000000000000000e+00 0.000000000000000e+00 0.000000000000000e+00
0.000000000000000e+00 0.000000000000000e+00 0.000000000000000e+00

0.000000000000000e+00 0.000000000000000e+00 0.000000000000000e+00
0.000000000000000e+00 0.000000000000000e+00 0.000000000000000e+00
0.000000000000000e+00 0.000000000000000e+00 0.000000000000000e+00

0.000000000000000e+00 0.000000000000000e+00 0.000000000000000e+00
0.000000000000000e+00 0.000000000000000e+00 0.000000000000000e+00
0.000000000000000e+00 0.000000000000000e+00 0.000000000000000e+00

0.000000000000000e+00 0.000000000000000e+00 0.000000000000000e+00
0.000000000000000e+00 0.000000000000000e+00 0.000000000000000e+00
0.000000000000000e+00 0.000000000000000e+00 0.000000000000000e+00

0.000000000000000e+00 0.000000000000000e+00 0.000000000000000e+00
0.000000000000000e+00 0.000000000000000e+00 0.000000000000000e+00
0.000000000000000e+00 0.000000000000000e+00 0.000000000000000e+00

0.000000000000000e+00 0.000000000000000e+00 0.000000000000000e+00
0.000000000000000e+00 0.000000000000000e+00 0.000000000000000e+00
0.000000000000000e+00 0.000000000000000e+00 0.000000000000000e+00

0.000000000000000e+00 0.000000000000000e+00 0.000000000000000e+00
0.000000000000000e+00 0.000000000000000e+00 0.000000000000000e+00
0.000000000000000e+00 0.000000000000000e+00 0.000000000000000e+00

0.000000000000000e+00 0.000000000000000e+00 0.000000000000000e+00
0.000000000000000e+00 0.000000000000000e+00 0.000000000000000e+00
0.000000000000000e+00 0.000000000000000e+00 0.000000000000000e+00

0.000000000000000e+00 0.000000000000000e+00 0.000000000000000e+00
0.000000000000000e+00 0.000000000000000e+00 0.000000000000000e+00
0.000000000000000e+00 0.000000000000000e+00 0.000000000000000e+00

0.000000000000000e+00 0.000000000000000e+00 0.000000000000000e+00
0.000000000000000e+00 0.000000000000000e+00 0.000000000000000e+00
0.000000000000000e+00 0.000000000000000e+00 0.000000000000000e+00

0.000000000000000e+00 0.000000000000000e+00 0.000000000000000e+00
0.000000000000000e+00 0.000000000000000e+00 0.000000000000000e+00
0.000000000000000e+00 0.000000000000000e+00 0.000000000000000e+00

0.000000000000000e+00 0.000000000000000e+00 0.000000000000000e+00
0.000000000000000e+00 0.000000000000000e+00 0.000000000000000e+00
0.000000000000000e+00 0.000000000000000e+00 0.000000000000000e+00

0.000000000000000e+00 0.000000000000000e+00 0.000000000000000e+00
0.000000000000000e+00 0.000000000000000e+00 0.000000000000000e+00
0.000000000000000e+00 0.000000000000000e+00 0.000000000000000e+00

0.000000000000000e+00 0.000000000000000e+00 0.000000000000000e+00
0.000000000000000e+00 0.000000000000000e+00 0.000000000000000e+00
0.000000000000000e+00 0.000000000000000e+00 0.000000000000000e+00

0.000000000000000e+00 0.000000000000000e+00 0.000000000000000e+00
0.000000000000000e+00 0.000000000000000e+00 0.000000000000000e+00
0.000000000000000e+00 0.000000000000000e+00 0.000000000000000e+00

0.000000000000000e+00 0.000000000000000e+00 0.000000000000000e+00
0.000000000000000e+00 0.000000000000000e+00 0.000000000000000e+00
0.000000000000000e+00 0.000000000000000e+00 0.000000000000000e+00

0.000000000000000e+00 0.000000000000000e+00 0.000000000000000e+00
0.000000000000000e+00 0.000000000000000e+00 0.000000000000000e+00
0.000000000000000e+00 0.000000000000000e+00 0.000000000000000e+00

0.000000000000000e+00 0.000000000000000e+00 0.000000000000000e+00
0.000000000000000e+00 0.000000000000000e+00 0.000000000000000e+00
0.000000000000000e+00 0.000000000000000e+00 0.000000000000000e+00

0.000000000000000e+00 0.000000000000000e+00 0.000000000000000e+00
0.000000000000000e+00 0.000000000000000e+00 0.000000000000000e+00
0.000000000000000e+00 0.000000000000000e+00 0.000000000000000e+00

0.000000000000000e+00 0.000000000000000e+00 0.000000000000000e+00
0.000000000000000e+00 0.000000000000000e+00 0.000000000000000e+00
0.000000000000000e+00 0.000000000000000e+00 0.000000000000000e+00

0.000000000000000e+00 0.000000000000000e+00 0.000000000000000e+00
0.000000000000000e+00 0.000000000000000e+00 0.000000000000000e+00
0.000000000000000e+00 0.000000000000000e+00 0.000000000000000e+00

0.000000000000000e+00 0.000000000000000e+00 0.000000000000000e+00
0.000000000000000e+00 0.000000000000000e+00 0.000000000000000e+00
0.000000000000000e+00 0.000000000000000e+00 0.000000000000000e+00

0.000000000000000e+00 0.000000000000000e+00 0.000000000000000e+00
0.000000000000000e+00 0.000000000000000e+00 0.000000000000000e+00
0.000000000000000e+00 0.000000000000000e+00 0.000000000000000e+00

0.000000000000000e+00 0.000000000000000e+00 0.000000000000000e+00
0.000000000000000e+00 0.000000000000000e+00 0.000000000000000e+00
0.000000000000000e+00 0.000000000000000e+00 0.000000000000000e+00

0.000000000000000e+00 0.000000000000000e+00 0.000000000000000e+00
0.000000000000000e+00 0.000000000000000e+00 0.000000000000000e+00
0.000000000000000e+00 0.000000000000000e+00 0.000000000000000e+00

0.000000000000000e+00 0.000000000000000e+00 0.000000000000000e+00
0.000000000000000e+00 0.000000000000000e+00 0.000000000000000e+00
0.000000000000000e+00 0.000000000000000e+00 0.000000000000000e+00

0.000000000000000e+00 0.000000000000000e+00 0.000000000000000e+00
0.000000000000000e+00 0.000000000000000e+00 0.000000000000000e+00
0.000000000000000e+00 0.000000000000000e+00 0.000000000000000e+00

0.000000000000000e+00 0.000000000000000e+00 0.000000000000000e+00
0.000000000000000e+00 0.000000000000000e+00 0.000000000000000e+00
0.000000000000000e+00 0.000000000000000e+00 0.000000000000000e+00

0.000000000000000e+00 0.000000000000000e+00 0.000000000000000e+00
0.000000000000000e+00 0.000000000000000e+00 0.000000000000000e+00
0.000000000000000e+00 0.000000000000000e+00 0.000000000000000e+00

0.000000000000000e+00 0.000000000000000e+00 0.000000000000000e+00
0.000000000000000e+00 0.000000000000000e+00 0.000000000000000e+00
0.000000000000000e+00 0.000000000000000e+00 0.000000000000000e+00

0.000000000000000e+00 0.000000000000000e+00 0.000000000000000e+00
0.000000000000000e+00 0.000000000000000e+00 0.000000000000000e+00
0.000000000000000e+00 0.000000000000000e+00 0.000000000000000e+00

0.000000000000000e+00 0.000000000000000e+00 0.000000000000000e+00
0.000000000000000e+00 0.000000000000000e+00 0.000000000000000e+00
0.000000000000000e+00 0.000000000000000e+00 0.000000000000000e+00

0.000000000000000e+00 0.000000000000000e+00 0.000000000000000e+00
0.000000000000000e+00 0.000000000000000e+00 0.000000000000000e+00
0.000000000000000e+00 0.000000000000000e+00 0.000000000000000e+00

0.000000000000000e+00 0.000000000000000e+00 0.000000000000000e+00
0.000000000000000e+00 0.000000000000000e+00 0.000000000000000e+00
0.000000000000000e+00 0.000000000000000e+00 0.000000000000000e+00

0.000000000000000e+00 0.000000000000000e+00 0.000000000000000e+00
0.000000000000000e+00 0.000000000000000e+00 0.000000000000000e+00
0.000000000000000e+00 0.000000000000000e+00 0.000000000000000e+00

0.000000000000000e+00 0.000000000000000e+00 0.000000000000000e+00
0.000000000000000e+00 0.000000000000000e+00 0.000000000000000e+00
0.000000000000000e+00 0.000000000000000e+00 0.000000000000000e+00

0.000000000000000e+00 0.000000000000000e+00 0.000000000000000e+00
0.000000000000000e+00 0.000000000000000e+00 0.000000000000000e+00
0.000000000000000e+00 0.000000000000000e+00 0.000000000000000e+00

0.000000000000000e+00 0.000000000000000e+00 0.000000000000000e+00
0.000000000000000e+00 0.000000000000000e+00 0.000000000000000e+00
0.000000000000000e+00 0.000000000000000e+00 0.000000000000000e+00

0.000000000000000e+00 0.000000000000000e+00 0.000000000000000e+00
0.000000000000000e+00 0.000000000000000e+00 0.000000000000000e+00
0.000000000000000e+00 0.000000000000000e+00 0.000000000000000e+00

0.000000000000000e+00 0.000000000000000e+00 0.000000000000000e+00
0.000000000000000e+00 0.000000000000000e+00 0.000000000000000e+00
0.000000000000000e+00 0.000000000000000e+00 0.000000000000000e+00

0.000000000000000e+00 0.000000000000000e+00 0.000000000000000e+00
0.000000000000000e+00 0.000000000000000e+00 0.000000000000000e+00
0.000000000000000e+00 0.000000000000000e+00 0.000000000000000e+00

0.000000000000000e+00 0.000000000000000e+00 0.000000000000000e+00
0.000000000000000e+00 0.000000000000000e+00 0.000000000000000e+00
0.000000000000000e+00 0.000000000000000e+00 0.000000000000000e+00

0.000000000000000e+00 0.000000000000000e+00 0.000000000000000e+00
0.000000000000000e+00 0.000000000000000e+00 0.000000000000000e+00
0.000000000000000e+00 0.000000000000000e+00 0.000000000000000e+00

0.000000000000000e+00 0.000000000000000e+00 0.000000000000000e+00
0.000000000000000e+00 0.000000000000000e+00 0.000000000000000e+00
0.000000000000000e+00 0.000000000000000e+00 0.000000000000000e+00

0.000000000000000e+00 0.000000000000000e+00 0.000000000000000e+00
0.000000000000000e+00 0.000000000000000e+00 0.000000000000000e+00
0.000000000000000e+00 0.000000000000000e+00 0.000000000000000e+00

0.000000000000000e+00 0.000000000000000e+00 0.000000000000000e+00
0.000000000000000e+00 0.000000000000000e+00 0.000000000000000e+00
0.000000000000000e+00 0.000000000000000e+00 0.000000000000000e+00

0.000000000000000e+00 0.000000000000000e+00 0.000000000000000e+00
0.000000000000000e+00 0.000000000000000e+00 0.000000000000000e+00
0.000000000000000e+00 0.000000000000000e+00 0.000000000000000e+00

0.000000000000000e+00 0.000000000000000e+00 0.000000000000000e+00
0.000000000000000e+00 0.000000000000000e+00 0.000000000000000e+00
0.000000000000000e+00 0.000000000000000e+00 0.000000000000000e+00

0.000000000000000e+00 0.000000000000000e+00 0.000000000000000e+00
0.000000000000000e+00 0.000000000000000e+00 0.000000000000000e+00
0.000000000000000e+00 0.000000000000000e+00 0.000000000000000e+00

0.000000000000000e+00 0.000000000000000e+00 0.000000000000000e+00
0.000000000000000e+00 0.000000000000000e+00 0.000000000000000e+00
0.000000000000000e+00 0.000000000000000e+00 0.000000000000000e+00

0.000000000000000e+00 0.000000000000000e+00 0.000000000000000e+00
0.000000000000000e+00 0.000000000000000e+00 0.000000000000000e+00
0.000000000000000e+00 0.000000000000000e+00 0.000000000000000e+00

0.000000000000000e+00 0.000000000000000e+00 0.000000000000000e+00
0.000000000000000e+00 0.000000000000000e+00 0.000000000000000e+00
0.000000000000000e+00 0.000000000000000e+00 0.000000000000000e+00

0.000000000000000e+00 0.000000000000000e+00 0.000000000000000e+00
0.000000000000000e+00 0.000000000000000e+00 0.000000000000000e+00
0.000000000000000e+00 0.000000000000000e+00 0.000000000000000e+00

0.000000000000000e+00 0.000000000000000e+00 0.000000000000000e+00
0.000000000000000e+00 0.000000000000000e+00 0.000000000000000e+00
0.000000000000000e+00 0.000000000000000e+00 0.000000000000000e+00

0.000000000000000e+00 0.000000000000000e+00 0.000000000000000e+00
0.000000000000000e+00 0.000000000000000e+00 0.000000000000000e+00
0.000000000000000e+00 0.000000000000000e+00 0.000000000000000e+00

0.000000000000000e+00 0.000000000000000e+00 0.000000000000000e+00
0.000000000000000e+00 0.000000000000000e+00 0.000000000000000e+00
0.000000000000000e+00 0.000000000000000e+00 0.000000000000000e+00

0.000000000000000e+00 0.000000000000000e+00 0.000000000000000e+00
0.000000000000000e+00 0.000000000000000e+00 0.000000000000000e+00
0.000000000000000e+00 0.000000000000000e+00 0.000000000000000e+00

0.000000000000000e+00 0.000000000000000e+00 0.000000000000000e+00
0.000000000000000e+00 0.000000000000000e+00 0.000000000000000e+00
0.000000000000000e+00 0.000000000000000e+00 0.000000000000000e+00

0.000000000000000e+00 0.000000000000000e+00 0.000000000000000e+00
0.000000000000000e+00 0.000000000000000e+00 0.000000000000000e+00
0.000000000000000e+00 0.000000000000000e+00 0.000000000000000e+00

0.000000000000000e+00 0.000000000000000e+00 0.000000000000000e+00
0.000000000000000e+00 0.000000000000000e+00 0.000000000000000e+00
0.000000000000000e+00 0.000000000000000e+00 0.000000000000000e+00

0.000000000000000e+00 0.000000000000000e+00 0.000000000000000e+00
0.000000000000000e+00 0.000000000000000e+00 0.000000000000000e+00
0.000000000000000e+00 0.000000000000000e+00 0.000000000000000e+00

0.000000000000000e+00 0.000000000000000e+00 0.000000000000000e+00
0.000000000000000e+00 0.000000000000000e+00 0.000000000000000e+00
0.000000000000000e+00 0.000000000000000e+00 0.000000000000000e+00

0.000000000000000e+00 0.000000000000000e+00 0.000000000000000e+00
0.000000000000000e+00 0.000000000000000e+00 0.000000000000000e+00
0.000000000000000e+00 0.000000000000000e+00 0.000000000000000e+00

0.000000000000000e+00 0.000000000000000e+00 0.000000000000000e+00
0.000000000000000e+00 0.000000000000000e+00 0.000000000000000e+00
0.000000000000000e+00 0.000000000000000e+00 0.000000000000000e+00

0.000000000000000e+00 0.000000000000000e+00 0.000000000000000e+00
0.000000000000000e+00 0.000000000000000e+00 0.000000000000000e+00
0.000000000000000e+00 0.000000000000000e+00 0.000000000000000e+00

0.000000000000000e+00 0.000000000000000e+00 0.000000000000000e+00
0.000000000000000e+00 0.000000000000000e+00 0.000000000000000e+00
0.000000000000000e+00 0.000000000000000e+00 0.000000000000000e+00

0.000000000000000e+00 0.000000000000000e+00 0.000000000000000e+00
0.000000000000000e+00 0.000000000000000e+00 0.000000000000000e+00
0.000000000000000e+00 0.000000000000000e+00 0.000000000000000e+00

0.000000000000000e+00 0.000000000000000e+00 0.000000000000000e+00
0.000000000000000e+00 0.000000000000000e+00 0.000000000000000e+00
0.000000000000000e+00 0.000000000000000e+00 0.000000000000000e+00

0.000000000000000e+00 0.000000000000000e+00 0.000000000000000e+00
0.000000000000000e+00 0.000000000000000e+00 0.000000000000000e+00
0.000000000000000e+00 0.000000000000000e+00 0.000000000000000e+00

0.000000000000000e+00 0.000000000000000e+00 0.000000000000000e+00
0.000000000000000e+00 0.000000000000000e+00 0.000000000000000e+00
0.000000000000000e+00 0.000000000000000e+00 0.000000000000000e+00

0.000000000000000e+00 0.000000000000000e+00 0.000000000000000e+00
0.000000000000000e+00 0.000000000000000e+00 0.000000000000000e+00
0.000000000000000e+00 0.000000000000000e+00 0.000000000000000e+00

0.000000000000000e+00 0.000000000000000e+00 0.000000000000000e+00
0.000000000000000e+00 0.000000000000000e+00 0.000000000000000e+00
0.000000000000000e+00 0.000000000000000e+00 0.000000000000000e+00

0.000000000000000e+00 0.000000000000000e+00 0.000000000000000e+00
0.000000000000000e+00 0.000000000000000e+00 0.000000000000000e+00
0.000000000000000e+00 0.000000000000000e+00 0.000000000000000e+00

0.000000000000000e+00 0.000000000000000e+00 0.000000000000000e+00
0.000000000000000e+00 0.000000000000000e+00 0.000000000000000e+00
0.000000000000000e+00 0.000000000000000e+00 0.000000000000000e+00

0.000000000000000e+00 0.000000000000000e+00 0.000000000000000e+00
0.000000000000000e+00 0.000000000000000e+00 0.000000000000000e+00
0.000000000000000e+00 0.000000000000000e+00 0.000000000000000e+00

0.000000000000000e+00 0.000000000000000e+00 0.000000000000000e+00
0.000000000000000e+00 0.000000000000000e+00 0.000000000000000e+00
0.000000000000000e+00 0.000000000000000e+00 0.000000000000000e+00

0.000000000000000e+00 0.000000000000000e+00 0.000000000000000e+00
0.000000000000000e+00 0.000000000000000e+00 0.000000000000000e+00
0.000000000000000e+00 0.000000000000000e+00 0.000000000000000e+00

0.000000000000000e+00 0.000000000000000e+00 0.000000000000000e+00
0.000000000000000e+00 0.000000000000000e+00 0.000000000000000e+00
0.000000000000000e+00 0.000000000000000e+00 0.000000000000000e+00

0.000000000000000e+00 0.000000000000000e+00 0.000000000000000e+00
0.000000000000000e+00 0.000000000000000e+00 0.000000000000000e+00
0.000000000000000e+00 0.000000000000000e+00 0.000000000000000e+00

0.000000000000000e+00 0.000000000000000e+00 0.000000000000000e+00
0.000000000000000e+00 0.000000000000000e+00 0.000000000000000e+00
0.000000000000000e+00 0.000000000000000e+00 0.000000000000000e+00

0.000000000000000e+00 0.000000000000000e+00 0.000000000000000e+00
0.000000000000000e+00 0.000000000000000e+00 0.000000000000000e+00
0.000000000000000e+00 0.000000000000000e+00 0.000000000000000e+00

0.000000000000000e+00 0.000000000000000e+00 0.000000000000000e+00
0.000000000000000e+00 0.000000000000000e+00 0.000000000000000e+00
0.000000000000000e+00 0.000000000000000e+00 0.000000000000000e+00

0.000000000000000e+00 0.000000000000000e+00 0.000000000000000e+00
0.000000000000000e+00 0.000000000000000e+00 0.000000000000000e+00
0.000000000000000e+00 0.000000000000000e+00 0.000000000000000e+00

0.000000000000000e+00 0.000000000000000e+00 0.000000000000000e+00
0.000000000000000e+00 0.000000000000000e+00 0.000000000000000e+00
0.000000000000000e+00 0.000000000000000e+00 0.000000000000000e+00

0.000000000000000e+00 0.000000000000000e+00 0.000000000000000e+00
0.000000000000000e+00 0.000000000000000e+00 0.000000000000000e+00
0.000000000000000e+00 0.000000000000000e+00 0.000000000000000e+00

0.000000000000000e+00 0.000000000000000e+00 0.000000000000000e+00
0.000000000000000e+00 0.000000000000000e+00 0.000000000000000e+00
0.000000000000000e+00 0.000000000000000e+00 0.000000000000000e+00

0.000000000000000e+00 0.000000000000000e+00 0.000000000000000e+00
0.000000000000000e+00 0.000000000000000e+00 0.000000000000000e+00
0.000000000000000e+00 0.000000000000000e+00 0.000000000000000e+00

0.000000000000000e+00 0.000000000000000e+00 0.000000000000000e+00
0.000000000000000e+00 0.000000000000000e+00 0.000000000000000e+00
0.000000000000000e+00 0.000000000000000e+00 0.000000000000000e+00

0.000000000000000e+00 0.000000000000000e+00 0.000000000000000e+00
0.000000000000000e+00 0.000000000000000e+00 0.000000000000000e+00
0.000000000000000e+00 0.000000000000000e+00 0.000000000000000e+00

0.000000000000000e+00 0.000000000000000e+00 0.000000000000000e+00
0.000000000000000e+00 0.000000000000000e+00 0.000000000000000e+00
0.000000000000000e+00 0.000000000000000e+00 0.000000000000000e+00

0.000000000000000e+00 0.000000000000000e+00 0.000000000000000e+00
0.000000000000000e+00 0.000000000000000e+00 0.000000000000000e+00
0.000000000000000e+00 0.000000000000000e+00 0.000000000000000e+00

0.000000000000000e+00 0.000000000000000e+00 0.000000000000000e+00
0.000000000000000e+00 0.000000000000000e+00 0.000000000000000e+00
0.000000000000000e+00 0.000000000000000e+00 0.000000000000000e+00

0.000000000000000e+00 0.000000000000000e+00 0.000000000000000e+00
0.000000000000000e+00 0.000000000000000e+00 0.000000000000000e+00
0.000000000000000e+00 0.000000000000000e+00 0.000000000000000e+00

0.000000000000000e+00 0.000000000000000e+00 0.000000000000000e+00
0.000000000000000e+00 0.000000000000000e+00 0.000000000000000e+00
0.000000000000000e+00 0.000000000000000e+00 0.000000000000000e+00

0.000000000000000e+00 0.000000000000000e+00 0.000000000000000e+00
0.000000000000000e+00 0.000000000000000e+00 0.000000000000000e+00
0.000000000000000e+00 0.000000000000000e+00 0.000000000000000e+00

0.000000000000000e+00 0.000000000000000e+00 0.000000000000000e+00
0.000000000000000e+00 0.000000000000000e+00 0.000000000000000e+00
0.000000000000000e+00 0.000000000000000e+00 0.000000000000000e+00

0.000000000000000e+00 0.000000000000000e+00 0.000000000000000e+00
0.000000000000000e+00 0.000000000000000e+00 0.000000000000000e+00
0.000000000000000e+00 0.000000000000000e+00 0.000000000000000e+00

0.000000000000000e+00 0.000000000000000e+00 0.000000000000000e+00
0.000000000000000e+00 0.000000000000000e+00 0.000000000000000e+00
0.000000000000000e+00 0.000000000000000e+00 0.000000000000000e+00

0.000000000000000e+00 0.000000000000000e+00 0.000000000000000e+00
0.000000000000000e+00 0.000000000000000e+00 0.000000000000000e+00
0.000000000000000e+00 0.000000000000000e+00 0.000000000000000e+00

0.000000000000000e+00 0.000000000000000e+00 0.000000000000000e+00
0.000000000000000e+00 0.000000000000000e+00 0.000000000000000e+00
0.000000000000000e+00 0.000000000000000e+00 0.000000000000000e+00

0.000000000000000e+00 0.000000000000000e+00 0.000000000000000e+00
0.000000000000000e+00 0.000000000000000e+00 0.000000000000000e+00
0.000000000000000e+00 0.000000000000000e+00 0.000000000000000e+00

0.000000000000000e+00 0.000000000000000e+00 0.000000000000000e+00
0.000000000000000e+00 0.000000000000000e+00 0.000000000000000e+00
0.000000000000000e+00 0.000000000000000e+00 0.000000000000000e+00

0.000000000000000e+00 0.000000000000000e+00 0.000000000000000e+00
0.000000000000000e+00 0.000000000000000e+00 0.000000000000000e+00
0.000000000000000e+00 0.000000000000000e+00 0.000000000000000e+00

0.000000000000000e+00 0.000000000000000e+00 0.000000000000000e+00
0.000000000000000e+00 0.000000000000000e+00 0.000000000000000e+00
0.000000000000000e+00 0.000000000000000e+00 0.000000000000000e+00

0.000000000000000e+00 0.000000000000000e+00 0.000000000000000e+00
0.000000000000000e+00 0.000000000000000e+00 0.000000000000000e+00
0.000000000000000e+00 0.000000000000000e+00 0.000000000000000e+00

0.000000000000000e+00 0.000000000000000e+00 0.000000000000000e+00
0.000000000000000e+00 0.000000000000000e+00 0.000000000000000e+00
0.000000000000000e+00 0.000000000000000e+00 0.000000000000000e+00

0.000000000000000e+00 0.000000000000000e+00 0.000000000000000e+00
0.000000000000000e+00 0.000000000000000e+00 0.000000000000000e+00
0.000000000000000e+00 0.000000000000000e+00 0.000000000000000e+00

0.000000000000000e+00 0.000000000000000e+00 0.000000000000000e+00
0.000000000000000e+00 0.000000000000000e+00 0.000000000000000e+00
0.000000000000000e+00 0.000000000000000e+00 0.000000000000000e+00

0.000000000000000e+00 0.000000000000000e+00 0.000000000000000e+00
0.000000000000000e+00 0.000000000000000e+00 0.000000000000000e+00
0.000000000000000e+00 0.000000000000000e+00 0.000000000000000e+00

0.000000000000000e+00 0.000000000000000e+00 0.000000000000000e+00
0.000000000000000e+00 0.000000000000000e+00 0.000000000000000e+00
0.000000000000000e+00 0.000000000000000e+00 0.000000000000000e+00

0.000000000000000e+00 0.000000000000000e+00 0.000000000000000e+00
0.000000000000000e+00 0.000000000000000e+00 0.000000000000000e+00
0.000000000000000e+00 0.000000000000000e+00 0.000000000000000e+00

0.000000000000000e+00 0.000000000000000e+00 0.000000000000000e+00
0.000000000000000e+00 0.000000000000000e+00 0.000000000000000e+00
0.000000000000000e+00 0.000000000000000e+00 0.000000000000000e+00

0.000000000000000e+00 0.000000000000000e+00 0.000000000000000e+00
0.000000000000000e+00 0.000000000000000e+00 0.000000000000000e+00
0.000000000000000e+00 0.000000000000000e+00 0.000000000000000e+00

0.000000000000000e+00 0.000000000000000e+00 0.000000000000000e+00
0.000000000000000e+00 0.000000000000000e+00 0.000000000000000e+00
0.000000000000000e+00 0.000000000000000e+00 0.000000000000000e+00

0.000000000000000e+00 0.000000000000000e+00 0.000000000000000e+00
0.000000000000000e+00 0.000000000000000e+00 0.000000000000000e+00
0.000000000000000e+00 0.000000000000000e+00 0.000000000000000e+00

0.000000000000000e+00 0.000000000000000e+00 0.000000000000000e+00
0.000000000000000e+00 0.000000000000000e+00 0.000000000000000e+00
0.000000000000000e+00 0.000000000000000e+00 0.000000000000000e+00

0.000000000000000e+00 0.000000000000000e+00 0.000000000000000e+00
0.000000000000000e+00 0.000000000000000e+00 0.000000000000000e+00
0.000000000000000e+00 0.000000000000000e+00 0.000000000000000e+00

0.000000000000000e+00 0.000000000000000e+00 0.000000000000000e+00
0.000000000000000e+00 0.000000000000000e+00 0.000000000000000e+00
0.000000000000000e+00 0.000000000000000e+00 0.000000000000000e+00

0.000000000000000e+00 0.000000000000000e+00 0.000000000000000e+00
0.000000000000000e+00 0.000000000000000e+00 0.000000000000000e+00
0.000000000000000e+00 0.000000000000000e+00 0.000000000000000e+00

0.000000000000000e+00 0.000000000000000e+00 0.000000000000000e+00
0.000000000000000e+00 0.000000000000000e+00 0.000000000000000e+00
0.000000000000000e+00 0.000000000000000e+00 0.000000000000000e+00

0.000000000000000e+00 0.000000000000000e+00 0.000000000000000e+00
0.000000000000000e+00 0.000000000000000e+00 0.000000000000000e+00
0.000000000000000e+00 0.000000000000000e+00 0.000000000000000e+00

0.000000000000000e+00 0.000000000000000e+00 0.000000000000000e+00
0.000000000000000e+00 0.000000000000000e+00 0.000000000000000e+00
0.000000000000000e+00 0.000000000000000e+00 0.000000000000000e+00

0.000000000000000e+00 0.000000000000000e+00 0.000000000000000e+00
0.000000000000000e+00 0.000000000000000e+00 0.000000000000000e+00
0.000000000000000e+00 0.000000000000000e+00 0.000000000000000e+00

0.000000000000000e+00 0.000000000000000e+00 0.000000000000000e+00
0.000000000000000e+00 0.000000000000000e+00 0.000000000000000e+00
0.000000000000000e+00 0.000000000000000e+00 0.000000000000000e+00

0.000000000000000e+00 0.000000000000000e+00 0.000000000000000e+00
0.000000000000000e+00 0.000000000000000e+00 0.000000000000000e+00
0.000000000000000e+00 0.000000000000000e+00 0.000000000000000e+00

0.000000000000000e+00 0.000000000000000e+00 0.000000000000000e+00
0.000000000000000e+00 0.000000000000000e+00 0.000000000000000e+00
0.000000000000000e+00 0.000000000000000e+00 0.000000000000000e+00

0.000000000000000e+00 0.000000000000000e+00 0.000000000000000e+00
0.000000000000000e+00 0.000000000000000e+00 0.000000000000000e+00
0.000000000000000e+00 0.000000000000000e+00 0.000000000000000e+00

0.000000000000000e+00 0.000000000000000e+00 0.000000000000000e+00
0.000000000000000e+00 0.000000000000000e+00 0.000000000000000e+00
0.000000000000000e+00 0.000000000000000e+00 0.000000000000000e+00

0.000000000000000e+00 0.000000000000000e+00 0.000000000000000e+00
0.000000000000000e+00 0.000000000000000e+00 0.000000000000000e+00
0.000000000000000e+00 0.000000000000000e+00 0.000000000000000e+00

0.000000000000000e+00 0.000000000000000e+00 0.000000000000000e+00
0.000000000000000e+00 0.000000000000000e+00 0.000000000000000e+00
0.000000000000000e+00 0.000000000000000e+00 0.000000000000000e+00

0.000000000000000e+00 0.000000000000000e+00 0.000000000000000e+00
0.000000000000000e+00 0.000000000000000e+00 0.000000000000000e+00
0.000000000000000e+00 0.000000000000000e+00 0.000000000000000e+00

0.000000000000000e+00 0.000000000000000e+00 0.000000000000000e+00
0.000000000000000e+00 0.000000000000000e+00 0.000000000000000e+00
0.000000000000000e+00 0.000000000000000e+00 0.000000000000000e+00

0.000000000000000e+00 0.000000000000000e+00 0.000000000000000e+00
0.000000000000000e+00 0.000000000000000e+00 0.000000000000000e+00
0.000000000000000e+00 0.000000000000000e+00 0.000000000000000e+00

0.000000000000000e+00 0.000000000000000e+00 0.000000000000000e+00
0.000000000000000e+00 0.000000000000000e+00 0.000000000000000e+00
0.000000000000000e+00 0.000000000000000e+00 0.000000000000000e+00

0.000000000000000e+00 0.000000000000000e+00 0.000000000000000e+00
0.000000000000000e+00 0.000000000000000e+00 0.000000000000000e+00
0.000000000000000e+00 0.000000000000000e+00 0.000000000000000e+00

0.000000000000000e+00 0.000000000000000e+00 0.000000000000000e+00
0.000000000000000e+00 0.000000000000000e+00 0.000000000000000e+00
0.000000000000000e+00 0.000000000000000e+00 0.000000000000000e+00

0.000000000000000e+00 0.000000000000000e+00 0.000000000000000e+00
0.000000000000000e+00 0.000000000000000e+00 0.000000000000000e+00
0.000000000000000e+00 0.000000000000000e+00 0.000000000000000e+00

0.000000000000000e+00 0.000000000000000e+00 0.000000000000000e+00
0.000000000000000e+00 0.000000000000000e+00 0.000000000000000e+00
0.000000000000000e+00 0.000000000000000e+00 0.000000000000000e+00

0.000000000000000e+00 0.000000000000000e+00 0.000000000000000e+00
0.000000000000000e+00 0.000000000000000e+00 0.000000000000000e+00
0.000000000000000e+00 0.000000000000000e+00 0.000000000000000e+00

0.000000000000000e+00 0.000000000000000e+00 0.000000000000000e+00
0.000000000000000e+00 0.000000000000000e+00 0.000000000000000e+00
0.000000000000000e+00 0.000000000000000e+00 0.000000000000000e+00

0.000000000000000e+00 0.000000000000000e+00 0.000000000000000e+00
0.000000000000000e+00 0.000000000000000e+00 0.000000000000000e+00
0.000000000000000e+00 0.000000000000000e+00 0.000000000000000e+00

0.000000000000000e+00 0.000000000000000e+00 0.000000000000000e+00
0.000000000000000e+00 0.000000000000000e+00 0.000000000000000e+00
0.000000000000000e+00 0.000000000000000e+00 0.000000000000000e+00

0.000000000000000e+00 0.000000000000000e+00 0.000000000000000e+00
0.000000000000000e+00 0.000000000000000e+00 0.000000000000000e+00
0.000000000000000e+00 0.000000000000000e+00 0.000000000000000e+00

0.000000000000000e+00 0.000000000000000e+00 0.000000000000000e+00
0.000000000000000e+00 0.000000000000000e+00 0.000000000000000e+00
0.000000000000000e+00 0.000000000000000e+00 0.000000000000000e+00

0.000000000000000e+00 0.000000000000000e+00 0.000000000000000e+00
0.000000000000000e+00 0.000000000000000e+00 0.000000000000000e+00
0.000000000000000e+00 0.000000000000000e+00 0.000000000000000e+00

0.000000000000000e+00 0.000000000000000e+00 0.000000000000000e+00
0.000000000000000e+00 0.000000000000000e+00 0.000000000000000e+00
0.000000000000000e+00 0.000000000000000e+00 0.000000000000000e+00

0.000000000000000e+00 0.000000000000000e+00 0.000000000000000e+00
0.000000000000000e+00 0.000000000000000e+00 0.000000000000000e+00
0.000000000000000e+00 0.000000000000000e+00 0.000000000000000e+00

0.000000000000000e+00 0.000000000000000e+00 0.000000000000000e+00
0.000000000000000e+00 0.000000000000000e+00 0.000000000000000e+00
0.000000000000000e+00 0.000000000000000e+00 0.000000000000000e+00

0.000000000000000e+00 0.000000000000000e+00 0.000000000000000e+00
0.000000000000000e+00 0.000000000000000e+00 0.000000000000000e+00
0.000000000000000e+00 0.000000000000000e+00 0.000000000000000e+00

0.000000000000000e+00 0.000000000000000e+00 0.000000000000000e+00
0.000000000000000e+00 0.000000000000000e+00 0.000000000000000e+00
0.000000000000000e+00 0.000000000000000e+00 0.000000000000000e+00

0.000000000000000e+00 0.000000000000000e+00 0.000000000000000e+00
0.000000000000000e+00 0.000000000000000e+00 0.000000000000000e+00
0.000000000000000e+00 0.000000000000000e+00 0.000000000000000e+00

0.000000000000000e+00 0.000000000000000e+00 0.000000000000000e+00
0.000000000000000e+00 0.000000000000000e+00 0.000000000000000e+00
0.000000000000000e+00 0.000000000000000e+00 0.000000000000000e+00

0.000000000000000e+00 0.000000000000000e+00 0.000000000000000e+00
0.000000000000000e+00 0.000000000000000e+00 0.000000000000000e+00
0.000000000000000e+00 0.000000000000000e+00 0.000000000000000e+00

0.000000000000000e+00 0.000000000000000e+00 0.000000000000000e+00
0.000000000000000e+00 0.000000000000000e+00 0.000000000000000e+00
0.000000000000000e+00 0.000000000000000e+00 0.000000000000000e+00

0.000000000000000e+00 0.000000000000000e+00 0.000000000000000e+00
0.000000000000000e+00 0.000000000000000e+00 0.000000000000000e+00
0.000000000000000e+00 0.000000000000000e+00 0.000000000000000e+00

0.000000000000000e+00 0.000000000000000e+00 0.000000000000000e+00
0.000000000000000e+00 0.000000000000000e+00 0.000000000000000e+00
0.000000000000000e+00 0.000000000000000e+00 0.000000000000000e+00

0.000000000000000e+00 0.000000000000000e+00 0.000000000000000e+00
0.000000000000000e+00 0.000000000000000e+00 0.000000000000000e+00
0.000000000000000e+00 0.000000000000000e+00 0.000000000000000e+00

0.000000000000000e+00 0.000000000000000e+00 0.000000000000000e+00
0.000000000000000e+00 0.000000000000000e+00 0.000000000000000e+00
0.000000000000000e+00 0.000000000000000e+00 0.000000000000000e+00

0.000000000000000e+00 0.000000000000000e+00 0.000000000000000e+00
0.000000000000000e+00 0.000000000000000e+00 0.000000000000000e+00
0.000000000000000e+00 0.000000000000000e+00 0.000000000000000e+00

0.000000000000000e+00 0.000000000000000e+00 0.000000000000000e+00
0.000000000000000e+00 0.000000000000000e+00 0.000000000000000e+00
0.000000000000000e+00 0.000000000000000e+00 0.000000000000000e+00

0.000000000000000e+00 0.000000000000000e+00 0.000000000000000e+00
0.000000000000000e+00 0.000000000000000e+00 0.000000000000000e+00
0.000000000000000e+00 0.000000000000000e+00 0.000000000000000e+00

0.000000000000000e+00 0.000000000000000e+00 0.000000000000000e+00
0.000000000000000e+00 0.000000000000000e+00 0.000000000000000e+00
0.000000000000000e+00 0.000000000000000e+00 0.000000000000000e+00

0.000000000000000e+00 0.000000000000000e+00 0.000000000000000e+00
0.000000000000000e+00 0.000000000000000e+00 0.000000000000000e+00
0.000000000000000e+00 0.000000000000000e+00 0.000000000000000e+00

0.000000000000000e+00 0.000000000000000e+00 0.000000000000000e+00
0.000000000000000e+00 0.000000000000000e+00 0.000000000000000e+00
0.000000000000000e+00 0.000000000000000e+00 0.000000000000000e+00

0.000000000000000e+00 0.000000000000000e+00 0.000000000000000e+00
0.000000000000000e+00 0.000000000000000e+00 0.000000000000000e+00
0.000000000000000e+00 0.000000000000000e+00 0.000000000000000e+00

0.000000000000000e+00 0.000000000000000e+00 0.000000000000000e+00
0.000000000000000e+00 0.000000000000000e+00 0.000000000000000e+00
0.000000000000000e+00 0.000000000000000e+00 0.000000000000000e+00

0.000000000000000e+00 0.000000000000000e+00 0.000000000000000e+00
0.000000000000000e+00 0.000000000000000e+00 0.000000000000000e+00
0.000000000000000e+00 0.000000000000000e+00 0.000000000000000e+00

0.000000000000000e+00 0.000000000000000e+00 0.000000000000000e+00
0.000000000000000e+00 0.000000000000000e+00 0.000000000000000e+00
0.000000000000000e+00 0.000000000000000e+00 0.000000000000000e+00

0.000000000000000e+00 0.000000000000000e+00 0.000000000000000e+00
0.000000000000000e+00 0.000000000000000e+00 0.000000000000000e+00
0.000000000000000e+00 0.000000000000000e+00 0.000000000000000e+00

0.000000000000000e+00 0.000000000000000e+00 0.000000000000000e+00
0.000000000000000e+00 0.000000000000000e+00 0.000000000000000e+00
0.000000000000000e+00 0.000000000000000e+00 0.000000000000000e+00

0.000000000000000e+00 0.000000000000000e+00 0.000000000000000e+00
0.000000000000000e+00 0.000000000000000e+00 0.000000000000000e+00
0.000000000000000e+00 0.000000000000000e+00 0.000000000000000e+00

0.000000000000000e+00 0.000000000000000e+00 0.000000000000000e+00
0.000000000000000e+00 0.000000000000000e+00 0.000000000000000e+00
0.000000000000000e+00 0.000000000000000e+00 0.000000000000000e+00

0.000000000000000e+00 0.000000000000000e+00 0.000000000000000e+00
0.000000000000000e+00 0.000000000000000e+00 0.000000000000000e+00
0.000000000000000e+00 0.000000000000000e+00 0.000000000000000e+00

0.000000000000000e+00 0.000000000000000e+00 0.000000000000000e+00
0.000000000000000e+00 0.000000000000000e+00 0.000000000000000e+00
0.000000000000000e+00 0.000000000000000e+00 0.000000000000000e+00

0.000000000000000e+00 0.000000000000000e+00 0.000000000000000e+00
0.000000000000000e+00 0.000000000000000e+00 0.000000000000000e+00
0.000000000000000e+00 0.000000000000000e+00 0.000000000000000e+00

0.000000000000000e+00 0.000000000000000e+00 0.000000000000000e+00
0.000000000000000e+00 0.000000000000000e+00 0.000000000000000e+00
0.000000000000000e+00 0.000000000000000e+00 0.000000000000000e+00

0.000000000000000e+00 0.000000000000000e+00 0.000000000000000e+00
0.000000000000000e+00 0.000000000000000e+00 0.000000000000000e+00
0.000000000000000e+00 0.000000000000000e+00 0.000000000000000e+00

0.000000000000000e+00 0.000000000000000e+00 0.000000000000000e+00
0.000000000000000e+00 0.000000000000000e+00 0.000000000000000e+00
0.000000000000000e+00 0.000000000000000e+00 0.000000000000000e+00

0.000000000000000e+00 0.000000000000000e+00 0.000000000000000e+00
0.000000000000000e+00 0.000000000000000e+00 0.000000000000000e+00
0.000000000000000e+00 0.000000000000000e+00 0.000000000000000e+00

0.000000000000000e+00 0.000000000000000e+00 0.000000000000000e+00
0.000000000000000e+00 0.000000000000000e+00 0.000000000000000e+00
0.000000000000000e+00 0.000000000000000e+00 0.000000000000000e+00

0.000000000000000e+00 0.000000000000000e+00 0.000000000000000e+00
0.000000000000000e+00 0.000000000000000e+00 0.000000000000000e+00
0.000000000000000e+00 0.000000000000000e+00 0.000000000000000e+00

0.000000000000000e+00 0.000000000000000e+00 0.000000000000000e+00
0.000000000000000e+00 0.000000000000000e+00 0.000000000000000e+00
0.000000000000000e+00 0.000000000000000e+00 0.000000000000000e+00

0.000000000000000e+00 0.000000000000000e+00 0.000000000000000e+00
0.000000000000000e+00 0.000000000000000e+00 0.000000000000000e+00
0.000000000000000e+00 0.000000000000000e+00 0.000000000000000e+00

0.000000000000000e+00 0.000000000000000e+00 0.000000000000000e+00
0.000000000000000e+00 0.000000000000000e+00 0.000000000000000e+00
0.000000000000000e+00 0.000000000000000e+00 0.000000000000000e+00

0.000000000000000e+00 0.000000000000000e+00 0.000000000000000e+00
0.000000000000000e+00 0.000000000000000e+00 0.000000000000000e+00
0.000000000000000e+00 0.000000000000000e+00 0.000000000000000e+00

0.000000000000000e+00 0.000000000000000e+00 0.000000000000000e+00
0.000000000000000e+00 0.000000000000000e+00 0.000000000000000e+00
0.000000000000000e+00 0.000000000000000e+00 0.000000000000000e+00

0.000000000000000e+00 0.000000000000000e+00 0.000000000000000e+00
0.000000000000000e+00 0.000000000000000e+00 0.000000000000000e+00
0.000000000000000e+00 0.000000000000000e+00 0.000000000000000e+00

0.000000000000000e+00 0.000000000000000e+00 0.000000000000000e+00
0.000000000000000e+00 0.000000000000000e+00 0.000000000000000e+00
0.000000000000000e+00 0.000000000000000e+00 0.000000000000000e+00

0.000000000000000e+00 0.000000000000000e+00 0.000000000000000e+00
0.000000000000000e+00 0.000000000000000e+00 0.000000000000000e+00
0.000000000000000e+00 0.000000000000000e+00 0.000000000000000e+00

0.000000000000000e+00 0.000000000000000e+00 0.000000000000000e+00
0.000000000000000e+00 0.000000000000000e+00 0.000000000000000e+00
0.000000000000000e+00 0.000000000000000e+00 0.000000000000000e+00

0.000000000000000e+00 0.000000000000000e+00 0.000000000000000e+00
0.000000000000000e+00 0.000000000000000e+00 0.000000000000000e+00
0.000000000000000e+00 0.000000000000000e+00 0.000000000000000e+00

0.000000000000000e+00 0.000000000000000e+00 0.000000000000000e+00
0.000000000000000e+00 0.000000000000000e+00 0.000000000000000e+00
0.000000000000000e+00 0.000000000000000e+00 0.000000000000000e+00

0.000000000000000e+00 0.000000000000000e+00 0.000000000000000e+00
0.000000000000000e+00 0.000000000000000e+00 0.000000000000000e+00
0.000000000000000e+00 0.000000000000000e+00 0.000000000000000e+00

0.000000000000000e+00 0.000000000000000e+00 0.000000000000000e+00
0.000000000000000e+00 0.000000000000000e+00 0.000000000000000e+00
0.000000000000000e+00 0.000000000000000e+00 0.000000000000000e+00

0.000000000000000e+00 0.000000000000000e+00 0.000000000000000e+00
0.000000000000000e+00 0.000000000000000e+00 0.000000000000000e+00
0.000000000000000e+00 0.000000000000000e+00 0.000000000000000e+00

0.000000000000000e+00 0.000000000000000e+00 0.000000000000000e+00
0.000000000000000e+00 0.000000000000000e+00 0.000000000000000e+00
0.000000000000000e+00 0.000000000000000e+00 0.000000000000000e+00

0.000000000000000e+00 0.000000000000000e+00 0.000000000000000e+00
0.000000000000000e+00 0.000000000000000e+00 0.000000000000000e+00
0.000000000000000e+00 0.000000000000000e+00 0.000000000000000e+00

0.000000000000000e+00 0.000000000000000e+00 0.000000000000000e+00
0.000000000000000e+00 0.000000000000000e+00 0.000000000000000e+00
0.000000000000000e+00 0.000000000000000e+00 0.000000000000000e+00

0.000000000000000e+00 0.000000000000000e+00 0.000000000000000e+00
0.000000000000000e+00 0.000000000000000e+00 0.000000000000000e+00
0.000000000000000e+00 0.000000000000000e+00 0.000000000000000e+00

0.000000000000000e+00 0.000000000000000e+00 0.000000000000000e+00
0.000000000000000e+00 0.000000000000000e+00 0.000000000000000e+00
0.000000000000000e+00 0.000000000000000e+00 0.000000000000000e+00

0.000000000000000e+00 0.000000000000000e+00 0.000000000000000e+00
0.000000000000000e+00 0.000000000000000e+00 0.000000000000000e+00
0.000000000000000e+00 0.000000000000000e+00 0.000000000000000e+00

0.000000000000000e+00 0.000000000000000e+00 0.000000000000000e+00
0.000000000000000e+00 0.000000000000000e+00 0.000000000000000e+00
0.000000000000000e+00 0.000000000000000e+00 0.000000000000000e+00

0.000000000000000e+00 0.000000000000000e+00 0.000000000000000e+00
0.000000000000000e+00 0.000000000000000e+00 0.000000000000000e+00
0.000000000000000e+00 0.000000000000000e+00 0.000000000000000e+00

0.000000000000000e+00 0.000000000000000e+00 0.000000000000000e+00
0.000000000000000e+00 0.000000000000000e+00 0.000000000000000e+00
0.000000000000000e+00 0.000000000000000e+00 0.000000000000000e+00

0.000000000000000e+00 0.000000000000000e+00 0.000000000000000e+00
0.000000000000000e+00 0.000000000000000e+00 0.000000000000000e+00
0.000000000000000e+00 0.000000000000000e+00 0.000000000000000e+00

0.000000000000000e+00 0.000000000000000e+00 0.000000000000000e+00
0.000000000000000e+00 0.000000000000000e+00 0.000000000000000e+00
0.000000000000000e+00 0.000000000000000e+00 0.000000000000000e+00

0.000000000000000e+00 0.000000000000000e+00 0.000000000000000e+00
0.000000000000000e+00 0.000000000000000e+00 0.000000000000000e+00
0.000000000000000e+00 0.000000000000000e+00 0.000000000000000e+00

0.000000000000000e+00 0.000000000000000e+00 0.000000000000000e+00
0.000000000000000e+00 0.000000000000000e+00 0.000000000000000e+00
0.000000000000000e+00 0.000000000000000e+00 0.000000000000000e+00

0.000000000000000e+00 0.000000000000000e+00 0.000000000000000e+00
0.000000000000000e+00 0.000000000000000e+00 0.000000000000000e+00
0.000000000000000e+00 0.000000000000000e+00 0.000000000000000e+00

0.000000000000000e+00 0.000000000000000e+00 0.000000000000000e+00
0.000000000000000e+00 0.000000000000000e+00 0.000000000000000e+00
0.000000000000000e+00 0.000000000000000e+00 0.000000000000000e+00

0.000000000000000e+00 0.000000000000000e+00 0.000000000000000e+00
0.000000000000000e+00 0.000000000000000e+00 0.000000000000000e+00
0.000000000000000e+00 0.000000000000000e+00 0.000000000000000e+00

0.000000000000000e+00 0.000000000000000e+00 0.000000000000000e+00
0.000000000000000e+00 0.000000000000000e+00 0.000000000000000e+00
0.000000000000000e+00 0.000000000000000e+00 0.000000000000000e+00

0.000000000000000e+00 0.000000000000000e+00 0.000000000000000e+00
0.000000000000000e+00 0.000000000000000e+00 0.000000000000000e+00
0.000000000000000e+00 0.000000000000000e+00 0.000000000000000e+00

0.000000000000000e+00 0.000000000000000e+00 0.000000000000000e+00
0.000000000000000e+00 0.000000000000000e+00 0.000000000000000e+00
0.000000000000000e+00 0.000000000000000e+00 0.000000000000000e+00

0.000000000000000e+00 0.000000000000000e+00 0.000000000000000e+00
0.000000000000000e+00 0.000000000000000e+00 0.000000000000000e+00
0.000000000000000e+00 0.000000000000000e+00 0.000000000000000e+00

0.000000000000000e+00 0.000000000000000e+00 0.000000000000000e+00
0.000000000000000e+00 0.000000000000000e+00 0.000000000000000e+00
0.000000000000000e+00 0.000000000000000e+00 0.000000000000000e+00

0.000000000000000e+00 0.000000000000000e+00 0.000000000000000e+00
0.000000000000000e+00 0.000000000000000e+00 0.000000000000000e+00
0.000000000000000e+00 0.000000000000000e+00 0.000000000000000e+00

0.000000000000000e+00 0.000000000000000e+00 0.000000000000000e+00
0.000000000000000e+00 0.000000000000000e+00 0.000000000000000e+00
0.000000000000000e+00 0.000000000000000e+00 0.000000000000000e+00

0.000000000000000e+00 0.000000000000000e+00 0.000000000000000e+00
0.000000000000000e+00 0.000000000000000e+00 0.000000000000000e+00
0.000000000000000e+00 0.000000000000000e+00 0.000000000000000e+00

0.000000000000000e+00 0.000000000000000e+00 0.000000000000000e+00
0.000000000000000e+00 0.000000000000000e+00 0.000000000000000e+00
0.000000000000000e+00 0.000000000000000e+00 0.000000000000000e+00

0.000000000000000e+00 0.000000000000000e+00 0.000000000000000e+00
0.000000000000000e+00 0.000000000000000e+00 0.000000000000000e+00
0.000000000000000e+00 0.000000000000000e+00 0.000000000000000e+00

0.000000000000000e+00 0.000000000000000e+00 0.000000000000000e+00
0.000000000000000e+00 0.000000000000000e+00 0.000000000000000e+00
0.000000000000000e+00 0.000000000000000e+00 0.000000000000000e+00

0.000000000000000e+00 0.000000000000000e+00 0.000000000000000e+00
0.000000000000000e+00 0.000000000000000e+00 0.000000000000000e+00
0.000000000000000e+00 0.000000000000000e+00 0.000000000000000e+00

0.000000000000000e+00 0.000000000000000e+00 0.000000000000000e+00
0.000000000000000e+00 0.000000000000000e+00 0.000000000000000e+00
0.000000000000000e+00 0.000000000000000e+00 0.000000000000000e+00

0.000000000000000e+00 0.000000000000000e+00 0.000000000000000e+00
0.000000000000000e+00 0.000000000000000e+00 0.000000000000000e+00
0.000000000000000e+00 0.000000000000000e+00 0.000000000000000e+00

0.000000000000000e+00 0.000000000000000e+00 0.000000000000000e+00
0.000000000000000e+00 0.000000000000000e+00 0.000000000000000e+00
0.000000000000000e+00 0.000000000000000e+00 0.000000000000000e+00

0.000000000000000e+00 0.000000000000000e+00 0.000000000000000e+00
0.000000000000000e+00 0.000000000000000e+00 0.000000000000000e+00
0.000000000000000e+00 0.000000000000000e+00 0.000000000000000e+00

0.000000000000000e+00 0.000000000000000e+00 0.000000000000000e+00
0.000000000000000e+00 0.000000000000000e+00 0.000000000000000e+00
0.000000000000000e+00 0.000000000000000e+00 0.000000000000000e+00

0.000000000000000e+00 0.000000000000000e+00 0.000000000000000e+00
0.000000000000000e+00 0.000000000000000e+00 0.000000000000000e+00
0.000000000000000e+00 0.000000000000000e+00 0.000000000000000e+00

0.000000000000000e+00 0.000000000000000e+00 0.000000000000000e+00
0.000000000000000e+00 0.000000000000000e+00 0.000000000000000e+00
0.000000000000000e+00 0.000000000000000e+00 0.000000000000000e+00

0.000000000000000e+00 0.000000000000000e+00 0.000000000000000e+00
0.000000000000000e+00 0.000000000000000e+00 0.000000000000000e+00
0.000000000000000e+00 0.000000000000000e+00 0.000000000000000e+00

0.000000000000000e+00 0.000000000000000e+00 0.000000000000000e+00
0.000000000000000e+00 0.000000000000000e+00 0.000000000000000e+00
0.000000000000000e+00 0.000000000000000e+00 0.000000000000000e+00

0.000000000000000e+00 0.000000000000000e+00 0.000000000000000e+00
0.000000000000000e+00 0.000000000000000e+00 0.000000000000000e+00
0.000000000000000e+00 0.000000000000000e+00 0.000000000000000e+00

0.000000000000000e+00 0.000000000000000e+00 0.000000000000000e+00
0.000000000000000e+00 0.000000000000000e+00 0.000000000000000e+00
0.000000000000000e+00 0.000000000000000e+00 0.000000000000000e+00

0.000000000000000e+00 0.000000000000000e+00 0.000000000000000e+00
0.000000000000000e+00 0.000000000000000e+00 0.000000000000000e+00
0.000000000000000e+00 0.000000000000000e+00 0.000000000000000e+00

0.000000000000000e+00 0.000000000000000e+00 0.000000000000000e+00
0.000000000000000e+00 0.000000000000000e+00 0.000000000000000e+00
0.000000000000000e+00 0.000000000000000e+00 0.000000000000000e+00

0.000000000000000e+00 0.000000000000000e+00 0.000000000000000e+00
0.000000000000000e+00 0.000000000000000e+00 0.000000000000000e+00
0.000000000000000e+00 0.000000000000000e+00 0.000000000000000e+00

0.000000000000000e+00 0.000000000000000e+00 0.000000000000000e+00
0.000000000000000e+00 0.000000000000000e+00 0.000000000000000e+00
0.000000000000000e+00 0.000000000000000e+00 0.000000000000000e+00

0.000000000000000e+00 0.000000000000000e+00 0.000000000000000e+00
0.000000000000000e+00 0.000000000000000e+00 0.000000000000000e+00
0.000000000000000e+00 0.000000000000000e+00 0.000000000000000e+00

0.000000000000000e+00 0.000000000000000e+00 0.000000000000000e+00
0.000000000000000e+00 0.000000000000000e+00 0.000000000000000e+00
0.000000000000000e+00 0.000000000000000e+00 0.000000000000000e+00

0.000000000000000e+00 0.000000000000000e+00 0.000000000000000e+00
0.000000000000000e+00 0.000000000000000e+00 0.000000000000000e+00
0.000000000000000e+00 0.000000000000000e+00 0.000000000000000e+00

0.000000000000000e+00 0.000000000000000e+00 0.000000000000000e+00
0.000000000000000e+00 0.000000000000000e+00 0.000000000000000e+00
0.000000000000000e+00 0.000000000000000e+00 0.000000000000000e+00

0.000000000000000e+00 0.000000000000000e+00 0.000000000000000e+00
0.000000000000000e+00 0.000000000000000e+00 0.000000000000000e+00
0.000000000000000e+00 0.000000000000000e+00 0.000000000000000e+00

0.000000000000000e+00 0.000000000000000e+00 0.000000000000000e+00
0.000000000000000e+00 0.000000000000000e+00 0.000000000000000e+00
0.000000000000000e+00 0.000000000000000e+00 0.000000000000000e+00

0.000000000000000e+00 0.000000000000000e+00 0.000000000000000e+00
0.000000000000000e+00 0.000000000000000e+00 0.000000000000000e+00
0.000000000000000e+00 0.000000000000000e+00 0.000000000000000e+00

0.000000000000000e+00 0.000000000000000e+00 0.000000000000000e+00
0.000000000000000e+00 0.000000000000000e+00 0.000000000000000e+00
0.000000000000000e+00 0.000000000000000e+00 0.000000000000000e+00

0.000000000000000e+00 0.000000000000000e+00 0.000000000000000e+00
0.000000000000000e+00 0.000000000000000e+00 0.000000000000000e+00
0.000000000000000e+00 0.000000000000000e+00 0.000000000000000e+00

0.000000000000000e+00 0.000000000000000e+00 0.000000000000000e+00
0.000000000000000e+00 0.000000000000000e+00 0.000000000000000e+00
0.000000000000000e+00 0.000000000000000e+00 0.000000000000000e+00

0.000000000000000e+00 0.000000000000000e+00 0.000000000000000e+00
0.000000000000000e+00 0.000000000000000e+00 0.000000000000000e+00
0.000000000000000e+00 0.000000000000000e+00 0.000000000000000e+00

0.000000000000000e+00 0.000000000000000e+00 0.000000000000000e+00
0.000000000000000e+00 0.000000000000000e+00 0.000000000000000e+00
0.000000000000000e+00 0.000000000000000e+00 0.000000000000000e+00

0.000000000000000e+00 0.000000000000000e+00 0.000000000000000e+00
0.000000000000000e+00 0.000000000000000e+00 0.000000000000000e+00
0.000000000000000e+00 0.000000000000000e+00 0.000000000000000e+00

0.000000000000000e+00 0.000000000000000e+00 0.000000000000000e+00
0.000000000000000e+00 0.000000000000000e+00 0.000000000000000e+00
0.000000000000000e+00 0.000000000000000e+00 0.000000000000000e+00

0.000000000000000e+00 0.000000000000000e+00 0.000000000000000e+00
0.000000000000000e+00 0.000000000000000e+00 0.000000000000000e+00
0.000000000000000e+00 0.000000000000000e+00 0.000000000000000e+00

0.000000000000000e+00 0.000000000000000e+00 0.000000000000000e+00
0.000000000000000e+00 0.000000000000000e+00 0.000000000000000e+00
0.000000000000000e+00 0.000000000000000e+00 0.000000000000000e+00

0.000000000000000e+00 0.000000000000000e+00 0.000000000000000e+00
0.000000000000000e+00 0.000000000000000e+00 0.000000000000000e+00
0.000000000000000e+00 0.000000000000000e+00 0.000000000000000e+00

0.000000000000000e+00 0.000000000000000e+00 0.000000000000000e+00
0.000000000000000e+00 0.000000000000000e+00 0.000000000000000e+00
0.000000000000000e+00 0.000000000000000e+00 0.000000000000000e+00

0.000000000000000e+00 0.000000000000000e+00 0.000000000000000e+00
0.000000000000000e+00 0.000000000000000e+00 0.000000000000000e+00
0.000000000000000e+00 0.000000000000000e+00 0.000000000000000e+00

0.000000000000000e+00 0.000000000000000e+00 0.000000000000000e+00
0.000000000000000e+00 0.000000000000000e+00 0.000000000000000e+00
0.000000000000000e+00 0.000000000000000e+00 0.000000000000000e+00

0.000000000000000e+00 0.000000000000000e+00 0.000000000000000e+00
0.000000000000000e+00 0.000000000000000e+00 0.000000000000000e+00
0.000000000000000e+00 0.000000000000000e+00 0.000000000000000e+00

0.000000000000000e+00 0.000000000000000e+00 0.000000000000000e+00
0.000000000000000e+00 0.000000000000000e+00 0.000000000000000e+00
0.000000000000000e+00 0.000000000000000e+00 0.000000000000000e+00

0.000000000000000e+00 0.000000000000000e+00 0.000000000000000e+00
0.000000000000000e+00 0.000000000000000e+00 0.000000000000000e+00
0.000000000000000e+00 0.000000000000000e+00 0.000000000000000e+00

0.000000000000000e+00 0.000000000000000e+00 0.000000000000000e+00
0.000000000000000e+00 0.000000000000000e+00 0.000000000000000e+00
0.000000000000000e+00 0.000000000000000e+00 0.000000000000000e+00

0.000000000000000e+00 0.000000000000000e+00 0.000000000000000e+00
0.000000000000000e+00 0.000000000000000e+00 0.000000000000000e+00
0.000000000000000e+00 0.000000000000000e+00 0.000000000000000e+00

0.000000000000000e+00 0.000000000000000e+00 0.000000000000000e+00
0.000000000000000e+00 0.000000000000000e+00 0.000000000000000e+00
0.000000000000000e+00 0.000000000000000e+00 0.000000000000000e+00

0.000000000000000e+00 0.000000000000000e+00 0.000000000000000e+00
0.000000000000000e+00 0.000000000000000e+00 0.000000000000000e+00
0.000000000000000e+00 0.000000000000000e+00 0.000000000000000e+00

0.000000000000000e+00 0.000000000000000e+00 0.000000000000000e+00
0.000000000000000e+00 0.000000000000000e+00 0.000000000000000e+00
0.000000000000000e+00 0.000000000000000e+00 0.000000000000000e+00

0.000000000000000e+00 0.000000000000000e+00 0.000000000000000e+00
0.000000000000000e+00 0.000000000000000e+00 0.000000000000000e+00
0.000000000000000e+00 0.000000000000000e+00 0.000000000000000e+00

0.000000000000000e+00 0.000000000000000e+00 0.000000000000000e+00
0.000000000000000e+00 0.000000000000000e+00 0.000000000000000e+00
0.000000000000000e+00 0.000000000000000e+00 0.000000000000000e+00

0.000000000000000e+00 0.000000000000000e+00 0.000000000000000e+00
0.000000000000000e+00 0.000000000000000e+00 0.000000000000000e+00
0.000000000000000e+00 0.000000000000000e+00 0.000000000000000e+00

0.000000000000000e+00 0.000000000000000e+00 0.000000000000000e+00
0.000000000000000e+00 0.000000000000000e+00 0.000000000000000e+00
0.000000000000000e+00 0.000000000000000e+00 0.000000000000000e+00

0.000000000000000e+00 0.000000000000000e+00 0.000000000000000e+00
0.000000000000000e+00 0.000000000000000e+00 0.000000000000000e+00
0.000000000000000e+00 0.000000000000000e+00 0.000000000000000e+00

0.000000000000000e+00 0.000000000000000e+00 0.000000000000000e+00
0.000000000000000e+00 0.000000000000000e+00 0.000000000000000e+00
0.000000000000000e+00 0.000000000000000e+00 0.000000000000000e+00

0.000000000000000e+00 0.000000000000000e+00 0.000000000000000e+00
0.000000000000000e+00 0.000000000000000e+00 0.000000000000000e+00
0.000000000000000e+00 0.000000000000000e+00 0.000000000000000e+00

0.000000000000000e+00 0.000000000000000e+00 0.000000000000000e+00
0.000000000000000e+00 0.000000000000000e+00 0.000000000000000e+00
0.000000000000000e+00 0.000000000000000e+00 0.000000000000000e+00

0.000000000000000e+00 0.000000000000000e+00 0.000000000000000e+00
0.000000000000000e+00 0.000000000000000e+00 0.000000000000000e+00
0.000000000000000e+00 0.000000000000000e+00 0.000000000000000e+00

0.000000000000000e+00 0.000000000000000e+00 0.000000000000000e+00
0.000000000000000e+00 0.000000000000000e+00 0.000000000000000e+00
0.000000000000000e+00 0.000000000000000e+00 0.000000000000000e+00

0.000000000000000e+00 0.000000000000000e+00 0.000000000000000e+00
0.000000000000000e+00 0.000000000000000e+00 0.000000000000000e+00
0.000000000000000e+00 0.000000000000000e+00 0.000000000000000e+00

0.000000000000000e+00 0.000000000000000e+00 0.000000000000000e+00
0.000000000000000e+00 0.000000000000000e+00 0.000000000000000e+00
0.000000000000000e+00 0.000000000000000e+00 0.000000000000000e+00

0.000000000000000e+00 0.000000000000000e+00 0.000000000000000e+00
0.000000000000000e+00 0.000000000000000e+00 0.000000000000000e+00
0.000000000000000e+00 0.000000000000000e+00 0.000000000000000e+00

0.000000000000000e+00 0.000000000000000e+00 0.000000000000000e+00
0.000000000000000e+00 0.000000000000000e+00 0.000000000000000e+00
0.000000000000000e+00 0.000000000000000e+00 0.000000000000000e+00

0.000000000000000e+00 0.000000000000000e+00 0.000000000000000e+00
0.000000000000000e+00 0.000000000000000e+00 0.000000000000000e+00
0.000000000000000e+00 0.000000000000000e+00 0.000000000000000e+00

0.000000000000000e+00 0.000000000000000e+00 0.000000000000000e+00
0.000000000000000e+00 0.000000000000000e+00 0.000000000000000e+00
0.000000000000000e+00 0.000000000000000e+00 0.000000000000000e+00

0.000000000000000e+00 0.000000000000000e+00 0.000000000000000e+00
0.000000000000000e+00 0.000000000000000e+00 0.000000000000000e+00
0.000000000000000e+00 0.000000000000000e+00 0.000000000000000e+00

0.000000000000000e+00 0.000000000000000e+00 0.000000000000000e+00
0.000000000000000e+00 0.000000000000000e+00 0.000000000000000e+00
0.000000000000000e+00 0.000000000000000e+00 0.000000000000000e+00

0.000000000000000e+00 0.000000000000000e+00 0.000000000000000e+00
0.000000000000000e+00 0.000000000000000e+00 0.000000000000000e+00
0.000000000000000e+00 0.000000000000000e+00 0.000000000000000e+00

0.000000000000000e+00 0.000000000000000e+00 0.000000000000000e+00
0.000000000000000e+00 0.000000000000000e+00 0.000000000000000e+00
0.000000000000000e+00 0.000000000000000e+00 0.000000000000000e+00

0.000000000000000e+00 0.000000000000000e+00 0.000000000000000e+00
0.000000000000000e+00 0.000000000000000e+00 0.000000000000000e+00
0.000000000000000e+00 0.000000000000000e+00 0.000000000000000e+00

0.000000000000000e+00 0.000000000000000e+00 0.000000000000000e+00
0.000000000000000e+00 0.000000000000000e+00 0.000000000000000e+00
0.000000000000000e+00 0.000000000000000e+00 0.000000000000000e+00

0.000000000000000e+00 0.000000000000000e+00 0.000000000000000e+00
0.000000000000000e+00 0.000000000000000e+00 0.000000000000000e+00
0.000000000000000e+00 0.000000000000000e+00 0.000000000000000e+00

0.000000000000000e+00 0.000000000000000e+00 0.000000000000000e+00
0.000000000000000e+00 0.000000000000000e+00 0.000000000000000e+00
0.000000000000000e+00 0.000000000000000e+00 0.000000000000000e+00

0.000000000000000e+00 0.000000000000000e+00 0.000000000000000e+00
0.000000000000000e+00 0.000000000000000e+00 0.000000000000000e+00
0.000000000000000e+00 0.000000000000000e+00 0.000000000000000e+00

0.000000000000000e+00 0.000000000000000e+00 0.000000000000000e+00
0.000000000000000e+00 0.000000000000000e+00 0.000000000000000e+00
0.000000000000000e+00 0.000000000000000e+00 0.000000000000000e+00

0.000000000000000e+00 0.000000000000000e+00 0.000000000000000e+00
0.000000000000000e+00 0.000000000000000e+00 0.000000000000000e+00
0.000000000000000e+00 0.000000000000000e+00 0.000000000000000e+00

0.000000000000000e+00 0.000000000000000e+00 0.000000000000000e+00
0.000000000000000e+00 0.000000000000000e+00 0.000000000000000e+00
0.000000000000000e+00 0.000000000000000e+00 0.000000000000000e+00

0.000000000000000e+00 0.000000000000000e+00 0.000000000000000e+00
0.000000000000000e+00 0.000000000000000e+00 0.000000000000000e+00
0.000000000000000e+00 0.000000000000000e+00 0.000000000000000e+00

0.000000000000000e+00 0.000000000000000e+00 0.000000000000000e+00
0.000000000000000e+00 0.000000000000000e+00 0.000000000000000e+00
0.000000000000000e+00 0.000000000000000e+00 0.000000000000000e+00

0.000000000000000e+00 0.000000000000000e+00 0.000000000000000e+00
0.000000000000000e+00 0.000000000000000e+00 0.000000000000000e+00
0.000000000000000e+00 0.000000000000000e+00 0.000000000000000e+00

0.000000000000000e+00 0.000000000000000e+00 0.000000000000000e+00
0.000000000000000e+00 0.000000000000000e+00 0.000000000000000e+00
0.000000000000000e+00 0.000000000000000e+00 0.000000000000000e+00

0.000000000000000e+00 0.000000000000000e+00 0.000000000000000e+00
0.000000000000000e+00 0.000000000000000e+00 0.000000000000000e+00
0.000000000000000e+00 0.000000000000000e+00 0.000000000000000e+00

0.000000000000000e+00 0.000000000000000e+00 0.000000000000000e+00
0.000000000000000e+00 0.000000000000000e+00 0.000000000000000e+00
0.000000000000000e+00 0.000000000000000e+00 0.000000000000000e+00

0.000000000000000e+00 0.000000000000000e+00 0.000000000000000e+00
0.000000000000000e+00 0.000000000000000e+00 0.000000000000000e+00
0.000000000000000e+00 0.000000000000000e+00 0.000000000000000e+00

0.000000000000000e+00 0.000000000000000e+00 0.000000000000000e+00
0.000000000000000e+00 0.000000000000000e+00 0.000000000000000e+00
0.000000000000000e+00 0.000000000000000e+00 0.000000000000000e+00

0.000000000000000e+00 0.000000000000000e+00 0.000000000000000e+00
0.000000000000000e+00 0.000000000000000e+00 0.000000000000000e+00
0.000000000000000e+00 0.000000000000000e+00 0.000000000000000e+00

0.000000000000000e+00 0.000000000000000e+00 0.000000000000000e+00
0.000000000000000e+00 0.000000000000000e+00 0.000000000000000e+00
0.000000000000000e+00 0.000000000000000e+00 0.000000000000000e+00

0.000000000000000e+00 0.000000000000000e+00 0.000000000000000e+00
0.000000000000000e+00 0.000000000000000e+00 0.000000000000000e+00
0.000000000000000e+00 0.000000000000000e+00 0.000000000000000e+00

0.000000000000000e+00 0.000000000000000e+00 0.000000000000000e+00
0.000000000000000e+00 0.000000000000000e+00 0.000000000000000e+00
0.000000000000000e+00 0.000000000000000e+00 0.000000000000000e+00

0.000000000000000e+00 0.000000000000000e+00 0.000000000000000e+00
0.000000000000000e+00 0.000000000000000e+00 0.000000000000000e+00
0.000000000000000e+00 0.000000000000000e+00 0.000000000000000e+00

0.000000000000000e+00 0.000000000000000e+00 0.000000000000000e+00
0.000000000000000e+00 0.000000000000000e+00 0.000000000000000e+00
0.000000000000000e+00 0.000000000000000e+00 0.000000000000000e+00

0.000000000000000e+00 0.000000000000000e+00 0.000000000000000e+00
0.000000000000000e+00 0.000000000000000e+00 0.000000000000000e+00
0.000000000000000e+00 0.000000000000000e+00 0.000000000000000e+00

0.000000000000000e+00 0.000000000000000e+00 0.000000000000000e+00
0.000000000000000e+00 0.000000000000000e+00 0.000000000000000e+00
0.000000000000000e+00 0.000000000000000e+00 0.000000000000000e+00

0.000000000000000e+00 0.000000000000000e+00 0.000000000000000e+00
0.000000000000000e+00 0.000000000000000e+00 0.000000000000000e+00
0.000000000000000e+00 0.000000000000000e+00 0.000000000000000e+00

0.000000000000000e+00 0.000000000000000e+00 0.000000000000000e+00
0.000000000000000e+00 0.000000000000000e+00 0.000000000000000e+00
0.000000000000000e+00 0.000000000000000e+00 0.000000000000000e+00

0.000000000000000e+00 0.000000000000000e+00 0.000000000000000e+00
0.000000000000000e+00 0.000000000000000e+00 0.000000000000000e+00
0.000000000000000e+00 0.000000000000000e+00 0.000000000000000e+00

0.000000000000000e+00 0.000000000000000e+00 0.000000000000000e+00
0.000000000000000e+00 0.000000000000000e+00 0.000000000000000e+00
0.000000000000000e+00 0.000000000000000e+00 0.000000000000000e+00

0.000000000000000e+00 0.000000000000000e+00 0.000000000000000e+00
0.000000000000000e+00 0.000000000000000e+00 0.000000000000000e+00
0.000000000000000e+00 0.000000000000000e+00 0.000000000000000e+00

0.000000000000000e+00 0.000000000000000e+00 0.000000000000000e+00
0.000000000000000e+00 0.000000000000000e+00 0.000000000000000e+00
0.000000000000000e+00 0.000000000000000e+00 0.000000000000000e+00

0.000000000000000e+00 0.000000000000000e+00 0.000000000000000e+00
0.000000000000000e+00 0.000000000000000e+00 0.000000000000000e+00
0.000000000000000e+00 0.000000000000000e+00 0.000000000000000e+00

0.000000000000000e+00 0.000000000000000e+00 0.000000000000000e+00
0.000000000000000e+00 0.000000000000000e+00 0.000000000000000e+00
0.000000000000000e+00 0.000000000000000e+00 0.000000000000000e+00

0.000000000000000e+00 0.000000000000000e+00 0.000000000000000e+00
0.000000000000000e+00 0.000000000000000e+00 0.000000000000000e+00
0.000000000000000e+00 0.000000000000000e+00 0.000000000000000e+00

0.000000000000000e+00 0.000000000000000e+00 0.000000000000000e+00
0.000000000000000e+00 0.000000000000000e+00 0.000000000000000e+00
0.000000000000000e+00 0.000000000000000e+00 0.000000000000000e+00

0.000000000000000e+00 0.000000000000000e+00 0.000000000000000e+00
0.000000000000000e+00 0.000000000000000e+00 0.000000000000000e+00
0.000000000000000e+00 0.000000000000000e+00 0.000000000000000e+00

0.000000000000000e+00 0.000000000000000e+00 0.000000000000000e+00
0.000000000000000e+00 0.000000000000000e+00 0.000000000000000e+00
0.000000000000000e+00 0.000000000000000e+00 0.000000000000000e+00

0.000000000000000e+00 0.000000000000000e+00 0.000000000000000e+00
0.000000000000000e+00 0.000000000000000e+00 0.000000000000000e+00
0.000000000000000e+00 0.000000000000000e+00 0.000000000000000e+00

0.000000000000000e+00 0.000000000000000e+00 0.000000000000000e+00
0.000000000000000e+00 0.000000000000000e+00 0.000000000000000e+00
0.000000000000000e+00 0.000000000000000e+00 0.000000000000000e+00

0.000000000000000e+00 0.000000000000000e+00 0.000000000000000e+00
0.000000000000000e+00 0.000000000000000e+00 0.000000000000000e+00
0.000000000000000e+00 0.000000000000000e+00 0.000000000000000e+00

0.000000000000000e+00 0.000000000000000e+00 0.000000000000000e+00
0.000000000000000e+00 0.000000000000000e+00 0.000000000000000e+00
0.000000000000000e+00 0.000000000000000e+00 0.000000000000000e+00

0.000000000000000e+00 0.000000000000000e+00 0.000000000000000e+00
0.000000000000000e+00 0.000000000000000e+00 0.000000000000000e+00
0.000000000000000e+00 0.000000000000000e+00 0.000000000000000e+00

0.000000000000000e+00 0.000000000000000e+00 0.000000000000000e+00
0.000000000000000e+00 0.000000000000000e+00 0.000000000000000e+00
0.000000000000000e+00 0.000000000000000e+00 0.000000000000000e+00

0.000000000000000e+00 0.000000000000000e+00 0.000000000000000e+00
0.000000000000000e+00 0.000000000000000e+00 0.000000000000000e+00
0.000000000000000e+00 0.000000000000000e+00 0.000000000000000e+00

0.000000000000000e+00 0.000000000000000e+00 0.000000000000000e+00
0.000000000000000e+00 0.000000000000000e+00 0.000000000000000e+00
0.000000000000000e+00 0.000000000000000e+00 0.000000000000000e+00

0.000000000000000e+00 0.000000000000000e+00 0.000000000000000e+00
0.000000000000000e+00 0.000000000000000e+00 0.000000000000000e+00
0.000000000000000e+00 0.000000000000000e+00 0.000000000000000e+00

0.000000000000000e+00 0.000000000000000e+00 0.000000000000000e+00
0.000000000000000e+00 0.000000000000000e+00 0.000000000000000e+00
0.000000000000000e+00 0.000000000000000e+00 0.000000000000000e+00

0.000000000000000e+00 0.000000000000000e+00 0.000000000000000e+00
0.000000000000000e+00 0.000000000000000e+00 0.000000000000000e+00
0.000000000000000e+00 0.000000000000000e+00 0.000000000000000e+00

0.000000000000000e+00 0.000000000000000e+00 0.000000000000000e+00
0.000000000000000e+00 0.000000000000000e+00 0.000000000000000e+00
0.000000000000000e+00 0.000000000000000e+00 0.000000000000000e+00

0.000000000000000e+00 0.000000000000000e+00 0.000000000000000e+00
0.000000000000000e+00 0.000000000000000e+00 0.000000000000000e+00
0.000000000000000e+00 0.000000000000000e+00 0.000000000000000e+00

0.000000000000000e+00 0.000000000000000e+00 0.000000000000000e+00
0.000000000000000e+00 0.000000000000000e+00 0.000000000000000e+00
0.000000000000000e+00 0.000000000000000e+00 0.000000000000000e+00

0.000000000000000e+00 0.000000000000000e+00 0.000000000000000e+00
0.000000000000000e+00 0.000000000000000e+00 0.000000000000000e+00
0.000000000000000e+00 0.000000000000000e+00 0.000000000000000e+00

0.000000000000000e+00 0.000000000000000e+00 0.000000000000000e+00
0.000000000000000e+00 0.000000000000000e+00 0.000000000000000e+00
0.000000000000000e+00 0.000000000000000e+00 0.000000000000000e+00

0.000000000000000e+00 0.000000000000000e+00 0.000000000000000e+00
0.000000000000000e+00 0.000000000000000e+00 0.000000000000000e+00
0.000000000000000e+00 0.000000000000000e+00 0.000000000000000e+00

0.000000000000000e+00 0.000000000000000e+00 0.000000000000000e+00
0.000000000000000e+00 0.000000000000000e+00 0.000000000000000e+00
0.000000000000000e+00 0.000000000000000e+00 0.000000000000000e+00

0.000000000000000e+00 0.000000000000000e+00 0.000000000000000e+00
0.000000000000000e+00 0.000000000000000e+00 0.000000000000000e+00
0.000000000000000e+00 0.000000000000000e+00 0.000000000000000e+00

0.000000000000000e+00 0.000000000000000e+00 0.000000000000000e+00
0.000000000000000e+00 0.000000000000000e+00 0.000000000000000e+00
0.000000000000000e+00 0.000000000000000e+00 0.000000000000000e+00

0.000000000000000e+00 0.000000000000000e+00 0.000000000000000e+00
0.000000000000000e+00 0.000000000000000e+00 0.000000000000000e+00
0.000000000000000e+00 0.000000000000000e+00 0.000000000000000e+00

0.000000000000000e+00 0.000000000000000e+00 0.000000000000000e+00
0.000000000000000e+00 0.000000000000000e+00 0.000000000000000e+00
0.000000000000000e+00 0.000000000000000e+00 0.000000000000000e+00

0.000000000000000e+00 0.000000000000000e+00 0.000000000000000e+00
0.000000000000000e+00 0.000000000000000e+00 0.000000000000000e+00
0.000000000000000e+00 0.000000000000000e+00 0.000000000000000e+00

0.000000000000000e+00 0.000000000000000e+00 0.000000000000000e+00
0.000000000000000e+00 0.000000000000000e+00 0.000000000000000e+00
0.000000000000000e+00 0.000000000000000e+00 0.000000000000000e+00

0.000000000000000e+00 0.000000000000000e+00 0.000000000000000e+00
0.000000000000000e+00 0.000000000000000e+00 0.000000000000000e+00
0.000000000000000e+00 0.000000000000000e+00 0.000000000000000e+00

0.000000000000000e+00 0.000000000000000e+00 0.000000000000000e+00
0.000000000000000e+00 0.000000000000000e+00 0.000000000000000e+00
0.000000000000000e+00 0.000000000000000e+00 0.000000000000000e+00

0.000000000000000e+00 0.000000000000000e+00 0.000000000000000e+00
0.000000000000000e+00 0.000000000000000e+00 0.000000000000000e+00
0.000000000000000e+00 0.000000000000000e+00 0.000000000000000e+00

0.000000000000000e+00 0.000000000000000e+00 0.000000000000000e+00
0.000000000000000e+00 0.000000000000000e+00 0.000000000000000e+00
0.000000000000000e+00 0.000000000000000e+00 0.000000000000000e+00

0.000000000000000e+00 0.000000000000000e+00 0.000000000000000e+00
0.000000000000000e+00 0.000000000000000e+00 0.000000000000000e+00
0.000000000000000e+00 0.000000000000000e+00 0.000000000000000e+00

0.000000000000000e+00 0.000000000000000e+00 0.000000000000000e+00
0.000000000000000e+00 0.000000000000000e+00 0.000000000000000e+00
0.000000000000000e+00 0.000000000000000e+00 0.000000000000000e+00

0.000000000000000e+00 0.000000000000000e+00 0.000000000000000e+00
0.000000000000000e+00 0.000000000000000e+00 0.000000000000000e+00
0.000000000000000e+00 0.000000000000000e+00 0.000000000000000e+00

0.000000000000000e+00 0.000000000000000e+00 0.000000000000000e+00
0.000000000000000e+00 0.000000000000000e+00 0.000000000000000e+00
0.000000000000000e+00 0.000000000000000e+00 0.000000000000000e+00

0.000000000000000e+00 0.000000000000000e+00 0.000000000000000e+00
0.000000000000000e+00 0.000000000000000e+00 0.000000000000000e+00
0.000000000000000e+00 0.000000000000000e+00 0.000000000000000e+00

0.000000000000000e+00 0.000000000000000e+00 0.000000000000000e+00
0.000000000000000e+00 0.000000000000000e+00 0.000000000000000e+00
0.000000000000000e+00 0.000000000000000e+00 0.000000000000000e+00

0.000000000000000e+00 0.000000000000000e+00 0.000000000000000e+00
0.000000000000000e+00 0.000000000000000e+00 0.000000000000000e+00
0.000000000000000e+00 0.000000000000000e+00 0.000000000000000e+00

0.000000000000000e+00 0.000000000000000e+00 0.000000000000000e+00
0.000000000000000e+00 0.000000000000000e+00 0.000000000000000e+00
0.000000000000000e+00 0.000000000000000e+00 0.000000000000000e+00

0.000000000000000e+00 0.000000000000000e+00 0.000000000000000e+00
0.000000000000000e+00 0.000000000000000e+00 0.000000000000000e+00
0.000000000000000e+00 0.000000000000000e+00 0.000000000000000e+00

0.000000000000000e+00 0.000000000000000e+00 0.000000000000000e+00
0.000000000000000e+00 0.000000000000000e+00 0.000000000000000e+00
0.000000000000000e+00 0.000000000000000e+00 0.000000000000000e+00

0.000000000000000e+00 0.000000000000000e+00 0.000000000000000e+00
0.000000000000000e+00 0.000000000000000e+00 0.000000000000000e+00
0.000000000000000e+00 0.000000000000000e+00 0.000000000000000e+00

0.000000000000000e+00 0.000000000000000e+00 0.000000000000000e+00
0.000000000000000e+00 0.000000000000000e+00 0.000000000000000e+00
0.000000000000000e+00 0.000000000000000e+00 0.000000000000000e+00

0.000000000000000e+00 0.000000000000000e+00 0.000000000000000e+00
0.000000000000000e+00 0.000000000000000e+00 0.000000000000000e+00
0.000000000000000e+00 0.000000000000000e+00 0.000000000000000e+00

0.000000000000000e+00 0.000000000000000e+00 0.000000000000000e+00
0.000000000000000e+00 0.000000000000000e+00 0.000000000000000e+00
0.000000000000000e+00 0.000000000000000e+00 0.000000000000000e+00

0.000000000000000e+00 0.000000000000000e+00 0.000000000000000e+00
0.000000000000000e+00 0.000000000000000e+00 0.000000000000000e+00
0.000000000000000e+00 0.000000000000000e+00 0.000000000000000e+00

0.000000000000000e+00 0.000000000000000e+00 0.000000000000000e+00
0.000000000000000e+00 0.000000000000000e+00 0.000000000000000e+00
0.000000000000000e+00 0.000000000000000e+00 0.000000000000000e+00

0.000000000000000e+00 0.000000000000000e+00 0.000000000000000e+00
0.000000000000000e+00 0.000000000000000e+00 0.000000000000000e+00
0.000000000000000e+00 0.000000000000000e+00 0.000000000000000e+00

0.000000000000000e+00 0.000000000000000e+00 0.000000000000000e+00
0.000000000000000e+00 0.000000000000000e+00 0.000000000000000e+00
0.000000000000000e+00 0.000000000000000e+00 0.000000000000000e+00

0.000000000000000e+00 0.000000000000000e+00 0.000000000000000e+00
0.000000000000000e+00 0.000000000000000e+00 0.000000000000000e+00
0.000000000000000e+00 0.000000000000000e+00 0.000000000000000e+00

0.000000000000000e+00 0.000000000000000e+00 0.000000000000000e+00
0.000000000000000e+00 0.000000000000000e+00 0.000000000000000e+00
0.000000000000000e+00 0.000000000000000e+00 0.000000000000000e+00

0.000000000000000e+00 0.000000000000000e+00 0.000000000000000e+00
0.000000000000000e+00 0.000000000000000e+00 0.000000000000000e+00
0.000000000000000e+00 0.000000000000000e+00 0.000000000000000e+00

0.000000000000000e+00 0.000000000000000e+00 0.000000000000000e+00
0.000000000000000e+00 0.000000000000000e+00 0.000000000000000e+00
0.000000000000000e+00 0.000000000000000e+00 0.000000000000000e+00

0.000000000000000e+00 0.000000000000000e+00 0.000000000000000e+00
0.000000000000000e+00 0.000000000000000e+00 0.000000000000000e+00
0.000000000000000e+00 0.000000000000000e+00 0.000000000000000e+00

0.000000000000000e+00 0.000000000000000e+00 0.000000000000000e+00
0.000000000000000e+00 0.000000000000000e+00 0.000000000000000e+00
0.000000000000000e+00 0.000000000000000e+00 0.000000000000000e+00

0.000000000000000e+00 0.000000000000000e+00 0.000000000000000e+00
0.000000000000000e+00 0.000000000000000e+00 0.000000000000000e+00
0.000000000000000e+00 0.000000000000000e+00 0.000000000000000e+00

0.000000000000000e+00 0.000000000000000e+00 0.000000000000000e+00
0.000000000000000e+00 0.000000000000000e+00 0.000000000000000e+00
0.000000000000000e+00 0.000000000000000e+00 0.000000000000000e+00

0.000000000000000e+00 0.000000000000000e+00 0.000000000000000e+00
0.000000000000000e+00 0.000000000000000e+00 0.000000000000000e+00
0.000000000000000e+00 0.000000000000000e+00 0.000000000000000e+00

0.000000000000000e+00 0.000000000000000e+00 0.000000000000000e+00
0.000000000000000e+00 0.000000000000000e+00 0.000000000000000e+00
0.000000000000000e+00 0.000000000000000e+00 0.000000000000000e+00

0.000000000000000e+00 0.000000000000000e+00 0.000000000000000e+00
0.000000000000000e+00 0.000000000000000e+00 0.000000000000000e+00
0.000000000000000e+00 0.000000000000000e+00 0.000000000000000e+00

0.000000000000000e+00 0.000000000000000e+00 0.000000000000000e+00
0.000000000000000e+00 0.000000000000000e+00 0.000000000000000e+00
0.000000000000000e+00 0.000000000000000e+00 0.000000000000000e+00

0.000000000000000e+00 0.000000000000000e+00 0.000000000000000e+00
0.000000000000000e+00 0.000000000000000e+00 0.000000000000000e+00
0.000000000000000e+00 0.000000000000000e+00 0.000000000000000e+00

0.000000000000000e+00 0.000000000000000e+00 0.000000000000000e+00
0.000000000000000e+00 0.000000000000000e+00 0.000000000000000e+00
0.000000000000000e+00 0.000000000000000e+00 0.000000000000000e+00

0.000000000000000e+00 0.000000000000000e+00 0.000000000000000e+00
0.000000000000000e+00 0.000000000000000e+00 0.000000000000000e+00
0.000000000000000e+00 0.000000000000000e+00 0.000000000000000e+00

0.000000000000000e+00 0.000000000000000e+00 0.000000000000000e+00
0.000000000000000e+00 0.000000000000000e+00 0.000000000000000e+00
0.000000000000000e+00 0.000000000000000e+00 0.000000000000000e+00

0.000000000000000e+00 0.000000000000000e+00 0.000000000000000e+00
0.000000000000000e+00 0.000000000000000e+00 0.000000000000000e+00
0.000000000000000e+00 0.000000000000000e+00 0.000000000000000e+00

0.000000000000000e+00 0.000000000000000e+00 0.000000000000000e+00
0.000000000000000e+00 0.000000000000000e+00 0.000000000000000e+00
0.000000000000000e+00 0.000000000000000e+00 0.000000000000000e+00

0.000000000000000e+00 0.000000000000000e+00 0.000000000000000e+00
0.000000000000000e+00 0.000000000000000e+00 0.000000000000000e+00
0.000000000000000e+00 0.000000000000000e+00 0.000000000000000e+00

0.000000000000000e+00 0.000000000000000e+00 0.000000000000000e+00
0.000000000000000e+00 0.000000000000000e+00 0.000000000000000e+00
0.000000000000000e+00 0.000000000000000e+00 0.000000000000000e+00

0.000000000000000e+00 0.000000000000000e+00 0.000000000000000e+00
0.000000000000000e+00 0.000000000000000e+00 0.000000000000000e+00
0.000000000000000e+00 0.000000000000000e+00 0.000000000000000e+00

0.000000000000000e+00 0.000000000000000e+00 0.000000000000000e+00
0.000000000000000e+00 0.000000000000000e+00 0.000000000000000e+00
0.000000000000000e+00 0.000000000000000e+00 0.000000000000000e+00

0.000000000000000e+00 0.000000000000000e+00 0.000000000000000e+00
0.000000000000000e+00 0.000000000000000e+00 0.000000000000000e+00
0.000000000000000e+00 0.000000000000000e+00 0.000000000000000e+00

0.000000000000000e+00 0.000000000000000e+00 0.000000000000000e+00
0.000000000000000e+00 0.000000000000000e+00 0.000000000000000e+00
0.000000000000000e+00 0.000000000000000e+00 0.000000000000000e+00

0.000000000000000e+00 0.000000000000000e+00 0.000000000000000e+00
0.000000000000000e+00 0.000000000000000e+00 0.000000000000000e+00
0.000000000000000e+00 0.000000000000000e+00 0.000000000000000e+00

0.000000000000000e+00 0.000000000000000e+00 0.000000000000000e+00
0.000000000000000e+00 0.000000000000000e+00 0.000000000000000e+00
0.000000000000000e+00 0.000000000000000e+00 0.000000000000000e+00

0.000000000000000e+00 0.000000000000000e+00 0.000000000000000e+00
0.000000000000000e+00 0.000000000000000e+00 0.000000000000000e+00
0.000000000000000e+00 0.000000000000000e+00 0.000000000000000e+00

0.000000000000000e+00 0.000000000000000e+00 0.000000000000000e+00
0.000000000000000e+00 0.000000000000000e+00 0.000000000000000e+00
0.000000000000000e+00 0.000000000000000e+00 0.000000000000000e+00

0.000000000000000e+00 0.000000000000000e+00 0.000000000000000e+00
0.000000000000000e+00 0.000000000000000e+00 0.000000000000000e+00
0.000000000000000e+00 0.000000000000000e+00 0.000000000000000e+00

0.000000000000000e+00 0.000000000000000e+00 0.000000000000000e+00
0.000000000000000e+00 0.000000000000000e+00 0.000000000000000e+00
0.000000000000000e+00 0.000000000000000e+00 0.000000000000000e+00

0.000000000000000e+00 0.000000000000000e+00 0.000000000000000e+00
0.000000000000000e+00 0.000000000000000e+00 0.000000000000000e+00
0.000000000000000e+00 0.000000000000000e+00 0.000000000000000e+00

0.000000000000000e+00 0.000000000000000e+00 0.000000000000000e+00
0.000000000000000e+00 0.000000000000000e+00 0.000000000000000e+00
0.000000000000000e+00 0.000000000000000e+00 0.000000000000000e+00

0.000000000000000e+00 0.000000000000000e+00 0.000000000000000e+00
0.000000000000000e+00 0.000000000000000e+00 0.000000000000000e+00
0.000000000000000e+00 0.000000000000000e+00 0.000000000000000e+00

0.000000000000000e+00 0.000000000000000e+00 0.000000000000000e+00
0.000000000000000e+00 0.000000000000000e+00 0.000000000000000e+00
0.000000000000000e+00 0.000000000000000e+00 0.000000000000000e+00

0.000000000000000e+00 0.000000000000000e+00 0.000000000000000e+00
0.000000000000000e+00 0.000000000000000e+00 0.000000000000000e+00
0.000000000000000e+00 0.000000000000000e+00 0.000000000000000e+00

0.000000000000000e+00 0.000000000000000e+00 0.000000000000000e+00
0.000000000000000e+00 0.000000000000000e+00 0.000000000000000e+00
0.000000000000000e+00 0.000000000000000e+00 0.000000000000000e+00

0.000000000000000e+00 0.000000000000000e+00 0.000000000000000e+00
0.000000000000000e+00 0.000000000000000e+00 0.000000000000000e+00
0.000000000000000e+00 0.000000000000000e+00 0.000000000000000e+00

0.000000000000000e+00 0.000000000000000e+00 0.000000000000000e+00
0.000000000000000e+00 0.000000000000000e+00 0.000000000000000e+00
0.000000000000000e+00 0.000000000000000e+00 0.000000000000000e+00

0.000000000000000e+00 0.000000000000000e+00 0.000000000000000e+00
0.000000000000000e+00 0.000000000000000e+00 0.000000000000000e+00
0.000000000000000e+00 0.000000000000000e+00 0.000000000000000e+00

0.000000000000000e+00 0.000000000000000e+00 0.000000000000000e+00
0.000000000000000e+00 0.000000000000000e+00 0.000000000000000e+00
0.000000000000000e+00 0.000000000000000e+00 0.000000000000000e+00

0.000000000000000e+00 0.000000000000000e+00 0.000000000000000e+00
0.000000000000000e+00 0.000000000000000e+00 0.000000000000000e+00
0.000000000000000e+00 0.000000000000000e+00 0.000000000000000e+00

0.000000000000000e+00 0.000000000000000e+00 0.000000000000000e+00
0.000000000000000e+00 0.000000000000000e+00 0.000000000000000e+00
0.000000000000000e+00 0.000000000000000e+00 0.000000000000000e+00

0.000000000000000e+00 0.000000000000000e+00 0.000000000000000e+00
0.000000000000000e+00 0.000000000000000e+00 0.000000000000000e+00
0.000000000000000e+00 0.000000000000000e+00 0.000000000000000e+00

0.000000000000000e+00 0.000000000000000e+00 0.000000000000000e+00
0.000000000000000e+00 0.000000000000000e+00 0.000000000000000e+00
0.000000000000000e+00 0.000000000000000e+00 0.000000000000000e+00

0.000000000000000e+00 0.000000000000000e+00 0.000000000000000e+00
0.000000000000000e+00 0.000000000000000e+00 0.000000000000000e+00
0.000000000000000e+00 0.000000000000000e+00 0.000000000000000e+00

0.000000000000000e+00 0.000000000000000e+00 0.000000000000000e+00
0.000000000000000e+00 0.000000000000000e+00 0.000000000000000e+00
0.000000000000000e+00 0.000000000000000e+00 0.000000000000000e+00

0.000000000000000e+00 0.000000000000000e+00 0.000000000000000e+00
0.000000000000000e+00 0.000000000000000e+00 0.000000000000000e+00
0.000000000000000e+00 0.000000000000000e+00 0.000000000000000e+00

0.000000000000000e+00 0.000000000000000e+00 0.000000000000000e+00
0.000000000000000e+00 0.000000000000000e+00 0.000000000000000e+00
0.000000000000000e+00 0.000000000000000e+00 0.000000000000000e+00

0.000000000000000e+00 0.000000000000000e+00 0.000000000000000e+00
0.000000000000000e+00 0.000000000000000e+00 0.000000000000000e+00
0.000000000000000e+00 0.000000000000000e+00 0.000000000000000e+00

0.000000000000000e+00 0.000000000000000e+00 0.000000000000000e+00
0.000000000000000e+00 0.000000000000000e+00 0.000000000000000e+00
0.000000000000000e+00 0.000000000000000e+00 0.000000000000000e+00

0.000000000000000e+00 0.000000000000000e+00 0.000000000000000e+00
0.000000000000000e+00 0.000000000000000e+00 0.000000000000000e+00
0.000000000000000e+00 0.000000000000000e+00 0.000000000000000e+00

0.000000000000000e+00 0.000000000000000e+00 0.000000000000000e+00
0.000000000000000e+00 0.000000000000000e+00 0.000000000000000e+00
0.000000000000000e+00 0.000000000000000e+00 0.000000000000000e+00

0.000000000000000e+00 0.000000000000000e+00 0.000000000000000e+00
0.000000000000000e+00 0.000000000000000e+00 0.000000000000000e+00
0.000000000000000e+00 0.000000000000000e+00 0.000000000000000e+00

0.000000000000000e+00 0.000000000000000e+00 0.000000000000000e+00
0.000000000000000e+00 0.000000000000000e+00 0.000000000000000e+00
0.000000000000000e+00 0.000000000000000e+00 0.000000000000000e+00

0.000000000000000e+00 0.000000000000000e+00 0.000000000000000e+00
0.000000000000000e+00 0.000000000000000e+00 0.000000000000000e+00
0.000000000000000e+00 0.000000000000000e+00 0.000000000000000e+00

0.000000000000000e+00 0.000000000000000e+00 0.000000000000000e+00
0.000000000000000e+00 0.000000000000000e+00 0.000000000000000e+00
0.000000000000000e+00 0.000000000000000e+00 0.000000000000000e+00

0.000000000000000e+00 0.000000000000000e+00 0.000000000000000e+00
0.000000000000000e+00 0.000000000000000e+00 0.000000000000000e+00
0.000000000000000e+00 0.000000000000000e+00 0.000000000000000e+00

0.000000000000000e+00 0.000000000000000e+00 0.000000000000000e+00
0.000000000000000e+00 0.000000000000000e+00 0.000000000000000e+00
0.000000000000000e+00 0.000000000000000e+00 0.000000000000000e+00

0.000000000000000e+00 0.000000000000000e+00 0.000000000000000e+00
0.000000000000000e+00 0.000000000000000e+00 0.000000000000000e+00
0.000000000000000e+00 0.000000000000000e+00 0.000000000000000e+00

0.000000000000000e+00 0.000000000000000e+00 0.000000000000000e+00
0.000000000000000e+00 0.000000000000000e+00 0.000000000000000e+00
0.000000000000000e+00 0.000000000000000e+00 0.000000000000000e+00

0.000000000000000e+00 0.000000000000000e+00 0.000000000000000e+00
0.000000000000000e+00 0.000000000000000e+00 0.000000000000000e+00
0.000000000000000e+00 0.000000000000000e+00 0.000000000000000e+00

0.000000000000000e+00 0.000000000000000e+00 0.000000000000000e+00
0.000000000000000e+00 0.000000000000000e+00 0.000000000000000e+00
0.000000000000000e+00 0.000000000000000e+00 0.000000000000000e+00

0.000000000000000e+00 0.000000000000000e+00 0.000000000000000e+00
0.000000000000000e+00 0.000000000000000e+00 0.000000000000000e+00
0.000000000000000e+00 0.000000000000000e+00 0.000000000000000e+00

0.000000000000000e+00 0.000000000000000e+00 0.000000000000000e+00
0.000000000000000e+00 0.000000000000000e+00 0.000000000000000e+00
0.000000000000000e+00 0.000000000000000e+00 0.000000000000000e+00

0.000000000000000e+00 0.000000000000000e+00 0.000000000000000e+00
0.000000000000000e+00 0.000000000000000e+00 0.000000000000000e+00
0.000000000000000e+00 0.000000000000000e+00 0.000000000000000e+00

0.000000000000000e+00 0.000000000000000e+00 0.000000000000000e+00
0.000000000000000e+00 0.000000000000000e+00 0.000000000000000e+00
0.000000000000000e+00 0.000000000000000e+00 0.000000000000000e+00

0.000000000000000e+00 0.000000000000000e+00 0.000000000000000e+00
0.000000000000000e+00 0.000000000000000e+00 0.000000000000000e+00
0.000000000000000e+00 0.000000000000000e+00 0.000000000000000e+00

0.000000000000000e+00 0.000000000000000e+00 0.000000000000000e+00
0.000000000000000e+00 0.000000000000000e+00 0.000000000000000e+00
0.000000000000000e+00 0.000000000000000e+00 0.000000000000000e+00

0.000000000000000e+00 0.000000000000000e+00 0.000000000000000e+00
0.000000000000000e+00 0.000000000000000e+00 0.000000000000000e+00
0.000000000000000e+00 0.000000000000000e+00 0.000000000000000e+00

0.000000000000000e+00 0.000000000000000e+00 0.000000000000000e+00
0.000000000000000e+00 0.000000000000000e+00 0.000000000000000e+00
0.000000000000000e+00 0.000000000000000e+00 0.000000000000000e+00

0.000000000000000e+00 0.000000000000000e+00 0.000000000000000e+00
0.000000000000000e+00 0.000000000000000e+00 0.000000000000000e+00
0.000000000000000e+00 0.000000000000000e+00 0.000000000000000e+00

0.000000000000000e+00 0.000000000000000e+00 0.000000000000000e+00
0.000000000000000e+00 0.000000000000000e+00 0.000000000000000e+00
0.000000000000000e+00 0.000000000000000e+00 0.000000000000000e+00

0.000000000000000e+00 0.000000000000000e+00 0.000000000000000e+00
0.000000000000000e+00 0.000000000000000e+00 0.000000000000000e+00
0.000000000000000e+00 0.000000000000000e+00 0.000000000000000e+00

0.000000000000000e+00 0.000000000000000e+00 0.000000000000000e+00
0.000000000000000e+00 0.000000000000000e+00 0.000000000000000e+00
0.000000000000000e+00 0.000000000000000e+00 0.000000000000000e+00

0.000000000000000e+00 0.000000000000000e+00 0.000000000000000e+00
0.000000000000000e+00 0.000000000000000e+00 0.000000000000000e+00
0.000000000000000e+00 0.000000000000000e+00 0.000000000000000e+00

0.000000000000000e+00 0.000000000000000e+00 0.000000000000000e+00
0.000000000000000e+00 0.000000000000000e+00 0.000000000000000e+00
0.000000000000000e+00 0.000000000000000e+00 0.000000000000000e+00

0.000000000000000e+00 0.000000000000000e+00 0.000000000000000e+00
0.000000000000000e+00 0.000000000000000e+00 0.000000000000000e+00
0.000000000000000e+00 0.000000000000000e+00 0.000000000000000e+00

0.000000000000000e+00 0.000000000000000e+00 0.000000000000000e+00
0.000000000000000e+00 0.000000000000000e+00 0.000000000000000e+00
0.000000000000000e+00 0.000000000000000e+00 0.000000000000000e+00

0.000000000000000e+00 0.000000000000000e+00 0.000000000000000e+00
0.000000000000000e+00 0.000000000000000e+00 0.000000000000000e+00
0.000000000000000e+00 0.000000000000000e+00 0.000000000000000e+00

0.000000000000000e+00 0.000000000000000e+00 0.000000000000000e+00
0.000000000000000e+00 0.000000000000000e+00 0.000000000000000e+00
0.000000000000000e+00 0.000000000000000e+00 0.000000000000000e+00

0.000000000000000e+00 0.000000000000000e+00 0.000000000000000e+00
0.000000000000000e+00 0.000000000000000e+00 0.000000000000000e+00
0.000000000000000e+00 0.000000000000000e+00 0.000000000000000e+00

0.000000000000000e+00 0.000000000000000e+00 0.000000000000000e+00
0.000000000000000e+00 0.000000000000000e+00 0.000000000000000e+00
0.000000000000000e+00 0.000000000000000e+00 0.000000000000000e+00

0.000000000000000e+00 0.000000000000000e+00 0.000000000000000e+00
0.000000000000000e+00 0.000000000000000e+00 0.000000000000000e+00
0.000000000000000e+00 0.000000000000000e+00 0.000000000000000e+00

0.000000000000000e+00 0.000000000000000e+00 0.000000000000000e+00
0.000000000000000e+00 0.000000000000000e+00 0.000000000000000e+00
0.000000000000000e+00 0.000000000000000e+00 0.000000000000000e+00

0.000000000000000e+00 0.000000000000000e+00 0.000000000000000e+00
0.000000000000000e+00 0.000000000000000e+00 0.000000000000000e+00
0.000000000000000e+00 0.000000000000000e+00 0.000000000000000e+00

0.000000000000000e+00 0.000000000000000e+00 0.000000000000000e+00
0.000000000000000e+00 0.000000000000000e+00 0.000000000000000e+00
0.000000000000000e+00 0.000000000000000e+00 0.000000000000000e+00

0.000000000000000e+00 0.000000000000000e+00 0.000000000000000e+00
0.000000000000000e+00 0.000000000000000e+00 0.000000000000000e+00
0.000000000000000e+00 0.000000000000000e+00 0.000000000000000e+00

0.000000000000000e+00 0.000000000000000e+00 0.000000000000000e+00
0.000000000000000e+00 0.000000000000000e+00 0.000000000000000e+00
0.000000000000000e+00 0.000000000000000e+00 0.000000000000000e+00

0.000000000000000e+00 0.000000000000000e+00 0.000000000000000e+00
0.000000000000000e+00 0.000000000000000e+00 0.000000000000000e+00
0.000000000000000e+00 0.000000000000000e+00 0.000000000000000e+00

0.000000000000000e+00 0.000000000000000e+00 0.000000000000000e+00
0.000000000000000e+00 0.000000000000000e+00 0.000000000000000e+00
0.000000000000000e+00 0.000000000000000e+00 0.000000000000000e+00

0.000000000000000e+00 0.000000000000000e+00 0.000000000000000e+00
0.000000000000000e+00 0.000000000000000e+00 0.000000000000000e+00
0.000000000000000e+00 0.000000000000000e+00 0.000000000000000e+00

0.000000000000000e+00 0.000000000000000e+00 0.000000000000000e+00
0.000000000000000e+00 0.000000000000000e+00 0.000000000000000e+00
0.000000000000000e+00 0.000000000000000e+00 0.000000000000000e+00

0.000000000000000e+00 0.000000000000000e+00 0.000000000000000e+00
0.000000000000000e+00 0.000000000000000e+00 0.000000000000000e+00
0.000000000000000e+00 0.000000000000000e+00 0.000000000000000e+00

0.000000000000000e+00 0.000000000000000e+00 0.000000000000000e+00
0.000000000000000e+00 0.000000000000000e+00 0.000000000000000e+00
0.000000000000000e+00 0.000000000000000e+00 0.000000000000000e+00

0.000000000000000e+00 0.000000000000000e+00 0.000000000000000e+00
0.000000000000000e+00 0.000000000000000e+00 0.000000000000000e+00
0.000000000000000e+00 0.000000000000000e+00 0.000000000000000e+00

0.000000000000000e+00 0.000000000000000e+00 0.000000000000000e+00
0.000000000000000e+00 0.000000000000000e+00 0.000000000000000e+00
0.000000000000000e+00 0.000000000000000e+00 0.000000000000000e+00

0.000000000000000e+00 0.000000000000000e+00 0.000000000000000e+00
0.000000000000000e+00 0.000000000000000e+00 0.000000000000000e+00
0.000000000000000e+00 0.000000000000000e+00 0.000000000000000e+00

0.000000000000000e+00 0.000000000000000e+00 0.000000000000000e+00
0.000000000000000e+00 0.000000000000000e+00 0.000000000000000e+00
0.000000000000000e+00 0.000000000000000e+00 0.000000000000000e+00

0.000000000000000e+00 0.000000000000000e+00 0.000000000000000e+00
0.000000000000000e+00 0.000000000000000e+00 0.000000000000000e+00
0.000000000000000e+00 0.000000000000000e+00 0.000000000000000e+00

0.000000000000000e+00 0.000000000000000e+00 0.000000000000000e+00
0.000000000000000e+00 0.000000000000000e+00 0.000000000000000e+00
0.000000000000000e+00 0.000000000000000e+00 0.000000000000000e+00

0.000000000000000e+00 0.000000000000000e+00 0.000000000000000e+00
0.000000000000000e+00 0.000000000000000e+00 0.000000000000000e+00
0.000000000000000e+00 0.000000000000000e+00 0.000000000000000e+00

0.000000000000000e+00 0.000000000000000e+00 0.000000000000000e+00
0.000000000000000e+00 0.000000000000000e+00 0.000000000000000e+00
0.000000000000000e+00 0.000000000000000e+00 0.000000000000000e+00

0.000000000000000e+00 0.000000000000000e+00 0.000000000000000e+00
0.000000000000000e+00 0.000000000000000e+00 0.000000000000000e+00
0.000000000000000e+00 0.000000000000000e+00 0.000000000000000e+00

0.000000000000000e+00 0.000000000000000e+00 0.000000000000000e+00
0.000000000000000e+00 0.000000000000000e+00 0.000000000000000e+00
0.000000000000000e+00 0.000000000000000e+00 0.000000000000000e+00

0.000000000000000e+00 0.000000000000000e+00 0.000000000000000e+00
0.000000000000000e+00 0.000000000000000e+00 0.000000000000000e+00
0.000000000000000e+00 0.000000000000000e+00 0.000000000000000e+00

0.000000000000000e+00 0.000000000000000e+00 0.000000000000000e+00
0.000000000000000e+00 0.000000000000000e+00 0.000000000000000e+00
0.000000000000000e+00 0.000000000000000e+00 0.000000000000000e+00

0.000000000000000e+00 0.000000000000000e+00 0.000000000000000e+00
0.000000000000000e+00 0.000000000000000e+00 0.000000000000000e+00
0.000000000000000e+00 0.000000000000000e+00 0.000000000000000e+00

0.000000000000000e+00 0.000000000000000e+00 0.000000000000000e+00
0.000000000000000e+00 0.000000000000000e+00 0.000000000000000e+00
0.000000000000000e+00 0.000000000000000e+00 0.000000000000000e+00

0.000000000000000e+00 0.000000000000000e+00 0.000000000000000e+00
0.000000000000000e+00 0.000000000000000e+00 0.000000000000000e+00
0.000000000000000e+00 0.000000000000000e+00 0.000000000000000e+00

0.000000000000000e+00 0.000000000000000e+00 0.000000000000000e+00
0.000000000000000e+00 0.000000000000000e+00 0.000000000000000e+00
0.000000000000000e+00 0.000000000000000e+00 0.000000000000000e+00

0.000000000000000e+00 0.000000000000000e+00 0.000000000000000e+00
0.000000000000000e+00 0.000000000000000e+00 0.000000000000000e+00
0.000000000000000e+00 0.000000000000000e+00 0.000000000000000e+00

0.000000000000000e+00 0.000000000000000e+00 0.000000000000000e+00
0.000000000000000e+00 0.000000000000000e+00 0.000000000000000e+00
0.000000000000000e+00 0.000000000000000e+00 0.000000000000000e+00

0.000000000000000e+00 0.000000000000000e+00 0.000000000000000e+00
0.000000000000000e+00 0.000000000000000e+00 0.000000000000000e+00
0.000000000000000e+00 0.000000000000000e+00 0.000000000000000e+00

0.000000000000000e+00 0.000000000000000e+00 0.000000000000000e+00
0.000000000000000e+00 0.000000000000000e+00 0.000000000000000e+00
0.000000000000000e+00 0.000000000000000e+00 0.000000000000000e+00

0.000000000000000e+00 0.000000000000000e+00 0.000000000000000e+00
0.000000000000000e+00 0.000000000000000e+00 0.000000000000000e+00
0.000000000000000e+00 0.000000000000000e+00 0.000000000000000e+00

0.000000000000000e+00 0.000000000000000e+00 0.000000000000000e+00
0.000000000000000e+00 0.000000000000000e+00 0.000000000000000e+00
0.000000000000000e+00 0.000000000000000e+00 0.000000000000000e+00

0.000000000000000e+00 0.000000000000000e+00 0.000000000000000e+00
0.000000000000000e+00 0.000000000000000e+00 0.000000000000000e+00
0.000000000000000e+00 0.000000000000000e+00 0.000000000000000e+00

0.000000000000000e+00 0.000000000000000e+00 0.000000000000000e+00
0.000000000000000e+00 0.000000000000000e+00 0.000000000000000e+00
0.000000000000000e+00 0.000000000000000e+00 0.000000000000000e+00

0.000000000000000e+00 0.000000000000000e+00 0.000000000000000e+00
0.000000000000000e+00 0.000000000000000e+00 0.000000000000000e+00
0.000000000000000e+00 0.000000000000000e+00 0.000000000000000e+00

0.000000000000000e+00 0.000000000000000e+00 0.000000000000000e+00
0.000000000000000e+00 0.000000000000000e+00 0.000000000000000e+00
0.000000000000000e+00 0.000000000000000e+00 0.000000000000000e+00

0.000000000000000e+00 0.000000000000000e+00 0.000000000000000e+00
0.000000000000000e+00 0.000000000000000e+00 0.000000000000000e+00
0.000000000000000e+00 0.000000000000000e+00 0.000000000000000e+00

0.000000000000000e+00 0.000000000000000e+00 0.000000000000000e+00
0.000000000000000e+00 0.000000000000000e+00 0.000000000000000e+00
0.000000000000000e+00 0.000000000000000e+00 0.000000000000000e+00

0.000000000000000e+00 0.000000000000000e+00 0.000000000000000e+00
0.000000000000000e+00 0.000000000000000e+00 0.000000000000000e+00
0.000000000000000e+00 0.000000000000000e+00 0.000000000000000e+00

0.000000000000000e+00 0.000000000000000e+00 0.000000000000000e+00
0.000000000000000e+00 0.000000000000000e+00 0.000000000000000e+00
0.000000000000000e+00 0.000000000000000e+00 0.000000000000000e+00

0.000000000000000e+00 0.000000000000000e+00 0.000000000000000e+00
0.000000000000000e+00 0.000000000000000e+00 0.000000000000000e+00
0.000000000000000e+00 0.000000000000000e+00 0.000000000000000e+00

0.000000000000000e+00 0.000000000000000e+00 0.000000000000000e+00
0.000000000000000e+00 0.000000000000000e+00 0.000000000000000e+00
0.000000000000000e+00 0.000000000000000e+00 0.000000000000000e+00

0.000000000000000e+00 0.000000000000000e+00 0.000000000000000e+00
0.000000000000000e+00 0.000000000000000e+00 0.000000000000000e+00
0.000000000000000e+00 0.000000000000000e+00 0.000000000000000e+00

0.000000000000000e+00 0.000000000000000e+00 0.000000000000000e+00
0.000000000000000e+00 0.000000000000000e+00 0.000000000000000e+00
0.000000000000000e+00 0.000000000000000e+00 0.000000000000000e+00

0.000000000000000e+00 0.000000000000000e+00 0.000000000000000e+00
0.000000000000000e+00 0.000000000000000e+00 0.000000000000000e+00
0.000000000000000e+00 0.000000000000000e+00 0.000000000000000e+00

0.000000000000000e+00 0.000000000000000e+00 0.000000000000000e+00
0.000000000000000e+00 0.000000000000000e+00 0.000000000000000e+00
0.000000000000000e+00 0.000000000000000e+00 0.000000000000000e+00

0.000000000000000e+00 0.000000000000000e+00 0.000000000000000e+00
0.000000000000000e+00 0.000000000000000e+00 0.000000000000000e+00
0.000000000000000e+00 0.000000000000000e+00 0.000000000000000e+00

0.000000000000000e+00 0.000000000000000e+00 0.000000000000000e+00
0.000000000000000e+00 0.000000000000000e+00 0.000000000000000e+00
0.000000000000000e+00 0.000000000000000e+00 0.000000000000000e+00

0.000000000000000e+00 0.000000000000000e+00 0.000000000000000e+00
0.000000000000000e+00 0.000000000000000e+00 0.000000000000000e+00
0.000000000000000e+00 0.000000000000000e+00 0.000000000000000e+00

0.000000000000000e+00 0.000000000000000e+00 0.000000000000000e+00
0.000000000000000e+00 0.000000000000000e+00 0.000000000000000e+00
0.000000000000000e+00 0.000000000000000e+00 0.000000000000000e+00

0.000000000000000e+00 0.000000000000000e+00 0.000000000000000e+00
0.000000000000000e+00 0.000000000000000e+00 0.000000000000000e+00
0.000000000000000e+00 0.000000000000000e+00 0.000000000000000e+00

0.000000000000000e+00 0.000000000000000e+00 0.000000000000000e+00
0.000000000000000e+00 0.000000000000000e+00 0.000000000000000e+00
0.000000000000000e+00 0.000000000000000e+00 0.000000000000000e+00

0.000000000000000e+00 0.000000000000000e+00 0.000000000000000e+00
0.000000000000000e+00 0.000000000000000e+00 0.000000000000000e+00
0.000000000000000e+00 0.000000000000000e+00 0.000000000000000e+00

0.000000000000000e+00 0.000000000000000e+00 0.000000000000000e+00
0.000000000000000e+00 0.000000000000000e+00 0.000000000000000e+00
0.000000000000000e+00 0.000000000000000e+00 0.000000000000000e+00

0.000000000000000e+00 0.000000000000000e+00 0.000000000000000e+00
0.000000000000000e+00 0.000000000000000e+00 0.000000000000000e+00
0.000000000000000e+00 0.000000000000000e+00 0.000000000000000e+00

0.000000000000000e+00 0.000000000000000e+00 0.000000000000000e+00
0.000000000000000e+00 0.000000000000000e+00 0.000000000000000e+00
0.000000000000000e+00 0.000000000000000e+00 0.000000000000000e+00

0.000000000000000e+00 0.000000000000000e+00 0.000000000000000e+00
0.000000000000000e+00 0.000000000000000e+00 0.000000000000000e+00
0.000000000000000e+00 0.000000000000000e+00 0.000000000000000e+00

0.000000000000000e+00 0.000000000000000e+00 0.000000000000000e+00
0.000000000000000e+00 0.000000000000000e+00 0.000000000000000e+00
0.000000000000000e+00 0.000000000000000e+00 0.000000000000000e+00

0.000000000000000e+00 0.000000000000000e+00 0.000000000000000e+00
0.000000000000000e+00 0.000000000000000e+00 0.000000000000000e+00
0.000000000000000e+00 0.000000000000000e+00 0.000000000000000e+00

0.000000000000000e+00 0.000000000000000e+00 0.000000000000000e+00
0.000000000000000e+00 0.000000000000000e+00 0.000000000000000e+00
0.000000000000000e+00 0.000000000000000e+00 0.000000000000000e+00

0.000000000000000e+00 0.000000000000000e+00 0.000000000000000e+00
0.000000000000000e+00 0.000000000000000e+00 0.000000000000000e+00
0.000000000000000e+00 0.000000000000000e+00 0.000000000000000e+00

0.000000000000000e+00 0.000000000000000e+00 0.000000000000000e+00
0.000000000000000e+00 0.000000000000000e+00 0.000000000000000e+00
0.000000000000000e+00 0.000000000000000e+00 0.000000000000000e+00

0.000000000000000e+00 0.000000000000000e+00 0.000000000000000e+00
0.000000000000000e+00 0.000000000000000e+00 0.000000000000000e+00
0.000000000000000e+00 0.000000000000000e+00 0.000000000000000e+00

0.000000000000000e+00 0.000000000000000e+00 0.000000000000000e+00
0.000000000000000e+00 0.000000000000000e+00 0.000000000000000e+00
0.000000000000000e+00 0.000000000000000e+00 0.000000000000000e+00

0.000000000000000e+00 0.000000000000000e+00 0.000000000000000e+00
0.000000000000000e+00 0.000000000000000e+00 0.000000000000000e+00
0.000000000000000e+00 0.000000000000000e+00 0.000000000000000e+00

0.000000000000000e+00 0.000000000000000e+00 0.000000000000000e+00
0.000000000000000e+00 0.000000000000000e+00 0.000000000000000e+00
0.000000000000000e+00 0.000000000000000e+00 0.000000000000000e+00

0.000000000000000e+00 0.000000000000000e+00 0.000000000000000e+00
0.000000000000000e+00 0.000000000000000e+00 0.000000000000000e+00
0.000000000000000e+00 0.000000000000000e+00 0.000000000000000e+00

0.000000000000000e+00 0.000000000000000e+00 0.000000000000000e+00
0.000000000000000e+00 0.000000000000000e+00 0.000000000000000e+00
0.000000000000000e+00 0.000000000000000e+00 0.000000000000000e+00

0.000000000000000e+00 0.000000000000000e+00 0.000000000000000e+00
0.000000000000000e+00 0.000000000000000e+00 0.000000000000000e+00
0.000000000000000e+00 0.000000000000000e+00 0.000000000000000e+00

0.000000000000000e+00 0.000000000000000e+00 0.000000000000000e+00
0.000000000000000e+00 0.000000000000000e+00 0.000000000000000e+00
0.000000000000000e+00 0.000000000000000e+00 0.000000000000000e+00

0.000000000000000e+00 0.000000000000000e+00 0.000000000000000e+00
0.000000000000000e+00 0.000000000000000e+00 0.000000000000000e+00
0.000000000000000e+00 0.000000000000000e+00 0.000000000000000e+00

0.000000000000000e+00 0.000000000000000e+00 0.000000000000000e+00
0.000000000000000e+00 0.000000000000000e+00 0.000000000000000e+00
0.000000000000000e+00 0.000000000000000e+00 0.000000000000000e+00

0.000000000000000e+00 0.000000000000000e+00 0.000000000000000e+00
0.000000000000000e+00 0.000000000000000e+00 0.000000000000000e+00
0.000000000000000e+00 0.000000000000000e+00 0.000000000000000e+00

0.000000000000000e+00 0.000000000000000e+00 0.000000000000000e+00
0.000000000000000e+00 0.000000000000000e+00 0.000000000000000e+00
0.000000000000000e+00 0.000000000000000e+00 0.000000000000000e+00

0.000000000000000e+00 0.000000000000000e+00 0.000000000000000e+00
0.000000000000000e+00 0.000000000000000e+00 0.000000000000000e+00
0.000000000000000e+00 0.000000000000000e+00 0.000000000000000e+00

0.000000000000000e+00 0.000000000000000e+00 0.000000000000000e+00
0.000000000000000e+00 0.000000000000000e+00 0.000000000000000e+00
0.000000000000000e+00 0.000000000000000e+00 0.000000000000000e+00

0.000000000000000e+00 0.000000000000000e+00 0.000000000000000e+00
0.000000000000000e+00 0.000000000000000e+00 0.000000000000000e+00
0.000000000000000e+00 0.000000000000000e+00 0.000000000000000e+00

0.000000000000000e+00 0.000000000000000e+00 0.000000000000000e+00
0.000000000000000e+00 0.000000000000000e+00 0.000000000000000e+00
0.000000000000000e+00 0.000000000000000e+00 0.000000000000000e+00

0.000000000000000e+00 0.000000000000000e+00 0.000000000000000e+00
0.000000000000000e+00 0.000000000000000e+00 0.000000000000000e+00
0.000000000000000e+00 0.000000000000000e+00 0.000000000000000e+00

0.000000000000000e+00 0.000000000000000e+00 0.000000000000000e+00
0.000000000000000e+00 0.000000000000000e+00 0.000000000000000e+00
0.000000000000000e+00 0.000000000000000e+00 0.000000000000000e+00

0.000000000000000e+00 0.000000000000000e+00 0.000000000000000e+00
0.000000000000000e+00 0.000000000000000e+00 0.000000000000000e+00
0.000000000000000e+00 0.000000000000000e+00 0.000000000000000e+00

0.000000000000000e+00 0.000000000000000e+00 0.000000000000000e+00
0.000000000000000e+00 0.000000000000000e+00 0.000000000000000e+00
0.000000000000000e+00 0.000000000000000e+00 0.000000000000000e+00

0.000000000000000e+00 0.000000000000000e+00 0.000000000000000e+00
0.000000000000000e+00 0.000000000000000e+00 0.000000000000000e+00
0.000000000000000e+00 0.000000000000000e+00 0.000000000000000e+00

0.000000000000000e+00 0.000000000000000e+00 0.000000000000000e+00
0.000000000000000e+00 0.000000000000000e+00 0.000000000000000e+00
0.000000000000000e+00 0.000000000000000e+00 0.000000000000000e+00

0.000000000000000e+00 0.000000000000000e+00 0.000000000000000e+00
0.000000000000000e+00 0.000000000000000e+00 0.000000000000000e+00
0.000000000000000e+00 0.000000000000000e+00 0.000000000000000e+00

0.000000000000000e+00 0.000000000000000e+00 0.000000000000000e+00
0.000000000000000e+00 0.000000000000000e+00 0.000000000000000e+00
0.000000000000000e+00 0.000000000000000e+00 0.000000000000000e+00

0.000000000000000e+00 0.000000000000000e+00 0.000000000000000e+00
0.000000000000000e+00 0.000000000000000e+00 0.000000000000000e+00
0.000000000000000e+00 0.000000000000000e+00 0.000000000000000e+00

0.000000000000000e+00 0.000000000000000e+00 0.000000000000000e+00
0.000000000000000e+00 0.000000000000000e+00 0.000000000000000e+00
0.000000000000000e+00 0.000000000000000e+00 0.000000000000000e+00

0.000000000000000e+00 0.000000000000000e+00 0.000000000000000e+00
0.000000000000000e+00 0.000000000000000e+00 0.000000000000000e+00
0.000000000000000e+00 0.000000000000000e+00 0.000000000000000e+00

0.000000000000000e+00 0.000000000000000e+00 0.000000000000000e+00
0.000000000000000e+00 0.000000000000000e+00 0.000000000000000e+00
0.000000000000000e+00 0.000000000000000e+00 0.000000000000000e+00

0.000000000000000e+00 0.000000000000000e+00 0.000000000000000e+00
0.000000000000000e+00 0.000000000000000e+00 0.000000000000000e+00
0.000000000000000e+00 0.000000000000000e+00 0.000000000000000e+00

0.000000000000000e+00 0.000000000000000e+00 0.000000000000000e+00
0.000000000000000e+00 0.000000000000000e+00 0.000000000000000e+00
0.000000000000000e+00 0.000000000000000e+00 0.000000000000000e+00

0.000000000000000e+00 0.000000000000000e+00 0.000000000000000e+00
0.000000000000000e+00 0.000000000000000e+00 0.000000000000000e+00
0.000000000000000e+00 0.000000000000000e+00 0.000000000000000e+00

0.000000000000000e+00 0.000000000000000e+00 0.000000000000000e+00
0.000000000000000e+00 0.000000000000000e+00 0.000000000000000e+00
0.000000000000000e+00 0.000000000000000e+00 0.000000000000000e+00

0.000000000000000e+00 0.000000000000000e+00 0.000000000000000e+00
0.000000000000000e+00 0.000000000000000e+00 0.000000000000000e+00
0.000000000000000e+00 0.000000000000000e+00 0.000000000000000e+00

0.000000000000000e+00 0.000000000000000e+00 0.000000000000000e+00
0.000000000000000e+00 0.000000000000000e+00 0.000000000000000e+00
0.000000000000000e+00 0.000000000000000e+00 0.000000000000000e+00

0.000000000000000e+00 0.000000000000000e+00 0.000000000000000e+00
0.000000000000000e+00 0.000000000000000e+00 0.000000000000000e+00
0.000000000000000e+00 0.000000000000000e+00 0.000000000000000e+00

0.000000000000000e+00 0.000000000000000e+00 0.000000000000000e+00
0.000000000000000e+00 0.000000000000000e+00 0.000000000000000e+00
0.000000000000000e+00 0.000000000000000e+00 0.000000000000000e+00

0.000000000000000e+00 0.000000000000000e+00 0.000000000000000e+00
0.000000000000000e+00 0.000000000000000e+00 0.000000000000000e+00
0.000000000000000e+00 0.000000000000000e+00 0.000000000000000e+00

0.000000000000000e+00 0.000000000000000e+00 0.000000000000000e+00
0.000000000000000e+00 0.000000000000000e+00 0.000000000000000e+00
0.000000000000000e+00 0.000000000000000e+00 0.000000000000000e+00

0.000000000000000e+00 0.000000000000000e+00 0.000000000000000e+00
0.000000000000000e+00 0.000000000000000e+00 0.000000000000000e+00
0.000000000000000e+00 0.000000000000000e+00 0.000000000000000e+00

0.000000000000000e+00 0.000000000000000e+00 0.000000000000000e+00
0.000000000000000e+00 0.000000000000000e+00 0.000000000000000e+00
0.000000000000000e+00 0.000000000000000e+00 0.000000000000000e+00

0.000000000000000e+00 0.000000000000000e+00 0.000000000000000e+00
0.000000000000000e+00 0.000000000000000e+00 0.000000000000000e+00
0.000000000000000e+00 0.000000000000000e+00 0.000000000000000e+00

0.000000000000000e+00 0.000000000000000e+00 0.000000000000000e+00
0.000000000000000e+00 0.000000000000000e+00 0.000000000000000e+00
0.000000000000000e+00 0.000000000000000e+00 0.000000000000000e+00

0.000000000000000e+00 0.000000000000000e+00 0.000000000000000e+00
0.000000000000000e+00 0.000000000000000e+00 0.000000000000000e+00
0.000000000000000e+00 0.000000000000000e+00 0.000000000000000e+00

0.000000000000000e+00 0.000000000000000e+00 0.000000000000000e+00
0.000000000000000e+00 0.000000000000000e+00 0.000000000000000e+00
0.000000000000000e+00 0.000000000000000e+00 0.000000000000000e+00

0.000000000000000e+00 0.000000000000000e+00 0.000000000000000e+00
0.000000000000000e+00 0.000000000000000e+00 0.000000000000000e+00
0.000000000000000e+00 0.000000000000000e+00 0.000000000000000e+00

0.000000000000000e+00 0.000000000000000e+00 0.000000000000000e+00
0.000000000000000e+00 0.000000000000000e+00 0.000000000000000e+00
0.000000000000000e+00 0.000000000000000e+00 0.000000000000000e+00

0.000000000000000e+00 0.000000000000000e+00 0.000000000000000e+00
0.000000000000000e+00 0.000000000000000e+00 0.000000000000000e+00
0.000000000000000e+00 0.000000000000000e+00 0.000000000000000e+00

0.000000000000000e+00 0.000000000000000e+00 0.000000000000000e+00
0.000000000000000e+00 0.000000000000000e+00 0.000000000000000e+00
0.000000000000000e+00 0.000000000000000e+00 0.000000000000000e+00

0.000000000000000e+00 0.000000000000000e+00 0.000000000000000e+00
0.000000000000000e+00 0.000000000000000e+00 0.000000000000000e+00
0.000000000000000e+00 0.000000000000000e+00 0.000000000000000e+00

0.000000000000000e+00 0.000000000000000e+00 0.000000000000000e+00
0.000000000000000e+00 0.000000000000000e+00 0.000000000000000e+00
0.000000000000000e+00 0.000000000000000e+00 0.000000000000000e+00

0.000000000000000e+00 0.000000000000000e+00 0.000000000000000e+00
0.000000000000000e+00 0.000000000000000e+00 0.000000000000000e+00
0.000000000000000e+00 0.000000000000000e+00 0.000000000000000e+00

0.000000000000000e+00 0.000000000000000e+00 0.000000000000000e+00
0.000000000000000e+00 0.000000000000000e+00 0.000000000000000e+00
0.000000000000000e+00 0.000000000000000e+00 0.000000000000000e+00

0.000000000000000e+00 0.000000000000000e+00 0.000000000000000e+00
0.000000000000000e+00 0.000000000000000e+00 0.000000000000000e+00
0.000000000000000e+00 0.000000000000000e+00 0.000000000000000e+00

0.000000000000000e+00 0.000000000000000e+00 0.000000000000000e+00
0.000000000000000e+00 0.000000000000000e+00 0.000000000000000e+00
0.000000000000000e+00 0.000000000000000e+00 0.000000000000000e+00

0.000000000000000e+00 0.000000000000000e+00 0.000000000000000e+00
0.000000000000000e+00 0.000000000000000e+00 0.000000000000000e+00
0.000000000000000e+00 0.000000000000000e+00 0.000000000000000e+00

0.000000000000000e+00 0.000000000000000e+00 0.000000000000000e+00
0.000000000000000e+00 0.000000000000000e+00 0.000000000000000e+00
0.000000000000000e+00 0.000000000000000e+00 0.000000000000000e+00

0.000000000000000e+00 0.000000000000000e+00 0.000000000000000e+00
0.000000000000000e+00 0.000000000000000e+00 0.000000000000000e+00
0.000000000000000e+00 0.000000000000000e+00 0.000000000000000e+00

0.000000000000000e+00 0.000000000000000e+00 0.000000000000000e+00
0.000000000000000e+00 0.000000000000000e+00 0.000000000000000e+00
0.000000000000000e+00 0.000000000000000e+00 0.000000000000000e+00

0.000000000000000e+00 0.000000000000000e+00 0.000000000000000e+00
0.000000000000000e+00 0.000000000000000e+00 0.000000000000000e+00
0.000000000000000e+00 0.000000000000000e+00 0.000000000000000e+00

0.000000000000000e+00 0.000000000000000e+00 0.000000000000000e+00
0.000000000000000e+00 0.000000000000000e+00 0.000000000000000e+00
0.000000000000000e+00 0.000000000000000e+00 0.000000000000000e+00

0.000000000000000e+00 0.000000000000000e+00 0.000000000000000e+00
0.000000000000000e+00 0.000000000000000e+00 0.000000000000000e+00
0.000000000000000e+00 0.000000000000000e+00 0.000000000000000e+00

0.000000000000000e+00 0.000000000000000e+00 0.000000000000000e+00
0.000000000000000e+00 0.000000000000000e+00 0.000000000000000e+00
0.000000000000000e+00 0.000000000000000e+00 0.000000000000000e+00

0.000000000000000e+00 0.000000000000000e+00 0.000000000000000e+00
0.000000000000000e+00 0.000000000000000e+00 0.000000000000000e+00
0.000000000000000e+00 0.000000000000000e+00 0.000000000000000e+00

0.000000000000000e+00 0.000000000000000e+00 0.000000000000000e+00
0.000000000000000e+00 0.000000000000000e+00 0.000000000000000e+00
0.000000000000000e+00 0.000000000000000e+00 0.000000000000000e+00

0.000000000000000e+00 0.000000000000000e+00 0.000000000000000e+00
0.000000000000000e+00 0.000000000000000e+00 0.000000000000000e+00
0.000000000000000e+00 0.000000000000000e+00 0.000000000000000e+00

0.000000000000000e+00 0.000000000000000e+00 0.000000000000000e+00
0.000000000000000e+00 0.000000000000000e+00 0.000000000000000e+00
0.000000000000000e+00 0.000000000000000e+00 0.000000000000000e+00

0.000000000000000e+00 0.000000000000000e+00 0.000000000000000e+00
0.000000000000000e+00 0.000000000000000e+00 0.000000000000000e+00
0.000000000000000e+00 0.000000000000000e+00 0.000000000000000e+00

0.000000000000000e+00 0.000000000000000e+00 0.000000000000000e+00
0.000000000000000e+00 0.000000000000000e+00 0.000000000000000e+00
0.000000000000000e+00 0.000000000000000e+00 0.000000000000000e+00

0.000000000000000e+00 0.000000000000000e+00 0.000000000000000e+00
0.000000000000000e+00 0.000000000000000e+00 0.000000000000000e+00
0.000000000000000e+00 0.000000000000000e+00 0.000000000000000e+00

0.000000000000000e+00 0.000000000000000e+00 0.000000000000000e+00
0.000000000000000e+00 0.000000000000000e+00 0.000000000000000e+00
0.000000000000000e+00 0.000000000000000e+00 0.000000000000000e+00

0.000000000000000e+00 0.000000000000000e+00 0.000000000000000e+00
0.000000000000000e+00 0.000000000000000e+00 0.000000000000000e+00
0.000000000000000e+00 0.000000000000000e+00 0.000000000000000e+00

0.000000000000000e+00 0.000000000000000e+00 0.000000000000000e+00
0.000000000000000e+00 0.000000000000000e+00 0.000000000000000e+00
0.000000000000000e+00 0.000000000000000e+00 0.000000000000000e+00

0.000000000000000e+00 0.000000000000000e+00 0.000000000000000e+00
0.000000000000000e+00 0.000000000000000e+00 0.000000000000000e+00
0.000000000000000e+00 0.000000000000000e+00 0.000000000000000e+00

0.000000000000000e+00 0.000000000000000e+00 0.000000000000000e+00
0.000000000000000e+00 0.000000000000000e+00 0.000000000000000e+00
0.000000000000000e+00 0.000000000000000e+00 0.000000000000000e+00

0.000000000000000e+00 0.000000000000000e+00 0.000000000000000e+00
0.000000000000000e+00 0.000000000000000e+00 0.000000000000000e+00
0.000000000000000e+00 0.000000000000000e+00 0.000000000000000e+00

0.000000000000000e+00 0.000000000000000e+00 0.000000000000000e+00
0.000000000000000e+00 0.000000000000000e+00 0.000000000000000e+00
0.000000000000000e+00 0.000000000000000e+00 0.000000000000000e+00

0.000000000000000e+00 0.000000000000000e+00 0.000000000000000e+00
0.000000000000000e+00 0.000000000000000e+00 0.000000000000000e+00
0.000000000000000e+00 0.000000000000000e+00 0.000000000000000e+00

0.000000000000000e+00 0.000000000000000e+00 0.000000000000000e+00
0.000000000000000e+00 0.000000000000000e+00 0.000000000000000e+00
0.000000000000000e+00 0.000000000000000e+00 0.000000000000000e+00

0.000000000000000e+00 0.000000000000000e+00 0.000000000000000e+00
0.000000000000000e+00 0.000000000000000e+00 0.000000000000000e+00
0.000000000000000e+00 0.000000000000000e+00 0.000000000000000e+00

0.000000000000000e+00 0.000000000000000e+00 0.000000000000000e+00
0.000000000000000e+00 0.000000000000000e+00 0.000000000000000e+00
0.000000000000000e+00 0.000000000000000e+00 0.000000000000000e+00

0.000000000000000e+00 0.000000000000000e+00 0.000000000000000e+00
0.000000000000000e+00 0.000000000000000e+00 0.000000000000000e+00
0.000000000000000e+00 0.000000000000000e+00 0.000000000000000e+00

0.000000000000000e+00 0.000000000000000e+00 0.000000000000000e+00
0.000000000000000e+00 0.000000000000000e+00 0.000000000000000e+00
0.000000000000000e+00 0.000000000000000e+00 0.000000000000000e+00

0.000000000000000e+00 0.000000000000000e+00 0.000000000000000e+00
0.000000000000000e+00 0.000000000000000e+00 0.000000000000000e+00
0.000000000000000e+00 0.000000000000000e+00 0.000000000000000e+00

0.000000000000000e+00 0.000000000000000e+00 0.000000000000000e+00
0.000000000000000e+00 0.000000000000000e+00 0.000000000000000e+00
0.000000000000000e+00 0.000000000000000e+00 0.000000000000000e+00

0.000000000000000e+00 0.000000000000000e+00 0.000000000000000e+00
0.000000000000000e+00 0.000000000000000e+00 0.000000000000000e+00
0.000000000000000e+00 0.000000000000000e+00 0.000000000000000e+00

0.000000000000000e+00 0.000000000000000e+00 0.000000000000000e+00
0.000000000000000e+00 0.000000000000000e+00 0.000000000000000e+00
0.000000000000000e+00 0.000000000000000e+00 0.000000000000000e+00

0.000000000000000e+00 0.000000000000000e+00 0.000000000000000e+00
0.000000000000000e+00 0.000000000000000e+00 0.000000000000000e+00
0.000000000000000e+00 0.000000000000000e+00 0.000000000000000e+00

0.000000000000000e+00 0.000000000000000e+00 0.000000000000000e+00
0.000000000000000e+00 0.000000000000000e+00 0.000000000000000e+00
0.000000000000000e+00 0.000000000000000e+00 0.000000000000000e+00

0.000000000000000e+00 0.000000000000000e+00 0.000000000000000e+00
0.000000000000000e+00 0.000000000000000e+00 0.000000000000000e+00
0.000000000000000e+00 0.000000000000000e+00 0.000000000000000e+00

0.000000000000000e+00 0.000000000000000e+00 0.000000000000000e+00
0.000000000000000e+00 0.000000000000000e+00 0.000000000000000e+00
0.000000000000000e+00 0.000000000000000e+00 0.000000000000000e+00

0.000000000000000e+00 0.000000000000000e+00 0.000000000000000e+00
0.000000000000000e+00 0.000000000000000e+00 0.000000000000000e+00
0.000000000000000e+00 0.000000000000000e+00 0.000000000000000e+00

0.000000000000000e+00 0.000000000000000e+00 0.000000000000000e+00
0.000000000000000e+00 0.000000000000000e+00 0.000000000000000e+00
0.000000000000000e+00 0.000000000000000e+00 0.000000000000000e+00

0.000000000000000e+00 0.000000000000000e+00 0.000000000000000e+00
0.000000000000000e+00 0.000000000000000e+00 0.000000000000000e+00
0.000000000000000e+00 0.000000000000000e+00 0.000000000000000e+00

0.000000000000000e+00 0.000000000000000e+00 0.000000000000000e+00
0.000000000000000e+00 0.000000000000000e+00 0.000000000000000e+00
0.000000000000000e+00 0.000000000000000e+00 0.000000000000000e+00

0.000000000000000e+00 0.000000000000000e+00 0.000000000000000e+00
0.000000000000000e+00 0.000000000000000e+00 0.000000000000000e+00
0.000000000000000e+00 0.000000000000000e+00 0.000000000000000e+00

0.000000000000000e+00 0.000000000000000e+00 0.000000000000000e+00
0.000000000000000e+00 0.000000000000000e+00 0.000000000000000e+00
0.000000000000000e+00 0.000000000000000e+00 0.000000000000000e+00

0.000000000000000e+00 0.000000000000000e+00 0.000000000000000e+00
0.000000000000000e+00 0.000000000000000e+00 0.000000000000000e+00
0.000000000000000e+00 0.000000000000000e+00 0.000000000000000e+00

0.000000000000000e+00 0.000000000000000e+00 0.000000000000000e+00
0.000000000000000e+00 0.000000000000000e+00 0.000000000000000e+00
0.000000000000000e+00 0.000000000000000e+00 0.000000000000000e+00

0.000000000000000e+00 0.000000000000000e+00 0.000000000000000e+00
0.000000000000000e+00 0.000000000000000e+00 0.000000000000000e+00
0.000000000000000e+00 0.000000000000000e+00 0.000000000000000e+00

0.000000000000000e+00 0.000000000000000e+00 0.000000000000000e+00
0.000000000000000e+00 0.000000000000000e+00 0.000000000000000e+00
0.000000000000000e+00 0.000000000000000e+00 0.000000000000000e+00

0.000000000000000e+00 0.000000000000000e+00 0.000000000000000e+00
0.000000000000000e+00 0.000000000000000e+00 0.000000000000000e+00
0.000000000000000e+00 0.000000000000000e+00 0.000000000000000e+00

0.000000000000000e+00 0.000000000000000e+00 0.000000000000000e+00
0.000000000000000e+00 0.000000000000000e+00 0.000000000000000e+00
0.000000000000000e+00 0.000000000000000e+00 0.000000000000000e+00

0.000000000000000e+00 0.000000000000000e+00 0.000000000000000e+00
0.000000000000000e+00 0.000000000000000e+00 0.000000000000000e+00
0.000000000000000e+00 0.000000000000000e+00 0.000000000000000e+00

0.000000000000000e+00 0.000000000000000e+00 0.000000000000000e+00
0.000000000000000e+00 0.000000000000000e+00 0.000000000000000e+00
0.000000000000000e+00 0.000000000000000e+00 0.000000000000000e+00

0.000000000000000e+00 0.000000000000000e+00 0.000000000000000e+00
0.000000000000000e+00 0.000000000000000e+00 0.000000000000000e+00
0.000000000000000e+00 0.000000000000000e+00 0.000000000000000e+00

0.000000000000000e+00 0.000000000000000e+00 0.000000000000000e+00
0.000000000000000e+00 0.000000000000000e+00 0.000000000000000e+00
0.000000000000000e+00 0.000000000000000e+00 0.000000000000000e+00

0.000000000000000e+00 0.000000000000000e+00 0.000000000000000e+00
0.000000000000000e+00 0.000000000000000e+00 0.000000000000000e+00
0.000000000000000e+00 0.000000000000000e+00 0.000000000000000e+00

0.000000000000000e+00 0.000000000000000e+00 0.000000000000000e+00
0.000000000000000e+00 0.000000000000000e+00 0.000000000000000e+00
0.000000000000000e+00 0.000000000000000e+00 0.000000000000000e+00

0.000000000000000e+00 0.000000000000000e+00 0.000000000000000e+00
0.000000000000000e+00 0.000000000000000e+00 0.000000000000000e+00
0.000000000000000e+00 0.000000000000000e+00 0.000000000000000e+00

0.000000000000000e+00 0.000000000000000e+00 0.000000000000000e+00
0.000000000000000e+00 0.000000000000000e+00 0.000000000000000e+00
0.000000000000000e+00 0.000000000000000e+00 0.000000000000000e+00

0.000000000000000e+00 0.000000000000000e+00 0.000000000000000e+00
0.000000000000000e+00 0.000000000000000e+00 0.000000000000000e+00
0.000000000000000e+00 0.000000000000000e+00 0.000000000000000e+00

0.000000000000000e+00 0.000000000000000e+00 0.000000000000000e+00
0.000000000000000e+00 0.000000000000000e+00 0.000000000000000e+00
0.000000000000000e+00 0.000000000000000e+00 0.000000000000000e+00

0.000000000000000e+00 0.000000000000000e+00 0.000000000000000e+00
0.000000000000000e+00 0.000000000000000e+00 0.000000000000000e+00
0.000000000000000e+00 0.000000000000000e+00 0.000000000000000e+00

0.000000000000000e+00 0.000000000000000e+00 0.000000000000000e+00
0.000000000000000e+00 0.000000000000000e+00 0.000000000000000e+00
0.000000000000000e+00 0.000000000000000e+00 0.000000000000000e+00

0.000000000000000e+00 0.000000000000000e+00 0.000000000000000e+00
0.000000000000000e+00 0.000000000000000e+00 0.000000000000000e+00
0.000000000000000e+00 0.000000000000000e+00 0.000000000000000e+00

0.000000000000000e+00 0.000000000000000e+00 0.000000000000000e+00
0.000000000000000e+00 0.000000000000000e+00 0.000000000000000e+00
0.000000000000000e+00 0.000000000000000e+00 0.000000000000000e+00

0.000000000000000e+00 0.000000000000000e+00 0.000000000000000e+00
0.000000000000000e+00 0.000000000000000e+00 0.000000000000000e+00
0.000000000000000e+00 0.000000000000000e+00 0.000000000000000e+00

0.000000000000000e+00 0.000000000000000e+00 0.000000000000000e+00
0.000000000000000e+00 0.000000000000000e+00 0.000000000000000e+00
0.000000000000000e+00 0.000000000000000e+00 0.000000000000000e+00

0.000000000000000e+00 0.000000000000000e+00 0.000000000000000e+00
0.000000000000000e+00 0.000000000000000e+00 0.000000000000000e+00
0.000000000000000e+00 0.000000000000000e+00 0.000000000000000e+00

0.000000000000000e+00 0.000000000000000e+00 0.000000000000000e+00
0.000000000000000e+00 0.000000000000000e+00 0.000000000000000e+00
0.000000000000000e+00 0.000000000000000e+00 0.000000000000000e+00

0.000000000000000e+00 0.000000000000000e+00 0.000000000000000e+00
0.000000000000000e+00 0.000000000000000e+00 0.000000000000000e+00
0.000000000000000e+00 0.000000000000000e+00 0.000000000000000e+00

0.000000000000000e+00 0.000000000000000e+00 0.000000000000000e+00
0.000000000000000e+00 0.000000000000000e+00 0.000000000000000e+00
0.000000000000000e+00 0.000000000000000e+00 0.000000000000000e+00

0.000000000000000e+00 0.000000000000000e+00 0.000000000000000e+00
0.000000000000000e+00 0.000000000000000e+00 0.000000000000000e+00
0.000000000000000e+00 0.000000000000000e+00 0.000000000000000e+00

0.000000000000000e+00 0.000000000000000e+00 0.000000000000000e+00
0.000000000000000e+00 0.000000000000000e+00 0.000000000000000e+00
0.000000000000000e+00 0.000000000000000e+00 0.000000000000000e+00

0.000000000000000e+00 0.000000000000000e+00 0.000000000000000e+00
0.000000000000000e+00 0.000000000000000e+00 0.000000000000000e+00
0.000000000000000e+00 0.000000000000000e+00 0.000000000000000e+00

0.000000000000000e+00 0.000000000000000e+00 0.000000000000000e+00
0.000000000000000e+00 0.000000000000000e+00 0.000000000000000e+00
0.000000000000000e+00 0.000000000000000e+00 0.000000000000000e+00

0.000000000000000e+00 0.000000000000000e+00 0.000000000000000e+00
0.000000000000000e+00 0.000000000000000e+00 0.000000000000000e+00
0.000000000000000e+00 0.000000000000000e+00 0.000000000000000e+00

0.000000000000000e+00 0.000000000000000e+00 0.000000000000000e+00
0.000000000000000e+00 0.000000000000000e+00 0.000000000000000e+00
0.000000000000000e+00 0.000000000000000e+00 0.000000000000000e+00

0.000000000000000e+00 0.000000000000000e+00 0.000000000000000e+00
0.000000000000000e+00 0.000000000000000e+00 0.000000000000000e+00
0.000000000000000e+00 0.000000000000000e+00 0.000000000000000e+00

0.000000000000000e+00 0.000000000000000e+00 0.000000000000000e+00
0.000000000000000e+00 0.000000000000000e+00 0.000000000000000e+00
0.000000000000000e+00 0.000000000000000e+00 0.000000000000000e+00

0.000000000000000e+00 0.000000000000000e+00 0.000000000000000e+00
0.000000000000000e+00 0.000000000000000e+00 0.000000000000000e+00
0.000000000000000e+00 0.000000000000000e+00 0.000000000000000e+00

0.000000000000000e+00 0.000000000000000e+00 0.000000000000000e+00
0.000000000000000e+00 0.000000000000000e+00 0.000000000000000e+00
0.000000000000000e+00 0.000000000000000e+00 0.000000000000000e+00

0.000000000000000e+00 0.000000000000000e+00 0.000000000000000e+00
0.000000000000000e+00 0.000000000000000e+00 0.000000000000000e+00
0.000000000000000e+00 0.000000000000000e+00 0.000000000000000e+00

0.000000000000000e+00 0.000000000000000e+00 0.000000000000000e+00
0.000000000000000e+00 0.000000000000000e+00 0.000000000000000e+00
0.000000000000000e+00 0.000000000000000e+00 0.000000000000000e+00

0.000000000000000e+00 0.000000000000000e+00 0.000000000000000e+00
0.000000000000000e+00 0.000000000000000e+00 0.000000000000000e+00
0.000000000000000e+00 0.000000000000000e+00 0.000000000000000e+00

0.000000000000000e+00 0.000000000000000e+00 0.000000000000000e+00
0.000000000000000e+00 0.000000000000000e+00 0.000000000000000e+00
0.000000000000000e+00 0.000000000000000e+00 0.000000000000000e+00

0.000000000000000e+00 0.000000000000000e+00 0.000000000000000e+00
0.000000000000000e+00 0.000000000000000e+00 0.000000000000000e+00
0.000000000000000e+00 0.000000000000000e+00 0.000000000000000e+00

0.000000000000000e+00 0.000000000000000e+00 0.000000000000000e+00
0.000000000000000e+00 0.000000000000000e+00 0.000000000000000e+00
0.000000000000000e+00 0.000000000000000e+00 0.000000000000000e+00

0.000000000000000e+00 0.000000000000000e+00 0.000000000000000e+00
0.000000000000000e+00 0.000000000000000e+00 0.000000000000000e+00
0.000000000000000e+00 0.000000000000000e+00 0.000000000000000e+00

0.000000000000000e+00 0.000000000000000e+00 0.000000000000000e+00
0.000000000000000e+00 0.000000000000000e+00 0.000000000000000e+00
0.000000000000000e+00 0.000000000000000e+00 0.000000000000000e+00

0.000000000000000e+00 0.000000000000000e+00 0.000000000000000e+00
0.000000000000000e+00 0.000000000000000e+00 0.000000000000000e+00
0.000000000000000e+00 0.000000000000000e+00 0.000000000000000e+00

0.000000000000000e+00 0.000000000000000e+00 0.000000000000000e+00
0.000000000000000e+00 0.000000000000000e+00 0.000000000000000e+00
0.000000000000000e+00 0.000000000000000e+00 0.000000000000000e+00

0.000000000000000e+00 0.000000000000000e+00 0.000000000000000e+00
0.000000000000000e+00 0.000000000000000e+00 0.000000000000000e+00
0.000000000000000e+00 0.000000000000000e+00 0.000000000000000e+00

0.000000000000000e+00 0.000000000000000e+00 0.000000000000000e+00
0.000000000000000e+00 0.000000000000000e+00 0.000000000000000e+00
0.000000000000000e+00 0.000000000000000e+00 0.000000000000000e+00

0.000000000000000e+00 0.000000000000000e+00 0.000000000000000e+00
0.000000000000000e+00 0.000000000000000e+00 0.000000000000000e+00
0.000000000000000e+00 0.000000000000000e+00 0.000000000000000e+00

0.000000000000000e+00 0.000000000000000e+00 0.000000000000000e+00
0.000000000000000e+00 0.000000000000000e+00 0.000000000000000e+00
0.000000000000000e+00 0.000000000000000e+00 0.000000000000000e+00

0.000000000000000e+00 0.000000000000000e+00 0.000000000000000e+00
0.000000000000000e+00 0.000000000000000e+00 0.000000000000000e+00
0.000000000000000e+00 0.000000000000000e+00 0.000000000000000e+00

0.000000000000000e+00 0.000000000000000e+00 0.000000000000000e+00
0.000000000000000e+00 0.000000000000000e+00 0.000000000000000e+00
0.000000000000000e+00 0.000000000000000e+00 0.000000000000000e+00

0.000000000000000e+00 0.000000000000000e+00 0.000000000000000e+00
0.000000000000000e+00 0.000000000000000e+00 0.000000000000000e+00
0.000000000000000e+00 0.000000000000000e+00 0.000000000000000e+00

0.000000000000000e+00 0.000000000000000e+00 0.000000000000000e+00
0.000000000000000e+00 0.000000000000000e+00 0.000000000000000e+00
0.000000000000000e+00 0.000000000000000e+00 0.000000000000000e+00

0.000000000000000e+00 0.000000000000000e+00 0.000000000000000e+00
0.000000000000000e+00 0.000000000000000e+00 0.000000000000000e+00
0.000000000000000e+00 0.000000000000000e+00 0.000000000000000e+00

0.000000000000000e+00 0.000000000000000e+00 0.000000000000000e+00
0.000000000000000e+00 0.000000000000000e+00 0.000000000000000e+00
0.000000000000000e+00 0.000000000000000e+00 0.000000000000000e+00

0.000000000000000e+00 0.000000000000000e+00 0.000000000000000e+00
0.000000000000000e+00 0.000000000000000e+00 0.000000000000000e+00
0.000000000000000e+00 0.000000000000000e+00 0.000000000000000e+00

0.000000000000000e+00 0.000000000000000e+00 0.000000000000000e+00
0.000000000000000e+00 0.000000000000000e+00 0.000000000000000e+00
0.000000000000000e+00 0.000000000000000e+00 0.000000000000000e+00

0.000000000000000e+00 0.000000000000000e+00 0.000000000000000e+00
0.000000000000000e+00 0.000000000000000e+00 0.000000000000000e+00
0.000000000000000e+00 0.000000000000000e+00 0.000000000000000e+00

0.000000000000000e+00 0.000000000000000e+00 0.000000000000000e+00
0.000000000000000e+00 0.000000000000000e+00 0.000000000000000e+00
0.000000000000000e+00 0.000000000000000e+00 0.000000000000000e+00

0.000000000000000e+00 0.000000000000000e+00 0.000000000000000e+00
0.000000000000000e+00 0.000000000000000e+00 0.000000000000000e+00
0.000000000000000e+00 0.000000000000000e+00 0.000000000000000e+00

0.000000000000000e+00 0.000000000000000e+00 0.000000000000000e+00
0.000000000000000e+00 0.000000000000000e+00 0.000000000000000e+00
0.000000000000000e+00 0.000000000000000e+00 0.000000000000000e+00

0.000000000000000e+00 0.000000000000000e+00 0.000000000000000e+00
0.000000000000000e+00 0.000000000000000e+00 0.000000000000000e+00
0.000000000000000e+00 0.000000000000000e+00 0.000000000000000e+00

0.000000000000000e+00 0.000000000000000e+00 0.000000000000000e+00
0.000000000000000e+00 0.000000000000000e+00 0.000000000000000e+00
0.000000000000000e+00 0.000000000000000e+00 0.000000000000000e+00

0.000000000000000e+00 0.000000000000000e+00 0.000000000000000e+00
0.000000000000000e+00 0.000000000000000e+00 0.000000000000000e+00
0.000000000000000e+00 0.000000000000000e+00 0.000000000000000e+00

0.000000000000000e+00 0.000000000000000e+00 0.000000000000000e+00
0.000000000000000e+00 0.000000000000000e+00 0.000000000000000e+00
0.000000000000000e+00 0.000000000000000e+00 0.000000000000000e+00

0.000000000000000e+00 0.000000000000000e+00 0.000000000000000e+00
0.000000000000000e+00 0.000000000000000e+00 0.000000000000000e+00
0.000000000000000e+00 0.000000000000000e+00 0.000000000000000e+00

0.000000000000000e+00 0.000000000000000e+00 0.000000000000000e+00
0.000000000000000e+00 0.000000000000000e+00 0.000000000000000e+00
0.000000000000000e+00 0.000000000000000e+00 0.000000000000000e+00

0.000000000000000e+00 0.000000000000000e+00 0.000000000000000e+00
0.000000000000000e+00 0.000000000000000e+00 0.000000000000000e+00
0.000000000000000e+00 0.000000000000000e+00 0.000000000000000e+00

0.000000000000000e+00 0.000000000000000e+00 0.000000000000000e+00
0.000000000000000e+00 0.000000000000000e+00 0.000000000000000e+00
0.000000000000000e+00 0.000000000000000e+00 0.000000000000000e+00

0.000000000000000e+00 0.000000000000000e+00 0.000000000000000e+00
0.000000000000000e+00 0.000000000000000e+00 0.000000000000000e+00
0.000000000000000e+00 0.000000000000000e+00 0.000000000000000e+00

0.000000000000000e+00 0.000000000000000e+00 0.000000000000000e+00
0.000000000000000e+00 0.000000000000000e+00 0.000000000000000e+00
0.000000000000000e+00 0.000000000000000e+00 0.000000000000000e+00

0.000000000000000e+00 0.000000000000000e+00 0.000000000000000e+00
0.000000000000000e+00 0.000000000000000e+00 0.000000000000000e+00
0.000000000000000e+00 0.000000000000000e+00 0.000000000000000e+00

0.000000000000000e+00 0.000000000000000e+00 0.000000000000000e+00
0.000000000000000e+00 0.000000000000000e+00 0.000000000000000e+00
0.000000000000000e+00 0.000000000000000e+00 0.000000000000000e+00

0.000000000000000e+00 0.000000000000000e+00 0.000000000000000e+00
0.000000000000000e+00 0.000000000000000e+00 0.000000000000000e+00
0.000000000000000e+00 0.000000000000000e+00 0.000000000000000e+00

0.000000000000000e+00 0.000000000000000e+00 0.000000000000000e+00
0.000000000000000e+00 0.000000000000000e+00 0.000000000000000e+00
0.000000000000000e+00 0.000000000000000e+00 0.000000000000000e+00

0.000000000000000e+00 0.000000000000000e+00 0.000000000000000e+00
0.000000000000000e+00 0.000000000000000e+00 0.000000000000000e+00
0.000000000000000e+00 0.000000000000000e+00 0.000000000000000e+00

0.000000000000000e+00 0.000000000000000e+00 0.000000000000000e+00
0.000000000000000e+00 0.000000000000000e+00 0.000000000000000e+00
0.000000000000000e+00 0.000000000000000e+00 0.000000000000000e+00

0.000000000000000e+00 0.000000000000000e+00 0.000000000000000e+00
0.000000000000000e+00 0.000000000000000e+00 0.000000000000000e+00
0.000000000000000e+00 0.000000000000000e+00 0.000000000000000e+00

0.000000000000000e+00 0.000000000000000e+00 0.000000000000000e+00
0.000000000000000e+00 0.000000000000000e+00 0.000000000000000e+00
0.000000000000000e+00 0.000000000000000e+00 0.000000000000000e+00

0.000000000000000e+00 0.000000000000000e+00 0.000000000000000e+00
0.000000000000000e+00 0.000000000000000e+00 0.000000000000000e+00
0.000000000000000e+00 0.000000000000000e+00 0.000000000000000e+00

0.000000000000000e+00 0.000000000000000e+00 0.000000000000000e+00
0.000000000000000e+00 0.000000000000000e+00 0.000000000000000e+00
0.000000000000000e+00 0.000000000000000e+00 0.000000000000000e+00

0.000000000000000e+00 0.000000000000000e+00 0.000000000000000e+00
0.000000000000000e+00 0.000000000000000e+00 0.000000000000000e+00
0.000000000000000e+00 0.000000000000000e+00 0.000000000000000e+00

0.000000000000000e+00 0.000000000000000e+00 0.000000000000000e+00
0.000000000000000e+00 0.000000000000000e+00 0.000000000000000e+00
0.000000000000000e+00 0.000000000000000e+00 0.000000000000000e+00

0.000000000000000e+00 0.000000000000000e+00 0.000000000000000e+00
0.000000000000000e+00 0.000000000000000e+00 0.000000000000000e+00
0.000000000000000e+00 0.000000000000000e+00 0.000000000000000e+00

0.000000000000000e+00 0.000000000000000e+00 0.000000000000000e+00
0.000000000000000e+00 0.000000000000000e+00 0.000000000000000e+00
0.000000000000000e+00 0.000000000000000e+00 0.000000000000000e+00

0.000000000000000e+00 0.000000000000000e+00 0.000000000000000e+00
0.000000000000000e+00 0.000000000000000e+00 0.000000000000000e+00
0.000000000000000e+00 0.000000000000000e+00 0.000000000000000e+00

0.000000000000000e+00 0.000000000000000e+00 0.000000000000000e+00
0.000000000000000e+00 0.000000000000000e+00 0.000000000000000e+00
0.000000000000000e+00 0.000000000000000e+00 0.000000000000000e+00

0.000000000000000e+00 0.000000000000000e+00 0.000000000000000e+00
0.000000000000000e+00 0.000000000000000e+00 0.000000000000000e+00
0.000000000000000e+00 0.000000000000000e+00 0.000000000000000e+00

0.000000000000000e+00 0.000000000000000e+00 0.000000000000000e+00
0.000000000000000e+00 0.000000000000000e+00 0.000000000000000e+00
0.000000000000000e+00 0.000000000000000e+00 0.000000000000000e+00

0.000000000000000e+00 0.000000000000000e+00 0.000000000000000e+00
0.000000000000000e+00 0.000000000000000e+00 0.000000000000000e+00
0.000000000000000e+00 0.000000000000000e+00 0.000000000000000e+00

0.000000000000000e+00 0.000000000000000e+00 0.000000000000000e+00
0.000000000000000e+00 0.000000000000000e+00 0.000000000000000e+00
0.000000000000000e+00 0.000000000000000e+00 0.000000000000000e+00

0.000000000000000e+00 0.000000000000000e+00 0.000000000000000e+00
0.000000000000000e+00 0.000000000000000e+00 0.000000000000000e+00
0.000000000000000e+00 0.000000000000000e+00 0.000000000000000e+00

0.000000000000000e+00 0.000000000000000e+00 0.000000000000000e+00
0.000000000000000e+00 0.000000000000000e+00 0.000000000000000e+00
0.000000000000000e+00 0.000000000000000e+00 0.000000000000000e+00

0.000000000000000e+00 0.000000000000000e+00 0.000000000000000e+00
0.000000000000000e+00 0.000000000000000e+00 0.000000000000000e+00
0.000000000000000e+00 0.000000000000000e+00 0.000000000000000e+00

0.000000000000000e+00 0.000000000000000e+00 0.000000000000000e+00
0.000000000000000e+00 0.000000000000000e+00 0.000000000000000e+00
0.000000000000000e+00 0.000000000000000e+00 0.000000000000000e+00

0.000000000000000e+00 0.000000000000000e+00 0.000000000000000e+00
0.000000000000000e+00 0.000000000000000e+00 0.000000000000000e+00
0.000000000000000e+00 0.000000000000000e+00 0.000000000000000e+00

0.000000000000000e+00 0.000000000000000e+00 0.000000000000000e+00
0.000000000000000e+00 0.000000000000000e+00 0.000000000000000e+00
0.000000000000000e+00 0.000000000000000e+00 0.000000000000000e+00

0.000000000000000e+00 0.000000000000000e+00 0.000000000000000e+00
0.000000000000000e+00 0.000000000000000e+00 0.000000000000000e+00
0.000000000000000e+00 0.000000000000000e+00 0.000000000000000e+00

0.000000000000000e+00 0.000000000000000e+00 0.000000000000000e+00
0.000000000000000e+00 0.000000000000000e+00 0.000000000000000e+00
0.000000000000000e+00 0.000000000000000e+00 0.000000000000000e+00

0.000000000000000e+00 0.000000000000000e+00 0.000000000000000e+00
0.000000000000000e+00 0.000000000000000e+00 0.000000000000000e+00
0.000000000000000e+00 0.000000000000000e+00 0.000000000000000e+00

0.000000000000000e+00 0.000000000000000e+00 0.000000000000000e+00
0.000000000000000e+00 0.000000000000000e+00 0.000000000000000e+00
0.000000000000000e+00 0.000000000000000e+00 0.000000000000000e+00

0.000000000000000e+00 0.000000000000000e+00 0.000000000000000e+00
0.000000000000000e+00 0.000000000000000e+00 0.000000000000000e+00
0.000000000000000e+00 0.000000000000000e+00 0.000000000000000e+00

0.000000000000000e+00 0.000000000000000e+00 0.000000000000000e+00
0.000000000000000e+00 0.000000000000000e+00 0.000000000000000e+00
0.000000000000000e+00 0.000000000000000e+00 0.000000000000000e+00

0.000000000000000e+00 0.000000000000000e+00 0.000000000000000e+00
0.000000000000000e+00 0.000000000000000e+00 0.000000000000000e+00
0.000000000000000e+00 0.000000000000000e+00 0.000000000000000e+00

0.000000000000000e+00 0.000000000000000e+00 0.000000000000000e+00
0.000000000000000e+00 0.000000000000000e+00 0.000000000000000e+00
0.000000000000000e+00 0.000000000000000e+00 0.000000000000000e+00

0.000000000000000e+00 0.000000000000000e+00 0.000000000000000e+00
0.000000000000000e+00 0.000000000000000e+00 0.000000000000000e+00
0.000000000000000e+00 0.000000000000000e+00 0.000000000000000e+00

0.000000000000000e+00 0.000000000000000e+00 0.000000000000000e+00
0.000000000000000e+00 0.000000000000000e+00 0.000000000000000e+00
0.000000000000000e+00 0.000000000000000e+00 0.000000000000000e+00

0.000000000000000e+00 0.000000000000000e+00 0.000000000000000e+00
0.000000000000000e+00 0.000000000000000e+00 0.000000000000000e+00
0.000000000000000e+00 0.000000000000000e+00 0.000000000000000e+00

0.000000000000000e+00 0.000000000000000e+00 0.000000000000000e+00
0.000000000000000e+00 0.000000000000000e+00 0.000000000000000e+00
0.000000000000000e+00 0.000000000000000e+00 0.000000000000000e+00

0.000000000000000e+00 0.000000000000000e+00 0.000000000000000e+00
0.000000000000000e+00 0.000000000000000e+00 0.000000000000000e+00
0.000000000000000e+00 0.000000000000000e+00 0.000000000000000e+00

0.000000000000000e+00 0.000000000000000e+00 0.000000000000000e+00
0.000000000000000e+00 0.000000000000000e+00 0.000000000000000e+00
0.000000000000000e+00 0.000000000000000e+00 0.000000000000000e+00

0.000000000000000e+00 0.000000000000000e+00 0.000000000000000e+00
0.000000000000000e+00 0.000000000000000e+00 0.000000000000000e+00
0.000000000000000e+00 0.000000000000000e+00 0.000000000000000e+00

0.000000000000000e+00 0.000000000000000e+00 0.000000000000000e+00
0.000000000000000e+00 0.000000000000000e+00 0.000000000000000e+00
0.000000000000000e+00 0.000000000000000e+00 0.000000000000000e+00

0.000000000000000e+00 0.000000000000000e+00 0.000000000000000e+00
0.000000000000000e+00 0.000000000000000e+00 0.000000000000000e+00
0.000000000000000e+00 0.000000000000000e+00 0.000000000000000e+00

0.000000000000000e+00 0.000000000000000e+00 0.000000000000000e+00
0.000000000000000e+00 0.000000000000000e+00 0.000000000000000e+00
0.000000000000000e+00 0.000000000000000e+00 0.000000000000000e+00

0.000000000000000e+00 0.000000000000000e+00 0.000000000000000e+00
0.000000000000000e+00 0.000000000000000e+00 0.000000000000000e+00
0.000000000000000e+00 0.000000000000000e+00 0.000000000000000e+00

0.000000000000000e+00 0.000000000000000e+00 0.000000000000000e+00
0.000000000000000e+00 0.000000000000000e+00 0.000000000000000e+00
0.000000000000000e+00 0.000000000000000e+00 0.000000000000000e+00

0.000000000000000e+00 0.000000000000000e+00 0.000000000000000e+00
0.000000000000000e+00 0.000000000000000e+00 0.000000000000000e+00
0.000000000000000e+00 0.000000000000000e+00 0.000000000000000e+00

0.000000000000000e+00 0.000000000000000e+00 0.000000000000000e+00
0.000000000000000e+00 0.000000000000000e+00 0.000000000000000e+00
0.000000000000000e+00 0.000000000000000e+00 0.000000000000000e+00

0.000000000000000e+00 0.000000000000000e+00 0.000000000000000e+00
0.000000000000000e+00 0.000000000000000e+00 0.000000000000000e+00
0.000000000000000e+00 0.000000000000000e+00 0.000000000000000e+00

0.000000000000000e+00 0.000000000000000e+00 0.000000000000000e+00
0.000000000000000e+00 0.000000000000000e+00 0.000000000000000e+00
0.000000000000000e+00 0.000000000000000e+00 0.000000000000000e+00

0.000000000000000e+00 0.000000000000000e+00 0.000000000000000e+00
0.000000000000000e+00 0.000000000000000e+00 0.000000000000000e+00
0.000000000000000e+00 0.000000000000000e+00 0.000000000000000e+00

0.000000000000000e+00 0.000000000000000e+00 0.000000000000000e+00
0.000000000000000e+00 0.000000000000000e+00 0.000000000000000e+00
0.000000000000000e+00 0.000000000000000e+00 0.000000000000000e+00

0.000000000000000e+00 0.000000000000000e+00 0.000000000000000e+00
0.000000000000000e+00 0.000000000000000e+00 0.000000000000000e+00
0.000000000000000e+00 0.000000000000000e+00 0.000000000000000e+00

0.000000000000000e+00 0.000000000000000e+00 0.000000000000000e+00
0.000000000000000e+00 0.000000000000000e+00 0.000000000000000e+00
0.000000000000000e+00 0.000000000000000e+00 0.000000000000000e+00

0.000000000000000e+00 0.000000000000000e+00 0.000000000000000e+00
0.000000000000000e+00 0.000000000000000e+00 0.000000000000000e+00
0.000000000000000e+00 0.000000000000000e+00 0.000000000000000e+00

0.000000000000000e+00 0.000000000000000e+00 0.000000000000000e+00
0.000000000000000e+00 0.000000000000000e+00 0.000000000000000e+00
0.000000000000000e+00 0.000000000000000e+00 0.000000000000000e+00

0.000000000000000e+00 0.000000000000000e+00 0.000000000000000e+00
0.000000000000000e+00 0.000000000000000e+00 0.000000000000000e+00
0.000000000000000e+00 0.000000000000000e+00 0.000000000000000e+00

0.000000000000000e+00 0.000000000000000e+00 0.000000000000000e+00
0.000000000000000e+00 0.000000000000000e+00 0.000000000000000e+00
0.000000000000000e+00 0.000000000000000e+00 0.000000000000000e+00

0.000000000000000e+00 0.000000000000000e+00 0.000000000000000e+00
0.000000000000000e+00 0.000000000000000e+00 0.000000000000000e+00
0.000000000000000e+00 0.000000000000000e+00 0.000000000000000e+00

0.000000000000000e+00 0.000000000000000e+00 0.000000000000000e+00
0.000000000000000e+00 0.000000000000000e+00 0.000000000000000e+00
0.000000000000000e+00 0.000000000000000e+00 0.000000000000000e+00

0.000000000000000e+00 0.000000000000000e+00 0.000000000000000e+00
0.000000000000000e+00 0.000000000000000e+00 0.000000000000000e+00
0.000000000000000e+00 0.000000000000000e+00 0.000000000000000e+00

0.000000000000000e+00 0.000000000000000e+00 0.000000000000000e+00
0.000000000000000e+00 0.000000000000000e+00 0.000000000000000e+00
0.000000000000000e+00 0.000000000000000e+00 0.000000000000000e+00

0.000000000000000e+00 0.000000000000000e+00 0.000000000000000e+00
0.000000000000000e+00 0.000000000000000e+00 0.000000000000000e+00
0.000000000000000e+00 0.000000000000000e+00 0.000000000000000e+00

0.000000000000000e+00 0.000000000000000e+00 0.000000000000000e+00
0.000000000000000e+00 0.000000000000000e+00 0.000000000000000e+00
0.000000000000000e+00 0.000000000000000e+00 0.000000000000000e+00

0.000000000000000e+00 0.000000000000000e+00 0.000000000000000e+00
0.000000000000000e+00 0.000000000000000e+00 0.000000000000000e+00
0.000000000000000e+00 0.000000000000000e+00 0.000000000000000e+00

0.000000000000000e+00 0.000000000000000e+00 0.000000000000000e+00
0.000000000000000e+00 0.000000000000000e+00 0.000000000000000e+00
0.000000000000000e+00 0.000000000000000e+00 0.000000000000000e+00

0.000000000000000e+00 0.000000000000000e+00 0.000000000000000e+00
0.000000000000000e+00 0.000000000000000e+00 0.000000000000000e+00
0.000000000000000e+00 0.000000000000000e+00 0.000000000000000e+00

0.000000000000000e+00 0.000000000000000e+00 0.000000000000000e+00
0.000000000000000e+00 0.000000000000000e+00 0.000000000000000e+00
0.000000000000000e+00 0.000000000000000e+00 0.000000000000000e+00

0.000000000000000e+00 0.000000000000000e+00 0.000000000000000e+00
0.000000000000000e+00 0.000000000000000e+00 0.000000000000000e+00
0.000000000000000e+00 0.000000000000000e+00 0.000000000000000e+00

0.000000000000000e+00 0.000000000000000e+00 0.000000000000000e+00
0.000000000000000e+00 0.000000000000000e+00 0.000000000000000e+00
0.000000000000000e+00 0.000000000000000e+00 0.000000000000000e+00

0.000000000000000e+00 0.000000000000000e+00 0.000000000000000e+00
0.000000000000000e+00 0.000000000000000e+00 0.000000000000000e+00
0.000000000000000e+00 0.000000000000000e+00 0.000000000000000e+00

0.000000000000000e+00 0.000000000000000e+00 0.000000000000000e+00
0.000000000000000e+00 0.000000000000000e+00 0.000000000000000e+00
0.000000000000000e+00 0.000000000000000e+00 0.000000000000000e+00

0.000000000000000e+00 0.000000000000000e+00 0.000000000000000e+00
0.000000000000000e+00 0.000000000000000e+00 0.000000000000000e+00
0.000000000000000e+00 0.000000000000000e+00 0.000000000000000e+00

0.000000000000000e+00 0.000000000000000e+00 0.000000000000000e+00
0.000000000000000e+00 0.000000000000000e+00 0.000000000000000e+00
0.000000000000000e+00 0.000000000000000e+00 0.000000000000000e+00

0.000000000000000e+00 0.000000000000000e+00 0.000000000000000e+00
0.000000000000000e+00 0.000000000000000e+00 0.000000000000000e+00
0.000000000000000e+00 0.000000000000000e+00 0.000000000000000e+00

0.000000000000000e+00 0.000000000000000e+00 0.000000000000000e+00
0.000000000000000e+00 0.000000000000000e+00 0.000000000000000e+00
0.000000000000000e+00 0.000000000000000e+00 0.000000000000000e+00

0.000000000000000e+00 0.000000000000000e+00 0.000000000000000e+00
0.000000000000000e+00 0.000000000000000e+00 0.000000000000000e+00
0.000000000000000e+00 0.000000000000000e+00 0.000000000000000e+00

0.000000000000000e+00 0.000000000000000e+00 0.000000000000000e+00
0.000000000000000e+00 0.000000000000000e+00 0.000000000000000e+00
0.000000000000000e+00 0.000000000000000e+00 0.000000000000000e+00

0.000000000000000e+00 0.000000000000000e+00 0.000000000000000e+00
0.000000000000000e+00 0.000000000000000e+00 0.000000000000000e+00
0.000000000000000e+00 0.000000000000000e+00 0.000000000000000e+00

0.000000000000000e+00 0.000000000000000e+00 0.000000000000000e+00
0.000000000000000e+00 0.000000000000000e+00 0.000000000000000e+00
0.000000000000000e+00 0.000000000000000e+00 0.000000000000000e+00

0.000000000000000e+00 0.000000000000000e+00 0.000000000000000e+00
0.000000000000000e+00 0.000000000000000e+00 0.000000000000000e+00
0.000000000000000e+00 0.000000000000000e+00 0.000000000000000e+00

0.000000000000000e+00 0.000000000000000e+00 0.000000000000000e+00
0.000000000000000e+00 0.000000000000000e+00 0.000000000000000e+00
0.000000000000000e+00 0.000000000000000e+00 0.000000000000000e+00

0.000000000000000e+00 0.000000000000000e+00 0.000000000000000e+00
0.000000000000000e+00 0.000000000000000e+00 0.000000000000000e+00
0.000000000000000e+00 0.000000000000000e+00 0.000000000000000e+00

0.000000000000000e+00 0.000000000000000e+00 0.000000000000000e+00
0.000000000000000e+00 0.000000000000000e+00 0.000000000000000e+00
0.000000000000000e+00 0.000000000000000e+00 0.000000000000000e+00

0.000000000000000e+00 0.000000000000000e+00 0.000000000000000e+00
0.000000000000000e+00 0.000000000000000e+00 0.000000000000000e+00
0.000000000000000e+00 0.000000000000000e+00 0.000000000000000e+00

0.000000000000000e+00 0.000000000000000e+00 0.000000000000000e+00
0.000000000000000e+00 0.000000000000000e+00 0.000000000000000e+00
0.000000000000000e+00 0.000000000000000e+00 0.000000000000000e+00

0.000000000000000e+00 0.000000000000000e+00 0.000000000000000e+00
0.000000000000000e+00 0.000000000000000e+00 0.000000000000000e+00
0.000000000000000e+00 0.000000000000000e+00 0.000000000000000e+00

0.000000000000000e+00 0.000000000000000e+00 0.000000000000000e+00
0.000000000000000e+00 0.000000000000000e+00 0.000000000000000e+00
0.000000000000000e+00 0.000000000000000e+00 0.000000000000000e+00

0.000000000000000e+00 0.000000000000000e+00 0.000000000000000e+00
0.000000000000000e+00 0.000000000000000e+00 0.000000000000000e+00
0.000000000000000e+00 0.000000000000000e+00 0.000000000000000e+00

0.000000000000000e+00 0.000000000000000e+00 0.000000000000000e+00
0.000000000000000e+00 0.000000000000000e+00 0.000000000000000e+00
0.000000000000000e+00 0.000000000000000e+00 0.000000000000000e+00

0.000000000000000e+00 0.000000000000000e+00 0.000000000000000e+00
0.000000000000000e+00 0.000000000000000e+00 0.000000000000000e+00
0.000000000000000e+00 0.000000000000000e+00 0.000000000000000e+00

0.000000000000000e+00 0.000000000000000e+00 0.000000000000000e+00
0.000000000000000e+00 0.000000000000000e+00 0.000000000000000e+00
0.000000000000000e+00 0.000000000000000e+00 0.000000000000000e+00

0.000000000000000e+00 0.000000000000000e+00 0.000000000000000e+00
0.000000000000000e+00 0.000000000000000e+00 0.000000000000000e+00
0.000000000000000e+00 0.000000000000000e+00 0.000000000000000e+00

0.000000000000000e+00 0.000000000000000e+00 0.000000000000000e+00
0.000000000000000e+00 0.000000000000000e+00 0.000000000000000e+00
0.000000000000000e+00 0.000000000000000e+00 0.000000000000000e+00

0.000000000000000e+00 0.000000000000000e+00 0.000000000000000e+00
0.000000000000000e+00 0.000000000000000e+00 0.000000000000000e+00
0.000000000000000e+00 0.000000000000000e+00 0.000000000000000e+00

0.000000000000000e+00 0.000000000000000e+00 0.000000000000000e+00
0.000000000000000e+00 0.000000000000000e+00 0.000000000000000e+00
0.000000000000000e+00 0.000000000000000e+00 0.000000000000000e+00

0.000000000000000e+00 0.000000000000000e+00 0.000000000000000e+00
0.000000000000000e+00 0.000000000000000e+00 0.000000000000000e+00
0.000000000000000e+00 0.000000000000000e+00 0.000000000000000e+00

0.000000000000000e+00 0.000000000000000e+00 0.000000000000000e+00
0.000000000000000e+00 0.000000000000000e+00 0.000000000000000e+00
0.000000000000000e+00 0.000000000000000e+00 0.000000000000000e+00

0.000000000000000e+00 0.000000000000000e+00 0.000000000000000e+00
0.000000000000000e+00 0.000000000000000e+00 0.000000000000000e+00
0.000000000000000e+00 0.000000000000000e+00 0.000000000000000e+00

0.000000000000000e+00 0.000000000000000e+00 0.000000000000000e+00
0.000000000000000e+00 0.000000000000000e+00 0.000000000000000e+00
0.000000000000000e+00 0.000000000000000e+00 0.000000000000000e+00

0.000000000000000e+00 0.000000000000000e+00 0.000000000000000e+00
0.000000000000000e+00 0.000000000000000e+00 0.000000000000000e+00
0.000000000000000e+00 0.000000000000000e+00 0.000000000000000e+00

0.000000000000000e+00 0.000000000000000e+00 0.000000000000000e+00
0.000000000000000e+00 0.000000000000000e+00 0.000000000000000e+00
0.000000000000000e+00 0.000000000000000e+00 0.000000000000000e+00

0.000000000000000e+00 0.000000000000000e+00 0.000000000000000e+00
0.000000000000000e+00 0.000000000000000e+00 0.000000000000000e+00
0.000000000000000e+00 0.000000000000000e+00 0.000000000000000e+00

0.000000000000000e+00 0.000000000000000e+00 0.000000000000000e+00
0.000000000000000e+00 0.000000000000000e+00 0.000000000000000e+00
0.000000000000000e+00 0.000000000000000e+00 0.000000000000000e+00

0.000000000000000e+00 0.000000000000000e+00 0.000000000000000e+00
0.000000000000000e+00 0.000000000000000e+00 0.000000000000000e+00
0.000000000000000e+00 0.000000000000000e+00 0.000000000000000e+00

0.000000000000000e+00 0.000000000000000e+00 0.000000000000000e+00
0.000000000000000e+00 0.000000000000000e+00 0.000000000000000e+00
0.000000000000000e+00 0.000000000000000e+00 0.000000000000000e+00

0.000000000000000e+00 0.000000000000000e+00 0.000000000000000e+00
0.000000000000000e+00 0.000000000000000e+00 0.000000000000000e+00
0.000000000000000e+00 0.000000000000000e+00 0.000000000000000e+00

0.000000000000000e+00 0.000000000000000e+00 0.000000000000000e+00
0.000000000000000e+00 0.000000000000000e+00 0.000000000000000e+00
0.000000000000000e+00 0.000000000000000e+00 0.000000000000000e+00

0.000000000000000e+00 0.000000000000000e+00 0.000000000000000e+00
0.000000000000000e+00 0.000000000000000e+00 0.000000000000000e+00
0.000000000000000e+00 0.000000000000000e+00 0.000000000000000e+00

0.000000000000000e+00 0.000000000000000e+00 0.000000000000000e+00
0.000000000000000e+00 0.000000000000000e+00 0.000000000000000e+00
0.000000000000000e+00 0.000000000000000e+00 0.000000000000000e+00

0.000000000000000e+00 0.000000000000000e+00 0.000000000000000e+00
0.000000000000000e+00 0.000000000000000e+00 0.000000000000000e+00
0.000000000000000e+00 0.000000000000000e+00 0.000000000000000e+00

0.000000000000000e+00 0.000000000000000e+00 0.000000000000000e+00
0.000000000000000e+00 0.000000000000000e+00 0.000000000000000e+00
0.000000000000000e+00 0.000000000000000e+00 0.000000000000000e+00

0.000000000000000e+00 0.000000000000000e+00 0.000000000000000e+00
0.000000000000000e+00 0.000000000000000e+00 0.000000000000000e+00
0.000000000000000e+00 0.000000000000000e+00 0.000000000000000e+00

0.000000000000000e+00 0.000000000000000e+00 0.000000000000000e+00
0.000000000000000e+00 0.000000000000000e+00 0.000000000000000e+00
0.000000000000000e+00 0.000000000000000e+00 0.000000000000000e+00

0.000000000000000e+00 0.000000000000000e+00 0.000000000000000e+00
0.000000000000000e+00 0.000000000000000e+00 0.000000000000000e+00
0.000000000000000e+00 0.000000000000000e+00 0.000000000000000e+00

0.000000000000000e+00 0.000000000000000e+00 0.000000000000000e+00
0.000000000000000e+00 0.000000000000000e+00 0.000000000000000e+00
0.000000000000000e+00 0.000000000000000e+00 0.000000000000000e+00

0.000000000000000e+00 0.000000000000000e+00 0.000000000000000e+00
0.000000000000000e+00 0.000000000000000e+00 0.000000000000000e+00
0.000000000000000e+00 0.000000000000000e+00 0.000000000000000e+00

0.000000000000000e+00 0.000000000000000e+00 0.000000000000000e+00
0.000000000000000e+00 0.000000000000000e+00 0.000000000000000e+00
0.000000000000000e+00 0.000000000000000e+00 0.000000000000000e+00

0.000000000000000e+00 0.000000000000000e+00 0.000000000000000e+00
0.000000000000000e+00 0.000000000000000e+00 0.000000000000000e+00
0.000000000000000e+00 0.000000000000000e+00 0.000000000000000e+00

0.000000000000000e+00 0.000000000000000e+00 0.000000000000000e+00
0.000000000000000e+00 0.000000000000000e+00 0.000000000000000e+00
0.000000000000000e+00 0.000000000000000e+00 0.000000000000000e+00

0.000000000000000e+00 0.000000000000000e+00 0.000000000000000e+00
0.000000000000000e+00 0.000000000000000e+00 0.000000000000000e+00
0.000000000000000e+00 0.000000000000000e+00 0.000000000000000e+00

0.000000000000000e+00 0.000000000000000e+00 0.000000000000000e+00
0.000000000000000e+00 0.000000000000000e+00 0.000000000000000e+00
0.000000000000000e+00 0.000000000000000e+00 0.000000000000000e+00

0.000000000000000e+00 0.000000000000000e+00 0.000000000000000e+00
0.000000000000000e+00 0.000000000000000e+00 0.000000000000000e+00
0.000000000000000e+00 0.000000000000000e+00 0.000000000000000e+00

0.000000000000000e+00 0.000000000000000e+00 0.000000000000000e+00
0.000000000000000e+00 0.000000000000000e+00 0.000000000000000e+00
0.000000000000000e+00 0.000000000000000e+00 0.000000000000000e+00

0.000000000000000e+00 0.000000000000000e+00 0.000000000000000e+00
0.000000000000000e+00 0.000000000000000e+00 0.000000000000000e+00
0.000000000000000e+00 0.000000000000000e+00 0.000000000000000e+00

0.000000000000000e+00 0.000000000000000e+00 0.000000000000000e+00
0.000000000000000e+00 0.000000000000000e+00 0.000000000000000e+00
0.000000000000000e+00 0.000000000000000e+00 0.000000000000000e+00

0.000000000000000e+00 0.000000000000000e+00 0.000000000000000e+00
0.000000000000000e+00 0.000000000000000e+00 0.000000000000000e+00
0.000000000000000e+00 0.000000000000000e+00 0.000000000000000e+00

0.000000000000000e+00 0.000000000000000e+00 0.000000000000000e+00
0.000000000000000e+00 0.000000000000000e+00 0.000000000000000e+00
0.000000000000000e+00 0.000000000000000e+00 0.000000000000000e+00

0.000000000000000e+00 0.000000000000000e+00 0.000000000000000e+00
0.000000000000000e+00 0.000000000000000e+00 0.000000000000000e+00
0.000000000000000e+00 0.000000000000000e+00 0.000000000000000e+00

0.000000000000000e+00 0.000000000000000e+00 0.000000000000000e+00
0.000000000000000e+00 0.000000000000000e+00 0.000000000000000e+00
0.000000000000000e+00 0.000000000000000e+00 0.000000000000000e+00

0.000000000000000e+00 0.000000000000000e+00 0.000000000000000e+00
0.000000000000000e+00 0.000000000000000e+00 0.000000000000000e+00
0.000000000000000e+00 0.000000000000000e+00 0.000000000000000e+00

0.000000000000000e+00 0.000000000000000e+00 0.000000000000000e+00
0.000000000000000e+00 0.000000000000000e+00 0.000000000000000e+00
0.000000000000000e+00 0.000000000000000e+00 0.000000000000000e+00

0.000000000000000e+00 0.000000000000000e+00 0.000000000000000e+00
0.000000000000000e+00 0.000000000000000e+00 0.000000000000000e+00
0.000000000000000e+00 0.000000000000000e+00 0.000000000000000e+00

0.000000000000000e+00 0.000000000000000e+00 0.000000000000000e+00
0.000000000000000e+00 0.000000000000000e+00 0.000000000000000e+00
0.000000000000000e+00 0.000000000000000e+00 0.000000000000000e+00

0.000000000000000e+00 0.000000000000000e+00 0.000000000000000e+00
0.000000000000000e+00 0.000000000000000e+00 0.000000000000000e+00
0.000000000000000e+00 0.000000000000000e+00 0.000000000000000e+00

0.000000000000000e+00 0.000000000000000e+00 0.000000000000000e+00
0.000000000000000e+00 0.000000000000000e+00 0.000000000000000e+00
0.000000000000000e+00 0.000000000000000e+00 0.000000000000000e+00

0.000000000000000e+00 0.000000000000000e+00 0.000000000000000e+00
0.000000000000000e+00 0.000000000000000e+00 0.000000000000000e+00
0.000000000000000e+00 0.000000000000000e+00 0.000000000000000e+00

0.000000000000000e+00 0.000000000000000e+00 0.000000000000000e+00
0.000000000000000e+00 0.000000000000000e+00 0.000000000000000e+00
0.000000000000000e+00 0.000000000000000e+00 0.000000000000000e+00

0.000000000000000e+00 0.000000000000000e+00 0.000000000000000e+00
0.000000000000000e+00 0.000000000000000e+00 0.000000000000000e+00
0.000000000000000e+00 0.000000000000000e+00 0.000000000000000e+00

0.000000000000000e+00 0.000000000000000e+00 0.000000000000000e+00
0.000000000000000e+00 0.000000000000000e+00 0.000000000000000e+00
0.000000000000000e+00 0.000000000000000e+00 0.000000000000000e+00

0.000000000000000e+00 0.000000000000000e+00 0.000000000000000e+00
0.000000000000000e+00 0.000000000000000e+00 0.000000000000000e+00
0.000000000000000e+00 0.000000000000000e+00 0.000000000000000e+00

0.000000000000000e+00 0.000000000000000e+00 0.000000000000000e+00
0.000000000000000e+00 0.000000000000000e+00 0.000000000000000e+00
0.000000000000000e+00 0.000000000000000e+00 0.000000000000000e+00

0.000000000000000e+00 0.000000000000000e+00 0.000000000000000e+00
0.000000000000000e+00 0.000000000000000e+00 0.000000000000000e+00
0.000000000000000e+00 0.000000000000000e+00 0.000000000000000e+00

0.000000000000000e+00 0.000000000000000e+00 0.000000000000000e+00
0.000000000000000e+00 0.000000000000000e+00 0.000000000000000e+00
0.000000000000000e+00 0.000000000000000e+00 0.000000000000000e+00

0.000000000000000e+00 0.000000000000000e+00 0.000000000000000e+00
0.000000000000000e+00 0.000000000000000e+00 0.000000000000000e+00
0.000000000000000e+00 0.000000000000000e+00 0.000000000000000e+00

0.000000000000000e+00 0.000000000000000e+00 0.000000000000000e+00
0.000000000000000e+00 0.000000000000000e+00 0.000000000000000e+00
0.000000000000000e+00 0.000000000000000e+00 0.000000000000000e+00

0.000000000000000e+00 0.000000000000000e+00 0.000000000000000e+00
0.000000000000000e+00 0.000000000000000e+00 0.000000000000000e+00
0.000000000000000e+00 0.000000000000000e+00 0.000000000000000e+00

0.000000000000000e+00 0.000000000000000e+00 0.000000000000000e+00
0.000000000000000e+00 0.000000000000000e+00 0.000000000000000e+00
0.000000000000000e+00 0.000000000000000e+00 0.000000000000000e+00

0.000000000000000e+00 0.000000000000000e+00 0.000000000000000e+00
0.000000000000000e+00 0.000000000000000e+00 0.000000000000000e+00
0.000000000000000e+00 0.000000000000000e+00 0.000000000000000e+00

0.000000000000000e+00 0.000000000000000e+00 0.000000000000000e+00
0.000000000000000e+00 0.000000000000000e+00 0.000000000000000e+00
0.000000000000000e+00 0.000000000000000e+00 0.000000000000000e+00

0.000000000000000e+00 0.000000000000000e+00 0.000000000000000e+00
0.000000000000000e+00 0.000000000000000e+00 0.000000000000000e+00
0.000000000000000e+00 0.000000000000000e+00 0.000000000000000e+00

0.000000000000000e+00 0.000000000000000e+00 0.000000000000000e+00
0.000000000000000e+00 0.000000000000000e+00 0.000000000000000e+00
0.000000000000000e+00 0.000000000000000e+00 0.000000000000000e+00

0.000000000000000e+00 0.000000000000000e+00 0.000000000000000e+00
0.000000000000000e+00 0.000000000000000e+00 0.000000000000000e+00
0.000000000000000e+00 0.000000000000000e+00 0.000000000000000e+00

0.000000000000000e+00 0.000000000000000e+00 0.000000000000000e+00
0.000000000000000e+00 0.000000000000000e+00 0.000000000000000e+00
0.000000000000000e+00 0.000000000000000e+00 0.000000000000000e+00

0.000000000000000e+00 0.000000000000000e+00 0.000000000000000e+00
0.000000000000000e+00 0.000000000000000e+00 0.000000000000000e+00
0.000000000000000e+00 0.000000000000000e+00 0.000000000000000e+00

0.000000000000000e+00 0.000000000000000e+00 0.000000000000000e+00
0.000000000000000e+00 0.000000000000000e+00 0.000000000000000e+00
0.000000000000000e+00 0.000000000000000e+00 0.000000000000000e+00

0.000000000000000e+00 0.000000000000000e+00 0.000000000000000e+00
0.000000000000000e+00 0.000000000000000e+00 0.000000000000000e+00
0.000000000000000e+00 0.000000000000000e+00 0.000000000000000e+00

0.000000000000000e+00 0.000000000000000e+00 0.000000000000000e+00
0.000000000000000e+00 0.000000000000000e+00 0.000000000000000e+00
0.000000000000000e+00 0.000000000000000e+00 0.000000000000000e+00

0.000000000000000e+00 0.000000000000000e+00 0.000000000000000e+00
0.000000000000000e+00 0.000000000000000e+00 0.000000000000000e+00
0.000000000000000e+00 0.000000000000000e+00 0.000000000000000e+00

0.000000000000000e+00 0.000000000000000e+00 0.000000000000000e+00
0.000000000000000e+00 0.000000000000000e+00 0.000000000000000e+00
0.000000000000000e+00 0.000000000000000e+00 0.000000000000000e+00

0.000000000000000e+00 0.000000000000000e+00 0.000000000000000e+00
0.000000000000000e+00 0.000000000000000e+00 0.000000000000000e+00
0.000000000000000e+00 0.000000000000000e+00 0.000000000000000e+00

0.000000000000000e+00 0.000000000000000e+00 0.000000000000000e+00
0.000000000000000e+00 0.000000000000000e+00 0.000000000000000e+00
0.000000000000000e+00 0.000000000000000e+00 0.000000000000000e+00

0.000000000000000e+00 0.000000000000000e+00 0.000000000000000e+00
0.000000000000000e+00 0.000000000000000e+00 0.000000000000000e+00
0.000000000000000e+00 0.000000000000000e+00 0.000000000000000e+00

0.000000000000000e+00 0.000000000000000e+00 0.000000000000000e+00
0.000000000000000e+00 0.000000000000000e+00 0.000000000000000e+00
0.000000000000000e+00 0.000000000000000e+00 0.000000000000000e+00

0.000000000000000e+00 0.000000000000000e+00 0.000000000000000e+00
0.000000000000000e+00 0.000000000000000e+00 0.000000000000000e+00
0.000000000000000e+00 0.000000000000000e+00 0.000000000000000e+00

0.000000000000000e+00 0.000000000000000e+00 0.000000000000000e+00
0.000000000000000e+00 0.000000000000000e+00 0.000000000000000e+00
0.000000000000000e+00 0.000000000000000e+00 0.000000000000000e+00

0.000000000000000e+00 0.000000000000000e+00 0.000000000000000e+00
0.000000000000000e+00 0.000000000000000e+00 0.000000000000000e+00
0.000000000000000e+00 0.000000000000000e+00 0.000000000000000e+00

0.000000000000000e+00 0.000000000000000e+00 0.000000000000000e+00
0.000000000000000e+00 0.000000000000000e+00 0.000000000000000e+00
0.000000000000000e+00 0.000000000000000e+00 0.000000000000000e+00

0.000000000000000e+00 0.000000000000000e+00 0.000000000000000e+00
0.000000000000000e+00 0.000000000000000e+00 0.000000000000000e+00
0.000000000000000e+00 0.000000000000000e+00 0.000000000000000e+00

0.000000000000000e+00 0.000000000000000e+00 0.000000000000000e+00
0.000000000000000e+00 0.000000000000000e+00 0.000000000000000e+00
0.000000000000000e+00 0.000000000000000e+00 0.000000000000000e+00

0.000000000000000e+00 0.000000000000000e+00 0.000000000000000e+00
0.000000000000000e+00 0.000000000000000e+00 0.000000000000000e+00
0.000000000000000e+00 0.000000000000000e+00 0.000000000000000e+00

0.000000000000000e+00 0.000000000000000e+00 0.000000000000000e+00
0.000000000000000e+00 0.000000000000000e+00 0.000000000000000e+00
0.000000000000000e+00 0.000000000000000e+00 0.000000000000000e+00

0.000000000000000e+00 0.000000000000000e+00 0.000000000000000e+00
0.000000000000000e+00 0.000000000000000e+00 0.000000000000000e+00
0.000000000000000e+00 0.000000000000000e+00 0.000000000000000e+00

0.000000000000000e+00 0.000000000000000e+00 0.000000000000000e+00
0.000000000000000e+00 0.000000000000000e+00 0.000000000000000e+00
0.000000000000000e+00 0.000000000000000e+00 0.000000000000000e+00

0.000000000000000e+00 0.000000000000000e+00 0.000000000000000e+00
0.000000000000000e+00 0.000000000000000e+00 0.000000000000000e+00
0.000000000000000e+00 0.000000000000000e+00 0.000000000000000e+00

0.000000000000000e+00 0.000000000000000e+00 0.000000000000000e+00
0.000000000000000e+00 0.000000000000000e+00 0.000000000000000e+00
0.000000000000000e+00 0.000000000000000e+00 0.000000000000000e+00

0.000000000000000e+00 0.000000000000000e+00 0.000000000000000e+00
0.000000000000000e+00 0.000000000000000e+00 0.000000000000000e+00
0.000000000000000e+00 0.000000000000000e+00 0.000000000000000e+00

0.000000000000000e+00 0.000000000000000e+00 0.000000000000000e+00
0.000000000000000e+00 0.000000000000000e+00 0.000000000000000e+00
0.000000000000000e+00 0.000000000000000e+00 0.000000000000000e+00

0.000000000000000e+00 0.000000000000000e+00 0.000000000000000e+00
0.000000000000000e+00 0.000000000000000e+00 0.000000000000000e+00
0.000000000000000e+00 0.000000000000000e+00 0.000000000000000e+00

0.000000000000000e+00 0.000000000000000e+00 0.000000000000000e+00
0.000000000000000e+00 0.000000000000000e+00 0.000000000000000e+00
0.000000000000000e+00 0.000000000000000e+00 0.000000000000000e+00

0.000000000000000e+00 0.000000000000000e+00 0.000000000000000e+00
0.000000000000000e+00 0.000000000000000e+00 0.000000000000000e+00
0.000000000000000e+00 0.000000000000000e+00 0.000000000000000e+00

0.000000000000000e+00 0.000000000000000e+00 0.000000000000000e+00
0.000000000000000e+00 0.000000000000000e+00 0.000000000000000e+00
0.000000000000000e+00 0.000000000000000e+00 0.000000000000000e+00

0.000000000000000e+00 0.000000000000000e+00 0.000000000000000e+00
0.000000000000000e+00 0.000000000000000e+00 0.000000000000000e+00
0.000000000000000e+00 0.000000000000000e+00 0.000000000000000e+00

0.000000000000000e+00 0.000000000000000e+00 0.000000000000000e+00
0.000000000000000e+00 0.000000000000000e+00 0.000000000000000e+00
0.000000000000000e+00 0.000000000000000e+00 0.000000000000000e+00

0.000000000000000e+00 0.000000000000000e+00 0.000000000000000e+00
0.000000000000000e+00 0.000000000000000e+00 0.000000000000000e+00
0.000000000000000e+00 0.000000000000000e+00 0.000000000000000e+00

0.000000000000000e+00 0.000000000000000e+00 0.000000000000000e+00
0.000000000000000e+00 0.000000000000000e+00 0.000000000000000e+00
0.000000000000000e+00 0.000000000000000e+00 0.000000000000000e+00

0.000000000000000e+00 0.000000000000000e+00 0.000000000000000e+00
0.000000000000000e+00 0.000000000000000e+00 0.000000000000000e+00
0.000000000000000e+00 0.000000000000000e+00 0.000000000000000e+00

0.000000000000000e+00 0.000000000000000e+00 0.000000000000000e+00
0.000000000000000e+00 0.000000000000000e+00 0.000000000000000e+00
0.000000000000000e+00 0.000000000000000e+00 0.000000000000000e+00

0.000000000000000e+00 0.000000000000000e+00 0.000000000000000e+00
0.000000000000000e+00 0.000000000000000e+00 0.000000000000000e+00
0.000000000000000e+00 0.000000000000000e+00 0.000000000000000e+00

0.000000000000000e+00 0.000000000000000e+00 0.000000000000000e+00
0.000000000000000e+00 0.000000000000000e+00 0.000000000000000e+00
0.000000000000000e+00 0.000000000000000e+00 0.000000000000000e+00

0.000000000000000e+00 0.000000000000000e+00 0.000000000000000e+00
0.000000000000000e+00 0.000000000000000e+00 0.000000000000000e+00
0.000000000000000e+00 0.000000000000000e+00 0.000000000000000e+00

0.000000000000000e+00 0.000000000000000e+00 0.000000000000000e+00
0.000000000000000e+00 0.000000000000000e+00 0.000000000000000e+00
0.000000000000000e+00 0.000000000000000e+00 0.000000000000000e+00

0.000000000000000e+00 0.000000000000000e+00 0.000000000000000e+00
0.000000000000000e+00 0.000000000000000e+00 0.000000000000000e+00
0.000000000000000e+00 0.000000000000000e+00 0.000000000000000e+00

0.000000000000000e+00 0.000000000000000e+00 0.000000000000000e+00
0.000000000000000e+00 0.000000000000000e+00 0.000000000000000e+00
0.000000000000000e+00 0.000000000000000e+00 0.000000000000000e+00

0.000000000000000e+00 0.000000000000000e+00 0.000000000000000e+00
0.000000000000000e+00 0.000000000000000e+00 0.000000000000000e+00
0.000000000000000e+00 0.000000000000000e+00 0.000000000000000e+00

0.000000000000000e+00 0.000000000000000e+00 0.000000000000000e+00
0.000000000000000e+00 0.000000000000000e+00 0.000000000000000e+00
0.000000000000000e+00 0.000000000000000e+00 0.000000000000000e+00

0.000000000000000e+00 0.000000000000000e+00 0.000000000000000e+00
0.000000000000000e+00 0.000000000000000e+00 0.000000000000000e+00
0.000000000000000e+00 0.000000000000000e+00 0.000000000000000e+00

0.000000000000000e+00 0.000000000000000e+00 0.000000000000000e+00
0.000000000000000e+00 0.000000000000000e+00 0.000000000000000e+00
0.000000000000000e+00 0.000000000000000e+00 0.000000000000000e+00

0.000000000000000e+00 0.000000000000000e+00 0.000000000000000e+00
0.000000000000000e+00 0.000000000000000e+00 0.000000000000000e+00
0.000000000000000e+00 0.000000000000000e+00 0.000000000000000e+00

0.000000000000000e+00 0.000000000000000e+00 0.000000000000000e+00
0.000000000000000e+00 0.000000000000000e+00 0.000000000000000e+00
0.000000000000000e+00 0.000000000000000e+00 0.000000000000000e+00

0.000000000000000e+00 0.000000000000000e+00 0.000000000000000e+00
0.000000000000000e+00 0.000000000000000e+00 0.000000000000000e+00
0.000000000000000e+00 0.000000000000000e+00 0.000000000000000e+00

0.000000000000000e+00 0.000000000000000e+00 0.000000000000000e+00
0.000000000000000e+00 0.000000000000000e+00 0.000000000000000e+00
0.000000000000000e+00 0.000000000000000e+00 0.000000000000000e+00

0.000000000000000e+00 0.000000000000000e+00 0.000000000000000e+00
0.000000000000000e+00 0.000000000000000e+00 0.000000000000000e+00
0.000000000000000e+00 0.000000000000000e+00 0.000000000000000e+00

0.000000000000000e+00 0.000000000000000e+00 0.000000000000000e+00
0.000000000000000e+00 0.000000000000000e+00 0.000000000000000e+00
0.000000000000000e+00 0.000000000000000e+00 0.000000000000000e+00

0.000000000000000e+00 0.000000000000000e+00 0.000000000000000e+00
0.000000000000000e+00 0.000000000000000e+00 0.000000000000000e+00
0.000000000000000e+00 0.000000000000000e+00 0.000000000000000e+00

0.000000000000000e+00 0.000000000000000e+00 0.000000000000000e+00
0.000000000000000e+00 0.000000000000000e+00 0.000000000000000e+00
0.000000000000000e+00 0.000000000000000e+00 0.000000000000000e+00

0.000000000000000e+00 0.000000000000000e+00 0.000000000000000e+00
0.000000000000000e+00 0.000000000000000e+00 0.000000000000000e+00
0.000000000000000e+00 0.000000000000000e+00 0.000000000000000e+00

0.000000000000000e+00 0.000000000000000e+00 0.000000000000000e+00
0.000000000000000e+00 0.000000000000000e+00 0.000000000000000e+00
0.000000000000000e+00 0.000000000000000e+00 0.000000000000000e+00

0.000000000000000e+00 0.000000000000000e+00 0.000000000000000e+00
0.000000000000000e+00 0.000000000000000e+00 0.000000000000000e+00
0.000000000000000e+00 0.000000000000000e+00 0.000000000000000e+00

0.000000000000000e+00 0.000000000000000e+00 0.000000000000000e+00
0.000000000000000e+00 0.000000000000000e+00 0.000000000000000e+00
0.000000000000000e+00 0.000000000000000e+00 0.000000000000000e+00

0.000000000000000e+00 0.000000000000000e+00 0.000000000000000e+00
0.000000000000000e+00 0.000000000000000e+00 0.000000000000000e+00
0.000000000000000e+00 0.000000000000000e+00 0.000000000000000e+00

0.000000000000000e+00 0.000000000000000e+00 0.000000000000000e+00
0.000000000000000e+00 0.000000000000000e+00 0.000000000000000e+00
0.000000000000000e+00 0.000000000000000e+00 0.000000000000000e+00

0.000000000000000e+00 0.000000000000000e+00 0.000000000000000e+00
0.000000000000000e+00 0.000000000000000e+00 0.000000000000000e+00
0.000000000000000e+00 0.000000000000000e+00 0.000000000000000e+00

0.000000000000000e+00 0.000000000000000e+00 0.000000000000000e+00
0.000000000000000e+00 0.000000000000000e+00 0.000000000000000e+00
0.000000000000000e+00 0.000000000000000e+00 0.000000000000000e+00

0.000000000000000e+00 0.000000000000000e+00 0.000000000000000e+00
0.000000000000000e+00 0.000000000000000e+00 0.000000000000000e+00
0.000000000000000e+00 0.000000000000000e+00 0.000000000000000e+00

0.000000000000000e+00 0.000000000000000e+00 0.000000000000000e+00
0.000000000000000e+00 0.000000000000000e+00 0.000000000000000e+00
0.000000000000000e+00 0.000000000000000e+00 0.000000000000000e+00

0.000000000000000e+00 0.000000000000000e+00 0.000000000000000e+00
0.000000000000000e+00 0.000000000000000e+00 0.000000000000000e+00
0.000000000000000e+00 0.000000000000000e+00 0.000000000000000e+00

0.000000000000000e+00 0.000000000000000e+00 0.000000000000000e+00
0.000000000000000e+00 0.000000000000000e+00 0.000000000000000e+00
0.000000000000000e+00 0.000000000000000e+00 0.000000000000000e+00

0.000000000000000e+00 0.000000000000000e+00 0.000000000000000e+00
0.000000000000000e+00 0.000000000000000e+00 0.000000000000000e+00
0.000000000000000e+00 0.000000000000000e+00 0.000000000000000e+00

0.000000000000000e+00 0.000000000000000e+00 0.000000000000000e+00
0.000000000000000e+00 0.000000000000000e+00 0.000000000000000e+00
0.000000000000000e+00 0.000000000000000e+00 0.000000000000000e+00

0.000000000000000e+00 0.000000000000000e+00 0.000000000000000e+00
0.000000000000000e+00 0.000000000000000e+00 0.000000000000000e+00
0.000000000000000e+00 0.000000000000000e+00 0.000000000000000e+00

0.000000000000000e+00 0.000000000000000e+00 0.000000000000000e+00
0.000000000000000e+00 0.000000000000000e+00 0.000000000000000e+00
0.000000000000000e+00 0.000000000000000e+00 0.000000000000000e+00

0.000000000000000e+00 0.000000000000000e+00 0.000000000000000e+00
0.000000000000000e+00 0.000000000000000e+00 0.000000000000000e+00
0.000000000000000e+00 0.000000000000000e+00 0.000000000000000e+00

0.000000000000000e+00 0.000000000000000e+00 0.000000000000000e+00
0.000000000000000e+00 0.000000000000000e+00 0.000000000000000e+00
0.000000000000000e+00 0.000000000000000e+00 0.000000000000000e+00

0.000000000000000e+00 0.000000000000000e+00 0.000000000000000e+00
0.000000000000000e+00 0.000000000000000e+00 0.000000000000000e+00
0.000000000000000e+00 0.000000000000000e+00 0.000000000000000e+00

0.000000000000000e+00 0.000000000000000e+00 0.000000000000000e+00
0.000000000000000e+00 0.000000000000000e+00 0.000000000000000e+00
0.000000000000000e+00 0.000000000000000e+00 0.000000000000000e+00

0.000000000000000e+00 0.000000000000000e+00 0.000000000000000e+00
0.000000000000000e+00 0.000000000000000e+00 0.000000000000000e+00
0.000000000000000e+00 0.000000000000000e+00 0.000000000000000e+00

0.000000000000000e+00 0.000000000000000e+00 0.000000000000000e+00
0.000000000000000e+00 0.000000000000000e+00 0.000000000000000e+00
0.000000000000000e+00 0.000000000000000e+00 0.000000000000000e+00

0.000000000000000e+00 0.000000000000000e+00 0.000000000000000e+00
0.000000000000000e+00 0.000000000000000e+00 0.000000000000000e+00
0.000000000000000e+00 0.000000000000000e+00 0.000000000000000e+00

0.000000000000000e+00 0.000000000000000e+00 0.000000000000000e+00
0.000000000000000e+00 0.000000000000000e+00 0.000000000000000e+00
0.000000000000000e+00 0.000000000000000e+00 0.000000000000000e+00

0.000000000000000e+00 0.000000000000000e+00 0.000000000000000e+00
0.000000000000000e+00 0.000000000000000e+00 0.000000000000000e+00
0.000000000000000e+00 0.000000000000000e+00 0.000000000000000e+00

0.000000000000000e+00 0.000000000000000e+00 0.000000000000000e+00
0.000000000000000e+00 0.000000000000000e+00 0.000000000000000e+00
0.000000000000000e+00 0.000000000000000e+00 0.000000000000000e+00

0.000000000000000e+00 0.000000000000000e+00 0.000000000000000e+00
0.000000000000000e+00 0.000000000000000e+00 0.000000000000000e+00
0.000000000000000e+00 0.000000000000000e+00 0.000000000000000e+00

0.000000000000000e+00 0.000000000000000e+00 0.000000000000000e+00
0.000000000000000e+00 0.000000000000000e+00 0.000000000000000e+00
0.000000000000000e+00 0.000000000000000e+00 0.000000000000000e+00

0.000000000000000e+00 0.000000000000000e+00 0.000000000000000e+00
0.000000000000000e+00 0.000000000000000e+00 0.000000000000000e+00
0.000000000000000e+00 0.000000000000000e+00 0.000000000000000e+00

0.000000000000000e+00 0.000000000000000e+00 0.000000000000000e+00
0.000000000000000e+00 0.000000000000000e+00 0.000000000000000e+00
0.000000000000000e+00 0.000000000000000e+00 0.000000000000000e+00

0.000000000000000e+00 0.000000000000000e+00 0.000000000000000e+00
0.000000000000000e+00 0.000000000000000e+00 0.000000000000000e+00
0.000000000000000e+00 0.000000000000000e+00 0.000000000000000e+00

0.000000000000000e+00 0.000000000000000e+00 0.000000000000000e+00
0.000000000000000e+00 0.000000000000000e+00 0.000000000000000e+00
0.000000000000000e+00 0.000000000000000e+00 0.000000000000000e+00

0.000000000000000e+00 0.000000000000000e+00 0.000000000000000e+00
0.000000000000000e+00 0.000000000000000e+00 0.000000000000000e+00
0.000000000000000e+00 0.000000000000000e+00 0.000000000000000e+00

0.000000000000000e+00 0.000000000000000e+00 0.000000000000000e+00
0.000000000000000e+00 0.000000000000000e+00 0.000000000000000e+00
0.000000000000000e+00 0.000000000000000e+00 0.000000000000000e+00

0.000000000000000e+00 0.000000000000000e+00 0.000000000000000e+00
0.000000000000000e+00 0.000000000000000e+00 0.000000000000000e+00
0.000000000000000e+00 0.000000000000000e+00 0.000000000000000e+00

0.000000000000000e+00 0.000000000000000e+00 0.000000000000000e+00
0.000000000000000e+00 0.000000000000000e+00 0.000000000000000e+00
0.000000000000000e+00 0.000000000000000e+00 0.000000000000000e+00

0.000000000000000e+00 0.000000000000000e+00 0.000000000000000e+00
0.000000000000000e+00 0.000000000000000e+00 0.000000000000000e+00
0.000000000000000e+00 0.000000000000000e+00 0.000000000000000e+00

0.000000000000000e+00 0.000000000000000e+00 0.000000000000000e+00
0.000000000000000e+00 0.000000000000000e+00 0.000000000000000e+00
0.000000000000000e+00 0.000000000000000e+00 0.000000000000000e+00

0.000000000000000e+00 0.000000000000000e+00 0.000000000000000e+00
0.000000000000000e+00 0.000000000000000e+00 0.000000000000000e+00
0.000000000000000e+00 0.000000000000000e+00 0.000000000000000e+00

0.000000000000000e+00 0.000000000000000e+00 0.000000000000000e+00
0.000000000000000e+00 0.000000000000000e+00 0.000000000000000e+00
0.000000000000000e+00 0.000000000000000e+00 0.000000000000000e+00

0.000000000000000e+00 0.000000000000000e+00 0.000000000000000e+00
0.000000000000000e+00 0.000000000000000e+00 0.000000000000000e+00
0.000000000000000e+00 0.000000000000000e+00 0.000000000000000e+00

0.000000000000000e+00 0.000000000000000e+00 0.000000000000000e+00
0.000000000000000e+00 0.000000000000000e+00 0.000000000000000e+00
0.000000000000000e+00 0.000000000000000e+00 0.000000000000000e+00

0.000000000000000e+00 0.000000000000000e+00 0.000000000000000e+00
0.000000000000000e+00 0.000000000000000e+00 0.000000000000000e+00
0.000000000000000e+00 0.000000000000000e+00 0.000000000000000e+00

0.000000000000000e+00 0.000000000000000e+00 0.000000000000000e+00
0.000000000000000e+00 0.000000000000000e+00 0.000000000000000e+00
0.000000000000000e+00 0.000000000000000e+00 0.000000000000000e+00

0.000000000000000e+00 0.000000000000000e+00 0.000000000000000e+00
0.000000000000000e+00 0.000000000000000e+00 0.000000000000000e+00
0.000000000000000e+00 0.000000000000000e+00 0.000000000000000e+00

0.000000000000000e+00 0.000000000000000e+00 0.000000000000000e+00
0.000000000000000e+00 0.000000000000000e+00 0.000000000000000e+00
0.000000000000000e+00 0.000000000000000e+00 0.000000000000000e+00

0.000000000000000e+00 0.000000000000000e+00 0.000000000000000e+00
0.000000000000000e+00 0.000000000000000e+00 0.000000000000000e+00
0.000000000000000e+00 0.000000000000000e+00 0.000000000000000e+00

0.000000000000000e+00 0.000000000000000e+00 0.000000000000000e+00
0.000000000000000e+00 0.000000000000000e+00 0.000000000000000e+00
0.000000000000000e+00 0.000000000000000e+00 0.000000000000000e+00

0.000000000000000e+00 0.000000000000000e+00 0.000000000000000e+00
0.000000000000000e+00 0.000000000000000e+00 0.000000000000000e+00
0.000000000000000e+00 0.000000000000000e+00 0.000000000000000e+00

0.000000000000000e+00 0.000000000000000e+00 0.000000000000000e+00
0.000000000000000e+00 0.000000000000000e+00 0.000000000000000e+00
0.000000000000000e+00 0.000000000000000e+00 0.000000000000000e+00

0.000000000000000e+00 0.000000000000000e+00 0.000000000000000e+00
0.000000000000000e+00 0.000000000000000e+00 0.000000000000000e+00
0.000000000000000e+00 0.000000000000000e+00 0.000000000000000e+00

0.000000000000000e+00 0.000000000000000e+00 0.000000000000000e+00
0.000000000000000e+00 0.000000000000000e+00 0.000000000000000e+00
0.000000000000000e+00 0.000000000000000e+00 0.000000000000000e+00

0.000000000000000e+00 0.000000000000000e+00 0.000000000000000e+00
0.000000000000000e+00 0.000000000000000e+00 0.000000000000000e+00
0.000000000000000e+00 0.000000000000000e+00 0.000000000000000e+00

0.000000000000000e+00 0.000000000000000e+00 0.000000000000000e+00
0.000000000000000e+00 0.000000000000000e+00 0.000000000000000e+00
0.000000000000000e+00 0.000000000000000e+00 0.000000000000000e+00

0.000000000000000e+00 0.000000000000000e+00 0.000000000000000e+00
0.000000000000000e+00 0.000000000000000e+00 0.000000000000000e+00
0.000000000000000e+00 0.000000000000000e+00 0.000000000000000e+00

0.000000000000000e+00 0.000000000000000e+00 0.000000000000000e+00
0.000000000000000e+00 0.000000000000000e+00 0.000000000000000e+00
0.000000000000000e+00 0.000000000000000e+00 0.000000000000000e+00

0.000000000000000e+00 0.000000000000000e+00 0.000000000000000e+00
0.000000000000000e+00 0.000000000000000e+00 0.000000000000000e+00
0.000000000000000e+00 0.000000000000000e+00 0.000000000000000e+00

0.000000000000000e+00 0.000000000000000e+00 0.000000000000000e+00
0.000000000000000e+00 0.000000000000000e+00 0.000000000000000e+00
0.000000000000000e+00 0.000000000000000e+00 0.000000000000000e+00

0.000000000000000e+00 0.000000000000000e+00 0.000000000000000e+00
0.000000000000000e+00 0.000000000000000e+00 0.000000000000000e+00
0.000000000000000e+00 0.000000000000000e+00 0.000000000000000e+00

0.000000000000000e+00 0.000000000000000e+00 0.000000000000000e+00
0.000000000000000e+00 0.000000000000000e+00 0.000000000000000e+00
0.000000000000000e+00 0.000000000000000e+00 0.000000000000000e+00

0.000000000000000e+00 0.000000000000000e+00 0.000000000000000e+00
0.000000000000000e+00 0.000000000000000e+00 0.000000000000000e+00
0.000000000000000e+00 0.000000000000000e+00 0.000000000000000e+00

0.000000000000000e+00 0.000000000000000e+00 0.000000000000000e+00
0.000000000000000e+00 0.000000000000000e+00 0.000000000000000e+00
0.000000000000000e+00 0.000000000000000e+00 0.000000000000000e+00

0.000000000000000e+00 0.000000000000000e+00 0.000000000000000e+00
0.000000000000000e+00 0.000000000000000e+00 0.000000000000000e+00
0.000000000000000e+00 0.000000000000000e+00 0.000000000000000e+00

0.000000000000000e+00 0.000000000000000e+00 0.000000000000000e+00
0.000000000000000e+00 0.000000000000000e+00 0.000000000000000e+00
0.000000000000000e+00 0.000000000000000e+00 0.000000000000000e+00

0.000000000000000e+00 0.000000000000000e+00 0.000000000000000e+00
0.000000000000000e+00 0.000000000000000e+00 0.000000000000000e+00
0.000000000000000e+00 0.000000000000000e+00 0.000000000000000e+00

0.000000000000000e+00 0.000000000000000e+00 0.000000000000000e+00
0.000000000000000e+00 0.000000000000000e+00 0.000000000000000e+00
0.000000000000000e+00 0.000000000000000e+00 0.000000000000000e+00

0.000000000000000e+00 0.000000000000000e+00 0.000000000000000e+00
0.000000000000000e+00 0.000000000000000e+00 0.000000000000000e+00
0.000000000000000e+00 0.000000000000000e+00 0.000000000000000e+00

0.000000000000000e+00 0.000000000000000e+00 0.000000000000000e+00
0.000000000000000e+00 0.000000000000000e+00 0.000000000000000e+00
0.000000000000000e+00 0.000000000000000e+00 0.000000000000000e+00

0.000000000000000e+00 0.000000000000000e+00 0.000000000000000e+00
0.000000000000000e+00 0.000000000000000e+00 0.000000000000000e+00
0.000000000000000e+00 0.000000000000000e+00 0.000000000000000e+00

0.000000000000000e+00 0.000000000000000e+00 0.000000000000000e+00
0.000000000000000e+00 0.000000000000000e+00 0.000000000000000e+00
0.000000000000000e+00 0.000000000000000e+00 0.000000000000000e+00

0.000000000000000e+00 0.000000000000000e+00 0.000000000000000e+00
0.000000000000000e+00 0.000000000000000e+00 0.000000000000000e+00
0.000000000000000e+00 0.000000000000000e+00 0.000000000000000e+00

0.000000000000000e+00 0.000000000000000e+00 0.000000000000000e+00
0.000000000000000e+00 0.000000000000000e+00 0.000000000000000e+00
0.000000000000000e+00 0.000000000000000e+00 0.000000000000000e+00

0.000000000000000e+00 0.000000000000000e+00 0.000000000000000e+00
0.000000000000000e+00 0.000000000000000e+00 0.000000000000000e+00
0.000000000000000e+00 0.000000000000000e+00 0.000000000000000e+00

0.000000000000000e+00 0.000000000000000e+00 0.000000000000000e+00
0.000000000000000e+00 0.000000000000000e+00 0.000000000000000e+00
0.000000000000000e+00 0.000000000000000e+00 0.000000000000000e+00

0.000000000000000e+00 0.000000000000000e+00 0.000000000000000e+00
0.000000000000000e+00 0.000000000000000e+00 0.000000000000000e+00
0.000000000000000e+00 0.000000000000000e+00 0.000000000000000e+00

0.000000000000000e+00 0.000000000000000e+00 0.000000000000000e+00
0.000000000000000e+00 0.000000000000000e+00 0.000000000000000e+00
0.000000000000000e+00 0.000000000000000e+00 0.000000000000000e+00

0.000000000000000e+00 0.000000000000000e+00 0.000000000000000e+00
0.000000000000000e+00 0.000000000000000e+00 0.000000000000000e+00
0.000000000000000e+00 0.000000000000000e+00 0.000000000000000e+00

0.000000000000000e+00 0.000000000000000e+00 0.000000000000000e+00
0.000000000000000e+00 0.000000000000000e+00 0.000000000000000e+00
0.000000000000000e+00 0.000000000000000e+00 0.000000000000000e+00

0.000000000000000e+00 0.000000000000000e+00 0.000000000000000e+00
0.000000000000000e+00 0.000000000000000e+00 0.000000000000000e+00
0.000000000000000e+00 0.000000000000000e+00 0.000000000000000e+00

0.000000000000000e+00 0.000000000000000e+00 0.000000000000000e+00
0.000000000000000e+00 0.000000000000000e+00 0.000000000000000e+00
0.000000000000000e+00 0.000000000000000e+00 0.000000000000000e+00

0.000000000000000e+00 0.000000000000000e+00 0.000000000000000e+00
0.000000000000000e+00 0.000000000000000e+00 0.000000000000000e+00
0.000000000000000e+00 0.000000000000000e+00 0.000000000000000e+00

0.000000000000000e+00 0.000000000000000e+00 0.000000000000000e+00
0.000000000000000e+00 0.000000000000000e+00 0.000000000000000e+00
0.000000000000000e+00 0.000000000000000e+00 0.000000000000000e+00

0.000000000000000e+00 0.000000000000000e+00 0.000000000000000e+00
0.000000000000000e+00 0.000000000000000e+00 0.000000000000000e+00
0.000000000000000e+00 0.000000000000000e+00 0.000000000000000e+00

0.000000000000000e+00 0.000000000000000e+00 0.000000000000000e+00
0.000000000000000e+00 0.000000000000000e+00 0.000000000000000e+00
0.000000000000000e+00 0.000000000000000e+00 0.000000000000000e+00

0.000000000000000e+00 0.000000000000000e+00 0.000000000000000e+00
0.000000000000000e+00 0.000000000000000e+00 0.000000000000000e+00
0.000000000000000e+00 0.000000000000000e+00 0.000000000000000e+00

0.000000000000000e+00 0.000000000000000e+00 0.000000000000000e+00
0.000000000000000e+00 0.000000000000000e+00 0.000000000000000e+00
0.000000000000000e+00 0.000000000000000e+00 0.000000000000000e+00

0.000000000000000e+00 0.000000000000000e+00 0.000000000000000e+00
0.000000000000000e+00 0.000000000000000e+00 0.000000000000000e+00
0.000000000000000e+00 0.000000000000000e+00 0.000000000000000e+00

0.000000000000000e+00 0.000000000000000e+00 0.000000000000000e+00
0.000000000000000e+00 0.000000000000000e+00 0.000000000000000e+00
0.000000000000000e+00 0.000000000000000e+00 0.000000000000000e+00

0.000000000000000e+00 0.000000000000000e+00 0.000000000000000e+00
0.000000000000000e+00 0.000000000000000e+00 0.000000000000000e+00
0.000000000000000e+00 0.000000000000000e+00 0.000000000000000e+00

0.000000000000000e+00 0.000000000000000e+00 0.000000000000000e+00
0.000000000000000e+00 0.000000000000000e+00 0.000000000000000e+00
0.000000000000000e+00 0.000000000000000e+00 0.000000000000000e+00

0.000000000000000e+00 0.000000000000000e+00 0.000000000000000e+00
0.000000000000000e+00 0.000000000000000e+00 0.000000000000000e+00
0.000000000000000e+00 0.000000000000000e+00 0.000000000000000e+00

0.000000000000000e+00 0.000000000000000e+00 0.000000000000000e+00
0.000000000000000e+00 0.000000000000000e+00 0.000000000000000e+00
0.000000000000000e+00 0.000000000000000e+00 0.000000000000000e+00

0.000000000000000e+00 0.000000000000000e+00 0.000000000000000e+00
0.000000000000000e+00 0.000000000000000e+00 0.000000000000000e+00
0.000000000000000e+00 0.000000000000000e+00 0.000000000000000e+00

0.000000000000000e+00 0.000000000000000e+00 0.000000000000000e+00
0.000000000000000e+00 0.000000000000000e+00 0.000000000000000e+00
0.000000000000000e+00 0.000000000000000e+00 0.000000000000000e+00

0.000000000000000e+00 0.000000000000000e+00 0.000000000000000e+00
0.000000000000000e+00 0.000000000000000e+00 0.000000000000000e+00
0.000000000000000e+00 0.000000000000000e+00 0.000000000000000e+00

0.000000000000000e+00 0.000000000000000e+00 0.000000000000000e+00
0.000000000000000e+00 0.000000000000000e+00 0.000000000000000e+00
0.000000000000000e+00 0.000000000000000e+00 0.000000000000000e+00

0.000000000000000e+00 0.000000000000000e+00 0.000000000000000e+00
0.000000000000000e+00 0.000000000000000e+00 0.000000000000000e+00
0.000000000000000e+00 0.000000000000000e+00 0.000000000000000e+00

0.000000000000000e+00 0.000000000000000e+00 0.000000000000000e+00
0.000000000000000e+00 0.000000000000000e+00 0.000000000000000e+00
0.000000000000000e+00 0.000000000000000e+00 0.000000000000000e+00

0.000000000000000e+00 0.000000000000000e+00 0.000000000000000e+00
0.000000000000000e+00 0.000000000000000e+00 0.000000000000000e+00
0.000000000000000e+00 0.000000000000000e+00 0.000000000000000e+00

0.000000000000000e+00 0.000000000000000e+00 0.000000000000000e+00
0.000000000000000e+00 0.000000000000000e+00 0.000000000000000e+00
0.000000000000000e+00 0.000000000000000e+00 0.000000000000000e+00

0.000000000000000e+00 0.000000000000000e+00 0.000000000000000e+00
0.000000000000000e+00 0.000000000000000e+00 0.000000000000000e+00
0.000000000000000e+00 0.000000000000000e+00 0.000000000000000e+00

0.000000000000000e+00 0.000000000000000e+00 0.000000000000000e+00
0.000000000000000e+00 0.000000000000000e+00 0.000000000000000e+00
0.000000000000000e+00 0.000000000000000e+00 0.000000000000000e+00

0.000000000000000e+00 0.000000000000000e+00 0.000000000000000e+00
0.000000000000000e+00 0.000000000000000e+00 0.000000000000000e+00
0.000000000000000e+00 0.000000000000000e+00 0.000000000000000e+00

0.000000000000000e+00 0.000000000000000e+00 0.000000000000000e+00
0.000000000000000e+00 0.000000000000000e+00 0.000000000000000e+00
0.000000000000000e+00 0.000000000000000e+00 0.000000000000000e+00

0.000000000000000e+00 0.000000000000000e+00 0.000000000000000e+00
0.000000000000000e+00 0.000000000000000e+00 0.000000000000000e+00
0.000000000000000e+00 0.000000000000000e+00 0.000000000000000e+00

0.000000000000000e+00 0.000000000000000e+00 0.000000000000000e+00
0.000000000000000e+00 0.000000000000000e+00 0.000000000000000e+00
0.000000000000000e+00 0.000000000000000e+00 0.000000000000000e+00

0.000000000000000e+00 0.000000000000000e+00 0.000000000000000e+00
0.000000000000000e+00 0.000000000000000e+00 0.000000000000000e+00
0.000000000000000e+00 0.000000000000000e+00 0.000000000000000e+00

0.000000000000000e+00 0.000000000000000e+00 0.000000000000000e+00
0.000000000000000e+00 0.000000000000000e+00 0.000000000000000e+00
0.000000000000000e+00 0.000000000000000e+00 0.000000000000000e+00

0.000000000000000e+00 0.000000000000000e+00 0.000000000000000e+00
0.000000000000000e+00 0.000000000000000e+00 0.000000000000000e+00
0.000000000000000e+00 0.000000000000000e+00 0.000000000000000e+00

0.000000000000000e+00 0.000000000000000e+00 0.000000000000000e+00
0.000000000000000e+00 0.000000000000000e+00 0.000000000000000e+00
0.000000000000000e+00 0.000000000000000e+00 0.000000000000000e+00

0.000000000000000e+00 0.000000000000000e+00 0.000000000000000e+00
0.000000000000000e+00 0.000000000000000e+00 0.000000000000000e+00
0.000000000000000e+00 0.000000000000000e+00 0.000000000000000e+00

0.000000000000000e+00 0.000000000000000e+00 0.000000000000000e+00
0.000000000000000e+00 0.000000000000000e+00 0.000000000000000e+00
0.000000000000000e+00 0.000000000000000e+00 0.000000000000000e+00

0.000000000000000e+00 0.000000000000000e+00 0.000000000000000e+00
0.000000000000000e+00 0.000000000000000e+00 0.000000000000000e+00
0.000000000000000e+00 0.000000000000000e+00 0.000000000000000e+00

0.000000000000000e+00 0.000000000000000e+00 0.000000000000000e+00
0.000000000000000e+00 0.000000000000000e+00 0.000000000000000e+00
0.000000000000000e+00 0.000000000000000e+00 0.000000000000000e+00

0.000000000000000e+00 0.000000000000000e+00 0.000000000000000e+00
0.000000000000000e+00 0.000000000000000e+00 0.000000000000000e+00
0.000000000000000e+00 0.000000000000000e+00 0.000000000000000e+00

0.000000000000000e+00 0.000000000000000e+00 0.000000000000000e+00
0.000000000000000e+00 0.000000000000000e+00 0.000000000000000e+00
0.000000000000000e+00 0.000000000000000e+00 0.000000000000000e+00

0.000000000000000e+00 0.000000000000000e+00 0.000000000000000e+00
0.000000000000000e+00 0.000000000000000e+00 0.000000000000000e+00
0.000000000000000e+00 0.000000000000000e+00 0.000000000000000e+00

0.000000000000000e+00 0.000000000000000e+00 0.000000000000000e+00
0.000000000000000e+00 0.000000000000000e+00 0.000000000000000e+00
0.000000000000000e+00 0.000000000000000e+00 0.000000000000000e+00

0.000000000000000e+00 0.000000000000000e+00 0.000000000000000e+00
0.000000000000000e+00 0.000000000000000e+00 0.000000000000000e+00
0.000000000000000e+00 0.000000000000000e+00 0.000000000000000e+00

0.000000000000000e+00 0.000000000000000e+00 0.000000000000000e+00
0.000000000000000e+00 0.000000000000000e+00 0.000000000000000e+00
0.000000000000000e+00 0.000000000000000e+00 0.000000000000000e+00

0.000000000000000e+00 0.000000000000000e+00 0.000000000000000e+00
0.000000000000000e+00 0.000000000000000e+00 0.000000000000000e+00
0.000000000000000e+00 0.000000000000000e+00 0.000000000000000e+00

0.000000000000000e+00 0.000000000000000e+00 0.000000000000000e+00
0.000000000000000e+00 0.000000000000000e+00 0.000000000000000e+00
0.000000000000000e+00 0.000000000000000e+00 0.000000000000000e+00

0.000000000000000e+00 0.000000000000000e+00 0.000000000000000e+00
0.000000000000000e+00 0.000000000000000e+00 0.000000000000000e+00
0.000000000000000e+00 0.000000000000000e+00 0.000000000000000e+00

0.000000000000000e+00 0.000000000000000e+00 0.000000000000000e+00
0.000000000000000e+00 0.000000000000000e+00 0.000000000000000e+00
0.000000000000000e+00 0.000000000000000e+00 0.000000000000000e+00

0.000000000000000e+00 0.000000000000000e+00 0.000000000000000e+00
0.000000000000000e+00 0.000000000000000e+00 0.000000000000000e+00
0.000000000000000e+00 0.000000000000000e+00 0.000000000000000e+00

0.000000000000000e+00 0.000000000000000e+00 0.000000000000000e+00
0.000000000000000e+00 0.000000000000000e+00 0.000000000000000e+00
0.000000000000000e+00 0.000000000000000e+00 0.000000000000000e+00

0.000000000000000e+00 0.000000000000000e+00 0.000000000000000e+00
0.000000000000000e+00 0.000000000000000e+00 0.000000000000000e+00
0.000000000000000e+00 0.000000000000000e+00 0.000000000000000e+00

0.000000000000000e+00 0.000000000000000e+00 0.000000000000000e+00
0.000000000000000e+00 0.000000000000000e+00 0.000000000000000e+00
0.000000000000000e+00 0.000000000000000e+00 0.000000000000000e+00

0.000000000000000e+00 0.000000000000000e+00 0.000000000000000e+00
0.000000000000000e+00 0.000000000000000e+00 0.000000000000000e+00
0.000000000000000e+00 0.000000000000000e+00 0.000000000000000e+00

0.000000000000000e+00 0.000000000000000e+00 0.000000000000000e+00
0.000000000000000e+00 0.000000000000000e+00 0.000000000000000e+00
0.000000000000000e+00 0.000000000000000e+00 0.000000000000000e+00

0.000000000000000e+00 0.000000000000000e+00 0.000000000000000e+00
0.000000000000000e+00 0.000000000000000e+00 0.000000000000000e+00
0.000000000000000e+00 0.000000000000000e+00 0.000000000000000e+00

0.000000000000000e+00 0.000000000000000e+00 0.000000000000000e+00
0.000000000000000e+00 0.000000000000000e+00 0.000000000000000e+00
0.000000000000000e+00 0.000000000000000e+00 0.000000000000000e+00

0.000000000000000e+00 0.000000000000000e+00 0.000000000000000e+00
0.000000000000000e+00 0.000000000000000e+00 0.000000000000000e+00
0.000000000000000e+00 0.000000000000000e+00 0.000000000000000e+00

0.000000000000000e+00 0.000000000000000e+00 0.000000000000000e+00
0.000000000000000e+00 0.000000000000000e+00 0.000000000000000e+00
0.000000000000000e+00 0.000000000000000e+00 0.000000000000000e+00

0.000000000000000e+00 0.000000000000000e+00 0.000000000000000e+00
0.000000000000000e+00 0.000000000000000e+00 0.000000000000000e+00
0.000000000000000e+00 0.000000000000000e+00 0.000000000000000e+00

0.000000000000000e+00 0.000000000000000e+00 0.000000000000000e+00
0.000000000000000e+00 0.000000000000000e+00 0.000000000000000e+00
0.000000000000000e+00 0.000000000000000e+00 0.000000000000000e+00

0.000000000000000e+00 0.000000000000000e+00 0.000000000000000e+00
0.000000000000000e+00 0.000000000000000e+00 0.000000000000000e+00
0.000000000000000e+00 0.000000000000000e+00 0.000000000000000e+00

0.000000000000000e+00 0.000000000000000e+00 0.000000000000000e+00
0.000000000000000e+00 0.000000000000000e+00 0.000000000000000e+00
0.000000000000000e+00 0.000000000000000e+00 0.000000000000000e+00

0.000000000000000e+00 0.000000000000000e+00 0.000000000000000e+00
0.000000000000000e+00 0.000000000000000e+00 0.000000000000000e+00
0.000000000000000e+00 0.000000000000000e+00 0.000000000000000e+00

0.000000000000000e+00 0.000000000000000e+00 0.000000000000000e+00
0.000000000000000e+00 0.000000000000000e+00 0.000000000000000e+00
0.000000000000000e+00 0.000000000000000e+00 0.000000000000000e+00

0.000000000000000e+00 0.000000000000000e+00 0.000000000000000e+00
0.000000000000000e+00 0.000000000000000e+00 0.000000000000000e+00
0.000000000000000e+00 0.000000000000000e+00 0.000000000000000e+00

0.000000000000000e+00 0.000000000000000e+00 0.000000000000000e+00
0.000000000000000e+00 0.000000000000000e+00 0.000000000000000e+00
0.000000000000000e+00 0.000000000000000e+00 0.000000000000000e+00

0.000000000000000e+00 0.000000000000000e+00 0.000000000000000e+00
0.000000000000000e+00 0.000000000000000e+00 0.000000000000000e+00
0.000000000000000e+00 0.000000000000000e+00 0.000000000000000e+00

0.000000000000000e+00 0.000000000000000e+00 0.000000000000000e+00
0.000000000000000e+00 0.000000000000000e+00 0.000000000000000e+00
0.000000000000000e+00 0.000000000000000e+00 0.000000000000000e+00

0.000000000000000e+00 0.000000000000000e+00 0.000000000000000e+00
0.000000000000000e+00 0.000000000000000e+00 0.000000000000000e+00
0.000000000000000e+00 0.000000000000000e+00 0.000000000000000e+00

0.000000000000000e+00 0.000000000000000e+00 0.000000000000000e+00
0.000000000000000e+00 0.000000000000000e+00 0.000000000000000e+00
0.000000000000000e+00 0.000000000000000e+00 0.000000000000000e+00

0.000000000000000e+00 0.000000000000000e+00 0.000000000000000e+00
0.000000000000000e+00 0.000000000000000e+00 0.000000000000000e+00
0.000000000000000e+00 0.000000000000000e+00 0.000000000000000e+00

0.000000000000000e+00 0.000000000000000e+00 0.000000000000000e+00
0.000000000000000e+00 0.000000000000000e+00 0.000000000000000e+00
0.000000000000000e+00 0.000000000000000e+00 0.000000000000000e+00

0.000000000000000e+00 0.000000000000000e+00 0.000000000000000e+00
0.000000000000000e+00 0.000000000000000e+00 0.000000000000000e+00
0.000000000000000e+00 0.000000000000000e+00 0.000000000000000e+00

0.000000000000000e+00 0.000000000000000e+00 0.000000000000000e+00
0.000000000000000e+00 0.000000000000000e+00 0.000000000000000e+00
0.000000000000000e+00 0.000000000000000e+00 0.000000000000000e+00

0.000000000000000e+00 0.000000000000000e+00 0.000000000000000e+00
0.000000000000000e+00 0.000000000000000e+00 0.000000000000000e+00
0.000000000000000e+00 0.000000000000000e+00 0.000000000000000e+00

0.000000000000000e+00 0.000000000000000e+00 0.000000000000000e+00
0.000000000000000e+00 0.000000000000000e+00 0.000000000000000e+00
0.000000000000000e+00 0.000000000000000e+00 0.000000000000000e+00

0.000000000000000e+00 0.000000000000000e+00 0.000000000000000e+00
0.000000000000000e+00 0.000000000000000e+00 0.000000000000000e+00
0.000000000000000e+00 0.000000000000000e+00 0.000000000000000e+00

0.000000000000000e+00 0.000000000000000e+00 0.000000000000000e+00
0.000000000000000e+00 0.000000000000000e+00 0.000000000000000e+00
0.000000000000000e+00 0.000000000000000e+00 0.000000000000000e+00

0.000000000000000e+00 0.000000000000000e+00 0.000000000000000e+00
0.000000000000000e+00 0.000000000000000e+00 0.000000000000000e+00
0.000000000000000e+00 0.000000000000000e+00 0.000000000000000e+00

0.000000000000000e+00 0.000000000000000e+00 0.000000000000000e+00
0.000000000000000e+00 0.000000000000000e+00 0.000000000000000e+00
0.000000000000000e+00 0.000000000000000e+00 0.000000000000000e+00

0.000000000000000e+00 0.000000000000000e+00 0.000000000000000e+00
0.000000000000000e+00 0.000000000000000e+00 0.000000000000000e+00
0.000000000000000e+00 0.000000000000000e+00 0.000000000000000e+00

0.000000000000000e+00 0.000000000000000e+00 0.000000000000000e+00
0.000000000000000e+00 0.000000000000000e+00 0.000000000000000e+00
0.000000000000000e+00 0.000000000000000e+00 0.000000000000000e+00

0.000000000000000e+00 0.000000000000000e+00 0.000000000000000e+00
0.000000000000000e+00 0.000000000000000e+00 0.000000000000000e+00
0.000000000000000e+00 0.000000000000000e+00 0.000000000000000e+00

0.000000000000000e+00 0.000000000000000e+00 0.000000000000000e+00
0.000000000000000e+00 0.000000000000000e+00 0.000000000000000e+00
0.000000000000000e+00 0.000000000000000e+00 0.000000000000000e+00

0.000000000000000e+00 0.000000000000000e+00 0.000000000000000e+00
0.000000000000000e+00 0.000000000000000e+00 0.000000000000000e+00
0.000000000000000e+00 0.000000000000000e+00 0.000000000000000e+00

0.000000000000000e+00 0.000000000000000e+00 0.000000000000000e+00
0.000000000000000e+00 0.000000000000000e+00 0.000000000000000e+00
0.000000000000000e+00 0.000000000000000e+00 0.000000000000000e+00

0.000000000000000e+00 0.000000000000000e+00 0.000000000000000e+00
0.000000000000000e+00 0.000000000000000e+00 0.000000000000000e+00
0.000000000000000e+00 0.000000000000000e+00 0.000000000000000e+00

0.000000000000000e+00 0.000000000000000e+00 0.000000000000000e+00
0.000000000000000e+00 0.000000000000000e+00 0.000000000000000e+00
0.000000000000000e+00 0.000000000000000e+00 0.000000000000000e+00

0.000000000000000e+00 0.000000000000000e+00 0.000000000000000e+00
0.000000000000000e+00 0.000000000000000e+00 0.000000000000000e+00
0.000000000000000e+00 0.000000000000000e+00 0.000000000000000e+00

0.000000000000000e+00 0.000000000000000e+00 0.000000000000000e+00
0.000000000000000e+00 0.000000000000000e+00 0.000000000000000e+00
0.000000000000000e+00 0.000000000000000e+00 0.000000000000000e+00

0.000000000000000e+00 0.000000000000000e+00 0.000000000000000e+00
0.000000000000000e+00 0.000000000000000e+00 0.000000000000000e+00
0.000000000000000e+00 0.000000000000000e+00 0.000000000000000e+00

0.000000000000000e+00 0.000000000000000e+00 0.000000000000000e+00
0.000000000000000e+00 0.000000000000000e+00 0.000000000000000e+00
0.000000000000000e+00 0.000000000000000e+00 0.000000000000000e+00

0.000000000000000e+00 0.000000000000000e+00 0.000000000000000e+00
0.000000000000000e+00 0.000000000000000e+00 0.000000000000000e+00
0.000000000000000e+00 0.000000000000000e+00 0.000000000000000e+00

0.000000000000000e+00 0.000000000000000e+00 0.000000000000000e+00
0.000000000000000e+00 0.000000000000000e+00 0.000000000000000e+00
0.000000000000000e+00 0.000000000000000e+00 0.000000000000000e+00

0.000000000000000e+00 0.000000000000000e+00 0.000000000000000e+00
0.000000000000000e+00 0.000000000000000e+00 0.000000000000000e+00
0.000000000000000e+00 0.000000000000000e+00 0.000000000000000e+00

0.000000000000000e+00 0.000000000000000e+00 0.000000000000000e+00
0.000000000000000e+00 0.000000000000000e+00 0.000000000000000e+00
0.000000000000000e+00 0.000000000000000e+00 0.000000000000000e+00

0.000000000000000e+00 0.000000000000000e+00 0.000000000000000e+00
0.000000000000000e+00 0.000000000000000e+00 0.000000000000000e+00
0.000000000000000e+00 0.000000000000000e+00 0.000000000000000e+00

0.000000000000000e+00 0.000000000000000e+00 0.000000000000000e+00
0.000000000000000e+00 0.000000000000000e+00 0.000000000000000e+00
0.000000000000000e+00 0.000000000000000e+00 0.000000000000000e+00

0.000000000000000e+00 0.000000000000000e+00 0.000000000000000e+00
0.000000000000000e+00 0.000000000000000e+00 0.000000000000000e+00
0.000000000000000e+00 0.000000000000000e+00 0.000000000000000e+00

0.000000000000000e+00 0.000000000000000e+00 0.000000000000000e+00
0.000000000000000e+00 0.000000000000000e+00 0.000000000000000e+00
0.000000000000000e+00 0.000000000000000e+00 0.000000000000000e+00

0.000000000000000e+00 0.000000000000000e+00 0.000000000000000e+00
0.000000000000000e+00 0.000000000000000e+00 0.000000000000000e+00
0.000000000000000e+00 0.000000000000000e+00 0.000000000000000e+00

0.000000000000000e+00 0.000000000000000e+00 0.000000000000000e+00
0.000000000000000e+00 0.000000000000000e+00 0.000000000000000e+00
0.000000000000000e+00 0.000000000000000e+00 0.000000000000000e+00

0.000000000000000e+00 0.000000000000000e+00 0.000000000000000e+00
0.000000000000000e+00 0.000000000000000e+00 0.000000000000000e+00
0.000000000000000e+00 0.000000000000000e+00 0.000000000000000e+00

0.000000000000000e+00 0.000000000000000e+00 0.000000000000000e+00
0.000000000000000e+00 0.000000000000000e+00 0.000000000000000e+00
0.000000000000000e+00 0.000000000000000e+00 0.000000000000000e+00

0.000000000000000e+00 0.000000000000000e+00 0.000000000000000e+00
0.000000000000000e+00 0.000000000000000e+00 0.000000000000000e+00
0.000000000000000e+00 0.000000000000000e+00 0.000000000000000e+00

0.000000000000000e+00 0.000000000000000e+00 0.000000000000000e+00
0.000000000000000e+00 0.000000000000000e+00 0.000000000000000e+00
0.000000000000000e+00 0.000000000000000e+00 0.000000000000000e+00

0.000000000000000e+00 0.000000000000000e+00 0.000000000000000e+00
0.000000000000000e+00 0.000000000000000e+00 0.000000000000000e+00
0.000000000000000e+00 0.000000000000000e+00 0.000000000000000e+00

0.000000000000000e+00 0.000000000000000e+00 0.000000000000000e+00
0.000000000000000e+00 0.000000000000000e+00 0.000000000000000e+00
0.000000000000000e+00 0.000000000000000e+00 0.000000000000000e+00

0.000000000000000e+00 0.000000000000000e+00 0.000000000000000e+00
0.000000000000000e+00 0.000000000000000e+00 0.000000000000000e+00
0.000000000000000e+00 0.000000000000000e+00 0.000000000000000e+00

0.000000000000000e+00 0.000000000000000e+00 0.000000000000000e+00
0.000000000000000e+00 0.000000000000000e+00 0.000000000000000e+00
0.000000000000000e+00 0.000000000000000e+00 0.000000000000000e+00

0.000000000000000e+00 0.000000000000000e+00 0.000000000000000e+00
0.000000000000000e+00 0.000000000000000e+00 0.000000000000000e+00
0.000000000000000e+00 0.000000000000000e+00 0.000000000000000e+00

0.000000000000000e+00 0.000000000000000e+00 0.000000000000000e+00
0.000000000000000e+00 0.000000000000000e+00 0.000000000000000e+00
0.000000000000000e+00 0.000000000000000e+00 0.000000000000000e+00

0.000000000000000e+00 0.000000000000000e+00 0.000000000000000e+00
0.000000000000000e+00 0.000000000000000e+00 0.000000000000000e+00
0.000000000000000e+00 0.000000000000000e+00 0.000000000000000e+00

0.000000000000000e+00 0.000000000000000e+00 0.000000000000000e+00
0.000000000000000e+00 0.000000000000000e+00 0.000000000000000e+00
0.000000000000000e+00 0.000000000000000e+00 0.000000000000000e+00

0.000000000000000e+00 0.000000000000000e+00 0.000000000000000e+00
0.000000000000000e+00 0.000000000000000e+00 0.000000000000000e+00
0.000000000000000e+00 0.000000000000000e+00 0.000000000000000e+00

0.000000000000000e+00 0.000000000000000e+00 0.000000000000000e+00
0.000000000000000e+00 0.000000000000000e+00 0.000000000000000e+00
0.000000000000000e+00 0.000000000000000e+00 0.000000000000000e+00

0.000000000000000e+00 0.000000000000000e+00 0.000000000000000e+00
0.000000000000000e+00 0.000000000000000e+00 0.000000000000000e+00
0.000000000000000e+00 0.000000000000000e+00 0.000000000000000e+00

0.000000000000000e+00 0.000000000000000e+00 0.000000000000000e+00
0.000000000000000e+00 0.000000000000000e+00 0.000000000000000e+00
0.000000000000000e+00 0.000000000000000e+00 0.000000000000000e+00

0.000000000000000e+00 0.000000000000000e+00 0.000000000000000e+00
0.000000000000000e+00 0.000000000000000e+00 0.000000000000000e+00
0.000000000000000e+00 0.000000000000000e+00 0.000000000000000e+00

0.000000000000000e+00 0.000000000000000e+00 0.000000000000000e+00
0.000000000000000e+00 0.000000000000000e+00 0.000000000000000e+00
0.000000000000000e+00 0.000000000000000e+00 0.000000000000000e+00

0.000000000000000e+00 0.000000000000000e+00 0.000000000000000e+00
0.000000000000000e+00 0.000000000000000e+00 0.000000000000000e+00
0.000000000000000e+00 0.000000000000000e+00 0.000000000000000e+00

0.000000000000000e+00 0.000000000000000e+00 0.000000000000000e+00
0.000000000000000e+00 0.000000000000000e+00 0.000000000000000e+00
0.000000000000000e+00 0.000000000000000e+00 0.000000000000000e+00

0.000000000000000e+00 0.000000000000000e+00 0.000000000000000e+00
0.000000000000000e+00 0.000000000000000e+00 0.000000000000000e+00
0.000000000000000e+00 0.000000000000000e+00 0.000000000000000e+00

0.000000000000000e+00 0.000000000000000e+00 0.000000000000000e+00
0.000000000000000e+00 0.000000000000000e+00 0.000000000000000e+00
0.000000000000000e+00 0.000000000000000e+00 0.000000000000000e+00

0.000000000000000e+00 0.000000000000000e+00 0.000000000000000e+00
0.000000000000000e+00 0.000000000000000e+00 0.000000000000000e+00
0.000000000000000e+00 0.000000000000000e+00 0.000000000000000e+00

0.000000000000000e+00 0.000000000000000e+00 0.000000000000000e+00
0.000000000000000e+00 0.000000000000000e+00 0.000000000000000e+00
0.000000000000000e+00 0.000000000000000e+00 0.000000000000000e+00

0.000000000000000e+00 0.000000000000000e+00 0.000000000000000e+00
0.000000000000000e+00 0.000000000000000e+00 0.000000000000000e+00
0.000000000000000e+00 0.000000000000000e+00 0.000000000000000e+00

0.000000000000000e+00 0.000000000000000e+00 0.000000000000000e+00
0.000000000000000e+00 0.000000000000000e+00 0.000000000000000e+00
0.000000000000000e+00 0.000000000000000e+00 0.000000000000000e+00

0.000000000000000e+00 0.000000000000000e+00 0.000000000000000e+00
0.000000000000000e+00 0.000000000000000e+00 0.000000000000000e+00
0.000000000000000e+00 0.000000000000000e+00 0.000000000000000e+00

0.000000000000000e+00 0.000000000000000e+00 0.000000000000000e+00
0.000000000000000e+00 0.000000000000000e+00 0.000000000000000e+00
0.000000000000000e+00 0.000000000000000e+00 0.000000000000000e+00

0.000000000000000e+00 0.000000000000000e+00 0.000000000000000e+00
0.000000000000000e+00 0.000000000000000e+00 0.000000000000000e+00
0.000000000000000e+00 0.000000000000000e+00 0.000000000000000e+00

0.000000000000000e+00 0.000000000000000e+00 0.000000000000000e+00
0.000000000000000e+00 0.000000000000000e+00 0.000000000000000e+00
0.000000000000000e+00 0.000000000000000e+00 0.000000000000000e+00

0.000000000000000e+00 0.000000000000000e+00 0.000000000000000e+00
0.000000000000000e+00 0.000000000000000e+00 0.000000000000000e+00
0.000000000000000e+00 0.000000000000000e+00 0.000000000000000e+00

0.000000000000000e+00 0.000000000000000e+00 0.000000000000000e+00
0.000000000000000e+00 0.000000000000000e+00 0.000000000000000e+00
0.000000000000000e+00 0.000000000000000e+00 0.000000000000000e+00

0.000000000000000e+00 0.000000000000000e+00 0.000000000000000e+00
0.000000000000000e+00 0.000000000000000e+00 0.000000000000000e+00
0.000000000000000e+00 0.000000000000000e+00 0.000000000000000e+00

0.000000000000000e+00 0.000000000000000e+00 0.000000000000000e+00
0.000000000000000e+00 0.000000000000000e+00 0.000000000000000e+00
0.000000000000000e+00 0.000000000000000e+00 0.000000000000000e+00

0.000000000000000e+00 0.000000000000000e+00 0.000000000000000e+00
0.000000000000000e+00 0.000000000000000e+00 0.000000000000000e+00
0.000000000000000e+00 0.000000000000000e+00 0.000000000000000e+00

0.000000000000000e+00 0.000000000000000e+00 0.000000000000000e+00
0.000000000000000e+00 0.000000000000000e+00 0.000000000000000e+00
0.000000000000000e+00 0.000000000000000e+00 0.000000000000000e+00

0.000000000000000e+00 0.000000000000000e+00 0.000000000000000e+00
0.000000000000000e+00 0.000000000000000e+00 0.000000000000000e+00
0.000000000000000e+00 0.000000000000000e+00 0.000000000000000e+00

0.000000000000000e+00 0.000000000000000e+00 0.000000000000000e+00
0.000000000000000e+00 0.000000000000000e+00 0.000000000000000e+00
0.000000000000000e+00 0.000000000000000e+00 0.000000000000000e+00

0.000000000000000e+00 0.000000000000000e+00 0.000000000000000e+00
0.000000000000000e+00 0.000000000000000e+00 0.000000000000000e+00
0.000000000000000e+00 0.000000000000000e+00 0.000000000000000e+00

0.000000000000000e+00 0.000000000000000e+00 0.000000000000000e+00
0.000000000000000e+00 0.000000000000000e+00 0.000000000000000e+00
0.000000000000000e+00 0.000000000000000e+00 0.000000000000000e+00

0.000000000000000e+00 0.000000000000000e+00 0.000000000000000e+00
0.000000000000000e+00 0.000000000000000e+00 0.000000000000000e+00
0.000000000000000e+00 0.000000000000000e+00 0.000000000000000e+00

0.000000000000000e+00 0.000000000000000e+00 0.000000000000000e+00
0.000000000000000e+00 0.000000000000000e+00 0.000000000000000e+00
0.000000000000000e+00 0.000000000000000e+00 0.000000000000000e+00

0.000000000000000e+00 0.000000000000000e+00 0.000000000000000e+00
0.000000000000000e+00 0.000000000000000e+00 0.000000000000000e+00
0.000000000000000e+00 0.000000000000000e+00 0.000000000000000e+00

0.000000000000000e+00 0.000000000000000e+00 0.000000000000000e+00
0.000000000000000e+00 0.000000000000000e+00 0.000000000000000e+00
0.000000000000000e+00 0.000000000000000e+00 0.000000000000000e+00

0.000000000000000e+00 0.000000000000000e+00 0.000000000000000e+00
0.000000000000000e+00 0.000000000000000e+00 0.000000000000000e+00
0.000000000000000e+00 0.000000000000000e+00 0.000000000000000e+00

0.000000000000000e+00 0.000000000000000e+00 0.000000000000000e+00
0.000000000000000e+00 0.000000000000000e+00 0.000000000000000e+00
0.000000000000000e+00 0.000000000000000e+00 0.000000000000000e+00

0.000000000000000e+00 0.000000000000000e+00 0.000000000000000e+00
0.000000000000000e+00 0.000000000000000e+00 0.000000000000000e+00
0.000000000000000e+00 0.000000000000000e+00 0.000000000000000e+00

0.000000000000000e+00 0.000000000000000e+00 0.000000000000000e+00
0.000000000000000e+00 0.000000000000000e+00 0.000000000000000e+00
0.000000000000000e+00 0.000000000000000e+00 0.000000000000000e+00

0.000000000000000e+00 0.000000000000000e+00 0.000000000000000e+00
0.000000000000000e+00 0.000000000000000e+00 0.000000000000000e+00
0.000000000000000e+00 0.000000000000000e+00 0.000000000000000e+00

0.000000000000000e+00 0.000000000000000e+00 0.000000000000000e+00
0.000000000000000e+00 0.000000000000000e+00 0.000000000000000e+00
0.000000000000000e+00 0.000000000000000e+00 0.000000000000000e+00

0.000000000000000e+00 0.000000000000000e+00 0.000000000000000e+00
0.000000000000000e+00 0.000000000000000e+00 0.000000000000000e+00
0.000000000000000e+00 0.000000000000000e+00 0.000000000000000e+00

0.000000000000000e+00 0.000000000000000e+00 0.000000000000000e+00
0.000000000000000e+00 0.000000000000000e+00 0.000000000000000e+00
0.000000000000000e+00 0.000000000000000e+00 0.000000000000000e+00

0.000000000000000e+00 0.000000000000000e+00 0.000000000000000e+00
0.000000000000000e+00 0.000000000000000e+00 0.000000000000000e+00
0.000000000000000e+00 0.000000000000000e+00 0.000000000000000e+00

0.000000000000000e+00 0.000000000000000e+00 0.000000000000000e+00
0.000000000000000e+00 0.000000000000000e+00 0.000000000000000e+00
0.000000000000000e+00 0.000000000000000e+00 0.000000000000000e+00

0.000000000000000e+00 0.000000000000000e+00 0.000000000000000e+00
0.000000000000000e+00 0.000000000000000e+00 0.000000000000000e+00
0.000000000000000e+00 0.000000000000000e+00 0.000000000000000e+00

0.000000000000000e+00 0.000000000000000e+00 0.000000000000000e+00
0.000000000000000e+00 0.000000000000000e+00 0.000000000000000e+00
0.000000000000000e+00 0.000000000000000e+00 0.000000000000000e+00

0.000000000000000e+00 0.000000000000000e+00 0.000000000000000e+00
0.000000000000000e+00 0.000000000000000e+00 0.000000000000000e+00
0.000000000000000e+00 0.000000000000000e+00 0.000000000000000e+00

0.000000000000000e+00 0.000000000000000e+00 0.000000000000000e+00
0.000000000000000e+00 0.000000000000000e+00 0.000000000000000e+00
0.000000000000000e+00 0.000000000000000e+00 0.000000000000000e+00

0.000000000000000e+00 0.000000000000000e+00 0.000000000000000e+00
0.000000000000000e+00 0.000000000000000e+00 0.000000000000000e+00
0.000000000000000e+00 0.000000000000000e+00 0.000000000000000e+00

0.000000000000000e+00 0.000000000000000e+00 0.000000000000000e+00
0.000000000000000e+00 0.000000000000000e+00 0.000000000000000e+00
0.000000000000000e+00 0.000000000000000e+00 0.000000000000000e+00

0.000000000000000e+00 0.000000000000000e+00 0.000000000000000e+00
0.000000000000000e+00 0.000000000000000e+00 0.000000000000000e+00
0.000000000000000e+00 0.000000000000000e+00 0.000000000000000e+00

0.000000000000000e+00 0.000000000000000e+00 0.000000000000000e+00
0.000000000000000e+00 0.000000000000000e+00 0.000000000000000e+00
0.000000000000000e+00 0.000000000000000e+00 0.000000000000000e+00

0.000000000000000e+00 0.000000000000000e+00 0.000000000000000e+00
0.000000000000000e+00 0.000000000000000e+00 0.000000000000000e+00
0.000000000000000e+00 0.000000000000000e+00 0.000000000000000e+00

0.000000000000000e+00 0.000000000000000e+00 0.000000000000000e+00
0.000000000000000e+00 0.000000000000000e+00 0.000000000000000e+00
0.000000000000000e+00 0.000000000000000e+00 0.000000000000000e+00

0.000000000000000e+00 0.000000000000000e+00 0.000000000000000e+00
0.000000000000000e+00 0.000000000000000e+00 0.000000000000000e+00
0.000000000000000e+00 0.000000000000000e+00 0.000000000000000e+00

0.000000000000000e+00 0.000000000000000e+00 0.000000000000000e+00
0.000000000000000e+00 0.000000000000000e+00 0.000000000000000e+00
0.000000000000000e+00 0.000000000000000e+00 0.000000000000000e+00

0.000000000000000e+00 0.000000000000000e+00 0.000000000000000e+00
0.000000000000000e+00 0.000000000000000e+00 0.000000000000000e+00
0.000000000000000e+00 0.000000000000000e+00 0.000000000000000e+00

0.000000000000000e+00 0.000000000000000e+00 0.000000000000000e+00
0.000000000000000e+00 0.000000000000000e+00 0.000000000000000e+00
0.000000000000000e+00 0.000000000000000e+00 0.000000000000000e+00

0.000000000000000e+00 0.000000000000000e+00 0.000000000000000e+00
0.000000000000000e+00 0.000000000000000e+00 0.000000000000000e+00
0.000000000000000e+00 0.000000000000000e+00 0.000000000000000e+00

0.000000000000000e+00 0.000000000000000e+00 0.000000000000000e+00
0.000000000000000e+00 0.000000000000000e+00 0.000000000000000e+00
0.000000000000000e+00 0.000000000000000e+00 0.000000000000000e+00

0.000000000000000e+00 0.000000000000000e+00 0.000000000000000e+00
0.000000000000000e+00 0.000000000000000e+00 0.000000000000000e+00
0.000000000000000e+00 0.000000000000000e+00 0.000000000000000e+00

0.000000000000000e+00 0.000000000000000e+00 0.000000000000000e+00
0.000000000000000e+00 0.000000000000000e+00 0.000000000000000e+00
0.000000000000000e+00 0.000000000000000e+00 0.000000000000000e+00

0.000000000000000e+00 0.000000000000000e+00 0.000000000000000e+00
0.000000000000000e+00 0.000000000000000e+00 0.000000000000000e+00
0.000000000000000e+00 0.000000000000000e+00 0.000000000000000e+00

0.000000000000000e+00 0.000000000000000e+00 0.000000000000000e+00
0.000000000000000e+00 0.000000000000000e+00 0.000000000000000e+00
0.000000000000000e+00 0.000000000000000e+00 0.000000000000000e+00

0.000000000000000e+00 0.000000000000000e+00 0.000000000000000e+00
0.000000000000000e+00 0.000000000000000e+00 0.000000000000000e+00
0.000000000000000e+00 0.000000000000000e+00 0.000000000000000e+00

0.000000000000000e+00 0.000000000000000e+00 0.000000000000000e+00
0.000000000000000e+00 0.000000000000000e+00 0.000000000000000e+00
0.000000000000000e+00 0.000000000000000e+00 0.000000000000000e+00

0.000000000000000e+00 0.000000000000000e+00 0.000000000000000e+00
0.000000000000000e+00 0.000000000000000e+00 0.000000000000000e+00
0.000000000000000e+00 0.000000000000000e+00 0.000000000000000e+00

0.000000000000000e+00 0.000000000000000e+00 0.000000000000000e+00
0.000000000000000e+00 0.000000000000000e+00 0.000000000000000e+00
0.000000000000000e+00 0.000000000000000e+00 0.000000000000000e+00

0.000000000000000e+00 0.000000000000000e+00 0.000000000000000e+00
0.000000000000000e+00 0.000000000000000e+00 0.000000000000000e+00
0.000000000000000e+00 0.000000000000000e+00 0.000000000000000e+00

0.000000000000000e+00 0.000000000000000e+00 0.000000000000000e+00
0.000000000000000e+00 0.000000000000000e+00 0.000000000000000e+00
0.000000000000000e+00 0.000000000000000e+00 0.000000000000000e+00

0.000000000000000e+00 0.000000000000000e+00 0.000000000000000e+00
0.000000000000000e+00 0.000000000000000e+00 0.000000000000000e+00
0.000000000000000e+00 0.000000000000000e+00 0.000000000000000e+00

0.000000000000000e+00 0.000000000000000e+00 0.000000000000000e+00
0.000000000000000e+00 0.000000000000000e+00 0.000000000000000e+00
0.000000000000000e+00 0.000000000000000e+00 0.000000000000000e+00

0.000000000000000e+00 0.000000000000000e+00 0.000000000000000e+00
0.000000000000000e+00 0.000000000000000e+00 0.000000000000000e+00
0.000000000000000e+00 0.000000000000000e+00 0.000000000000000e+00

0.000000000000000e+00 0.000000000000000e+00 0.000000000000000e+00
0.000000000000000e+00 0.000000000000000e+00 0.000000000000000e+00
0.000000000000000e+00 0.000000000000000e+00 0.000000000000000e+00

0.000000000000000e+00 0.000000000000000e+00 0.000000000000000e+00
0.000000000000000e+00 0.000000000000000e+00 0.000000000000000e+00
0.000000000000000e+00 0.000000000000000e+00 0.000000000000000e+00

0.000000000000000e+00 0.000000000000000e+00 0.000000000000000e+00
0.000000000000000e+00 0.000000000000000e+00 0.000000000000000e+00
0.000000000000000e+00 0.000000000000000e+00 0.000000000000000e+00

0.000000000000000e+00 0.000000000000000e+00 0.000000000000000e+00
0.000000000000000e+00 0.000000000000000e+00 0.000000000000000e+00
0.000000000000000e+00 0.000000000000000e+00 0.000000000000000e+00

0.000000000000000e+00 0.000000000000000e+00 0.000000000000000e+00
0.000000000000000e+00 0.000000000000000e+00 0.000000000000000e+00
0.000000000000000e+00 0.000000000000000e+00 0.000000000000000e+00

0.000000000000000e+00 0.000000000000000e+00 0.000000000000000e+00
0.000000000000000e+00 0.000000000000000e+00 0.000000000000000e+00
0.000000000000000e+00 0.000000000000000e+00 0.000000000000000e+00

0.000000000000000e+00 0.000000000000000e+00 0.000000000000000e+00
0.000000000000000e+00 0.000000000000000e+00 0.000000000000000e+00
0.000000000000000e+00 0.000000000000000e+00 0.000000000000000e+00

0.000000000000000e+00 0.000000000000000e+00 0.000000000000000e+00
0.000000000000000e+00 0.000000000000000e+00 0.000000000000000e+00
0.000000000000000e+00 0.000000000000000e+00 0.000000000000000e+00

0.000000000000000e+00 0.000000000000000e+00 0.000000000000000e+00
0.000000000000000e+00 0.000000000000000e+00 0.000000000000000e+00
0.000000000000000e+00 0.000000000000000e+00 0.000000000000000e+00

0.000000000000000e+00 0.000000000000000e+00 0.000000000000000e+00
0.000000000000000e+00 0.000000000000000e+00 0.000000000000000e+00
0.000000000000000e+00 0.000000000000000e+00 0.000000000000000e+00

0.000000000000000e+00 0.000000000000000e+00 0.000000000000000e+00
0.000000000000000e+00 0.000000000000000e+00 0.000000000000000e+00
0.000000000000000e+00 0.000000000000000e+00 0.000000000000000e+00

0.000000000000000e+00 0.000000000000000e+00 0.000000000000000e+00
0.000000000000000e+00 0.000000000000000e+00 0.000000000000000e+00
0.000000000000000e+00 0.000000000000000e+00 0.000000000000000e+00

0.000000000000000e+00 0.000000000000000e+00 0.000000000000000e+00
0.000000000000000e+00 0.000000000000000e+00 0.000000000000000e+00
0.000000000000000e+00 0.000000000000000e+00 0.000000000000000e+00

0.000000000000000e+00 0.000000000000000e+00 0.000000000000000e+00
0.000000000000000e+00 0.000000000000000e+00 0.000000000000000e+00
0.000000000000000e+00 0.000000000000000e+00 0.000000000000000e+00

0.000000000000000e+00 0.000000000000000e+00 0.000000000000000e+00
0.000000000000000e+00 0.000000000000000e+00 0.000000000000000e+00
0.000000000000000e+00 0.000000000000000e+00 0.000000000000000e+00

0.000000000000000e+00 0.000000000000000e+00 0.000000000000000e+00
0.000000000000000e+00 0.000000000000000e+00 0.000000000000000e+00
0.000000000000000e+00 0.000000000000000e+00 0.000000000000000e+00

0.000000000000000e+00 0.000000000000000e+00 0.000000000000000e+00
0.000000000000000e+00 0.000000000000000e+00 0.000000000000000e+00
0.000000000000000e+00 0.000000000000000e+00 0.000000000000000e+00

0.000000000000000e+00 0.000000000000000e+00 0.000000000000000e+00
0.000000000000000e+00 0.000000000000000e+00 0.000000000000000e+00
0.000000000000000e+00 0.000000000000000e+00 0.000000000000000e+00

0.000000000000000e+00 0.000000000000000e+00 0.000000000000000e+00
0.000000000000000e+00 0.000000000000000e+00 0.000000000000000e+00
0.000000000000000e+00 0.000000000000000e+00 0.000000000000000e+00

0.000000000000000e+00 0.000000000000000e+00 0.000000000000000e+00
0.000000000000000e+00 0.000000000000000e+00 0.000000000000000e+00
0.000000000000000e+00 0.000000000000000e+00 0.000000000000000e+00

0.000000000000000e+00 0.000000000000000e+00 0.000000000000000e+00
0.000000000000000e+00 0.000000000000000e+00 0.000000000000000e+00
0.000000000000000e+00 0.000000000000000e+00 0.000000000000000e+00

0.000000000000000e+00 0.000000000000000e+00 0.000000000000000e+00
0.000000000000000e+00 0.000000000000000e+00 0.000000000000000e+00
0.000000000000000e+00 0.000000000000000e+00 0.000000000000000e+00

0.000000000000000e+00 0.000000000000000e+00 0.000000000000000e+00
0.000000000000000e+00 0.000000000000000e+00 0.000000000000000e+00
0.000000000000000e+00 0.000000000000000e+00 0.000000000000000e+00

0.000000000000000e+00 0.000000000000000e+00 0.000000000000000e+00
0.000000000000000e+00 0.000000000000000e+00 0.000000000000000e+00
0.000000000000000e+00 0.000000000000000e+00 0.000000000000000e+00

0.000000000000000e+00 0.000000000000000e+00 0.000000000000000e+00
0.000000000000000e+00 0.000000000000000e+00 0.000000000000000e+00
0.000000000000000e+00 0.000000000000000e+00 0.000000000000000e+00

0.000000000000000e+00 0.000000000000000e+00 0.000000000000000e+00
0.000000000000000e+00 0.000000000000000e+00 0.000000000000000e+00
0.000000000000000e+00 0.000000000000000e+00 0.000000000000000e+00

0.000000000000000e+00 0.000000000000000e+00 0.000000000000000e+00
0.000000000000000e+00 0.000000000000000e+00 0.000000000000000e+00
0.000000000000000e+00 0.000000000000000e+00 0.000000000000000e+00

0.000000000000000e+00 0.000000000000000e+00 0.000000000000000e+00
0.000000000000000e+00 0.000000000000000e+00 0.000000000000000e+00
0.000000000000000e+00 0.000000000000000e+00 0.000000000000000e+00

0.000000000000000e+00 0.000000000000000e+00 0.000000000000000e+00
0.000000000000000e+00 0.000000000000000e+00 0.000000000000000e+00
0.000000000000000e+00 0.000000000000000e+00 0.000000000000000e+00

0.000000000000000e+00 0.000000000000000e+00 0.000000000000000e+00
0.000000000000000e+00 0.000000000000000e+00 0.000000000000000e+00
0.000000000000000e+00 0.000000000000000e+00 0.000000000000000e+00

0.000000000000000e+00 0.000000000000000e+00 0.000000000000000e+00
0.000000000000000e+00 0.000000000000000e+00 0.000000000000000e+00
0.000000000000000e+00 0.000000000000000e+00 0.000000000000000e+00

0.000000000000000e+00 0.000000000000000e+00 0.000000000000000e+00
0.000000000000000e+00 0.000000000000000e+00 0.000000000000000e+00
0.000000000000000e+00 0.000000000000000e+00 0.000000000000000e+00

0.000000000000000e+00 0.000000000000000e+00 0.000000000000000e+00
0.000000000000000e+00 0.000000000000000e+00 0.000000000000000e+00
0.000000000000000e+00 0.000000000000000e+00 0.000000000000000e+00

0.000000000000000e+00 0.000000000000000e+00 0.000000000000000e+00
0.000000000000000e+00 0.000000000000000e+00 0.000000000000000e+00
0.000000000000000e+00 0.000000000000000e+00 0.000000000000000e+00

0.000000000000000e+00 0.000000000000000e+00 0.000000000000000e+00
0.000000000000000e+00 0.000000000000000e+00 0.000000000000000e+00
0.000000000000000e+00 0.000000000000000e+00 0.000000000000000e+00

0.000000000000000e+00 0.000000000000000e+00 0.000000000000000e+00
0.000000000000000e+00 0.000000000000000e+00 0.000000000000000e+00
0.000000000000000e+00 0.000000000000000e+00 0.000000000000000e+00

0.000000000000000e+00 0.000000000000000e+00 0.000000000000000e+00
0.000000000000000e+00 0.000000000000000e+00 0.000000000000000e+00
0.000000000000000e+00 0.000000000000000e+00 0.000000000000000e+00

0.000000000000000e+00 0.000000000000000e+00 0.000000000000000e+00
0.000000000000000e+00 0.000000000000000e+00 0.000000000000000e+00
0.000000000000000e+00 0.000000000000000e+00 0.000000000000000e+00

0.000000000000000e+00 0.000000000000000e+00 0.000000000000000e+00
0.000000000000000e+00 0.000000000000000e+00 0.000000000000000e+00
0.000000000000000e+00 0.000000000000000e+00 0.000000000000000e+00

0.000000000000000e+00 0.000000000000000e+00 0.000000000000000e+00
0.000000000000000e+00 0.000000000000000e+00 0.000000000000000e+00
0.000000000000000e+00 0.000000000000000e+00 0.000000000000000e+00

0.000000000000000e+00 0.000000000000000e+00 0.000000000000000e+00
0.000000000000000e+00 0.000000000000000e+00 0.000000000000000e+00
0.000000000000000e+00 0.000000000000000e+00 0.000000000000000e+00

0.000000000000000e+00 0.000000000000000e+00 0.000000000000000e+00
0.000000000000000e+00 0.000000000000000e+00 0.000000000000000e+00
0.000000000000000e+00 0.000000000000000e+00 0.000000000000000e+00

0.000000000000000e+00 0.000000000000000e+00 0.000000000000000e+00
0.000000000000000e+00 0.000000000000000e+00 0.000000000000000e+00
0.000000000000000e+00 0.000000000000000e+00 0.000000000000000e+00

0.000000000000000e+00 0.000000000000000e+00 0.000000000000000e+00
0.000000000000000e+00 0.000000000000000e+00 0.000000000000000e+00
0.000000000000000e+00 0.000000000000000e+00 0.000000000000000e+00

0.000000000000000e+00 0.000000000000000e+00 0.000000000000000e+00
0.000000000000000e+00 0.000000000000000e+00 0.000000000000000e+00
0.000000000000000e+00 0.000000000000000e+00 0.000000000000000e+00

0.000000000000000e+00 0.000000000000000e+00 0.000000000000000e+00
0.000000000000000e+00 0.000000000000000e+00 0.000000000000000e+00
0.000000000000000e+00 0.000000000000000e+00 0.000000000000000e+00

0.000000000000000e+00 0.000000000000000e+00 0.000000000000000e+00
0.000000000000000e+00 0.000000000000000e+00 0.000000000000000e+00
0.000000000000000e+00 0.000000000000000e+00 0.000000000000000e+00

0.000000000000000e+00 0.000000000000000e+00 0.000000000000000e+00
0.000000000000000e+00 0.000000000000000e+00 0.000000000000000e+00
0.000000000000000e+00 0.000000000000000e+00 0.000000000000000e+00

0.000000000000000e+00 0.000000000000000e+00 0.000000000000000e+00
0.000000000000000e+00 0.000000000000000e+00 0.000000000000000e+00
0.000000000000000e+00 0.000000000000000e+00 0.000000000000000e+00

0.000000000000000e+00 0.000000000000000e+00 0.000000000000000e+00
0.000000000000000e+00 0.000000000000000e+00 0.000000000000000e+00
0.000000000000000e+00 0.000000000000000e+00 0.000000000000000e+00

0.000000000000000e+00 0.000000000000000e+00 0.000000000000000e+00
0.000000000000000e+00 0.000000000000000e+00 0.000000000000000e+00
0.000000000000000e+00 0.000000000000000e+00 0.000000000000000e+00

0.000000000000000e+00 0.000000000000000e+00 0.000000000000000e+00
0.000000000000000e+00 0.000000000000000e+00 0.000000000000000e+00
0.000000000000000e+00 0.000000000000000e+00 0.000000000000000e+00

0.000000000000000e+00 0.000000000000000e+00 0.000000000000000e+00
0.000000000000000e+00 0.000000000000000e+00 0.000000000000000e+00
0.000000000000000e+00 0.000000000000000e+00 0.000000000000000e+00

0.000000000000000e+00 0.000000000000000e+00 0.000000000000000e+00
0.000000000000000e+00 0.000000000000000e+00 0.000000000000000e+00
0.000000000000000e+00 0.000000000000000e+00 0.000000000000000e+00

0.000000000000000e+00 0.000000000000000e+00 0.000000000000000e+00
0.000000000000000e+00 0.000000000000000e+00 0.000000000000000e+00
0.000000000000000e+00 0.000000000000000e+00 0.000000000000000e+00

0.000000000000000e+00 0.000000000000000e+00 0.000000000000000e+00
0.000000000000000e+00 0.000000000000000e+00 0.000000000000000e+00
0.000000000000000e+00 0.000000000000000e+00 0.000000000000000e+00

0.000000000000000e+00 0.000000000000000e+00 0.000000000000000e+00
0.000000000000000e+00 0.000000000000000e+00 0.000000000000000e+00
0.000000000000000e+00 0.000000000000000e+00 0.000000000000000e+00

0.000000000000000e+00 0.000000000000000e+00 0.000000000000000e+00
0.000000000000000e+00 0.000000000000000e+00 0.000000000000000e+00
0.000000000000000e+00 0.000000000000000e+00 0.000000000000000e+00

0.000000000000000e+00 0.000000000000000e+00 0.000000000000000e+00
0.000000000000000e+00 0.000000000000000e+00 0.000000000000000e+00
0.000000000000000e+00 0.000000000000000e+00 0.000000000000000e+00

0.000000000000000e+00 0.000000000000000e+00 0.000000000000000e+00
0.000000000000000e+00 0.000000000000000e+00 0.000000000000000e+00
0.000000000000000e+00 0.000000000000000e+00 0.000000000000000e+00

0.000000000000000e+00 0.000000000000000e+00 0.000000000000000e+00
0.000000000000000e+00 0.000000000000000e+00 0.000000000000000e+00
0.000000000000000e+00 0.000000000000000e+00 0.000000000000000e+00

0.000000000000000e+00 0.000000000000000e+00 0.000000000000000e+00
0.000000000000000e+00 0.000000000000000e+00 0.000000000000000e+00
0.000000000000000e+00 0.000000000000000e+00 0.000000000000000e+00

0.000000000000000e+00 0.000000000000000e+00 0.000000000000000e+00
0.000000000000000e+00 0.000000000000000e+00 0.000000000000000e+00
0.000000000000000e+00 0.000000000000000e+00 0.000000000000000e+00

0.000000000000000e+00 0.000000000000000e+00 0.000000000000000e+00
0.000000000000000e+00 0.000000000000000e+00 0.000000000000000e+00
0.000000000000000e+00 0.000000000000000e+00 0.000000000000000e+00

0.000000000000000e+00 0.000000000000000e+00 0.000000000000000e+00
0.000000000000000e+00 0.000000000000000e+00 0.000000000000000e+00
0.000000000000000e+00 0.000000000000000e+00 0.000000000000000e+00

0.000000000000000e+00 0.000000000000000e+00 0.000000000000000e+00
0.000000000000000e+00 0.000000000000000e+00 0.000000000000000e+00
0.000000000000000e+00 0.000000000000000e+00 0.000000000000000e+00

0.000000000000000e+00 0.000000000000000e+00 0.000000000000000e+00
0.000000000000000e+00 0.000000000000000e+00 0.000000000000000e+00
0.000000000000000e+00 0.000000000000000e+00 0.000000000000000e+00

0.000000000000000e+00 0.000000000000000e+00 0.000000000000000e+00
0.000000000000000e+00 0.000000000000000e+00 0.000000000000000e+00
0.000000000000000e+00 0.000000000000000e+00 0.000000000000000e+00

0.000000000000000e+00 0.000000000000000e+00 0.000000000000000e+00
0.000000000000000e+00 0.000000000000000e+00 0.000000000000000e+00
0.000000000000000e+00 0.000000000000000e+00 0.000000000000000e+00

0.000000000000000e+00 0.000000000000000e+00 0.000000000000000e+00
0.000000000000000e+00 0.000000000000000e+00 0.000000000000000e+00
0.000000000000000e+00 0.000000000000000e+00 0.000000000000000e+00

0.000000000000000e+00 0.000000000000000e+00 0.000000000000000e+00
0.000000000000000e+00 0.000000000000000e+00 0.000000000000000e+00
0.000000000000000e+00 0.000000000000000e+00 0.000000000000000e+00

0.000000000000000e+00 0.000000000000000e+00 0.000000000000000e+00
0.000000000000000e+00 0.000000000000000e+00 0.000000000000000e+00
0.000000000000000e+00 0.000000000000000e+00 0.000000000000000e+00

0.000000000000000e+00 0.000000000000000e+00 0.000000000000000e+00
0.000000000000000e+00 0.000000000000000e+00 0.000000000000000e+00
0.000000000000000e+00 0.000000000000000e+00 0.000000000000000e+00

0.000000000000000e+00 0.000000000000000e+00 0.000000000000000e+00
0.000000000000000e+00 0.000000000000000e+00 0.000000000000000e+00
0.000000000000000e+00 0.000000000000000e+00 0.000000000000000e+00

0.000000000000000e+00 0.000000000000000e+00 0.000000000000000e+00
0.000000000000000e+00 0.000000000000000e+00 0.000000000000000e+00
0.000000000000000e+00 0.000000000000000e+00 0.000000000000000e+00

0.000000000000000e+00 0.000000000000000e+00 0.000000000000000e+00
0.000000000000000e+00 0.000000000000000e+00 0.000000000000000e+00
0.000000000000000e+00 0.000000000000000e+00 0.000000000000000e+00

0.000000000000000e+00 0.000000000000000e+00 0.000000000000000e+00
0.000000000000000e+00 0.000000000000000e+00 0.000000000000000e+00
0.000000000000000e+00 0.000000000000000e+00 0.000000000000000e+00

0.000000000000000e+00 0.000000000000000e+00 0.000000000000000e+00
0.000000000000000e+00 0.000000000000000e+00 0.000000000000000e+00
0.000000000000000e+00 0.000000000000000e+00 0.000000000000000e+00

0.000000000000000e+00 0.000000000000000e+00 0.000000000000000e+00
0.000000000000000e+00 0.000000000000000e+00 0.000000000000000e+00
0.000000000000000e+00 0.000000000000000e+00 0.000000000000000e+00

0.000000000000000e+00 0.000000000000000e+00 0.000000000000000e+00
0.000000000000000e+00 0.000000000000000e+00 0.000000000000000e+00
0.000000000000000e+00 0.000000000000000e+00 0.000000000000000e+00

0.000000000000000e+00 0.000000000000000e+00 0.000000000000000e+00
0.000000000000000e+00 0.000000000000000e+00 0.000000000000000e+00
0.000000000000000e+00 0.000000000000000e+00 0.000000000000000e+00

0.000000000000000e+00 0.000000000000000e+00 0.000000000000000e+00
0.000000000000000e+00 0.000000000000000e+00 0.000000000000000e+00
0.000000000000000e+00 0.000000000000000e+00 0.000000000000000e+00

0.000000000000000e+00 0.000000000000000e+00 0.000000000000000e+00
0.000000000000000e+00 0.000000000000000e+00 0.000000000000000e+00
0.000000000000000e+00 0.000000000000000e+00 0.000000000000000e+00

0.000000000000000e+00 0.000000000000000e+00 0.000000000000000e+00
0.000000000000000e+00 0.000000000000000e+00 0.000000000000000e+00
0.000000000000000e+00 0.000000000000000e+00 0.000000000000000e+00

0.000000000000000e+00 0.000000000000000e+00 0.000000000000000e+00
0.000000000000000e+00 0.000000000000000e+00 0.000000000000000e+00
0.000000000000000e+00 0.000000000000000e+00 0.000000000000000e+00

0.000000000000000e+00 0.000000000000000e+00 0.000000000000000e+00
0.000000000000000e+00 0.000000000000000e+00 0.000000000000000e+00
0.000000000000000e+00 0.000000000000000e+00 0.000000000000000e+00

0.000000000000000e+00 0.000000000000000e+00 0.000000000000000e+00
0.000000000000000e+00 0.000000000000000e+00 0.000000000000000e+00
0.000000000000000e+00 0.000000000000000e+00 0.000000000000000e+00

0.000000000000000e+00 0.000000000000000e+00 0.000000000000000e+00
0.000000000000000e+00 0.000000000000000e+00 0.000000000000000e+00
0.000000000000000e+00 0.000000000000000e+00 0.000000000000000e+00

0.000000000000000e+00 0.000000000000000e+00 0.000000000000000e+00
0.000000000000000e+00 0.000000000000000e+00 0.000000000000000e+00
0.000000000000000e+00 0.000000000000000e+00 0.000000000000000e+00

0.000000000000000e+00 0.000000000000000e+00 0.000000000000000e+00
0.000000000000000e+00 0.000000000000000e+00 0.000000000000000e+00
0.000000000000000e+00 0.000000000000000e+00 0.000000000000000e+00

0.000000000000000e+00 0.000000000000000e+00 0.000000000000000e+00
0.000000000000000e+00 0.000000000000000e+00 0.000000000000000e+00
0.000000000000000e+00 0.000000000000000e+00 0.000000000000000e+00

0.000000000000000e+00 0.000000000000000e+00 0.000000000000000e+00
0.000000000000000e+00 0.000000000000000e+00 0.000000000000000e+00
0.000000000000000e+00 0.000000000000000e+00 0.000000000000000e+00

0.000000000000000e+00 0.000000000000000e+00 0.000000000000000e+00
0.000000000000000e+00 0.000000000000000e+00 0.000000000000000e+00
0.000000000000000e+00 0.000000000000000e+00 0.000000000000000e+00

0.000000000000000e+00 0.000000000000000e+00 0.000000000000000e+00
0.000000000000000e+00 0.000000000000000e+00 0.000000000000000e+00
0.000000000000000e+00 0.000000000000000e+00 0.000000000000000e+00

0.000000000000000e+00 0.000000000000000e+00 0.000000000000000e+00
0.000000000000000e+00 0.000000000000000e+00 0.000000000000000e+00
0.000000000000000e+00 0.000000000000000e+00 0.000000000000000e+00

0.000000000000000e+00 0.000000000000000e+00 0.000000000000000e+00
0.000000000000000e+00 0.000000000000000e+00 0.000000000000000e+00
0.000000000000000e+00 0.000000000000000e+00 0.000000000000000e+00

0.000000000000000e+00 0.000000000000000e+00 0.000000000000000e+00
0.000000000000000e+00 0.000000000000000e+00 0.000000000000000e+00
0.000000000000000e+00 0.000000000000000e+00 0.000000000000000e+00

0.000000000000000e+00 0.000000000000000e+00 0.000000000000000e+00
0.000000000000000e+00 0.000000000000000e+00 0.000000000000000e+00
0.000000000000000e+00 0.000000000000000e+00 0.000000000000000e+00

0.000000000000000e+00 0.000000000000000e+00 0.000000000000000e+00
0.000000000000000e+00 0.000000000000000e+00 0.000000000000000e+00
0.000000000000000e+00 0.000000000000000e+00 0.000000000000000e+00

0.000000000000000e+00 0.000000000000000e+00 0.000000000000000e+00
0.000000000000000e+00 0.000000000000000e+00 0.000000000000000e+00
0.000000000000000e+00 0.000000000000000e+00 0.000000000000000e+00

0.000000000000000e+00 0.000000000000000e+00 0.000000000000000e+00
0.000000000000000e+00 0.000000000000000e+00 0.000000000000000e+00
0.000000000000000e+00 0.000000000000000e+00 0.000000000000000e+00

0.000000000000000e+00 0.000000000000000e+00 0.000000000000000e+00
0.000000000000000e+00 0.000000000000000e+00 0.000000000000000e+00
0.000000000000000e+00 0.000000000000000e+00 0.000000000000000e+00

0.000000000000000e+00 0.000000000000000e+00 0.000000000000000e+00
0.000000000000000e+00 0.000000000000000e+00 0.000000000000000e+00
0.000000000000000e+00 0.000000000000000e+00 0.000000000000000e+00

0.000000000000000e+00 0.000000000000000e+00 0.000000000000000e+00
0.000000000000000e+00 0.000000000000000e+00 0.000000000000000e+00
0.000000000000000e+00 0.000000000000000e+00 0.000000000000000e+00

0.000000000000000e+00 0.000000000000000e+00 0.000000000000000e+00
0.000000000000000e+00 0.000000000000000e+00 0.000000000000000e+00
0.000000000000000e+00 0.000000000000000e+00 0.000000000000000e+00

0.000000000000000e+00 0.000000000000000e+00 0.000000000000000e+00
0.000000000000000e+00 0.000000000000000e+00 0.000000000000000e+00
0.000000000000000e+00 0.000000000000000e+00 0.000000000000000e+00

0.000000000000000e+00 0.000000000000000e+00 0.000000000000000e+00
0.000000000000000e+00 0.000000000000000e+00 0.000000000000000e+00
0.000000000000000e+00 0.000000000000000e+00 0.000000000000000e+00

0.000000000000000e+00 0.000000000000000e+00 0.000000000000000e+00
0.000000000000000e+00 0.000000000000000e+00 0.000000000000000e+00
0.000000000000000e+00 0.000000000000000e+00 0.000000000000000e+00

0.000000000000000e+00 0.000000000000000e+00 0.000000000000000e+00
0.000000000000000e+00 0.000000000000000e+00 0.000000000000000e+00
0.000000000000000e+00 0.000000000000000e+00 0.000000000000000e+00

0.000000000000000e+00 0.000000000000000e+00 0.000000000000000e+00
0.000000000000000e+00 0.000000000000000e+00 0.000000000000000e+00
0.000000000000000e+00 0.000000000000000e+00 0.000000000000000e+00

0.000000000000000e+00 0.000000000000000e+00 0.000000000000000e+00
0.000000000000000e+00 0.000000000000000e+00 0.000000000000000e+00
0.000000000000000e+00 0.000000000000000e+00 0.000000000000000e+00

0.000000000000000e+00 0.000000000000000e+00 0.000000000000000e+00
0.000000000000000e+00 0.000000000000000e+00 0.000000000000000e+00
0.000000000000000e+00 0.000000000000000e+00 0.000000000000000e+00

0.000000000000000e+00 0.000000000000000e+00 0.000000000000000e+00
0.000000000000000e+00 0.000000000000000e+00 0.000000000000000e+00
0.000000000000000e+00 0.000000000000000e+00 0.000000000000000e+00

0.000000000000000e+00 0.000000000000000e+00 0.000000000000000e+00
0.000000000000000e+00 0.000000000000000e+00 0.000000000000000e+00
0.000000000000000e+00 0.000000000000000e+00 0.000000000000000e+00

0.000000000000000e+00 0.000000000000000e+00 0.000000000000000e+00
0.000000000000000e+00 0.000000000000000e+00 0.000000000000000e+00
0.000000000000000e+00 0.000000000000000e+00 0.000000000000000e+00

0.000000000000000e+00 0.000000000000000e+00 0.000000000000000e+00
0.000000000000000e+00 0.000000000000000e+00 0.000000000000000e+00
0.000000000000000e+00 0.000000000000000e+00 0.000000000000000e+00

0.000000000000000e+00 0.000000000000000e+00 0.000000000000000e+00
0.000000000000000e+00 0.000000000000000e+00 0.000000000000000e+00
0.000000000000000e+00 0.000000000000000e+00 0.000000000000000e+00

0.000000000000000e+00 0.000000000000000e+00 0.000000000000000e+00
0.000000000000000e+00 0.000000000000000e+00 0.000000000000000e+00
0.000000000000000e+00 0.000000000000000e+00 0.000000000000000e+00

0.000000000000000e+00 0.000000000000000e+00 0.000000000000000e+00
0.000000000000000e+00 0.000000000000000e+00 0.000000000000000e+00
0.000000000000000e+00 0.000000000000000e+00 0.000000000000000e+00

0.000000000000000e+00 0.000000000000000e+00 0.000000000000000e+00
0.000000000000000e+00 0.000000000000000e+00 0.000000000000000e+00
0.000000000000000e+00 0.000000000000000e+00 0.000000000000000e+00

0.000000000000000e+00 0.000000000000000e+00 0.000000000000000e+00
0.000000000000000e+00 0.000000000000000e+00 0.000000000000000e+00
0.000000000000000e+00 0.000000000000000e+00 0.000000000000000e+00

0.000000000000000e+00 0.000000000000000e+00 0.000000000000000e+00
0.000000000000000e+00 0.000000000000000e+00 0.000000000000000e+00
0.000000000000000e+00 0.000000000000000e+00 0.000000000000000e+00

0.000000000000000e+00 0.000000000000000e+00 0.000000000000000e+00
0.000000000000000e+00 0.000000000000000e+00 0.000000000000000e+00
0.000000000000000e+00 0.000000000000000e+00 0.000000000000000e+00

0.000000000000000e+00 0.000000000000000e+00 0.000000000000000e+00
0.000000000000000e+00 0.000000000000000e+00 0.000000000000000e+00
0.000000000000000e+00 0.000000000000000e+00 0.000000000000000e+00

0.000000000000000e+00 0.000000000000000e+00 0.000000000000000e+00
0.000000000000000e+00 0.000000000000000e+00 0.000000000000000e+00
0.000000000000000e+00 0.000000000000000e+00 0.000000000000000e+00

0.000000000000000e+00 0.000000000000000e+00 0.000000000000000e+00
0.000000000000000e+00 0.000000000000000e+00 0.000000000000000e+00
0.000000000000000e+00 0.000000000000000e+00 0.000000000000000e+00

0.000000000000000e+00 0.000000000000000e+00 0.000000000000000e+00
0.000000000000000e+00 0.000000000000000e+00 0.000000000000000e+00
0.000000000000000e+00 0.000000000000000e+00 0.000000000000000e+00

0.000000000000000e+00 0.000000000000000e+00 0.000000000000000e+00
0.000000000000000e+00 0.000000000000000e+00 0.000000000000000e+00
0.000000000000000e+00 0.000000000000000e+00 0.000000000000000e+00

0.000000000000000e+00 0.000000000000000e+00 0.000000000000000e+00
0.000000000000000e+00 0.000000000000000e+00 0.000000000000000e+00
0.000000000000000e+00 0.000000000000000e+00 0.000000000000000e+00

0.000000000000000e+00 0.000000000000000e+00 0.000000000000000e+00
0.000000000000000e+00 0.000000000000000e+00 0.000000000000000e+00
0.000000000000000e+00 0.000000000000000e+00 0.000000000000000e+00

0.000000000000000e+00 0.000000000000000e+00 0.000000000000000e+00
0.000000000000000e+00 0.000000000000000e+00 0.000000000000000e+00
0.000000000000000e+00 0.000000000000000e+00 0.000000000000000e+00

0.000000000000000e+00 0.000000000000000e+00 0.000000000000000e+00
0.000000000000000e+00 0.000000000000000e+00 0.000000000000000e+00
0.000000000000000e+00 0.000000000000000e+00 0.000000000000000e+00

0.000000000000000e+00 0.000000000000000e+00 0.000000000000000e+00
0.000000000000000e+00 0.000000000000000e+00 0.000000000000000e+00
0.000000000000000e+00 0.000000000000000e+00 0.000000000000000e+00

0.000000000000000e+00 0.000000000000000e+00 0.000000000000000e+00
0.000000000000000e+00 0.000000000000000e+00 0.000000000000000e+00
0.000000000000000e+00 0.000000000000000e+00 0.000000000000000e+00

0.000000000000000e+00 0.000000000000000e+00 0.000000000000000e+00
0.000000000000000e+00 0.000000000000000e+00 0.000000000000000e+00
0.000000000000000e+00 0.000000000000000e+00 0.000000000000000e+00

0.000000000000000e+00 0.000000000000000e+00 0.000000000000000e+00
0.000000000000000e+00 0.000000000000000e+00 0.000000000000000e+00
0.000000000000000e+00 0.000000000000000e+00 0.000000000000000e+00

0.000000000000000e+00 0.000000000000000e+00 0.000000000000000e+00
0.000000000000000e+00 0.000000000000000e+00 0.000000000000000e+00
0.000000000000000e+00 0.000000000000000e+00 0.000000000000000e+00

0.000000000000000e+00 0.000000000000000e+00 0.000000000000000e+00
0.000000000000000e+00 0.000000000000000e+00 0.000000000000000e+00
0.000000000000000e+00 0.000000000000000e+00 0.000000000000000e+00

0.000000000000000e+00 0.000000000000000e+00 0.000000000000000e+00
0.000000000000000e+00 0.000000000000000e+00 0.000000000000000e+00
0.000000000000000e+00 0.000000000000000e+00 0.000000000000000e+00

0.000000000000000e+00 0.000000000000000e+00 0.000000000000000e+00
0.000000000000000e+00 0.000000000000000e+00 0.000000000000000e+00
0.000000000000000e+00 0.000000000000000e+00 0.000000000000000e+00

0.000000000000000e+00 0.000000000000000e+00 0.000000000000000e+00
0.000000000000000e+00 0.000000000000000e+00 0.000000000000000e+00
0.000000000000000e+00 0.000000000000000e+00 0.000000000000000e+00

0.000000000000000e+00 0.000000000000000e+00 0.000000000000000e+00
0.000000000000000e+00 0.000000000000000e+00 0.000000000000000e+00
0.000000000000000e+00 0.000000000000000e+00 0.000000000000000e+00

0.000000000000000e+00 0.000000000000000e+00 0.000000000000000e+00
0.000000000000000e+00 0.000000000000000e+00 0.000000000000000e+00
0.000000000000000e+00 0.000000000000000e+00 0.000000000000000e+00

0.000000000000000e+00 0.000000000000000e+00 0.000000000000000e+00
0.000000000000000e+00 0.000000000000000e+00 0.000000000000000e+00
0.000000000000000e+00 0.000000000000000e+00 0.000000000000000e+00

0.000000000000000e+00 0.000000000000000e+00 0.000000000000000e+00
0.000000000000000e+00 0.000000000000000e+00 0.000000000000000e+00
0.000000000000000e+00 0.000000000000000e+00 0.000000000000000e+00

0.000000000000000e+00 0.000000000000000e+00 0.000000000000000e+00
0.000000000000000e+00 0.000000000000000e+00 0.000000000000000e+00
0.000000000000000e+00 0.000000000000000e+00 0.000000000000000e+00

0.000000000000000e+00 0.000000000000000e+00 0.000000000000000e+00
0.000000000000000e+00 0.000000000000000e+00 0.000000000000000e+00
0.000000000000000e+00 0.000000000000000e+00 0.000000000000000e+00

0.000000000000000e+00 0.000000000000000e+00 0.000000000000000e+00
0.000000000000000e+00 0.000000000000000e+00 0.000000000000000e+00
0.000000000000000e+00 0.000000000000000e+00 0.000000000000000e+00

0.000000000000000e+00 0.000000000000000e+00 0.000000000000000e+00
0.000000000000000e+00 0.000000000000000e+00 0.000000000000000e+00
0.000000000000000e+00 0.000000000000000e+00 0.000000000000000e+00

0.000000000000000e+00 0.000000000000000e+00 0.000000000000000e+00
0.000000000000000e+00 0.000000000000000e+00 0.000000000000000e+00
0.000000000000000e+00 0.000000000000000e+00 0.000000000000000e+00

0.000000000000000e+00 0.000000000000000e+00 0.000000000000000e+00
0.000000000000000e+00 0.000000000000000e+00 0.000000000000000e+00
0.000000000000000e+00 0.000000000000000e+00 0.000000000000000e+00

0.000000000000000e+00 0.000000000000000e+00 0.000000000000000e+00
0.000000000000000e+00 0.000000000000000e+00 0.000000000000000e+00
0.000000000000000e+00 0.000000000000000e+00 0.000000000000000e+00

0.000000000000000e+00 0.000000000000000e+00 0.000000000000000e+00
0.000000000000000e+00 0.000000000000000e+00 0.000000000000000e+00
0.000000000000000e+00 0.000000000000000e+00 0.000000000000000e+00

0.000000000000000e+00 0.000000000000000e+00 0.000000000000000e+00
0.000000000000000e+00 0.000000000000000e+00 0.000000000000000e+00
0.000000000000000e+00 0.000000000000000e+00 0.000000000000000e+00

0.000000000000000e+00 0.000000000000000e+00 0.000000000000000e+00
0.000000000000000e+00 0.000000000000000e+00 0.000000000000000e+00
0.000000000000000e+00 0.000000000000000e+00 0.000000000000000e+00

0.000000000000000e+00 0.000000000000000e+00 0.000000000000000e+00
0.000000000000000e+00 0.000000000000000e+00 0.000000000000000e+00
0.000000000000000e+00 0.000000000000000e+00 0.000000000000000e+00

0.000000000000000e+00 0.000000000000000e+00 0.000000000000000e+00
0.000000000000000e+00 0.000000000000000e+00 0.000000000000000e+00
0.000000000000000e+00 0.000000000000000e+00 0.000000000000000e+00

0.000000000000000e+00 0.000000000000000e+00 0.000000000000000e+00
0.000000000000000e+00 0.000000000000000e+00 0.000000000000000e+00
0.000000000000000e+00 0.000000000000000e+00 0.000000000000000e+00

0.000000000000000e+00 0.000000000000000e+00 0.000000000000000e+00
0.000000000000000e+00 0.000000000000000e+00 0.000000000000000e+00
0.000000000000000e+00 0.000000000000000e+00 0.000000000000000e+00

0.000000000000000e+00 0.000000000000000e+00 0.000000000000000e+00
0.000000000000000e+00 0.000000000000000e+00 0.000000000000000e+00
0.000000000000000e+00 0.000000000000000e+00 0.000000000000000e+00

0.000000000000000e+00 0.000000000000000e+00 0.000000000000000e+00
0.000000000000000e+00 0.000000000000000e+00 0.000000000000000e+00
0.000000000000000e+00 0.000000000000000e+00 0.000000000000000e+00

0.000000000000000e+00 0.000000000000000e+00 0.000000000000000e+00
0.000000000000000e+00 0.000000000000000e+00 0.000000000000000e+00
0.000000000000000e+00 0.000000000000000e+00 0.000000000000000e+00

0.000000000000000e+00 0.000000000000000e+00 0.000000000000000e+00
0.000000000000000e+00 0.000000000000000e+00 0.000000000000000e+00
0.000000000000000e+00 0.000000000000000e+00 0.000000000000000e+00

0.000000000000000e+00 0.000000000000000e+00 0.000000000000000e+00
0.000000000000000e+00 0.000000000000000e+00 0.000000000000000e+00
0.000000000000000e+00 0.000000000000000e+00 0.000000000000000e+00

0.000000000000000e+00 0.000000000000000e+00 0.000000000000000e+00
0.000000000000000e+00 0.000000000000000e+00 0.000000000000000e+00
0.000000000000000e+00 0.000000000000000e+00 0.000000000000000e+00

0.000000000000000e+00 0.000000000000000e+00 0.000000000000000e+00
0.000000000000000e+00 0.000000000000000e+00 0.000000000000000e+00
0.000000000000000e+00 0.000000000000000e+00 0.000000000000000e+00

0.000000000000000e+00 0.000000000000000e+00 0.000000000000000e+00
0.000000000000000e+00 0.000000000000000e+00 0.000000000000000e+00
0.000000000000000e+00 0.000000000000000e+00 0.000000000000000e+00

0.000000000000000e+00 0.000000000000000e+00 0.000000000000000e+00
0.000000000000000e+00 0.000000000000000e+00 0.000000000000000e+00
0.000000000000000e+00 0.000000000000000e+00 0.000000000000000e+00

0.000000000000000e+00 0.000000000000000e+00 0.000000000000000e+00
0.000000000000000e+00 0.000000000000000e+00 0.000000000000000e+00
0.000000000000000e+00 0.000000000000000e+00 0.000000000000000e+00

0.000000000000000e+00 0.000000000000000e+00 0.000000000000000e+00
0.000000000000000e+00 0.000000000000000e+00 0.000000000000000e+00
0.000000000000000e+00 0.000000000000000e+00 0.000000000000000e+00

0.000000000000000e+00 0.000000000000000e+00 0.000000000000000e+00
0.000000000000000e+00 0.000000000000000e+00 0.000000000000000e+00
0.000000000000000e+00 0.000000000000000e+00 0.000000000000000e+00

0.000000000000000e+00 0.000000000000000e+00 0.000000000000000e+00
0.000000000000000e+00 0.000000000000000e+00 0.000000000000000e+00
0.000000000000000e+00 0.000000000000000e+00 0.000000000000000e+00

0.000000000000000e+00 0.000000000000000e+00 0.000000000000000e+00
0.000000000000000e+00 0.000000000000000e+00 0.000000000000000e+00
0.000000000000000e+00 0.000000000000000e+00 0.000000000000000e+00

0.000000000000000e+00 0.000000000000000e+00 0.000000000000000e+00
0.000000000000000e+00 0.000000000000000e+00 0.000000000000000e+00
0.000000000000000e+00 0.000000000000000e+00 0.000000000000000e+00

0.000000000000000e+00 0.000000000000000e+00 0.000000000000000e+00
0.000000000000000e+00 0.000000000000000e+00 0.000000000000000e+00
0.000000000000000e+00 0.000000000000000e+00 0.000000000000000e+00

0.000000000000000e+00 0.000000000000000e+00 0.000000000000000e+00
0.000000000000000e+00 0.000000000000000e+00 0.000000000000000e+00
0.000000000000000e+00 0.000000000000000e+00 0.000000000000000e+00

0.000000000000000e+00 0.000000000000000e+00 0.000000000000000e+00
0.000000000000000e+00 0.000000000000000e+00 0.000000000000000e+00
0.000000000000000e+00 0.000000000000000e+00 0.000000000000000e+00

0.000000000000000e+00 0.000000000000000e+00 0.000000000000000e+00
0.000000000000000e+00 0.000000000000000e+00 0.000000000000000e+00
0.000000000000000e+00 0.000000000000000e+00 0.000000000000000e+00

0.000000000000000e+00 0.000000000000000e+00 0.000000000000000e+00
0.000000000000000e+00 0.000000000000000e+00 0.000000000000000e+00
0.000000000000000e+00 0.000000000000000e+00 0.000000000000000e+00

0.000000000000000e+00 0.000000000000000e+00 0.000000000000000e+00
0.000000000000000e+00 0.000000000000000e+00 0.000000000000000e+00
0.000000000000000e+00 0.000000000000000e+00 0.000000000000000e+00

0.000000000000000e+00 0.000000000000000e+00 0.000000000000000e+00
0.000000000000000e+00 0.000000000000000e+00 0.000000000000000e+00
0.000000000000000e+00 0.000000000000000e+00 0.000000000000000e+00

0.000000000000000e+00 0.000000000000000e+00 0.000000000000000e+00
0.000000000000000e+00 0.000000000000000e+00 0.000000000000000e+00
0.000000000000000e+00 0.000000000000000e+00 0.000000000000000e+00

0.000000000000000e+00 0.000000000000000e+00 0.000000000000000e+00
0.000000000000000e+00 0.000000000000000e+00 0.000000000000000e+00
0.000000000000000e+00 0.000000000000000e+00 0.000000000000000e+00

0.000000000000000e+00 0.000000000000000e+00 0.000000000000000e+00
0.000000000000000e+00 0.000000000000000e+00 0.000000000000000e+00
0.000000000000000e+00 0.000000000000000e+00 0.000000000000000e+00

0.000000000000000e+00 0.000000000000000e+00 0.000000000000000e+00
0.000000000000000e+00 0.000000000000000e+00 0.000000000000000e+00
0.000000000000000e+00 0.000000000000000e+00 0.000000000000000e+00

0.000000000000000e+00 0.000000000000000e+00 0.000000000000000e+00
0.000000000000000e+00 0.000000000000000e+00 0.000000000000000e+00
0.000000000000000e+00 0.000000000000000e+00 0.000000000000000e+00

0.000000000000000e+00 0.000000000000000e+00 0.000000000000000e+00
0.000000000000000e+00 0.000000000000000e+00 0.000000000000000e+00
0.000000000000000e+00 0.000000000000000e+00 0.000000000000000e+00

0.000000000000000e+00 0.000000000000000e+00 0.000000000000000e+00
0.000000000000000e+00 0.000000000000000e+00 0.000000000000000e+00
0.000000000000000e+00 0.000000000000000e+00 0.000000000000000e+00

0.000000000000000e+00 0.000000000000000e+00 0.000000000000000e+00
0.000000000000000e+00 0.000000000000000e+00 0.000000000000000e+00
0.000000000000000e+00 0.000000000000000e+00 0.000000000000000e+00

0.000000000000000e+00 0.000000000000000e+00 0.000000000000000e+00
0.000000000000000e+00 0.000000000000000e+00 0.000000000000000e+00
0.000000000000000e+00 0.000000000000000e+00 0.000000000000000e+00

0.000000000000000e+00 0.000000000000000e+00 0.000000000000000e+00
0.000000000000000e+00 0.000000000000000e+00 0.000000000000000e+00
0.000000000000000e+00 0.000000000000000e+00 0.000000000000000e+00

0.000000000000000e+00 0.000000000000000e+00 0.000000000000000e+00
0.000000000000000e+00 0.000000000000000e+00 0.000000000000000e+00
0.000000000000000e+00 0.000000000000000e+00 0.000000000000000e+00

0.000000000000000e+00 0.000000000000000e+00 0.000000000000000e+00
0.000000000000000e+00 0.000000000000000e+00 0.000000000000000e+00
0.000000000000000e+00 0.000000000000000e+00 0.000000000000000e+00

0.000000000000000e+00 0.000000000000000e+00 0.000000000000000e+00
0.000000000000000e+00 0.000000000000000e+00 0.000000000000000e+00
0.000000000000000e+00 0.000000000000000e+00 0.000000000000000e+00

0.000000000000000e+00 0.000000000000000e+00 0.000000000000000e+00
0.000000000000000e+00 0.000000000000000e+00 0.000000000000000e+00
0.000000000000000e+00 0.000000000000000e+00 0.000000000000000e+00

0.000000000000000e+00 0.000000000000000e+00 0.000000000000000e+00
0.000000000000000e+00 0.000000000000000e+00 0.000000000000000e+00
0.000000000000000e+00 0.000000000000000e+00 0.000000000000000e+00

0.000000000000000e+00 0.000000000000000e+00 0.000000000000000e+00
0.000000000000000e+00 0.000000000000000e+00 0.000000000000000e+00
0.000000000000000e+00 0.000000000000000e+00 0.000000000000000e+00

0.000000000000000e+00 0.000000000000000e+00 0.000000000000000e+00
0.000000000000000e+00 0.000000000000000e+00 0.000000000000000e+00
0.000000000000000e+00 0.000000000000000e+00 0.000000000000000e+00

0.000000000000000e+00 0.000000000000000e+00 0.000000000000000e+00
0.000000000000000e+00 0.000000000000000e+00 0.000000000000000e+00
0.000000000000000e+00 0.000000000000000e+00 0.000000000000000e+00

0.000000000000000e+00 0.000000000000000e+00 0.000000000000000e+00
0.000000000000000e+00 0.000000000000000e+00 0.000000000000000e+00
0.000000000000000e+00 0.000000000000000e+00 0.000000000000000e+00

0.000000000000000e+00 0.000000000000000e+00 0.000000000000000e+00
0.000000000000000e+00 0.000000000000000e+00 0.000000000000000e+00
0.000000000000000e+00 0.000000000000000e+00 0.000000000000000e+00

0.000000000000000e+00 0.000000000000000e+00 0.000000000000000e+00
0.000000000000000e+00 0.000000000000000e+00 0.000000000000000e+00
0.000000000000000e+00 0.000000000000000e+00 0.000000000000000e+00

0.000000000000000e+00 0.000000000000000e+00 0.000000000000000e+00
0.000000000000000e+00 0.000000000000000e+00 0.000000000000000e+00
0.000000000000000e+00 0.000000000000000e+00 0.000000000000000e+00

0.000000000000000e+00 0.000000000000000e+00 0.000000000000000e+00
0.000000000000000e+00 0.000000000000000e+00 0.000000000000000e+00
0.000000000000000e+00 0.000000000000000e+00 0.000000000000000e+00

0.000000000000000e+00 0.000000000000000e+00 0.000000000000000e+00
0.000000000000000e+00 0.000000000000000e+00 0.000000000000000e+00
0.000000000000000e+00 0.000000000000000e+00 0.000000000000000e+00

0.000000000000000e+00 0.000000000000000e+00 0.000000000000000e+00
0.000000000000000e+00 0.000000000000000e+00 0.000000000000000e+00
0.000000000000000e+00 0.000000000000000e+00 0.000000000000000e+00

0.000000000000000e+00 0.000000000000000e+00 0.000000000000000e+00
0.000000000000000e+00 0.000000000000000e+00 0.000000000000000e+00
0.000000000000000e+00 0.000000000000000e+00 0.000000000000000e+00

0.000000000000000e+00 0.000000000000000e+00 0.000000000000000e+00
0.000000000000000e+00 0.000000000000000e+00 0.000000000000000e+00
0.000000000000000e+00 0.000000000000000e+00 0.000000000000000e+00

0.000000000000000e+00 0.000000000000000e+00 0.000000000000000e+00
0.000000000000000e+00 0.000000000000000e+00 0.000000000000000e+00
0.000000000000000e+00 0.000000000000000e+00 0.000000000000000e+00

0.000000000000000e+00 0.000000000000000e+00 0.000000000000000e+00
0.000000000000000e+00 0.000000000000000e+00 0.000000000000000e+00
0.000000000000000e+00 0.000000000000000e+00 0.000000000000000e+00

0.000000000000000e+00 0.000000000000000e+00 0.000000000000000e+00
0.000000000000000e+00 0.000000000000000e+00 0.000000000000000e+00
0.000000000000000e+00 0.000000000000000e+00 0.000000000000000e+00

0.000000000000000e+00 0.000000000000000e+00 0.000000000000000e+00
0.000000000000000e+00 0.000000000000000e+00 0.000000000000000e+00
0.000000000000000e+00 0.000000000000000e+00 0.000000000000000e+00

0.000000000000000e+00 0.000000000000000e+00 0.000000000000000e+00
0.000000000000000e+00 0.000000000000000e+00 0.000000000000000e+00
0.000000000000000e+00 0.000000000000000e+00 0.000000000000000e+00

0.000000000000000e+00 0.000000000000000e+00 0.000000000000000e+00
0.000000000000000e+00 0.000000000000000e+00 0.000000000000000e+00
0.000000000000000e+00 0.000000000000000e+00 0.000000000000000e+00

0.000000000000000e+00 0.000000000000000e+00 0.000000000000000e+00
0.000000000000000e+00 0.000000000000000e+00 0.000000000000000e+00
0.000000000000000e+00 0.000000000000000e+00 0.000000000000000e+00

0.000000000000000e+00 0.000000000000000e+00 0.000000000000000e+00
0.000000000000000e+00 0.000000000000000e+00 0.000000000000000e+00
0.000000000000000e+00 0.000000000000000e+00 0.000000000000000e+00

0.000000000000000e+00 0.000000000000000e+00 0.000000000000000e+00
0.000000000000000e+00 0.000000000000000e+00 0.000000000000000e+00
0.000000000000000e+00 0.000000000000000e+00 0.000000000000000e+00

0.000000000000000e+00 0.000000000000000e+00 0.000000000000000e+00
0.000000000000000e+00 0.000000000000000e+00 0.000000000000000e+00
0.000000000000000e+00 0.000000000000000e+00 0.000000000000000e+00

0.000000000000000e+00 0.000000000000000e+00 0.000000000000000e+00
0.000000000000000e+00 0.000000000000000e+00 0.000000000000000e+00
0.000000000000000e+00 0.000000000000000e+00 0.000000000000000e+00

0.000000000000000e+00 0.000000000000000e+00 0.000000000000000e+00
0.000000000000000e+00 0.000000000000000e+00 0.000000000000000e+00
0.000000000000000e+00 0.000000000000000e+00 0.000000000000000e+00

0.000000000000000e+00 0.000000000000000e+00 0.000000000000000e+00
0.000000000000000e+00 0.000000000000000e+00 0.000000000000000e+00
0.000000000000000e+00 0.000000000000000e+00 0.000000000000000e+00

0.000000000000000e+00 0.000000000000000e+00 0.000000000000000e+00
0.000000000000000e+00 0.000000000000000e+00 0.000000000000000e+00
0.000000000000000e+00 0.000000000000000e+00 0.000000000000000e+00

0.000000000000000e+00 0.000000000000000e+00 0.000000000000000e+00
0.000000000000000e+00 0.000000000000000e+00 0.000000000000000e+00
0.000000000000000e+00 0.000000000000000e+00 0.000000000000000e+00

0.000000000000000e+00 0.000000000000000e+00 0.000000000000000e+00
0.000000000000000e+00 0.000000000000000e+00 0.000000000000000e+00
0.000000000000000e+00 0.000000000000000e+00 0.000000000000000e+00

0.000000000000000e+00 0.000000000000000e+00 0.000000000000000e+00
0.000000000000000e+00 0.000000000000000e+00 0.000000000000000e+00
0.000000000000000e+00 0.000000000000000e+00 0.000000000000000e+00

0.000000000000000e+00 0.000000000000000e+00 0.000000000000000e+00
0.000000000000000e+00 0.000000000000000e+00 0.000000000000000e+00
0.000000000000000e+00 0.000000000000000e+00 0.000000000000000e+00

0.000000000000000e+00 0.000000000000000e+00 0.000000000000000e+00
0.000000000000000e+00 0.000000000000000e+00 0.000000000000000e+00
0.000000000000000e+00 0.000000000000000e+00 0.000000000000000e+00

0.000000000000000e+00 0.000000000000000e+00 0.000000000000000e+00
0.000000000000000e+00 0.000000000000000e+00 0.000000000000000e+00
0.000000000000000e+00 0.000000000000000e+00 0.000000000000000e+00

0.000000000000000e+00 0.000000000000000e+00 0.000000000000000e+00
0.000000000000000e+00 0.000000000000000e+00 0.000000000000000e+00
0.000000000000000e+00 0.000000000000000e+00 0.000000000000000e+00

0.000000000000000e+00 0.000000000000000e+00 0.000000000000000e+00
0.000000000000000e+00 0.000000000000000e+00 0.000000000000000e+00
0.000000000000000e+00 0.000000000000000e+00 0.000000000000000e+00

0.000000000000000e+00 0.000000000000000e+00 0.000000000000000e+00
0.000000000000000e+00 0.000000000000000e+00 0.000000000000000e+00
0.000000000000000e+00 0.000000000000000e+00 0.000000000000000e+00

0.000000000000000e+00 0.000000000000000e+00 0.000000000000000e+00
0.000000000000000e+00 0.000000000000000e+00 0.000000000000000e+00
0.000000000000000e+00 0.000000000000000e+00 0.000000000000000e+00

0.000000000000000e+00 0.000000000000000e+00 0.000000000000000e+00
0.000000000000000e+00 0.000000000000000e+00 0.000000000000000e+00
0.000000000000000e+00 0.000000000000000e+00 0.000000000000000e+00

0.000000000000000e+00 0.000000000000000e+00 0.000000000000000e+00
0.000000000000000e+00 0.000000000000000e+00 0.000000000000000e+00
0.000000000000000e+00 0.000000000000000e+00 0.000000000000000e+00

0.000000000000000e+00 0.000000000000000e+00 0.000000000000000e+00
0.000000000000000e+00 0.000000000000000e+00 0.000000000000000e+00
0.000000000000000e+00 0.000000000000000e+00 0.000000000000000e+00

0.000000000000000e+00 0.000000000000000e+00 0.000000000000000e+00
0.000000000000000e+00 0.000000000000000e+00 0.000000000000000e+00
0.000000000000000e+00 0.000000000000000e+00 0.000000000000000e+00

0.000000000000000e+00 0.000000000000000e+00 0.000000000000000e+00
0.000000000000000e+00 0.000000000000000e+00 0.000000000000000e+00
0.000000000000000e+00 0.000000000000000e+00 0.000000000000000e+00

0.000000000000000e+00 0.000000000000000e+00 0.000000000000000e+00
0.000000000000000e+00 0.000000000000000e+00 0.000000000000000e+00
0.000000000000000e+00 0.000000000000000e+00 0.000000000000000e+00

0.000000000000000e+00 0.000000000000000e+00 0.000000000000000e+00
0.000000000000000e+00 0.000000000000000e+00 0.000000000000000e+00
0.000000000000000e+00 0.000000000000000e+00 0.000000000000000e+00

0.000000000000000e+00 0.000000000000000e+00 0.000000000000000e+00
0.000000000000000e+00 0.000000000000000e+00 0.000000000000000e+00
0.000000000000000e+00 0.000000000000000e+00 0.000000000000000e+00

0.000000000000000e+00 0.000000000000000e+00 0.000000000000000e+00
0.000000000000000e+00 0.000000000000000e+00 0.000000000000000e+00
0.000000000000000e+00 0.000000000000000e+00 0.000000000000000e+00

0.000000000000000e+00 0.000000000000000e+00 0.000000000000000e+00
0.000000000000000e+00 0.000000000000000e+00 0.000000000000000e+00
0.000000000000000e+00 0.000000000000000e+00 0.000000000000000e+00

0.000000000000000e+00 0.000000000000000e+00 0.000000000000000e+00
0.000000000000000e+00 0.000000000000000e+00 0.000000000000000e+00
0.000000000000000e+00 0.000000000000000e+00 0.000000000000000e+00

0.000000000000000e+00 0.000000000000000e+00 0.000000000000000e+00
0.000000000000000e+00 0.000000000000000e+00 0.000000000000000e+00
0.000000000000000e+00 0.000000000000000e+00 0.000000000000000e+00

0.000000000000000e+00 0.000000000000000e+00 0.000000000000000e+00
0.000000000000000e+00 0.000000000000000e+00 0.000000000000000e+00
0.000000000000000e+00 0.000000000000000e+00 0.000000000000000e+00

0.000000000000000e+00 0.000000000000000e+00 0.000000000000000e+00
0.000000000000000e+00 0.000000000000000e+00 0.000000000000000e+00
0.000000000000000e+00 0.000000000000000e+00 0.000000000000000e+00

0.000000000000000e+00 0.000000000000000e+00 0.000000000000000e+00
0.000000000000000e+00 0.000000000000000e+00 0.000000000000000e+00
0.000000000000000e+00 0.000000000000000e+00 0.000000000000000e+00

0.000000000000000e+00 0.000000000000000e+00 0.000000000000000e+00
0.000000000000000e+00 0.000000000000000e+00 0.000000000000000e+00
0.000000000000000e+00 0.000000000000000e+00 0.000000000000000e+00

0.000000000000000e+00 0.000000000000000e+00 0.000000000000000e+00
0.000000000000000e+00 0.000000000000000e+00 0.000000000000000e+00
0.000000000000000e+00 0.000000000000000e+00 0.000000000000000e+00

0.000000000000000e+00 0.000000000000000e+00 0.000000000000000e+00
0.000000000000000e+00 0.000000000000000e+00 0.000000000000000e+00
0.000000000000000e+00 0.000000000000000e+00 0.000000000000000e+00

0.000000000000000e+00 0.000000000000000e+00 0.000000000000000e+00
0.000000000000000e+00 0.000000000000000e+00 0.000000000000000e+00
0.000000000000000e+00 0.000000000000000e+00 0.000000000000000e+00

0.000000000000000e+00 0.000000000000000e+00 0.000000000000000e+00
0.000000000000000e+00 0.000000000000000e+00 0.000000000000000e+00
0.000000000000000e+00 0.000000000000000e+00 0.000000000000000e+00

0.000000000000000e+00 0.000000000000000e+00 0.000000000000000e+00
0.000000000000000e+00 0.000000000000000e+00 0.000000000000000e+00
0.000000000000000e+00 0.000000000000000e+00 0.000000000000000e+00

0.000000000000000e+00 0.000000000000000e+00 0.000000000000000e+00
0.000000000000000e+00 0.000000000000000e+00 0.000000000000000e+00
0.000000000000000e+00 0.000000000000000e+00 0.000000000000000e+00

0.000000000000000e+00 0.000000000000000e+00 0.000000000000000e+00
0.000000000000000e+00 0.000000000000000e+00 0.000000000000000e+00
0.000000000000000e+00 0.000000000000000e+00 0.000000000000000e+00

0.000000000000000e+00 0.000000000000000e+00 0.000000000000000e+00
0.000000000000000e+00 0.000000000000000e+00 0.000000000000000e+00
0.000000000000000e+00 0.000000000000000e+00 0.000000000000000e+00

0.000000000000000e+00 0.000000000000000e+00 0.000000000000000e+00
0.000000000000000e+00 0.000000000000000e+00 0.000000000000000e+00
0.000000000000000e+00 0.000000000000000e+00 0.000000000000000e+00

0.000000000000000e+00 0.000000000000000e+00 0.000000000000000e+00
0.000000000000000e+00 0.000000000000000e+00 0.000000000000000e+00
0.000000000000000e+00 0.000000000000000e+00 0.000000000000000e+00

0.000000000000000e+00 0.000000000000000e+00 0.000000000000000e+00
0.000000000000000e+00 0.000000000000000e+00 0.000000000000000e+00
0.000000000000000e+00 0.000000000000000e+00 0.000000000000000e+00

0.000000000000000e+00 0.000000000000000e+00 0.000000000000000e+00
0.000000000000000e+00 0.000000000000000e+00 0.000000000000000e+00
0.000000000000000e+00 0.000000000000000e+00 0.000000000000000e+00

0.000000000000000e+00 0.000000000000000e+00 0.000000000000000e+00
0.000000000000000e+00 0.000000000000000e+00 0.000000000000000e+00
0.000000000000000e+00 0.000000000000000e+00 0.000000000000000e+00

0.000000000000000e+00 0.000000000000000e+00 0.000000000000000e+00
0.000000000000000e+00 0.000000000000000e+00 0.000000000000000e+00
0.000000000000000e+00 0.000000000000000e+00 0.000000000000000e+00

0.000000000000000e+00 0.000000000000000e+00 0.000000000000000e+00
0.000000000000000e+00 0.000000000000000e+00 0.000000000000000e+00
0.000000000000000e+00 0.000000000000000e+00 0.000000000000000e+00

0.000000000000000e+00 0.000000000000000e+00 0.000000000000000e+00
0.000000000000000e+00 0.000000000000000e+00 0.000000000000000e+00
0.000000000000000e+00 0.000000000000000e+00 0.000000000000000e+00

0.000000000000000e+00 0.000000000000000e+00 0.000000000000000e+00
0.000000000000000e+00 0.000000000000000e+00 0.000000000000000e+00
0.000000000000000e+00 0.000000000000000e+00 0.000000000000000e+00

0.000000000000000e+00 0.000000000000000e+00 0.000000000000000e+00
0.000000000000000e+00 0.000000000000000e+00 0.000000000000000e+00
0.000000000000000e+00 0.000000000000000e+00 0.000000000000000e+00

0.000000000000000e+00 0.000000000000000e+00 0.000000000000000e+00
0.000000000000000e+00 0.000000000000000e+00 0.000000000000000e+00
0.000000000000000e+00 0.000000000000000e+00 0.000000000000000e+00

0.000000000000000e+00 0.000000000000000e+00 0.000000000000000e+00
0.000000000000000e+00 0.000000000000000e+00 0.000000000000000e+00
0.000000000000000e+00 0.000000000000000e+00 0.000000000000000e+00

0.000000000000000e+00 0.000000000000000e+00 0.000000000000000e+00
0.000000000000000e+00 0.000000000000000e+00 0.000000000000000e+00
0.000000000000000e+00 0.000000000000000e+00 0.000000000000000e+00

0.000000000000000e+00 0.000000000000000e+00 0.000000000000000e+00
0.000000000000000e+00 0.000000000000000e+00 0.000000000000000e+00
0.000000000000000e+00 0.000000000000000e+00 0.000000000000000e+00

0.000000000000000e+00 0.000000000000000e+00 0.000000000000000e+00
0.000000000000000e+00 0.000000000000000e+00 0.000000000000000e+00
0.000000000000000e+00 0.000000000000000e+00 0.000000000000000e+00

0.000000000000000e+00 0.000000000000000e+00 0.000000000000000e+00
0.000000000000000e+00 0.000000000000000e+00 0.000000000000000e+00
0.000000000000000e+00 0.000000000000000e+00 0.000000000000000e+00

0.000000000000000e+00 0.000000000000000e+00 0.000000000000000e+00
0.000000000000000e+00 0.000000000000000e+00 0.000000000000000e+00
0.000000000000000e+00 0.000000000000000e+00 0.000000000000000e+00

0.000000000000000e+00 0.000000000000000e+00 0.000000000000000e+00
0.000000000000000e+00 0.000000000000000e+00 0.000000000000000e+00
0.000000000000000e+00 0.000000000000000e+00 0.000000000000000e+00

0.000000000000000e+00 0.000000000000000e+00 0.000000000000000e+00
0.000000000000000e+00 0.000000000000000e+00 0.000000000000000e+00
0.000000000000000e+00 0.000000000000000e+00 0.000000000000000e+00

0.000000000000000e+00 0.000000000000000e+00 0.000000000000000e+00
0.000000000000000e+00 0.000000000000000e+00 0.000000000000000e+00
0.000000000000000e+00 0.000000000000000e+00 0.000000000000000e+00

0.000000000000000e+00 0.000000000000000e+00 0.000000000000000e+00
0.000000000000000e+00 0.000000000000000e+00 0.000000000000000e+00
0.000000000000000e+00 0.000000000000000e+00 0.000000000000000e+00

0.000000000000000e+00 0.000000000000000e+00 0.000000000000000e+00
0.000000000000000e+00 0.000000000000000e+00 0.000000000000000e+00
0.000000000000000e+00 0.000000000000000e+00 0.000000000000000e+00

0.000000000000000e+00 0.000000000000000e+00 0.000000000000000e+00
0.000000000000000e+00 0.000000000000000e+00 0.000000000000000e+00
0.000000000000000e+00 0.000000000000000e+00 0.000000000000000e+00

0.000000000000000e+00 0.000000000000000e+00 0.000000000000000e+00
0.000000000000000e+00 0.000000000000000e+00 0.000000000000000e+00
0.000000000000000e+00 0.000000000000000e+00 0.000000000000000e+00

0.000000000000000e+00 0.000000000000000e+00 0.000000000000000e+00
0.000000000000000e+00 0.000000000000000e+00 0.000000000000000e+00
0.000000000000000e+00 0.000000000000000e+00 0.000000000000000e+00

0.000000000000000e+00 0.000000000000000e+00 0.000000000000000e+00
0.000000000000000e+00 0.000000000000000e+00 0.000000000000000e+00
0.000000000000000e+00 0.000000000000000e+00 0.000000000000000e+00

0.000000000000000e+00 0.000000000000000e+00 0.000000000000000e+00
0.000000000000000e+00 0.000000000000000e+00 0.000000000000000e+00
0.000000000000000e+00 0.000000000000000e+00 0.000000000000000e+00

0.000000000000000e+00 0.000000000000000e+00 0.000000000000000e+00
0.000000000000000e+00 0.000000000000000e+00 0.000000000000000e+00
0.000000000000000e+00 0.000000000000000e+00 0.000000000000000e+00

0.000000000000000e+00 0.000000000000000e+00 0.000000000000000e+00
0.000000000000000e+00 0.000000000000000e+00 0.000000000000000e+00
0.000000000000000e+00 0.000000000000000e+00 0.000000000000000e+00

0.000000000000000e+00 0.000000000000000e+00 0.000000000000000e+00
0.000000000000000e+00 0.000000000000000e+00 0.000000000000000e+00
0.000000000000000e+00 0.000000000000000e+00 0.000000000000000e+00

0.000000000000000e+00 0.000000000000000e+00 0.000000000000000e+00
0.000000000000000e+00 0.000000000000000e+00 0.000000000000000e+00
0.000000000000000e+00 0.000000000000000e+00 0.000000000000000e+00

0.000000000000000e+00 0.000000000000000e+00 0.000000000000000e+00
0.000000000000000e+00 0.000000000000000e+00 0.000000000000000e+00
0.000000000000000e+00 0.000000000000000e+00 0.000000000000000e+00

0.000000000000000e+00 0.000000000000000e+00 0.000000000000000e+00
0.000000000000000e+00 0.000000000000000e+00 0.000000000000000e+00
0.000000000000000e+00 0.000000000000000e+00 0.000000000000000e+00

0.000000000000000e+00 0.000000000000000e+00 0.000000000000000e+00
0.000000000000000e+00 0.000000000000000e+00 0.000000000000000e+00
0.000000000000000e+00 0.000000000000000e+00 0.000000000000000e+00

0.000000000000000e+00 0.000000000000000e+00 0.000000000000000e+00
0.000000000000000e+00 0.000000000000000e+00 0.000000000000000e+00
0.000000000000000e+00 0.000000000000000e+00 0.000000000000000e+00

0.000000000000000e+00 0.000000000000000e+00 0.000000000000000e+00
0.000000000000000e+00 0.000000000000000e+00 0.000000000000000e+00
0.000000000000000e+00 0.000000000000000e+00 0.000000000000000e+00

0.000000000000000e+00 0.000000000000000e+00 0.000000000000000e+00
0.000000000000000e+00 0.000000000000000e+00 0.000000000000000e+00
0.000000000000000e+00 0.000000000000000e+00 0.000000000000000e+00

0.000000000000000e+00 0.000000000000000e+00 0.000000000000000e+00
0.000000000000000e+00 0.000000000000000e+00 0.000000000000000e+00
0.000000000000000e+00 0.000000000000000e+00 0.000000000000000e+00

0.000000000000000e+00 0.000000000000000e+00 0.000000000000000e+00
0.000000000000000e+00 0.000000000000000e+00 0.000000000000000e+00
0.000000000000000e+00 0.000000000000000e+00 0.000000000000000e+00

0.000000000000000e+00 0.000000000000000e+00 0.000000000000000e+00
0.000000000000000e+00 0.000000000000000e+00 0.000000000000000e+00
0.000000000000000e+00 0.000000000000000e+00 0.000000000000000e+00

0.000000000000000e+00 0.000000000000000e+00 0.000000000000000e+00
0.000000000000000e+00 0.000000000000000e+00 0.000000000000000e+00
0.000000000000000e+00 0.000000000000000e+00 0.000000000000000e+00

0.000000000000000e+00 0.000000000000000e+00 0.000000000000000e+00
0.000000000000000e+00 0.000000000000000e+00 0.000000000000000e+00
0.000000000000000e+00 0.000000000000000e+00 0.000000000000000e+00

0.000000000000000e+00 0.000000000000000e+00 0.000000000000000e+00
0.000000000000000e+00 0.000000000000000e+00 0.000000000000000e+00
0.000000000000000e+00 0.000000000000000e+00 0.000000000000000e+00

0.000000000000000e+00 0.000000000000000e+00 0.000000000000000e+00
0.000000000000000e+00 0.000000000000000e+00 0.000000000000000e+00
0.000000000000000e+00 0.000000000000000e+00 0.000000000000000e+00

0.000000000000000e+00 0.000000000000000e+00 0.000000000000000e+00
0.000000000000000e+00 0.000000000000000e+00 0.000000000000000e+00
0.000000000000000e+00 0.000000000000000e+00 0.000000000000000e+00

0.000000000000000e+00 0.000000000000000e+00 0.000000000000000e+00
0.000000000000000e+00 0.000000000000000e+00 0.000000000000000e+00
0.000000000000000e+00 0.000000000000000e+00 0.000000000000000e+00

0.000000000000000e+00 0.000000000000000e+00 0.000000000000000e+00
0.000000000000000e+00 0.000000000000000e+00 0.000000000000000e+00
0.000000000000000e+00 0.000000000000000e+00 0.000000000000000e+00

0.000000000000000e+00 0.000000000000000e+00 0.000000000000000e+00
0.000000000000000e+00 0.000000000000000e+00 0.000000000000000e+00
0.000000000000000e+00 0.000000000000000e+00 0.000000000000000e+00

0.000000000000000e+00 0.000000000000000e+00 0.000000000000000e+00
0.000000000000000e+00 0.000000000000000e+00 0.000000000000000e+00
0.000000000000000e+00 0.000000000000000e+00 0.000000000000000e+00

0.000000000000000e+00 0.000000000000000e+00 0.000000000000000e+00
0.000000000000000e+00 0.000000000000000e+00 0.000000000000000e+00
0.000000000000000e+00 0.000000000000000e+00 0.000000000000000e+00

0.000000000000000e+00 0.000000000000000e+00 0.000000000000000e+00
0.000000000000000e+00 0.000000000000000e+00 0.000000000000000e+00
0.000000000000000e+00 0.000000000000000e+00 0.000000000000000e+00

0.000000000000000e+00 0.000000000000000e+00 0.000000000000000e+00
0.000000000000000e+00 0.000000000000000e+00 0.000000000000000e+00
0.000000000000000e+00 0.000000000000000e+00 0.000000000000000e+00

0.000000000000000e+00 0.000000000000000e+00 0.000000000000000e+00
0.000000000000000e+00 0.000000000000000e+00 0.000000000000000e+00
0.000000000000000e+00 0.000000000000000e+00 0.000000000000000e+00

0.000000000000000e+00 0.000000000000000e+00 0.000000000000000e+00
0.000000000000000e+00 0.000000000000000e+00 0.000000000000000e+00
0.000000000000000e+00 0.000000000000000e+00 0.000000000000000e+00

0.000000000000000e+00 0.000000000000000e+00 0.000000000000000e+00
0.000000000000000e+00 0.000000000000000e+00 0.000000000000000e+00
0.000000000000000e+00 0.000000000000000e+00 0.000000000000000e+00

0.000000000000000e+00 0.000000000000000e+00 0.000000000000000e+00
0.000000000000000e+00 0.000000000000000e+00 0.000000000000000e+00
0.000000000000000e+00 0.000000000000000e+00 0.000000000000000e+00

0.000000000000000e+00 0.000000000000000e+00 0.000000000000000e+00
0.000000000000000e+00 0.000000000000000e+00 0.000000000000000e+00
0.000000000000000e+00 0.000000000000000e+00 0.000000000000000e+00

0.000000000000000e+00 0.000000000000000e+00 0.000000000000000e+00
0.000000000000000e+00 0.000000000000000e+00 0.000000000000000e+00
0.000000000000000e+00 0.000000000000000e+00 0.000000000000000e+00

0.000000000000000e+00 0.000000000000000e+00 0.000000000000000e+00
0.000000000000000e+00 0.000000000000000e+00 0.000000000000000e+00
0.000000000000000e+00 0.000000000000000e+00 0.000000000000000e+00

0.000000000000000e+00 0.000000000000000e+00 0.000000000000000e+00
0.000000000000000e+00 0.000000000000000e+00 0.000000000000000e+00
0.000000000000000e+00 0.000000000000000e+00 0.000000000000000e+00

0.000000000000000e+00 0.000000000000000e+00 0.000000000000000e+00
0.000000000000000e+00 0.000000000000000e+00 0.000000000000000e+00
0.000000000000000e+00 0.000000000000000e+00 0.000000000000000e+00

0.000000000000000e+00 0.000000000000000e+00 0.000000000000000e+00
0.000000000000000e+00 0.000000000000000e+00 0.000000000000000e+00
0.000000000000000e+00 0.000000000000000e+00 0.000000000000000e+00

0.000000000000000e+00 0.000000000000000e+00 0.000000000000000e+00
0.000000000000000e+00 0.000000000000000e+00 0.000000000000000e+00
0.000000000000000e+00 0.000000000000000e+00 0.000000000000000e+00

0.000000000000000e+00 0.000000000000000e+00 0.000000000000000e+00
0.000000000000000e+00 0.000000000000000e+00 0.000000000000000e+00
0.000000000000000e+00 0.000000000000000e+00 0.000000000000000e+00

0.000000000000000e+00 0.000000000000000e+00 0.000000000000000e+00
0.000000000000000e+00 0.000000000000000e+00 0.000000000000000e+00
0.000000000000000e+00 0.000000000000000e+00 0.000000000000000e+00

0.000000000000000e+00 0.000000000000000e+00 0.000000000000000e+00
0.000000000000000e+00 0.000000000000000e+00 0.000000000000000e+00
0.000000000000000e+00 0.000000000000000e+00 0.000000000000000e+00

0.000000000000000e+00 0.000000000000000e+00 0.000000000000000e+00
0.000000000000000e+00 0.000000000000000e+00 0.000000000000000e+00
0.000000000000000e+00 0.000000000000000e+00 0.000000000000000e+00

0.000000000000000e+00 0.000000000000000e+00 0.000000000000000e+00
0.000000000000000e+00 0.000000000000000e+00 0.000000000000000e+00
0.000000000000000e+00 0.000000000000000e+00 0.000000000000000e+00

0.000000000000000e+00 0.000000000000000e+00 0.000000000000000e+00
0.000000000000000e+00 0.000000000000000e+00 0.000000000000000e+00
0.000000000000000e+00 0.000000000000000e+00 0.000000000000000e+00

0.000000000000000e+00 0.000000000000000e+00 0.000000000000000e+00
0.000000000000000e+00 0.000000000000000e+00 0.000000000000000e+00
0.000000000000000e+00 0.000000000000000e+00 0.000000000000000e+00

0.000000000000000e+00 0.000000000000000e+00 0.000000000000000e+00
0.000000000000000e+00 0.000000000000000e+00 0.000000000000000e+00
0.000000000000000e+00 0.000000000000000e+00 0.000000000000000e+00

0.000000000000000e+00 0.000000000000000e+00 0.000000000000000e+00
0.000000000000000e+00 0.000000000000000e+00 0.000000000000000e+00
0.000000000000000e+00 0.000000000000000e+00 0.000000000000000e+00

0.000000000000000e+00 0.000000000000000e+00 0.000000000000000e+00
0.000000000000000e+00 0.000000000000000e+00 0.000000000000000e+00
0.000000000000000e+00 0.000000000000000e+00 0.000000000000000e+00

0.000000000000000e+00 0.000000000000000e+00 0.000000000000000e+00
0.000000000000000e+00 0.000000000000000e+00 0.000000000000000e+00
0.000000000000000e+00 0.000000000000000e+00 0.000000000000000e+00

0.000000000000000e+00 0.000000000000000e+00 0.000000000000000e+00
0.000000000000000e+00 0.000000000000000e+00 0.000000000000000e+00
0.000000000000000e+00 0.000000000000000e+00 0.000000000000000e+00

0.000000000000000e+00 0.000000000000000e+00 0.000000000000000e+00
0.000000000000000e+00 0.000000000000000e+00 0.000000000000000e+00
0.000000000000000e+00 0.000000000000000e+00 0.000000000000000e+00

0.000000000000000e+00 0.000000000000000e+00 0.000000000000000e+00
0.000000000000000e+00 0.000000000000000e+00 0.000000000000000e+00
0.000000000000000e+00 0.000000000000000e+00 0.000000000000000e+00

0.000000000000000e+00 0.000000000000000e+00 0.000000000000000e+00
0.000000000000000e+00 0.000000000000000e+00 0.000000000000000e+00
0.000000000000000e+00 0.000000000000000e+00 0.000000000000000e+00

0.000000000000000e+00 0.000000000000000e+00 0.000000000000000e+00
0.000000000000000e+00 0.000000000000000e+00 0.000000000000000e+00
0.000000000000000e+00 0.000000000000000e+00 0.000000000000000e+00

0.000000000000000e+00 0.000000000000000e+00 0.000000000000000e+00
0.000000000000000e+00 0.000000000000000e+00 0.000000000000000e+00
0.000000000000000e+00 0.000000000000000e+00 0.000000000000000e+00

0.000000000000000e+00 0.000000000000000e+00 0.000000000000000e+00
0.000000000000000e+00 0.000000000000000e+00 0.000000000000000e+00
0.000000000000000e+00 0.000000000000000e+00 0.000000000000000e+00

0.000000000000000e+00 0.000000000000000e+00 0.000000000000000e+00
0.000000000000000e+00 0.000000000000000e+00 0.000000000000000e+00
0.000000000000000e+00 0.000000000000000e+00 0.000000000000000e+00

0.000000000000000e+00 0.000000000000000e+00 0.000000000000000e+00
0.000000000000000e+00 0.000000000000000e+00 0.000000000000000e+00
0.000000000000000e+00 0.000000000000000e+00 0.000000000000000e+00

0.000000000000000e+00 0.000000000000000e+00 0.000000000000000e+00
0.000000000000000e+00 0.000000000000000e+00 0.000000000000000e+00
0.000000000000000e+00 0.000000000000000e+00 0.000000000000000e+00

0.000000000000000e+00 0.000000000000000e+00 0.000000000000000e+00
0.000000000000000e+00 0.000000000000000e+00 0.000000000000000e+00
0.000000000000000e+00 0.000000000000000e+00 0.000000000000000e+00

0.000000000000000e+00 0.000000000000000e+00 0.000000000000000e+00
0.000000000000000e+00 0.000000000000000e+00 0.000000000000000e+00
0.000000000000000e+00 0.000000000000000e+00 0.000000000000000e+00

0.000000000000000e+00 0.000000000000000e+00 0.000000000000000e+00
0.000000000000000e+00 0.000000000000000e+00 0.000000000000000e+00
0.000000000000000e+00 0.000000000000000e+00 0.000000000000000e+00

0.000000000000000e+00 0.000000000000000e+00 0.000000000000000e+00
0.000000000000000e+00 0.000000000000000e+00 0.000000000000000e+00
0.000000000000000e+00 0.000000000000000e+00 0.000000000000000e+00

0.000000000000000e+00 0.000000000000000e+00 0.000000000000000e+00
0.000000000000000e+00 0.000000000000000e+00 0.000000000000000e+00
0.000000000000000e+00 0.000000000000000e+00 0.000000000000000e+00

0.000000000000000e+00 0.000000000000000e+00 0.000000000000000e+00
0.000000000000000e+00 0.000000000000000e+00 0.000000000000000e+00
0.000000000000000e+00 0.000000000000000e+00 0.000000000000000e+00

0.000000000000000e+00 0.000000000000000e+00 0.000000000000000e+00
0.000000000000000e+00 0.000000000000000e+00 0.000000000000000e+00
0.000000000000000e+00 0.000000000000000e+00 0.000000000000000e+00

0.000000000000000e+00 0.000000000000000e+00 0.000000000000000e+00
0.000000000000000e+00 0.000000000000000e+00 0.000000000000000e+00
0.000000000000000e+00 0.000000000000000e+00 0.000000000000000e+00

0.000000000000000e+00 0.000000000000000e+00 0.000000000000000e+00
0.000000000000000e+00 0.000000000000000e+00 0.000000000000000e+00
0.000000000000000e+00 0.000000000000000e+00 0.000000000000000e+00

0.000000000000000e+00 0.000000000000000e+00 0.000000000000000e+00
0.000000000000000e+00 0.000000000000000e+00 0.000000000000000e+00
0.000000000000000e+00 0.000000000000000e+00 0.000000000000000e+00

0.000000000000000e+00 0.000000000000000e+00 0.000000000000000e+00
0.000000000000000e+00 0.000000000000000e+00 0.000000000000000e+00
0.000000000000000e+00 0.000000000000000e+00 0.000000000000000e+00

0.000000000000000e+00 0.000000000000000e+00 0.000000000000000e+00
0.000000000000000e+00 0.000000000000000e+00 0.000000000000000e+00
0.000000000000000e+00 0.000000000000000e+00 0.000000000000000e+00

0.000000000000000e+00 0.000000000000000e+00 0.000000000000000e+00
0.000000000000000e+00 0.000000000000000e+00 0.000000000000000e+00
0.000000000000000e+00 0.000000000000000e+00 0.000000000000000e+00

0.000000000000000e+00 0.000000000000000e+00 0.000000000000000e+00
0.000000000000000e+00 0.000000000000000e+00 0.000000000000000e+00
0.000000000000000e+00 0.000000000000000e+00 0.000000000000000e+00

0.000000000000000e+00 0.000000000000000e+00 0.000000000000000e+00
0.000000000000000e+00 0.000000000000000e+00 0.000000000000000e+00
0.000000000000000e+00 0.000000000000000e+00 0.000000000000000e+00

0.000000000000000e+00 0.000000000000000e+00 0.000000000000000e+00
0.000000000000000e+00 0.000000000000000e+00 0.000000000000000e+00
0.000000000000000e+00 0.000000000000000e+00 0.000000000000000e+00

0.000000000000000e+00 0.000000000000000e+00 0.000000000000000e+00
0.000000000000000e+00 0.000000000000000e+00 0.000000000000000e+00
0.000000000000000e+00 0.000000000000000e+00 0.000000000000000e+00

0.000000000000000e+00 0.000000000000000e+00 0.000000000000000e+00
0.000000000000000e+00 0.000000000000000e+00 0.000000000000000e+00
0.000000000000000e+00 0.000000000000000e+00 0.000000000000000e+00

0.000000000000000e+00 0.000000000000000e+00 0.000000000000000e+00
0.000000000000000e+00 0.000000000000000e+00 0.000000000000000e+00
0.000000000000000e+00 0.000000000000000e+00 0.000000000000000e+00

0.000000000000000e+00 0.000000000000000e+00 0.000000000000000e+00
0.000000000000000e+00 0.000000000000000e+00 0.000000000000000e+00
0.000000000000000e+00 0.000000000000000e+00 0.000000000000000e+00

0.000000000000000e+00 0.000000000000000e+00 0.000000000000000e+00
0.000000000000000e+00 0.000000000000000e+00 0.000000000000000e+00
0.000000000000000e+00 0.000000000000000e+00 0.000000000000000e+00

0.000000000000000e+00 0.000000000000000e+00 0.000000000000000e+00
0.000000000000000e+00 0.000000000000000e+00 0.000000000000000e+00
0.000000000000000e+00 0.000000000000000e+00 0.000000000000000e+00

0.000000000000000e+00 0.000000000000000e+00 0.000000000000000e+00
0.000000000000000e+00 0.000000000000000e+00 0.000000000000000e+00
0.000000000000000e+00 0.000000000000000e+00 0.000000000000000e+00

0.000000000000000e+00 0.000000000000000e+00 0.000000000000000e+00
0.000000000000000e+00 0.000000000000000e+00 0.000000000000000e+00
0.000000000000000e+00 0.000000000000000e+00 0.000000000000000e+00

0.000000000000000e+00 0.000000000000000e+00 0.000000000000000e+00
0.000000000000000e+00 0.000000000000000e+00 0.000000000000000e+00
0.000000000000000e+00 0.000000000000000e+00 0.000000000000000e+00

0.000000000000000e+00 0.000000000000000e+00 0.000000000000000e+00
0.000000000000000e+00 0.000000000000000e+00 0.000000000000000e+00
0.000000000000000e+00 0.000000000000000e+00 0.000000000000000e+00

0.000000000000000e+00 0.000000000000000e+00 0.000000000000000e+00
0.000000000000000e+00 0.000000000000000e+00 0.000000000000000e+00
0.000000000000000e+00 0.000000000000000e+00 0.000000000000000e+00

0.000000000000000e+00 0.000000000000000e+00 0.000000000000000e+00
0.000000000000000e+00 0.000000000000000e+00 0.000000000000000e+00
0.000000000000000e+00 0.000000000000000e+00 0.000000000000000e+00

0.000000000000000e+00 0.000000000000000e+00 0.000000000000000e+00
0.000000000000000e+00 0.000000000000000e+00 0.000000000000000e+00
0.000000000000000e+00 0.000000000000000e+00 0.000000000000000e+00

0.000000000000000e+00 0.000000000000000e+00 0.000000000000000e+00
0.000000000000000e+00 0.000000000000000e+00 0.000000000000000e+00
0.000000000000000e+00 0.000000000000000e+00 0.000000000000000e+00

0.000000000000000e+00 0.000000000000000e+00 0.000000000000000e+00
0.000000000000000e+00 0.000000000000000e+00 0.000000000000000e+00
0.000000000000000e+00 0.000000000000000e+00 0.000000000000000e+00

0.000000000000000e+00 0.000000000000000e+00 0.000000000000000e+00
0.000000000000000e+00 0.000000000000000e+00 0.000000000000000e+00
0.000000000000000e+00 0.000000000000000e+00 0.000000000000000e+00

0.000000000000000e+00 0.000000000000000e+00 0.000000000000000e+00
0.000000000000000e+00 0.000000000000000e+00 0.000000000000000e+00
0.000000000000000e+00 0.000000000000000e+00 0.000000000000000e+00

0.000000000000000e+00 0.000000000000000e+00 0.000000000000000e+00
0.000000000000000e+00 0.000000000000000e+00 0.000000000000000e+00
0.000000000000000e+00 0.000000000000000e+00 0.000000000000000e+00

0.000000000000000e+00 0.000000000000000e+00 0.000000000000000e+00
0.000000000000000e+00 0.000000000000000e+00 0.000000000000000e+00
0.000000000000000e+00 0.000000000000000e+00 0.000000000000000e+00

0.000000000000000e+00 0.000000000000000e+00 0.000000000000000e+00
0.000000000000000e+00 0.000000000000000e+00 0.000000000000000e+00
0.000000000000000e+00 0.000000000000000e+00 0.000000000000000e+00

0.000000000000000e+00 0.000000000000000e+00 0.000000000000000e+00
0.000000000000000e+00 0.000000000000000e+00 0.000000000000000e+00
0.000000000000000e+00 0.000000000000000e+00 0.000000000000000e+00

0.000000000000000e+00 0.000000000000000e+00 0.000000000000000e+00
0.000000000000000e+00 0.000000000000000e+00 0.000000000000000e+00
0.000000000000000e+00 0.000000000000000e+00 0.000000000000000e+00

0.000000000000000e+00 0.000000000000000e+00 0.000000000000000e+00
0.000000000000000e+00 0.000000000000000e+00 0.000000000000000e+00
0.000000000000000e+00 0.000000000000000e+00 0.000000000000000e+00

0.000000000000000e+00 0.000000000000000e+00 0.000000000000000e+00
0.000000000000000e+00 0.000000000000000e+00 0.000000000000000e+00
0.000000000000000e+00 0.000000000000000e+00 0.000000000000000e+00

0.000000000000000e+00 0.000000000000000e+00 0.000000000000000e+00
0.000000000000000e+00 0.000000000000000e+00 0.000000000000000e+00
0.000000000000000e+00 0.000000000000000e+00 0.000000000000000e+00

0.000000000000000e+00 0.000000000000000e+00 0.000000000000000e+00
0.000000000000000e+00 0.000000000000000e+00 0.000000000000000e+00
0.000000000000000e+00 0.000000000000000e+00 0.000000000000000e+00

0.000000000000000e+00 0.000000000000000e+00 0.000000000000000e+00
0.000000000000000e+00 0.000000000000000e+00 0.000000000000000e+00
0.000000000000000e+00 0.000000000000000e+00 0.000000000000000e+00

0.000000000000000e+00 0.000000000000000e+00 0.000000000000000e+00
0.000000000000000e+00 0.000000000000000e+00 0.000000000000000e+00
0.000000000000000e+00 0.000000000000000e+00 0.000000000000000e+00

0.000000000000000e+00 0.000000000000000e+00 0.000000000000000e+00
0.000000000000000e+00 0.000000000000000e+00 0.000000000000000e+00
0.000000000000000e+00 0.000000000000000e+00 0.000000000000000e+00

0.000000000000000e+00 0.000000000000000e+00 0.000000000000000e+00
0.000000000000000e+00 0.000000000000000e+00 0.000000000000000e+00
0.000000000000000e+00 0.000000000000000e+00 0.000000000000000e+00

0.000000000000000e+00 0.000000000000000e+00 0.000000000000000e+00
0.000000000000000e+00 0.000000000000000e+00 0.000000000000000e+00
0.000000000000000e+00 0.000000000000000e+00 0.000000000000000e+00

0.000000000000000e+00 0.000000000000000e+00 0.000000000000000e+00
0.000000000000000e+00 0.000000000000000e+00 0.000000000000000e+00
0.000000000000000e+00 0.000000000000000e+00 0.000000000000000e+00

0.000000000000000e+00 0.000000000000000e+00 0.000000000000000e+00
0.000000000000000e+00 0.000000000000000e+00 0.000000000000000e+00
0.000000000000000e+00 0.000000000000000e+00 0.000000000000000e+00

0.000000000000000e+00 0.000000000000000e+00 0.000000000000000e+00
0.000000000000000e+00 0.000000000000000e+00 0.000000000000000e+00
0.000000000000000e+00 0.000000000000000e+00 0.000000000000000e+00

0.000000000000000e+00 0.000000000000000e+00 0.000000000000000e+00
0.000000000000000e+00 0.000000000000000e+00 0.000000000000000e+00
0.000000000000000e+00 0.000000000000000e+00 0.000000000000000e+00

0.000000000000000e+00 0.000000000000000e+00 0.000000000000000e+00
0.000000000000000e+00 0.000000000000000e+00 0.000000000000000e+00
0.000000000000000e+00 0.000000000000000e+00 0.000000000000000e+00

0.000000000000000e+00 0.000000000000000e+00 0.000000000000000e+00
0.000000000000000e+00 0.000000000000000e+00 0.000000000000000e+00
0.000000000000000e+00 0.000000000000000e+00 0.000000000000000e+00

0.000000000000000e+00 0.000000000000000e+00 0.000000000000000e+00
0.000000000000000e+00 0.000000000000000e+00 0.000000000000000e+00
0.000000000000000e+00 0.000000000000000e+00 0.000000000000000e+00

0.000000000000000e+00 0.000000000000000e+00 0.000000000000000e+00
0.000000000000000e+00 0.000000000000000e+00 0.000000000000000e+00
0.000000000000000e+00 0.000000000000000e+00 0.000000000000000e+00

0.000000000000000e+00 0.000000000000000e+00 0.000000000000000e+00
0.000000000000000e+00 0.000000000000000e+00 0.000000000000000e+00
0.000000000000000e+00 0.000000000000000e+00 0.000000000000000e+00

0.000000000000000e+00 0.000000000000000e+00 0.000000000000000e+00
0.000000000000000e+00 0.000000000000000e+00 0.000000000000000e+00
0.000000000000000e+00 0.000000000000000e+00 0.000000000000000e+00

0.000000000000000e+00 0.000000000000000e+00 0.000000000000000e+00
0.000000000000000e+00 0.000000000000000e+00 0.000000000000000e+00
0.000000000000000e+00 0.000000000000000e+00 0.000000000000000e+00

0.000000000000000e+00 0.000000000000000e+00 0.000000000000000e+00
0.000000000000000e+00 0.000000000000000e+00 0.000000000000000e+00
0.000000000000000e+00 0.000000000000000e+00 0.000000000000000e+00

0.000000000000000e+00 0.000000000000000e+00 0.000000000000000e+00
0.000000000000000e+00 0.000000000000000e+00 0.000000000000000e+00
0.000000000000000e+00 0.000000000000000e+00 0.000000000000000e+00

0.000000000000000e+00 0.000000000000000e+00 0.000000000000000e+00
0.000000000000000e+00 0.000000000000000e+00 0.000000000000000e+00
0.000000000000000e+00 0.000000000000000e+00 0.000000000000000e+00

0.000000000000000e+00 0.000000000000000e+00 0.000000000000000e+00
0.000000000000000e+00 0.000000000000000e+00 0.000000000000000e+00
0.000000000000000e+00 0.000000000000000e+00 0.000000000000000e+00

0.000000000000000e+00 0.000000000000000e+00 0.000000000000000e+00
0.000000000000000e+00 0.000000000000000e+00 0.000000000000000e+00
0.000000000000000e+00 0.000000000000000e+00 0.000000000000000e+00

0.000000000000000e+00 0.000000000000000e+00 0.000000000000000e+00
0.000000000000000e+00 0.000000000000000e+00 0.000000000000000e+00
0.000000000000000e+00 0.000000000000000e+00 0.000000000000000e+00

0.000000000000000e+00 0.000000000000000e+00 0.000000000000000e+00
0.000000000000000e+00 0.000000000000000e+00 0.000000000000000e+00
0.000000000000000e+00 0.000000000000000e+00 0.000000000000000e+00

0.000000000000000e+00 0.000000000000000e+00 0.000000000000000e+00
0.000000000000000e+00 0.000000000000000e+00 0.000000000000000e+00
0.000000000000000e+00 0.000000000000000e+00 0.000000000000000e+00

0.000000000000000e+00 0.000000000000000e+00 0.000000000000000e+00
0.000000000000000e+00 0.000000000000000e+00 0.000000000000000e+00
0.000000000000000e+00 0.000000000000000e+00 0.000000000000000e+00

0.000000000000000e+00 0.000000000000000e+00 0.000000000000000e+00
0.000000000000000e+00 0.000000000000000e+00 0.000000000000000e+00
0.000000000000000e+00 0.000000000000000e+00 0.000000000000000e+00

0.000000000000000e+00 0.000000000000000e+00 0.000000000000000e+00
0.000000000000000e+00 0.000000000000000e+00 0.000000000000000e+00
0.000000000000000e+00 0.000000000000000e+00 0.000000000000000e+00

0.000000000000000e+00 0.000000000000000e+00 0.000000000000000e+00
0.000000000000000e+00 0.000000000000000e+00 0.000000000000000e+00
0.000000000000000e+00 0.000000000000000e+00 0.000000000000000e+00

0.000000000000000e+00 0.000000000000000e+00 0.000000000000000e+00
0.000000000000000e+00 0.000000000000000e+00 0.000000000000000e+00
0.000000000000000e+00 0.000000000000000e+00 0.000000000000000e+00

0.000000000000000e+00 0.000000000000000e+00 0.000000000000000e+00
0.000000000000000e+00 0.000000000000000e+00 0.000000000000000e+00
0.000000000000000e+00 0.000000000000000e+00 0.000000000000000e+00

0.000000000000000e+00 0.000000000000000e+00 0.000000000000000e+00
0.000000000000000e+00 0.000000000000000e+00 0.000000000000000e+00
0.000000000000000e+00 0.000000000000000e+00 0.000000000000000e+00

0.000000000000000e+00 0.000000000000000e+00 0.000000000000000e+00
0.000000000000000e+00 0.000000000000000e+00 0.000000000000000e+00
0.000000000000000e+00 0.000000000000000e+00 0.000000000000000e+00

0.000000000000000e+00 0.000000000000000e+00 0.000000000000000e+00
0.000000000000000e+00 0.000000000000000e+00 0.000000000000000e+00
0.000000000000000e+00 0.000000000000000e+00 0.000000000000000e+00

0.000000000000000e+00 0.000000000000000e+00 0.000000000000000e+00
0.000000000000000e+00 0.000000000000000e+00 0.000000000000000e+00
0.000000000000000e+00 0.000000000000000e+00 0.000000000000000e+00

0.000000000000000e+00 0.000000000000000e+00 0.000000000000000e+00
0.000000000000000e+00 0.000000000000000e+00 0.000000000000000e+00
0.000000000000000e+00 0.000000000000000e+00 0.000000000000000e+00

0.000000000000000e+00 0.000000000000000e+00 0.000000000000000e+00
0.000000000000000e+00 0.000000000000000e+00 0.000000000000000e+00
0.000000000000000e+00 0.000000000000000e+00 0.000000000000000e+00

0.000000000000000e+00 0.000000000000000e+00 0.000000000000000e+00
0.000000000000000e+00 0.000000000000000e+00 0.000000000000000e+00
0.000000000000000e+00 0.000000000000000e+00 0.000000000000000e+00

0.000000000000000e+00 0.000000000000000e+00 0.000000000000000e+00
0.000000000000000e+00 0.000000000000000e+00 0.000000000000000e+00
0.000000000000000e+00 0.000000000000000e+00 0.000000000000000e+00

0.000000000000000e+00 0.000000000000000e+00 0.000000000000000e+00
0.000000000000000e+00 0.000000000000000e+00 0.000000000000000e+00
0.000000000000000e+00 0.000000000000000e+00 0.000000000000000e+00

0.000000000000000e+00 0.000000000000000e+00 0.000000000000000e+00
0.000000000000000e+00 0.000000000000000e+00 0.000000000000000e+00
0.000000000000000e+00 0.000000000000000e+00 0.000000000000000e+00

0.000000000000000e+00 0.000000000000000e+00 0.000000000000000e+00
0.000000000000000e+00 0.000000000000000e+00 0.000000000000000e+00
0.000000000000000e+00 0.000000000000000e+00 0.000000000000000e+00

0.000000000000000e+00 0.000000000000000e+00 0.000000000000000e+00
0.000000000000000e+00 0.000000000000000e+00 0.000000000000000e+00
0.000000000000000e+00 0.000000000000000e+00 0.000000000000000e+00

0.000000000000000e+00 0.000000000000000e+00 0.000000000000000e+00
0.000000000000000e+00 0.000000000000000e+00 0.000000000000000e+00
0.000000000000000e+00 0.000000000000000e+00 0.000000000000000e+00

0.000000000000000e+00 0.000000000000000e+00 0.000000000000000e+00
0.000000000000000e+00 0.000000000000000e+00 0.000000000000000e+00
0.000000000000000e+00 0.000000000000000e+00 0.000000000000000e+00

0.000000000000000e+00 0.000000000000000e+00 0.000000000000000e+00
0.000000000000000e+00 0.000000000000000e+00 0.000000000000000e+00
0.000000000000000e+00 0.000000000000000e+00 0.000000000000000e+00

0.000000000000000e+00 0.000000000000000e+00 0.000000000000000e+00
0.000000000000000e+00 0.000000000000000e+00 0.000000000000000e+00
0.000000000000000e+00 0.000000000000000e+00 0.000000000000000e+00

0.000000000000000e+00 0.000000000000000e+00 0.000000000000000e+00
0.000000000000000e+00 0.000000000000000e+00 0.000000000000000e+00
0.000000000000000e+00 0.000000000000000e+00 0.000000000000000e+00

0.000000000000000e+00 0.000000000000000e+00 0.000000000000000e+00
0.000000000000000e+00 0.000000000000000e+00 0.000000000000000e+00
0.000000000000000e+00 0.000000000000000e+00 0.000000000000000e+00

0.000000000000000e+00 0.000000000000000e+00 0.000000000000000e+00
0.000000000000000e+00 0.000000000000000e+00 0.000000000000000e+00
0.000000000000000e+00 0.000000000000000e+00 0.000000000000000e+00

0.000000000000000e+00 0.000000000000000e+00 0.000000000000000e+00
0.000000000000000e+00 0.000000000000000e+00 0.000000000000000e+00
0.000000000000000e+00 0.000000000000000e+00 0.000000000000000e+00

0.000000000000000e+00 0.000000000000000e+00 0.000000000000000e+00
0.000000000000000e+00 0.000000000000000e+00 0.000000000000000e+00
0.000000000000000e+00 0.000000000000000e+00 0.000000000000000e+00

0.000000000000000e+00 0.000000000000000e+00 0.000000000000000e+00
0.000000000000000e+00 0.000000000000000e+00 0.000000000000000e+00
0.000000000000000e+00 0.000000000000000e+00 0.000000000000000e+00

0.000000000000000e+00 0.000000000000000e+00 0.000000000000000e+00
0.000000000000000e+00 0.000000000000000e+00 0.000000000000000e+00
0.000000000000000e+00 0.000000000000000e+00 0.000000000000000e+00

0.000000000000000e+00 0.000000000000000e+00 0.000000000000000e+00
0.000000000000000e+00 0.000000000000000e+00 0.000000000000000e+00
0.000000000000000e+00 0.000000000000000e+00 0.000000000000000e+00

0.000000000000000e+00 0.000000000000000e+00 0.000000000000000e+00
0.000000000000000e+00 0.000000000000000e+00 0.000000000000000e+00
0.000000000000000e+00 0.000000000000000e+00 0.000000000000000e+00

0.000000000000000e+00 0.000000000000000e+00 0.000000000000000e+00
0.000000000000000e+00 0.000000000000000e+00 0.000000000000000e+00
0.000000000000000e+00 0.000000000000000e+00 0.000000000000000e+00

0.000000000000000e+00 0.000000000000000e+00 0.000000000000000e+00
0.000000000000000e+00 0.000000000000000e+00 0.000000000000000e+00
0.000000000000000e+00 0.000000000000000e+00 0.000000000000000e+00

0.000000000000000e+00 0.000000000000000e+00 0.000000000000000e+00
0.000000000000000e+00 0.000000000000000e+00 0.000000000000000e+00
0.000000000000000e+00 0.000000000000000e+00 0.000000000000000e+00

0.000000000000000e+00 0.000000000000000e+00 0.000000000000000e+00
0.000000000000000e+00 0.000000000000000e+00 0.000000000000000e+00
0.000000000000000e+00 0.000000000000000e+00 0.000000000000000e+00

0.000000000000000e+00 0.000000000000000e+00 0.000000000000000e+00
0.000000000000000e+00 0.000000000000000e+00 0.000000000000000e+00
0.000000000000000e+00 0.000000000000000e+00 0.000000000000000e+00

0.000000000000000e+00 0.000000000000000e+00 0.000000000000000e+00
0.000000000000000e+00 0.000000000000000e+00 0.000000000000000e+00
0.000000000000000e+00 0.000000000000000e+00 0.000000000000000e+00

0.000000000000000e+00 0.000000000000000e+00 0.000000000000000e+00
0.000000000000000e+00 0.000000000000000e+00 0.000000000000000e+00
0.000000000000000e+00 0.000000000000000e+00 0.000000000000000e+00

0.000000000000000e+00 0.000000000000000e+00 0.000000000000000e+00
0.000000000000000e+00 0.000000000000000e+00 0.000000000000000e+00
0.000000000000000e+00 0.000000000000000e+00 0.000000000000000e+00

0.000000000000000e+00 0.000000000000000e+00 0.000000000000000e+00
0.000000000000000e+00 0.000000000000000e+00 0.000000000000000e+00
0.000000000000000e+00 0.000000000000000e+00 0.000000000000000e+00

0.000000000000000e+00 0.000000000000000e+00 0.000000000000000e+00
0.000000000000000e+00 0.000000000000000e+00 0.000000000000000e+00
0.000000000000000e+00 0.000000000000000e+00 0.000000000000000e+00

0.000000000000000e+00 0.000000000000000e+00 0.000000000000000e+00
0.000000000000000e+00 0.000000000000000e+00 0.000000000000000e+00
0.000000000000000e+00 0.000000000000000e+00 0.000000000000000e+00

0.000000000000000e+00 0.000000000000000e+00 0.000000000000000e+00
0.000000000000000e+00 0.000000000000000e+00 0.000000000000000e+00
0.000000000000000e+00 0.000000000000000e+00 0.000000000000000e+00

0.000000000000000e+00 0.000000000000000e+00 0.000000000000000e+00
0.000000000000000e+00 0.000000000000000e+00 0.000000000000000e+00
0.000000000000000e+00 0.000000000000000e+00 0.000000000000000e+00

0.000000000000000e+00 0.000000000000000e+00 0.000000000000000e+00
0.000000000000000e+00 0.000000000000000e+00 0.000000000000000e+00
0.000000000000000e+00 0.000000000000000e+00 0.000000000000000e+00

0.000000000000000e+00 0.000000000000000e+00 0.000000000000000e+00
0.000000000000000e+00 0.000000000000000e+00 0.000000000000000e+00
0.000000000000000e+00 0.000000000000000e+00 0.000000000000000e+00

0.000000000000000e+00 0.000000000000000e+00 0.000000000000000e+00
0.000000000000000e+00 0.000000000000000e+00 0.000000000000000e+00
0.000000000000000e+00 0.000000000000000e+00 0.000000000000000e+00

0.000000000000000e+00 0.000000000000000e+00 0.000000000000000e+00
0.000000000000000e+00 0.000000000000000e+00 0.000000000000000e+00
0.000000000000000e+00 0.000000000000000e+00 0.000000000000000e+00

0.000000000000000e+00 0.000000000000000e+00 0.000000000000000e+00
0.000000000000000e+00 0.000000000000000e+00 0.000000000000000e+00
0.000000000000000e+00 0.000000000000000e+00 0.000000000000000e+00

0.000000000000000e+00 0.000000000000000e+00 0.000000000000000e+00
0.000000000000000e+00 0.000000000000000e+00 0.000000000000000e+00
0.000000000000000e+00 0.000000000000000e+00 0.000000000000000e+00

0.000000000000000e+00 0.000000000000000e+00 0.000000000000000e+00
0.000000000000000e+00 0.000000000000000e+00 0.000000000000000e+00
0.000000000000000e+00 0.000000000000000e+00 0.000000000000000e+00

0.000000000000000e+00 0.000000000000000e+00 0.000000000000000e+00
0.000000000000000e+00 0.000000000000000e+00 0.000000000000000e+00
0.000000000000000e+00 0.000000000000000e+00 0.000000000000000e+00

0.000000000000000e+00 0.000000000000000e+00 0.000000000000000e+00
0.000000000000000e+00 0.000000000000000e+00 0.000000000000000e+00
0.000000000000000e+00 0.000000000000000e+00 0.000000000000000e+00

0.000000000000000e+00 0.000000000000000e+00 0.000000000000000e+00
0.000000000000000e+00 0.000000000000000e+00 0.000000000000000e+00
0.000000000000000e+00 0.000000000000000e+00 0.000000000000000e+00

0.000000000000000e+00 0.000000000000000e+00 0.000000000000000e+00
0.000000000000000e+00 0.000000000000000e+00 0.000000000000000e+00
0.000000000000000e+00 0.000000000000000e+00 0.000000000000000e+00

0.000000000000000e+00 0.000000000000000e+00 0.000000000000000e+00
0.000000000000000e+00 0.000000000000000e+00 0.000000000000000e+00
0.000000000000000e+00 0.000000000000000e+00 0.000000000000000e+00

0.000000000000000e+00 0.000000000000000e+00 0.000000000000000e+00
0.000000000000000e+00 0.000000000000000e+00 0.000000000000000e+00
0.000000000000000e+00 0.000000000000000e+00 0.000000000000000e+00

0.000000000000000e+00 0.000000000000000e+00 0.000000000000000e+00
0.000000000000000e+00 0.000000000000000e+00 0.000000000000000e+00
0.000000000000000e+00 0.000000000000000e+00 0.000000000000000e+00

0.000000000000000e+00 0.000000000000000e+00 0.000000000000000e+00
0.000000000000000e+00 0.000000000000000e+00 0.000000000000000e+00
0.000000000000000e+00 0.000000000000000e+00 0.000000000000000e+00

0.000000000000000e+00 0.000000000000000e+00 0.000000000000000e+00
0.000000000000000e+00 0.000000000000000e+00 0.000000000000000e+00
0.000000000000000e+00 0.000000000000000e+00 0.000000000000000e+00

0.000000000000000e+00 0.000000000000000e+00 0.000000000000000e+00
0.000000000000000e+00 0.000000000000000e+00 0.000000000000000e+00
0.000000000000000e+00 0.000000000000000e+00 0.000000000000000e+00

0.000000000000000e+00 0.000000000000000e+00 0.000000000000000e+00
0.000000000000000e+00 0.000000000000000e+00 0.000000000000000e+00
0.000000000000000e+00 0.000000000000000e+00 0.000000000000000e+00

0.000000000000000e+00 0.000000000000000e+00 0.000000000000000e+00
0.000000000000000e+00 0.000000000000000e+00 0.000000000000000e+00
0.000000000000000e+00 0.000000000000000e+00 0.000000000000000e+00

0.000000000000000e+00 0.000000000000000e+00 0.000000000000000e+00
0.000000000000000e+00 0.000000000000000e+00 0.000000000000000e+00
0.000000000000000e+00 0.000000000000000e+00 0.000000000000000e+00

0.000000000000000e+00 0.000000000000000e+00 0.000000000000000e+00
0.000000000000000e+00 0.000000000000000e+00 0.000000000000000e+00
0.000000000000000e+00 0.000000000000000e+00 0.000000000000000e+00

0.000000000000000e+00 0.000000000000000e+00 0.000000000000000e+00
0.000000000000000e+00 0.000000000000000e+00 0.000000000000000e+00
0.000000000000000e+00 0.000000000000000e+00 0.000000000000000e+00

0.000000000000000e+00 0.000000000000000e+00 0.000000000000000e+00
0.000000000000000e+00 0.000000000000000e+00 0.000000000000000e+00
0.000000000000000e+00 0.000000000000000e+00 0.000000000000000e+00

0.000000000000000e+00 0.000000000000000e+00 0.000000000000000e+00
0.000000000000000e+00 0.000000000000000e+00 0.000000000000000e+00
0.000000000000000e+00 0.000000000000000e+00 0.000000000000000e+00

0.000000000000000e+00 0.000000000000000e+00 0.000000000000000e+00
0.000000000000000e+00 0.000000000000000e+00 0.000000000000000e+00
0.000000000000000e+00 0.000000000000000e+00 0.000000000000000e+00

0.000000000000000e+00 0.000000000000000e+00 0.000000000000000e+00
0.000000000000000e+00 0.000000000000000e+00 0.000000000000000e+00
0.000000000000000e+00 0.000000000000000e+00 0.000000000000000e+00

0.000000000000000e+00 0.000000000000000e+00 0.000000000000000e+00
0.000000000000000e+00 0.000000000000000e+00 0.000000000000000e+00
0.000000000000000e+00 0.000000000000000e+00 0.000000000000000e+00

0.000000000000000e+00 0.000000000000000e+00 0.000000000000000e+00
0.000000000000000e+00 0.000000000000000e+00 0.000000000000000e+00
0.000000000000000e+00 0.000000000000000e+00 0.000000000000000e+00

0.000000000000000e+00 0.000000000000000e+00 0.000000000000000e+00
0.000000000000000e+00 0.000000000000000e+00 0.000000000000000e+00
0.000000000000000e+00 0.000000000000000e+00 0.000000000000000e+00

0.000000000000000e+00 0.000000000000000e+00 0.000000000000000e+00
0.000000000000000e+00 0.000000000000000e+00 0.000000000000000e+00
0.000000000000000e+00 0.000000000000000e+00 0.000000000000000e+00

0.000000000000000e+00 0.000000000000000e+00 0.000000000000000e+00
0.000000000000000e+00 0.000000000000000e+00 0.000000000000000e+00
0.000000000000000e+00 0.000000000000000e+00 0.000000000000000e+00

0.000000000000000e+00 0.000000000000000e+00 0.000000000000000e+00
0.000000000000000e+00 0.000000000000000e+00 0.000000000000000e+00
0.000000000000000e+00 0.000000000000000e+00 0.000000000000000e+00

0.000000000000000e+00 0.000000000000000e+00 0.000000000000000e+00
0.000000000000000e+00 0.000000000000000e+00 0.000000000000000e+00
0.000000000000000e+00 0.000000000000000e+00 0.000000000000000e+00

0.000000000000000e+00 0.000000000000000e+00 0.000000000000000e+00
0.000000000000000e+00 0.000000000000000e+00 0.000000000000000e+00
0.000000000000000e+00 0.000000000000000e+00 0.000000000000000e+00

0.000000000000000e+00 0.000000000000000e+00 0.000000000000000e+00
0.000000000000000e+00 0.000000000000000e+00 0.000000000000000e+00
0.000000000000000e+00 0.000000000000000e+00 0.000000000000000e+00

0.000000000000000e+00 0.000000000000000e+00 0.000000000000000e+00
0.000000000000000e+00 0.000000000000000e+00 0.000000000000000e+00
0.000000000000000e+00 0.000000000000000e+00 0.000000000000000e+00

0.000000000000000e+00 0.000000000000000e+00 0.000000000000000e+00
0.000000000000000e+00 0.000000000000000e+00 0.000000000000000e+00
0.000000000000000e+00 0.000000000000000e+00 0.000000000000000e+00

0.000000000000000e+00 0.000000000000000e+00 0.000000000000000e+00
0.000000000000000e+00 0.000000000000000e+00 0.000000000000000e+00
0.000000000000000e+00 0.000000000000000e+00 0.000000000000000e+00

0.000000000000000e+00 0.000000000000000e+00 0.000000000000000e+00
0.000000000000000e+00 0.000000000000000e+00 0.000000000000000e+00
0.000000000000000e+00 0.000000000000000e+00 0.000000000000000e+00

0.000000000000000e+00 0.000000000000000e+00 0.000000000000000e+00
0.000000000000000e+00 0.000000000000000e+00 0.000000000000000e+00
0.000000000000000e+00 0.000000000000000e+00 0.000000000000000e+00

0.000000000000000e+00 0.000000000000000e+00 0.000000000000000e+00
0.000000000000000e+00 0.000000000000000e+00 0.000000000000000e+00
0.000000000000000e+00 0.000000000000000e+00 0.000000000000000e+00

0.000000000000000e+00 0.000000000000000e+00 0.000000000000000e+00
0.000000000000000e+00 0.000000000000000e+00 0.000000000000000e+00
0.000000000000000e+00 0.000000000000000e+00 0.000000000000000e+00

0.000000000000000e+00 0.000000000000000e+00 0.000000000000000e+00
0.000000000000000e+00 0.000000000000000e+00 0.000000000000000e+00
0.000000000000000e+00 0.000000000000000e+00 0.000000000000000e+00

0.000000000000000e+00 0.000000000000000e+00 0.000000000000000e+00
0.000000000000000e+00 0.000000000000000e+00 0.000000000000000e+00
0.000000000000000e+00 0.000000000000000e+00 0.000000000000000e+00

0.000000000000000e+00 0.000000000000000e+00 0.000000000000000e+00
0.000000000000000e+00 0.000000000000000e+00 0.000000000000000e+00
0.000000000000000e+00 0.000000000000000e+00 0.000000000000000e+00

0.000000000000000e+00 0.000000000000000e+00 0.000000000000000e+00
0.000000000000000e+00 0.000000000000000e+00 0.000000000000000e+00
0.000000000000000e+00 0.000000000000000e+00 0.000000000000000e+00

0.000000000000000e+00 0.000000000000000e+00 0.000000000000000e+00
0.000000000000000e+00 0.000000000000000e+00 0.000000000000000e+00
0.000000000000000e+00 0.000000000000000e+00 0.000000000000000e+00

0.000000000000000e+00 0.000000000000000e+00 0.000000000000000e+00
0.000000000000000e+00 0.000000000000000e+00 0.000000000000000e+00
0.000000000000000e+00 0.000000000000000e+00 0.000000000000000e+00

0.000000000000000e+00 0.000000000000000e+00 0.000000000000000e+00
0.000000000000000e+00 0.000000000000000e+00 0.000000000000000e+00
0.000000000000000e+00 0.000000000000000e+00 0.000000000000000e+00

0.000000000000000e+00 0.000000000000000e+00 0.000000000000000e+00
0.000000000000000e+00 0.000000000000000e+00 0.000000000000000e+00
0.000000000000000e+00 0.000000000000000e+00 0.000000000000000e+00

0.000000000000000e+00 0.000000000000000e+00 0.000000000000000e+00
0.000000000000000e+00 0.000000000000000e+00 0.000000000000000e+00
0.000000000000000e+00 0.000000000000000e+00 0.000000000000000e+00

0.000000000000000e+00 0.000000000000000e+00 0.000000000000000e+00
0.000000000000000e+00 0.000000000000000e+00 0.000000000000000e+00
0.000000000000000e+00 0.000000000000000e+00 0.000000000000000e+00

0.000000000000000e+00 0.000000000000000e+00 0.000000000000000e+00
0.000000000000000e+00 0.000000000000000e+00 0.000000000000000e+00
0.000000000000000e+00 0.000000000000000e+00 0.000000000000000e+00

0.000000000000000e+00 0.000000000000000e+00 0.000000000000000e+00
0.000000000000000e+00 0.000000000000000e+00 0.000000000000000e+00
0.000000000000000e+00 0.000000000000000e+00 0.000000000000000e+00

0.000000000000000e+00 0.000000000000000e+00 0.000000000000000e+00
0.000000000000000e+00 0.000000000000000e+00 0.000000000000000e+00
0.000000000000000e+00 0.000000000000000e+00 0.000000000000000e+00

0.000000000000000e+00 0.000000000000000e+00 0.000000000000000e+00
0.000000000000000e+00 0.000000000000000e+00 0.000000000000000e+00
0.000000000000000e+00 0.000000000000000e+00 0.000000000000000e+00

0.000000000000000e+00 0.000000000000000e+00 0.000000000000000e+00
0.000000000000000e+00 0.000000000000000e+00 0.000000000000000e+00
0.000000000000000e+00 0.000000000000000e+00 0.000000000000000e+00

0.000000000000000e+00 0.000000000000000e+00 0.000000000000000e+00
0.000000000000000e+00 0.000000000000000e+00 0.000000000000000e+00
0.000000000000000e+00 0.000000000000000e+00 0.000000000000000e+00

0.000000000000000e+00 0.000000000000000e+00 0.000000000000000e+00
0.000000000000000e+00 0.000000000000000e+00 0.000000000000000e+00
0.000000000000000e+00 0.000000000000000e+00 0.000000000000000e+00

0.000000000000000e+00 0.000000000000000e+00 0.000000000000000e+00
0.000000000000000e+00 0.000000000000000e+00 0.000000000000000e+00
0.000000000000000e+00 0.000000000000000e+00 0.000000000000000e+00

0.000000000000000e+00 0.000000000000000e+00 0.000000000000000e+00
0.000000000000000e+00 0.000000000000000e+00 0.000000000000000e+00
0.000000000000000e+00 0.000000000000000e+00 0.000000000000000e+00

0.000000000000000e+00 0.000000000000000e+00 0.000000000000000e+00
0.000000000000000e+00 0.000000000000000e+00 0.000000000000000e+00
0.000000000000000e+00 0.000000000000000e+00 0.000000000000000e+00

0.000000000000000e+00 0.000000000000000e+00 0.000000000000000e+00
0.000000000000000e+00 0.000000000000000e+00 0.000000000000000e+00
0.000000000000000e+00 0.000000000000000e+00 0.000000000000000e+00

0.000000000000000e+00 0.000000000000000e+00 0.000000000000000e+00
0.000000000000000e+00 0.000000000000000e+00 0.000000000000000e+00
0.000000000000000e+00 0.000000000000000e+00 0.000000000000000e+00

0.000000000000000e+00 0.000000000000000e+00 0.000000000000000e+00
0.000000000000000e+00 0.000000000000000e+00 0.000000000000000e+00
0.000000000000000e+00 0.000000000000000e+00 0.000000000000000e+00

0.000000000000000e+00 0.000000000000000e+00 0.000000000000000e+00
0.000000000000000e+00 0.000000000000000e+00 0.000000000000000e+00
0.000000000000000e+00 0.000000000000000e+00 0.000000000000000e+00

0.000000000000000e+00 0.000000000000000e+00 0.000000000000000e+00
0.000000000000000e+00 0.000000000000000e+00 0.000000000000000e+00
0.000000000000000e+00 0.000000000000000e+00 0.000000000000000e+00

0.000000000000000e+00 0.000000000000000e+00 0.000000000000000e+00
0.000000000000000e+00 0.000000000000000e+00 0.000000000000000e+00
0.000000000000000e+00 0.000000000000000e+00 0.000000000000000e+00

0.000000000000000e+00 0.000000000000000e+00 0.000000000000000e+00
0.000000000000000e+00 0.000000000000000e+00 0.000000000000000e+00
0.000000000000000e+00 0.000000000000000e+00 0.000000000000000e+00

0.000000000000000e+00 0.000000000000000e+00 0.000000000000000e+00
0.000000000000000e+00 0.000000000000000e+00 0.000000000000000e+00
0.000000000000000e+00 0.000000000000000e+00 0.000000000000000e+00

0.000000000000000e+00 0.000000000000000e+00 0.000000000000000e+00
0.000000000000000e+00 0.000000000000000e+00 0.000000000000000e+00
0.000000000000000e+00 0.000000000000000e+00 0.000000000000000e+00

0.000000000000000e+00 0.000000000000000e+00 0.000000000000000e+00
0.000000000000000e+00 0.000000000000000e+00 0.000000000000000e+00
0.000000000000000e+00 0.000000000000000e+00 0.000000000000000e+00

0.000000000000000e+00 0.000000000000000e+00 0.000000000000000e+00
0.000000000000000e+00 0.000000000000000e+00 0.000000000000000e+00
0.000000000000000e+00 0.000000000000000e+00 0.000000000000000e+00

0.000000000000000e+00 0.000000000000000e+00 0.000000000000000e+00
0.000000000000000e+00 0.000000000000000e+00 0.000000000000000e+00
0.000000000000000e+00 0.000000000000000e+00 0.000000000000000e+00

0.000000000000000e+00 0.000000000000000e+00 0.000000000000000e+00
0.000000000000000e+00 0.000000000000000e+00 0.000000000000000e+00
0.000000000000000e+00 0.000000000000000e+00 0.000000000000000e+00

0.000000000000000e+00 0.000000000000000e+00 0.000000000000000e+00
0.000000000000000e+00 0.000000000000000e+00 0.000000000000000e+00
0.000000000000000e+00 0.000000000000000e+00 0.000000000000000e+00

0.000000000000000e+00 0.000000000000000e+00 0.000000000000000e+00
0.000000000000000e+00 0.000000000000000e+00 0.000000000000000e+00
0.000000000000000e+00 0.000000000000000e+00 0.000000000000000e+00

0.000000000000000e+00 0.000000000000000e+00 0.000000000000000e+00
0.000000000000000e+00 0.000000000000000e+00 0.000000000000000e+00
0.000000000000000e+00 0.000000000000000e+00 0.000000000000000e+00

0.000000000000000e+00 0.000000000000000e+00 0.000000000000000e+00
0.000000000000000e+00 0.000000000000000e+00 0.000000000000000e+00
0.000000000000000e+00 0.000000000000000e+00 0.000000000000000e+00

0.000000000000000e+00 0.000000000000000e+00 0.000000000000000e+00
0.000000000000000e+00 0.000000000000000e+00 0.000000000000000e+00
0.000000000000000e+00 0.000000000000000e+00 0.000000000000000e+00

0.000000000000000e+00 0.000000000000000e+00 0.000000000000000e+00
0.000000000000000e+00 0.000000000000000e+00 0.000000000000000e+00
0.000000000000000e+00 0.000000000000000e+00 0.000000000000000e+00

0.000000000000000e+00 0.000000000000000e+00 0.000000000000000e+00
0.000000000000000e+00 0.000000000000000e+00 0.000000000000000e+00
0.000000000000000e+00 0.000000000000000e+00 0.000000000000000e+00

0.000000000000000e+00 0.000000000000000e+00 0.000000000000000e+00
0.000000000000000e+00 0.000000000000000e+00 0.000000000000000e+00
0.000000000000000e+00 0.000000000000000e+00 0.000000000000000e+00

0.000000000000000e+00 0.000000000000000e+00 0.000000000000000e+00
0.000000000000000e+00 0.000000000000000e+00 0.000000000000000e+00
0.000000000000000e+00 0.000000000000000e+00 0.000000000000000e+00

0.000000000000000e+00 0.000000000000000e+00 0.000000000000000e+00
0.000000000000000e+00 0.000000000000000e+00 0.000000000000000e+00
0.000000000000000e+00 0.000000000000000e+00 0.000000000000000e+00

0.000000000000000e+00 0.000000000000000e+00 0.000000000000000e+00
0.000000000000000e+00 0.000000000000000e+00 0.000000000000000e+00
0.000000000000000e+00 0.000000000000000e+00 0.000000000000000e+00

0.000000000000000e+00 0.000000000000000e+00 0.000000000000000e+00
0.000000000000000e+00 0.000000000000000e+00 0.000000000000000e+00
0.000000000000000e+00 0.000000000000000e+00 0.000000000000000e+00

0.000000000000000e+00 0.000000000000000e+00 0.000000000000000e+00
0.000000000000000e+00 0.000000000000000e+00 0.000000000000000e+00
0.000000000000000e+00 0.000000000000000e+00 0.000000000000000e+00

0.000000000000000e+00 0.000000000000000e+00 0.000000000000000e+00
0.000000000000000e+00 0.000000000000000e+00 0.000000000000000e+00
0.000000000000000e+00 0.000000000000000e+00 0.000000000000000e+00

0.000000000000000e+00 0.000000000000000e+00 0.000000000000000e+00
0.000000000000000e+00 0.000000000000000e+00 0.000000000000000e+00
0.000000000000000e+00 0.000000000000000e+00 0.000000000000000e+00

0.000000000000000e+00 0.000000000000000e+00 0.000000000000000e+00
0.000000000000000e+00 0.000000000000000e+00 0.000000000000000e+00
0.000000000000000e+00 0.000000000000000e+00 0.000000000000000e+00

0.000000000000000e+00 0.000000000000000e+00 0.000000000000000e+00
0.000000000000000e+00 0.000000000000000e+00 0.000000000000000e+00
0.000000000000000e+00 0.000000000000000e+00 0.000000000000000e+00

0.000000000000000e+00 0.000000000000000e+00 0.000000000000000e+00
0.000000000000000e+00 0.000000000000000e+00 0.000000000000000e+00
0.000000000000000e+00 0.000000000000000e+00 0.000000000000000e+00

0.000000000000000e+00 0.000000000000000e+00 0.000000000000000e+00
0.000000000000000e+00 0.000000000000000e+00 0.000000000000000e+00
0.000000000000000e+00 0.000000000000000e+00 0.000000000000000e+00

0.000000000000000e+00 0.000000000000000e+00 0.000000000000000e+00
0.000000000000000e+00 0.000000000000000e+00 0.000000000000000e+00
0.000000000000000e+00 0.000000000000000e+00 0.000000000000000e+00

0.000000000000000e+00 0.000000000000000e+00 0.000000000000000e+00
0.000000000000000e+00 0.000000000000000e+00 0.000000000000000e+00
0.000000000000000e+00 0.000000000000000e+00 0.000000000000000e+00

0.000000000000000e+00 0.000000000000000e+00 0.000000000000000e+00
0.000000000000000e+00 0.000000000000000e+00 0.000000000000000e+00
0.000000000000000e+00 0.000000000000000e+00 0.000000000000000e+00

0.000000000000000e+00 0.000000000000000e+00 0.000000000000000e+00
0.000000000000000e+00 0.000000000000000e+00 0.000000000000000e+00
0.000000000000000e+00 0.000000000000000e+00 0.000000000000000e+00

0.000000000000000e+00 0.000000000000000e+00 0.000000000000000e+00
0.000000000000000e+00 0.000000000000000e+00 0.000000000000000e+00
0.000000000000000e+00 0.000000000000000e+00 0.000000000000000e+00

0.000000000000000e+00 0.000000000000000e+00 0.000000000000000e+00
0.000000000000000e+00 0.000000000000000e+00 0.000000000000000e+00
0.000000000000000e+00 0.000000000000000e+00 0.000000000000000e+00

0.000000000000000e+00 0.000000000000000e+00 0.000000000000000e+00
0.000000000000000e+00 0.000000000000000e+00 0.000000000000000e+00
0.000000000000000e+00 0.000000000000000e+00 0.000000000000000e+00

0.000000000000000e+00 0.000000000000000e+00 0.000000000000000e+00
0.000000000000000e+00 0.000000000000000e+00 0.000000000000000e+00
0.000000000000000e+00 0.000000000000000e+00 0.000000000000000e+00

0.000000000000000e+00 0.000000000000000e+00 0.000000000000000e+00
0.000000000000000e+00 0.000000000000000e+00 0.000000000000000e+00
0.000000000000000e+00 0.000000000000000e+00 0.000000000000000e+00

0.000000000000000e+00 0.000000000000000e+00 0.000000000000000e+00
0.000000000000000e+00 0.000000000000000e+00 0.000000000000000e+00
0.000000000000000e+00 0.000000000000000e+00 0.000000000000000e+00

0.000000000000000e+00 0.000000000000000e+00 0.000000000000000e+00
0.000000000000000e+00 0.000000000000000e+00 0.000000000000000e+00
0.000000000000000e+00 0.000000000000000e+00 0.000000000000000e+00

0.000000000000000e+00 0.000000000000000e+00 0.000000000000000e+00
0.000000000000000e+00 0.000000000000000e+00 0.000000000000000e+00
0.000000000000000e+00 0.000000000000000e+00 0.000000000000000e+00

0.000000000000000e+00 0.000000000000000e+00 0.000000000000000e+00
0.000000000000000e+00 0.000000000000000e+00 0.000000000000000e+00
0.000000000000000e+00 0.000000000000000e+00 0.000000000000000e+00

0.000000000000000e+00 0.000000000000000e+00 0.000000000000000e+00
0.000000000000000e+00 0.000000000000000e+00 0.000000000000000e+00
0.000000000000000e+00 0.000000000000000e+00 0.000000000000000e+00

0.000000000000000e+00 0.000000000000000e+00 0.000000000000000e+00
0.000000000000000e+00 0.000000000000000e+00 0.000000000000000e+00
0.000000000000000e+00 0.000000000000000e+00 0.000000000000000e+00

0.000000000000000e+00 0.000000000000000e+00 0.000000000000000e+00
0.000000000000000e+00 0.000000000000000e+00 0.000000000000000e+00
0.000000000000000e+00 0.000000000000000e+00 0.000000000000000e+00

0.000000000000000e+00 0.000000000000000e+00 0.000000000000000e+00
0.000000000000000e+00 0.000000000000000e+00 0.000000000000000e+00
0.000000000000000e+00 0.000000000000000e+00 0.000000000000000e+00

0.000000000000000e+00 0.000000000000000e+00 0.000000000000000e+00
0.000000000000000e+00 0.000000000000000e+00 0.000000000000000e+00
0.000000000000000e+00 0.000000000000000e+00 0.000000000000000e+00

0.000000000000000e+00 0.000000000000000e+00 0.000000000000000e+00
0.000000000000000e+00 0.000000000000000e+00 0.000000000000000e+00
0.000000000000000e+00 0.000000000000000e+00 0.000000000000000e+00

0.000000000000000e+00 0.000000000000000e+00 0.000000000000000e+00
0.000000000000000e+00 0.000000000000000e+00 0.000000000000000e+00
0.000000000000000e+00 0.000000000000000e+00 0.000000000000000e+00

0.000000000000000e+00 0.000000000000000e+00 0.000000000000000e+00
0.000000000000000e+00 0.000000000000000e+00 0.000000000000000e+00
0.000000000000000e+00 0.000000000000000e+00 0.000000000000000e+00

0.000000000000000e+00 0.000000000000000e+00 0.000000000000000e+00
0.000000000000000e+00 0.000000000000000e+00 0.000000000000000e+00
0.000000000000000e+00 0.000000000000000e+00 0.000000000000000e+00

0.000000000000000e+00 0.000000000000000e+00 0.000000000000000e+00
0.000000000000000e+00 0.000000000000000e+00 0.000000000000000e+00
0.000000000000000e+00 0.000000000000000e+00 0.000000000000000e+00

0.000000000000000e+00 0.000000000000000e+00 0.000000000000000e+00
0.000000000000000e+00 0.000000000000000e+00 0.000000000000000e+00
0.000000000000000e+00 0.000000000000000e+00 0.000000000000000e+00

0.000000000000000e+00 0.000000000000000e+00 0.000000000000000e+00
0.000000000000000e+00 0.000000000000000e+00 0.000000000000000e+00
0.000000000000000e+00 0.000000000000000e+00 0.000000000000000e+00

0.000000000000000e+00 0.000000000000000e+00 0.000000000000000e+00
0.000000000000000e+00 0.000000000000000e+00 0.000000000000000e+00
0.000000000000000e+00 0.000000000000000e+00 0.000000000000000e+00

0.000000000000000e+00 0.000000000000000e+00 0.000000000000000e+00
0.000000000000000e+00 0.000000000000000e+00 0.000000000000000e+00
0.000000000000000e+00 0.000000000000000e+00 0.000000000000000e+00

0.000000000000000e+00 0.000000000000000e+00 0.000000000000000e+00
0.000000000000000e+00 0.000000000000000e+00 0.000000000000000e+00
0.000000000000000e+00 0.000000000000000e+00 0.000000000000000e+00

0.000000000000000e+00 0.000000000000000e+00 0.000000000000000e+00
0.000000000000000e+00 0.000000000000000e+00 0.000000000000000e+00
0.000000000000000e+00 0.000000000000000e+00 0.000000000000000e+00

0.000000000000000e+00 0.000000000000000e+00 0.000000000000000e+00
0.000000000000000e+00 0.000000000000000e+00 0.000000000000000e+00
0.000000000000000e+00 0.000000000000000e+00 0.000000000000000e+00

0.000000000000000e+00 0.000000000000000e+00 0.000000000000000e+00
0.000000000000000e+00 0.000000000000000e+00 0.000000000000000e+00
0.000000000000000e+00 0.000000000000000e+00 0.000000000000000e+00

0.000000000000000e+00 0.000000000000000e+00 0.000000000000000e+00
0.000000000000000e+00 0.000000000000000e+00 0.000000000000000e+00
0.000000000000000e+00 0.000000000000000e+00 0.000000000000000e+00

0.000000000000000e+00 0.000000000000000e+00 0.000000000000000e+00
0.000000000000000e+00 0.000000000000000e+00 0.000000000000000e+00
0.000000000000000e+00 0.000000000000000e+00 0.000000000000000e+00

0.000000000000000e+00 0.000000000000000e+00 0.000000000000000e+00
0.000000000000000e+00 0.000000000000000e+00 0.000000000000000e+00
0.000000000000000e+00 0.000000000000000e+00 0.000000000000000e+00

0.000000000000000e+00 0.000000000000000e+00 0.000000000000000e+00
0.000000000000000e+00 0.000000000000000e+00 0.000000000000000e+00
0.000000000000000e+00 0.000000000000000e+00 0.000000000000000e+00

0.000000000000000e+00 0.000000000000000e+00 0.000000000000000e+00
0.000000000000000e+00 0.000000000000000e+00 0.000000000000000e+00
0.000000000000000e+00 0.000000000000000e+00 0.000000000000000e+00

0.000000000000000e+00 0.000000000000000e+00 0.000000000000000e+00
0.000000000000000e+00 0.000000000000000e+00 0.000000000000000e+00
0.000000000000000e+00 0.000000000000000e+00 0.000000000000000e+00

0.000000000000000e+00 0.000000000000000e+00 0.000000000000000e+00
0.000000000000000e+00 0.000000000000000e+00 0.000000000000000e+00
0.000000000000000e+00 0.000000000000000e+00 0.000000000000000e+00

0.000000000000000e+00 0.000000000000000e+00 0.000000000000000e+00
0.000000000000000e+00 0.000000000000000e+00 0.000000000000000e+00
0.000000000000000e+00 0.000000000000000e+00 0.000000000000000e+00

0.000000000000000e+00 0.000000000000000e+00 0.000000000000000e+00
0.000000000000000e+00 0.000000000000000e+00 0.000000000000000e+00
0.000000000000000e+00 0.000000000000000e+00 0.000000000000000e+00

0.000000000000000e+00 0.000000000000000e+00 0.000000000000000e+00
0.000000000000000e+00 0.000000000000000e+00 0.000000000000000e+00
0.000000000000000e+00 0.000000000000000e+00 0.000000000000000e+00

0.000000000000000e+00 0.000000000000000e+00 0.000000000000000e+00
0.000000000000000e+00 0.000000000000000e+00 0.000000000000000e+00
0.000000000000000e+00 0.000000000000000e+00 0.000000000000000e+00

0.000000000000000e+00 0.000000000000000e+00 0.000000000000000e+00
0.000000000000000e+00 0.000000000000000e+00 0.000000000000000e+00
0.000000000000000e+00 0.000000000000000e+00 0.000000000000000e+00

0.000000000000000e+00 0.000000000000000e+00 0.000000000000000e+00
0.000000000000000e+00 0.000000000000000e+00 0.000000000000000e+00
0.000000000000000e+00 0.000000000000000e+00 0.000000000000000e+00

0.000000000000000e+00 0.000000000000000e+00 0.000000000000000e+00
0.000000000000000e+00 0.000000000000000e+00 0.000000000000000e+00
0.000000000000000e+00 0.000000000000000e+00 0.000000000000000e+00

0.000000000000000e+00 0.000000000000000e+00 0.000000000000000e+00
0.000000000000000e+00 0.000000000000000e+00 0.000000000000000e+00
0.000000000000000e+00 0.000000000000000e+00 0.000000000000000e+00

0.000000000000000e+00 0.000000000000000e+00 0.000000000000000e+00
0.000000000000000e+00 0.000000000000000e+00 0.000000000000000e+00
0.000000000000000e+00 0.000000000000000e+00 0.000000000000000e+00

0.000000000000000e+00 0.000000000000000e+00 0.000000000000000e+00
0.000000000000000e+00 0.000000000000000e+00 0.000000000000000e+00
0.000000000000000e+00 0.000000000000000e+00 0.000000000000000e+00

0.000000000000000e+00 0.000000000000000e+00 0.000000000000000e+00
0.000000000000000e+00 0.000000000000000e+00 0.000000000000000e+00
0.000000000000000e+00 0.000000000000000e+00 0.000000000000000e+00

0.000000000000000e+00 0.000000000000000e+00 0.000000000000000e+00
0.000000000000000e+00 0.000000000000000e+00 0.000000000000000e+00
0.000000000000000e+00 0.000000000000000e+00 0.000000000000000e+00

0.000000000000000e+00 0.000000000000000e+00 0.000000000000000e+00
0.000000000000000e+00 0.000000000000000e+00 0.000000000000000e+00
0.000000000000000e+00 0.000000000000000e+00 0.000000000000000e+00

0.000000000000000e+00 0.000000000000000e+00 0.000000000000000e+00
0.000000000000000e+00 0.000000000000000e+00 0.000000000000000e+00
0.000000000000000e+00 0.000000000000000e+00 0.000000000000000e+00

0.000000000000000e+00 0.000000000000000e+00 0.000000000000000e+00
0.000000000000000e+00 0.000000000000000e+00 0.000000000000000e+00
0.000000000000000e+00 0.000000000000000e+00 0.000000000000000e+00

0.000000000000000e+00 0.000000000000000e+00 0.000000000000000e+00
0.000000000000000e+00 0.000000000000000e+00 0.000000000000000e+00
0.000000000000000e+00 0.000000000000000e+00 0.000000000000000e+00

0.000000000000000e+00 0.000000000000000e+00 0.000000000000000e+00
0.000000000000000e+00 0.000000000000000e+00 0.000000000000000e+00
0.000000000000000e+00 0.000000000000000e+00 0.000000000000000e+00

0.000000000000000e+00 0.000000000000000e+00 0.000000000000000e+00
0.000000000000000e+00 0.000000000000000e+00 0.000000000000000e+00
0.000000000000000e+00 0.000000000000000e+00 0.000000000000000e+00

0.000000000000000e+00 0.000000000000000e+00 0.000000000000000e+00
0.000000000000000e+00 0.000000000000000e+00 0.000000000000000e+00
0.000000000000000e+00 0.000000000000000e+00 0.000000000000000e+00

0.000000000000000e+00 0.000000000000000e+00 0.000000000000000e+00
0.000000000000000e+00 0.000000000000000e+00 0.000000000000000e+00
0.000000000000000e+00 0.000000000000000e+00 0.000000000000000e+00

0.000000000000000e+00 0.000000000000000e+00 0.000000000000000e+00
0.000000000000000e+00 0.000000000000000e+00 0.000000000000000e+00
0.000000000000000e+00 0.000000000000000e+00 0.000000000000000e+00

0.000000000000000e+00 0.000000000000000e+00 0.000000000000000e+00
0.000000000000000e+00 0.000000000000000e+00 0.000000000000000e+00
0.000000000000000e+00 0.000000000000000e+00 0.000000000000000e+00

0.000000000000000e+00 0.000000000000000e+00 0.000000000000000e+00
0.000000000000000e+00 0.000000000000000e+00 0.000000000000000e+00
0.000000000000000e+00 0.000000000000000e+00 0.000000000000000e+00

0.000000000000000e+00 0.000000000000000e+00 0.000000000000000e+00
0.000000000000000e+00 0.000000000000000e+00 0.000000000000000e+00
0.000000000000000e+00 0.000000000000000e+00 0.000000000000000e+00

0.000000000000000e+00 0.000000000000000e+00 0.000000000000000e+00
0.000000000000000e+00 0.000000000000000e+00 0.000000000000000e+00
0.000000000000000e+00 0.000000000000000e+00 0.000000000000000e+00

0.000000000000000e+00 0.000000000000000e+00 0.000000000000000e+00
0.000000000000000e+00 0.000000000000000e+00 0.000000000000000e+00
0.000000000000000e+00 0.000000000000000e+00 0.000000000000000e+00

0.000000000000000e+00 0.000000000000000e+00 0.000000000000000e+00
0.000000000000000e+00 0.000000000000000e+00 0.000000000000000e+00
0.000000000000000e+00 0.000000000000000e+00 0.000000000000000e+00

0.000000000000000e+00 0.000000000000000e+00 0.000000000000000e+00
0.000000000000000e+00 0.000000000000000e+00 0.000000000000000e+00
0.000000000000000e+00 0.000000000000000e+00 0.000000000000000e+00

0.000000000000000e+00 0.000000000000000e+00 0.000000000000000e+00
0.000000000000000e+00 0.000000000000000e+00 0.000000000000000e+00
0.000000000000000e+00 0.000000000000000e+00 0.000000000000000e+00

0.000000000000000e+00 0.000000000000000e+00 0.000000000000000e+00
0.000000000000000e+00 0.000000000000000e+00 0.000000000000000e+00
0.000000000000000e+00 0.000000000000000e+00 0.000000000000000e+00

0.000000000000000e+00 0.000000000000000e+00 0.000000000000000e+00
0.000000000000000e+00 0.000000000000000e+00 0.000000000000000e+00
0.000000000000000e+00 0.000000000000000e+00 0.000000000000000e+00

0.000000000000000e+00 0.000000000000000e+00 0.000000000000000e+00
0.000000000000000e+00 0.000000000000000e+00 0.000000000000000e+00
0.000000000000000e+00 0.000000000000000e+00 0.000000000000000e+00

0.000000000000000e+00 0.000000000000000e+00 0.000000000000000e+00
0.000000000000000e+00 0.000000000000000e+00 0.000000000000000e+00
0.000000000000000e+00 0.000000000000000e+00 0.000000000000000e+00

0.000000000000000e+00 0.000000000000000e+00 0.000000000000000e+00
0.000000000000000e+00 0.000000000000000e+00 0.000000000000000e+00
0.000000000000000e+00 0.000000000000000e+00 0.000000000000000e+00

0.000000000000000e+00 0.000000000000000e+00 0.000000000000000e+00
0.000000000000000e+00 0.000000000000000e+00 0.000000000000000e+00
0.000000000000000e+00 0.000000000000000e+00 0.000000000000000e+00

0.000000000000000e+00 0.000000000000000e+00 0.000000000000000e+00
0.000000000000000e+00 0.000000000000000e+00 0.000000000000000e+00
0.000000000000000e+00 0.000000000000000e+00 0.000000000000000e+00

0.000000000000000e+00 0.000000000000000e+00 0.000000000000000e+00
0.000000000000000e+00 0.000000000000000e+00 0.000000000000000e+00
0.000000000000000e+00 0.000000000000000e+00 0.000000000000000e+00

0.000000000000000e+00 0.000000000000000e+00 0.000000000000000e+00
0.000000000000000e+00 0.000000000000000e+00 0.000000000000000e+00
0.000000000000000e+00 0.000000000000000e+00 0.000000000000000e+00

0.000000000000000e+00 0.000000000000000e+00 0.000000000000000e+00
0.000000000000000e+00 0.000000000000000e+00 0.000000000000000e+00
0.000000000000000e+00 0.000000000000000e+00 0.000000000000000e+00

0.000000000000000e+00 0.000000000000000e+00 0.000000000000000e+00
0.000000000000000e+00 0.000000000000000e+00 0.000000000000000e+00
0.000000000000000e+00 0.000000000000000e+00 0.000000000000000e+00

0.000000000000000e+00 0.000000000000000e+00 0.000000000000000e+00
0.000000000000000e+00 0.000000000000000e+00 0.000000000000000e+00
0.000000000000000e+00 0.000000000000000e+00 0.000000000000000e+00

0.000000000000000e+00 0.000000000000000e+00 0.000000000000000e+00
0.000000000000000e+00 0.000000000000000e+00 0.000000000000000e+00
0.000000000000000e+00 0.000000000000000e+00 0.000000000000000e+00

0.000000000000000e+00 0.000000000000000e+00 0.000000000000000e+00
0.000000000000000e+00 0.000000000000000e+00 0.000000000000000e+00
0.000000000000000e+00 0.000000000000000e+00 0.000000000000000e+00

0.000000000000000e+00 0.000000000000000e+00 0.000000000000000e+00
0.000000000000000e+00 0.000000000000000e+00 0.000000000000000e+00
0.000000000000000e+00 0.000000000000000e+00 0.000000000000000e+00

0.000000000000000e+00 0.000000000000000e+00 0.000000000000000e+00
0.000000000000000e+00 0.000000000000000e+00 0.000000000000000e+00
0.000000000000000e+00 0.000000000000000e+00 0.000000000000000e+00

0.000000000000000e+00 0.000000000000000e+00 0.000000000000000e+00
0.000000000000000e+00 0.000000000000000e+00 0.000000000000000e+00
0.000000000000000e+00 0.000000000000000e+00 0.000000000000000e+00

0.000000000000000e+00 0.000000000000000e+00 0.000000000000000e+00
0.000000000000000e+00 0.000000000000000e+00 0.000000000000000e+00
0.000000000000000e+00 0.000000000000000e+00 0.000000000000000e+00

0.000000000000000e+00 0.000000000000000e+00 0.000000000000000e+00
0.000000000000000e+00 0.000000000000000e+00 0.000000000000000e+00
0.000000000000000e+00 0.000000000000000e+00 0.000000000000000e+00

0.000000000000000e+00 0.000000000000000e+00 0.000000000000000e+00
0.000000000000000e+00 0.000000000000000e+00 0.000000000000000e+00
0.000000000000000e+00 0.000000000000000e+00 0.000000000000000e+00

0.000000000000000e+00 0.000000000000000e+00 0.000000000000000e+00
0.000000000000000e+00 0.000000000000000e+00 0.000000000000000e+00
0.000000000000000e+00 0.000000000000000e+00 0.000000000000000e+00

0.000000000000000e+00 0.000000000000000e+00 0.000000000000000e+00
0.000000000000000e+00 0.000000000000000e+00 0.000000000000000e+00
0.000000000000000e+00 0.000000000000000e+00 0.000000000000000e+00

0.000000000000000e+00 0.000000000000000e+00 0.000000000000000e+00
0.000000000000000e+00 0.000000000000000e+00 0.000000000000000e+00
0.000000000000000e+00 0.000000000000000e+00 0.000000000000000e+00

0.000000000000000e+00 0.000000000000000e+00 0.000000000000000e+00
0.000000000000000e+00 0.000000000000000e+00 0.000000000000000e+00
0.000000000000000e+00 0.000000000000000e+00 0.000000000000000e+00

0.000000000000000e+00 0.000000000000000e+00 0.000000000000000e+00
0.000000000000000e+00 0.000000000000000e+00 0.000000000000000e+00
0.000000000000000e+00 0.000000000000000e+00 0.000000000000000e+00

0.000000000000000e+00 0.000000000000000e+00 0.000000000000000e+00
0.000000000000000e+00 0.000000000000000e+00 0.000000000000000e+00
0.000000000000000e+00 0.000000000000000e+00 0.000000000000000e+00

0.000000000000000e+00 0.000000000000000e+00 0.000000000000000e+00
0.000000000000000e+00 0.000000000000000e+00 0.000000000000000e+00
0.000000000000000e+00 0.000000000000000e+00 0.000000000000000e+00

0.000000000000000e+00 0.000000000000000e+00 0.000000000000000e+00
0.000000000000000e+00 0.000000000000000e+00 0.000000000000000e+00
0.000000000000000e+00 0.000000000000000e+00 0.000000000000000e+00

0.000000000000000e+00 0.000000000000000e+00 0.000000000000000e+00
0.000000000000000e+00 0.000000000000000e+00 0.000000000000000e+00
0.000000000000000e+00 0.000000000000000e+00 0.000000000000000e+00

0.000000000000000e+00 0.000000000000000e+00 0.000000000000000e+00
0.000000000000000e+00 0.000000000000000e+00 0.000000000000000e+00
0.000000000000000e+00 0.000000000000000e+00 0.000000000000000e+00

0.000000000000000e+00 0.000000000000000e+00 0.000000000000000e+00
0.000000000000000e+00 0.000000000000000e+00 0.000000000000000e+00
0.000000000000000e+00 0.000000000000000e+00 0.000000000000000e+00

0.000000000000000e+00 0.000000000000000e+00 0.000000000000000e+00
0.000000000000000e+00 0.000000000000000e+00 0.000000000000000e+00
0.000000000000000e+00 0.000000000000000e+00 0.000000000000000e+00

0.000000000000000e+00 0.000000000000000e+00 0.000000000000000e+00
0.000000000000000e+00 0.000000000000000e+00 0.000000000000000e+00
0.000000000000000e+00 0.000000000000000e+00 0.000000000000000e+00

0.000000000000000e+00 0.000000000000000e+00 0.000000000000000e+00
0.000000000000000e+00 0.000000000000000e+00 0.000000000000000e+00
0.000000000000000e+00 0.000000000000000e+00 0.000000000000000e+00

0.000000000000000e+00 0.000000000000000e+00 0.000000000000000e+00
0.000000000000000e+00 0.000000000000000e+00 0.000000000000000e+00
0.000000000000000e+00 0.000000000000000e+00 0.000000000000000e+00

0.000000000000000e+00 0.000000000000000e+00 0.000000000000000e+00
0.000000000000000e+00 0.000000000000000e+00 0.000000000000000e+00
0.000000000000000e+00 0.000000000000000e+00 0.000000000000000e+00

0.000000000000000e+00 0.000000000000000e+00 0.000000000000000e+00
0.000000000000000e+00 0.000000000000000e+00 0.000000000000000e+00
0.000000000000000e+00 0.000000000000000e+00 0.000000000000000e+00

0.000000000000000e+00 0.000000000000000e+00 0.000000000000000e+00
0.000000000000000e+00 0.000000000000000e+00 0.000000000000000e+00
0.000000000000000e+00 0.000000000000000e+00 0.000000000000000e+00

0.000000000000000e+00 0.000000000000000e+00 0.000000000000000e+00
0.000000000000000e+00 0.000000000000000e+00 0.000000000000000e+00
0.000000000000000e+00 0.000000000000000e+00 0.000000000000000e+00

0.000000000000000e+00 0.000000000000000e+00 0.000000000000000e+00
0.000000000000000e+00 0.000000000000000e+00 0.000000000000000e+00
0.000000000000000e+00 0.000000000000000e+00 0.000000000000000e+00

0.000000000000000e+00 0.000000000000000e+00 0.000000000000000e+00
0.000000000000000e+00 0.000000000000000e+00 0.000000000000000e+00
0.000000000000000e+00 0.000000000000000e+00 0.000000000000000e+00

0.000000000000000e+00 0.000000000000000e+00 0.000000000000000e+00
0.000000000000000e+00 0.000000000000000e+00 0.000000000000000e+00
0.000000000000000e+00 0.000000000000000e+00 0.000000000000000e+00

0.000000000000000e+00 0.000000000000000e+00 0.000000000000000e+00
0.000000000000000e+00 0.000000000000000e+00 0.000000000000000e+00
0.000000000000000e+00 0.000000000000000e+00 0.000000000000000e+00

0.000000000000000e+00 0.000000000000000e+00 0.000000000000000e+00
0.000000000000000e+00 0.000000000000000e+00 0.000000000000000e+00
0.000000000000000e+00 0.000000000000000e+00 0.000000000000000e+00

0.000000000000000e+00 0.000000000000000e+00 0.000000000000000e+00
0.000000000000000e+00 0.000000000000000e+00 0.000000000000000e+00
0.000000000000000e+00 0.000000000000000e+00 0.000000000000000e+00

0.000000000000000e+00 0.000000000000000e+00 0.000000000000000e+00
0.000000000000000e+00 0.000000000000000e+00 0.000000000000000e+00
0.000000000000000e+00 0.000000000000000e+00 0.000000000000000e+00

0.000000000000000e+00 0.000000000000000e+00 0.000000000000000e+00
0.000000000000000e+00 0.000000000000000e+00 0.000000000000000e+00
0.000000000000000e+00 0.000000000000000e+00 0.000000000000000e+00

0.000000000000000e+00 0.000000000000000e+00 0.000000000000000e+00
0.000000000000000e+00 0.000000000000000e+00 0.000000000000000e+00
0.000000000000000e+00 0.000000000000000e+00 0.000000000000000e+00

0.000000000000000e+00 0.000000000000000e+00 0.000000000000000e+00
0.000000000000000e+00 0.000000000000000e+00 0.000000000000000e+00
0.000000000000000e+00 0.000000000000000e+00 0.000000000000000e+00

0.000000000000000e+00 0.000000000000000e+00 0.000000000000000e+00
0.000000000000000e+00 0.000000000000000e+00 0.000000000000000e+00
0.000000000000000e+00 0.000000000000000e+00 0.000000000000000e+00

0.000000000000000e+00 0.000000000000000e+00 0.000000000000000e+00
0.000000000000000e+00 0.000000000000000e+00 0.000000000000000e+00
0.000000000000000e+00 0.000000000000000e+00 0.000000000000000e+00

0.000000000000000e+00 0.000000000000000e+00 0.000000000000000e+00
0.000000000000000e+00 0.000000000000000e+00 0.000000000000000e+00
0.000000000000000e+00 0.000000000000000e+00 0.000000000000000e+00

0.000000000000000e+00 0.000000000000000e+00 0.000000000000000e+00
0.000000000000000e+00 0.000000000000000e+00 0.000000000000000e+00
0.000000000000000e+00 0.000000000000000e+00 0.000000000000000e+00

0.000000000000000e+00 0.000000000000000e+00 0.000000000000000e+00
0.000000000000000e+00 0.000000000000000e+00 0.000000000000000e+00
0.000000000000000e+00 0.000000000000000e+00 0.000000000000000e+00

0.000000000000000e+00 0.000000000000000e+00 0.000000000000000e+00
0.000000000000000e+00 0.000000000000000e+00 0.000000000000000e+00
0.000000000000000e+00 0.000000000000000e+00 0.000000000000000e+00

0.000000000000000e+00 0.000000000000000e+00 0.000000000000000e+00
0.000000000000000e+00 0.000000000000000e+00 0.000000000000000e+00
0.000000000000000e+00 0.000000000000000e+00 0.000000000000000e+00

0.000000000000000e+00 0.000000000000000e+00 0.000000000000000e+00
0.000000000000000e+00 0.000000000000000e+00 0.000000000000000e+00
0.000000000000000e+00 0.000000000000000e+00 0.000000000000000e+00

0.000000000000000e+00 0.000000000000000e+00 0.000000000000000e+00
0.000000000000000e+00 0.000000000000000e+00 0.000000000000000e+00
0.000000000000000e+00 0.000000000000000e+00 0.000000000000000e+00

0.000000000000000e+00 0.000000000000000e+00 0.000000000000000e+00
0.000000000000000e+00 0.000000000000000e+00 0.000000000000000e+00
0.000000000000000e+00 0.000000000000000e+00 0.000000000000000e+00

0.000000000000000e+00 0.000000000000000e+00 0.000000000000000e+00
0.000000000000000e+00 0.000000000000000e+00 0.000000000000000e+00
0.000000000000000e+00 0.000000000000000e+00 0.000000000000000e+00

0.000000000000000e+00 0.000000000000000e+00 0.000000000000000e+00
0.000000000000000e+00 0.000000000000000e+00 0.000000000000000e+00
0.000000000000000e+00 0.000000000000000e+00 0.000000000000000e+00

0.000000000000000e+00 0.000000000000000e+00 0.000000000000000e+00
0.000000000000000e+00 0.000000000000000e+00 0.000000000000000e+00
0.000000000000000e+00 0.000000000000000e+00 0.000000000000000e+00

0.000000000000000e+00 0.000000000000000e+00 0.000000000000000e+00
0.000000000000000e+00 0.000000000000000e+00 0.000000000000000e+00
0.000000000000000e+00 0.000000000000000e+00 0.000000000000000e+00

0.000000000000000e+00 0.000000000000000e+00 0.000000000000000e+00
0.000000000000000e+00 0.000000000000000e+00 0.000000000000000e+00
0.000000000000000e+00 0.000000000000000e+00 0.000000000000000e+00

0.000000000000000e+00 0.000000000000000e+00 0.000000000000000e+00
0.000000000000000e+00 0.000000000000000e+00 0.000000000000000e+00
0.000000000000000e+00 0.000000000000000e+00 0.000000000000000e+00

0.000000000000000e+00 0.000000000000000e+00 0.000000000000000e+00
0.000000000000000e+00 0.000000000000000e+00 0.000000000000000e+00
0.000000000000000e+00 0.000000000000000e+00 0.000000000000000e+00

0.000000000000000e+00 0.000000000000000e+00 0.000000000000000e+00
0.000000000000000e+00 0.000000000000000e+00 0.000000000000000e+00
0.000000000000000e+00 0.000000000000000e+00 0.000000000000000e+00

0.000000000000000e+00 0.000000000000000e+00 0.000000000000000e+00
0.000000000000000e+00 0.000000000000000e+00 0.000000000000000e+00
0.000000000000000e+00 0.000000000000000e+00 0.000000000000000e+00

0.000000000000000e+00 0.000000000000000e+00 0.000000000000000e+00
0.000000000000000e+00 0.000000000000000e+00 0.000000000000000e+00
0.000000000000000e+00 0.000000000000000e+00 0.000000000000000e+00

0.000000000000000e+00 0.000000000000000e+00 0.000000000000000e+00
0.000000000000000e+00 0.000000000000000e+00 0.000000000000000e+00
0.000000000000000e+00 0.000000000000000e+00 0.000000000000000e+00

0.000000000000000e+00 0.000000000000000e+00 0.000000000000000e+00
0.000000000000000e+00 0.000000000000000e+00 0.000000000000000e+00
0.000000000000000e+00 0.000000000000000e+00 0.000000000000000e+00

0.000000000000000e+00 0.000000000000000e+00 0.000000000000000e+00
0.000000000000000e+00 0.000000000000000e+00 0.000000000000000e+00
0.000000000000000e+00 0.000000000000000e+00 0.000000000000000e+00

0.000000000000000e+00 0.000000000000000e+00 0.000000000000000e+00
0.000000000000000e+00 0.000000000000000e+00 0.000000000000000e+00
0.000000000000000e+00 0.000000000000000e+00 0.000000000000000e+00

0.000000000000000e+00 0.000000000000000e+00 0.000000000000000e+00
0.000000000000000e+00 0.000000000000000e+00 0.000000000000000e+00
0.000000000000000e+00 0.000000000000000e+00 0.000000000000000e+00

0.000000000000000e+00 0.000000000000000e+00 0.000000000000000e+00
0.000000000000000e+00 0.000000000000000e+00 0.000000000000000e+00
0.000000000000000e+00 0.000000000000000e+00 0.000000000000000e+00

0.000000000000000e+00 0.000000000000000e+00 0.000000000000000e+00
0.000000000000000e+00 0.000000000000000e+00 0.000000000000000e+00
0.000000000000000e+00 0.000000000000000e+00 0.000000000000000e+00

0.000000000000000e+00 0.000000000000000e+00 0.000000000000000e+00
0.000000000000000e+00 0.000000000000000e+00 0.000000000000000e+00
0.000000000000000e+00 0.000000000000000e+00 0.000000000000000e+00

0.000000000000000e+00 0.000000000000000e+00 0.000000000000000e+00
0.000000000000000e+00 0.000000000000000e+00 0.000000000000000e+00
0.000000000000000e+00 0.000000000000000e+00 0.000000000000000e+00

0.000000000000000e+00 0.000000000000000e+00 0.000000000000000e+00
0.000000000000000e+00 0.000000000000000e+00 0.000000000000000e+00
0.000000000000000e+00 0.000000000000000e+00 0.000000000000000e+00

0.000000000000000e+00 0.000000000000000e+00 0.000000000000000e+00
0.000000000000000e+00 0.000000000000000e+00 0.000000000000000e+00
0.000000000000000e+00 0.000000000000000e+00 0.000000000000000e+00

0.000000000000000e+00 0.000000000000000e+00 0.000000000000000e+00
0.000000000000000e+00 0.000000000000000e+00 0.000000000000000e+00
0.000000000000000e+00 0.000000000000000e+00 0.000000000000000e+00

0.000000000000000e+00 0.000000000000000e+00 0.000000000000000e+00
0.000000000000000e+00 0.000000000000000e+00 0.000000000000000e+00
0.000000000000000e+00 0.000000000000000e+00 0.000000000000000e+00

0.000000000000000e+00 0.000000000000000e+00 0.000000000000000e+00
0.000000000000000e+00 0.000000000000000e+00 0.000000000000000e+00
0.000000000000000e+00 0.000000000000000e+00 0.000000000000000e+00

0.000000000000000e+00 0.000000000000000e+00 0.000000000000000e+00
0.000000000000000e+00 0.000000000000000e+00 0.000000000000000e+00
0.000000000000000e+00 0.000000000000000e+00 0.000000000000000e+00

0.000000000000000e+00 0.000000000000000e+00 0.000000000000000e+00
0.000000000000000e+00 0.000000000000000e+00 0.000000000000000e+00
0.000000000000000e+00 0.000000000000000e+00 0.000000000000000e+00

0.000000000000000e+00 0.000000000000000e+00 0.000000000000000e+00
0.000000000000000e+00 0.000000000000000e+00 0.000000000000000e+00
0.000000000000000e+00 0.000000000000000e+00 0.000000000000000e+00

0.000000000000000e+00 0.000000000000000e+00 0.000000000000000e+00
0.000000000000000e+00 0.000000000000000e+00 0.000000000000000e+00
0.000000000000000e+00 0.000000000000000e+00 0.000000000000000e+00

0.000000000000000e+00 0.000000000000000e+00 0.000000000000000e+00
0.000000000000000e+00 0.000000000000000e+00 0.000000000000000e+00
0.000000000000000e+00 0.000000000000000e+00 0.000000000000000e+00

0.000000000000000e+00 0.000000000000000e+00 0.000000000000000e+00
0.000000000000000e+00 0.000000000000000e+00 0.000000000000000e+00
0.000000000000000e+00 0.000000000000000e+00 0.000000000000000e+00

0.000000000000000e+00 0.000000000000000e+00 0.000000000000000e+00
0.000000000000000e+00 0.000000000000000e+00 0.000000000000000e+00
0.000000000000000e+00 0.000000000000000e+00 0.000000000000000e+00

0.000000000000000e+00 0.000000000000000e+00 0.000000000000000e+00
0.000000000000000e+00 0.000000000000000e+00 0.000000000000000e+00
0.000000000000000e+00 0.000000000000000e+00 0.000000000000000e+00

0.000000000000000e+00 0.000000000000000e+00 0.000000000000000e+00
0.000000000000000e+00 0.000000000000000e+00 0.000000000000000e+00
0.000000000000000e+00 0.000000000000000e+00 0.000000000000000e+00

0.000000000000000e+00 0.000000000000000e+00 0.000000000000000e+00
0.000000000000000e+00 0.000000000000000e+00 0.000000000000000e+00
0.000000000000000e+00 0.000000000000000e+00 0.000000000000000e+00

0.000000000000000e+00 0.000000000000000e+00 0.000000000000000e+00
0.000000000000000e+00 0.000000000000000e+00 0.000000000000000e+00
0.000000000000000e+00 0.000000000000000e+00 0.000000000000000e+00

0.000000000000000e+00 0.000000000000000e+00 0.000000000000000e+00
0.000000000000000e+00 0.000000000000000e+00 0.000000000000000e+00
0.000000000000000e+00 0.000000000000000e+00 0.000000000000000e+00

0.000000000000000e+00 0.000000000000000e+00 0.000000000000000e+00
0.000000000000000e+00 0.000000000000000e+00 0.000000000000000e+00
0.000000000000000e+00 0.000000000000000e+00 0.000000000000000e+00

0.000000000000000e+00 0.000000000000000e+00 0.000000000000000e+00
0.000000000000000e+00 0.000000000000000e+00 0.000000000000000e+00
0.000000000000000e+00 0.000000000000000e+00 0.000000000000000e+00

0.000000000000000e+00 0.000000000000000e+00 0.000000000000000e+00
0.000000000000000e+00 0.000000000000000e+00 0.000000000000000e+00
0.000000000000000e+00 0.000000000000000e+00 0.000000000000000e+00

0.000000000000000e+00 0.000000000000000e+00 0.000000000000000e+00
0.000000000000000e+00 0.000000000000000e+00 0.000000000000000e+00
0.000000000000000e+00 0.000000000000000e+00 0.000000000000000e+00

0.000000000000000e+00 0.000000000000000e+00 0.000000000000000e+00
0.000000000000000e+00 0.000000000000000e+00 0.000000000000000e+00
0.000000000000000e+00 0.000000000000000e+00 0.000000000000000e+00

0.000000000000000e+00 0.000000000000000e+00 0.000000000000000e+00
0.000000000000000e+00 0.000000000000000e+00 0.000000000000000e+00
0.000000000000000e+00 0.000000000000000e+00 0.000000000000000e+00

0.000000000000000e+00 0.000000000000000e+00 0.000000000000000e+00
0.000000000000000e+00 0.000000000000000e+00 0.000000000000000e+00
0.000000000000000e+00 0.000000000000000e+00 0.000000000000000e+00

0.000000000000000e+00 0.000000000000000e+00 0.000000000000000e+00
0.000000000000000e+00 0.000000000000000e+00 0.000000000000000e+00
0.000000000000000e+00 0.000000000000000e+00 0.000000000000000e+00

0.000000000000000e+00 0.000000000000000e+00 0.000000000000000e+00
0.000000000000000e+00 0.000000000000000e+00 0.000000000000000e+00
0.000000000000000e+00 0.000000000000000e+00 0.000000000000000e+00

0.000000000000000e+00 0.000000000000000e+00 0.000000000000000e+00
0.000000000000000e+00 0.000000000000000e+00 0.000000000000000e+00
0.000000000000000e+00 0.000000000000000e+00 0.000000000000000e+00

0.000000000000000e+00 0.000000000000000e+00 0.000000000000000e+00
0.000000000000000e+00 0.000000000000000e+00 0.000000000000000e+00
0.000000000000000e+00 0.000000000000000e+00 0.000000000000000e+00

0.000000000000000e+00 0.000000000000000e+00 0.000000000000000e+00
0.000000000000000e+00 0.000000000000000e+00 0.000000000000000e+00
0.000000000000000e+00 0.000000000000000e+00 0.000000000000000e+00

0.000000000000000e+00 0.000000000000000e+00 0.000000000000000e+00
0.000000000000000e+00 0.000000000000000e+00 0.000000000000000e+00
0.000000000000000e+00 0.000000000000000e+00 0.000000000000000e+00

0.000000000000000e+00 0.000000000000000e+00 0.000000000000000e+00
0.000000000000000e+00 0.000000000000000e+00 0.000000000000000e+00
0.000000000000000e+00 0.000000000000000e+00 0.000000000000000e+00

0.000000000000000e+00 0.000000000000000e+00 0.000000000000000e+00
0.000000000000000e+00 0.000000000000000e+00 0.000000000000000e+00
0.000000000000000e+00 0.000000000000000e+00 0.000000000000000e+00

0.000000000000000e+00 0.000000000000000e+00 0.000000000000000e+00
0.000000000000000e+00 0.000000000000000e+00 0.000000000000000e+00
0.000000000000000e+00 0.000000000000000e+00 0.000000000000000e+00

0.000000000000000e+00 0.000000000000000e+00 0.000000000000000e+00
0.000000000000000e+00 0.000000000000000e+00 0.000000000000000e+00
0.000000000000000e+00 0.000000000000000e+00 0.000000000000000e+00

0.000000000000000e+00 0.000000000000000e+00 0.000000000000000e+00
0.000000000000000e+00 0.000000000000000e+00 0.000000000000000e+00
0.000000000000000e+00 0.000000000000000e+00 0.000000000000000e+00

0.000000000000000e+00 0.000000000000000e+00 0.000000000000000e+00
0.000000000000000e+00 0.000000000000000e+00 0.000000000000000e+00
0.000000000000000e+00 0.000000000000000e+00 0.000000000000000e+00

0.000000000000000e+00 0.000000000000000e+00 0.000000000000000e+00
0.000000000000000e+00 0.000000000000000e+00 0.000000000000000e+00
0.000000000000000e+00 0.000000000000000e+00 0.000000000000000e+00

0.000000000000000e+00 0.000000000000000e+00 0.000000000000000e+00
0.000000000000000e+00 0.000000000000000e+00 0.000000000000000e+00
0.000000000000000e+00 0.000000000000000e+00 0.000000000000000e+00

0.000000000000000e+00 0.000000000000000e+00 0.000000000000000e+00
0.000000000000000e+00 0.000000000000000e+00 0.000000000000000e+00
0.000000000000000e+00 0.000000000000000e+00 0.000000000000000e+00

0.000000000000000e+00 0.000000000000000e+00 0.000000000000000e+00
0.000000000000000e+00 0.000000000000000e+00 0.000000000000000e+00
0.000000000000000e+00 0.000000000000000e+00 0.000000000000000e+00

0.000000000000000e+00 0.000000000000000e+00 0.000000000000000e+00
0.000000000000000e+00 0.000000000000000e+00 0.000000000000000e+00
0.000000000000000e+00 0.000000000000000e+00 0.000000000000000e+00

0.000000000000000e+00 0.000000000000000e+00 0.000000000000000e+00
0.000000000000000e+00 0.000000000000000e+00 0.000000000000000e+00
0.000000000000000e+00 0.000000000000000e+00 0.000000000000000e+00

0.000000000000000e+00 0.000000000000000e+00 0.000000000000000e+00
0.000000000000000e+00 0.000000000000000e+00 0.000000000000000e+00
0.000000000000000e+00 0.000000000000000e+00 0.000000000000000e+00

0.000000000000000e+00 0.000000000000000e+00 0.000000000000000e+00
0.000000000000000e+00 0.000000000000000e+00 0.000000000000000e+00
0.000000000000000e+00 0.000000000000000e+00 0.000000000000000e+00

0.000000000000000e+00 0.000000000000000e+00 0.000000000000000e+00
0.000000000000000e+00 0.000000000000000e+00 0.000000000000000e+00
0.000000000000000e+00 0.000000000000000e+00 0.000000000000000e+00

0.000000000000000e+00 0.000000000000000e+00 0.000000000000000e+00
0.000000000000000e+00 0.000000000000000e+00 0.000000000000000e+00
0.000000000000000e+00 0.000000000000000e+00 0.000000000000000e+00

0.000000000000000e+00 0.000000000000000e+00 0.000000000000000e+00
0.000000000000000e+00 0.000000000000000e+00 0.000000000000000e+00
0.000000000000000e+00 0.000000000000000e+00 0.000000000000000e+00

0.000000000000000e+00 0.000000000000000e+00 0.000000000000000e+00
0.000000000000000e+00 0.000000000000000e+00 0.000000000000000e+00
0.000000000000000e+00 0.000000000000000e+00 0.000000000000000e+00

0.000000000000000e+00 0.000000000000000e+00 0.000000000000000e+00
0.000000000000000e+00 0.000000000000000e+00 0.000000000000000e+00
0.000000000000000e+00 0.000000000000000e+00 0.000000000000000e+00

0.000000000000000e+00 0.000000000000000e+00 0.000000000000000e+00
0.000000000000000e+00 0.000000000000000e+00 0.000000000000000e+00
0.000000000000000e+00 0.000000000000000e+00 0.000000000000000e+00

0.000000000000000e+00 0.000000000000000e+00 0.000000000000000e+00
0.000000000000000e+00 0.000000000000000e+00 0.000000000000000e+00
0.000000000000000e+00 0.000000000000000e+00 0.000000000000000e+00

0.000000000000000e+00 0.000000000000000e+00 0.000000000000000e+00
0.000000000000000e+00 0.000000000000000e+00 0.000000000000000e+00
0.000000000000000e+00 0.000000000000000e+00 0.000000000000000e+00

0.000000000000000e+00 0.000000000000000e+00 0.000000000000000e+00
0.000000000000000e+00 0.000000000000000e+00 0.000000000000000e+00
0.000000000000000e+00 0.000000000000000e+00 0.000000000000000e+00

0.000000000000000e+00 0.000000000000000e+00 0.000000000000000e+00
0.000000000000000e+00 0.000000000000000e+00 0.000000000000000e+00
0.000000000000000e+00 0.000000000000000e+00 0.000000000000000e+00

0.000000000000000e+00 0.000000000000000e+00 0.000000000000000e+00
0.000000000000000e+00 0.000000000000000e+00 0.000000000000000e+00
0.000000000000000e+00 0.000000000000000e+00 0.000000000000000e+00

0.000000000000000e+00 0.000000000000000e+00 0.000000000000000e+00
0.000000000000000e+00 0.000000000000000e+00 0.000000000000000e+00
0.000000000000000e+00 0.000000000000000e+00 0.000000000000000e+00

0.000000000000000e+00 0.000000000000000e+00 0.000000000000000e+00
0.000000000000000e+00 0.000000000000000e+00 0.000000000000000e+00
0.000000000000000e+00 0.000000000000000e+00 0.000000000000000e+00

0.000000000000000e+00 0.000000000000000e+00 0.000000000000000e+00
0.000000000000000e+00 0.000000000000000e+00 0.000000000000000e+00
0.000000000000000e+00 0.000000000000000e+00 0.000000000000000e+00

0.000000000000000e+00 0.000000000000000e+00 0.000000000000000e+00
0.000000000000000e+00 0.000000000000000e+00 0.000000000000000e+00
0.000000000000000e+00 0.000000000000000e+00 0.000000000000000e+00

0.000000000000000e+00 0.000000000000000e+00 0.000000000000000e+00
0.000000000000000e+00 0.000000000000000e+00 0.000000000000000e+00
0.000000000000000e+00 0.000000000000000e+00 0.000000000000000e+00

0.000000000000000e+00 0.000000000000000e+00 0.000000000000000e+00
0.000000000000000e+00 0.000000000000000e+00 0.000000000000000e+00
0.000000000000000e+00 0.000000000000000e+00 0.000000000000000e+00

0.000000000000000e+00 0.000000000000000e+00 0.000000000000000e+00
0.000000000000000e+00 0.000000000000000e+00 0.000000000000000e+00
0.000000000000000e+00 0.000000000000000e+00 0.000000000000000e+00

0.000000000000000e+00 0.000000000000000e+00 0.000000000000000e+00
0.000000000000000e+00 0.000000000000000e+00 0.000000000000000e+00
0.000000000000000e+00 0.000000000000000e+00 0.000000000000000e+00

0.000000000000000e+00 0.000000000000000e+00 0.000000000000000e+00
0.000000000000000e+00 0.000000000000000e+00 0.000000000000000e+00
0.000000000000000e+00 0.000000000000000e+00 0.000000000000000e+00

0.000000000000000e+00 0.000000000000000e+00 0.000000000000000e+00
0.000000000000000e+00 0.000000000000000e+00 0.000000000000000e+00
0.000000000000000e+00 0.000000000000000e+00 0.000000000000000e+00

0.000000000000000e+00 0.000000000000000e+00 0.000000000000000e+00
0.000000000000000e+00 0.000000000000000e+00 0.000000000000000e+00
0.000000000000000e+00 0.000000000000000e+00 0.000000000000000e+00

0.000000000000000e+00 0.000000000000000e+00 0.000000000000000e+00
0.000000000000000e+00 0.000000000000000e+00 0.000000000000000e+00
0.000000000000000e+00 0.000000000000000e+00 0.000000000000000e+00

0.000000000000000e+00 0.000000000000000e+00 0.000000000000000e+00
0.000000000000000e+00 0.000000000000000e+00 0.000000000000000e+00
0.000000000000000e+00 0.000000000000000e+00 0.000000000000000e+00

0.000000000000000e+00 0.000000000000000e+00 0.000000000000000e+00
0.000000000000000e+00 0.000000000000000e+00 0.000000000000000e+00
0.000000000000000e+00 0.000000000000000e+00 0.000000000000000e+00

0.000000000000000e+00 0.000000000000000e+00 0.000000000000000e+00
0.000000000000000e+00 0.000000000000000e+00 0.000000000000000e+00
0.000000000000000e+00 0.000000000000000e+00 0.000000000000000e+00

0.000000000000000e+00 0.000000000000000e+00 0.000000000000000e+00
0.000000000000000e+00 0.000000000000000e+00 0.000000000000000e+00
0.000000000000000e+00 0.000000000000000e+00 0.000000000000000e+00

0.000000000000000e+00 0.000000000000000e+00 0.000000000000000e+00
0.000000000000000e+00 0.000000000000000e+00 0.000000000000000e+00
0.000000000000000e+00 0.000000000000000e+00 0.000000000000000e+00

0.000000000000000e+00 0.000000000000000e+00 0.000000000000000e+00
0.000000000000000e+00 0.000000000000000e+00 0.000000000000000e+00
0.000000000000000e+00 0.000000000000000e+00 0.000000000000000e+00

0.000000000000000e+00 0.000000000000000e+00 0.000000000000000e+00
0.000000000000000e+00 0.000000000000000e+00 0.000000000000000e+00
0.000000000000000e+00 0.000000000000000e+00 0.000000000000000e+00

0.000000000000000e+00 0.000000000000000e+00 0.000000000000000e+00
0.000000000000000e+00 0.000000000000000e+00 0.000000000000000e+00
0.000000000000000e+00 0.000000000000000e+00 0.000000000000000e+00

0.000000000000000e+00 0.000000000000000e+00 0.000000000000000e+00
0.000000000000000e+00 0.000000000000000e+00 0.000000000000000e+00
0.000000000000000e+00 0.000000000000000e+00 0.000000000000000e+00

0.000000000000000e+00 0.000000000000000e+00 0.000000000000000e+00
0.000000000000000e+00 0.000000000000000e+00 0.000000000000000e+00
0.000000000000000e+00 0.000000000000000e+00 0.000000000000000e+00

0.000000000000000e+00 0.000000000000000e+00 0.000000000000000e+00
0.000000000000000e+00 0.000000000000000e+00 0.000000000000000e+00
0.000000000000000e+00 0.000000000000000e+00 0.000000000000000e+00

0.000000000000000e+00 0.000000000000000e+00 0.000000000000000e+00
0.000000000000000e+00 0.000000000000000e+00 0.000000000000000e+00
0.000000000000000e+00 0.000000000000000e+00 0.000000000000000e+00

0.000000000000000e+00 0.000000000000000e+00 0.000000000000000e+00
0.000000000000000e+00 0.000000000000000e+00 0.000000000000000e+00
0.000000000000000e+00 0.000000000000000e+00 0.000000000000000e+00

0.000000000000000e+00 0.000000000000000e+00 0.000000000000000e+00
0.000000000000000e+00 0.000000000000000e+00 0.000000000000000e+00
0.000000000000000e+00 0.000000000000000e+00 0.000000000000000e+00

0.000000000000000e+00 0.000000000000000e+00 0.000000000000000e+00
0.000000000000000e+00 0.000000000000000e+00 0.000000000000000e+00
0.000000000000000e+00 0.000000000000000e+00 0.000000000000000e+00

0.000000000000000e+00 0.000000000000000e+00 0.000000000000000e+00
0.000000000000000e+00 0.000000000000000e+00 0.000000000000000e+00
0.000000000000000e+00 0.000000000000000e+00 0.000000000000000e+00

0.000000000000000e+00 0.000000000000000e+00 0.000000000000000e+00
0.000000000000000e+00 0.000000000000000e+00 0.000000000000000e+00
0.000000000000000e+00 0.000000000000000e+00 0.000000000000000e+00

0.000000000000000e+00 0.000000000000000e+00 0.000000000000000e+00
0.000000000000000e+00 0.000000000000000e+00 0.000000000000000e+00
0.000000000000000e+00 0.000000000000000e+00 0.000000000000000e+00

0.000000000000000e+00 0.000000000000000e+00 0.000000000000000e+00
0.000000000000000e+00 0.000000000000000e+00 0.000000000000000e+00
0.000000000000000e+00 0.000000000000000e+00 0.000000000000000e+00

0.000000000000000e+00 0.000000000000000e+00 0.000000000000000e+00
0.000000000000000e+00 0.000000000000000e+00 0.000000000000000e+00
0.000000000000000e+00 0.000000000000000e+00 0.000000000000000e+00

0.000000000000000e+00 0.000000000000000e+00 0.000000000000000e+00
0.000000000000000e+00 0.000000000000000e+00 0.000000000000000e+00
0.000000000000000e+00 0.000000000000000e+00 0.000000000000000e+00

0.000000000000000e+00 0.000000000000000e+00 0.000000000000000e+00
0.000000000000000e+00 0.000000000000000e+00 0.000000000000000e+00
0.000000000000000e+00 0.000000000000000e+00 0.000000000000000e+00

0.000000000000000e+00 0.000000000000000e+00 0.000000000000000e+00
0.000000000000000e+00 0.000000000000000e+00 0.000000000000000e+00
0.000000000000000e+00 0.000000000000000e+00 0.000000000000000e+00

0.000000000000000e+00 0.000000000000000e+00 0.000000000000000e+00
0.000000000000000e+00 0.000000000000000e+00 0.000000000000000e+00
0.000000000000000e+00 0.000000000000000e+00 0.000000000000000e+00

0.000000000000000e+00 0.000000000000000e+00 0.000000000000000e+00
0.000000000000000e+00 0.000000000000000e+00 0.000000000000000e+00
0.000000000000000e+00 0.000000000000000e+00 0.000000000000000e+00

0.000000000000000e+00 0.000000000000000e+00 0.000000000000000e+00
0.000000000000000e+00 0.000000000000000e+00 0.000000000000000e+00
0.000000000000000e+00 0.000000000000000e+00 0.000000000000000e+00

0.000000000000000e+00 0.000000000000000e+00 0.000000000000000e+00
0.000000000000000e+00 0.000000000000000e+00 0.000000000000000e+00
0.000000000000000e+00 0.000000000000000e+00 0.000000000000000e+00

0.000000000000000e+00 0.000000000000000e+00 0.000000000000000e+00
0.000000000000000e+00 0.000000000000000e+00 0.000000000000000e+00
0.000000000000000e+00 0.000000000000000e+00 0.000000000000000e+00

0.000000000000000e+00 0.000000000000000e+00 0.000000000000000e+00
0.000000000000000e+00 0.000000000000000e+00 0.000000000000000e+00
0.000000000000000e+00 0.000000000000000e+00 0.000000000000000e+00

0.000000000000000e+00 0.000000000000000e+00 0.000000000000000e+00
0.000000000000000e+00 0.000000000000000e+00 0.000000000000000e+00
0.000000000000000e+00 0.000000000000000e+00 0.000000000000000e+00

0.000000000000000e+00 0.000000000000000e+00 0.000000000000000e+00
0.000000000000000e+00 0.000000000000000e+00 0.000000000000000e+00
0.000000000000000e+00 0.000000000000000e+00 0.000000000000000e+00

0.000000000000000e+00 0.000000000000000e+00 0.000000000000000e+00
0.000000000000000e+00 0.000000000000000e+00 0.000000000000000e+00
0.000000000000000e+00 0.000000000000000e+00 0.000000000000000e+00

0.000000000000000e+00 0.000000000000000e+00 0.000000000000000e+00
0.000000000000000e+00 0.000000000000000e+00 0.000000000000000e+00
0.000000000000000e+00 0.000000000000000e+00 0.000000000000000e+00

0.000000000000000e+00 0.000000000000000e+00 0.000000000000000e+00
0.000000000000000e+00 0.000000000000000e+00 0.000000000000000e+00
0.000000000000000e+00 0.000000000000000e+00 0.000000000000000e+00

0.000000000000000e+00 0.000000000000000e+00 0.000000000000000e+00
0.000000000000000e+00 0.000000000000000e+00 0.000000000000000e+00
0.000000000000000e+00 0.000000000000000e+00 0.000000000000000e+00

0.000000000000000e+00 0.000000000000000e+00 0.000000000000000e+00
0.000000000000000e+00 0.000000000000000e+00 0.000000000000000e+00
0.000000000000000e+00 0.000000000000000e+00 0.000000000000000e+00

0.000000000000000e+00 0.000000000000000e+00 0.000000000000000e+00
0.000000000000000e+00 0.000000000000000e+00 0.000000000000000e+00
0.000000000000000e+00 0.000000000000000e+00 0.000000000000000e+00

0.000000000000000e+00 0.000000000000000e+00 0.000000000000000e+00
0.000000000000000e+00 0.000000000000000e+00 0.000000000000000e+00
0.000000000000000e+00 0.000000000000000e+00 0.000000000000000e+00

0.000000000000000e+00 0.000000000000000e+00 0.000000000000000e+00
0.000000000000000e+00 0.000000000000000e+00 0.000000000000000e+00
0.000000000000000e+00 0.000000000000000e+00 0.000000000000000e+00

0.000000000000000e+00 0.000000000000000e+00 0.000000000000000e+00
0.000000000000000e+00 0.000000000000000e+00 0.000000000000000e+00
0.000000000000000e+00 0.000000000000000e+00 0.000000000000000e+00

0.000000000000000e+00 0.000000000000000e+00 0.000000000000000e+00
0.000000000000000e+00 0.000000000000000e+00 0.000000000000000e+00
0.000000000000000e+00 0.000000000000000e+00 0.000000000000000e+00

0.000000000000000e+00 0.000000000000000e+00 0.000000000000000e+00
0.000000000000000e+00 0.000000000000000e+00 0.000000000000000e+00
0.000000000000000e+00 0.000000000000000e+00 0.000000000000000e+00

0.000000000000000e+00 0.000000000000000e+00 0.000000000000000e+00
0.000000000000000e+00 0.000000000000000e+00 0.000000000000000e+00
0.000000000000000e+00 0.000000000000000e+00 0.000000000000000e+00

0.000000000000000e+00 0.000000000000000e+00 0.000000000000000e+00
0.000000000000000e+00 0.000000000000000e+00 0.000000000000000e+00
0.000000000000000e+00 0.000000000000000e+00 0.000000000000000e+00

0.000000000000000e+00 0.000000000000000e+00 0.000000000000000e+00
0.000000000000000e+00 0.000000000000000e+00 0.000000000000000e+00
0.000000000000000e+00 0.000000000000000e+00 0.000000000000000e+00

0.000000000000000e+00 0.000000000000000e+00 0.000000000000000e+00
0.000000000000000e+00 0.000000000000000e+00 0.000000000000000e+00
0.000000000000000e+00 0.000000000000000e+00 0.000000000000000e+00

0.000000000000000e+00 0.000000000000000e+00 0.000000000000000e+00
0.000000000000000e+00 0.000000000000000e+00 0.000000000000000e+00
0.000000000000000e+00 0.000000000000000e+00 0.000000000000000e+00

0.000000000000000e+00 0.000000000000000e+00 0.000000000000000e+00
0.000000000000000e+00 0.000000000000000e+00 0.000000000000000e+00
0.000000000000000e+00 0.000000000000000e+00 0.000000000000000e+00

0.000000000000000e+00 0.000000000000000e+00 0.000000000000000e+00
0.000000000000000e+00 0.000000000000000e+00 0.000000000000000e+00
0.000000000000000e+00 0.000000000000000e+00 0.000000000000000e+00

0.000000000000000e+00 0.000000000000000e+00 0.000000000000000e+00
0.000000000000000e+00 0.000000000000000e+00 0.000000000000000e+00
0.000000000000000e+00 0.000000000000000e+00 0.000000000000000e+00

0.000000000000000e+00 0.000000000000000e+00 0.000000000000000e+00
0.000000000000000e+00 0.000000000000000e+00 0.000000000000000e+00
0.000000000000000e+00 0.000000000000000e+00 0.000000000000000e+00

0.000000000000000e+00 0.000000000000000e+00 0.000000000000000e+00
0.000000000000000e+00 0.000000000000000e+00 0.000000000000000e+00
0.000000000000000e+00 0.000000000000000e+00 0.000000000000000e+00

0.000000000000000e+00 0.000000000000000e+00 0.000000000000000e+00
0.000000000000000e+00 0.000000000000000e+00 0.000000000000000e+00
0.000000000000000e+00 0.000000000000000e+00 0.000000000000000e+00

0.000000000000000e+00 0.000000000000000e+00 0.000000000000000e+00
0.000000000000000e+00 0.000000000000000e+00 0.000000000000000e+00
0.000000000000000e+00 0.000000000000000e+00 0.000000000000000e+00

0.000000000000000e+00 0.000000000000000e+00 0.000000000000000e+00
0.000000000000000e+00 0.000000000000000e+00 0.000000000000000e+00
0.000000000000000e+00 0.000000000000000e+00 0.000000000000000e+00

0.000000000000000e+00 0.000000000000000e+00 0.000000000000000e+00
0.000000000000000e+00 0.000000000000000e+00 0.000000000000000e+00
0.000000000000000e+00 0.000000000000000e+00 0.000000000000000e+00

0.000000000000000e+00 0.000000000000000e+00 0.000000000000000e+00
0.000000000000000e+00 0.000000000000000e+00 0.000000000000000e+00
0.000000000000000e+00 0.000000000000000e+00 0.000000000000000e+00

0.000000000000000e+00 0.000000000000000e+00 0.000000000000000e+00
0.000000000000000e+00 0.000000000000000e+00 0.000000000000000e+00
0.000000000000000e+00 0.000000000000000e+00 0.000000000000000e+00

0.000000000000000e+00 0.000000000000000e+00 0.000000000000000e+00
0.000000000000000e+00 0.000000000000000e+00 0.000000000000000e+00
0.000000000000000e+00 0.000000000000000e+00 0.000000000000000e+00

0.000000000000000e+00 0.000000000000000e+00 0.000000000000000e+00
0.000000000000000e+00 0.000000000000000e+00 0.000000000000000e+00
0.000000000000000e+00 0.000000000000000e+00 0.000000000000000e+00

0.000000000000000e+00 0.000000000000000e+00 0.000000000000000e+00
0.000000000000000e+00 0.000000000000000e+00 0.000000000000000e+00
0.000000000000000e+00 0.000000000000000e+00 0.000000000000000e+00

0.000000000000000e+00 0.000000000000000e+00 0.000000000000000e+00
0.000000000000000e+00 0.000000000000000e+00 0.000000000000000e+00
0.000000000000000e+00 0.000000000000000e+00 0.000000000000000e+00

0.000000000000000e+00 0.000000000000000e+00 0.000000000000000e+00
0.000000000000000e+00 0.000000000000000e+00 0.000000000000000e+00
0.000000000000000e+00 0.000000000000000e+00 0.000000000000000e+00

0.000000000000000e+00 0.000000000000000e+00 0.000000000000000e+00
0.000000000000000e+00 0.000000000000000e+00 0.000000000000000e+00
0.000000000000000e+00 0.000000000000000e+00 0.000000000000000e+00

0.000000000000000e+00 0.000000000000000e+00 0.000000000000000e+00
0.000000000000000e+00 0.000000000000000e+00 0.000000000000000e+00
0.000000000000000e+00 0.000000000000000e+00 0.000000000000000e+00

0.000000000000000e+00 0.000000000000000e+00 0.000000000000000e+00
0.000000000000000e+00 0.000000000000000e+00 0.000000000000000e+00
0.000000000000000e+00 0.000000000000000e+00 0.000000000000000e+00

0.000000000000000e+00 0.000000000000000e+00 0.000000000000000e+00
0.000000000000000e+00 0.000000000000000e+00 0.000000000000000e+00
0.000000000000000e+00 0.000000000000000e+00 0.000000000000000e+00

0.000000000000000e+00 0.000000000000000e+00 0.000000000000000e+00
0.000000000000000e+00 0.000000000000000e+00 0.000000000000000e+00
0.000000000000000e+00 0.000000000000000e+00 0.000000000000000e+00

0.000000000000000e+00 0.000000000000000e+00 0.000000000000000e+00
0.000000000000000e+00 0.000000000000000e+00 0.000000000000000e+00
0.000000000000000e+00 0.000000000000000e+00 0.000000000000000e+00

0.000000000000000e+00 0.000000000000000e+00 0.000000000000000e+00
0.000000000000000e+00 0.000000000000000e+00 0.000000000000000e+00
0.000000000000000e+00 0.000000000000000e+00 0.000000000000000e+00

0.000000000000000e+00 0.000000000000000e+00 0.000000000000000e+00
0.000000000000000e+00 0.000000000000000e+00 0.000000000000000e+00
0.000000000000000e+00 0.000000000000000e+00 0.000000000000000e+00

0.000000000000000e+00 0.000000000000000e+00 0.000000000000000e+00
0.000000000000000e+00 0.000000000000000e+00 0.000000000000000e+00
0.000000000000000e+00 0.000000000000000e+00 0.000000000000000e+00

0.000000000000000e+00 0.000000000000000e+00 0.000000000000000e+00
0.000000000000000e+00 0.000000000000000e+00 0.000000000000000e+00
0.000000000000000e+00 0.000000000000000e+00 0.000000000000000e+00

0.000000000000000e+00 0.000000000000000e+00 0.000000000000000e+00
0.000000000000000e+00 0.000000000000000e+00 0.000000000000000e+00
0.000000000000000e+00 0.000000000000000e+00 0.000000000000000e+00

0.000000000000000e+00 0.000000000000000e+00 0.000000000000000e+00
0.000000000000000e+00 0.000000000000000e+00 0.000000000000000e+00
0.000000000000000e+00 0.000000000000000e+00 0.000000000000000e+00

0.000000000000000e+00 0.000000000000000e+00 0.000000000000000e+00
0.000000000000000e+00 0.000000000000000e+00 0.000000000000000e+00
0.000000000000000e+00 0.000000000000000e+00 0.000000000000000e+00

0.000000000000000e+00 0.000000000000000e+00 0.000000000000000e+00
0.000000000000000e+00 0.000000000000000e+00 0.000000000000000e+00
0.000000000000000e+00 0.000000000000000e+00 0.000000000000000e+00

0.000000000000000e+00 0.000000000000000e+00 0.000000000000000e+00
0.000000000000000e+00 0.000000000000000e+00 0.000000000000000e+00
0.000000000000000e+00 0.000000000000000e+00 0.000000000000000e+00

0.000000000000000e+00 0.000000000000000e+00 0.000000000000000e+00
0.000000000000000e+00 0.000000000000000e+00 0.000000000000000e+00
0.000000000000000e+00 0.000000000000000e+00 0.000000000000000e+00

0.000000000000000e+00 0.000000000000000e+00 0.000000000000000e+00
0.000000000000000e+00 0.000000000000000e+00 0.000000000000000e+00
0.000000000000000e+00 0.000000000000000e+00 0.000000000000000e+00

0.000000000000000e+00 0.000000000000000e+00 0.000000000000000e+00
0.000000000000000e+00 0.000000000000000e+00 0.000000000000000e+00
0.000000000000000e+00 0.000000000000000e+00 0.000000000000000e+00

0.000000000000000e+00 0.000000000000000e+00 0.000000000000000e+00
0.000000000000000e+00 0.000000000000000e+00 0.000000000000000e+00
0.000000000000000e+00 0.000000000000000e+00 0.000000000000000e+00

0.000000000000000e+00 0.000000000000000e+00 0.000000000000000e+00
0.000000000000000e+00 0.000000000000000e+00 0.000000000000000e+00
0.000000000000000e+00 0.000000000000000e+00 0.000000000000000e+00

0.000000000000000e+00 0.000000000000000e+00 0.000000000000000e+00
0.000000000000000e+00 0.000000000000000e+00 0.000000000000000e+00
0.000000000000000e+00 0.000000000000000e+00 0.000000000000000e+00

0.000000000000000e+00 0.000000000000000e+00 0.000000000000000e+00
0.000000000000000e+00 0.000000000000000e+00 0.000000000000000e+00
0.000000000000000e+00 0.000000000000000e+00 0.000000000000000e+00

0.000000000000000e+00 0.000000000000000e+00 0.000000000000000e+00
0.000000000000000e+00 0.000000000000000e+00 0.000000000000000e+00
0.000000000000000e+00 0.000000000000000e+00 0.000000000000000e+00

0.000000000000000e+00 0.000000000000000e+00 0.000000000000000e+00
0.000000000000000e+00 0.000000000000000e+00 0.000000000000000e+00
0.000000000000000e+00 0.000000000000000e+00 0.000000000000000e+00

0.000000000000000e+00 0.000000000000000e+00 0.000000000000000e+00
0.000000000000000e+00 0.000000000000000e+00 0.000000000000000e+00
0.000000000000000e+00 0.000000000000000e+00 0.000000000000000e+00

0.000000000000000e+00 0.000000000000000e+00 0.000000000000000e+00
0.000000000000000e+00 0.000000000000000e+00 0.000000000000000e+00
0.000000000000000e+00 0.000000000000000e+00 0.000000000000000e+00

0.000000000000000e+00 0.000000000000000e+00 0.000000000000000e+00
0.000000000000000e+00 0.000000000000000e+00 0.000000000000000e+00
0.000000000000000e+00 0.000000000000000e+00 0.000000000000000e+00

0.000000000000000e+00 0.000000000000000e+00 0.000000000000000e+00
0.000000000000000e+00 0.000000000000000e+00 0.000000000000000e+00
0.000000000000000e+00 0.000000000000000e+00 0.000000000000000e+00

0.000000000000000e+00 0.000000000000000e+00 0.000000000000000e+00
0.000000000000000e+00 0.000000000000000e+00 0.000000000000000e+00
0.000000000000000e+00 0.000000000000000e+00 0.000000000000000e+00

0.000000000000000e+00 0.000000000000000e+00 0.000000000000000e+00
0.000000000000000e+00 0.000000000000000e+00 0.000000000000000e+00
0.000000000000000e+00 0.000000000000000e+00 0.000000000000000e+00

0.000000000000000e+00 0.000000000000000e+00 0.000000000000000e+00
0.000000000000000e+00 0.000000000000000e+00 0.000000000000000e+00
0.000000000000000e+00 0.000000000000000e+00 0.000000000000000e+00

0.000000000000000e+00 0.000000000000000e+00 0.000000000000000e+00
0.000000000000000e+00 0.000000000000000e+00 0.000000000000000e+00
0.000000000000000e+00 0.000000000000000e+00 0.000000000000000e+00

0.000000000000000e+00 0.000000000000000e+00 0.000000000000000e+00
0.000000000000000e+00 0.000000000000000e+00 0.000000000000000e+00
0.000000000000000e+00 0.000000000000000e+00 0.000000000000000e+00

0.000000000000000e+00 0.000000000000000e+00 0.000000000000000e+00
0.000000000000000e+00 0.000000000000000e+00 0.000000000000000e+00
0.000000000000000e+00 0.000000000000000e+00 0.000000000000000e+00

0.000000000000000e+00 0.000000000000000e+00 0.000000000000000e+00
0.000000000000000e+00 0.000000000000000e+00 0.000000000000000e+00
0.000000000000000e+00 0.000000000000000e+00 0.000000000000000e+00

0.000000000000000e+00 0.000000000000000e+00 0.000000000000000e+00
0.000000000000000e+00 0.000000000000000e+00 0.000000000000000e+00
0.000000000000000e+00 0.000000000000000e+00 0.000000000000000e+00

0.000000000000000e+00 0.000000000000000e+00 0.000000000000000e+00
0.000000000000000e+00 0.000000000000000e+00 0.000000000000000e+00
0.000000000000000e+00 0.000000000000000e+00 0.000000000000000e+00

0.000000000000000e+00 0.000000000000000e+00 0.000000000000000e+00
0.000000000000000e+00 0.000000000000000e+00 0.000000000000000e+00
0.000000000000000e+00 0.000000000000000e+00 0.000000000000000e+00

0.000000000000000e+00 0.000000000000000e+00 0.000000000000000e+00
0.000000000000000e+00 0.000000000000000e+00 0.000000000000000e+00
0.000000000000000e+00 0.000000000000000e+00 0.000000000000000e+00

0.000000000000000e+00 0.000000000000000e+00 0.000000000000000e+00
0.000000000000000e+00 0.000000000000000e+00 0.000000000000000e+00
0.000000000000000e+00 0.000000000000000e+00 0.000000000000000e+00

0.000000000000000e+00 0.000000000000000e+00 0.000000000000000e+00
0.000000000000000e+00 0.000000000000000e+00 0.000000000000000e+00
0.000000000000000e+00 0.000000000000000e+00 0.000000000000000e+00

0.000000000000000e+00 0.000000000000000e+00 0.000000000000000e+00
0.000000000000000e+00 0.000000000000000e+00 0.000000000000000e+00
0.000000000000000e+00 0.000000000000000e+00 0.000000000000000e+00

0.000000000000000e+00 0.000000000000000e+00 0.000000000000000e+00
0.000000000000000e+00 0.000000000000000e+00 0.000000000000000e+00
0.000000000000000e+00 0.000000000000000e+00 0.000000000000000e+00

0.000000000000000e+00 0.000000000000000e+00 0.000000000000000e+00
0.000000000000000e+00 0.000000000000000e+00 0.000000000000000e+00
0.000000000000000e+00 0.000000000000000e+00 0.000000000000000e+00

0.000000000000000e+00 0.000000000000000e+00 0.000000000000000e+00
0.000000000000000e+00 0.000000000000000e+00 0.000000000000000e+00
0.000000000000000e+00 0.000000000000000e+00 0.000000000000000e+00

0.000000000000000e+00 0.000000000000000e+00 0.000000000000000e+00
0.000000000000000e+00 0.000000000000000e+00 0.000000000000000e+00
0.000000000000000e+00 0.000000000000000e+00 0.000000000000000e+00

0.000000000000000e+00 0.000000000000000e+00 0.000000000000000e+00
0.000000000000000e+00 0.000000000000000e+00 0.000000000000000e+00
0.000000000000000e+00 0.000000000000000e+00 0.000000000000000e+00

0.000000000000000e+00 0.000000000000000e+00 0.000000000000000e+00
0.000000000000000e+00 0.000000000000000e+00 0.000000000000000e+00
0.000000000000000e+00 0.000000000000000e+00 0.000000000000000e+00

0.000000000000000e+00 0.000000000000000e+00 0.000000000000000e+00
0.000000000000000e+00 0.000000000000000e+00 0.000000000000000e+00
0.000000000000000e+00 0.000000000000000e+00 0.000000000000000e+00

0.000000000000000e+00 0.000000000000000e+00 0.000000000000000e+00
0.000000000000000e+00 0.000000000000000e+00 0.000000000000000e+00
0.000000000000000e+00 0.000000000000000e+00 0.000000000000000e+00

0.000000000000000e+00 0.000000000000000e+00 0.000000000000000e+00
0.000000000000000e+00 0.000000000000000e+00 0.000000000000000e+00
0.000000000000000e+00 0.000000000000000e+00 0.000000000000000e+00

0.000000000000000e+00 0.000000000000000e+00 0.000000000000000e+00
0.000000000000000e+00 0.000000000000000e+00 0.000000000000000e+00
0.000000000000000e+00 0.000000000000000e+00 0.000000000000000e+00

0.000000000000000e+00 0.000000000000000e+00 0.000000000000000e+00
0.000000000000000e+00 0.000000000000000e+00 0.000000000000000e+00
0.000000000000000e+00 0.000000000000000e+00 0.000000000000000e+00

0.000000000000000e+00 0.000000000000000e+00 0.000000000000000e+00
0.000000000000000e+00 0.000000000000000e+00 0.000000000000000e+00
0.000000000000000e+00 0.000000000000000e+00 0.000000000000000e+00

0.000000000000000e+00 0.000000000000000e+00 0.000000000000000e+00
0.000000000000000e+00 0.000000000000000e+00 0.000000000000000e+00
0.000000000000000e+00 0.000000000000000e+00 0.000000000000000e+00

0.000000000000000e+00 0.000000000000000e+00 0.000000000000000e+00
0.000000000000000e+00 0.000000000000000e+00 0.000000000000000e+00
0.000000000000000e+00 0.000000000000000e+00 0.000000000000000e+00

0.000000000000000e+00 0.000000000000000e+00 0.000000000000000e+00
0.000000000000000e+00 0.000000000000000e+00 0.000000000000000e+00
0.000000000000000e+00 0.000000000000000e+00 0.000000000000000e+00

0.000000000000000e+00 0.000000000000000e+00 0.000000000000000e+00
0.000000000000000e+00 0.000000000000000e+00 0.000000000000000e+00
0.000000000000000e+00 0.000000000000000e+00 0.000000000000000e+00

0.000000000000000e+00 0.000000000000000e+00 0.000000000000000e+00
0.000000000000000e+00 0.000000000000000e+00 0.000000000000000e+00
0.000000000000000e+00 0.000000000000000e+00 0.000000000000000e+00

0.000000000000000e+00 0.000000000000000e+00 0.000000000000000e+00
0.000000000000000e+00 0.000000000000000e+00 0.000000000000000e+00
0.000000000000000e+00 0.000000000000000e+00 0.000000000000000e+00

0.000000000000000e+00 0.000000000000000e+00 0.000000000000000e+00
0.000000000000000e+00 0.000000000000000e+00 0.000000000000000e+00
0.000000000000000e+00 0.000000000000000e+00 0.000000000000000e+00

0.000000000000000e+00 0.000000000000000e+00 0.000000000000000e+00
0.000000000000000e+00 0.000000000000000e+00 0.000000000000000e+00
0.000000000000000e+00 0.000000000000000e+00 0.000000000000000e+00

0.000000000000000e+00 0.000000000000000e+00 0.000000000000000e+00
0.000000000000000e+00 0.000000000000000e+00 0.000000000000000e+00
0.000000000000000e+00 0.000000000000000e+00 0.000000000000000e+00

0.000000000000000e+00 0.000000000000000e+00 0.000000000000000e+00
0.000000000000000e+00 0.000000000000000e+00 0.000000000000000e+00
0.000000000000000e+00 0.000000000000000e+00 0.000000000000000e+00

0.000000000000000e+00 0.000000000000000e+00 0.000000000000000e+00
0.000000000000000e+00 0.000000000000000e+00 0.000000000000000e+00
0.000000000000000e+00 0.000000000000000e+00 0.000000000000000e+00

0.000000000000000e+00 0.000000000000000e+00 0.000000000000000e+00
0.000000000000000e+00 0.000000000000000e+00 0.000000000000000e+00
0.000000000000000e+00 0.000000000000000e+00 0.000000000000000e+00

0.000000000000000e+00 0.000000000000000e+00 0.000000000000000e+00
0.000000000000000e+00 0.000000000000000e+00 0.000000000000000e+00
0.000000000000000e+00 0.000000000000000e+00 0.000000000000000e+00

0.000000000000000e+00 0.000000000000000e+00 0.000000000000000e+00
0.000000000000000e+00 0.000000000000000e+00 0.000000000000000e+00
0.000000000000000e+00 0.000000000000000e+00 0.000000000000000e+00

0.000000000000000e+00 0.000000000000000e+00 0.000000000000000e+00
0.000000000000000e+00 0.000000000000000e+00 0.000000000000000e+00
0.000000000000000e+00 0.000000000000000e+00 0.000000000000000e+00

0.000000000000000e+00 0.000000000000000e+00 0.000000000000000e+00
0.000000000000000e+00 0.000000000000000e+00 0.000000000000000e+00
0.000000000000000e+00 0.000000000000000e+00 0.000000000000000e+00

0.000000000000000e+00 0.000000000000000e+00 0.000000000000000e+00
0.000000000000000e+00 0.000000000000000e+00 0.000000000000000e+00
0.000000000000000e+00 0.000000000000000e+00 0.000000000000000e+00

0.000000000000000e+00 0.000000000000000e+00 0.000000000000000e+00
0.000000000000000e+00 0.000000000000000e+00 0.000000000000000e+00
0.000000000000000e+00 0.000000000000000e+00 0.000000000000000e+00

0.000000000000000e+00 0.000000000000000e+00 0.000000000000000e+00
0.000000000000000e+00 0.000000000000000e+00 0.000000000000000e+00
0.000000000000000e+00 0.000000000000000e+00 0.000000000000000e+00

0.000000000000000e+00 0.000000000000000e+00 0.000000000000000e+00
0.000000000000000e+00 0.000000000000000e+00 0.000000000000000e+00
0.000000000000000e+00 0.000000000000000e+00 0.000000000000000e+00

0.000000000000000e+00 0.000000000000000e+00 0.000000000000000e+00
0.000000000000000e+00 0.000000000000000e+00 0.000000000000000e+00
0.000000000000000e+00 0.000000000000000e+00 0.000000000000000e+00

0.000000000000000e+00 0.000000000000000e+00 0.000000000000000e+00
0.000000000000000e+00 0.000000000000000e+00 0.000000000000000e+00
0.000000000000000e+00 0.000000000000000e+00 0.000000000000000e+00

0.000000000000000e+00 0.000000000000000e+00 0.000000000000000e+00
0.000000000000000e+00 0.000000000000000e+00 0.000000000000000e+00
0.000000000000000e+00 0.000000000000000e+00 0.000000000000000e+00

0.000000000000000e+00 0.000000000000000e+00 0.000000000000000e+00
0.000000000000000e+00 0.000000000000000e+00 0.000000000000000e+00
0.000000000000000e+00 0.000000000000000e+00 0.000000000000000e+00

0.000000000000000e+00 0.000000000000000e+00 0.000000000000000e+00
0.000000000000000e+00 0.000000000000000e+00 0.000000000000000e+00
0.000000000000000e+00 0.000000000000000e+00 0.000000000000000e+00

0.000000000000000e+00 0.000000000000000e+00 0.000000000000000e+00
0.000000000000000e+00 0.000000000000000e+00 0.000000000000000e+00
0.000000000000000e+00 0.000000000000000e+00 0.000000000000000e+00

0.000000000000000e+00 0.000000000000000e+00 0.000000000000000e+00
0.000000000000000e+00 0.000000000000000e+00 0.000000000000000e+00
0.000000000000000e+00 0.000000000000000e+00 0.000000000000000e+00

0.000000000000000e+00 0.000000000000000e+00 0.000000000000000e+00
0.000000000000000e+00 0.000000000000000e+00 0.000000000000000e+00
0.000000000000000e+00 0.000000000000000e+00 0.000000000000000e+00

0.000000000000000e+00 0.000000000000000e+00 0.000000000000000e+00
0.000000000000000e+00 0.000000000000000e+00 0.000000000000000e+00
0.000000000000000e+00 0.000000000000000e+00 0.000000000000000e+00

0.000000000000000e+00 0.000000000000000e+00 0.000000000000000e+00
0.000000000000000e+00 0.000000000000000e+00 0.000000000000000e+00
0.000000000000000e+00 0.000000000000000e+00 0.000000000000000e+00

0.000000000000000e+00 0.000000000000000e+00 0.000000000000000e+00
0.000000000000000e+00 0.000000000000000e+00 0.000000000000000e+00
0.000000000000000e+00 0.000000000000000e+00 0.000000000000000e+00

0.000000000000000e+00 0.000000000000000e+00 0.000000000000000e+00
0.000000000000000e+00 0.000000000000000e+00 0.000000000000000e+00
0.000000000000000e+00 0.000000000000000e+00 0.000000000000000e+00

0.000000000000000e+00 0.000000000000000e+00 0.000000000000000e+00
0.000000000000000e+00 0.000000000000000e+00 0.000000000000000e+00
0.000000000000000e+00 0.000000000000000e+00 0.000000000000000e+00

0.000000000000000e+00 0.000000000000000e+00 0.000000000000000e+00
0.000000000000000e+00 0.000000000000000e+00 0.000000000000000e+00
0.000000000000000e+00 0.000000000000000e+00 0.000000000000000e+00

0.000000000000000e+00 0.000000000000000e+00 0.000000000000000e+00
0.000000000000000e+00 0.000000000000000e+00 0.000000000000000e+00
0.000000000000000e+00 0.000000000000000e+00 0.000000000000000e+00

0.000000000000000e+00 0.000000000000000e+00 0.000000000000000e+00
0.000000000000000e+00 0.000000000000000e+00 0.000000000000000e+00
0.000000000000000e+00 0.000000000000000e+00 0.000000000000000e+00

0.000000000000000e+00 0.000000000000000e+00 0.000000000000000e+00
0.000000000000000e+00 0.000000000000000e+00 0.000000000000000e+00
0.000000000000000e+00 0.000000000000000e+00 0.000000000000000e+00

0.000000000000000e+00 0.000000000000000e+00 0.000000000000000e+00
0.000000000000000e+00 0.000000000000000e+00 0.000000000000000e+00
0.000000000000000e+00 0.000000000000000e+00 0.000000000000000e+00

0.000000000000000e+00 0.000000000000000e+00 0.000000000000000e+00
0.000000000000000e+00 0.000000000000000e+00 0.000000000000000e+00
0.000000000000000e+00 0.000000000000000e+00 0.000000000000000e+00

0.000000000000000e+00 0.000000000000000e+00 0.000000000000000e+00
0.000000000000000e+00 0.000000000000000e+00 0.000000000000000e+00
0.000000000000000e+00 0.000000000000000e+00 0.000000000000000e+00

0.000000000000000e+00 0.000000000000000e+00 0.000000000000000e+00
0.000000000000000e+00 0.000000000000000e+00 0.000000000000000e+00
0.000000000000000e+00 0.000000000000000e+00 0.000000000000000e+00

0.000000000000000e+00 0.000000000000000e+00 0.000000000000000e+00
0.000000000000000e+00 0.000000000000000e+00 0.000000000000000e+00
0.000000000000000e+00 0.000000000000000e+00 0.000000000000000e+00

0.000000000000000e+00 0.000000000000000e+00 0.000000000000000e+00
0.000000000000000e+00 0.000000000000000e+00 0.000000000000000e+00
0.000000000000000e+00 0.000000000000000e+00 0.000000000000000e+00

0.000000000000000e+00 0.000000000000000e+00 0.000000000000000e+00
0.000000000000000e+00 0.000000000000000e+00 0.000000000000000e+00
0.000000000000000e+00 0.000000000000000e+00 0.000000000000000e+00

0.000000000000000e+00 0.000000000000000e+00 0.000000000000000e+00
0.000000000000000e+00 0.000000000000000e+00 0.000000000000000e+00
0.000000000000000e+00 0.000000000000000e+00 0.000000000000000e+00

0.000000000000000e+00 0.000000000000000e+00 0.000000000000000e+00
0.000000000000000e+00 0.000000000000000e+00 0.000000000000000e+00
0.000000000000000e+00 0.000000000000000e+00 0.000000000000000e+00

0.000000000000000e+00 0.000000000000000e+00 0.000000000000000e+00
0.000000000000000e+00 0.000000000000000e+00 0.000000000000000e+00
0.000000000000000e+00 0.000000000000000e+00 0.000000000000000e+00

0.000000000000000e+00 0.000000000000000e+00 0.000000000000000e+00
0.000000000000000e+00 0.000000000000000e+00 0.000000000000000e+00
0.000000000000000e+00 0.000000000000000e+00 0.000000000000000e+00

0.000000000000000e+00 0.000000000000000e+00 0.000000000000000e+00
0.000000000000000e+00 0.000000000000000e+00 0.000000000000000e+00
0.000000000000000e+00 0.000000000000000e+00 0.000000000000000e+00

0.000000000000000e+00 0.000000000000000e+00 0.000000000000000e+00
0.000000000000000e+00 0.000000000000000e+00 0.000000000000000e+00
0.000000000000000e+00 0.000000000000000e+00 0.000000000000000e+00

0.000000000000000e+00 0.000000000000000e+00 0.000000000000000e+00
0.000000000000000e+00 0.000000000000000e+00 0.000000000000000e+00
0.000000000000000e+00 0.000000000000000e+00 0.000000000000000e+00

0.000000000000000e+00 0.000000000000000e+00 0.000000000000000e+00
0.000000000000000e+00 0.000000000000000e+00 0.000000000000000e+00
0.000000000000000e+00 0.000000000000000e+00 0.000000000000000e+00

0.000000000000000e+00 0.000000000000000e+00 0.000000000000000e+00
0.000000000000000e+00 0.000000000000000e+00 0.000000000000000e+00
0.000000000000000e+00 0.000000000000000e+00 0.000000000000000e+00

0.000000000000000e+00 0.000000000000000e+00 0.000000000000000e+00
0.000000000000000e+00 0.000000000000000e+00 0.000000000000000e+00
0.000000000000000e+00 0.000000000000000e+00 0.000000000000000e+00

0.000000000000000e+00 0.000000000000000e+00 0.000000000000000e+00
0.000000000000000e+00 0.000000000000000e+00 0.000000000000000e+00
0.000000000000000e+00 0.000000000000000e+00 0.000000000000000e+00

0.000000000000000e+00 0.000000000000000e+00 0.000000000000000e+00
0.000000000000000e+00 0.000000000000000e+00 0.000000000000000e+00
0.000000000000000e+00 0.000000000000000e+00 0.000000000000000e+00

0.000000000000000e+00 0.000000000000000e+00 0.000000000000000e+00
0.000000000000000e+00 0.000000000000000e+00 0.000000000000000e+00
0.000000000000000e+00 0.000000000000000e+00 0.000000000000000e+00

0.000000000000000e+00 0.000000000000000e+00 0.000000000000000e+00
0.000000000000000e+00 0.000000000000000e+00 0.000000000000000e+00
0.000000000000000e+00 0.000000000000000e+00 0.000000000000000e+00

0.000000000000000e+00 0.000000000000000e+00 0.000000000000000e+00
0.000000000000000e+00 0.000000000000000e+00 0.000000000000000e+00
0.000000000000000e+00 0.000000000000000e+00 0.000000000000000e+00

0.000000000000000e+00 0.000000000000000e+00 0.000000000000000e+00
0.000000000000000e+00 0.000000000000000e+00 0.000000000000000e+00
0.000000000000000e+00 0.000000000000000e+00 0.000000000000000e+00

0.000000000000000e+00 0.000000000000000e+00 0.000000000000000e+00
0.000000000000000e+00 0.000000000000000e+00 0.000000000000000e+00
0.000000000000000e+00 0.000000000000000e+00 0.000000000000000e+00

0.000000000000000e+00 0.000000000000000e+00 0.000000000000000e+00
0.000000000000000e+00 0.000000000000000e+00 0.000000000000000e+00
0.000000000000000e+00 0.000000000000000e+00 0.000000000000000e+00

0.000000000000000e+00 0.000000000000000e+00 0.000000000000000e+00
0.000000000000000e+00 0.000000000000000e+00 0.000000000000000e+00
0.000000000000000e+00 0.000000000000000e+00 0.000000000000000e+00

0.000000000000000e+00 0.000000000000000e+00 0.000000000000000e+00
0.000000000000000e+00 0.000000000000000e+00 0.000000000000000e+00
0.000000000000000e+00 0.000000000000000e+00 0.000000000000000e+00

0.000000000000000e+00 0.000000000000000e+00 0.000000000000000e+00
0.000000000000000e+00 0.000000000000000e+00 0.000000000000000e+00
0.000000000000000e+00 0.000000000000000e+00 0.000000000000000e+00

0.000000000000000e+00 0.000000000000000e+00 0.000000000000000e+00
0.000000000000000e+00 0.000000000000000e+00 0.000000000000000e+00
0.000000000000000e+00 0.000000000000000e+00 0.000000000000000e+00

0.000000000000000e+00 0.000000000000000e+00 0.000000000000000e+00
0.000000000000000e+00 0.000000000000000e+00 0.000000000000000e+00
0.000000000000000e+00 0.000000000000000e+00 0.000000000000000e+00

0.000000000000000e+00 0.000000000000000e+00 0.000000000000000e+00
0.000000000000000e+00 0.000000000000000e+00 0.000000000000000e+00
0.000000000000000e+00 0.000000000000000e+00 0.000000000000000e+00

0.000000000000000e+00 0.000000000000000e+00 0.000000000000000e+00
0.000000000000000e+00 0.000000000000000e+00 0.000000000000000e+00
0.000000000000000e+00 0.000000000000000e+00 0.000000000000000e+00

0.000000000000000e+00 0.000000000000000e+00 0.000000000000000e+00
0.000000000000000e+00 0.000000000000000e+00 0.000000000000000e+00
0.000000000000000e+00 0.000000000000000e+00 0.000000000000000e+00

0.000000000000000e+00 0.000000000000000e+00 0.000000000000000e+00
0.000000000000000e+00 0.000000000000000e+00 0.000000000000000e+00
0.000000000000000e+00 0.000000000000000e+00 0.000000000000000e+00

0.000000000000000e+00 0.000000000000000e+00 0.000000000000000e+00
0.000000000000000e+00 0.000000000000000e+00 0.000000000000000e+00
0.000000000000000e+00 0.000000000000000e+00 0.000000000000000e+00

0.000000000000000e+00 0.000000000000000e+00 0.000000000000000e+00
0.000000000000000e+00 0.000000000000000e+00 0.000000000000000e+00
0.000000000000000e+00 0.000000000000000e+00 0.000000000000000e+00

0.000000000000000e+00 0.000000000000000e+00 0.000000000000000e+00
0.000000000000000e+00 0.000000000000000e+00 0.000000000000000e+00
0.000000000000000e+00 0.000000000000000e+00 0.000000000000000e+00

0.000000000000000e+00 0.000000000000000e+00 0.000000000000000e+00
0.000000000000000e+00 0.000000000000000e+00 0.000000000000000e+00
0.000000000000000e+00 0.000000000000000e+00 0.000000000000000e+00

0.000000000000000e+00 0.000000000000000e+00 0.000000000000000e+00
0.000000000000000e+00 0.000000000000000e+00 0.000000000000000e+00
0.000000000000000e+00 0.000000000000000e+00 0.000000000000000e+00

0.000000000000000e+00 0.000000000000000e+00 0.000000000000000e+00
0.000000000000000e+00 0.000000000000000e+00 0.000000000000000e+00
0.000000000000000e+00 0.000000000000000e+00 0.000000000000000e+00

0.000000000000000e+00 0.000000000000000e+00 0.000000000000000e+00
0.000000000000000e+00 0.000000000000000e+00 0.000000000000000e+00
0.000000000000000e+00 0.000000000000000e+00 0.000000000000000e+00

0.000000000000000e+00 0.000000000000000e+00 0.000000000000000e+00
0.000000000000000e+00 0.000000000000000e+00 0.000000000000000e+00
0.000000000000000e+00 0.000000000000000e+00 0.000000000000000e+00

0.000000000000000e+00 0.000000000000000e+00 0.000000000000000e+00
0.000000000000000e+00 0.000000000000000e+00 0.000000000000000e+00
0.000000000000000e+00 0.000000000000000e+00 0.000000000000000e+00

0.000000000000000e+00 0.000000000000000e+00 0.000000000000000e+00
0.000000000000000e+00 0.000000000000000e+00 0.000000000000000e+00
0.000000000000000e+00 0.000000000000000e+00 0.000000000000000e+00

0.000000000000000e+00 0.000000000000000e+00 0.000000000000000e+00
0.000000000000000e+00 0.000000000000000e+00 0.000000000000000e+00
0.000000000000000e+00 0.000000000000000e+00 0.000000000000000e+00

0.000000000000000e+00 0.000000000000000e+00 0.000000000000000e+00
0.000000000000000e+00 0.000000000000000e+00 0.000000000000000e+00
0.000000000000000e+00 0.000000000000000e+00 0.000000000000000e+00

0.000000000000000e+00 0.000000000000000e+00 0.000000000000000e+00
0.000000000000000e+00 0.000000000000000e+00 0.000000000000000e+00
0.000000000000000e+00 0.000000000000000e+00 0.000000000000000e+00

0.000000000000000e+00 0.000000000000000e+00 0.000000000000000e+00
0.000000000000000e+00 0.000000000000000e+00 0.000000000000000e+00
0.000000000000000e+00 0.000000000000000e+00 0.000000000000000e+00

0.000000000000000e+00 0.000000000000000e+00 0.000000000000000e+00
0.000000000000000e+00 0.000000000000000e+00 0.000000000000000e+00
0.000000000000000e+00 0.000000000000000e+00 0.000000000000000e+00

0.000000000000000e+00 0.000000000000000e+00 0.000000000000000e+00
0.000000000000000e+00 0.000000000000000e+00 0.000000000000000e+00
0.000000000000000e+00 0.000000000000000e+00 0.000000000000000e+00

0.000000000000000e+00 0.000000000000000e+00 0.000000000000000e+00
0.000000000000000e+00 0.000000000000000e+00 0.000000000000000e+00
0.000000000000000e+00 0.000000000000000e+00 0.000000000000000e+00

0.000000000000000e+00 0.000000000000000e+00 0.000000000000000e+00
0.000000000000000e+00 0.000000000000000e+00 0.000000000000000e+00
0.000000000000000e+00 0.000000000000000e+00 0.000000000000000e+00

0.000000000000000e+00 0.000000000000000e+00 0.000000000000000e+00
0.000000000000000e+00 0.000000000000000e+00 0.000000000000000e+00
0.000000000000000e+00 0.000000000000000e+00 0.000000000000000e+00

0.000000000000000e+00 0.000000000000000e+00 0.000000000000000e+00
0.000000000000000e+00 0.000000000000000e+00 0.000000000000000e+00
0.000000000000000e+00 0.000000000000000e+00 0.000000000000000e+00

0.000000000000000e+00 0.000000000000000e+00 0.000000000000000e+00
0.000000000000000e+00 0.000000000000000e+00 0.000000000000000e+00
0.000000000000000e+00 0.000000000000000e+00 0.000000000000000e+00

0.000000000000000e+00 0.000000000000000e+00 0.000000000000000e+00
0.000000000000000e+00 0.000000000000000e+00 0.000000000000000e+00
0.000000000000000e+00 0.000000000000000e+00 0.000000000000000e+00

0.000000000000000e+00 0.000000000000000e+00 0.000000000000000e+00
0.000000000000000e+00 0.000000000000000e+00 0.000000000000000e+00
0.000000000000000e+00 0.000000000000000e+00 0.000000000000000e+00

0.000000000000000e+00 0.000000000000000e+00 0.000000000000000e+00
0.000000000000000e+00 0.000000000000000e+00 0.000000000000000e+00
0.000000000000000e+00 0.000000000000000e+00 0.000000000000000e+00

0.000000000000000e+00 0.000000000000000e+00 0.000000000000000e+00
0.000000000000000e+00 0.000000000000000e+00 0.000000000000000e+00
0.000000000000000e+00 0.000000000000000e+00 0.000000000000000e+00

0.000000000000000e+00 0.000000000000000e+00 0.000000000000000e+00
0.000000000000000e+00 0.000000000000000e+00 0.000000000000000e+00
0.000000000000000e+00 0.000000000000000e+00 0.000000000000000e+00

0.000000000000000e+00 0.000000000000000e+00 0.000000000000000e+00
0.000000000000000e+00 0.000000000000000e+00 0.000000000000000e+00
0.000000000000000e+00 0.000000000000000e+00 0.000000000000000e+00

0.000000000000000e+00 0.000000000000000e+00 0.000000000000000e+00
0.000000000000000e+00 0.000000000000000e+00 0.000000000000000e+00
0.000000000000000e+00 0.000000000000000e+00 0.000000000000000e+00

0.000000000000000e+00 0.000000000000000e+00 0.000000000000000e+00
0.000000000000000e+00 0.000000000000000e+00 0.000000000000000e+00
0.000000000000000e+00 0.000000000000000e+00 0.000000000000000e+00

0.000000000000000e+00 0.000000000000000e+00 0.000000000000000e+00
0.000000000000000e+00 0.000000000000000e+00 0.000000000000000e+00
0.000000000000000e+00 0.000000000000000e+00 0.000000000000000e+00

0.000000000000000e+00 0.000000000000000e+00 0.000000000000000e+00
0.000000000000000e+00 0.000000000000000e+00 0.000000000000000e+00
0.000000000000000e+00 0.000000000000000e+00 0.000000000000000e+00

0.000000000000000e+00 0.000000000000000e+00 0.000000000000000e+00
0.000000000000000e+00 0.000000000000000e+00 0.000000000000000e+00
0.000000000000000e+00 0.000000000000000e+00 0.000000000000000e+00

0.000000000000000e+00 0.000000000000000e+00 0.000000000000000e+00
0.000000000000000e+00 0.000000000000000e+00 0.000000000000000e+00
0.000000000000000e+00 0.000000000000000e+00 0.000000000000000e+00

0.000000000000000e+00 0.000000000000000e+00 0.000000000000000e+00
0.000000000000000e+00 0.000000000000000e+00 0.000000000000000e+00
0.000000000000000e+00 0.000000000000000e+00 0.000000000000000e+00

0.000000000000000e+00 0.000000000000000e+00 0.000000000000000e+00
0.000000000000000e+00 0.000000000000000e+00 0.000000000000000e+00
0.000000000000000e+00 0.000000000000000e+00 0.000000000000000e+00

0.000000000000000e+00 0.000000000000000e+00 0.000000000000000e+00
0.000000000000000e+00 0.000000000000000e+00 0.000000000000000e+00
0.000000000000000e+00 0.000000000000000e+00 0.000000000000000e+00

0.000000000000000e+00 0.000000000000000e+00 0.000000000000000e+00
0.000000000000000e+00 0.000000000000000e+00 0.000000000000000e+00
0.000000000000000e+00 0.000000000000000e+00 0.000000000000000e+00

0.000000000000000e+00 0.000000000000000e+00 0.000000000000000e+00
0.000000000000000e+00 0.000000000000000e+00 0.000000000000000e+00
0.000000000000000e+00 0.000000000000000e+00 0.000000000000000e+00

0.000000000000000e+00 0.000000000000000e+00 0.000000000000000e+00
0.000000000000000e+00 0.000000000000000e+00 0.000000000000000e+00
0.000000000000000e+00 0.000000000000000e+00 0.000000000000000e+00

0.000000000000000e+00 0.000000000000000e+00 0.000000000000000e+00
0.000000000000000e+00 0.000000000000000e+00 0.000000000000000e+00
0.000000000000000e+00 0.000000000000000e+00 0.000000000000000e+00

0.000000000000000e+00 0.000000000000000e+00 0.000000000000000e+00
0.000000000000000e+00 0.000000000000000e+00 0.000000000000000e+00
0.000000000000000e+00 0.000000000000000e+00 0.000000000000000e+00

0.000000000000000e+00 0.000000000000000e+00 0.000000000000000e+00
0.000000000000000e+00 0.000000000000000e+00 0.000000000000000e+00
0.000000000000000e+00 0.000000000000000e+00 0.000000000000000e+00

0.000000000000000e+00 0.000000000000000e+00 0.000000000000000e+00
0.000000000000000e+00 0.000000000000000e+00 0.000000000000000e+00
0.000000000000000e+00 0.000000000000000e+00 0.000000000000000e+00

0.000000000000000e+00 0.000000000000000e+00 0.000000000000000e+00
0.000000000000000e+00 0.000000000000000e+00 0.000000000000000e+00
0.000000000000000e+00 0.000000000000000e+00 0.000000000000000e+00

0.000000000000000e+00 0.000000000000000e+00 0.000000000000000e+00
0.000000000000000e+00 0.000000000000000e+00 0.000000000000000e+00
0.000000000000000e+00 0.000000000000000e+00 0.000000000000000e+00

0.000000000000000e+00 0.000000000000000e+00 0.000000000000000e+00
0.000000000000000e+00 0.000000000000000e+00 0.000000000000000e+00
0.000000000000000e+00 0.000000000000000e+00 0.000000000000000e+00

0.000000000000000e+00 0.000000000000000e+00 0.000000000000000e+00
0.000000000000000e+00 0.000000000000000e+00 0.000000000000000e+00
0.000000000000000e+00 0.000000000000000e+00 0.000000000000000e+00

0.000000000000000e+00 0.000000000000000e+00 0.000000000000000e+00
0.000000000000000e+00 0.000000000000000e+00 0.000000000000000e+00
0.000000000000000e+00 0.000000000000000e+00 0.000000000000000e+00

0.000000000000000e+00 0.000000000000000e+00 0.000000000000000e+00
0.000000000000000e+00 0.000000000000000e+00 0.000000000000000e+00
0.000000000000000e+00 0.000000000000000e+00 0.000000000000000e+00

0.000000000000000e+00 0.000000000000000e+00 0.000000000000000e+00
0.000000000000000e+00 0.000000000000000e+00 0.000000000000000e+00
0.000000000000000e+00 0.000000000000000e+00 0.000000000000000e+00

0.000000000000000e+00 0.000000000000000e+00 0.000000000000000e+00
0.000000000000000e+00 0.000000000000000e+00 0.000000000000000e+00
0.000000000000000e+00 0.000000000000000e+00 0.000000000000000e+00

0.000000000000000e+00 0.000000000000000e+00 0.000000000000000e+00
0.000000000000000e+00 0.000000000000000e+00 0.000000000000000e+00
0.000000000000000e+00 0.000000000000000e+00 0.000000000000000e+00

0.000000000000000e+00 0.000000000000000e+00 0.000000000000000e+00
0.000000000000000e+00 0.000000000000000e+00 0.000000000000000e+00
0.000000000000000e+00 0.000000000000000e+00 0.000000000000000e+00

0.000000000000000e+00 0.000000000000000e+00 0.000000000000000e+00
0.000000000000000e+00 0.000000000000000e+00 0.000000000000000e+00
0.000000000000000e+00 0.000000000000000e+00 0.000000000000000e+00

0.000000000000000e+00 0.000000000000000e+00 0.000000000000000e+00
0.000000000000000e+00 0.000000000000000e+00 0.000000000000000e+00
0.000000000000000e+00 0.000000000000000e+00 0.000000000000000e+00

0.000000000000000e+00 0.000000000000000e+00 0.000000000000000e+00
0.000000000000000e+00 0.000000000000000e+00 0.000000000000000e+00
0.000000000000000e+00 0.000000000000000e+00 0.000000000000000e+00

0.000000000000000e+00 0.000000000000000e+00 0.000000000000000e+00
0.000000000000000e+00 0.000000000000000e+00 0.000000000000000e+00
0.000000000000000e+00 0.000000000000000e+00 0.000000000000000e+00

0.000000000000000e+00 0.000000000000000e+00 0.000000000000000e+00
0.000000000000000e+00 0.000000000000000e+00 0.000000000000000e+00
0.000000000000000e+00 0.000000000000000e+00 0.000000000000000e+00

0.000000000000000e+00 0.000000000000000e+00 0.000000000000000e+00
0.000000000000000e+00 0.000000000000000e+00 0.000000000000000e+00
0.000000000000000e+00 0.000000000000000e+00 0.000000000000000e+00

0.000000000000000e+00 0.000000000000000e+00 0.000000000000000e+00
0.000000000000000e+00 0.000000000000000e+00 0.000000000000000e+00
0.000000000000000e+00 0.000000000000000e+00 0.000000000000000e+00

0.000000000000000e+00 0.000000000000000e+00 0.000000000000000e+00
0.000000000000000e+00 0.000000000000000e+00 0.000000000000000e+00
0.000000000000000e+00 0.000000000000000e+00 0.000000000000000e+00

0.000000000000000e+00 0.000000000000000e+00 0.000000000000000e+00
0.000000000000000e+00 0.000000000000000e+00 0.000000000000000e+00
0.000000000000000e+00 0.000000000000000e+00 0.000000000000000e+00

0.000000000000000e+00 0.000000000000000e+00 0.000000000000000e+00
0.000000000000000e+00 0.000000000000000e+00 0.000000000000000e+00
0.000000000000000e+00 0.000000000000000e+00 0.000000000000000e+00

0.000000000000000e+00 0.000000000000000e+00 0.000000000000000e+00
0.000000000000000e+00 0.000000000000000e+00 0.000000000000000e+00
0.000000000000000e+00 0.000000000000000e+00 0.000000000000000e+00

0.000000000000000e+00 0.000000000000000e+00 0.000000000000000e+00
0.000000000000000e+00 0.000000000000000e+00 0.000000000000000e+00
0.000000000000000e+00 0.000000000000000e+00 0.000000000000000e+00

0.000000000000000e+00 0.000000000000000e+00 0.000000000000000e+00
0.000000000000000e+00 0.000000000000000e+00 0.000000000000000e+00
0.000000000000000e+00 0.000000000000000e+00 0.000000000000000e+00

0.000000000000000e+00 0.000000000000000e+00 0.000000000000000e+00
0.000000000000000e+00 0.000000000000000e+00 0.000000000000000e+00
0.000000000000000e+00 0.000000000000000e+00 0.000000000000000e+00

0.000000000000000e+00 0.000000000000000e+00 0.000000000000000e+00
0.000000000000000e+00 0.000000000000000e+00 0.000000000000000e+00
0.000000000000000e+00 0.000000000000000e+00 0.000000000000000e+00

0.000000000000000e+00 0.000000000000000e+00 0.000000000000000e+00
0.000000000000000e+00 0.000000000000000e+00 0.000000000000000e+00
0.000000000000000e+00 0.000000000000000e+00 0.000000000000000e+00

0.000000000000000e+00 0.000000000000000e+00 0.000000000000000e+00
0.000000000000000e+00 0.000000000000000e+00 0.000000000000000e+00
0.000000000000000e+00 0.000000000000000e+00 0.000000000000000e+00

0.000000000000000e+00 0.000000000000000e+00 0.000000000000000e+00
0.000000000000000e+00 0.000000000000000e+00 0.000000000000000e+00
0.000000000000000e+00 0.000000000000000e+00 0.000000000000000e+00

0.000000000000000e+00 0.000000000000000e+00 0.000000000000000e+00
0.000000000000000e+00 0.000000000000000e+00 0.000000000000000e+00
0.000000000000000e+00 0.000000000000000e+00 0.000000000000000e+00

0.000000000000000e+00 0.000000000000000e+00 0.000000000000000e+00
0.000000000000000e+00 0.000000000000000e+00 0.000000000000000e+00
0.000000000000000e+00 0.000000000000000e+00 0.000000000000000e+00

0.000000000000000e+00 0.000000000000000e+00 0.000000000000000e+00
0.000000000000000e+00 0.000000000000000e+00 0.000000000000000e+00
0.000000000000000e+00 0.000000000000000e+00 0.000000000000000e+00

0.000000000000000e+00 0.000000000000000e+00 0.000000000000000e+00
0.000000000000000e+00 0.000000000000000e+00 0.000000000000000e+00
0.000000000000000e+00 0.000000000000000e+00 0.000000000000000e+00

0.000000000000000e+00 0.000000000000000e+00 0.000000000000000e+00
0.000000000000000e+00 0.000000000000000e+00 0.000000000000000e+00
0.000000000000000e+00 0.000000000000000e+00 0.000000000000000e+00

0.000000000000000e+00 0.000000000000000e+00 0.000000000000000e+00
0.000000000000000e+00 0.000000000000000e+00 0.000000000000000e+00
0.000000000000000e+00 0.000000000000000e+00 0.000000000000000e+00

0.000000000000000e+00 0.000000000000000e+00 0.000000000000000e+00
0.000000000000000e+00 0.000000000000000e+00 0.000000000000000e+00
0.000000000000000e+00 0.000000000000000e+00 0.000000000000000e+00

0.000000000000000e+00 0.000000000000000e+00 0.000000000000000e+00
0.000000000000000e+00 0.000000000000000e+00 0.000000000000000e+00
0.000000000000000e+00 0.000000000000000e+00 0.000000000000000e+00

0.000000000000000e+00 0.000000000000000e+00 0.000000000000000e+00
0.000000000000000e+00 0.000000000000000e+00 0.000000000000000e+00
0.000000000000000e+00 0.000000000000000e+00 0.000000000000000e+00

0.000000000000000e+00 0.000000000000000e+00 0.000000000000000e+00
0.000000000000000e+00 0.000000000000000e+00 0.000000000000000e+00
0.000000000000000e+00 0.000000000000000e+00 0.000000000000000e+00

0.000000000000000e+00 0.000000000000000e+00 0.000000000000000e+00
0.000000000000000e+00 0.000000000000000e+00 0.000000000000000e+00
0.000000000000000e+00 0.000000000000000e+00 0.000000000000000e+00

0.000000000000000e+00 0.000000000000000e+00 0.000000000000000e+00
0.000000000000000e+00 0.000000000000000e+00 0.000000000000000e+00
0.000000000000000e+00 0.000000000000000e+00 0.000000000000000e+00

0.000000000000000e+00 0.000000000000000e+00 0.000000000000000e+00
0.000000000000000e+00 0.000000000000000e+00 0.000000000000000e+00
0.000000000000000e+00 0.000000000000000e+00 0.000000000000000e+00

0.000000000000000e+00 0.000000000000000e+00 0.000000000000000e+00
0.000000000000000e+00 0.000000000000000e+00 0.000000000000000e+00
0.000000000000000e+00 0.000000000000000e+00 0.000000000000000e+00

0.000000000000000e+00 0.000000000000000e+00 0.000000000000000e+00
0.000000000000000e+00 0.000000000000000e+00 0.000000000000000e+00
0.000000000000000e+00 0.000000000000000e+00 0.000000000000000e+00

0.000000000000000e+00 0.000000000000000e+00 0.000000000000000e+00
0.000000000000000e+00 0.000000000000000e+00 0.000000000000000e+00
0.000000000000000e+00 0.000000000000000e+00 0.000000000000000e+00

0.000000000000000e+00 0.000000000000000e+00 0.000000000000000e+00
0.000000000000000e+00 0.000000000000000e+00 0.000000000000000e+00
0.000000000000000e+00 0.000000000000000e+00 0.000000000000000e+00

0.000000000000000e+00 0.000000000000000e+00 0.000000000000000e+00
0.000000000000000e+00 0.000000000000000e+00 0.000000000000000e+00
0.000000000000000e+00 0.000000000000000e+00 0.000000000000000e+00

0.000000000000000e+00 0.000000000000000e+00 0.000000000000000e+00
0.000000000000000e+00 0.000000000000000e+00 0.000000000000000e+00
0.000000000000000e+00 0.000000000000000e+00 0.000000000000000e+00

0.000000000000000e+00 0.000000000000000e+00 0.000000000000000e+00
0.000000000000000e+00 0.000000000000000e+00 0.000000000000000e+00
0.000000000000000e+00 0.000000000000000e+00 0.000000000000000e+00

0.000000000000000e+00 0.000000000000000e+00 0.000000000000000e+00
0.000000000000000e+00 0.000000000000000e+00 0.000000000000000e+00
0.000000000000000e+00 0.000000000000000e+00 0.000000000000000e+00

0.000000000000000e+00 0.000000000000000e+00 0.000000000000000e+00
0.000000000000000e+00 0.000000000000000e+00 0.000000000000000e+00
0.000000000000000e+00 0.000000000000000e+00 0.000000000000000e+00

0.000000000000000e+00 0.000000000000000e+00 0.000000000000000e+00
0.000000000000000e+00 0.000000000000000e+00 0.000000000000000e+00
0.000000000000000e+00 0.000000000000000e+00 0.000000000000000e+00

0.000000000000000e+00 0.000000000000000e+00 0.000000000000000e+00
0.000000000000000e+00 0.000000000000000e+00 0.000000000000000e+00
0.000000000000000e+00 0.000000000000000e+00 0.000000000000000e+00

0.000000000000000e+00 0.000000000000000e+00 0.000000000000000e+00
0.000000000000000e+00 0.000000000000000e+00 0.000000000000000e+00
0.000000000000000e+00 0.000000000000000e+00 0.000000000000000e+00

0.000000000000000e+00 0.000000000000000e+00 0.000000000000000e+00
0.000000000000000e+00 0.000000000000000e+00 0.000000000000000e+00
0.000000000000000e+00 0.000000000000000e+00 0.000000000000000e+00

0.000000000000000e+00 0.000000000000000e+00 0.000000000000000e+00
0.000000000000000e+00 0.000000000000000e+00 0.000000000000000e+00
0.000000000000000e+00 0.000000000000000e+00 0.000000000000000e+00

0.000000000000000e+00 0.000000000000000e+00 0.000000000000000e+00
0.000000000000000e+00 0.000000000000000e+00 0.000000000000000e+00
0.000000000000000e+00 0.000000000000000e+00 0.000000000000000e+00

0.000000000000000e+00 0.000000000000000e+00 0.000000000000000e+00
0.000000000000000e+00 0.000000000000000e+00 0.000000000000000e+00
0.000000000000000e+00 0.000000000000000e+00 0.000000000000000e+00

0.000000000000000e+00 0.000000000000000e+00 0.000000000000000e+00
0.000000000000000e+00 0.000000000000000e+00 0.000000000000000e+00
0.000000000000000e+00 0.000000000000000e+00 0.000000000000000e+00

0.000000000000000e+00 0.000000000000000e+00 0.000000000000000e+00
0.000000000000000e+00 0.000000000000000e+00 0.000000000000000e+00
0.000000000000000e+00 0.000000000000000e+00 0.000000000000000e+00

0.000000000000000e+00 0.000000000000000e+00 0.000000000000000e+00
0.000000000000000e+00 0.000000000000000e+00 0.000000000000000e+00
0.000000000000000e+00 0.000000000000000e+00 0.000000000000000e+00

0.000000000000000e+00 0.000000000000000e+00 0.000000000000000e+00
0.000000000000000e+00 0.000000000000000e+00 0.000000000000000e+00
0.000000000000000e+00 0.000000000000000e+00 0.000000000000000e+00

0.000000000000000e+00 0.000000000000000e+00 0.000000000000000e+00
0.000000000000000e+00 0.000000000000000e+00 0.000000000000000e+00
0.000000000000000e+00 0.000000000000000e+00 0.000000000000000e+00

0.000000000000000e+00 0.000000000000000e+00 0.000000000000000e+00
0.000000000000000e+00 0.000000000000000e+00 0.000000000000000e+00
0.000000000000000e+00 0.000000000000000e+00 0.000000000000000e+00

0.000000000000000e+00 0.000000000000000e+00 0.000000000000000e+00
0.000000000000000e+00 0.000000000000000e+00 0.000000000000000e+00
0.000000000000000e+00 0.000000000000000e+00 0.000000000000000e+00

0.000000000000000e+00 0.000000000000000e+00 0.000000000000000e+00
0.000000000000000e+00 0.000000000000000e+00 0.000000000000000e+00
0.000000000000000e+00 0.000000000000000e+00 0.000000000000000e+00

0.000000000000000e+00 0.000000000000000e+00 0.000000000000000e+00
0.000000000000000e+00 0.000000000000000e+00 0.000000000000000e+00
0.000000000000000e+00 0.000000000000000e+00 0.000000000000000e+00

0.000000000000000e+00 0.000000000000000e+00 0.000000000000000e+00
0.000000000000000e+00 0.000000000000000e+00 0.000000000000000e+00
0.000000000000000e+00 0.000000000000000e+00 0.000000000000000e+00

0.000000000000000e+00 0.000000000000000e+00 0.000000000000000e+00
0.000000000000000e+00 0.000000000000000e+00 0.000000000000000e+00
0.000000000000000e+00 0.000000000000000e+00 0.000000000000000e+00

0.000000000000000e+00 0.000000000000000e+00 0.000000000000000e+00
0.000000000000000e+00 0.000000000000000e+00 0.000000000000000e+00
0.000000000000000e+00 0.000000000000000e+00 0.000000000000000e+00

0.000000000000000e+00 0.000000000000000e+00 0.000000000000000e+00
0.000000000000000e+00 0.000000000000000e+00 0.000000000000000e+00
0.000000000000000e+00 0.000000000000000e+00 0.000000000000000e+00

0.000000000000000e+00 0.000000000000000e+00 0.000000000000000e+00
0.000000000000000e+00 0.000000000000000e+00 0.000000000000000e+00
0.000000000000000e+00 0.000000000000000e+00 0.000000000000000e+00

0.000000000000000e+00 0.000000000000000e+00 0.000000000000000e+00
0.000000000000000e+00 0.000000000000000e+00 0.000000000000000e+00
0.000000000000000e+00 0.000000000000000e+00 0.000000000000000e+00

0.000000000000000e+00 0.000000000000000e+00 0.000000000000000e+00
0.000000000000000e+00 0.000000000000000e+00 0.000000000000000e+00
0.000000000000000e+00 0.000000000000000e+00 0.000000000000000e+00

0.000000000000000e+00 0.000000000000000e+00 0.000000000000000e+00
0.000000000000000e+00 0.000000000000000e+00 0.000000000000000e+00
0.000000000000000e+00 0.000000000000000e+00 0.000000000000000e+00

0.000000000000000e+00 0.000000000000000e+00 0.000000000000000e+00
0.000000000000000e+00 0.000000000000000e+00 0.000000000000000e+00
0.000000000000000e+00 0.000000000000000e+00 0.000000000000000e+00

0.000000000000000e+00 0.000000000000000e+00 0.000000000000000e+00
0.000000000000000e+00 0.000000000000000e+00 0.000000000000000e+00
0.000000000000000e+00 0.000000000000000e+00 0.000000000000000e+00

0.000000000000000e+00 0.000000000000000e+00 0.000000000000000e+00
0.000000000000000e+00 0.000000000000000e+00 0.000000000000000e+00
0.000000000000000e+00 0.000000000000000e+00 0.000000000000000e+00

0.000000000000000e+00 0.000000000000000e+00 0.000000000000000e+00
0.000000000000000e+00 0.000000000000000e+00 0.000000000000000e+00
0.000000000000000e+00 0.000000000000000e+00 0.000000000000000e+00

0.000000000000000e+00 0.000000000000000e+00 0.000000000000000e+00
0.000000000000000e+00 0.000000000000000e+00 0.000000000000000e+00
0.000000000000000e+00 0.000000000000000e+00 0.000000000000000e+00

0.000000000000000e+00 0.000000000000000e+00 0.000000000000000e+00
0.000000000000000e+00 0.000000000000000e+00 0.000000000000000e+00
0.000000000000000e+00 0.000000000000000e+00 0.000000000000000e+00

0.000000000000000e+00 0.000000000000000e+00 0.000000000000000e+00
0.000000000000000e+00 0.000000000000000e+00 0.000000000000000e+00
0.000000000000000e+00 0.000000000000000e+00 0.000000000000000e+00

0.000000000000000e+00 0.000000000000000e+00 0.000000000000000e+00
0.000000000000000e+00 0.000000000000000e+00 0.000000000000000e+00
0.000000000000000e+00 0.000000000000000e+00 0.000000000000000e+00

0.000000000000000e+00 0.000000000000000e+00 0.000000000000000e+00
0.000000000000000e+00 0.000000000000000e+00 0.000000000000000e+00
0.000000000000000e+00 0.000000000000000e+00 0.000000000000000e+00

0.000000000000000e+00 0.000000000000000e+00 0.000000000000000e+00
0.000000000000000e+00 0.000000000000000e+00 0.000000000000000e+00
0.000000000000000e+00 0.000000000000000e+00 0.000000000000000e+00

0.000000000000000e+00 0.000000000000000e+00 0.000000000000000e+00
0.000000000000000e+00 0.000000000000000e+00 0.000000000000000e+00
0.000000000000000e+00 0.000000000000000e+00 0.000000000000000e+00

0.000000000000000e+00 0.000000000000000e+00 0.000000000000000e+00
0.000000000000000e+00 0.000000000000000e+00 0.000000000000000e+00
0.000000000000000e+00 0.000000000000000e+00 0.000000000000000e+00

0.000000000000000e+00 0.000000000000000e+00 0.000000000000000e+00
0.000000000000000e+00 0.000000000000000e+00 0.000000000000000e+00
0.000000000000000e+00 0.000000000000000e+00 0.000000000000000e+00

0.000000000000000e+00 0.000000000000000e+00 0.000000000000000e+00
0.000000000000000e+00 0.000000000000000e+00 0.000000000000000e+00
0.000000000000000e+00 0.000000000000000e+00 0.000000000000000e+00

0.000000000000000e+00 0.000000000000000e+00 0.000000000000000e+00
0.000000000000000e+00 0.000000000000000e+00 0.000000000000000e+00
0.000000000000000e+00 0.000000000000000e+00 0.000000000000000e+00

0.000000000000000e+00 0.000000000000000e+00 0.000000000000000e+00
0.000000000000000e+00 0.000000000000000e+00 0.000000000000000e+00
0.000000000000000e+00 0.000000000000000e+00 0.000000000000000e+00

0.000000000000000e+00 0.000000000000000e+00 0.000000000000000e+00
0.000000000000000e+00 0.000000000000000e+00 0.000000000000000e+00
0.000000000000000e+00 0.000000000000000e+00 0.000000000000000e+00

0.000000000000000e+00 0.000000000000000e+00 0.000000000000000e+00
0.000000000000000e+00 0.000000000000000e+00 0.000000000000000e+00
0.000000000000000e+00 0.000000000000000e+00 0.000000000000000e+00

0.000000000000000e+00 0.000000000000000e+00 0.000000000000000e+00
0.000000000000000e+00 0.000000000000000e+00 0.000000000000000e+00
0.000000000000000e+00 0.000000000000000e+00 0.000000000000000e+00

0.000000000000000e+00 0.000000000000000e+00 0.000000000000000e+00
0.000000000000000e+00 0.000000000000000e+00 0.000000000000000e+00
0.000000000000000e+00 0.000000000000000e+00 0.000000000000000e+00

0.000000000000000e+00 0.000000000000000e+00 0.000000000000000e+00
0.000000000000000e+00 0.000000000000000e+00 0.000000000000000e+00
0.000000000000000e+00 0.000000000000000e+00 0.000000000000000e+00

0.000000000000000e+00 0.000000000000000e+00 0.000000000000000e+00
0.000000000000000e+00 0.000000000000000e+00 0.000000000000000e+00
0.000000000000000e+00 0.000000000000000e+00 0.000000000000000e+00

0.000000000000000e+00 0.000000000000000e+00 0.000000000000000e+00
0.000000000000000e+00 0.000000000000000e+00 0.000000000000000e+00
0.000000000000000e+00 0.000000000000000e+00 0.000000000000000e+00

0.000000000000000e+00 0.000000000000000e+00 0.000000000000000e+00
0.000000000000000e+00 0.000000000000000e+00 0.000000000000000e+00
0.000000000000000e+00 0.000000000000000e+00 0.000000000000000e+00

0.000000000000000e+00 0.000000000000000e+00 0.000000000000000e+00
0.000000000000000e+00 0.000000000000000e+00 0.000000000000000e+00
0.000000000000000e+00 0.000000000000000e+00 0.000000000000000e+00

0.000000000000000e+00 0.000000000000000e+00 0.000000000000000e+00
0.000000000000000e+00 0.000000000000000e+00 0.000000000000000e+00
0.000000000000000e+00 0.000000000000000e+00 0.000000000000000e+00

0.000000000000000e+00 0.000000000000000e+00 0.000000000000000e+00
0.000000000000000e+00 0.000000000000000e+00 0.000000000000000e+00
0.000000000000000e+00 0.000000000000000e+00 0.000000000000000e+00

0.000000000000000e+00 0.000000000000000e+00 0.000000000000000e+00
0.000000000000000e+00 0.000000000000000e+00 0.000000000000000e+00
0.000000000000000e+00 0.000000000000000e+00 0.000000000000000e+00

0.000000000000000e+00 0.000000000000000e+00 0.000000000000000e+00
0.000000000000000e+00 0.000000000000000e+00 0.000000000000000e+00
0.000000000000000e+00 0.000000000000000e+00 0.000000000000000e+00

0.000000000000000e+00 0.000000000000000e+00 0.000000000000000e+00
0.000000000000000e+00 0.000000000000000e+00 0.000000000000000e+00
0.000000000000000e+00 0.000000000000000e+00 0.000000000000000e+00

0.000000000000000e+00 0.000000000000000e+00 0.000000000000000e+00
0.000000000000000e+00 0.000000000000000e+00 0.000000000000000e+00
0.000000000000000e+00 0.000000000000000e+00 0.000000000000000e+00

0.000000000000000e+00 0.000000000000000e+00 0.000000000000000e+00
0.000000000000000e+00 0.000000000000000e+00 0.000000000000000e+00
0.000000000000000e+00 0.000000000000000e+00 0.000000000000000e+00

0.000000000000000e+00 0.000000000000000e+00 0.000000000000000e+00
0.000000000000000e+00 0.000000000000000e+00 0.000000000000000e+00
0.000000000000000e+00 0.000000000000000e+00 0.000000000000000e+00

0.000000000000000e+00 0.000000000000000e+00 0.000000000000000e+00
0.000000000000000e+00 0.000000000000000e+00 0.000000000000000e+00
0.000000000000000e+00 0.000000000000000e+00 0.000000000000000e+00

0.000000000000000e+00 0.000000000000000e+00 0.000000000000000e+00
0.000000000000000e+00 0.000000000000000e+00 0.000000000000000e+00
0.000000000000000e+00 0.000000000000000e+00 0.000000000000000e+00

0.000000000000000e+00 0.000000000000000e+00 0.000000000000000e+00
0.000000000000000e+00 0.000000000000000e+00 0.000000000000000e+00
0.000000000000000e+00 0.000000000000000e+00 0.000000000000000e+00

0.000000000000000e+00 0.000000000000000e+00 0.000000000000000e+00
0.000000000000000e+00 0.000000000000000e+00 0.000000000000000e+00
0.000000000000000e+00 0.000000000000000e+00 0.000000000000000e+00

0.000000000000000e+00 0.000000000000000e+00 0.000000000000000e+00
0.000000000000000e+00 0.000000000000000e+00 0.000000000000000e+00
0.000000000000000e+00 0.000000000000000e+00 0.000000000000000e+00

0.000000000000000e+00 0.000000000000000e+00 0.000000000000000e+00
0.000000000000000e+00 0.000000000000000e+00 0.000000000000000e+00
0.000000000000000e+00 0.000000000000000e+00 0.000000000000000e+00

0.000000000000000e+00 0.000000000000000e+00 0.000000000000000e+00
0.000000000000000e+00 0.000000000000000e+00 0.000000000000000e+00
0.000000000000000e+00 0.000000000000000e+00 0.000000000000000e+00

0.000000000000000e+00 0.000000000000000e+00 0.000000000000000e+00
0.000000000000000e+00 0.000000000000000e+00 0.000000000000000e+00
0.000000000000000e+00 0.000000000000000e+00 0.000000000000000e+00

0.000000000000000e+00 0.000000000000000e+00 0.000000000000000e+00
0.000000000000000e+00 0.000000000000000e+00 0.000000000000000e+00
0.000000000000000e+00 0.000000000000000e+00 0.000000000000000e+00

0.000000000000000e+00 0.000000000000000e+00 0.000000000000000e+00
0.000000000000000e+00 0.000000000000000e+00 0.000000000000000e+00
0.000000000000000e+00 0.000000000000000e+00 0.000000000000000e+00

0.000000000000000e+00 0.000000000000000e+00 0.000000000000000e+00
0.000000000000000e+00 0.000000000000000e+00 0.000000000000000e+00
0.000000000000000e+00 0.000000000000000e+00 0.000000000000000e+00

0.000000000000000e+00 0.000000000000000e+00 0.000000000000000e+00
0.000000000000000e+00 0.000000000000000e+00 0.000000000000000e+00
0.000000000000000e+00 0.000000000000000e+00 0.000000000000000e+00

0.000000000000000e+00 0.000000000000000e+00 0.000000000000000e+00
0.000000000000000e+00 0.000000000000000e+00 0.000000000000000e+00
0.000000000000000e+00 0.000000000000000e+00 0.000000000000000e+00

0.000000000000000e+00 0.000000000000000e+00 0.000000000000000e+00
0.000000000000000e+00 0.000000000000000e+00 0.000000000000000e+00
0.000000000000000e+00 0.000000000000000e+00 0.000000000000000e+00

0.000000000000000e+00 0.000000000000000e+00 0.000000000000000e+00
0.000000000000000e+00 0.000000000000000e+00 0.000000000000000e+00
0.000000000000000e+00 0.000000000000000e+00 0.000000000000000e+00

0.000000000000000e+00 0.000000000000000e+00 0.000000000000000e+00
0.000000000000000e+00 0.000000000000000e+00 0.000000000000000e+00
0.000000000000000e+00 0.000000000000000e+00 0.000000000000000e+00

0.000000000000000e+00 0.000000000000000e+00 0.000000000000000e+00
0.000000000000000e+00 0.000000000000000e+00 0.000000000000000e+00
0.000000000000000e+00 0.000000000000000e+00 0.000000000000000e+00

0.000000000000000e+00 0.000000000000000e+00 0.000000000000000e+00
0.000000000000000e+00 0.000000000000000e+00 0.000000000000000e+00
0.000000000000000e+00 0.000000000000000e+00 0.000000000000000e+00

0.000000000000000e+00 0.000000000000000e+00 0.000000000000000e+00
0.000000000000000e+00 0.000000000000000e+00 0.000000000000000e+00
0.000000000000000e+00 0.000000000000000e+00 0.000000000000000e+00

0.000000000000000e+00 0.000000000000000e+00 0.000000000000000e+00
0.000000000000000e+00 0.000000000000000e+00 0.000000000000000e+00
0.000000000000000e+00 0.000000000000000e+00 0.000000000000000e+00

0.000000000000000e+00 0.000000000000000e+00 0.000000000000000e+00
0.000000000000000e+00 0.000000000000000e+00 0.000000000000000e+00
0.000000000000000e+00 0.000000000000000e+00 0.000000000000000e+00

0.000000000000000e+00 0.000000000000000e+00 0.000000000000000e+00
0.000000000000000e+00 0.000000000000000e+00 0.000000000000000e+00
0.000000000000000e+00 0.000000000000000e+00 0.000000000000000e+00

0.000000000000000e+00 0.000000000000000e+00 0.000000000000000e+00
0.000000000000000e+00 0.000000000000000e+00 0.000000000000000e+00
0.000000000000000e+00 0.000000000000000e+00 0.000000000000000e+00

0.000000000000000e+00 0.000000000000000e+00 0.000000000000000e+00
0.000000000000000e+00 0.000000000000000e+00 0.000000000000000e+00
0.000000000000000e+00 0.000000000000000e+00 0.000000000000000e+00

0.000000000000000e+00 0.000000000000000e+00 0.000000000000000e+00
0.000000000000000e+00 0.000000000000000e+00 0.000000000000000e+00
0.000000000000000e+00 0.000000000000000e+00 0.000000000000000e+00

0.000000000000000e+00 0.000000000000000e+00 0.000000000000000e+00
0.000000000000000e+00 0.000000000000000e+00 0.000000000000000e+00
0.000000000000000e+00 0.000000000000000e+00 0.000000000000000e+00

0.000000000000000e+00 0.000000000000000e+00 0.000000000000000e+00
0.000000000000000e+00 0.000000000000000e+00 0.000000000000000e+00
0.000000000000000e+00 0.000000000000000e+00 0.000000000000000e+00

0.000000000000000e+00 0.000000000000000e+00 0.000000000000000e+00
0.000000000000000e+00 0.000000000000000e+00 0.000000000000000e+00
0.000000000000000e+00 0.000000000000000e+00 0.000000000000000e+00

0.000000000000000e+00 0.000000000000000e+00 0.000000000000000e+00
0.000000000000000e+00 0.000000000000000e+00 0.000000000000000e+00
0.000000000000000e+00 0.000000000000000e+00 0.000000000000000e+00

0.000000000000000e+00 0.000000000000000e+00 0.000000000000000e+00
0.000000000000000e+00 0.000000000000000e+00 0.000000000000000e+00
0.000000000000000e+00 0.000000000000000e+00 0.000000000000000e+00

0.000000000000000e+00 0.000000000000000e+00 0.000000000000000e+00
0.000000000000000e+00 0.000000000000000e+00 0.000000000000000e+00
0.000000000000000e+00 0.000000000000000e+00 0.000000000000000e+00

0.000000000000000e+00 0.000000000000000e+00 0.000000000000000e+00
0.000000000000000e+00 0.000000000000000e+00 0.000000000000000e+00
0.000000000000000e+00 0.000000000000000e+00 0.000000000000000e+00

0.000000000000000e+00 0.000000000000000e+00 0.000000000000000e+00
0.000000000000000e+00 0.000000000000000e+00 0.000000000000000e+00
0.000000000000000e+00 0.000000000000000e+00 0.000000000000000e+00

0.000000000000000e+00 0.000000000000000e+00 0.000000000000000e+00
0.000000000000000e+00 0.000000000000000e+00 0.000000000000000e+00
0.000000000000000e+00 0.000000000000000e+00 0.000000000000000e+00

0.000000000000000e+00 0.000000000000000e+00 0.000000000000000e+00
0.000000000000000e+00 0.000000000000000e+00 0.000000000000000e+00
0.000000000000000e+00 0.000000000000000e+00 0.000000000000000e+00

0.000000000000000e+00 0.000000000000000e+00 0.000000000000000e+00
0.000000000000000e+00 0.000000000000000e+00 0.000000000000000e+00
0.000000000000000e+00 0.000000000000000e+00 0.000000000000000e+00

0.000000000000000e+00 0.000000000000000e+00 0.000000000000000e+00
0.000000000000000e+00 0.000000000000000e+00 0.000000000000000e+00
0.000000000000000e+00 0.000000000000000e+00 0.000000000000000e+00

0.000000000000000e+00 0.000000000000000e+00 0.000000000000000e+00
0.000000000000000e+00 0.000000000000000e+00 0.000000000000000e+00
0.000000000000000e+00 0.000000000000000e+00 0.000000000000000e+00

0.000000000000000e+00 0.000000000000000e+00 0.000000000000000e+00
0.000000000000000e+00 0.000000000000000e+00 0.000000000000000e+00
0.000000000000000e+00 0.000000000000000e+00 0.000000000000000e+00

0.000000000000000e+00 0.000000000000000e+00 0.000000000000000e+00
0.000000000000000e+00 0.000000000000000e+00 0.000000000000000e+00
0.000000000000000e+00 0.000000000000000e+00 0.000000000000000e+00

0.000000000000000e+00 0.000000000000000e+00 0.000000000000000e+00
0.000000000000000e+00 0.000000000000000e+00 0.000000000000000e+00
0.000000000000000e+00 0.000000000000000e+00 0.000000000000000e+00

0.000000000000000e+00 0.000000000000000e+00 0.000000000000000e+00
0.000000000000000e+00 0.000000000000000e+00 0.000000000000000e+00
0.000000000000000e+00 0.000000000000000e+00 0.000000000000000e+00

0.000000000000000e+00 0.000000000000000e+00 0.000000000000000e+00
0.000000000000000e+00 0.000000000000000e+00 0.000000000000000e+00
0.000000000000000e+00 0.000000000000000e+00 0.000000000000000e+00

0.000000000000000e+00 0.000000000000000e+00 0.000000000000000e+00
0.000000000000000e+00 0.000000000000000e+00 0.000000000000000e+00
0.000000000000000e+00 0.000000000000000e+00 0.000000000000000e+00

0.000000000000000e+00 0.000000000000000e+00 0.000000000000000e+00
0.000000000000000e+00 0.000000000000000e+00 0.000000000000000e+00
0.000000000000000e+00 0.000000000000000e+00 0.000000000000000e+00

0.000000000000000e+00 0.000000000000000e+00 0.000000000000000e+00
0.000000000000000e+00 0.000000000000000e+00 0.000000000000000e+00
0.000000000000000e+00 0.000000000000000e+00 0.000000000000000e+00

0.000000000000000e+00 0.000000000000000e+00 0.000000000000000e+00
0.000000000000000e+00 0.000000000000000e+00 0.000000000000000e+00
0.000000000000000e+00 0.000000000000000e+00 0.000000000000000e+00

0.000000000000000e+00 0.000000000000000e+00 0.000000000000000e+00
0.000000000000000e+00 0.000000000000000e+00 0.000000000000000e+00
0.000000000000000e+00 0.000000000000000e+00 0.000000000000000e+00

0.000000000000000e+00 0.000000000000000e+00 0.000000000000000e+00
0.000000000000000e+00 0.000000000000000e+00 0.000000000000000e+00
0.000000000000000e+00 0.000000000000000e+00 0.000000000000000e+00

0.000000000000000e+00 0.000000000000000e+00 0.000000000000000e+00
0.000000000000000e+00 0.000000000000000e+00 0.000000000000000e+00
0.000000000000000e+00 0.000000000000000e+00 0.000000000000000e+00

0.000000000000000e+00 0.000000000000000e+00 0.000000000000000e+00
0.000000000000000e+00 0.000000000000000e+00 0.000000000000000e+00
0.000000000000000e+00 0.000000000000000e+00 0.000000000000000e+00

0.000000000000000e+00 0.000000000000000e+00 0.000000000000000e+00
0.000000000000000e+00 0.000000000000000e+00 0.000000000000000e+00
0.000000000000000e+00 0.000000000000000e+00 0.000000000000000e+00

0.000000000000000e+00 0.000000000000000e+00 0.000000000000000e+00
0.000000000000000e+00 0.000000000000000e+00 0.000000000000000e+00
0.000000000000000e+00 0.000000000000000e+00 0.000000000000000e+00

0.000000000000000e+00 0.000000000000000e+00 0.000000000000000e+00
0.000000000000000e+00 0.000000000000000e+00 0.000000000000000e+00
0.000000000000000e+00 0.000000000000000e+00 0.000000000000000e+00

0.000000000000000e+00 0.000000000000000e+00 0.000000000000000e+00
0.000000000000000e+00 0.000000000000000e+00 0.000000000000000e+00
0.000000000000000e+00 0.000000000000000e+00 0.000000000000000e+00

0.000000000000000e+00 0.000000000000000e+00 0.000000000000000e+00
0.000000000000000e+00 0.000000000000000e+00 0.000000000000000e+00
0.000000000000000e+00 0.000000000000000e+00 0.000000000000000e+00

0.000000000000000e+00 0.000000000000000e+00 0.000000000000000e+00
0.000000000000000e+00 0.000000000000000e+00 0.000000000000000e+00
0.000000000000000e+00 0.000000000000000e+00 0.000000000000000e+00

0.000000000000000e+00 0.000000000000000e+00 0.000000000000000e+00
0.000000000000000e+00 0.000000000000000e+00 0.000000000000000e+00
0.000000000000000e+00 0.000000000000000e+00 0.000000000000000e+00

0.000000000000000e+00 0.000000000000000e+00 0.000000000000000e+00
0.000000000000000e+00 0.000000000000000e+00 0.000000000000000e+00
0.000000000000000e+00 0.000000000000000e+00 0.000000000000000e+00

0.000000000000000e+00 0.000000000000000e+00 0.000000000000000e+00
0.000000000000000e+00 0.000000000000000e+00 0.000000000000000e+00
0.000000000000000e+00 0.000000000000000e+00 0.000000000000000e+00

0.000000000000000e+00 0.000000000000000e+00 0.000000000000000e+00
0.000000000000000e+00 0.000000000000000e+00 0.000000000000000e+00
0.000000000000000e+00 0.000000000000000e+00 0.000000000000000e+00

0.000000000000000e+00 0.000000000000000e+00 0.000000000000000e+00
0.000000000000000e+00 0.000000000000000e+00 0.000000000000000e+00
0.000000000000000e+00 0.000000000000000e+00 0.000000000000000e+00

0.000000000000000e+00 0.000000000000000e+00 0.000000000000000e+00
0.000000000000000e+00 0.000000000000000e+00 0.000000000000000e+00
0.000000000000000e+00 0.000000000000000e+00 0.000000000000000e+00

0.000000000000000e+00 0.000000000000000e+00 0.000000000000000e+00
0.000000000000000e+00 0.000000000000000e+00 0.000000000000000e+00
0.000000000000000e+00 0.000000000000000e+00 0.000000000000000e+00

0.000000000000000e+00 0.000000000000000e+00 0.000000000000000e+00
0.000000000000000e+00 0.000000000000000e+00 0.000000000000000e+00
0.000000000000000e+00 0.000000000000000e+00 0.000000000000000e+00

0.000000000000000e+00 0.000000000000000e+00 0.000000000000000e+00
0.000000000000000e+00 0.000000000000000e+00 0.000000000000000e+00
0.000000000000000e+00 0.000000000000000e+00 0.000000000000000e+00

0.000000000000000e+00 0.000000000000000e+00 0.000000000000000e+00
0.000000000000000e+00 0.000000000000000e+00 0.000000000000000e+00
0.000000000000000e+00 0.000000000000000e+00 0.000000000000000e+00

0.000000000000000e+00 0.000000000000000e+00 0.000000000000000e+00
0.000000000000000e+00 0.000000000000000e+00 0.000000000000000e+00
0.000000000000000e+00 0.000000000000000e+00 0.000000000000000e+00

0.000000000000000e+00 0.000000000000000e+00 0.000000000000000e+00
0.000000000000000e+00 0.000000000000000e+00 0.000000000000000e+00
0.000000000000000e+00 0.000000000000000e+00 0.000000000000000e+00

0.000000000000000e+00 0.000000000000000e+00 0.000000000000000e+00
0.000000000000000e+00 0.000000000000000e+00 0.000000000000000e+00
0.000000000000000e+00 0.000000000000000e+00 0.000000000000000e+00

0.000000000000000e+00 0.000000000000000e+00 0.000000000000000e+00
0.000000000000000e+00 0.000000000000000e+00 0.000000000000000e+00
0.000000000000000e+00 0.000000000000000e+00 0.000000000000000e+00

0.000000000000000e+00 0.000000000000000e+00 0.000000000000000e+00
0.000000000000000e+00 0.000000000000000e+00 0.000000000000000e+00
0.000000000000000e+00 0.000000000000000e+00 0.000000000000000e+00

0.000000000000000e+00 0.000000000000000e+00 0.000000000000000e+00
0.000000000000000e+00 0.000000000000000e+00 0.000000000000000e+00
0.000000000000000e+00 0.000000000000000e+00 0.000000000000000e+00

0.000000000000000e+00 0.000000000000000e+00 0.000000000000000e+00
0.000000000000000e+00 0.000000000000000e+00 0.000000000000000e+00
0.000000000000000e+00 0.000000000000000e+00 0.000000000000000e+00

0.000000000000000e+00 0.000000000000000e+00 0.000000000000000e+00
0.000000000000000e+00 0.000000000000000e+00 0.000000000000000e+00
0.000000000000000e+00 0.000000000000000e+00 0.000000000000000e+00

0.000000000000000e+00 0.000000000000000e+00 0.000000000000000e+00
0.000000000000000e+00 0.000000000000000e+00 0.000000000000000e+00
0.000000000000000e+00 0.000000000000000e+00 0.000000000000000e+00

0.000000000000000e+00 0.000000000000000e+00 0.000000000000000e+00
0.000000000000000e+00 0.000000000000000e+00 0.000000000000000e+00
0.000000000000000e+00 0.000000000000000e+00 0.000000000000000e+00

0.000000000000000e+00 0.000000000000000e+00 0.000000000000000e+00
0.000000000000000e+00 0.000000000000000e+00 0.000000000000000e+00
0.000000000000000e+00 0.000000000000000e+00 0.000000000000000e+00

0.000000000000000e+00 0.000000000000000e+00 0.000000000000000e+00
0.000000000000000e+00 0.000000000000000e+00 0.000000000000000e+00
0.000000000000000e+00 0.000000000000000e+00 0.000000000000000e+00

0.000000000000000e+00 0.000000000000000e+00 0.000000000000000e+00
0.000000000000000e+00 0.000000000000000e+00 0.000000000000000e+00
0.000000000000000e+00 0.000000000000000e+00 0.000000000000000e+00

0.000000000000000e+00 0.000000000000000e+00 0.000000000000000e+00
0.000000000000000e+00 0.000000000000000e+00 0.000000000000000e+00
0.000000000000000e+00 0.000000000000000e+00 0.000000000000000e+00

0.000000000000000e+00 0.000000000000000e+00 0.000000000000000e+00
0.000000000000000e+00 0.000000000000000e+00 0.000000000000000e+00
0.000000000000000e+00 0.000000000000000e+00 0.000000000000000e+00

0.000000000000000e+00 0.000000000000000e+00 0.000000000000000e+00
0.000000000000000e+00 0.000000000000000e+00 0.000000000000000e+00
0.000000000000000e+00 0.000000000000000e+00 0.000000000000000e+00

0.000000000000000e+00 0.000000000000000e+00 0.000000000000000e+00
0.000000000000000e+00 0.000000000000000e+00 0.000000000000000e+00
0.000000000000000e+00 0.000000000000000e+00 0.000000000000000e+00

0.000000000000000e+00 0.000000000000000e+00 0.000000000000000e+00
0.000000000000000e+00 0.000000000000000e+00 0.000000000000000e+00
0.000000000000000e+00 0.000000000000000e+00 0.000000000000000e+00

0.000000000000000e+00 0.000000000000000e+00 0.000000000000000e+00
0.000000000000000e+00 0.000000000000000e+00 0.000000000000000e+00
0.000000000000000e+00 0.000000000000000e+00 0.000000000000000e+00

0.000000000000000e+00 0.000000000000000e+00 0.000000000000000e+00
0.000000000000000e+00 0.000000000000000e+00 0.000000000000000e+00
0.000000000000000e+00 0.000000000000000e+00 0.000000000000000e+00

0.000000000000000e+00 0.000000000000000e+00 0.000000000000000e+00
0.000000000000000e+00 0.000000000000000e+00 0.000000000000000e+00
0.000000000000000e+00 0.000000000000000e+00 0.000000000000000e+00

0.000000000000000e+00 0.000000000000000e+00 0.000000000000000e+00
0.000000000000000e+00 0.000000000000000e+00 0.000000000000000e+00
0.000000000000000e+00 0.000000000000000e+00 0.000000000000000e+00

0.000000000000000e+00 0.000000000000000e+00 0.000000000000000e+00
0.000000000000000e+00 0.000000000000000e+00 0.000000000000000e+00
0.000000000000000e+00 0.000000000000000e+00 0.000000000000000e+00

0.000000000000000e+00 0.000000000000000e+00 0.000000000000000e+00
0.000000000000000e+00 0.000000000000000e+00 0.000000000000000e+00
0.000000000000000e+00 0.000000000000000e+00 0.000000000000000e+00

0.000000000000000e+00 0.000000000000000e+00 0.000000000000000e+00
0.000000000000000e+00 0.000000000000000e+00 0.000000000000000e+00
0.000000000000000e+00 0.000000000000000e+00 0.000000000000000e+00

0.000000000000000e+00 0.000000000000000e+00 0.000000000000000e+00
0.000000000000000e+00 0.000000000000000e+00 0.000000000000000e+00
0.000000000000000e+00 0.000000000000000e+00 0.000000000000000e+00

0.000000000000000e+00 0.000000000000000e+00 0.000000000000000e+00
0.000000000000000e+00 0.000000000000000e+00 0.000000000000000e+00
0.000000000000000e+00 0.000000000000000e+00 0.000000000000000e+00

0.000000000000000e+00 0.000000000000000e+00 0.000000000000000e+00
0.000000000000000e+00 0.000000000000000e+00 0.000000000000000e+00
0.000000000000000e+00 0.000000000000000e+00 0.000000000000000e+00

0.000000000000000e+00 0.000000000000000e+00 0.000000000000000e+00
0.000000000000000e+00 0.000000000000000e+00 0.000000000000000e+00
0.000000000000000e+00 0.000000000000000e+00 0.000000000000000e+00

0.000000000000000e+00 0.000000000000000e+00 0.000000000000000e+00
0.000000000000000e+00 0.000000000000000e+00 0.000000000000000e+00
0.000000000000000e+00 0.000000000000000e+00 0.000000000000000e+00

0.000000000000000e+00 0.000000000000000e+00 0.000000000000000e+00
0.000000000000000e+00 0.000000000000000e+00 0.000000000000000e+00
0.000000000000000e+00 0.000000000000000e+00 0.000000000000000e+00

0.000000000000000e+00 0.000000000000000e+00 0.000000000000000e+00
0.000000000000000e+00 0.000000000000000e+00 0.000000000000000e+00
0.000000000000000e+00 0.000000000000000e+00 0.000000000000000e+00

0.000000000000000e+00 0.000000000000000e+00 0.000000000000000e+00
0.000000000000000e+00 0.000000000000000e+00 0.000000000000000e+00
0.000000000000000e+00 0.000000000000000e+00 0.000000000000000e+00

0.000000000000000e+00 0.000000000000000e+00 0.000000000000000e+00
0.000000000000000e+00 0.000000000000000e+00 0.000000000000000e+00
0.000000000000000e+00 0.000000000000000e+00 0.000000000000000e+00

0.000000000000000e+00 0.000000000000000e+00 0.000000000000000e+00
0.000000000000000e+00 0.000000000000000e+00 0.000000000000000e+00
0.000000000000000e+00 0.000000000000000e+00 0.000000000000000e+00

0.000000000000000e+00 0.000000000000000e+00 0.000000000000000e+00
0.000000000000000e+00 0.000000000000000e+00 0.000000000000000e+00
0.000000000000000e+00 0.000000000000000e+00 0.000000000000000e+00

0.000000000000000e+00 0.000000000000000e+00 0.000000000000000e+00
0.000000000000000e+00 0.000000000000000e+00 0.000000000000000e+00
0.000000000000000e+00 0.000000000000000e+00 0.000000000000000e+00

0.000000000000000e+00 0.000000000000000e+00 0.000000000000000e+00
0.000000000000000e+00 0.000000000000000e+00 0.000000000000000e+00
0.000000000000000e+00 0.000000000000000e+00 0.000000000000000e+00

0.000000000000000e+00 0.000000000000000e+00 0.000000000000000e+00
0.000000000000000e+00 0.000000000000000e+00 0.000000000000000e+00
0.000000000000000e+00 0.000000000000000e+00 0.000000000000000e+00

0.000000000000000e+00 0.000000000000000e+00 0.000000000000000e+00
0.000000000000000e+00 0.000000000000000e+00 0.000000000000000e+00
0.000000000000000e+00 0.000000000000000e+00 0.000000000000000e+00

0.000000000000000e+00 0.000000000000000e+00 0.000000000000000e+00
0.000000000000000e+00 0.000000000000000e+00 0.000000000000000e+00
0.000000000000000e+00 0.000000000000000e+00 0.000000000000000e+00

0.000000000000000e+00 0.000000000000000e+00 0.000000000000000e+00
0.000000000000000e+00 0.000000000000000e+00 0.000000000000000e+00
0.000000000000000e+00 0.000000000000000e+00 0.000000000000000e+00

0.000000000000000e+00 0.000000000000000e+00 0.000000000000000e+00
0.000000000000000e+00 0.000000000000000e+00 0.000000000000000e+00
0.000000000000000e+00 0.000000000000000e+00 0.000000000000000e+00

0.000000000000000e+00 0.000000000000000e+00 0.000000000000000e+00
0.000000000000000e+00 0.000000000000000e+00 0.000000000000000e+00
0.000000000000000e+00 0.000000000000000e+00 0.000000000000000e+00

0.000000000000000e+00 0.000000000000000e+00 0.000000000000000e+00
0.000000000000000e+00 0.000000000000000e+00 0.000000000000000e+00
0.000000000000000e+00 0.000000000000000e+00 0.000000000000000e+00

0.000000000000000e+00 0.000000000000000e+00 0.000000000000000e+00
0.000000000000000e+00 0.000000000000000e+00 0.000000000000000e+00
0.000000000000000e+00 0.000000000000000e+00 0.000000000000000e+00

0.000000000000000e+00 0.000000000000000e+00 0.000000000000000e+00
0.000000000000000e+00 0.000000000000000e+00 0.000000000000000e+00
0.000000000000000e+00 0.000000000000000e+00 0.000000000000000e+00

0.000000000000000e+00 0.000000000000000e+00 0.000000000000000e+00
0.000000000000000e+00 0.000000000000000e+00 0.000000000000000e+00
0.000000000000000e+00 0.000000000000000e+00 0.000000000000000e+00

0.000000000000000e+00 0.000000000000000e+00 0.000000000000000e+00
0.000000000000000e+00 0.000000000000000e+00 0.000000000000000e+00
0.000000000000000e+00 0.000000000000000e+00 0.000000000000000e+00

0.000000000000000e+00 0.000000000000000e+00 0.000000000000000e+00
0.000000000000000e+00 0.000000000000000e+00 0.000000000000000e+00
0.000000000000000e+00 0.000000000000000e+00 0.000000000000000e+00

0.000000000000000e+00 0.000000000000000e+00 0.000000000000000e+00
0.000000000000000e+00 0.000000000000000e+00 0.000000000000000e+00
0.000000000000000e+00 0.000000000000000e+00 0.000000000000000e+00

0.000000000000000e+00 0.000000000000000e+00 0.000000000000000e+00
0.000000000000000e+00 0.000000000000000e+00 0.000000000000000e+00
0.000000000000000e+00 0.000000000000000e+00 0.000000000000000e+00

0.000000000000000e+00 0.000000000000000e+00 0.000000000000000e+00
0.000000000000000e+00 0.000000000000000e+00 0.000000000000000e+00
0.000000000000000e+00 0.000000000000000e+00 0.000000000000000e+00

0.000000000000000e+00 0.000000000000000e+00 0.000000000000000e+00
0.000000000000000e+00 0.000000000000000e+00 0.000000000000000e+00
0.000000000000000e+00 0.000000000000000e+00 0.000000000000000e+00

 1.537401674704737e-17  6.272691103682695e-19 -1.133331663096419e+00
 6.272691103682695e-19  1.769688942034973e-17  2.601377200182680e-01
-1.133331663096419e+00  2.601377200182680e-01  1.379441892307297e-17

 1.915626960796484e-17  4.543485891247389e-20 -1.267272796677818e+00
 4.543485891247389e-20  2.723077036118900e-17  3.123146900114664e-02
-1.267272796677818e+00  3.123146900114664e-02  2.483297822875437e-17

 4.776096827558795e-18 -8.361270498992984e-19 -6.867881198375233e-01
-8.361270498992984e-19 -3.050172656634576e-18  8.764418226255823e-01
-6.867881198375233e-01  8.764418226255823e-01 -1.514287117953398e-17

 7.928707062098874e-18  2.987412763897039e-19 -8.371210929696465e-01
 2.987412763897039e-19  2.061613048179494e-18  6.964592541044538e-01
-8.371210929696465e-01  6.964592541044538e-01 -6.800780989946267e-18

 2.143142967563505e-17 -8.601746089508773e-19 -1.345777713305436e+00
-8.601746089508773e-19  2.658968727058072e-17  9.717921884707455e-02
-1.345777713305436e+00  9.717921884707455e-02  3.121219159930411e-17

 1.750798246250282e-17 -4.801321641840977e-20 -1.205914446027376e+00
-4.801321641840977e-20  2.136251678727939e-17  1.971089354541754e-01
-1.205914446027376e+00  1.971089354541754e-01  2.063516442378419e-17

 5.183111141324847e-18 -3.735334214138663e-19 -7.067024347784934e-01
-3.735334214138663e-19  2.462745559085575e-20  7.653709152355753e-01
-7.067024347784934e-01  7.653709152355753e-01 -1.518352960557039e-17

 1.013240765816772e-17  4.258812244698010e-21 -9.121664269411222e-01
 4.258812244698010e-21  7.838829258958033e-18  5.466547671475592e-01
-9.121664269411222e-01  5.466547671475592e-01 -9.153612192528401e-19

 2.037710026965707e-17 -1.731583358823937e-19 -1.318849761985309e+00
-1.731583358823937e-19  2.555838823383656e-17  9.613358978097071e-02
-1.318849761985309e+00  9.613358978097071e-02  2.927332160141785e-17

 1.450767250349602e-17  3.417750089479037e-20 -1.088427325217614e+00
 3.417750089479037e-20  1.525784848099099e-17  3.538961297603556e-01
-1.088427325217614e+00  3.538961297603556e-01  1.205783635307155e-17

 6.414780026211823e-18 -8.557226252085192e-20 -7.635031793829498e-01
-8.557226252085192e-20  2.256112786236547e-19  7.516501151954370e-01
-7.635031793829498e-01  7.516501151954370e-01 -1.198645749851361e-17

 1.041796889405586e-17  2.150859879443096e-19 -9.282192569757484e-01
 2.150859879443096e-19  7.964220974166567e-18  5.347144677606857e-01
-9.282192569757484e-01  5.347144677606857e-01 -3.947812374534297e-20

 1.821716309444760e-17 -3.406327333069717e-19 -1.225508462408211e+00
-3.406327333069717e-19  2.359438931832891e-17  1.486373582896981e-01
-1.225508462408211e+00  1.486373582896981e-01  2.314233641702797e-17

 1.717491414673216e-17  3.796371844136423e-19 -1.200548685154678e+00
 3.796371844136423e-19  2.133973101418297e-17  1.790657226118409e-01
-1.200548685154678e+00  1.790657226118409e-01  2.000156118474437e-17

 8.563173861230875e-18 -5.144441136111339e-19 -8.384045365682552e-01
-5.144441136111339e-19  4.008634640582704e-18  6.679337930294665e-01
-8.384045365682552e-01  6.679337930294665e-01 -5.613694473638663e-18

 8.212599711563266e-18  2.125157232515406e-20 -8.382824879250993e-01
 2.125157232515406e-20  2.357420062917617e-18  6.922488295246989e-01
-8.382824879250993e-01  6.922488295246989e-01 -6.913667002563783e-18

 1.611977978423186e-17 -4.640428677610821e-19 -1.141200527943285e+00
-4.640428677610821e-19  1.735230573686425e-17  3.190542164062873e-01
-1.141200527943285e+00  3.190542164062873e-01  1.682944539980505e-17

 1.584823298559417e-17 -3.067261897065607e-19 -1.130539082454127e+00
-3.067261897065607e-19  1.927062877807753e-17  2.587281255407823e-01
-1.130539082454127e+00  2.587281255407823e-01  1.655701367260825e-17

 1.154848264243651e-17 -1.529987462685415e-19 -9.606714287984897e-01
-1.529987462685415e-19  1.175413922840582e-17  4.441592844004593e-01
-9.606714287984897e-01  4.441592844004593e-01  3.512861975795401e-18

 1.131178038901554e-17 -1.377234417008628e-19 -9.524716258093939e-01
-1.377234417008628e-19  9.834615647542747e-18  4.945245936522283e-01
-9.524716258093939e-01  4.945245936522283e-01  2.505013286807343e-18

 1.303309843343372e-17 -7.665679785402363e-20 -1.023908336995935e+00
-7.665679785402363e-20  1.231412149780903e-17  4.299301844474022e-01
-1.023908336995935e+00  4.299301844474022e-01  7.728741675366733e-18

 1.315455123638901e-17 -5.443003765005017e-20 -1.029185009920544e+00
-5.443003765005017e-20  1.288743445467592e-17  4.145369830164549e-01
-1.029185009920544e+00  4.145369830164549e-01  8.143228064725367e-18

 1.294486979881910e-17 -4.559563722263707e-20 -1.020605767430652e+00
-4.559563722263707e-20  1.268283317309588e-17  4.191681442369521e-01
-1.020605767430652e+00  4.191681442369521e-01  7.516243316606721e-18

 1.281506900106210e-17 -4.482552778874261e-20 -1.015295837524503e+00
-4.482552778874261e-20  1.244174830884487e-17  4.249753334082009e-01
-1.015295837524503e+00  4.249753334082009e-01  7.113847985355975e-18

 1.278035236906691e-17 -4.616806236400279e-20 -1.013877303456816e+00
-4.616806236400279e-20  1.240299585974724e-17  4.258504848144402e-01
-1.013877303456816e+00  4.258504848144402e-01  7.016233876626906e-18

 1.290807005561505e-17 -4.565943180697171e-20 -1.019187976888054e+00
-4.565943180697171e-20  1.267712685680842e-17  4.187735295399825e-01
-1.019187976888054e+00  4.187735295399825e-01  7.439442374933252e-18

 1.291485998526197e-17 -4.448128829451293e-20 -1.019317163248926e+00
-4.448128829451293e-20  1.271091105313940e-17  4.177085015585648e-01
-1.019317163248926e+00  4.177085015585648e-01  7.465955867559181e-18

 1.280232887954768e-17 -4.470297445378234e-20 -1.014720413171370e+00
-4.470297445378234e-20  1.249134646554625e-17  4.231620670280810e-01
-1.014720413171370e+00  4.231620670280810e-01  7.113208093374851e-18

 1.280227636885280e-17 -4.555470566045202e-20 -1.014821940886759e+00
-4.555470566045202e-20  1.246020415434903e-17  4.239711386200119e-01
-1.014821940886759e+00  4.239711386200119e-01  7.112668870508306e-18

 1.286031442143748e-17 -4.553249613335024e-20 -1.017226866620733e+00
-4.553249613335024e-20  1.255745249130965e-17  4.214303571750741e-01
-1.017226866620733e+00  4.214303571750741e-01  7.296683678130557e-18

 1.285795084910846e-17 -4.484740140848375e-20 -1.017211097311138e+00
-4.484740140848375e-20  1.257103601697790e-17  4.210789506323986e-01
-1.017211097311138e+00  4.210789506323986e-01  7.298025263060204e-18

 1.283447329955441e-17 -4.529273546490724e-20 -1.016313612665569e+00
-4.529273546490724e-20  1.253364185319868e-17  4.218985259513927e-01
-1.016313612665569e+00  4.218985259513927e-01  7.230909324468364e-18

 1.283084376787305e-17 -4.530516174843735e-20 -1.016229773345180e+00
-4.530516174843735e-20  1.253126837666283e-17  4.219519111633731e-01
-1.016229773345180e+00  4.219519111633731e-01  7.225313058054393e-18

 1.284077353186051e-17 -4.526442548647799e-20 -1.016695350771527e+00
-4.526442548647799e-20  1.255219663125823e-17  4.213218115210867e-01
-1.016695350771527e+00  4.213218115210867e-01  7.262371746707412e-18

 1.284491062730546e-17 -4.512220845235251e-20 -1.016936631226546e+00
-4.512220845235251e-20  1.255989842517911e-17  4.210480786139326e-01
-1.016936631226546e+00  4.210480786139326e-01  7.280880127600815e-18

 1.283183220411538e-17 -4.448812403750623e-20 -1.016492606138953e+00
-4.448812403750623e-20  1.253405268208022e-17  4.217047618264398e-01
-1.016492606138953e+00  4.217047618264398e-01  7.245045812202727e-18

 1.282028915537280e-17 -4.494866287459336e-20 -1.016107496752431e+00
-4.494866287459336e-20  1.251442315578403e-17  4.221966229141766e-01
-1.016107496752431e+00  4.221966229141766e-01  7.214400013819466e-18

 1.282795683918411e-17 -4.489009676859421e-20 -1.016494824132746e+00
-4.489009676859421e-20  1.252962791193888e-17  4.216658695062288e-01
-1.016494824132746e+00  4.216658695062288e-01  7.245139097628650e-18

 1.283663966622104e-17 -4.474168633348595e-20 -1.016923456981618e+00
-4.474168633348595e-20  1.255521844118821e-17  4.210234156657501e-01
-1.016923456981618e+00  4.210234156657501e-01  7.279722469582442e-18

 1.282877357600148e-17 -4.456693279321210e-20 -1.016693115005113e+00
-4.456693279321210e-20  1.254159501123180e-17  4.212583160531453e-01
-1.016693115005113e+00  4.212583160531453e-01  7.262093394454462e-18

 1.281513326527303e-17 -4.445384445302325e-20 -1.016234596855171e+00
-4.445384445302325e-20  1.251629301528339e-17  4.218596391783107e-01
-1.016234596855171e+00  4.218596391783107e-01  7.225812246890257e-18

 1.281259840039572e-17 -4.437343400590865e-20 -1.016224767089843e+00
-4.437343400590865e-20  1.251384525604484e-17  4.218671811552705e-01
-1.016224767089843e+00  4.218671811552705e-01  7.224858797838911e-18

 1.281967687874450e-17 -4.425413146279883e-20 -1.016601254711926e+00
-4.425413146279883e-20  1.253628270506939e-17  4.213149604873946e-01
-1.016601254711926e+00  4.213149604873946e-01  7.254718431399891e-18

 1.282198831285806e-17 -4.408386303534290e-20 -1.016792496454484e+00
-4.408386303534290e-20  1.254515043095937e-17  4.210274137102530e-01
-1.016792496454484e+00  4.210274137102530e-01  7.269433982400955e-18

 1.281581419447823e-17 -4.392396066164636e-20 -1.016652384153939e+00
-4.392396066164636e-20  1.253333900719579e-17  4.213168581184204e-01
-1.016652384153939e+00  4.213168581184204e-01  7.256422609254642e-18

 1.280875820586793e-17 -4.380649749514201e-20 -1.016482172288975e+00
-4.380649749514201e-20  1.251177059115131e-17  4.217553101368274e-01
-1.016482172288975e+00  4.217553101368274e-01  7.240038218044157e-18

 1.280479634307076e-17 -4.369612118885824e-20 -1.016433172327303e+00
-4.369612118885824e-20  1.250352179028291e-17  4.219357506041868e-01
-1.016433172327303e+00  4.219357506041868e-01  7.234423871516828e-18

 1.280355018337773e-17 -4.358354422170453e-20 -1.016484305388951e+00
-4.358354422170453e-20  1.250952444746214e-17  4.217572325189496e-01
-1.016484305388951e+00  4.217572325189496e-01  7.239267277052369e-18

 1.280556132787883e-17 -4.345807637262549e-20 -1.016662956091638e+00
-4.345807637262549e-20  1.252380223485044e-17  4.213134090393033e-01
-1.016662956091638e+00  4.213134090393033e-01  7.255387565744581e-18

 1.280662914995441e-17 -4.328736421218621e-20 -1.016809000746188e+00
-4.328736421218621e-20  1.253213506305605e-17  4.210202702867883e-01
-1.016809000746188e+00  4.210202702867883e-01  7.267939101373986e-18

 1.279902664260666e-17 -4.311299669508180e-20 -1.016615974039385e+00
-4.311299669508180e-20  1.251899539846343e-17  4.213112594134720e-01
-1.016615974039385e+00  4.213112594134720e-01  7.252188346091064e-18

 1.278678402352126e-17 -4.298066041728318e-20 -1.016242370080354e+00
-4.298066041728318e-20  1.249644342230297e-17  4.218610893014045e-01
-1.016242370080354e+00  4.218610893014045e-01  7.221700950817550e-18

 1.278433121102599e-17 -4.287939133643294e-20 -1.016261962387156e+00
-4.287939133643294e-20  1.249273330079577e-17  4.218428197561235e-01
-1.016261962387156e+00  4.218428197561235e-01  7.222582127561793e-18

 1.279282310785641e-17 -4.273655951065320e-20 -1.016722878930700e+00
-4.273655951065320e-20  1.251440818689648e-17  4.212367150243828e-01
-1.016722878930700e+00  4.212367150243828e-01  7.258266267455132e-18

 1.279542005587359e-17 -4.253804398900625e-20 -1.016952332438099e+00
-4.253804398900625e-20  1.252118484517195e-17  4.209991841111661e-01
-1.016952332438099e+00  4.209991841111661e-01  7.275003614282781e-18

 1.278162798713849e-17 -4.236075116300903e-20 -1.016528429866238e+00
-4.236075116300903e-20  1.249549348182906e-17  4.216319674187082e-01
-1.016528429866238e+00  4.216319674187082e-01  7.240013648325982e-18

 1.276913041629085e-17 -4.226559518184311e-20 -1.016156283551409e+00
-4.226559518184311e-20  1.247252990187412e-17  4.221451786344002e-01
-1.016156283551409e+00  4.221451786344002e-01  7.209700905640467e-18

 1.277545138399890e-17 -4.216581232946560e-20 -1.016536194646277e+00
-4.216581232946560e-20  1.249148733988596e-17  4.216351388792101e-01
-1.016536194646277e+00  4.216351388792101e-01  7.239367234577277e-18

 1.278301101840934e-17 -4.197844315341637e-20 -1.016965484912184e+00
-4.197844315341637e-20  1.251170943242427e-17  4.210071830155419e-01
-1.016965484912184e+00  4.210071830155419e-01  7.273525441956952e-18

 1.277404451709658e-17 -4.177620497550013e-20 -1.016736072889448e+00
-4.177620497550013e-20  1.250217709045696e-17  4.212549353353719e-01
-1.016736072889448e+00  4.212549353353719e-01  7.255530888073195e-18

 1.275929836489423e-17 -4.163478910472680e-20 -1.016279638267137e+00
-4.163478910472680e-20  1.247315473307589e-17  4.218665634069389e-01
-1.016279638267137e+00  4.218665634069389e-01  7.218958875411207e-18

 1.275568970135945e-17 -4.152583204677486e-20 -1.016272312436422e+00
-4.152583204677486e-20  1.246875272409986e-17  4.218819460122576e-01
-1.016272312436422e+00  4.218819460122576e-01  7.217796817636902e-18

 1.276169342424347e-17 -4.137735603460719e-20 -1.016651013473957e+00
-4.137735603460719e-20  1.248834847806280e-17  4.213364878913379e-01
-1.016651013473957e+00  4.213364878913379e-01  7.247452491346366e-18

 1.276290035948888e-17 -4.118664757616067e-20 -1.016843100885080e+00
-4.118664757616067e-20  1.249512789083484e-17  4.210562687301732e-01
-1.016843100885080e+00  4.210562687301732e-01  7.261878652150494e-18

 1.275561980163426e-17 -4.100669098583192e-20 -1.016703642416766e+00
-4.100669098583192e-20  1.247992156276099e-17  4.213525437291102e-01
-1.016703642416766e+00  4.213525437291102e-01  7.248578835375877e-18

 1.274747195018214e-17 -4.086684949617648e-20 -1.016534592581442e+00
-4.086684949617648e-20  1.246184768503453e-17  4.217963887361216e-01
-1.016534592581442e+00  4.217963887361216e-01  7.231960351985510e-18

 1.274242013873013e-17 -4.073688038561952e-20 -1.016486753419161e+00
-4.073688038561952e-20  1.245238538928885e-17  4.219814009832184e-01
-1.016486753419161e+00  4.219814009832184e-01  7.226126111381404e-18

 1.274007691016682e-17 -4.060522769718785e-20 -1.016538749097493e+00
-4.060522769718785e-20  1.245571140796337e-17  4.218072583124645e-01
-1.016538749097493e+00  4.218072583124645e-01  7.230735618800682e-18

 1.274098568838171e-17 -4.045937463978202e-20 -1.016717994716403e+00
-4.045937463978202e-20  1.246790664578017e-17  4.213677909141739e-01
-1.016717994716403e+00  4.213677909141739e-01  7.246610223245552e-18

 1.274094498611844e-17 -4.027085781937930e-20 -1.016864408172123e+00
-4.027085781937930e-20  1.247833065429639e-17  4.210788039200080e-01
-1.016864408172123e+00  4.210788039200080e-01  7.258905890187500e-18

 1.273222763241723e-17 -4.007167723741292e-20 -1.016671588593316e+00
-4.007167723741292e-20  1.246221135167887e-17  4.213735608647092e-01
-1.016671588593316e+00  4.213735608647092e-01  7.242892807147015e-18

 1.271888293149962e-17 -3.992424234717493e-20 -1.016298703383219e+00
-3.992424234717493e-20  1.243926206454725e-17  4.219260461269136e-01
-1.016298703383219e+00  4.219260461269136e-01  7.212189668073571e-18

 1.271534144951702e-17 -3.980876783236640e-20 -1.016319634416847e+00
-3.980876783236640e-20  1.243922313951839e-17  4.219095033755890e-01
-1.016319634416847e+00  4.219095033755890e-01  7.212906514349730e-18

 1.272271508199907e-17 -3.964747104072770e-20 -1.016780763942857e+00
-3.964747104072770e-20  1.245588497359640e-17  4.213064143830596e-01
-1.016780763942857e+00  4.213064143830596e-01  7.248341184323808e-18

 1.272416373076864e-17 -3.943117937329148e-20 -1.017009324358614e+00
-3.943117937329148e-20  1.246412063769617e-17  4.210729555811441e-01
-1.017009324358614e+00  4.210729555811441e-01  7.264744896249213e-18

 1.270925491142877e-17 -3.923297982562621e-20 -1.016585887940276e+00
-3.923297982562621e-20  1.243555361631340e-17  4.217078496390592e-01
-1.016585887940276e+00  4.217078496390592e-01  7.229530109454291e-18

 1.269566825324424e-17 -3.912018708308202e-20 -1.016215422933052e+00
-3.912018708308202e-20  1.240768356732036e-17  4.222213683838816e-01
-1.016215422933052e+00  4.222213683838816e-01  7.199090833358169e-18

 1.270086443897065e-17 -3.900550440640242e-20 -1.016595667484922e+00
-3.900550440640242e-20  1.242752996270017e-17  4.217130558951294e-01
-1.016595667484922e+00  4.217130558951294e-01  7.228528249924362e-18

 1.270726488744663e-17 -3.880418882844620e-20 -1.017024084582333e+00
-3.880418882844620e-20  1.244690168562211e-17  4.210883503963638e-01
-1.017024084582333e+00  4.210883503963638e-01  7.262360911054655e-18

 1.269715828714958e-17 -3.858253418752967e-20 -1.016794676512762e+00
-3.858253418752967e-20  1.243589759935166e-17  4.213382002821234e-01
-1.016794676512762e+00  4.213382002821234e-01  7.244109652334323e-18

 1.268129671260451e-17 -3.842019462510730e-20 -1.016339378139310e+00
-3.842019462510730e-20  1.240890166086313e-17  4.219502203179550e-01
-1.016339378139310e+00  4.219502203179550e-01  7.207371290492290e-18

 1.267655730736472e-17 -3.829584400021158e-20 -1.016332701851326e+00
-3.829584400021158e-20  1.240400458717129e-17  4.219663745733006e-01
-1.016332701851326e+00  4.219663745733006e-01  7.206006269525531e-18

 1.268139983339874e-17 -3.813008357628129e-20 -1.016710999062240e+00
-3.813008357628129e-20  1.241922251877080e-17  4.214229968957838e-01
-1.016710999062240e+00  4.214229968957838e-01  7.235374950018686e-18

 1.268144396103929e-17 -3.791766439665006e-20 -1.016902767750726e+00
-3.791766439665006e-20  1.242999908172562e-17  4.211447328950857e-01
-1.016902767750726e+00  4.211447328950857e-01  7.249520036209621e-18

 1.267302101511898e-17 -3.771982708362923e-20 -1.016763995952373e+00
-3.771982708362923e-20  1.241497579253654e-17  4.214416094671207e-01
-1.016763995952373e+00  4.214416094671207e-01  7.236016308557745e-18

 1.266372992761449e-17 -3.756532253209770e-20 -1.016595775760545e+00
-3.756532253209770e-20  1.239375612193572e-17  4.218858490297916e-01
-1.016595775760545e+00  4.218858490297916e-01  7.219203606890743e-18

 1.265750745693422e-17 -3.741300550287613e-20 -1.016547807817730e+00
-3.741300550287613e-20  1.238547347453354e-17  4.220723396435583e-01
-1.016547807817730e+00  4.220723396435583e-01  7.213100071880626e-18

 1.265398327594334e-17 -3.726182622312992e-20 -1.016599463220988e+00
-3.726182622312992e-20  1.238608235783202e-17  4.218998684318680e-01
-1.016599463220988e+00  4.218998684318680e-01  7.217422770286252e-18

 1.265372627215063e-17 -3.709467418306969e-20 -1.016779139986841e+00
-3.709467418306969e-20  1.240085832543562e-17  4.214610686860623e-01
-1.016779139986841e+00  4.214610686860623e-01  7.233070559227424e-18

 1.265251317220994e-17 -3.688946645514133e-20 -1.016925940314236e+00
-3.688946645514133e-20  1.240744579476831e-17  4.211725741848795e-01
-1.016925940314236e+00  4.211725741848795e-01  7.245134975186895e-18

 1.264260535908842e-17 -3.667358160052312e-20 -1.016732985955317e+00
-3.667358160052312e-20  1.238924749368831e-17  4.214682894924558e-01
-1.016732985955317e+00  4.214682894924558e-01  7.228849090843537e-18

 1.262808114212521e-17 -3.650337983378475e-20 -1.016360585468108e+00
-3.650337983378475e-20  1.236800092712430e-17  4.220211419153067e-01
-1.016360585468108e+00  4.220211419153067e-01  7.197918877844101e-18

 1.262334645785249e-17 -3.636684993423891e-20 -1.016381685450114e+00
-3.636684993423891e-20  1.236180533281288e-17  4.220054103990186e-01
-1.016381685450114e+00  4.220054103990186e-01  7.198380384338078e-18

 1.262949813479069e-17 -3.618723105432558e-20 -1.016842038901780e+00
-3.618723105432558e-20  1.238382347573143e-17  4.214039811790848e-01
-1.016842038901780e+00  4.214039811790848e-01  7.233485325703457e-18

 1.262976857161172e-17 -3.594836958897621e-20 -1.017071824434220e+00
-3.594836958897621e-20  1.238646304175824e-17  4.211700984986030e-01
-1.017071824434220e+00  4.211700984986030e-01  7.249709609316791e-18

 1.261368755826317e-17 -3.573350623498978e-20 -1.016650106801066e+00
-3.573350623498978e-20  1.235946063536005e-17  4.218045083712237e-01
-1.016650106801066e+00  4.218045083712237e-01  7.214346825843810e-18

 1.259882878470380e-17 -3.560556579911047e-20 -1.016277559580872e+00
-3.560556579911047e-20  1.233370981194607e-17  4.223216921743652e-01
-1.016277559580872e+00  4.223216921743652e-01  7.183465239662418e-18

 1.260274761780080e-17 -3.546110588148104e-20 -1.016655735520747e+00
-3.546110588148104e-20  1.235077940610291e-17  4.218161149876333e-01
-1.016655735520747e+00  4.218161149876333e-01  7.212467951071530e-18

 1.260798273019324e-17 -3.523589944403768e-20 -1.017086750322650e+00
-3.523589944403768e-20  1.236976069854592e-17  4.211879688723271e-01
-1.017086750322650e+00  4.211879688723271e-01  7.246234412765603e-18

 1.259671599154654e-17 -3.499693802288479e-20 -1.016860472802573e+00
-3.499693802288479e-20  1.235975068901214e-17  4.214341360928520e-01
-1.016860472802573e+00  4.214341360928520e-01  7.227949666068541e-18

 1.257956690680078e-17 -3.481139553901560e-20 -1.016403476852341e+00
-3.481139553901560e-20  1.232809479213989e-17  4.220494179280672e-01
-1.016403476852341e+00  4.220494179280672e-01  7.190786627153796e-18

 1.257349010079549e-17 -3.466082719974587e-20 -1.016393443433192e+00
-3.466082719974587e-20  1.232333925235554e-17  4.220713779050601e-01
-1.016393443433192e+00  4.220713779050601e-01  7.188856343592050e-18

 1.257710401498849e-17 -3.447610942143197e-20 -1.016773000506462e+00
-3.447610942143197e-20  1.234132019806155e-17  4.215278808122780e-01
-1.016773000506462e+00  4.215278808122780e-01  7.218020847407672e-18

 1.257596452627291e-17 -3.424318708297270e-20 -1.016968023256677e+00
-3.424318708297270e-20  1.234377857649069e-17  4.212460831703486e-01
-1.016968023256677e+00  4.212460831703486e-01  7.232125724653509e-18

 1.256625649331880e-17 -3.402207927480359e-20 -1.016828732480726e+00
-3.402207927480359e-20  1.233336091920775e-17  4.215433059757991e-01
-1.016828732480726e+00  4.215433059757991e-01  7.218290867115283e-18

 1.255564810195565e-17 -3.383858445172411e-20 -1.016658984572908e+00
-3.383858445172411e-20  1.231098296788414e-17  4.219896681904040e-01
-1.016658984572908e+00  4.219896681904040e-01  7.201060775939386e-18

 1.254815465798765e-17 -3.366649997149668e-20 -1.016611735788500e+00
-3.366649997149668e-20  1.229602748576127e-17  4.221763077744800e-01
-1.016611735788500e+00  4.221763077744800e-01  7.194702544451656e-18

 1.254334374385264e-17 -3.349554563332501e-20 -1.016663737440030e+00
-3.349554563332501e-20  1.230176139369164e-17  4.220042337083192e-01
-1.016663737440030e+00  4.220042337083192e-01  7.198739889499017e-18

 1.254176963371262e-17 -3.330210456029126e-20 -1.016842878893526e+00
-3.330210456029126e-20  1.231301787606764e-17  4.215664355441271e-01
-1.016842878893526e+00  4.215664355441271e-01  7.214033288767936e-18

 1.253926263237551e-17 -3.307434816102122e-20 -1.016990366958829e+00
-3.307434816102122e-20  1.232307528992633e-17  4.212776101356609e-01
-1.016990366958829e+00  4.212776101356609e-01  7.225834664323557e-18

 1.252806115160703e-17 -3.282792908077721e-20 -1.016798481950172e+00
-3.282792908077721e-20  1.230398833586312e-17  4.215728214621486e-01
-1.016798481950172e+00  4.215728214621486e-01  7.209307648740332e-18

 1.251218829567014e-17 -3.263678068335688e-20 -1.016425271957913e+00
-3.263678068335688e-20  1.228007276349710e-17  4.221273968312295e-01
-1.016425271957913e+00  4.221273968312295e-01  7.177985915190688e-18

 1.250610140999105e-17 -3.247437618600887e-20 -1.016445745631022e+00
-3.247437618600887e-20  1.227250529160131e-17  4.221130593573209e-01
-1.016445745631022e+00  4.221130593573209e-01  7.178068398655580e-18

 1.251093980430659e-17 -3.226531847832658e-20 -1.016907438172300e+00
-3.226531847832658e-20  1.229386363195079e-17  4.215106491241220e-01
-1.016907438172300e+00  4.215106491241220e-01  7.212942972121443e-18

 1.250985028550658e-17 -3.200186245306764e-20 -1.017137020022892e+00
-3.200186245306764e-20  1.229572974280063e-17  4.212771446726947e-01
-1.017137020022892e+00  4.212771446726947e-01  7.228817149631374e-18

 1.249237439126805e-17 -3.176017046855069e-20 -1.016714061226170e+00
-3.176017046855069e-20  1.226603016922646e-17  4.219127763273417e-01
-1.016714061226170e+00  4.219127763273417e-01  7.193021335772742e-18

 1.247619117779635e-17 -3.160211485342437e-20 -1.016343490489406e+00
-3.160211485342437e-20  1.224413640396253e-17  4.224279409471747e-01
-1.016343490489406e+00  4.224279409471747e-01  7.161947156652870e-18

 1.247877090973856e-17 -3.143591086781473e-20 -1.016723459281051e+00
-3.143591086781473e-20  1.225975920281240e-17  4.219214503295471e-01
-1.016723459281051e+00  4.219214503295471e-01  7.190729640010523e-18

 1.248254830801131e-17 -3.118136753872490e-20 -1.017152003996270e+00
-3.118136753872490e-20  1.227806591415556e-17  4.212976954544639e-01
-1.017152003996270e+00  4.212976954544639e-01  7.223933550927149e-18

 1.246982990617658e-17 -3.091119735939554e-20 -1.016923847283386e+00
-3.091119735939554e-20  1.226599068538278e-17  4.215470736212493e-01
-1.016923847283386e+00  4.215470736212493e-01  7.205133546219871e-18

 1.245133352703908e-17 -3.070171755770736e-20 -1.016469561295867e+00
-3.070171755770736e-20  1.223201224275223e-17  4.221591601960380e-01
-1.016469561295867e+00  4.221591601960380e-01  7.167817287835537e-18

 1.244389144735075e-17 -3.052208968750833e-20 -1.016461877539425e+00
-3.052208968750833e-20  1.222858426754546e-17  4.221778472189039e-01
-1.016461877539425e+00  4.221778472189039e-01  7.165707898082278e-18

 1.244602377046265e-17 -3.030709371878601e-20 -1.016839567516900e+00
-3.030709371878601e-20  1.224349434003091e-17  4.216364052429441e-01
-1.016839567516900e+00  4.216364052429441e-01  7.194356234847702e-18

 1.244339856717933e-17 -3.004307113156497e-20 -1.017033118642690e+00
-3.004307113156497e-20  1.225218178611623e-17  4.213571695261308e-01
-1.017033118642690e+00  4.213571695261308e-01  7.207958227721067e-18

 1.243226634251747e-17 -2.979476950583750e-20 -1.016895269198253e+00
-2.979476950583750e-20  1.223705873447259e-17  4.216539874287104e-01
-1.016895269198253e+00  4.216539874287104e-01  7.193836382612522e-18

 1.242019501612725e-17 -2.958177487082771e-20 -1.016725894956367e+00
-2.958177487082771e-20  1.221620230921160e-17  4.221005372245270e-01
-1.016725894956367e+00  4.221005372245270e-01  7.176235015233174e-18

 1.241120009623429e-17 -2.937861282890943e-20 -1.016677906574609e+00
-2.937861282890943e-20  1.220351557330422e-17  4.222881530430974e-01
-1.016677906574609e+00  4.222881530430974e-01  7.169419549515832e-18

 1.240491936554321e-17 -2.917333887599898e-20 -1.016730955627207e+00
-2.917333887599898e-20  1.220605797304929e-17  4.221151117776817e-01
-1.016730955627207e+00  4.221151117776817e-01  7.173130870157984e-18

 1.240185843331075e-17 -2.895006148684695e-20 -1.016910965626971e+00
-2.895006148684695e-20  1.221492507555590e-17  4.216768450577659e-01
-1.016910965626971e+00  4.216768450577659e-01  7.188075021361847e-18

 1.239780252212834e-17 -2.868503806331234e-20 -1.017057367354040e+00
-2.868503806331234e-20  1.222305090201367e-17  4.213898768516877e-01
-1.017057367354040e+00  4.213898768516877e-01  7.199367683700030e-18

 1.238505407197814e-17 -2.840998291023200e-20 -1.016864995793208e+00
-2.840998291023200e-20  1.220603405816479e-17  4.216862138660939e-01
-1.016864995793208e+00  4.216862138660939e-01  7.182372481338218e-18

 1.236766412897707e-17 -2.818911707637490e-20 -1.016493098330632e+00
-2.818911707637490e-20  1.217819233961993e-17  4.222397228551044e-01
-1.016493098330632e+00  4.222397228551044e-01  7.150714775481318e-18

 1.236002666440867e-17 -2.798809276216439e-20 -1.016514085985906e+00
-2.798809276216439e-20  1.217530484465038e-17  4.222250696128758e-01
-1.016514085985906e+00  4.222250696128758e-01  7.150393590958602e-18

 1.236327171605970e-17 -2.774696738291647e-20 -1.016975090204397e+00
-2.774696738291647e-20  1.219283546095680e-17  4.216238156727232e-01
-1.016975090204397e+00  4.216238156727232e-01  7.184765057458883e-18

 1.236059524244952e-17 -2.745329338509068e-20 -1.017204862632483e+00
-2.745329338509068e-20  1.219913516254447e-17  4.213906626293832e-01
-1.017204862632483e+00  4.213906626293832e-01  7.200194037680968e-18

 1.234152319475623e-17 -2.717568524562246e-20 -1.016782351746048e+00
-2.717568524562246e-20  1.216984685243127e-17  4.220263257789795e-01
-1.016782351746048e+00  4.220263257789795e-01  7.163964627401609e-18

 1.232371080379603e-17 -2.698278528164193e-20 -1.016411541774748e+00
-2.698278528164193e-20  1.214262721305323e-17  4.225421697962318e-01
-1.016411541774748e+00  4.225421697962318e-01  7.132395778914038e-18

 1.232465997936544e-17 -2.677897711616271e-20 -1.016791828008982e+00
-2.677897711616271e-20  1.215834470182470e-17  4.220356512077827e-01
-1.016791828008982e+00  4.220356512077827e-01  7.160719703226372e-18

 1.232680159514563e-17 -2.648775325626441e-20 -1.017221103183382e+00
-2.648775325626441e-20  1.217645631215887e-17  4.214115350852087e-01
-1.017221103183382e+00  4.214115350852087e-01  7.193488658863880e-18

 1.231240371640700e-17 -2.618338397952504e-20 -1.016992608775040e+00
-2.618338397952504e-20  1.216486240414641e-17  4.216618051536054e-01
-1.016992608775040e+00  4.216618051536054e-01  7.174160822756768e-18

 1.229220503934282e-17 -2.593264776205222e-20 -1.016537772678545e+00
-2.593264776205222e-20  1.213229720846850e-17  4.222749795122319e-01
-1.016537772678545e+00  4.222749795122319e-01  7.136291058445333e-18

 1.228307724638811e-17 -2.572045505545304e-20 -1.016530885593492e+00
-2.572045505545304e-20  1.212854700808336e-17  4.222931136677311e-01
-1.016530885593492e+00  4.222931136677311e-01  7.133724691762045e-18

 1.228350889557349e-17 -2.546552489929042e-20 -1.016909485347919e+00
-2.546552489929042e-20  1.214554967276473e-17  4.217510201521267e-01
-1.016909485347919e+00  4.217510201521267e-01  7.161915247579816e-18

 1.227912645392874e-17 -2.516175761654801e-20 -1.017102414607138e+00
-2.516175761654801e-20  1.215112775075551e-17  4.214729835640184e-01
-1.017102414607138e+00  4.214729835640184e-01  7.174929854721061e-18

 1.226621722607140e-17 -2.487596268531854e-20 -1.016963911595404e+00
-2.487596268531854e-20  1.213526532883313e-17  4.217710275370189e-01
-1.016963911595404e+00  4.217710275370189e-01  7.160207833475952e-18

 1.225239108671190e-17 -2.462340377093500e-20 -1.016795551108864e+00
-2.462340377093500e-20  1.211345966851595e-17  4.222168149275248e-01
-1.016795551108864e+00  4.222168149275248e-01  7.142125737649094e-18

 1.224162091213542e-17 -2.438642861497743e-20 -1.016748541442555e+00
-2.438642861497743e-20  1.210176528617327e-17  4.224037260706776e-01
-1.016748541442555e+00  4.224037260706776e-01  7.134816189360113e-18

 1.223350259867315e-17 -2.413618049437821e-20 -1.016800873300690e+00
-2.413618049437821e-20  1.210149419010925e-17  4.222320248341199e-01
-1.016800873300690e+00  4.222320248341199e-01  7.137890442327156e-18

 1.222858395472874e-17 -2.387143879612163e-20 -1.016980182416608e+00
-2.387143879612163e-20  1.211441368964304e-17  4.217950555661948e-01
-1.016980182416608e+00  4.217950555661948e-01  7.152188118505270e-18

 1.222268736040663e-17 -2.356719612887219e-20 -1.017127417228781e+00
-2.356719612887219e-20  1.212103248137508e-17  4.215074231284275e-01
-1.017127417228781e+00  4.215074231284275e-01  7.162943535904098e-18

 1.220807995154585e-17 -2.325088893472450e-20 -1.016936027788802e+00
-2.325088893472450e-20  1.210209397410427e-17  4.218028576058822e-01
-1.016936027788802e+00  4.218028576058822e-01  7.145410909717978e-18

 1.218877875982328e-17 -2.298135957829700e-20 -1.016563923586713e+00
-2.298135957829700e-20  1.207440786855463e-17  4.223570801659907e-01
-1.016563923586713e+00  4.223570801659907e-01  7.113108821375837e-18

 1.217919738154200e-17 -2.274243685416734e-20 -1.016584307062846e+00
-2.274243685416734e-20  1.206998659337730e-17  4.223438070726505e-01
-1.016584307062846e+00  4.223438070726505e-01  7.112098206780846e-18

 1.218049439947765e-17 -2.246103938223184e-20 -1.017045472878797e+00
-2.246103938223184e-20  1.209055678166447e-17  4.217429089831737e-01
-1.017045472878797e+00  4.217429089831737e-01  7.145828418628947e-18

 1.217586032010944e-17 -2.211508880047190e-20 -1.017275990356689e+00
-2.211508880047190e-20  1.209675324289874e-17  4.215091891026770e-01
-1.017275990356689e+00  4.215091891026770e-01  7.160650510148294e-18

 1.215479468724938e-17 -2.179465265652914e-20 -1.016853776653790e+00
-2.179465265652914e-20  1.206289524700339e-17  4.221447503217698e-01
-1.016853776653790e+00  4.221447503217698e-01  7.123766096196061e-18

 1.213495055521598e-17 -2.155809337715863e-20 -1.016482748329643e+00
-2.155809337715863e-20  1.204168468804182e-17  4.226612219269144e-01
-1.016482748329643e+00  4.226612219269144e-01  7.091487135159166e-18

 1.213385079111334e-17 -2.130802793471485e-20 -1.016863161152789e+00
-2.130802793471485e-20  1.205628208071318e-17  4.221551004124638e-01
-1.016863161152789e+00  4.221551004124638e-01  7.119112240582145e-18

 1.213391857365766e-17 -2.097157789571867e-20 -1.017292631038836e+00
-2.097157789571867e-20  1.207495106209616e-17  4.215312835070569e-01
-1.017292631038836e+00  4.215312835070569e-01  7.151173058242793e-18

 1.211741150681989e-17 -2.061597993227192e-20 -1.017064017465540e+00
-2.061597993227192e-20  1.205927612165590e-17  4.217820397728506e-01
-1.017064017465540e+00  4.217820397728506e-01  7.131098700401191e-18

 1.209509035977687e-17 -2.032353719165874e-20 -1.016609656166699e+00
-2.032353719165874e-20  1.202999464059984e-17  4.223950074354396e-01
-1.016609656166699e+00  4.223950074354396e-01  7.092512929726950e-18

 1.208381539996824e-17 -2.006276860937227e-20 -1.016603404013273e+00
-2.006276860937227e-20  1.202688514435617e-17  4.224128804468821e-01
-1.016603404013273e+00  4.224128804468821e-01  7.089226181219939e-18

 1.208204230849419e-17 -1.975488366826683e-20 -1.016981504288264e+00
-1.975488366826683e-20  1.204106261717996e-17  4.218718323425192e-01
-1.016981504288264e+00  4.218718323425192e-01  7.116592091741105e-18

 1.207542743833144e-17 -1.940321060627573e-20 -1.017174039185595e+00
-1.940321060627573e-20  1.204583730044909e-17  4.215946315871896e-01
-1.017174039185595e+00  4.215946315871896e-01  7.128773979388179e-18

 1.206028983787147e-17 -1.906385579269285e-20 -1.017036564481341e+00
-1.906385579269285e-20  1.203185708747273e-17  4.218918644163128e-01
-1.017036564481341e+00  4.218918644163128e-01  7.113312103671993e-18

 1.204419326032646e-17 -1.876517861431627e-20 -1.016868825076909e+00
-1.876517861431627e-20  1.200599464516499e-17  4.223373554050038e-01
-1.016868825076909e+00  4.223373554050038e-01  7.094440237892704e-18

 1.203108126283889e-17 -1.847048231108740e-20 -1.016820879750455e+00
-1.847048231108740e-20  1.199978584326829e-17  4.225257460708675e-01
-1.016820879750455e+00  4.225257460708675e-01  7.086202036660294e-18

 1.202060700253825e-17 -1.817426123721733e-20 -1.016873046858509e+00
-1.817426123721733e-20  1.199963955206859e-17  4.223545978921340e-01
-1.016873046858509e+00  4.223545978921340e-01  7.088389055395148e-18

 1.201333728793375e-17 -1.785016765030810e-20 -1.017053772798291e+00
-1.785016765030810e-20  1.200801653137417e-17  4.219163996518471e-01
-1.017053772798291e+00  4.219163996518471e-01  7.101902586157475e-18

 1.200502413453855e-17 -1.749451421576857e-20 -1.017201219637353e+00
-1.749451421576857e-20  1.201773674488178e-17  4.216289755840979e-01
-1.017201219637353e+00  4.216289755840979e-01  7.111759734957079e-18

 1.198792770005354e-17 -1.712612876689359e-20 -1.017008600825201e+00
-1.712612876689359e-20  1.199735792289605e-17  4.219262737322354e-01
-1.017008600825201e+00  4.219262737322354e-01  7.093196196398822e-18

 1.196613967353076e-17 -1.680518620169498e-20 -1.016636858546993e+00
-1.680518620169498e-20  1.197756315881533e-17  4.224804943050052e-01
-1.016636858546993e+00  4.224804943050052e-01  7.059965866036082e-18

 1.195406068022906e-17 -1.650927415209398e-20 -1.016658701900207e+00
-1.650927415209398e-20  1.197045975581188e-17  4.224658810537172e-01
-1.016658701900207e+00  4.224658810537172e-01  7.058091490483997e-18

 1.195277629146644e-17 -1.616641960875375e-20 -1.017119532588717e+00
-1.616641960875375e-20  1.199207488053454e-17  4.218656616023582e-01
-1.017119532588717e+00  4.218656616023582e-01  7.090796958343641e-18

 1.194550495412457e-17 -1.576771588026699e-20 -1.017349103409241e+00
-1.576771588026699e-20  1.199721388125781e-17  4.216334120726668e-01
-1.017349103409241e+00  4.216334120726668e-01  7.104522804768744e-18

 1.192180399834849e-17 -1.539342727246438e-20 -1.016927708629360e+00
-1.539342727246438e-20  1.196685041768137e-17  4.222685042364569e-01
-1.016927708629360e+00  4.222685042364569e-01  7.066654158582573e-18

 1.189928413651563e-17 -1.509572521785450e-20 -1.016557588161871e+00
-1.509572521785450e-20  1.194305787356354e-17  4.227843407712271e-01
-1.016557588161871e+00  4.227843407712271e-01  7.033374012285746e-18

 1.189542792209567e-17 -1.478914857454621e-20 -1.016937406026023e+00
-1.478914857454621e-20  1.195887629453660e-17  4.222792571075577e-01
-1.016937406026023e+00  4.222792571075577e-01  7.059857253657179e-18

 1.189270234658443e-17 -1.439076637828532e-20 -1.017366610036459e+00
-1.439076637828532e-20  1.197987016223906e-17  4.216561711447233e-01
-1.017366610036459e+00  4.216561711447233e-01  7.090775542208207e-18

 1.187338050523161e-17 -1.397926148381780e-20 -1.017138740803636e+00
-1.397926148381780e-20  1.196327966845391e-17  4.219064682587592e-01
-1.017138740803636e+00  4.219064682587592e-01  7.069610441905114e-18

 1.184818511256462e-17 -1.362455740940751e-20 -1.016684651992218e+00
-1.362455740940751e-20  1.193440882352846e-17  4.225194028096434e-01
-1.016684651992218e+00  4.225194028096434e-01  7.029870816566482e-18

 1.183397518274992e-17 -1.330077497327025e-20 -1.016678187896013e+00
-1.330077497327025e-20  1.192667447386099e-17  4.225378366114063e-01
-1.016678187896013e+00  4.225378366114063e-01  7.025364495289526e-18

 1.182922356467238e-17 -1.293478412063617e-20 -1.017056339240640e+00
-1.293478412063617e-20  1.194918270017874e-17  4.219970994915509e-01
-1.017056339240640e+00  4.219970994915509e-01  7.051501987597149e-18

 1.181958541964164e-17 -1.251937414302582e-20 -1.017249211559008e+00
-1.251937414302582e-20  1.195261606085145e-17  4.217198759022687e-01
-1.017249211559008e+00  4.217198759022687e-01  7.062447532036132e-18

 1.180137043845159e-17 -1.211785032141460e-20 -1.017112050062770e+00
-1.211785032141460e-20  1.194108315588960e-17  4.220171735604356e-01
-1.017112050062770e+00  4.220171735604356e-01  7.045715809830258e-18

 1.178212942319149e-17 -1.175785347518751e-20 -1.016944127414599e+00
-1.175785347518751e-20  1.191766244390746e-17  4.224632756117397e-01
-1.016944127414599e+00  4.224632756117397e-01  7.025504080820477e-18

 1.176582106046408e-17 -1.140076885442930e-20 -1.016896160836502e+00
-1.140076885442930e-20  1.190909706064501e-17  4.226520070842185e-01
-1.016896160836502e+00  4.226520070842185e-01  7.015907000668761e-18

 1.175211006204321e-17 -1.103558023614655e-20 -1.016948999283276e+00
-1.103558023614655e-20  1.190810610397377e-17  4.224804112987095e-01
-1.016948999283276e+00  4.224804112987095e-01  7.016755602518134e-18

 1.174153148014891e-17 -1.065344725169724e-20 -1.017129878407762e+00
-1.065344725169724e-20  1.192369335182458e-17  4.220423700804127e-01
-1.017129878407762e+00  4.220423700804127e-01  7.028856046535984e-18

 1.172983424863825e-17 -1.022286686672366e-20 -1.017276922991993e+00
-1.022286686672366e-20  1.192904021329372e-17  4.217557755564619e-01
-1.017276922991993e+00  4.217557755564619e-01  7.037221085648698e-18

 1.170930360682045e-17 -9.792364164864519e-21 -1.017084424935697e+00
-9.792364164864519e-21  1.191605927002304e-17  4.220532930296693e-01
-1.017084424935697e+00  4.220532930296693e-01  7.017169245432133e-18

 1.168402304655438e-17 -9.404231226334817e-21 -1.016713063941305e+00
-9.404231226334817e-21  1.189075540843801e-17  4.226072791338024e-01
-1.016713063941305e+00  4.226072791338024e-01  6.982434192925765e-18

 1.166838262069367e-17 -9.041175345845144e-21 -1.016735187895837e+00
-9.041175345845144e-21  1.189100532113666e-17  4.225925240625125e-01
-1.016735187895837e+00  4.225925240625125e-01  6.979008648780348e-18

 1.166346553820029e-17 -8.627771412900058e-21 -1.017196190573707e+00
-8.627771412900058e-21  1.191102577901283e-17  4.219924814340166e-01
-1.017196190573707e+00  4.219924814340166e-01  7.010112701529043e-18

 1.165248269876473e-17 -8.159374736641116e-21 -1.017425616088098e+00
-8.159374736641116e-21  1.191245036793371e-17  4.217609109868342e-01
-1.017425616088098e+00  4.217609109868342e-01  7.022169574487983e-18

 1.162499656600259e-17 -7.720182150966442e-21 -1.017004047934250e+00
-7.720182150966442e-21  1.188861167164758e-17  4.223966239157330e-01
-1.017004047934250e+00  4.223966239157330e-01  6.982587631564300e-18

 1.159862879758056e-17 -7.356204002007266e-21 -1.016634228711472e+00
-7.356204002007266e-21  1.186534669622997e-17  4.229122937782984e-01
-1.016634228711472e+00  4.229122937782984e-01  6.947589498697379e-18

 1.159085562945197e-17 -6.974789399239808e-21 -1.017014648214402e+00
-6.974789399239808e-21  1.188222227085459e-17  4.224065937438324e-01
-1.017014648214402e+00  4.224065937438324e-01  6.972334303924844e-18

 1.158412219738105e-17 -6.505892990228079e-21 -1.017443991704241e+00
-6.505892990228079e-21  1.190289729052416e-17  4.217835817169817e-01
-1.017443991704241e+00  4.217835817169817e-01  7.001430099426426e-18

 1.156069624386680e-17 -6.019773910723536e-21 -1.017215704418250e+00
-6.019773910723536e-21  1.189446609229586e-17  4.220347858597734e-01
-1.017215704418250e+00  4.220347858597734e-01  6.978348703060033e-18

 1.153131915607093e-17 -5.598517019110410e-21 -1.016761468986415e+00
-5.598517019110410e-21  1.186200587991710e-17  4.226482719814215e-01
-1.016761468986415e+00  4.226482719814215e-01  6.936664186928071e-18

 1.151285670362597e-17 -5.202434600589802e-21 -1.016755483586161e+00
-5.202434600589802e-21  1.186403601969916e-17  4.226663162915414e-01
-1.016755483586161e+00  4.226663162915414e-01  6.930212416481807e-18

 1.150376613662365e-17 -4.764573101190244e-21 -1.017134220381826e+00
-4.764573101190244e-21  1.187873470151489e-17  4.221250222389309e-01
-1.017134220381826e+00  4.221250222389309e-01  6.954360462093615e-18

 1.148968209665398e-17 -4.275308213776171e-21 -1.017327097382491e+00
-4.275308213776171e-21  1.188889687318473e-17  4.218481135608224e-01
-1.017327097382491e+00  4.218481135608224e-01  6.963214885561254e-18

 1.146691134976059e-17 -3.802764659805712e-21 -1.017189358393914e+00
-3.802764659805712e-21  1.187621812724286e-17  4.221464713618601e-01
-1.017189358393914e+00  4.221464713618601e-01  6.944289484405239e-18

 1.144302940675983e-17 -3.372153892226724e-21 -1.017021368891707e+00
-3.372153892226724e-21  1.185798284268705e-17  4.225928502690761e-01
-1.017021368891707e+00  4.225928502690761e-01  6.921867182450374e-18

 1.142200410314219e-17 -2.942233988881530e-21 -1.016974325066904e+00
-2.942233988881530e-21  1.184464074116794e-17  4.227805736498024e-01
-1.016974325066904e+00  4.227805736498024e-01  6.910077771347613e-18

 1.140346142987699e-17 -2.505253903002601e-21 -1.017027649395351e+00
-2.505253903002601e-21  1.185579246241005e-17  4.226085775340136e-01
-1.017027649395351e+00  4.226085775340136e-01  6.908637524431645e-18

 1.138791039026563e-17 -2.044917661154913e-21 -1.017207669050385e+00
-2.044917661154913e-21  1.186867746982186e-17  4.221717993157542e-01
-1.017207669050385e+00  4.221717993157542e-01  6.918279730606264e-18

 1.137113929194467e-17 -1.546158379344642e-21 -1.017354230479649e+00
-1.546158379344642e-21  1.187601000548801e-17  4.218859633412401e-01
-1.017354230479649e+00  4.218859633412401e-01  6.924149957090519e-18

 1.134546179383456e-17 -1.041251068188487e-21 -1.017162925017897e+00
-1.041251068188487e-21  1.186400949583499e-17  4.221822600040151e-01
-1.017162925017897e+00  4.221822600040151e-01  6.901665041447095e-18

 1.131490239469379e-17 -5.798043608778077e-22 -1.016792196045588e+00
-5.798043608778077e-22  1.184561172666987e-17  4.227357065683109e-01
-1.016792196045588e+00  4.227357065683109e-01  6.864382424389480e-18

 1.129381632005308e-17 -1.460086473661748e-22 -1.016813120108670e+00
-1.460086473661748e-22  1.184605928267795e-17  4.227224984446580e-01
-1.016813120108670e+00  4.227224984446580e-01  6.858194856795622e-18

 1.128335131572558e-17  3.351379593330280e-22 -1.017273844778834e+00
 3.351379593330280e-22  1.186466159281380e-17  4.221228914258198e-01
-1.017273844778834e+00  4.221228914258198e-01  6.886533945082883e-18

 1.126672884799691e-17  8.765880933944151e-22 -1.017504525113621e+00
 8.765880933944151e-22  1.187759594991309e-17  4.218899002347854e-01
-1.017504525113621e+00  4.218899002347854e-01  6.895867447645064e-18

 1.123344319583901e-17  1.384868163212614e-21 -1.017083182855931e+00
 1.384868163212614e-21  1.185370910426188e-17  4.225253630910019e-01
-1.017083182855931e+00  4.225253630910019e-01  6.853401178724176e-18

 1.120111566364209e-17  1.820459696448103e-21 -1.016712705535072e+00
 1.820459696448103e-21  1.183003119559153e-17  4.230420390118932e-01
-1.016712705535072e+00  4.230420390118932e-01  6.815364879806210e-18

 1.118725349314133e-17  2.267900638435950e-21 -1.017092983039559e+00
 2.267900638435950e-21  1.185624988327921e-17  4.225368096565656e-01
-1.017092983039559e+00  4.225368096565656e-01  6.837025734136986e-18

 1.117428973501084e-17  2.804384694943574e-21 -1.017522415594809e+00
 2.804384694943574e-21  1.187892869729743e-17  4.219136442595061e-01
-1.017522415594809e+00  4.219136442595061e-01  6.862969924416743e-18

 1.114448944050838e-17  3.358848745047717e-21 -1.017294566312905e+00
 3.358848745047717e-21  1.186772518555136e-17  4.221641087098996e-01
-1.017294566312905e+00  4.221641087098996e-01  6.836673186546242e-18

 1.110858360037225e-17  3.844409643533358e-21 -1.016840903386949e+00
 3.844409643533358e-21  1.184233292290297e-17  4.227769353607187e-01
-1.016840903386949e+00  4.227769353607187e-01  6.791686212556527e-18

 1.108340298183157e-17  4.302924109967925e-21 -1.016834406287054e+00
 4.302924109967925e-21  1.184898485274727e-17  4.227957727045143e-01
-1.016834406287054e+00  4.227957727045143e-01  6.781747712259362e-18

 1.106741884690457e-17  4.804843908343009e-21 -1.017212325618086e+00
 4.804843908343009e-21  1.186451703364732e-17  4.222555460098473e-01
-1.017212325618086e+00  4.222555460098473e-01  6.802284301968392e-18

 1.104630090770672e-17  5.357778713991635e-21 -1.017405733005444e+00
 5.357778713991635e-21  1.188056177597938e-17  4.219779367724379e-01
-1.017405733005444e+00  4.219779367724379e-01  6.807528273830539e-18

 1.101632530402049e-17  5.884429828935946e-21 -1.017268887342065e+00
 5.884429828935946e-21  1.186935061017262e-17  4.222750544248273e-01
-1.017268887342065e+00  4.222750544248273e-01  6.784912145429241e-18

 1.098502269909627e-17  6.371884556787779e-21 -1.017100596272578e+00
 6.371884556787779e-21  1.185962024690404e-17  4.227216824332757e-01
-1.017100596272578e+00  4.227216824332757e-01  6.758592261063924e-18

 1.095637437947718e-17  6.853396401238983e-21 -1.017052841529544e+00
 6.853396401238983e-21  1.186214052155394e-17  4.229102885906902e-01
-1.017052841529544e+00  4.229102885906902e-01  6.742755201881859e-18

 1.093002848812534e-17  7.343228450110399e-21 -1.017106191989239e+00
 7.343228450110399e-21  1.186468526541710e-17  4.227382183227187e-01
-1.017106191989239e+00  4.227382183227187e-01  6.737204482365060e-18

 1.090648078775452e-17  7.850722244782543e-21 -1.017286721328045e+00
 7.850722244782543e-21  1.188217105314896e-17  4.223005866849919e-01
-1.017286721328045e+00  4.223005866849919e-01  6.742650338679109e-18

 1.088149253153693e-17  8.398530392706592e-21 -1.017433504028587e+00
 8.398530392706592e-21  1.189641087979825e-17  4.220142512409727e-01
-1.017433504028587e+00  4.220142512409727e-01  6.744171419700427e-18

 1.084735904439361e-17  8.943983006411867e-21 -1.017241706308259e+00
 8.943983006411867e-21  1.189268232891228e-17  4.223109885857039e-01
-1.017241706308259e+00  4.223109885857039e-01  6.717145635678939e-18

 1.080811766929174e-17  9.439242204391666e-21 -1.016870587847675e+00
 9.439242204391666e-21  1.187659193392911e-17  4.228647415851351e-01
-1.016870587847675e+00  4.228647415851351e-01  6.675190244351607e-18

 1.077813650085152e-17  9.907108835316118e-21 -1.016892050145022e+00
 9.907108835316118e-21  1.188085185225885e-17  4.228507166341780e-01
-1.016892050145022e+00  4.228507166341780e-01  6.664257876260542e-18

 1.075852282983329e-17  1.042001900221700e-20 -1.017352952253497e+00
 1.042001900221700e-20  1.190749488694529e-17  4.222506217363495e-01
-1.017352952253497e+00  4.222506217363495e-01  6.687675171667822e-18

 1.073247439893637e-17  1.098859311705815e-20 -1.017582876878389e+00
 1.098859311705815e-20  1.192198760268665e-17  4.220181289337944e-01
-1.017582876878389e+00  4.220181289337944e-01  6.691859281904695e-18

 1.068951795191825e-17  1.151267566602373e-20 -1.017161532635110e+00
 1.151267566602373e-20  1.190377014267295e-17  4.226532527042715e-01
-1.017161532635110e+00  4.226532527042715e-01  6.644139812478037e-18

 1.064726169592621e-17  1.195884006020494e-20 -1.016791639940165e+00
 1.195884006020494e-20  1.189117779287091e-17  4.231689147242311e-01
-1.016791639940165e+00  4.231689147242311e-01  6.600728247618466e-18

 1.062316459682590e-17  1.241806690509606e-20 -1.017171529948188e+00
 1.241806690509606e-20  1.191421218939585e-17  4.226637123566936e-01
-1.017171529948188e+00  4.226637123566936e-01  6.616765685706170e-18

 1.059966787720629e-17  1.295525386485479e-20 -1.017600375705982e+00
 1.295525386485479e-20  1.194842407535680e-17  4.220408083414771e-01
-1.017600375705982e+00  4.220408083414771e-01  6.636890484533354e-18

 1.055905148999239e-17  1.349843380971688e-20 -1.017372800259282e+00
 1.349843380971688e-20  1.194701890685385e-17  4.222905536247596e-01
-1.017372800259282e+00  4.222905536247596e-01  6.604653188807829e-18

 1.051201104867898e-17  1.396898040735814e-20 -1.016919290984632e+00
 1.396898040735814e-20  1.192858589754164e-17  4.229026969972755e-01
-1.016919290984632e+00  4.229026969972755e-01  6.553522537514352e-18

 1.047535186100419e-17  1.440118297460662e-20 -1.016912254926591e+00
 1.440118297460662e-20  1.193547292322005e-17  4.229215307012897e-01
-1.016912254926591e+00  4.229215307012897e-01  6.537186109636933e-18

 1.044756006115965e-17  1.487811757471485e-20 -1.017290048929212e+00
 1.487811757471485e-20  1.196542474108518e-17  4.223808335250441e-01
-1.017290048929212e+00  4.223808335250441e-01  6.551147413555307e-18

 1.041429185938902e-17  1.538244497143984e-20 -1.017483696821402e+00
 1.538244497143984e-20  1.198091053887466e-17  4.221023588140499e-01
-1.017483696821402e+00  4.221023588140499e-01  6.549627234345135e-18

 1.037178270527404e-17  1.585681693997795e-20 -1.017346389767498e+00
 1.585681693997795e-20  1.198682878184624e-17  4.223993612697077e-01
-1.017346389767498e+00  4.223993612697077e-01  6.519966934659532e-18

 1.032756714412383e-17  1.627444463183035e-20 -1.017177691777397e+00
 1.627444463183035e-20  1.197942250755035e-17  4.228458145098384e-01
-1.017177691777397e+00  4.228458145098384e-01  6.486371384445446e-18

 1.028562647841881e-17  1.667559582019557e-20 -1.017130334430969e+00
 1.667559582019557e-20  1.198313785715726e-17  4.230334271035733e-01
-1.017130334430969e+00  4.230334271035733e-01  6.463071510826674e-18

 1.024557467797306e-17  1.707575738839170e-20 -1.017184064426010e+00
 1.707575738839170e-20  1.199948815273331e-17  4.228605035811736e-01
-1.017184064426010e+00  4.228605035811736e-01  6.449799367182198e-18

 1.020789615374152e-17  1.747927619388858e-20 -1.017364305685142e+00
 1.747927619388858e-20  1.202655339028108e-17  4.224228680354797e-01
-1.017364305685142e+00  4.224228680354797e-01  6.447227760337364e-18

 1.016833621472684e-17  1.790400148385259e-20 -1.017511199587894e+00
 1.790400148385259e-20  1.204910669396933e-17  4.221369426253390e-01
-1.017511199587894e+00  4.221369426253390e-01  6.440478564563792e-18

 1.011916141139634e-17  1.830908977448989e-20 -1.017319514185991e+00
 1.830908977448989e-20  1.205331879562772e-17  4.224354523247989e-01
-1.017319514185991e+00  4.224354523247989e-01  6.404888139059448e-18

 1.006431630293469e-17  1.864701485440736e-20 -1.016944804248536e+00
 1.864701485440736e-20  1.204203481362294e-17  4.229960713548046e-01
-1.016944804248536e+00  4.229960713548046e-01  6.353803699782645e-18

 1.001797482653966e-17  1.894126228176033e-20 -1.016952291093854e+00
 1.894126228176033e-20  1.205773652610101e-17  4.229969497463038e-01
-1.016952291093854e+00  4.229969497463038e-01  6.332694575301966e-18

 9.979884337244619e-18  1.925847355152752e-20 -1.017333295156587e+00
 1.925847355152752e-20  1.209532185605097e-17  4.224474130646003e-01
-1.017333295156587e+00  4.224474130646003e-01  6.340863501110268e-18

 9.935857360799000e-18  1.958456157948491e-20 -1.017525399919549e+00
 1.958456157948491e-20  1.212181298257613e-17  4.221667602688765e-01
-1.017525399919549e+00  4.221667602688765e-01  6.332979459030252e-18

 9.882234399966303e-18  1.986318150741345e-20 -1.017387316992419e+00
 1.986318150741345e-20  1.212554882810493e-17  4.224623750091304e-01
-1.017387316992419e+00  4.224623750091304e-01  6.296773768401113e-18

 9.826533988172785e-18  2.007016914445577e-20 -1.017218482590838e+00
 2.007016914445577e-20  1.212567041699041e-17  4.229073847296719e-01
-1.017218482590838e+00  4.229073847296719e-01  6.256436140446680e-18

 9.772710225232252e-18  2.023242298031420e-20 -1.017170011919810e+00
 2.023242298031420e-20  1.214012086572633e-17  4.230943772246035e-01
-1.017170011919810e+00  4.230943772246035e-01  6.226095719190455e-18

 9.720368440573583e-18  2.037663759727906e-20 -1.017222913996277e+00
 2.037663759727906e-20  1.216789327551087e-17  4.229205756904396e-01
-1.017222913996277e+00  4.229205756904396e-01  6.205543589970448e-18

 9.669958152728256e-18  2.049592557850957e-20 -1.017402858465132e+00
 2.049592557850957e-20  1.219771021203277e-17  4.224816861914531e-01
-1.017402858465132e+00  4.224816861914531e-01  6.195433220167255e-18

 9.617196803633569e-18  2.061878676533626e-20 -1.017548384050386e+00
 2.061878676533626e-20  1.222616452331838e-17  4.221948306323835e-01
-1.017548384050386e+00  4.221948306323835e-01  6.180786936005575e-18

 9.554370718914175e-18  2.068743282421641e-20 -1.017355872015157e+00
 2.068743282421641e-20  1.223966449054173e-17  4.224902113290285e-01
-1.017355872015157e+00  4.224902113290285e-01  6.137052251563380e-18

 9.485491306435048e-18  2.065580368143178e-20 -1.016985018491789e+00
 2.065580368143178e-20  1.223935227618799e-17  4.230413016157061e-01
-1.016985018491789e+00  4.230413016157061e-01  6.077857556644370e-18

 9.424841303249872e-18  2.054805784280353e-20 -1.017006263559088e+00
 2.054805784280353e-20  1.226587929215564e-17  4.230252536709495e-01
-1.017006263559088e+00  4.230252536709495e-01  6.049005977393866e-18

 9.373485610351957e-18  2.043391855286478e-20 -1.017465817217220e+00
 2.043391855286478e-20  1.231002749881713e-17  4.224244256687479e-01
-1.017465817217220e+00  4.224244256687479e-01  6.053765369889952e-18

 9.314608548579280e-18  2.030328693570991e-20 -1.017695258334986e+00
 2.030328693570991e-20  1.234649180967563e-17  4.221905550181782e-01
-1.017695258334986e+00  4.221905550181782e-01  6.038657770946125e-18

 9.237679591645486e-18  2.007378220387159e-20 -1.017273693424622e+00
 2.007378220387159e-20  1.234533621677027e-17  4.228242176741306e-01
-1.017273693424622e+00  4.228242176741306e-01  5.970944538284055e-18

 9.160247421674813e-18  1.968961553893448e-20 -1.016903398449707e+00
 1.968961553893448e-20  1.234569125317400e-17  4.233392674777370e-01
-1.016903398449707e+00  4.233392674777370e-01  5.906774921169549e-18

 9.099668338015548e-18  1.874132125294122e-20 -1.017281386523689e+00
 1.874132125294122e-20  1.239280439059086e-17  4.228150166564758e-01
-1.017281386523689e+00  4.228150166564758e-01  5.901144937871663e-18

 9.037995635561170e-18  1.880363715698866e-20 -1.017691435773982e+00
 1.880363715698866e-20  1.245138951016063e-17  4.222280824674177e-01
-1.017691435773982e+00  4.222280824674177e-01  5.897585522768107e-18

 8.956331480213558e-18  1.827616469656936e-20 -1.017384133299295e+00
 1.827616469656936e-20  1.246974326910646e-17  4.225209296561830e-01
-1.017384133299295e+00  4.225209296561830e-01  5.836377581307522e-18

 8.870723454405285e-18  1.756426543586046e-20 -1.017009212982090e+00
 1.756426543586046e-20  1.248375456729505e-17  4.229946767743661e-01
-1.017009212982090e+00  4.229946767743661e-01  5.767508975732359e-18

 8.798594091258662e-18  1.674597606366721e-20 -1.017269148977767e+00
 1.674597606366721e-20  1.252317087003871e-17  4.227698937199372e-01
-1.017269148977767e+00  4.227698937199372e-01  5.746046199171350e-18

 8.721627699797570e-18  1.587216967639691e-20 -1.017427615336436e+00
 1.587216967639691e-20  1.256344010019947e-17  4.225814719029004e-01
-1.017427615336436e+00  4.225814719029004e-01  5.715803346955483e-18

 8.634211280757564e-18  1.483974514669969e-20 -1.017264193680053e+00
 1.483974514669969e-20  1.259339846254815e-17  4.227395083675772e-01
-1.017264193680053e+00  4.227395083675772e-01  5.659164129949198e-18

 8.553002658732952e-18  1.365608805432298e-20 -1.017456852472644e+00
 1.365608805432298e-20  1.263729636096449e-17  4.226127285126226e-01
-1.017456852472644e+00  4.226127285126226e-01  5.627471208096624e-18

 8.463993801393590e-18  1.185659714692165e-20 -1.017441345481643e+00
 1.185659714692165e-20  1.266609515568778e-17  4.227071208942758e-01
-1.017441345481643e+00  4.227071208942758e-01  5.578002558515129e-18

 8.366387003149619e-18  1.084704005701099e-20 -1.017188235381544e+00
 1.084704005701099e-20  1.269097562062401e-17  4.230376754959828e-01
-1.017188235381544e+00  4.230376754959828e-01  5.509248373057992e-18

 8.277917495330977e-18  9.166736725854585e-21 -1.017415134856720e+00
 9.166736725854585e-21  1.274574071728634e-17  4.227741873296194e-01
-1.017415134856720e+00  4.227741873296194e-01  5.476493382343814e-18

 8.182398339792689e-18  7.351057704020503e-21 -1.017475622283690e+00
 7.351057704020503e-21  1.279112809113363e-17  4.226179976972837e-01
-1.017475622283690e+00  4.226179976972837e-01  5.429872838060670e-18

 8.078936846799186e-18  5.296867893887471e-21 -1.017342391761632e+00
 5.296867893887471e-21  1.283042184321589e-17  4.227002726528171e-01
-1.017342391761632e+00  4.227002726528171e-01  5.366206183976188e-18

 7.978139932117004e-18  3.034226294647817e-21 -1.017451754287216e+00
 3.034226294647817e-21  1.288399017935335e-17  4.226293928879366e-01
-1.017451754287216e+00  4.226293928879366e-01  5.318276690941180e-18

 7.863899114865937e-18  5.452185529527180e-22 -1.017157219293943e+00
 5.452185529527180e-22  1.291077423052469e-17  4.229501078002189e-01
-1.017157219293943e+00  4.229501078002189e-01  5.237408795562169e-18

 7.750110565961905e-18 -2.266641999645446e-21 -1.017023322679525e+00
-2.266641999645446e-21  1.296105846075372e-17  4.229943713216293e-01
-1.017023322679525e+00  4.229943713216293e-01  5.167404199502292e-18

 7.651013744232077e-18 -5.303200937261431e-21 -1.017635569348077e+00
-5.303200937261431e-21  1.303670456950491e-17  4.222751687931232e-01
-1.017635569348077e+00  4.222751687931232e-01  5.151895568429721e-18

 7.532820299362429e-18 -8.578386324732958e-21 -1.017642360435233e+00
-8.578386324732958e-21  1.308599908908095e-17  4.223468308925258e-01
-1.017642360435233e+00  4.223468308925258e-01  5.085814157648523e-18

 7.394881716917428e-18 -1.227803895502346e-20 -1.017022495062072e+00
-1.227803895502346e-20  1.310824515018184e-17  4.231851347919325e-01
-1.017022495062072e+00  4.231851347919325e-01  4.968007713741866e-18

 7.249372960189427e-18 -2.118005867890891e-20 -1.017202129040042e+00
-2.118005867890891e-20  1.311462969799542e-17  4.231058486962826e-01
-1.017202129040042e+00  4.231058486962826e-01  4.917287736326869e-18

 7.150439235068344e-18 -2.083138104584832e-20 -1.017588980850104e+00
-2.083138104584832e-20  1.324550784404892e-17  4.226303834803304e-01
-1.017588980850104e+00  4.226303834803304e-01  4.865942127165031e-18

 7.010266568160589e-18 -2.566084677053988e-20 -1.017411678356749e+00
-2.566084677053988e-20  1.329775260430055e-17  4.226978408339783e-01
-1.017411678356749e+00  4.226978408339783e-01  4.777019849913831e-18

 6.866933408045202e-18 -3.097402318510295e-20 -1.017308090587968e+00
-3.097402318510295e-20  1.335675468784443e-17  4.227600642401219e-01
-1.017308090587968e+00  4.227600642401219e-01  4.690197503786090e-18

 6.718298308278303e-18 -3.676907494792692e-20 -1.017200599608882e+00
-3.676907494792692e-20  1.342130496419296e-17  4.228050703842501e-01
-1.017200599608882e+00  4.228050703842501e-01  4.599801169093308e-18

 6.569518113963293e-18 -4.313935199399199e-20 -1.017309843536278e+00
-4.313935199399199e-20  1.349659767022586e-17  4.226182644557179e-01
-1.017309843536278e+00  4.226182644557179e-01  4.522266073208352e-18

 6.419590856139289e-18 -5.003008077771384e-20 -1.017610728527758e+00
-5.003008077771384e-20  1.357734684182413e-17  4.223543369947310e-01
-1.017610728527758e+00  4.223543369947310e-01  4.454388553250607e-18

 6.248266197854216e-18 -5.756267375673286e-20 -1.017295897208918e+00
-5.756267375673286e-20  1.362523871707733e-17  4.228290247624067e-01
-1.017295897208918e+00  4.228290247624067e-01  4.334398435846350e-18

 6.073610420272814e-18 -6.586791071198296e-20 -1.017101455078429e+00
-6.586791071198296e-20  1.368876858080200e-17  4.231486351693408e-01
-1.017101455078429e+00  4.231486351693408e-01  4.219906138083167e-18

 5.905908737266532e-18 -7.490183382988071e-20 -1.017451010780313e+00
-7.490183382988071e-20  1.377755304771656e-17  4.227612482441421e-01
-1.017451010780313e+00  4.227612482441421e-01  4.144325335066974e-18

 5.724509292745405e-18 -8.472661231942513e-20 -1.017528168348447e+00
-8.472661231942513e-20  1.386248816745076e-17  4.225648038856512e-01
-1.017528168348447e+00  4.225648038856512e-01  4.044359132221265e-18

 5.531662880828893e-18 -9.546467525755595e-20 -1.017442522940059e+00
-9.546467525755595e-20  1.394909246764115e-17  4.226041909548161e-01
-1.017442522940059e+00  4.226041909548161e-01  3.926746166169268e-18

 5.335908012402265e-18 -1.071693929237595e-19 -1.017556305340279e+00
-1.071693929237595e-19  1.403044246226630e-17  4.225676055802333e-01
-1.017556305340279e+00  4.225676055802333e-01  3.818415737874783e-18

 5.124307950683370e-18 -1.199152443287775e-19 -1.017361977889709e+00
-1.199152443287775e-19  1.409840851115543e-17  4.228797096922670e-01
-1.017361977889709e+00  4.228797096922670e-01  3.681176454635700e-18

 4.898852520245113e-18 -1.338811522461211e-19 -1.016952275427319e+00
-1.338811522461211e-19  1.417704533834796e-17  4.232482601655195e-01
-1.016952275427319e+00  4.232482601655195e-01  3.523619787615611e-18

 4.680994872489738e-18 -1.491605787086100e-19 -1.017212972973068e+00
-1.491605787086100e-19  1.429172556999198e-17  4.227092488413257e-01
-1.017212972973068e+00  4.227092488413257e-01  3.413464058040596e-18

 4.463042432062804e-18 -1.657433234520312e-19 -1.017863762125661e+00
-1.657433234520312e-19  1.441924015195263e-17  4.218424259487018e-01
-1.017863762125661e+00  4.218424259487018e-01  3.326083376152543e-18

 4.210603494802001e-18 -1.837450123650280e-19 -1.017547949205657e+00
-1.837450123650280e-19  1.450336298616189e-17  4.223035599856666e-01
-1.017547949205657e+00  4.223035599856666e-01  3.154849950522071e-18

 3.931832790853680e-18 -2.035139508698284e-19 -1.016611209423060e+00
-2.035139508698284e-19  1.455956419074788e-17  4.234890357483750e-01
-1.016611209423060e+00  4.234890357483750e-01  2.928041218332253e-18

 3.676860176929709e-18 -2.252358745649176e-19 -1.017092177830616e+00
-2.252358745649176e-19  1.468423073471056e-17  4.229809475171745e-01
-1.017092177830616e+00  4.229809475171745e-01  2.804316681618289e-18

 3.422239934920688e-18 -2.488085221378215e-19 -1.018074313037774e+00
-2.488085221378215e-19  1.483599275315342e-17  4.218583689914907e-01
-1.018074313037774e+00  4.218583689914907e-01  2.712120331760088e-18

 3.114431276021560e-18 -2.744609873355106e-19 -1.017431915209094e+00
-2.744609873355106e-19  1.491753630709606e-17  4.225680043743222e-01
-1.017431915209094e+00  4.225680043743222e-01  2.486112532840639e-18

 2.789430490557128e-18 -3.026689791469990e-19 -1.016645902071277e+00
-3.026689791469990e-19  1.499700620941103e-17  4.234478195887456e-01
-1.016645902071277e+00  4.234478195887456e-01  2.240397127392310e-18

 2.483465015788938e-18 -3.336262150827963e-19 -1.017207368902814e+00
-3.336262150827963e-19  1.514497169180580e-17  4.226842845857026e-01
-1.017207368902814e+00  4.226842845857026e-01  2.090756429362102e-18

 2.164208801941499e-18 -3.673946933370743e-19 -1.017854129151288e+00
-3.673946933370743e-19  1.530484270531113e-17  4.217721263864655e-01
-1.017854129151288e+00  4.217721263864655e-01  1.938057256696726e-18

 1.801519655507987e-18 -4.042064373117330e-19 -1.017418699815467e+00
-4.042064373117330e-19  1.541003442123375e-17  4.222495359440557e-01
-1.017418699815467e+00  4.222495359440557e-01  1.689239247536644e-18

 1.418580385504655e-18 -4.446202707998932e-19 -1.016875824205036e+00
-4.446202707998932e-19  1.550989039970828e-17  4.230093049132532e-01
-1.016875824205036e+00  4.230093049132532e-01  1.419198651526923e-18

 1.038076553337370e-18 -4.890215395481442e-19 -1.017179903271130e+00
-4.890215395481442e-19  1.564777056711345e-17  4.227660529709490e-01
-1.017179903271130e+00  4.227660529709490e-01  1.203046364852968e-18

 6.372015479600170e-19 -5.376690614887323e-19 -1.017456602706950e+00
-5.376690614887323e-19  1.580023939926731e-17  4.223661057419987e-01
-1.017456602706950e+00  4.223661057419987e-01  9.737230872600158e-19

 2.050613492533190e-19 -5.910384188709062e-19 -1.017324230582102e+00
-5.910384188709062e-19  1.594044838591363e-17  4.223800470779057e-01
-1.017324230582102e+00  4.223800470779057e-01  6.996653888820015e-19

-2.490443530101978e-19 -6.496580363534783e-19 -1.017218143602596e+00
-6.496580363534783e-19  1.607307284992400e-17  4.224298710714696e-01
-1.017218143602596e+00  4.224298710714696e-01  4.125417177615556e-19

-7.256131738159110e-19 -7.145977523098203e-19 -1.017183011775884e+00
-7.145977523098203e-19  1.621790116544777e-17  4.223850184913818e-01
-1.017183011775884e+00  4.223850184913818e-01  1.150232680561480e-19

-1.224391273920293e-18 -7.849825456343949e-19 -1.017296864998538e+00
-7.849825456343949e-19  1.637358346518437e-17  4.222422706193192e-01
-1.017296864998538e+00  4.222422706193192e-01 -1.881030206944764e-19

-1.752546036092101e-18 -8.629504136007652e-19 -1.017346987832954e+00
-8.629504136007652e-19  1.652624256656232e-17  4.222050881523287e-01
-1.017346987832954e+00  4.222050881523287e-01 -5.146830171569681e-19

-2.318692835369805e-18 -9.488050158655335e-19 -1.017062376253562e+00
-9.488050158655335e-19  1.666137061518010e-17  4.225119574520913e-01
-1.017062376253562e+00  4.225119574520913e-01 -8.861013002585719e-19

-2.911122765336680e-18 -1.043607675472020e-18 -1.017004627066591e+00
-1.043607675472020e-18  1.681442917491045e-17  4.224869185509263e-01
-1.017004627066591e+00  4.224869185509263e-01 -1.259910416087401e-18

-3.528118431958977e-18 -1.148331998319713e-18 -1.017340952838728e+00
-1.148331998319713e-18  1.699466978270195e-17  4.219894069043346e-01
-1.017340952838728e+00  4.219894069043346e-01 -1.625128295138411e-18

-4.192027040256115e-18 -1.263874126846869e-18 -1.017276389549580e+00
-1.263874126846869e-18  1.715493740351954e-17  4.219528146489620e-01
-1.017276389549580e+00  4.219528146489620e-01 -2.045409384139703e-18

-4.905840998192595e-18 -1.391553393123578e-18 -1.016805339042273e+00
-1.391553393123578e-18  1.729704130723078e-17  4.223613552242412e-01
-1.016805339042273e+00  4.223613552242412e-01 -2.522983625756362e-18

-5.646616096450822e-18 -1.533164792918444e-18 -1.016985259154161e+00
-1.533164792918444e-18  1.745816919099041e-17  4.220602429194794e-01
-1.016985259154161e+00  4.220602429194794e-01 -2.978462451214832e-18

-6.425658024743917e-18 -1.690086532981502e-18 -1.017500233268513e+00
-1.690086532981502e-18  1.763633086586224e-17  4.214737470883147e-01
-1.017500233268513e+00  4.214737470883147e-01 -3.439042918431341e-18

-7.280302000100910e-18 -1.863700146824308e-18 -1.016988757417174e+00
-1.863700146824308e-18  1.777661559327179e-17  4.220383818428723e-01
-1.016988757417174e+00  4.220383818428723e-01 -4.011562448905119e-18

-8.189001930085285e-18 -2.056773762850995e-18 -1.016492007219117e+00
-2.056773762850995e-18  1.790648944980606e-17  4.225075512804229e-01
-1.016492007219117e+00  4.225075512804229e-01 -4.617317966455129e-18

-9.128200485910726e-18 -2.272177533171272e-18 -1.017155883030439e+00
-2.272177533171272e-18  1.809504933742857e-17  4.216100810919751e-01
-1.017155883030439e+00  4.216100810919751e-01 -5.170689877669398e-18

-1.014296803688507e-17 -2.511693711365851e-18 -1.017359955882285e+00
-2.511693711365851e-18  1.825540917832843e-17  4.211760635003374e-01
-1.017359955882285e+00  4.211760635003374e-01 -5.800519012198604e-18

-1.124855497245789e-17 -2.778227260526047e-18 -1.016716252023034e+00
-2.778227260526047e-18  1.836533928158567e-17  4.217544661316333e-01
-1.016716252023034e+00  4.217544661316333e-01 -6.541426317279617e-18

-1.241659823445966e-17 -3.076218450933067e-18 -1.016635955659730e+00
-3.076218450933067e-18  1.849374567777230e-17  4.217745914732570e-01
-1.016635955659730e+00  4.217745914732570e-01 -7.288323832297116e-18

-1.365878091883139e-17 -3.409752331823185e-18 -1.016931208415611e+00
-3.409752331823185e-18  1.862412081508388e-17  4.212943013326531e-01
-1.016931208415611e+00  4.212943013326531e-01 -8.058880477681184e-18

-1.500197875097396e-17 -3.783475887686861e-18 -1.016826151486836e+00
-3.783475887686861e-18  1.872444695071767e-17  4.211649307245433e-01
-1.016826151486836e+00  4.211649307245433e-01 -8.917940529282531e-18

-1.644657445116482e-17 -4.201954100544519e-18 -1.016665908342754e+00
-4.201954100544519e-18  1.880725486673646e-17  4.211621593894527e-01
-1.016665908342754e+00  4.211621593894527e-01 -9.845268382451308e-18

-1.799652417731777e-17 -4.672135166246607e-18 -1.016692315044067e+00
-4.672135166246607e-18  1.888354901841308e-17  4.209893285423779e-01
-1.016692315044067e+00  4.209893285423779e-01 -1.082817665161259e-17

-1.967154622042148e-17 -5.201015564116258e-18 -1.016552271987904e+00
-5.201015564116258e-18  1.891515011180954e-17  4.209465357009985e-01
-1.016552271987904e+00  4.209465357009985e-01 -1.189986703111093e-17

-2.148058596694579e-17 -5.796722987327837e-18 -1.016395733549877e+00
-5.796722987327837e-18  1.893040838814856e-17  4.208663916613825e-01
-1.016395733549877e+00  4.208663916613825e-01 -1.305612677935223e-17

-2.342924911839346e-17 -6.470824092003267e-18 -1.016576767556532e+00
-6.470824092003267e-18  1.892355266252070e-17  4.203696254829881e-01
-1.016576767556532e+00  4.203696254829881e-01 -1.427874114517285e-17

-2.554627115582539e-17 -7.231648033415324e-18 -1.016569484798577e+00
-7.231648033415324e-18  1.886426835505460e-17  4.201634232819003e-01
-1.016569484798577e+00  4.201634232819003e-01 -1.561817274640025e-17

-2.785624622371871e-17 -8.093571450312815e-18 -1.016111546164665e+00
-8.093571450312815e-18  1.873613697862261e-17  4.204165497496130e-01
-1.016111546164665e+00  4.204165497496130e-01 -1.710486980127535e-17

-3.036056262292765e-17 -9.073146615247920e-18 -1.016022596848337e+00
-9.073146615247920e-18  1.856977298054699e-17  4.201931318039620e-01
-1.016022596848337e+00  4.201931318039620e-01 -1.868718851149421e-17

-3.308331289215635e-17 -1.018899797536178e-17 -1.016301239325933e+00
-1.018899797536178e-17  1.835794952190341e-17  4.194719392256654e-01
-1.016301239325933e+00  4.194719392256654e-01 -2.037892165440651e-17

-3.607140575001006e-17 -1.145926958155501e-17 -1.016126068862053e+00
-1.145926958155501e-17  1.804234875340800e-17  4.192542327131357e-01
-1.016126068862053e+00  4.192542327131357e-01 -2.225946318390690e-17

-3.935150544349889e-17 -1.290915609261709e-17 -1.015710660347625e+00
-1.290915609261709e-17  1.762529929600245e-17  4.193393582940437e-01
-1.015710660347625e+00  4.193393582940437e-01 -2.433039101615600e-17

-4.294717338341034e-17 -1.457141532103677e-17 -1.015630390965460e+00
-1.457141532103677e-17  1.712217148904329e-17  4.189590539120341e-01
-1.015630390965460e+00  4.189590539120341e-01 -2.656701115402004e-17

-4.690459007993704e-17 -1.647922564028137e-17 -1.015750863523711e+00
-1.647922564028137e-17  1.650778032194053e-17  4.183094697931656e-01
-1.015750863523711e+00  4.183094697931656e-01 -2.900270461718736e-17

-5.128483122349184e-17 -1.867237629755098e-17 -1.015585410871959e+00
-1.867237629755098e-17  1.573733463452498e-17  4.179655354645806e-01
-1.015585410871959e+00  4.179655354645806e-01 -3.170203623299347e-17

-5.614951596850450e-17 -2.119971456739930e-17 -1.015011953611204e+00
-2.119971456739930e-17  1.477847287958307e-17  4.179867844637172e-01
-1.015011953611204e+00  4.179867844637172e-01 -3.470457202135978e-17

-6.154992480163412e-17 -2.412412694363258e-17 -1.014866795240213e+00
-2.412412694363258e-17  1.366898377592570e-17  4.173976540975182e-01
-1.014866795240213e+00  4.173976540975182e-01 -3.798116496633130e-17

-6.756516550243409e-17 -2.751584466939912e-17 -1.015290382529730e+00
-2.751584466939912e-17  1.236647239207341e-17  4.161737924958172e-01
-1.015290382529730e+00  4.161737924958172e-01 -4.156349754907057e-17

-7.432392970080355e-17 -3.145020566167452e-17 -1.014814256462506e+00
-3.145020566167452e-17  1.077512864724287e-17  4.159534741218379e-01
-1.014814256462506e+00  4.159534741218379e-01 -4.561305956579554e-17

-8.193831062803862e-17 -3.603050450582378e-17 -1.013707624564470e+00
-3.603050450582378e-17  8.859883284757437e-18  4.162929661336340e-01
-1.013707624564470e+00  4.162929661336340e-01 -5.016439829224502e-17

-9.051252349430956e-17 -4.139522819866803e-17 -1.013894284186220e+00
-4.139522819866803e-17  6.717376667741593e-18  4.149525255106825e-01
-1.013894284186220e+00  4.149525255106825e-01 -5.513606827581808e-17

-1.002350756323367e-16 -4.768304614768462e-17 -1.014488016253215e+00
-4.768304614768462e-17  4.251393998944743e-18  4.131116108318028e-01
-1.014488016253215e+00  4.131116108318028e-01 -6.067656599290419e-17

-1.113489012757973e-16 -5.505288581781140e-17 -1.013477919427708e+00
-5.505288581781140e-17  1.272202543963563e-18  4.130593983373096e-01
-1.013477919427708e+00  4.130593983373096e-01 -6.703501061243332e-17

-1.240875092748251e-16 -6.373540151573734e-17 -1.012131051570419e+00
-6.373540151573734e-17 -2.170758874575952e-18  4.132379820318149e-01
-1.012131051570419e+00  4.132379820318149e-01 -7.422549946518311e-17

-1.387423196732184e-16 -7.402213018870008e-17 -1.012300621495188e+00
-7.402213018870008e-17 -5.939253030749424e-18  4.113985298132165e-01
-1.012300621495188e+00  4.113985298132165e-01 -8.224084385299713e-17

-1.557261326258769e-16 -8.622063058260121e-17 -1.012649382544023e+00
-8.622063058260121e-17 -1.016164267860365e-17  4.091292420047338e-01
-1.012649382544023e+00  4.091292420047338e-01 -9.134944986686891e-17

-1.755419460358598e-16 -1.006944506652154e-16 -1.011447283364173e+00
-1.006944506652154e-16 -1.503618245865362e-17  4.085615707422426e-01
-1.011447283364173e+00  4.085615707422426e-01 -1.018855991067312e-16

-1.987895732379197e-16 -1.179452012058346e-16 -1.009875468301724e+00
-1.179452012058346e-16 -2.040138806034527e-17  4.083096796676630e-01
-1.009875468301724e+00  4.083096796676630e-01 -1.140061051740180e-16

-2.262491300108597e-16 -1.386023359864834e-16 -1.009356668399215e+00
-1.386023359864834e-16 -2.599110837033182e-17  4.065394898933245e-01
-1.009356668399215e+00  4.065394898933245e-01 -1.279101596907767e-16

-2.589304316437395e-16 -1.633771914708528e-16 -1.008682806403635e+00
-1.633771914708528e-16 -3.169053572924595e-17  4.044962947608400e-01
-1.008682806403635e+00  4.044962947608400e-01 -1.440748766935584e-16

-2.981065739367051e-16 -1.931292420839191e-16 -1.006656099365541e+00
-1.931292420839191e-16 -3.734040717998341e-17  4.035940920636569e-01
-1.006656099365541e+00  4.035940920636569e-01 -1.630800759427799e-16

-3.454302066645317e-16 -2.289610138354214e-16 -1.003888125964501e+00
-2.289610138354214e-16 -4.220249292576394e-17  4.029695915724402e-01
-1.003888125964501e+00  4.029695915724402e-01 -1.855036150686101e-16

-4.030674361107594e-16 -2.722198009505056e-16 -1.000475870873120e+00
-2.722198009505056e-16 -4.508879987563526e-17  4.019284278055572e-01
-1.000475870873120e+00  4.019284278055572e-01 -2.121348204483089e-16

-4.738207105190967e-16 -3.244886223145469e-16 -9.983275335458905e-01
-3.244886223145469e-16 -4.412024772054318e-17  3.989950319760516e-01
-9.983275335458905e-01  3.989950319760516e-01 -2.439150269421276e-16

-5.611918574083318e-16 -3.875273909687613e-16 -9.965055197947933e-01
-3.875273909687613e-16 -3.749942100309010e-17  3.968297110017595e-01
-9.965055197947933e-01  3.968297110017595e-01 -2.823129107726007e-16

-6.695670363352981e-16 -4.631849723788218e-16 -9.793559896257090e-01
-4.631849723788218e-16 -2.540462068607900e-17  4.083514803110542e-01
-9.793559896257090e-01  4.083514803110542e-01 -3.302767100077141e-16

-8.061996418627021e-16 -5.543687432887464e-16 -9.498675708425802e-01
-5.543687432887464e-16  3.932014086937488e-18  4.212646297177344e-01
-9.498675708425802e-01  4.212646297177344e-01 -3.902490204632239e-16

-9.816059278862694e-16 -6.640383478275709e-16 -9.426185876157293e-01
-6.640383478275709e-16  8.081316904219809e-17  3.958950643333033e-01
-9.426185876157293e-01  3.958950643333033e-01 -4.637375430618280e-16

-1.203687105195378e-15 -7.931499958594372e-16 -9.629562063034364e-01
-7.931499958594372e-16  2.108548858949616e-16  3.366852024007101e-01
-9.629562063034364e-01  3.366852024007101e-01 -5.552774107258334e-16

-1.479013605156950e-15 -9.441149902325782e-16 -1.047749196550107e+00
-9.441149902325782e-16  3.771345171787199e-16  2.488315548819659e-01
-1.047749196550107e+00  2.488315548819659e-01 -6.685913525721058e-16

-1.809843466278771e-15 -1.128956569295408e-15 -1.117419964659569e+00
-1.128956569295408e-15  4.171540143111199e-16  2.599210301146572e-01
-1.117419964659569e+00  2.599210301146572e-01 -8.145158685579743e-16

-2.192259365582247e-15 -1.331468879004189e-15 -8.908236288021437e-01
-1.331468879004189e-15  7.748847567094780e-17  5.744705616845253e-01
-8.908236288021437e-01  5.744705616845253e-01 -1.009676188794021e-15

-2.730395203869129e-15 -1.568291471204442e-15 -7.727980616880618e-01
-1.568291471204442e-15  1.229863533230629e-16  6.348605747485448e-01
-7.727980616880618e-01  6.348605747485448e-01 -1.276109088711729e-15

-3.641187877724868e-15 -1.881941828352923e-15 -8.934174801707162e-01
-1.881941828352923e-15  2.089129840997134e-15  3.941420666345385e-01
-8.934174801707162e-01  3.941420666345385e-01 -1.702863395926605e-15

-4.482668853698238e-15 -1.682835119008302e-15 -1.100443046306671e+00
-1.682835119008302e-15  5.156835363567988e-15  1.464578515193834e-01
-1.100443046306671e+00  1.464578515193834e-01 -2.114031052922431e-15

-5.753024342291566e-15 -1.849242756642890e-15 -8.749347751592096e-01
-1.849242756642890e-15  7.477176969284978e-15  2.343067903632797e-01
-8.749347751592096e-01  2.343067903632797e-01 -2.783400436658919e-15

-8.183243212169712e-15 -2.336683199379655e-15 -8.296928768819601e-01
-2.336683199379655e-15  1.102257416134968e-14  3.261769178680758e-01
-8.296928768819601e-01  3.261769178680758e-01 -4.031070330419874e-15

-1.160185648993182e-14 -2.931753698719358e-15 -9.341232749580088e-01
-2.931753698719358e-15  1.528548884766095e-14  3.794975985896246e-01
-9.341232749580088e-01  3.794975985896246e-01 -5.617454459249425e-15

-1.460612392635188e-14 -4.541570424858532e-15 -4.886477805600012e-01
-4.541570424858532e-15  1.090873323259120e-14  8.106917020227242e-01
-4.886477805600012e-01  8.106917020227242e-01 -7.132837701566893e-15

-1.651897274594139e-14 -2.503524790088193e-15 -6.403534187233079e-01
-2.503524790088193e-15  2.550679795303646e-14  6.431223044629395e-01
-6.403534187233079e-01  6.431223044629395e-01 -7.525563601010092e-15

 4.909914328867776e-14  5.953332679192017e-14 -1.039749615901963e+00
 5.953332679192017e-14  1.405433065984113e-13  1.488128329506044e-01
-1.039749615901963e+00  1.488128329506044e-01  1.833835849091472e-14

 2.669676688865823e-13  1.317627897211868e-13 -7.436921399262096e-01
 1.317627897211868e-13  2.562422334457804e-13  4.403716178477998e-01
-7.436921399262096e-01  4.403716178477998e-01  1.097020189673489e-13

-6.728924311474437e-13 -1.168413120330393e-13 -3.216123668548738e-01
-1.168413120330393e-13 -2.083787706997077e-13  8.257509141671082e-01
-3.216123668548738e-01  8.257509141671082e-01 -1.616183185610436e-13

 2.202212923740468e-13  4.093400764894824e-14 -1.131699679177199e+00
 4.093400764894824e-14  1.218318527086520e-13 -1.862853611904654e-02
-1.131699679177199e+00 -1.862853611904654e-02  7.229029982439069e-14

-7.190373648026184e-13 -1.346142673071944e-13 -6.310293829222942e-01
-1.346142673071944e-13 -2.289919596580889e-13  4.663655655791920e-01
-6.310293829222942e-01  4.663655655791920e-01 -1.984631034595298e-13

 6.049549644802239e-14  1.727675563434381e-14 -8.418695368689413e-01
 1.727675563434381e-14  8.671961609621041e-14  1.539230339097200e-01
-8.418695368689413e-01  1.539230339097200e-01  2.293201691249278e-14

-4.143336240041283e-15  5.091596896367971e-15 -7.560645227506559e-01
 5.091596896367971e-15  5.770033299137627e-14  3.627471692878290e-01
-7.560645227506559e-01  3.627471692878290e-01 -4.932331861057320e-15

-5.827690798384689e-15 -2.256038772300790e-15 -1.197881181349466e+00
-2.256038772300790e-15  3.547099124872736e-14  9.889688103904985e-02
-1.197881181349466e+00  9.889688103904985e-02 -6.710429984013726e-15

-3.837315113994062e-16  7.357698144094256e-16 -9.260360144533839e-01
 7.357698144094256e-16  3.317630684264434e-14  5.310135365408488e-01
-9.260360144533839e-01  5.310135365408488e-01 -5.886475549800895e-15

 2.109835315441723e-15  8.088485165283739e-16 -6.013320834029453e-01
 8.088485165283739e-16  2.778166053681774e-14  8.938449322940167e-01
-6.013320834029453e-01  8.938449322940167e-01 -5.177956083658019e-15

-2.031051742255037e-16 -3.223697357672078e-15 -9.637246337178297e-01
-3.223697357672078e-15  1.917074922364668e-14  5.551936327174349e-01
-9.637246337178297e-01  5.551936327174349e-01 -4.168364816780903e-15

-8.001172207210916e-16 -4.855971902823951e-15 -1.009955773145334e+00
-4.855971902823951e-15  1.240627011409755e-14  3.569892208338182e-01
-1.009955773145334e+00  3.569892208338182e-01 -3.258872629810903e-15

-6.370893559493909e-16 -5.031572285201849e-15 -1.025086194722545e+00
-5.031572285201849e-15  7.354887426507140e-15  1.878575395184267e-01
-1.025086194722545e+00  1.878575395184267e-01 -2.455587038970385e-15

-4.582390847355860e-16 -4.197257073824989e-15 -9.967524717468258e-01
-4.197257073824989e-15  5.378694512517409e-15  1.458036962193852e-01
-9.967524717468258e-01  1.458036962193852e-01 -1.855799369002641e-15

-4.971903415422343e-16 -3.476063855629528e-15 -7.859615164590953e-01
-3.476063855629528e-15  5.397470237851753e-15  4.260029772851506e-01
-7.859615164590953e-01  4.260029772851506e-01 -1.593051788311654e-15

-6.447626374159259e-16 -2.892139110881158e-15 -8.910994901642564e-01
-2.892139110881158e-15  4.700911157253492e-15  4.300006248927105e-01
-8.910994901642564e-01  4.300006248927105e-01 -1.320147058952031e-15

-6.879211176654411e-16 -2.372752999662847e-15 -9.351108450348036e-01
-2.372752999662847e-15  4.133746047770335e-15  4.418436415662409e-01
-9.351108450348036e-01  4.418436415662409e-01 -1.103389145341190e-15

-6.954639626485428e-16 -1.947185037588919e-15 -9.487960074954400e-01
-1.947185037588919e-15  3.586891562635761e-15  4.433488448603500e-01
-9.487960074954400e-01  4.433488448603500e-01 -9.268638235791772e-16

-6.586311632178114e-16 -1.616606314592792e-15 -1.001130182929624e+00
-1.616606314592792e-15  3.040460928004766e-15  3.807546372919432e-01
-1.001130182929624e+00  3.807546372919432e-01 -7.746690186462112e-16

-6.168241808933898e-16 -1.342445538894122e-15 -1.016123737385974e+00
-1.342445538894122e-15  2.592370890012318e-15  3.509803630256210e-01
-1.016123737385974e+00  3.509803630256210e-01 -6.536970006500787e-16

-5.807222636031687e-16 -1.109332061101323e-15 -9.975157900865330e-01
-1.109332061101323e-15  2.242243996961684e-15  3.678961665379822e-01
-9.975157900865330e-01  3.678961665379822e-01 -5.592552307809883e-16

-5.419536464638308e-16 -9.178086800009881e-16 -9.906403272536888e-01
-9.178086800009881e-16  1.948553559759934e-15  3.830153672288896e-01
-9.906403272536888e-01  3.830153672288896e-01 -4.810316009902487e-16

-5.006327683610588e-16 -7.624272766068018e-16 -9.941980642750158e-01
-7.624272766068018e-16  1.696809570193606e-15  3.876110740716559e-01
-9.941980642750158e-01  3.876110740716559e-01 -4.152172932935824e-16

-4.593582436777152e-16 -6.360789468696817e-16 -1.000044219679398e+00
-6.360789468696817e-16  1.481546508340168e-15  3.875759254985963e-01
-1.000044219679398e+00  3.875759254985963e-01 -3.599302214149549e-16

-4.200864284810056e-16 -5.325565713224980e-16 -1.002798014346183e+00
-5.325565713224980e-16  1.298173191974137e-15  3.900993928455329e-01
-1.002798014346183e+00  3.900993928455329e-01 -3.136703915672271e-16

-3.835948621545245e-16 -4.473446390656026e-16 -9.990201448006029e-01
-4.473446390656026e-16  1.141668706591032e-15  3.980401092463102e-01
-9.990201448006029e-01  3.980401092463102e-01 -2.750759608274025e-16

-3.490742773869463e-16 -3.779104277031914e-16 -1.001130156558075e+00
-3.779104277031914e-16  1.006671016994889e-15  3.978169331618578e-01
-1.001130156558075e+00  3.978169331618578e-01 -2.417768620220394e-16

-3.168628076042008e-16 -3.210562664383259e-16 -1.010623591017726e+00
-3.210562664383259e-16  8.902434052428982e-16  3.899470500291606e-01
-1.010623591017726e+00  3.899470500291606e-01 -2.126966214269881e-16

-2.884259085620251e-16 -2.730616384149997e-16 -1.008039278427268e+00
-2.730616384149997e-16  7.906154944571647e-16  3.965225511885890e-01
-1.008039278427268e+00  3.965225511885890e-01 -1.886815345791037e-16

-2.629371024009510e-16 -2.327953266989550e-16 -1.000244410816206e+00
-2.327953266989550e-16  7.045969033029822e-16  4.090419376835153e-01
-1.000244410816206e+00  4.090419376835153e-01 -1.684424110692783e-16

-2.390115301395254e-16 -1.999123991317709e-16 -1.005698425592619e+00
-1.999123991317709e-16  6.295387352096801e-16  4.056869070384165e-01
-1.005698425592619e+00  4.056869070384165e-01 -1.498869255573264e-16

-2.172507411007506e-16 -1.725177065418499e-16 -1.011822295389861e+00
-1.725177065418499e-16  5.641447409057368e-16  3.996451629408093e-01
-1.011822295389861e+00  3.996451629408093e-01 -1.336096833326901e-16

-1.979962171908496e-16 -1.491172924536856e-16 -1.010466797477700e+00
-1.491172924536856e-16  5.071522320420485e-16  4.025615500864246e-01
-1.010466797477700e+00  4.025615500864246e-01 -1.199522007374331e-16

-1.806691562448133e-16 -1.292417710014523e-16 -1.009324314926271e+00
-1.292417710014523e-16  4.572678607004902e-16  4.074171060672593e-01
-1.009324314926271e+00  4.074171060672593e-01 -1.080026952221477e-16

-1.650194050424040e-16 -1.124147456790323e-16 -1.007463846496973e+00
-1.124147456790323e-16  4.133900539379229e-16  4.123224218930865e-01
-1.007463846496973e+00  4.123224218930865e-01 -9.754685022332768e-17

-1.507344985863941e-16 -9.825595577371838e-17 -1.008066852426887e+00
-9.825595577371838e-17  3.747585034773761e-16  4.121924128312441e-01
-1.008066852426887e+00  4.121924128312441e-01 -8.810845452435818e-17

-1.376351706007297e-16 -8.630230005860106e-17 -1.013303709439622e+00
-8.630230005860106e-17  3.407491036787298e-16  4.061433703203395e-01
-1.013303709439622e+00  4.061433703203395e-01 -7.936308968580165e-17

-1.259707023223774e-16 -7.592486480493103e-17 -1.013435675180786e+00
-7.592486480493103e-17  3.105293391042297e-16  4.064535134123550e-01
-1.013435675180786e+00  4.064535134123550e-01 -7.195616598817125e-17

-1.155704043540942e-16 -6.687777883301928e-17 -1.009426764941973e+00
-6.687777883301928e-17  2.835702258313485e-16  4.126436822108837e-01
-1.009426764941973e+00  4.126436822108837e-01 -6.569312585580412e-17

-1.060040642020150e-16 -5.913367686615133e-17 -1.009969543288259e+00
-5.913367686615133e-17  2.596745792256621e-16  4.141211026758320e-01
-1.009969543288259e+00  4.141211026758320e-01 -5.977607417478774e-17

-9.724021045785731e-17 -5.248500582144981e-17 -1.012531632477284e+00
-5.248500582144981e-17  2.384241117965512e-16  4.123303082924702e-01
-1.012531632477284e+00  4.123303082924702e-01 -5.430010902453644e-17

-8.932994557695589e-17 -4.669741125953647e-17 -1.012803934387498e+00
-4.669741125953647e-17  2.193558634474655e-16  4.124158328548190e-01
-1.012803934387498e+00  4.124158328548190e-01 -4.952907161829989e-17

-8.214849465095897e-17 -4.164801673591208e-17 -1.012427415785140e+00
-4.164801673591208e-17  2.022262312864106e-16  4.133850892702137e-01
-1.012427415785140e+00  4.133850892702137e-01 -4.527890921425802e-17

-7.558934091595593e-17 -3.724105580401111e-17 -1.012505866167161e+00
-3.724105580401111e-17  1.868390298771679e-16  4.139902348783158e-01
-1.012505866167161e+00  4.139902348783158e-01 -4.140805012558527e-17

-6.959816484153044e-17 -3.338349898035757e-17 -1.012635471461323e+00
-3.338349898035757e-17  1.729818695048754e-16  4.143838110285538e-01
-1.012635471461323e+00  4.143838110285538e-01 -3.789722515190663e-17

-6.411036183441683e-17 -2.999846332897033e-17 -1.013104457591435e+00
-2.999846332897033e-17  1.604866084055950e-16  4.143519859835031e-01
-1.013104457591435e+00  4.143519859835031e-01 -3.468342798113347e-17

-5.908609107496310e-17 -2.701658305344869e-17 -1.013544334372386e+00
-2.701658305344869e-17  1.491801425443082e-16  4.144530298658901e-01
-1.013544334372386e+00  4.144530298658901e-01 -3.176101068219667e-17

-5.450237607202951e-17 -2.437781400926305e-17 -1.013100697913639e+00
-2.437781400926305e-17  1.388953335741576e-16  4.155639258169377e-01
-1.013100697913639e+00  4.155639258169377e-01 -2.916354519145309e-17

-5.028965978291564e-17 -2.204668162219802e-17 -1.012799688924937e+00
-2.204668162219802e-17  1.295637442938822e-16  4.162719338540084e-01
-1.012799688924937e+00  4.162719338540084e-01 -2.678207474400609e-17

-4.638298712129305e-17 -1.998696202501849e-17 -1.013725155776707e+00
-1.998696202501849e-17  1.211261030085297e-16  4.154792748371485e-01
-1.013725155776707e+00  4.154792748371485e-01 -2.450889375430117e-17

-4.279125185267224e-17 -1.815359683941526e-17 -1.014393567180136e+00
-1.815359683941526e-17  1.134241720819001e-16  4.150585497321282e-01
-1.014393567180136e+00  4.150585497321282e-01 -2.244035949945636e-17

-3.951742365234185e-17 -1.651194717749973e-17 -1.013603450958152e+00
-1.651194717749973e-17  1.063289475757091e-16  4.164110609922672e-01
-1.013603450958152e+00  4.164110609922672e-01 -2.065147723784856e-17

-3.648976030516981e-17 -1.504781141867709e-17 -1.013054738567925e+00
-1.504781141867709e-17  9.984800215911136e-17  4.174149847154765e-01
-1.013054738567925e+00  4.174149847154765e-01 -1.899202668394765e-17

-3.365037448918340e-17 -1.374531098077914e-17 -1.014070397985012e+00
-1.374531098077914e-17  9.397962217380077e-17  4.164767526945489e-01
-1.014070397985012e+00  4.164767526945489e-01 -1.734394357455943e-17

-3.102782361214373e-17 -1.257653084675286e-17 -1.014793160940548e+00
-1.257653084675286e-17  8.858656598723332e-17  4.158387074132676e-01
-1.014793160940548e+00  4.158387074132676e-01 -1.583979825456521e-17

-2.863667847275685e-17 -1.152068771266029e-17 -1.013956360142225e+00
-1.152068771266029e-17  8.356284902640382e-17  4.170594496069679e-01
-1.013956360142225e+00  4.170594496069679e-01 -1.456761759186581e-17

-2.640860098625794e-17 -1.057163838773505e-17 -1.013540517916295e+00
-1.057163838773505e-17  7.895300730706678e-17  4.178478258133917e-01
-1.013540517916295e+00  4.178478258133917e-01 -1.336314855129803e-17

-2.430523813419209e-17 -9.720218765293808e-18 -1.014443262740494e+00
-9.720218765293808e-18  7.476141898763346e-17  4.170533265688096e-01
-1.014443262740494e+00  4.170533265688096e-01 -1.214651252797977e-17

-2.236230408917004e-17 -8.949946370860872e-18 -1.014752467219850e+00
-8.949946370860872e-18  7.087412970974160e-17  4.168258216726245e-01
-1.014752467219850e+00  4.168258216726245e-01 -1.105772580692377e-17

-2.057561700272510e-17 -8.250621717611528e-18 -1.014163598289308e+00
-8.250621717611528e-18  6.724218656600780e-17  4.176620081997579e-01
-1.014163598289308e+00  4.176620081997579e-01 -1.011445037878977e-17

-1.889614529185900e-17 -7.618014624006010e-18 -1.014161388758094e+00
-7.618014624006010e-18  6.390178981279460e-17  4.178987523263637e-01
-1.014161388758094e+00  4.178987523263637e-01 -9.195255468659630e-18

-1.731702309373045e-17 -7.044948916912064e-18 -1.014617586712384e+00
-7.044948916912064e-18  6.082922419003557e-17  4.175411831897691e-01
-1.014617586712384e+00  4.175411831897691e-01 -8.303097259100576e-18

-1.585102936391814e-17 -6.523240954684464e-18 -1.014676818694821e+00
-6.523240954684464e-18  5.796467376913319e-17  4.175890129453550e-01
-1.014676818694821e+00  4.175890129453550e-01 -7.499193829209056e-18

-1.448723977357407e-17 -6.047591186911739e-18 -1.014449982418791e+00
-6.047591186911739e-18  5.528999205957879e-17  4.179968866081493e-01
-1.014449982418791e+00  4.179968866081493e-01 -6.770874330614439e-18

-1.320558139557677e-17 -5.614257726051989e-18 -1.014431227789032e+00
-5.614257726051989e-18  5.281211317083891e-17  4.181494871533624e-01
-1.014431227789032e+00  4.181494871533624e-01 -6.075141849303537e-18

-1.199543047505493e-17 -5.219093991947430e-18 -1.014776007136036e+00
-5.219093991947430e-18  5.052202921691622e-17  4.178790322034716e-01
-1.014776007136036e+00  4.178790322034716e-01 -5.396184732832109e-18

-1.086567230529256e-17 -4.857266326865474e-18 -1.014889244359683e+00
-4.857266326865474e-18  4.837777324575083e-17  4.179015865089590e-01
-1.014889244359683e+00  4.179015865089590e-01 -4.776869817186298e-18

-9.816018691069980e-18 -4.525358334104427e-18 -1.014557092298871e+00
-4.525358334104427e-18  4.635868218916738e-17  4.184244870305834e-01
-1.014557092298871e+00  4.184244870305834e-01 -4.230234740953721e-18

-8.820608919553674e-18 -4.221607517328480e-18 -1.014598133262977e+00
-4.221607517328480e-18  4.448903208194133e-17  4.184958116991193e-01
-1.014598133262977e+00  4.184958116991193e-01 -3.689604705685123e-18

-7.875603808682404e-18 -3.943189742358216e-18 -1.014985151403865e+00
-3.943189742358216e-18  4.275794558754182e-17  4.181358006126060e-01
-1.014985151403865e+00  4.181358006126060e-01 -3.154505183539073e-18

-6.996562530616982e-18 -3.687271063372162e-18 -1.014924540019406e+00
-3.687271063372162e-18  4.112126108885224e-17  4.182364590021373e-01
-1.014924540019406e+00  4.182364590021373e-01 -2.684036849812959e-18

-6.172121337154590e-18 -3.450569592112103e-18 -1.014717276360837e+00
-3.450569592112103e-18  3.957971778058909e-17  4.185846749288333e-01
-1.014717276360837e+00  4.185846749288333e-01 -2.253312810204271e-18

-5.386245450703624e-18 -3.232723832223912e-18 -1.014855180597253e+00
-3.232723832223912e-18  3.814950194655156e-17  4.185596745679948e-01
-1.014855180597253e+00  4.185596745679948e-01 -1.821995683200129e-18

-4.645590610243838e-18 -3.033232663567052e-18 -1.014943464208077e+00
-3.033232663567052e-18  3.680776717165056e-17  4.184658487107492e-01
-1.014943464208077e+00  4.184658487107492e-01 -1.418341298845200e-18

-3.947895692017260e-18 -2.847460189001371e-18 -1.014954322366394e+00
-2.847460189001371e-18  3.554537715381762e-17  4.185212694641663e-01
-1.014954322366394e+00  4.185212694641663e-01 -1.043374833572396e-18

-3.273836116715778e-18 -2.676325558377508e-18 -1.015550056195291e+00
-2.676325558377508e-18  3.437441646163123e-17  4.181780975236179e-01
-1.015550056195291e+00  4.181780975236179e-01 -6.461205060160636e-19

-2.658000752815001e-18 -2.517163785590210e-18 -1.015239322333353e+00
-2.517163785590210e-18  3.323058430493170e-17  4.189492502340991e-01
-1.015239322333353e+00  4.189492502340991e-01 -3.385453439573601e-19

-2.119876770768350e-18 -2.369391783634750e-18 -1.013114901852098e+00
-2.369391783634750e-18  3.210040620347832e-17  4.209938679990377e-01
-1.013114901852098e+00  4.209938679990377e-01 -1.823659215033725e-19

-1.528951813558945e-18 -2.235263899848493e-18 -1.014332524834509e+00
-2.235263899848493e-18  3.119517731333825e-17  4.188357889571799e-01
-1.014332524834509e+00  4.188357889571799e-01  2.192209799186895e-19

-9.068697286210041e-19 -2.110918459400201e-18 -1.017995206609563e+00
-2.110918459400201e-18  3.042466481031236e-17  4.146951291675245e-01
-1.017995206609563e+00  4.146951291675245e-01  7.864936504317871e-19

-4.678258759262682e-19 -1.990743733810944e-18 -1.015450168052416e+00
-1.990743733810944e-18  2.941135463731975e-17  4.182294034314238e-01
-1.015450168052416e+00  4.182294034314238e-01  8.511546703673245e-19

-8.912189151062387e-20 -1.878977555497951e-18 -1.011506963774853e+00
-1.878977555497951e-18  2.838985043608054e-17  4.232574006199784e-01
-1.011506963774853e+00  4.232574006199784e-01  7.938684340858820e-19

 4.530678920257069e-19 -1.779230636080172e-18 -1.015054452483166e+00
-1.779230636080172e-18  2.776012092993518e-17  4.193726437687589e-01
-1.015054452483166e+00  4.193726437687589e-01  1.307458995994244e-18

 9.797314315246934e-19 -1.685978744646011e-18 -1.018862368681297e+00
-1.685978744646011e-18  2.719067701666781e-17  4.150140516616739e-01
-1.018862368681297e+00  4.150140516616739e-01  1.831468960684109e-18

 1.299346978392538e-18 -1.595391499692644e-18 -1.015211901192742e+00
-1.595391499692644e-18  2.632283022476191e-17  4.193398230736191e-01
-1.015211901192742e+00  4.193398230736191e-01  1.765701084070028e-18

 1.600772342402101e-18 -1.511661082687603e-18 -1.011610303165898e+00
-1.511661082687603e-18  2.550024486682428e-17  4.234550444183595e-01
-1.011610303165898e+00  4.234550444183595e-01  1.695422416366731e-18

 2.065482247706009e-18 -1.436988083923533e-18 -1.015276658069936e+00
-1.436988083923533e-18  2.505382569717336e-17  4.187961368064643e-01
-1.015276658069936e+00  4.187961368064643e-01  2.183314248082230e-18

 2.491681717037516e-18 -1.366139976539697e-18 -1.018098762055855e+00
-1.366139976539697e-18  2.460900975945298e-17  4.149251795057498e-01
-1.018098762055855e+00  4.149251795057498e-01  2.596910407417533e-18

 2.748880903307422e-18 -1.297086785040028e-18 -1.014836198735905e+00
-1.297086785040028e-18  2.390075873667982e-17  4.186565792619306e-01
-1.014836198735905e+00  4.186565792619306e-01  2.522514413221464e-18

 3.032547011752610e-18 -1.233022128221717e-18 -1.013291314623085e+00
-1.233022128221717e-18  2.326583136837430e-17  4.213299917647609e-01
-1.013291314623085e+00  4.213299917647609e-01  2.564180699328579e-18

 3.388009964406860e-18 -1.174060843399598e-18 -1.015209426831547e+00
-1.174060843399598e-18  2.282444783735671e-17  4.197319506588589e-01
-1.015209426831547e+00  4.197319506588589e-01  2.868487459971411e-18

 3.698468124356722e-18 -1.118694035977662e-18 -1.015841500421571e+00
-1.118694035977662e-18  2.238177857279810e-17  4.187671233566651e-01
-1.015841500421571e+00  4.187671233566651e-01  3.073390088903078e-18

 3.969412567247630e-18 -1.066531873365642e-18 -1.015405267726839e+00
-1.066531873365642e-18  2.191565080319229e-17  4.190061883359757e-01
-1.015405267726839e+00  4.190061883359757e-01  3.189436213392089e-18

 4.237329724217008e-18 -1.017522019588672e-18 -1.015342397517921e+00
-1.017522019588672e-18  2.147768047915010e-17  4.191199897387870e-01
-1.015342397517921e+00  4.191199897387870e-01  3.325683873872507e-18

 4.494350878905386e-18 -9.719230198039297e-19 -1.015312687188331e+00
-9.719230198039297e-19  2.106010805282651e-17  4.192460901287569e-01
-1.015312687188331e+00  4.192460901287569e-01  3.457461209333029e-18

 4.738452669622710e-18 -9.280607170124616e-19 -1.015204967430302e+00
-9.280607170124616e-19  2.066042011545486e-17  4.194562216321295e-01
-1.015204967430302e+00  4.194562216321295e-01  3.577640880599648e-18

 4.976918634256116e-18 -8.873336305465479e-19 -1.015281604972687e+00
-8.873336305465479e-19  2.029024348537932e-17  4.193813187407004e-01
-1.015281604972687e+00  4.193813187407004e-01  3.707217232511495e-18

 5.204300246590943e-18 -8.484519686742536e-19 -1.015302873547200e+00
-8.484519686742536e-19  1.993722114490343e-17  4.193188804950860e-01
-1.015302873547200e+00  4.193188804950860e-01  3.827994275556070e-18

 5.418724277969864e-18 -8.127784864517333e-19 -1.015179879028309e+00
-8.127784864517333e-19  1.959707273160665e-17  4.193365088962096e-01
-1.015179879028309e+00  4.193365088962096e-01  3.932720467498780e-18

 5.632405130056887e-18 -7.786890972688329e-19 -1.015386358244063e+00
-7.786890972688329e-19  1.928344178682174e-17  4.191089920462118e-01
-1.015386358244063e+00  4.191089920462118e-01  4.056988243848236e-18

 5.835547211137549e-18 -7.463869123427906e-19 -1.015514693061308e+00
-7.463869123427906e-19  1.897619149908904e-17  4.191089084228125e-01
-1.015514693061308e+00  4.191089084228125e-01  4.169140313416918e-18

 6.017638046888200e-18 -7.158065975455559e-19 -1.015114770813407e+00
-7.158065975455559e-19  1.865986978336527e-17  4.197113136361565e-01
-1.015114770813407e+00  4.197113136361565e-01  4.235990183959484e-18

 6.198210516599638e-18 -6.870632871223894e-19 -1.014952477647412e+00
-6.870632871223894e-19  1.837283376051121e-17  4.199170322550946e-01
-1.014952477647412e+00  4.199170322550946e-01  4.318317217953963e-18

 6.362245281655923e-18 -6.571700944521349e-19 -1.015428984473449e+00
-6.571700944521349e-19  1.809150848882620e-17  4.192731553081233e-01
-1.015428984473449e+00  4.192731553081233e-01  4.454351080036240e-18

 6.556911704695979e-18 -6.414528545698274e-19 -1.015816196703797e+00
-6.414528545698274e-19  1.787089290560878e-17  4.188052431749792e-01
-1.015816196703797e+00  4.188052431749792e-01  4.568928258086190e-18

 6.723392188585613e-18 -6.096514344160546e-19 -1.015442046919279e+00
-6.096514344160546e-19  1.762758071130328e-17  4.193778809886927e-01
-1.015442046919279e+00  4.193778809886927e-01  4.619093444942307e-18

 6.870240418040984e-18 -5.865106930695199e-19 -1.015003017422910e+00
-5.865106930695199e-19  1.736935850418217e-17  4.200665352210528e-01
-1.015003017422910e+00  4.200665352210528e-01  4.664016583726447e-18

 7.028503640735790e-18 -5.647633264702684e-19 -1.015248621404728e+00
-5.647633264702684e-19  1.715674114645036e-17  4.198264613474000e-01
-1.015248621404728e+00  4.198264613474000e-01  4.760410568282565e-18

 7.181027697946388e-18 -5.441207349728542e-19 -1.015482714460642e+00
-5.441207349728542e-19  1.696153929956108e-17  4.193750847918618e-01
-1.015482714460642e+00  4.193750847918618e-01  4.855076397261735e-18

 7.321367223663187e-18 -5.245178407537497e-19 -1.015438484273962e+00
-5.245178407537497e-19  1.676383430413781e-17  4.192300939731692e-01
-1.015438484273962e+00  4.192300939731692e-01  4.925301931225533e-18

 7.459360993397619e-18 -5.058612105296938e-19 -1.015514072855361e+00
-5.058612105296938e-19  1.657132580001529e-17  4.191703349165514e-01
-1.015514072855361e+00  4.191703349165514e-01  4.999698996727693e-18

 7.590039298353541e-18 -4.880449983246335e-19 -1.015503503363980e+00
-4.880449983246335e-19  1.637813292494908e-17  4.193999381515904e-01
-1.015503503363980e+00  4.193999381515904e-01  5.062629406289862e-18

 7.713084684984824e-18 -4.711701438016329e-19 -1.015367771095484e+00
-4.711701438016329e-19  1.618527258271235e-17  4.198226438874458e-01
-1.015367771095484e+00  4.198226438874458e-01  5.112824488911387e-18

 7.833974639511314e-18 -4.551545466147646e-19 -1.015319289399208e+00
-4.551545466147646e-19  1.600771660372256e-17  4.200165017825022e-01
-1.015319289399208e+00  4.200165017825022e-01  5.168942903072352e-18

 7.953537124408074e-18 -4.400082211053165e-19 -1.015372908307516e+00
-4.400082211053165e-19  1.585095552932163e-17  4.198526272373677e-01
-1.015372908307516e+00  4.198526272373677e-01  5.233403881435760e-18

 8.072412448183278e-18 -4.256089757615167e-19 -1.015556513542901e+00
-4.256089757615167e-19  1.571072446627659e-17  4.194210433515937e-01
-1.015556513542901e+00  4.194210433515937e-01  5.307177778592073e-18

 8.186610406119501e-18 -4.118419619264620e-19 -1.015708887070189e+00
-4.118419619264620e-19  1.557196437420902e-17  4.191378956040855e-01
-1.015708887070189e+00  4.191378956040855e-01  5.375440032419453e-18

 8.288435301644782e-18 -3.986380135414858e-19 -1.015520055356518e+00
-3.986380135414858e-19  1.541728318197193e-17  4.194406219405747e-01
-1.015520055356518e+00  4.194406219405747e-01  5.413275888225035e-18

 8.382147200023760e-18 -3.860796754023900e-19 -1.015148260092229e+00
-3.860796754023900e-19  1.525777622952826e-17  4.200039068657151e-01
-1.015148260092229e+00  4.200039068657151e-01  5.434339026430409e-18

 8.482597225911373e-18 -3.742504685223498e-19 -1.015172346869245e+00
-3.742504685223498e-19  1.512610525977908e-17  4.199955405756279e-01
-1.015172346869245e+00  4.199955405756279e-01  5.485172406181383e-18

 8.591095715276950e-18 -3.630545595593408e-19 -1.015638891064464e+00
-3.630545595593408e-19  1.502368593399314e-17  4.193973797720261e-01
-1.015638891064464e+00  4.193973797720261e-01  5.569179447979828e-18

 8.689772242974915e-18 -3.520246494766751e-19 -1.015871966533935e+00
-3.520246494766751e-19  1.491238898047101e-17  4.191694746295940e-01
-1.015871966533935e+00  4.191694746295940e-01  5.632443421834465e-18

 8.769178969747037e-18 -3.414464046504171e-19 -1.015450562385116e+00
-3.414464046504171e-19  1.477092733039973e-17  4.198126838022650e-01
-1.015450562385116e+00  4.198126838022650e-01  5.642328156575235e-18

 8.847792656432734e-18 -3.316439207425411e-19 -1.015081418472604e+00
-3.316439207425411e-19  1.464001180799380e-17  4.203351083278836e-01
-1.015081418472604e+00  4.203351083278836e-01  5.655424599106598e-18

 8.942828383879544e-18 -3.224320293196952e-19 -1.015465149241615e+00
-3.224320293196952e-19  1.455269533851027e-17  4.198326963772172e-01
-1.015465149241615e+00  4.198326963772172e-01  5.727118586809583e-18

 9.036100095462724e-18 -3.134212138410546e-19 -1.015898745205260e+00
-3.134212138410546e-19  1.447378616413789e-17  4.192113227085916e-01
-1.015898745205260e+00  4.192113227085916e-01  5.801959467726569e-18

 9.110601852643717e-18 -3.047894191607384e-19 -1.015672287753237e+00
-3.047894191607384e-19  1.436500590360345e-17  4.194666709047072e-01
-1.015672287753237e+00  4.194666709047072e-01  5.823225056731105e-18

 9.175582398207744e-18 -2.961438917837652e-19 -1.015217493596756e+00
-2.961438917837652e-19  1.424673382533681e-17  4.200869255851967e-01
-1.015217493596756e+00  4.200869255851967e-01  5.824544125639301e-18

 9.253490377690978e-18 -2.891623169519232e-19 -1.015213073566925e+00
-2.891623169519232e-19  1.415525669032584e-17  4.201092505597884e-01
-1.015213073566925e+00  4.201092505597884e-01  5.860148610487193e-18

 9.337199990536701e-18 -2.819963001381418e-19 -1.015595843445142e+00
-2.819963001381418e-19  1.408931434021764e-17  4.195691593913534e-01
-1.015595843445142e+00  4.195691593913534e-01  5.925487875468588e-18

 9.405930352662945e-18 -2.725844430048623e-19 -1.015790709027284e+00
-2.725844430048623e-19  1.401536982867381e-17  4.192952894203987e-01
-1.015790709027284e+00  4.192952894203987e-01  5.974380611921231e-18

 9.479421354984039e-18 -2.681489848147300e-19 -1.015653105301604e+00
-2.681489848147300e-19  1.392427800288043e-17  4.195985827985962e-01
-1.015653105301604e+00  4.195985827985962e-01  5.994404931707152e-18

 9.543089989210410e-18 -2.618574218338078e-19 -1.015486786888742e+00
-2.618574218338078e-19  1.383072161687077e-17  4.200482703969958e-01
-1.015486786888742e+00  4.200482703969958e-01  6.010144893087076e-18

 9.604054857222714e-18 -2.546422180521710e-19 -1.015442029226398e+00
-2.546422180521710e-19  1.374988946002376e-17  4.202386450719927e-01
-1.015442029226398e+00  4.202386450719927e-01  6.035696127070668e-18

 9.670340476378658e-18 -2.490597428679585e-19 -1.015496193613972e+00
-2.490597428679585e-19  1.368600864070602e-17  4.200706704475762e-01
-1.015496193613972e+00  4.200706704475762e-01  6.070662315883788e-18

 9.708620577337621e-18 -2.345905164630587e-19 -1.015677622136855e+00
-2.345905164630587e-19  1.363001144236313e-17  4.196369076355127e-01
-1.015677622136855e+00  4.196369076355127e-01  6.115999745693076e-18

 9.828851451132722e-18 -2.464536570981879e-19 -1.015828289013395e+00
-2.464536570981879e-19  1.358035064045232e-17  4.193519075956246e-01
-1.015828289013395e+00  4.193519075956246e-01  6.157031131711380e-18

 9.864745080671602e-18 -2.355343896823777e-19 -1.015638512413188e+00
-2.355343896823777e-19  1.350461905941948e-17  4.196535154760539e-01
-1.015638512413188e+00  4.196535154760539e-01  6.168806484562555e-18

 9.958147763372918e-18 -2.446171046253279e-19 -1.015262226483884e+00
-2.446171046253279e-19  1.342545454676524e-17  4.202211240920000e-01
-1.015262226483884e+00  4.202211240920000e-01  6.164598553059286e-18

 9.832755736030232e-18 -1.833379444854810e-19 -1.015270761366082e+00
-1.833379444854810e-19  1.334940089268833e-17  4.202260186370726e-01
-1.015270761366082e+00  4.202260186370726e-01  6.190394060759615e-18

 1.021509687279662e-17 -2.778576782168164e-19 -1.015656126240101e+00
-2.778576782168164e-19  1.334608291359867e-17  4.196765571583913e-01
-1.015656126240101e+00  4.196765571583913e-01  6.245604383350833e-18

 1.045030426844230e-17 -3.294923574420092e-19 -1.015849933768291e+00
-3.294923574420092e-19  1.332105281399548e-17  4.193986304723101e-01
-1.015849933768291e+00  4.193986304723101e-01  6.284499363593952e-18

 1.097834465371494e-17 -4.734466783605884e-19 -1.015711311501075e+00
-4.734466783605884e-19  1.330399367393135e-17  4.196995600634005e-01
-1.015711311501075e+00  4.196995600634005e-01  6.294895354524967e-18

 8.210231391230122e-18  4.094272263142136e-19 -1.015543857943189e+00
 4.094272263142136e-19  1.296329811550735e-17  4.201479900976427e-01
-1.015543857943189e+00  4.201479900976427e-01  6.301349850098236e-18

 9.012614732298904e-18  1.772080580672840e-19 -1.015497613083701e+00
 1.772080580672840e-19  1.298183953557295e-17  4.203374975457405e-01
-1.015497613083701e+00  4.203374975457405e-01  6.317957884156135e-18

 2.017584990545310e-17 -3.302293871608837e-18 -1.015550936932518e+00
-3.302293871608837e-18  1.403479783429879e-17  4.201680218249486e-01
-1.015550936932518e+00  4.201680218249486e-01  6.344359528439558e-18

 8.926986366226427e-18  2.445721260902822e-19 -1.015731713640723e+00
 2.445721260902822e-19  1.289619886071136e-17  4.197327317263110e-01
-1.015731713640723e+00  4.197327317263110e-01  6.381435221674059e-18

 2.689528329634050e-17 -5.381777953859204e-18 -1.015880922490909e+00
-5.381777953859204e-18  1.463305802120806e-17  4.194463970792244e-01
-1.015880922490909e+00  4.194463970792244e-01  6.414450428869623e-18

-9.066219216388879e-17  3.160106567508597e-17 -1.015690294181997e+00
 3.160106567508597e-17  2.950978061114536e-18  4.197445770921928e-01
-1.015690294181997e+00  4.197445770921928e-01  6.418553705689358e-18

 1.172308015247047e-16 -3.380605710384703e-17 -1.015317330188556e+00
-3.380605710384703e-17  2.347512896769257e-17  4.203030070392201e-01
-1.015317330188556e+00  4.203030070392201e-01  6.407254019628156e-18

 8.480319508972999e-17 -2.360563167530491e-17 -1.015338982225231e+00
-2.360563167530491e-17  2.023519488561320e-17  4.202912772477954e-01
-1.015338982225231e+00  4.202912772477954e-01  6.426914208347925e-18

 4.592407379119629e-17 -1.134330509221078e-17 -1.015803299407842e+00
-1.134330509221078e-17  1.636184604388918e-17  4.196897761701277e-01
-1.015803299407842e+00  4.196897761701277e-01  6.480981574202462e-18

 1.847598080202335e-17 -2.666796735480983e-18 -1.016034533958852e+00
-2.666796735480983e-18  1.360065879481877e-17  4.194581378051204e-01
-1.016034533958852e+00  4.194581378051204e-01  6.515499326077570e-18

 1.184827447132610e-17 -5.618837130271158e-19 -1.015611564993751e+00
-5.618837130271158e-19  1.287988930880192e-17  4.200974283082811e-01
-1.015611564993751e+00  4.200974283082811e-01  6.497764640915616e-18

 9.307951807999328e-18  2.538756617439470e-19 -1.015241062530712e+00
 2.538756617439470e-19  1.256978516939245e-17  4.206160679102161e-01
-1.015241062530712e+00  4.206160679102161e-01  6.484312876457928e-18

 9.334175796792195e-18  2.634081648790693e-19 -1.015622863874662e+00
 2.634081648790693e-19  1.255664294936322e-17  4.201108216333864e-01
-1.015622863874662e+00  4.201108216333864e-01  6.530422002409925e-18

 1.063377958356342e-17 -1.306916636147736e-19 -1.016054213967663e+00
-1.306916636147736e-19  1.267667444030101e-17  4.194871128669979e-01
-1.016054213967663e+00  4.194871128669979e-01  6.580616870567197e-18

 1.055056289881022e-17 -9.213650092687469e-20 -1.015826546832507e+00
-9.213650092687469e-20  1.262702629211802e-17  4.197390506539534e-01
-1.015826546832507e+00  4.197390506539534e-01  6.578237520518602e-18

 1.061146370484929e-17 -1.014818075993769e-19 -1.015370898086858e+00
-1.014818075993769e-19  1.257921761297424e-17  4.203556016036073e-01
-1.015370898086858e+00  4.203556016036073e-01  6.556819063231469e-18

 1.092980120118592e-17 -1.896278038798373e-19 -1.015364656943091e+00
-1.896278038798373e-19  1.258107048336919e-17  4.203754666430119e-01
-1.015364656943091e+00  4.203754666430119e-01  6.570452057605354e-18

 1.081529927088044e-17 -1.372238371153889e-19 -1.015745518690389e+00
-1.372238371153889e-19  1.256140060288951e-17  4.198332153586010e-01
-1.015745518690389e+00  4.198332153586010e-01  6.614616463506668e-18

 1.088794746447714e-17 -1.461885520557317e-19 -1.015939267140721e+00
-1.461885520557317e-19  1.255148888410312e-17  4.195564289250852e-01
-1.015939267140721e+00  4.195564289250852e-01  6.643162984412162e-18

 1.091262626588826e-17 -1.428297258505691e-19 -1.015800641609040e+00
-1.428297258505691e-19  1.251789112191917e-17  4.198567758555070e-01
-1.015800641609040e+00  4.198567758555070e-01  6.643583336464148e-18

 1.095969959488659e-17 -1.472076711073009e-19 -1.015632906936294e+00
-1.472076711073009e-19  1.248031807914639e-17  4.203040943860828e-01
-1.015632906936294e+00  4.203040943860828e-01  6.640392995272147e-18

 1.097080125879288e-17 -1.393737313293967e-19 -1.015586466771269e+00
-1.393737313293967e-19  1.245076978115875e-17  4.204924103489194e-01
-1.015586466771269e+00  4.204924103489194e-01  6.647672545362265e-18

 1.101066034613128e-17 -1.401400134095535e-19 -1.015638953176401e+00
-1.401400134095535e-19  1.243812044136125e-17  4.203222182674802e-01
-1.015638953176401e+00  4.203222182674802e-01  6.665017258899357e-18

 1.104444949920447e-17 -1.381415610422463e-19 -1.015819338120863e+00
-1.381415610422463e-19  1.243531039849301e-17  4.198855319487081e-01
-1.015819338120863e+00  4.198855319487081e-01  6.693380542691098e-18

 1.107560108591012e-17 -1.357788291899207e-19 -1.015968406067377e+00
-1.357788291899207e-19  1.242652670146623e-17  4.195975232539958e-01
-1.015968406067377e+00  4.195975232539958e-01  6.717994916961037e-18

 1.109580881648107e-17 -1.328961010950218e-19 -1.015776720976475e+00
-1.328961010950218e-19  1.239678468346907e-17  4.198950699274027e-01
-1.015776720976475e+00  4.198950699274027e-01  6.713905682829811e-18

 1.111459727864786e-17 -1.313178188641098e-19 -1.015402841142215e+00
-1.313178188641098e-19  1.235906539944386e-17  4.204527357633823e-01
-1.015402841142215e+00  4.204527357633823e-01  6.694692380838487e-18

 1.114543011417044e-17 -1.306982672568668e-19 -1.015424552837053e+00
-1.306982672568668e-19  1.234348978104350e-17  4.204391818847081e-01
-1.015424552837053e+00  4.204391818847081e-01  6.706773074758164e-18

 1.118124760899898e-17 -1.283258824068680e-19 -1.015888454856719e+00
-1.283258824068680e-19  1.235102896214419e-17  4.198364344140086e-01
-1.015888454856719e+00  4.198364344140086e-01  6.753472813468486e-18

 1.121410231730746e-17 -1.270453579082966e-19 -1.016118612632868e+00
-1.270453579082966e-19  1.234547339934589e-17  4.196044319490690e-01
-1.016118612632868e+00  4.196044319490690e-01  6.780809668083406e-18

 1.122824795078293e-17 -1.252099801562188e-19 -1.015695100036677e+00
-1.252099801562188e-19  1.230672546375640e-17  4.202428569762561e-01
-1.015695100036677e+00  4.202428569762561e-01  6.756164603493825e-18

 1.124392496571350e-17 -1.237161920134713e-19 -1.015324310159043e+00
-1.237161920134713e-19  1.227311702751498e-17  4.207602223312366e-01
-1.015324310159043e+00  4.207602223312366e-01  6.736045108123447e-18

 1.127890447742833e-17 -1.225711295180584e-19 -1.015705675509309e+00
-1.225711295180584e-19  1.228007674140769e-17  4.202538014722937e-01
-1.015705675509309e+00  4.202538014722937e-01  6.775689293945388e-18

 1.131371081229581e-17 -1.210553449982412e-19 -1.016136571512605e+00
-1.210553449982412e-19  1.229157919224147e-17  4.196290893330270e-01
-1.016136571512605e+00  4.196290893330270e-01  6.819621733584228e-18

 1.133184284998939e-17 -1.196286899825225e-19 -1.015908213424121e+00
-1.196286899825225e-19  1.227129924696494e-17  4.198804283253803e-01
-1.015908213424121e+00  4.198804283253803e-01  6.811157530248101e-18

 1.134375147646590e-17 -1.182793792560246e-19 -1.015452058243181e+00
-1.182793792560246e-19  1.223483922974090e-17  4.204962435444805e-01
-1.015452058243181e+00  4.204962435444805e-01  6.783858005984183e-18

 1.136651852162880e-17 -1.170348371469110e-19 -1.015445576109245e+00
-1.170348371469110e-19  1.222386895101778e-17  4.205150708797421e-01
-1.015445576109245e+00  4.205150708797421e-01  6.791814110134327e-18

 1.139875246910856e-17 -1.158618117454103e-19 -1.015825831832875e+00
-1.158618117454103e-19  1.223490079533004e-17  4.199721033908804e-01
-1.015825831832875e+00  4.199721033908804e-01  6.830451113986311e-18

 1.142555150592086e-17 -1.145761844177098e-19 -1.016019098008211e+00
-1.145761844177098e-19  1.223563709050243e-17  4.196944784858611e-01
-1.016019098008211e+00  4.196944784858611e-01  6.853649769935909e-18

 1.144361607050865e-17 -1.133583946500593e-19 -1.015880379765815e+00
-1.133583946500593e-19  1.221636270204474e-17  4.199936853128908e-01
-1.015880379765815e+00  4.199936853128908e-01  6.848914966385448e-18

 1.146045781456488e-17 -1.121963613374306e-19 -1.015712130794065e+00
-1.121963613374306e-19  1.219152639385990e-17  4.204404393194626e-01
-1.015712130794065e+00  4.204404393194626e-01  6.840693969307268e-18

 1.148026251904882e-17 -1.111447214568802e-19 -1.015664799570034e+00
-1.111447214568802e-19  1.217549088198478e-17  4.206285853097909e-01
-1.015664799570034e+00  4.206285853097909e-01  6.843066706865961e-18

 1.150224327834581e-17 -1.100568552107166e-19 -1.015716904536003e+00
-1.100568552107166e-19  1.217467290351029e-17  4.204575079726298e-01
-1.015716904536003e+00  4.204575079726298e-01  6.855692502035529e-18

 1.152734730415696e-17 -1.090328850091816e-19 -1.015897536245548e+00
-1.090328850091816e-19  1.218412495643803e-17  4.200192278161877e-01
-1.015897536245548e+00  4.200192278161877e-01  6.879527132561613e-18

 1.155124470767733e-17 -1.079927688707274e-19 -1.016046470818645e+00
-1.079927688707274e-19  1.218825316043054e-17  4.197303345254882e-01
-1.016046470818645e+00  4.197303345254882e-01  6.899717364267865e-18

 1.156606445201102e-17 -1.069368859076078e-19 -1.015853697039677e+00
-1.069368859076078e-19  1.216931460873755e-17  4.200283122110972e-01
-1.015853697039677e+00  4.200283122110972e-01  6.891259653731946e-18

 1.157598230777287e-17 -1.059668206118998e-19 -1.015478916043764e+00
-1.059668206118998e-19  1.214216246463497e-17  4.205860620465647e-01
-1.015478916043764e+00  4.205860620465647e-01  6.867821152645383e-18

 1.159552922804800e-17 -1.050643109805831e-19 -1.015500951161285e+00
-1.050643109805831e-19  1.213709388766156e-17  4.205709006475285e-01
-1.015500951161285e+00  4.205709006475285e-01  6.875897714762359e-18

 1.162575450213805e-17 -1.041397424624066e-19 -1.015965281686542e+00
-1.041397424624066e-19  1.215527744643876e-17  4.199663988763704e-01
-1.015965281686542e+00  4.199663988763704e-01  6.918720914602927e-18

 1.164977553235138e-17 -1.031856651463985e-19 -1.016194560513405e+00
-1.031856651463985e-19  1.216017492283339e-17  4.197343955998308e-01
-1.016194560513405e+00  4.197343955998308e-01  6.942192040021834e-18

 1.165718840282270e-17 -1.022734229406566e-19 -1.015769813852196e+00
-1.022734229406566e-19  1.213116609491933e-17  4.203733984635794e-01
-1.015769813852196e+00  4.203733984635794e-01  6.913762455120379e-18

 1.166567909131143e-17 -1.014571098200552e-19 -1.015399044342156e+00
-1.014571098200552e-19  1.210721299819695e-17  4.208898165574101e-01
-1.015399044342156e+00  4.208898165574101e-01  6.890063410819189e-18

 1.169277771597397e-17 -1.006708237185337e-19 -1.015780868150854e+00
-1.006708237185337e-19  1.212177103476466e-17  4.203818015813506e-01
-1.015780868150854e+00  4.203818015813506e-01  6.926267004020290e-18

 1.172089128329755e-17 -9.982850994914848e-20 -1.016211237607085e+00
-9.982850994914848e-20  1.214436846916987e-17  4.197566957936365e-01
-1.016211237607085e+00  4.197566957936365e-01  6.966781669155051e-18

 1.173225010810519e-17 -9.897681791775001e-20 -1.015982019107391e+00
-9.897681791775001e-20  1.212961291359657e-17  4.200082338256603e-01
-1.015982019107391e+00  4.200082338256603e-01  6.954968026939976e-18

 1.173763275878442e-17 -9.820725537748563e-20 -1.015525624386045e+00
-9.820725537748563e-20  1.210323671937955e-17  4.206235531966577e-01
-1.015525624386045e+00  4.206235531966577e-01  6.924460123231194e-18

 1.175395458493852e-17 -9.748802064513135e-20 -1.015519314440360e+00
-9.748802064513135e-20  1.209966772855323e-17  4.206413147058788e-01
-1.015519314440360e+00  4.206413147058788e-01  6.929331157896516e-18

 1.177972551082038e-17 -9.676482420790816e-20 -1.015899418470847e+00
-9.676482420790816e-20  1.211909020875373e-17  4.200976901788108e-01
-1.015899418470847e+00  4.200976901788108e-01  6.964945444524321e-18

 1.180046517204533e-17 -9.599937285819466e-20 -1.016091790497638e+00
-9.599937285819466e-20  1.212605097828717e-17  4.198202644009865e-01
-1.016091790497638e+00  4.198202644009865e-01  6.985148349799443e-18

 1.181255974213818e-17 -9.527070957065923e-20 -1.015952400310839e+00
-9.527070957065923e-20  1.211379833731958e-17  4.201192656242507e-01
-1.015952400310839e+00  4.201192656242507e-01  6.977517772009238e-18

 1.182362254596295e-17 -9.458590771992829e-20 -1.015784642239421e+00
-9.458590771992829e-20  1.209529755639577e-17  4.205644403790725e-01
-1.015784642239421e+00  4.205644403790725e-01  6.966570140608277e-18

 1.183760223738211e-17 -9.393552247309292e-20 -1.015737741037560e+00
-9.393552247309292e-20  1.208705823354588e-17  4.207513469320426e-01
-1.015737741037560e+00  4.207513469320426e-01  6.966285234338371e-18

 1.185408603831504e-17 -9.330632070937916e-20 -1.015788836227041e+00
-9.330632070937916e-20  1.209177700826754e-17  4.205810075287518e-01
-1.015788836227041e+00  4.205810075287518e-01  6.976212780280576e-18

 1.187368354802530e-17 -9.268115799325525e-20 -1.015968095990838e+00
-9.268115799325525e-20  1.210686672404507e-17  4.201437878181780e-01
-1.015968095990838e+00  4.201437878181780e-01  6.997393824179903e-18

 1.189224481811381e-17 -9.203224733490332e-20 -1.016117188899109e+00
-9.203224733490332e-20  1.211734497091464e-17  4.198537511844038e-01
-1.016117188899109e+00  4.198537511844038e-01  7.015122676324577e-18

 1.190193563762587e-17 -9.137299249728572e-20 -1.015925562728380e+00
-9.137299249728572e-20  1.210511090968655e-17  4.201492891986386e-01
-1.015925562728380e+00  4.201492891986386e-01  7.004348557408478e-18

 1.190677805283349e-17 -9.077912899521254e-20 -1.015550601007747e+00
-9.077912899521254e-20  1.208266533344130e-17  4.207064990714283e-01
-1.015550601007747e+00  4.207064990714283e-01  6.978551856688220e-18

 1.192131931948719e-17 -9.023263054548383e-20 -1.015571062186316e+00
-9.023263054548383e-20  1.208361760510628e-17  4.206928161355611e-01
-1.015571062186316e+00  4.206928161355611e-01  6.984221356165358e-18

 1.194670723547122e-17 -8.966837612982997e-20 -1.016034622921030e+00
-8.966837612982997e-20  1.210724317775428e-17  4.200887826748889e-01
-1.016034622921030e+00  4.200887826748889e-01  7.024761767538086e-18

 1.196601215328067e-17 -8.905004490197478e-20 -1.016264541973577e+00
-8.905004490197478e-20  1.211766403991699e-17  4.198551792213341e-01
-1.016264541973577e+00  4.198551792213341e-01  7.046122435484626e-18

 1.196878018976440e-17 -8.846222009425712e-20 -1.015840430197757e+00
-8.846222009425712e-20  1.209283174331508e-17  4.204924733874698e-01
-1.015840430197757e+00  4.204924733874698e-01  7.015640028076093e-18

 1.197274236281760e-17 -8.797050842198876e-20 -1.015469079665423e+00
-8.797050842198876e-20  1.207383672414694e-17  4.210089236485949e-01
-1.015469079665423e+00  4.210089236485949e-01  6.989846200374618e-18

 1.199539246555670e-17 -8.749696345560347e-20 -1.015849660817450e+00
-8.749696345560347e-20  1.209394567202463e-17  4.205019246979155e-01
-1.015849660817450e+00  4.205019246979155e-01  7.023955414671407e-18

 1.201916436348705e-17 -8.694838256280710e-20 -1.016279900821167e+00
-8.694838256280710e-20  1.211841811715884e-17  4.198764954999221e-01
-1.016279900821167e+00  4.198764954999221e-01  7.062514239330715e-18

 1.202629609687659e-17 -8.638630732746742e-20 -1.016051382803427e+00
-8.638630732746742e-20  1.211112739230011e-17  4.201265622217962e-01
-1.016051382803427e+00  4.201265622217962e-01  7.048861980022425e-18

 1.202750473393455e-17 -8.589216957774723e-20 -1.015594691495019e+00
-8.589216957774723e-20  1.208647041205562e-17  4.207415226739613e-01
-1.015594691495019e+00  4.207415226739613e-01  7.016486886733305e-18

 1.203974490522575e-17 -8.545005577360575e-20 -1.015587391067348e+00
-8.545005577360575e-20  1.208692417510963e-17  4.207597926682535e-01
-1.015587391067348e+00  4.207597926682535e-01  7.019484101049878e-18

 1.206152303137695e-17 -8.498531748278983e-20 -1.015967390240396e+00
-8.498531748278983e-20  1.210911509362278e-17  4.202156497427934e-01
-1.015967390240396e+00  4.202156497427934e-01  7.053338665184124e-18

 1.207839007283481e-17 -8.448035478703919e-20 -1.016160359698363e+00
-8.448035478703919e-20  1.212318026142105e-17  4.199369602595911e-01
-1.016160359698363e+00  4.199369602595911e-01  7.071880917081550e-18

 1.208664352812737e-17 -8.399370994954903e-20 -1.016020796822903e+00
-8.399370994954903e-20  1.211325199278097e-17  4.202358332407866e-01
-1.016020796822903e+00  4.202358332407866e-01  7.062570324367972e-18

 1.209393196804955e-17 -8.355313183576834e-20 -1.015851742665509e+00
-8.355313183576834e-20  1.209877959423460e-17  4.206821657873336e-01
-1.015851742665509e+00  4.206821657873336e-01  7.049897244415620e-18

 1.210423806513829e-17 -8.313759229301444e-20 -1.015804451802999e+00
-8.313759229301444e-20  1.209400302778513e-17  4.208688919851120e-01
-1.015804451802999e+00  4.208688919851120e-01  7.048001199302726e-18

 1.211714831165579e-17 -8.273259305167071e-20 -1.015856667996692e+00
-8.273259305167071e-20  1.210172420209612e-17  4.206964463295706e-01
-1.015856667996692e+00  4.206964463295706e-01  7.056475703389004e-18

 1.213322178839418e-17 -8.232443931094444e-20 -1.016036056359455e+00
-8.232443931094444e-20  1.212057962858947e-17  4.202584213803735e-01
-1.016036056359455e+00  4.202584213803735e-01  7.076164712006213e-18

 1.214828707000348e-17 -8.188464740734532e-20 -1.016183858273530e+00
-8.188464740734532e-20  1.213361506361328e-17  4.199696086316266e-01
-1.016183858273530e+00  4.199696086316266e-01  7.092324169263087e-18

 1.215456872188006e-17 -8.143657416200901e-20 -1.015991433152952e+00
-8.143657416200901e-20  1.212546686624991e-17  4.202658733514896e-01
-1.015991433152952e+00  4.202658733514896e-01  7.080053974001332e-18

 1.215608989989478e-17 -8.104250173346405e-20 -1.015616916236188e+00
-8.104250173346405e-20  1.210580117035703e-17  4.208219719035322e-01
-1.015616916236188e+00  4.208219719035322e-01  7.052895369457752e-18

 1.216738222646695e-17 -8.069173203592202e-20 -1.015638113173213e+00
-8.069173203592202e-20  1.210786397222928e-17  4.208067075997175e-01
-1.015638113173213e+00  4.208067075997175e-01  7.057262328759980e-18

 1.218955618016148e-17 -8.031116745760131e-20 -1.016101253616396e+00
-8.031116745760131e-20  1.213506617314884e-17  4.202027011527718e-01
-1.016101253616396e+00  4.202027011527718e-01  7.096440958799786e-18

 1.220568699254524e-17 -7.987758954881394e-20 -1.016330071206491e+00
-7.987758954881394e-20  1.214590034469714e-17  4.199701655735184e-01
-1.016330071206491e+00  4.199701655735184e-01  7.116416140615193e-18

 1.220536500726624e-17 -7.946864859425093e-20 -1.015905913960496e+00
-7.946864859425093e-20  1.212525416444480e-17  4.206073103709758e-01
-1.015905913960496e+00  4.206073103709758e-01  7.084661034167433e-18

 1.220629746884303e-17 -7.915076950329014e-20 -1.015534865921604e+00
-7.915076950329014e-20  1.210908875529704e-17  4.211228990680454e-01
-1.015534865921604e+00  4.211228990680454e-01  7.057654185304960e-18

 1.222595958518694e-17 -7.884240823468062e-20 -1.015915065001509e+00
-7.884240823468062e-20  1.213241653631471e-17  4.206155243250432e-01
-1.015915065001509e+00  4.206155243250432e-01  7.090531435958224e-18

 1.224680691192645e-17 -7.845645111993938e-20 -1.016345335358594e+00
-7.845645111993938e-20  1.215852696282563e-17  4.199894874190713e-01
-1.016345335358594e+00  4.199894874190713e-01  7.127917047319373e-18

 1.225106333742076e-17 -7.805350427078451e-20 -1.016116926856263e+00
-7.805350427078451e-20  1.215131490491404e-17  4.202393255174615e-01
-1.016116926856263e+00  4.202393255174615e-01  7.113117919947477e-18

 1.224942283578133e-17 -7.771541879281188e-20 -1.015659341775325e+00
-7.771541879281188e-20  1.213045977748477e-17  4.208552080833302e-01
-1.015659341775325e+00  4.208552080833302e-01  7.079545636479996e-18

 1.225887903954728e-17 -7.742337426193925e-20 -1.015651796257836e+00
-7.742337426193925e-20  1.213330083216176e-17  4.208734536708930e-01
-1.015651796257836e+00  4.208734536708930e-01  7.081423908118687e-18

 1.227793870768146e-17 -7.709923117988148e-20 -1.016032348626517e+00
-7.709923117988148e-20  1.215674316963223e-17  4.203282850034699e-01
-1.016032348626517e+00  4.203282850034699e-01  7.114249931451427e-18

 1.229210974030643e-17 -7.673874982037484e-20 -1.016224915205909e+00
-7.673874982037484e-20  1.217245411522319e-17  4.200494794077040e-01
-1.016224915205909e+00  4.200494794077040e-01  7.131714618988343e-18

 1.229771069982729e-17 -7.638693263493944e-20 -1.016084900100188e+00
-7.638693263493944e-20  1.216543172318189e-17  4.203483716286359e-01
-1.016084900100188e+00  4.203483716286359e-01  7.121345600281538e-18

 1.230241245320843e-17 -7.608434730433545e-20 -1.015916258591469e+00
-7.608434730433545e-20  1.215041124880100e-17  4.207939409640951e-01
-1.015916258591469e+00  4.207939409640951e-01  7.107702594909140e-18

 1.231014996106680e-17 -7.579824146197140e-20 -1.015868545097943e+00
-7.579824146197140e-20  1.214840534278381e-17  4.209809725468939e-01
-1.015868545097943e+00  4.209809725468939e-01  7.104793375135158e-18

 1.232052679282299e-17 -7.551868892039841e-20 -1.015919992517556e+00
-7.551868892039841e-20  1.215808637651736e-17  4.208092039712421e-01
-1.015919992517556e+00  4.208092039712421e-01  7.112250713428415e-18

 1.233413664126413e-17 -7.523177082524915e-20 -1.016099958746297e+00
-7.523177082524915e-20  1.217793016763203e-17  4.203703334035156e-01
-1.016099958746297e+00  4.203703334035156e-01  7.131046778546921e-18

 1.234676641088473e-17 -7.490777352343991e-20 -1.016247787680077e+00
-7.490777352343991e-20  1.219303557096627e-17  4.200811361510410e-01
-1.016247787680077e+00  4.200811361510410e-01  7.146294589919371e-18

 1.235062692089163e-17 -7.457621434266250e-20 -1.016054498442122e+00
-7.457621434266250e-20  1.218482013005744e-17  4.203779769992415e-01
-1.016054498442122e+00  4.203779769992415e-01  7.133063996589340e-18

 1.234979169229132e-17 -7.429704732389465e-20 -1.015680235095852e+00
-7.429704732389465e-20  1.216760346475847e-17  4.209336164762513e-01
-1.015680235095852e+00  4.209336164762513e-01  7.105049593671714e-18

 1.235875916371142e-17 -7.405643202826899e-20 -1.015701549678791e+00
-7.405643202826899e-20  1.217136893889291e-17  4.209180216601799e-01
-1.015701549678791e+00  4.209180216601799e-01  7.108568762702339e-18

 1.237861945710407e-17 -7.378450822976308e-20 -1.016163884134574e+00
-7.378450822976308e-20  1.219920804255198e-17  4.203145952730811e-01
-1.016163884134574e+00  4.203145952730811e-01  7.146848256554617e-18

 1.239249431652616e-17 -7.345441050355339e-20 -1.016392833969930e+00
-7.345441050355339e-20  1.221267464543199e-17  4.200816976834225e-01
-1.016392833969930e+00  4.200816976834225e-01  7.166014206082195e-18

 1.238995087834034e-17 -7.314686365250160e-20 -1.015968892246816e+00
-7.314686365250160e-20  1.219179158482425e-17  4.207184348068333e-01
-1.015968892246816e+00  4.207184348068333e-01  7.133472975683502e-18

 1.238867520433950e-17 -7.292839311090091e-20 -1.015597252922560e+00
-7.292839311090091e-20  1.217644932156940e-17  4.212344966148416e-01
-1.015597252922560e+00  4.212344966148416e-01  7.105635532026984e-18

 1.240617647845424e-17 -7.271529766569230e-20 -1.015977603166341e+00
-7.271529766569230e-20  1.219948077176127e-17  4.207269628205559e-01
-1.015977603166341e+00  4.207269628205559e-01  7.137753511959277e-18

 1.242488888842374e-17 -7.242065151845003e-20 -1.016407821485795e+00
-7.242065151845003e-20  1.222794837276268e-17  4.201009916359187e-01
-1.016407821485795e+00  4.201009916359187e-01  7.174380687858258e-18

 1.242701778798763e-17 -7.211218070068943e-20 -1.016178440923445e+00
-7.211218070068943e-20  1.222279848165525e-17  4.203515988394676e-01
-1.016178440923445e+00  4.203515988394676e-01  7.158772022597972e-18

 1.242331261618891e-17 -7.186321002067522e-20 -1.015721270760218e+00
-7.186321002067522e-20  1.220251772415762e-17  4.209666940073539e-01
-1.015721270760218e+00  4.209666940073539e-01  7.124512240019446e-18

 1.243074119694429e-17 -7.165685742662106e-20 -1.015714479287445e+00
-7.165685742662106e-20  1.220628562460646e-17  4.209840142882031e-01
-1.015714479287445e+00  4.209840142882031e-01  7.125742609249962e-18

 1.244775341078572e-17 -7.141758109706152e-20 -1.016093941731382e+00
-7.141758109706152e-20  1.223122752824976e-17  4.204400645513531e-01
-1.016093941731382e+00  4.204400645513531e-01  7.157790904451294e-18

 1.245991188433637e-17 -7.113402320703952e-20 -1.016285776921649e+00
-7.113402320703952e-20  1.224555864852915e-17  4.201622022943837e-01
-1.016285776921649e+00  4.201622022943837e-01  7.174518788106884e-18

 1.246356361768108e-17 -7.086683716682228e-20 -1.016146502211785e+00
-7.086683716682228e-20  1.223935530714783e-17  4.204603185506346e-01
-1.016146502211785e+00  4.204603185506346e-01  7.163541383185886e-18

 1.246632346618528e-17 -7.064065976981614e-20 -1.015977863210045e+00
-7.064065976981614e-20  1.222713327556837e-17  4.209058253188672e-01
-1.015977863210045e+00  4.209058253188672e-01  7.149247604669827e-18

 1.247212570921985e-17 -7.043148309048001e-20 -1.015929459713329e+00
-7.043148309048001e-20  1.222446048713950e-17  4.210935250522438e-01
-1.015929459713329e+00  4.210935250522438e-01  7.145647550226345e-18

 1.248061180182569e-17 -7.022547578766054e-20 -1.015981048196420e+00
-7.022547578766054e-20  1.223381591669485e-17  4.209216653250368e-01
-1.015981048196420e+00  4.209216653250368e-01  7.152489896557965e-18

 1.249235213667947e-17 -7.001152405915792e-20 -1.016161068296286e+00
-7.001152405915792e-20  1.225489510510435e-17  4.204829035758411e-01
-1.016161068296286e+00  4.204829035758411e-01  7.170676540638551e-18

 1.250311495393389e-17 -6.975871282974272e-20 -1.016308152732780e+00
-6.975871282974272e-20  1.227187165047116e-17  4.201946870960804e-01
-1.016308152732780e+00  4.201946870960804e-01  7.185264366181845e-18

 1.250514393777452e-17 -6.949298792195184e-20 -1.016114675778931e+00
-6.949298792195184e-20  1.226145333783834e-17  4.204918137073862e-01
-1.016114675778931e+00  4.204918137073862e-01  7.171429453621335e-18

 1.250251901245714e-17 -6.928028051924953e-20 -1.015741014180847e+00
-6.928028051924953e-20  1.224571530732772e-17  4.210468902968291e-01
-1.015741014180847e+00  4.210468902968291e-01  7.142883253162650e-18

 1.250970011165094e-17 -6.910466307739114e-20 -1.015762241253754e+00
-6.910466307739114e-20  1.225060441204315e-17  4.210316880061236e-01
-1.015762241253754e+00  4.210316880061236e-01  7.145826629651302e-18

 1.252777228783629e-17 -6.889493377284129e-20 -1.016223583946769e+00
-6.889493377284129e-20  1.227862236004359e-17  4.204298219692627e-01
-1.016223583946769e+00  4.204298219692627e-01  7.183471205503325e-18

 1.253989088844488e-17 -6.862704508021285e-20 -1.016452009691907e+00
-6.862704508021285e-20  1.229183053474149e-17  4.201977714647031e-01
-1.016452009691907e+00  4.201977714647031e-01  7.202050661141199e-18

 1.253564269306997e-17 -6.837953273800690e-20 -1.016028850119366e+00
-6.837953273800690e-20  1.227127366024501e-17  4.208338124752801e-01
-1.016028850119366e+00  4.208338124752801e-01  7.169034013830961e-18

 1.253267843314389e-17 -6.821979268674463e-20 -1.015657890015051e+00
-6.821979268674463e-20  1.225626727034807e-17  4.213496013273516e-01
-1.015657890015051e+00  4.213496013273516e-01  7.140721371593060e-18

 1.254845906121532e-17 -6.806519631936781e-20 -1.016036918039641e+00
-6.806519631936781e-20  1.227909767234659e-17  4.208442752792685e-01
-1.016036918039641e+00  4.208442752792685e-01  7.172217272812319e-18

 1.256546783394596e-17 -6.782500871016091e-20 -1.016465730313183e+00
-6.782500871016091e-20  1.230772694391122e-17  4.202205441820512e-01
-1.016465730313183e+00  4.202205441820512e-01  7.208227956292467e-18

 1.256597450685229e-17 -6.756929739354650e-20 -1.016237495695078e+00
-6.756929739354650e-20  1.230193261810726e-17  4.204703338687052e-01
-1.016237495695078e+00  4.204703338687052e-01  7.192211605626978e-18

 1.256065532402688e-17 -6.737246385489170e-20 -1.015781154432956e+00
-6.737246385489170e-20  1.228309530016919e-17  4.210849989718472e-01
-1.015781154432956e+00  4.210849989718472e-01  7.157528010295768e-18

 1.256642062109704e-17 -6.721803958267446e-20 -1.015772531387990e+00
-6.721803958267446e-20  1.228562071335873e-17  4.211049793431157e-01
-1.015772531387990e+00  4.211049793431157e-01  7.158137621192431e-18

 1.258181030545228e-17 -6.702784172276698e-20 -1.016151132377758e+00
-6.702784172276698e-20  1.231153721848956e-17  4.205628407527559e-01
-1.016151132377758e+00  4.205628407527559e-01  7.189647836476201e-18

 1.259242987639480e-17 -6.679624137871294e-20 -1.016344867531903e+00
-6.679624137871294e-20  1.232784398850208e-17  4.202841019830826e-01
-1.016344867531903e+00  4.202841019830826e-01  7.206055260965120e-18

 1.259450916998198e-17 -6.657405596018249e-20 -1.016205550708087e+00
-6.657405596018249e-20  1.232072509379056e-17  4.205839106985337e-01
-1.016205550708087e+00  4.205839106985337e-01  7.194612597084216e-18

 1.259564084322368e-17 -6.639594122505103e-20 -1.016033970010617e+00
-6.639594122505103e-20  1.230817278461122e-17  4.210343117582298e-01
-1.016033970010617e+00  4.210343117582298e-01  7.179640808523341e-18

 1.259990667318442e-17 -6.623014121626165e-20 -1.015985650230331e+00
-6.623014121626165e-20  1.230495282071657e-17  4.212232508986435e-01
-1.015985650230331e+00  4.212232508986435e-01  7.175611438852184e-18

 1.260690409369812e-17 -6.606883355532391e-20 -1.016038680972353e+00
-6.606883355532391e-20  1.231709828721705e-17  4.210507038067179e-01
-1.016038680972353e+00  4.210507038067179e-01  7.182142686180584e-18

 1.261709106412026e-17 -6.589621667228993e-20 -1.016217073116118e+00
-6.589621667228993e-20  1.233587709522794e-17  4.206145402593394e-01
-1.016217073116118e+00  4.206145402593394e-01  7.199788231075379e-18

 1.262636038091182e-17 -6.568491483891410e-20 -1.016364428088140e+00
-6.568491483891410e-20  1.235145782153602e-17  4.203279913006261e-01
-1.016364428088140e+00  4.203279913006261e-01  7.213979586579651e-18

 1.262692802125722e-17 -6.546244088362880e-20 -1.016171802320286e+00
-6.546244088362880e-20  1.234267082541115e-17  4.206274807397954e-01
-1.016171802320286e+00  4.206274807397954e-01  7.199794755025558e-18

 1.262274887281845e-17 -6.528513802878534e-20 -1.015794801209657e+00
-6.528513802878534e-20  1.232428012967819e-17  4.211897159585303e-01
-1.015794801209657e+00  4.211897159585303e-01  7.170581435563194e-18

 1.262847111986215e-17 -6.514977269521785e-20 -1.015815830786614e+00
-6.514977269521785e-20  1.232982501593456e-17  4.211783131809447e-01
-1.015815830786614e+00  4.211783131809447e-01  7.173115726618080e-18

 1.264533671979445e-17 -6.497477460423437e-20 -1.016286898574273e+00
-6.497477460423437e-20  1.235874342564351e-17  4.205727973091232e-01
-1.016286898574273e+00  4.205727973091232e-01  7.211101540231695e-18

 1.265595301519658e-17 -6.473794087158381e-20 -1.016512459174102e+00
-6.473794087158381e-20  1.236955435444814e-17  4.203547691972189e-01
-1.016512459174102e+00  4.203547691972189e-01  7.229060419241962e-18

 1.264907727605241e-17 -6.452338455791643e-20 -1.016040222230295e+00
-6.452338455791643e-20  1.234944637479746e-17  4.210426177778901e-01
-1.016040222230295e+00  4.210426177778901e-01  7.192005829783259e-18

 1.264421099603693e-17 -6.440550374659596e-20 -1.015647936866756e+00
-6.440550374659596e-20  1.233319920565828e-17  4.215543387412539e-01
-1.015647936866756e+00  4.215543387412539e-01  7.162029933006598e-18

 1.265992028056303e-17 -6.428420620711832e-20 -1.016079604322715e+00
-6.428420620711832e-20  1.236069086655441e-17  4.209532101542959e-01
-1.016079604322715e+00  4.209532101542959e-01  7.197562713433472e-18

 1.267780171955718e-17 -6.406619251338178e-20 -1.016601041301383e+00
-6.406619251338178e-20  1.239426708628062e-17  4.202366531272152e-01
-1.016601041301383e+00  4.202366531272152e-01  7.240132872981735e-18

 1.267791393136684e-17 -6.382566747919160e-20 -1.016416746456616e+00
-6.382566747919160e-20  1.238369792837106e-17  4.205438037939643e-01
-1.016416746456616e+00  4.205438037939643e-01  7.226047997485287e-18

 1.266530069233057e-17 -6.365498821065027e-20 -1.015725352873136e+00
-6.365498821065027e-20  1.235039398532723e-17  4.215186330433091e-01
-1.015725352873136e+00  4.215186330433091e-01  7.171903165997957e-18

 1.266746973397967e-17 -6.356446969030975e-20 -1.015625452000721e+00
-6.356446969030975e-20  1.235185067928819e-17  4.216336427855552e-01
-1.015625452000721e+00  4.216336427855552e-01  7.165294493680346e-18

 1.269036985457730e-17 -6.341710500205378e-20 -1.016356447527674e+00
-6.341710500205378e-20  1.239226746148772e-17  4.206345790887817e-01
-1.016356447527674e+00  4.206345790887817e-01  7.224635249192683e-18

 1.269949330207160e-17 -6.317023732950043e-20 -1.016539389064106e+00
-6.317023732950043e-20  1.241093519208641e-17  4.203005144356490e-01
-1.016539389064106e+00  4.203005144356490e-01  7.240907140542090e-18

 1.269285290763658e-17 -6.297744515261372e-20 -1.016091886425688e+00
-6.297744515261372e-20  1.238962609512095e-17  4.209444557017031e-01
-1.016091886425688e+00  4.209444557017031e-01  7.205962464223769e-18

 1.269165047403191e-17 -6.283847759202223e-20 -1.015875691739522e+00
-6.283847759202223e-20  1.237447678754580e-17  4.214723303707189e-01
-1.015875691739522e+00  4.214723303707189e-01  7.187369920970908e-18

 1.269591308317227e-17 -6.271488901425794e-20 -1.015876125579963e+00
-6.271488901425794e-20  1.237524077098633e-17  4.215563483923133e-01
-1.015876125579963e+00  4.215563483923133e-01  7.187317570923621e-18

 1.270880342650144e-17 -6.305527298817187e-20 -1.016275745886144e+00
-6.305527298817187e-20  1.240214411095516e-17  4.210294321731354e-01
-1.016275745886144e+00  4.210294321731354e-01  7.218205121321294e-18

 1.271938816489084e-17 -6.288298204617777e-20 -1.016531486072429e+00
-6.288298204617777e-20  1.241766647655856e-17  4.207148452047946e-01
-1.016531486072429e+00  4.207148452047946e-01  7.239287465333764e-18

 1.271322704127430e-17 -6.212796226974069e-20 -1.016006846385737e+00
-6.212796226974069e-20  1.239480054248798e-17  4.213578367465824e-01
-1.016006846385737e+00  4.213578367465824e-01  7.202349051078828e-18

 1.271065483952269e-17 -6.221132253363748e-20 -1.015749041959352e+00
-6.221132253363748e-20  1.238226776012580e-17  4.218027227613825e-01
-1.015749041959352e+00  4.218027227613825e-01  7.182254561009517e-18

 1.271859010647199e-17 -6.252368804860082e-20 -1.016065243193677e+00
-6.252368804860082e-20  1.239692011817040e-17  4.216330549839054e-01
-1.016065243193677e+00  4.216330549839054e-01  7.202262459616763e-18

 1.271625392664878e-17 -5.916751742542341e-20 -1.015932368303254e+00
-5.916751742542341e-20  1.239512660085111e-17  4.218090139659114e-01
-1.015932368303254e+00  4.218090139659114e-01  7.194233248157075e-18

 1.267631780575167e-17 -5.888188210482398e-20 -1.014073786560953e+00
-5.888188210482398e-20  1.233744477292499e-17  4.232023102076254e-01
-1.014073786560953e+00  4.232023102076254e-01  7.060683425749972e-18

 1.242478183057337e-17 -5.533944706818197e-20 -1.003745280066911e+00
-5.533944706818197e-20  1.210099364453055e-17  4.289214419010488e-01
-1.003745280066911e+00  4.289214419010488e-01  6.291476665900147e-18

 1.275519067785425e-17 -4.608835493247932e-20 -1.017314690031489e+00
-4.608835493247932e-20  1.290302992272316e-17  4.082948247988074e-01
-1.017314690031489e+00  4.082948247988074e-01  7.322565385870682e-18

 1.419887647303195e-17  4.471130859944196e-21 -1.077246829861757e+00
 4.471130859944196e-21  1.477609323392214e-17  3.602951158035673e-01
-1.077246829861757e+00  3.602951158035673e-01  1.166492559064158e-17

 1.284670568758999e-17  2.392502455926077e-21 -1.023354923371060e+00
 2.392502455926077e-21  1.149909337573808e-17  4.459104505991587e-01
-1.023354923371060e+00  4.459104505991587e-01  7.322687684673741e-18

 9.491738392758149e-18  1.267758597787551e-19 -8.906954426507997e-01
 1.267758597787551e-19  6.370372854092721e-18  5.712901204830333e-01
-8.906954426507997e-01  5.712901204830333e-01 -2.853146624465204e-18

 1.268989997660797e-17 -3.027232217636899e-21 -1.014821400769259e+00
-3.027232217636899e-21  1.349644940468438e-17  3.911145720879426e-01
-1.014821400769259e+00  3.911145720879426e-01  7.257393279643362e-18

 1.764278375277785e-17  1.148779933481646e-19 -1.216344230095986e+00
 1.148779933481646e-19  2.196061196121810e-17  1.692228624729374e-01
-1.216344230095986e+00  1.692228624729374e-01  2.214804110233691e-17

 1.272149299017577e-17 -6.227851833347714e-20 -1.016181471329979e+00
-6.227851833347714e-20  1.216617760149794e-17  4.300015746579129e-01
-1.016181471329979e+00  4.300015746579129e-01  7.090198036377486e-18

 7.775738659690493e-18 -1.513429653767396e-19 -8.173369691464839e-01
-1.513429653767396e-19  2.494555785283933e-18  6.866047146514728e-01
-8.173369691464839e-01  6.866047146514728e-01 -8.084798294781698e-18

 1.277757590714410e-17 -9.297713502323108e-20 -1.018308022723028e+00
-9.297713502323108e-20  1.158308171803958e-17  4.485609932884340e-01
-1.018308022723028e+00  4.485609932884340e-01  7.107750481352361e-18

 1.627954091050109e-17 -2.634835888407297e-19 -1.152872369769967e+00
-2.634835888407297e-19  1.950822791293674e-17  2.485002541937276e-01
-1.152872369769967e+00  2.485002541937276e-01  1.803019048165369e-17

 1.396004247944581e-17 -2.152489674931185e-20 -1.064799524994853e+00
-2.152489674931185e-20  1.561498087308873e-17  3.386448012281047e-01
-1.064799524994853e+00  3.386448012281047e-01  1.103431985757054e-17

 1.137816300602277e-17 -1.024824962757896e-19 -9.603495261312893e-01
-1.024824962757896e-19  9.173275317647717e-18  5.099566300289832e-01
-9.603495261312893e-01  5.099566300289832e-01  2.797715912446645e-18

 9.481064704550313e-18  9.094914440455729e-20 -8.888261713245209e-01
 9.094914440455729e-20  5.912313293353886e-18  5.859964075675508e-01
-8.888261713245209e-01  5.859964075675508e-01 -2.994482395196681e-18

 1.300691653522078e-17 -2.333428924731382e-20 -1.026270441103283e+00
-2.333428924731382e-20  1.379964020220889e-17  3.858685646031056e-01
-1.026270441103283e+00  3.858685646031056e-01  8.097766625210151e-18

 1.771864508721328e-17  1.025292836833827e-19 -1.218242333644926e+00
 1.025292836833827e-19  2.206586028237610e-17  1.685126334202783e-01
-1.218242333644926e+00  1.685126334202783e-01  2.228480870776880e-17

 1.275388891936523e-17 -6.389849763145786e-20 -1.016487666943548e+00
-6.389849763145786e-20  1.220761870320947e-17  4.301094171171532e-01
-1.016487666943548e+00  4.301094171171532e-01  7.106439808854322e-18

 7.783390644476530e-18 -1.470255489797854e-19 -8.167310429121906e-01
-1.470255489797854e-19  2.477229072596607e-18  6.880959895597226e-01
-8.167310429121906e-01  6.880959895597226e-01 -8.145063902631994e-18

 1.272549314770879e-17 -8.729686926511213e-20 -1.015609126128558e+00
-8.729686926511213e-20  1.149491473098507e-17  4.517392859114600e-01
-1.015609126128558e+00  4.517392859114600e-01  6.876186906462190e-18

 1.602842770013020e-17 -2.508875533934836e-19 -1.142100752910378e+00
-2.508875533934836e-19  1.929003539386741e-17  2.546957055957885e-01
-1.142100752910378e+00  2.546957055957885e-01  1.721016233456504e-17

 1.424304125734874e-17  5.590292935937737e-20 -1.076952628223563e+00
 5.590292935937737e-20  1.638779819753070e-17  3.170747822514306e-01
-1.076952628223563e+00  3.170747822514306e-01  1.182583907678426e-17

 1.281503454701284e-17  2.684591907208038e-21 -1.020522582630392e+00
 2.684591907208038e-21  1.118868952188803e-17  4.569605437268866e-01
-1.020522582630392e+00  4.569605437268866e-01  7.035791717437687e-18

 8.519897081273099e-18  2.326565532685865e-19 -8.544899190958677e-01
 2.326565532685865e-19  3.560835776190372e-18  6.456984366115134e-01
-8.544899190958677e-01  6.456984366115134e-01 -5.920535800632083e-18

 1.046625674455453e-17  2.994682377609474e-19 -9.312738891581748e-01
 2.994682377609474e-19  9.532625848046245e-18  4.841454864102184e-01
-9.312738891581748e-01  4.841454864102184e-01  4.254840009591600e-19

 1.914682054367791e-17  8.492676002844669e-20 -1.273553036588035e+00
 8.492676002844669e-20  2.527515938847010e-17  8.556857289584795e-02
-1.273553036588035e+00  8.556857289584795e-02  2.589308391104041e-17

 1.700143543192433e-17  5.842463886830064e-19 -1.201076002565053e+00
 5.842463886830064e-19  1.970350033660156e-17  2.116828079096292e-01
-1.201076002565053e+00  2.116828079096292e-01  1.914208742625030e-17

 5.268463420443114e-18 -4.672591518566420e-19 -7.130048992541629e-01
-4.672591518566420e-19 -1.825512038026506e-18  8.213103036225018e-01
-7.130048992541629e-01  8.213103036225018e-01 -1.444833798427034e-17

 8.970584029705251e-18  2.077091946943902e-19 -8.746821161010033e-01
 2.077091946943902e-19  4.260029590780566e-18  6.341056254530272e-01
-8.746821161010033e-01  6.341056254530272e-01 -4.130310599819819e-18

 2.057861466515381e-17 -7.498240077518857e-19 -1.314691827237439e+00
-7.498240077518857e-19  2.551859776081405e-17  1.167567822263798e-01
-1.314691827237439e+00  1.167567822263798e-01  2.955127979087556e-17

 1.524920913234135e-17 -1.723108257897516e-19 -1.112421475894856e+00
-1.723108257897516e-19  1.787682727059576e-17  2.873194154748595e-01
-1.112421475894856e+00  2.873194154748595e-01  1.455413197018658e-17

 6.334939083469182e-18 -2.607928787990797e-19 -7.527954036969624e-01
-2.607928787990797e-19  1.958275602842389e-18  7.030692998068305e-01
-7.527954036969624e-01  7.030692998068305e-01 -1.212552897587954e-17

 1.141147282946736e-17 -5.334173821715690e-20 -9.612509160752474e-01
-5.334173821715690e-20  1.033373140627927e-17  4.785842772247723e-01
-9.612509160752474e-01  4.785842772247723e-01  3.037760948328384e-18

 1.891642932071322e-17 -2.636065450389293e-20 -1.263297750102579e+00
-2.636065450389293e-20  2.329136737397724e-17  1.448504615855859e-01
-1.263297750102579e+00  1.448504615855859e-01  2.553424631737569e-17

 1.309019061482416e-17 -8.234947880608466e-20 -1.028584481883172e+00
-8.234947880608466e-20  1.284238081740346e-17  4.167379966809163e-01
-1.028584481883172e+00  4.167379966809163e-01  7.995002053891631e-18

 7.785121787923913e-18 -1.589382508250963e-19 -8.153117048022227e-01
-1.589382508250963e-19  2.582875013913742e-18  6.875778254501440e-01
-8.153117048022227e-01  6.875778254501440e-01 -8.246806158668802e-18

 1.303243930136875e-17 -1.113927362474460e-19 -1.025953789123424e+00
-1.113927362474460e-19  1.181819751650789e-17  4.457568742898850e-01
-1.025953789123424e+00  4.457568742898850e-01  7.670619664873023e-18

 1.635725584430305e-17 -3.029863111092223e-19 -1.152853684416239e+00
-3.029863111092223e-19  1.923188296191826e-17  2.591571395070982e-01
-1.152853684416239e+00  2.591571395070982e-01  1.808113645377461e-17

 1.261528559740358e-17 -1.189382828607365e-19 -1.005077929139094e+00
-1.189382828607365e-19  1.349471447617274e-17  3.970571569667679e-01
-1.005077929139094e+00  3.970571569667679e-01  6.816362058200867e-18

 1.123024047360484e-17 -1.284260678577912e-19 -9.496769975833387e-01
-1.284260678577912e-19  1.000042586513959e-17  4.880462673164791e-01
-9.496769975833387e-01  4.880462673164791e-01  2.340535453364894e-18

 1.278751042610962e-17 -8.263640506801018e-20 -1.014046708580415e+00
-8.263640506801018e-20  1.198553477586588e-17  4.368132941363231e-01
-1.014046708580415e+00  4.368132941363231e-01  7.019643467359628e-18

 1.313531728842228e-17 -6.526261298095079e-20 -1.028482839644220e+00
-6.526261298095079e-20  1.282122894739661e-17  4.150268336028362e-01
-1.028482839644220e+00  4.150268336028362e-01  8.116455712595112e-18

 1.289345918660057e-17 -5.544557393149365e-20 -1.018585459251394e+00
-5.544557393149365e-20  1.260758949350103e-17  4.199964034480489e-01
-1.018585459251394e+00  4.199964034480489e-01  7.387226904985729e-18

 1.284730254112010e-17 -5.391912172727875e-20 -1.016458025002165e+00
-5.391912172727875e-20  1.253265026822957e-17  4.216975552519956e-01
-1.016458025002165e+00  4.216975552519956e-01  7.236181355246628e-18

 1.283982807363796e-17 -5.432310433786264e-20 -1.016039453210137e+00
-5.432310433786264e-20  1.251027351618056e-17  4.222230118768402e-01
-1.016039453210137e+00  4.222230118768402e-01  7.206884102261010e-18

 1.285570267105492e-17 -5.384985786014484e-20 -1.016729421005671e+00
-5.384985786014484e-20  1.254454327238871e-17  4.214179164554937e-01
-1.016729421005671e+00  4.214179164554937e-01  7.260376985939900e-18

 1.286379760627997e-17 -5.374276410716026e-20 -1.016958490029697e+00
-5.374276410716026e-20  1.256008067505784e-17  4.210233756074627e-01
-1.016958490029697e+00  4.210233756074627e-01  7.282455023737692e-18

 1.284927726552965e-17 -5.426530463789468e-20 -1.016166184328749e+00
-5.426530463789468e-20  1.253088697260065e-17  4.217849816593476e-01
-1.016166184328749e+00  4.217849816593476e-01  7.227602642033241e-18

 1.284766571440516e-17 -5.445316970064984e-20 -1.016038484270410e+00
-5.445316970064984e-20  1.252591216858578e-17  4.219542979172237e-01
-1.016038484270410e+00  4.219542979172237e-01  7.219118218507531e-18

 1.286236556641806e-17 -5.453809396029772e-20 -1.016537050474840e+00
-5.453809396029772e-20  1.254796889173772e-17  4.213928608981078e-01
-1.016537050474840e+00  4.213928608981078e-01  7.259953052720324e-18

 1.286397480671410e-17 -5.456410454493999e-20 -1.016569074984313e+00
-5.456410454493999e-20  1.255170432888300e-17  4.213820990332051e-01
-1.016569074984313e+00  4.213820990332051e-01  7.262942325484684e-18

 1.285141493716345e-17 -5.460361712798784e-20 -1.015956536973232e+00
-5.460361712798784e-20  1.252531462827483e-17  4.220588306449074e-01
-1.015956536973232e+00  4.220588306449074e-01  7.218478406463568e-18

 1.285192787904990e-17 -5.499793085480816e-20 -1.016018838184208e+00
-5.499793085480816e-20  1.253715587393130e-17  4.219680861042939e-01
-1.016018838184208e+00  4.219680861042939e-01  7.222501997832295e-18

 1.286575155446403e-17 -5.486700195164908e-20 -1.016637055348236e+00
-5.486700195164908e-20  1.257100583655884e-17  4.211783407074574e-01
-1.016637055348236e+00  4.211783407074574e-01  7.268776593834261e-18

 1.286997192861869e-17 -5.465856293512082e-20 -1.016512147614643e+00
-5.465856293512082e-20  1.257219513718356e-17  4.211485530784393e-01
-1.016512147614643e+00  4.211485530784393e-01  7.267098763497278e-18

 1.286421375049542e-17 -5.481855999456271e-20 -1.016233869497726e+00
-5.481855999456271e-20  1.256454503791396e-17  4.213958069008195e-01
-1.016233869497726e+00  4.213958069008195e-01  7.245101927236018e-18

 1.290510296995794e-17 -5.336330747285296e-20 -1.018005422015494e+00
-5.336330747285296e-20  1.262145447823514e-17  4.201327778683998e-01
-1.018005422015494e+00  4.201327778683998e-01  7.365969395716532e-18

 1.318873213684227e-17 -4.056820384664885e-20 -1.029936432497927e+00
-4.056820384664885e-20  1.289542076488776e-17  4.132852287826927e-01
-1.029936432497927e+00  4.132852287826927e-01  8.218619513742197e-18

 1.304692898657814e-17 -2.031010356095915e-20 -1.024589815297230e+00
-2.031010356095915e-20  1.225921978356123e-17  4.286607627148537e-01
-1.024589815297230e+00  4.286607627148537e-01  7.732984577255875e-18

 1.120945103422786e-17  4.667701697365349e-20 -9.513324854315471e-01
 4.667701697365349e-20  9.642326386258890e-18  4.915047482782454e-01
-9.513324854315471e-01  4.915047482782454e-01  2.169271304585129e-18

 1.161972763702308e-17  5.222629158675033e-20 -9.670846742915998e-01
 5.222629158675033e-20  1.190561401856674e-17  4.308523114351819e-01
-9.670846742915998e-01  4.308523114351819e-01  3.715236324489080e-18

 1.602199191653417e-17  2.155768022683105e-19 -1.148211541748370e+00
 2.155768022683105e-19  1.957920247793993e-17  2.287253603722466e-01
-1.148211541748370e+00  2.287253603722466e-01  1.705461998006952e-17

 1.605078799841117e-17  3.542353336589159e-19 -1.155411048589192e+00
 3.542353336589159e-19  1.722434772526982e-17  2.886724178391596e-01
-1.155411048589192e+00  2.886724178391596e-01  1.660708670584577e-17

 8.155788456041627e-18 -1.412191620729072e-19 -8.306734665544384e-01
-1.412191620729072e-19  2.168982523549863e-18  7.019879690456947e-01
-8.306734665544384e-01  7.019879690456947e-01 -7.099716896092742e-18

 8.818519424915383e-18  3.834137623514263e-19 -8.677236336321335e-01
 3.834137623514263e-19  4.189001821520104e-18  6.268121075158551e-01
-8.677236336321335e-01  6.268121075158551e-01 -4.913669714177453e-18

 1.719193654552639e-17 -5.816380307614110e-19 -1.177804452757307e+00
-5.816380307614110e-19  2.110039086983678e-17  2.220463298408107e-01
-1.177804452757307e+00  2.220463298408107e-01  2.011343104380854e-17

 1.703572821301020e-17 -2.610535360489380e-21 -1.183081545934889e+00
-2.610535360489380e-21  2.202903934516082e-17  1.732605048503324e-01
-1.183081545934889e+00  1.732605048503324e-01  1.999134858683571e-17

 1.006365664023718e-17 -3.698726648710628e-19 -8.968907287913608e-01
-3.698726648710628e-19  8.536362312877013e-18  5.374677470062074e-01
-8.968907287913608e-01  5.374677470062074e-01 -1.055912976461285e-18

 9.731663689871235e-18 -3.069814095502936e-19 -8.880993814076381e-01
-3.069814095502936e-19  5.846840507419951e-18  6.099502105159229e-01
-8.880993814076381e-01  6.099502105159229e-01 -2.544103054771819e-18

 1.525190819404196e-17 -1.551467640369031e-19 -1.113807118060889e+00
-1.551467640369031e-19  1.475065867740991e-17  3.765740218132028e-01
-1.113807118060889e+00  3.765740218132028e-01  1.421217454237869e-17

 1.376190620679716e-17 -2.981573942030663e-20 -1.054990535782910e+00
-2.981573942030663e-20  1.327850867890700e-17  4.068322598632732e-01
-1.054990535782910e+00  4.068322598632732e-01  9.844430362954251e-18

 9.725001506246093e-18  1.728629403993253e-19 -8.949791215553931e-01
 1.728629403993253e-19  7.989350269084918e-18  5.300104482585331e-01
-8.949791215553931e-01  5.300104482585331e-01 -2.242901717171427e-18

 1.207479236497011e-17  1.327105946269069e-19 -9.872168846521320e-01
 1.327105946269069e-19  1.394499560108658e-17  3.756058375257914e-01
-9.872168846521320e-01  3.756058375257914e-01  5.240455449214552e-18

 1.791283302788665e-17  6.376338668569392e-19 -1.234579585689048e+00
 6.376338668569392e-19  2.328641133252371e-17  1.184413129740372e-01
-1.234579585689048e+00  1.184413129740372e-01  2.227682909641157e-17

 1.608592003112720e-17  5.248044081124936e-19 -1.164124321284022e+00
 5.248044081124936e-19  1.651710733311295e-17  3.053622783439078e-01
-1.164124321284022e+00  3.053622783439078e-01  1.616946833943088e-17

 7.186336339134398e-18 -2.731069613374835e-19 -7.973390697004801e-01
-2.731069613374835e-19 -8.824711559409739e-19  8.022389621631938e-01
-7.973390697004801e-01  8.022389621631938e-01 -9.237809294571591e-18

 8.134154183835824e-18  9.692452949658946e-19 -8.609423847772009e-01
 9.692452949658946e-19  1.740450135678061e-18  6.798205114138557e-01
-8.609423847772009e-01  6.798205114138557e-01 -6.128682667004460e-18

 1.564794231338356e-17 -7.822079014835318e-19 -1.110883701492741e+00
-7.822079014835318e-19  1.924182264343172e-17  2.768702913848696e-01
-1.110883701492741e+00  2.768702913848696e-01  1.474804644127974e-17

 1.180811255885914e-17 -4.441842247554915e-19 -9.784458043988500e-01
-4.441842247554915e-19  8.233914244528145e-18  5.820597780076175e-01
-9.784458043988500e-01  5.820597780076175e-01  4.306318304325082e-18

 5.704772360098762e-18  5.763961190589791e-20 -7.554991259688166e-01
 5.763961190589791e-20 -3.559847886979034e-18  8.870114231676142e-01
-7.554991259688166e-01  8.870114231676142e-01 -1.261747249571064e-17

 1.828527391274944e-17  1.246055297212061e-18 -1.265372316632329e+00
 1.246055297212061e-18  2.434248931017605e-17  8.045491954327295e-02
-1.265372316632329e+00  8.045491954327295e-02  2.235564496329222e-17

 1.769175471531574e-17 -7.634473486746329e-20 -1.209289380986317e+00
-7.634473486746329e-20  2.469439966591835e-17  1.205282877337705e-01
-1.209289380986317e+00  1.205282877337705e-01  2.139064035960447e-17

 1.059651282415824e-17  4.998837413383104e-19 -9.417042003081658e-01
 4.998837413383104e-19  9.686566862301224e-18  4.920275732797713e-01
-9.417042003081658e-01  4.920275732797713e-01  8.327356596872736e-19

 7.629492227373675e-18  5.896898383278556e-19 -8.296906892558864e-01
 5.896898383278556e-19  1.484173630582532e-18  7.095823272160175e-01
-8.296906892558864e-01  7.095823272160175e-01 -8.536844025938980e-18

 1.362832282000500e-17  2.023048972811822e-19 -1.060662261158628e+00
 2.023048972811822e-19  1.134436205287368e-17  4.688323623806039e-01
-1.060662261158628e+00  4.688323623806039e-01  9.185144547095558e-18

 1.616463335761758e-17  3.551168139876212e-19 -1.163080686193724e+00
 3.551168139876212e-19  1.783815674503399e-17  2.904925404300265e-01
-1.163080686193724e+00  2.904925404300265e-01  1.726711429419801e-17

 1.184297164038871e-17  1.025704415053526e-19 -9.805551335188956e-01
 1.025704415053526e-19  1.223457951341771e-17  4.382290651454736e-01
-9.805551335188956e-01  4.382290651454736e-01  4.415694344700725e-18

 1.061504186442563e-17 -1.266148136576407e-20 -9.265943611619305e-01
-1.266148136576407e-20  1.095089693906014e-17  4.734076037717427e-01
-9.265943611619305e-01  4.734076037717427e-01  8.086400663837629e-19

 1.546409149181569e-17 -2.176502561069878e-19 -1.117925653116853e+00
-2.176502561069878e-19  1.866211281529474e-17  2.854271494973962e-01
-1.117925653116853e+00  2.854271494973962e-01  1.549770853924581e-17

 1.609503857265386e-17 -3.462734643024838e-19 -1.143805911990301e+00
-3.462734643024838e-19  1.723532401598352e-17  3.321645294705176e-01
-1.143805911990301e+00  3.321645294705176e-01  1.684938288805334e-17

 8.270000279692982e-18  1.265332524671605e-19 -8.438220723631252e-01
 1.265332524671605e-19  2.464190281659815e-18  7.000528787577240e-01
-8.438220723631252e-01  7.000528787577240e-01 -6.684707595922280e-18

 8.868635501767489e-18 -3.724542405525345e-19 -8.548618636283911e-01
-3.724542405525345e-19  4.439634409617339e-18  6.654045372635108e-01
-8.548618636283911e-01  6.654045372635108e-01 -4.661873943414819e-18

 1.717787245595412e-17  5.674859485559441e-19 -1.205243477579785e+00
 5.674859485559441e-19  2.118818416673935e-17  1.893486817269925e-01
-1.205243477579785e+00  1.893486817269925e-01  2.020509328051157e-17

 1.697300932846863e-17  1.569823493373631e-21 -1.182864095068943e+00
 1.569823493373631e-21  2.197909633419271e-17  1.891165373629613e-01
-1.182864095068943e+00  1.891165373629613e-01  1.993798275991156e-17

 1.011646088906307e-17  3.602903295862817e-19 -9.175519046720675e-01
 3.602903295862817e-19  8.599451447297970e-18  5.221986344588547e-01
-9.175519046720675e-01  5.221986344588547e-01 -7.876322599806656e-19

 9.542968448727756e-18  2.857872700124877e-19 -8.951425490491229e-01
 2.857872700124877e-19  5.593978582591487e-18  6.072594980037640e-01
-8.951425490491229e-01  6.072594980037640e-01 -2.993652234583420e-18

 1.447090392889131e-17  1.856691808748694e-19 -1.090718318214719e+00
 1.856691808748694e-19  1.408039625119512e-17  3.930224617893601e-01
-1.090718318214719e+00  3.930224617893601e-01  1.202622156209155e-17

 1.423279650508957e-17  1.378261923798808e-19 -1.078662378337716e+00
 1.378261923798808e-19  1.519007062557880e-17  3.633635202021876e-01
-1.078662378337716e+00  3.633635202021876e-01  1.154882606080364e-17

 1.252188065556113e-17  8.150975439699209e-20 -1.007737447609345e+00
 8.150975439699209e-20  1.267865875429620e-17  4.284966098815235e-01
-1.007737447609345e+00  4.284966098815235e-01  6.377895942986220e-18

 1.265049302998031e-17  6.423183615954748e-20 -1.012401563028953e+00
 6.423183615954748e-20  1.251274815650709e-17  4.332396943787108e-01
-1.012401563028953e+00  4.332396943787108e-01  6.732006071165718e-18

 1.287630598533062e-17  5.906861983489382e-20 -1.021582990457455e+00
 5.906861983489382e-20  1.271132084205252e-17  4.286099045154849e-01
-1.021582990457455e+00  4.286099045154849e-01  7.413057732653471e-18

 1.275253974896853e-17  6.011344188815624e-20 -1.016847322084794e+00
 6.011344188815624e-20  1.247622432387589e-17  4.348943748166147e-01
-1.016847322084794e+00  4.348943748166147e-01  7.029013916645792e-18

 1.282774950748316e-17  5.532083149806925e-20 -1.019631976813623e+00
 5.532083149806925e-20  1.258223087296176e-17  4.319793429825263e-01
-1.019631976813623e+00  4.319793429825263e-01  7.244362545122305e-18

 1.293198600142454e-17  5.563128297413701e-20 -1.023754671220045e+00
 5.563128297413701e-20  1.277754632797011e-17  4.268217165675869e-01
-1.023754671220045e+00  4.268217165675869e-01  7.568337969153585e-18

 1.286463510715326e-17  5.516835107055898e-20 -1.021149126254224e+00
 5.516835107055898e-20  1.268277384741603e-17  4.291918337425888e-01
-1.021149126254224e+00  4.291918337425888e-01  7.368076539462588e-18

 1.282456504568820e-17  5.609411130673945e-20 -1.019718033337631e+00
 5.609411130673945e-20  1.260916705756587e-17  4.310905381106706e-01
-1.019718033337631e+00  4.310905381106706e-01  7.250773693490969e-18

 1.286664780977670e-17  5.544247517912797e-20 -1.021411164719807e+00
 5.544247517912797e-20  1.267397956612509e-17  4.293953774253073e-01
-1.021411164719807e+00  4.293953774253073e-01  7.380340484799912e-18

 1.286821102043677e-17  5.531196242718548e-20 -1.021471263894107e+00
 5.531196242718548e-20  1.268123689054889e-17  4.290436774600667e-01
-1.021471263894107e+00  4.290436774600667e-01  7.387725730607701e-18

 1.285043182206409e-17  5.575440992363105e-20 -1.020814880858355e+00
 5.575440992363105e-20  1.265705074192832e-17  4.295872298361077e-01
-1.020814880858355e+00  4.295872298361077e-01  7.337972542184546e-18

 1.285720506907092e-17  5.519175604638899e-20 -1.021144613438284e+00
 5.519175604638899e-20  1.266856371570929e-17  4.291961758318085e-01
-1.021144613438284e+00  4.291961758318085e-01  7.362972471065307e-18

 1.285725664317802e-17  5.558648881097579e-20 -1.021200991857464e+00
 5.558648881097579e-20  1.267079537491747e-17  4.291327763311483e-01
-1.021200991857464e+00  4.291327763311483e-01  7.366878322108979e-18

 1.284900748361597e-17  5.600616571298800e-20 -1.020924190509295e+00
 5.600616571298800e-20  1.265591921345721e-17  4.294390775792802e-01
-1.020924190509295e+00  4.294390775792802e-01  7.344940260447590e-18

 1.285437018760354e-17  5.540728636815314e-20 -1.021204459017951e+00
 5.540728636815314e-20  1.266392435862842e-17  4.291741331613849e-01
-1.021204459017951e+00  4.291741331613849e-01  7.365170912564550e-18

 1.285288268551298e-17  5.475304361132989e-20 -1.021206321390441e+00
 5.475304361132989e-20  1.266275235083907e-17  4.291828480809529e-01
-1.021206321390441e+00  4.291828480809529e-01  7.364337569372095e-18

 1.284459982973537e-17  5.516934205549638e-20 -1.020933516310879e+00
 5.516934205549638e-20  1.264743818274403e-17  4.294716126188990e-01
-1.020933516310879e+00  4.294716126188990e-01  7.343029473893123e-18

 1.285046624159320e-17  5.507149564966334e-20 -1.021231003371127e+00
 5.507149564966334e-20  1.265908617892279e-17  4.291260665595941e-01
-1.021231003371127e+00  4.291260665595941e-01  7.365918560745539e-18

 1.284813995354773e-17  5.490998271123570e-20 -1.021199244710880e+00
 5.490998271123570e-20  1.265708303007579e-17  4.290889013057899e-01
-1.021199244710880e+00  4.290889013057899e-01  7.363992116091277e-18

 1.283900266229392e-17  5.480289590513194e-20 -1.020892600166403e+00
 5.480289590513194e-20  1.264373578053166e-17  4.293235276223171e-01
-1.020892600166403e+00  4.293235276223171e-01  7.341171058905534e-18

 1.284470140130569e-17  5.468787518461665e-20 -1.021188157045561e+00
 5.468787518461665e-20  1.265622539680715e-17  4.289737484403904e-01
-1.021188157045561e+00  4.289737484403904e-01  7.364121051194516e-18

 1.284240766797605e-17  5.451018042672370e-20 -1.021166004831709e+00
 5.451018042672370e-20  1.265519030192918e-17  4.289835303301547e-01
-1.021166004831709e+00  4.289835303301547e-01  7.362279742350262e-18

 1.283039678987823e-17  5.439366858602579e-20 -1.020755252605379e+00
 5.439366858602579e-20  1.263342658718371e-17  4.293819987694666e-01
-1.020755252605379e+00  4.293819987694666e-01  7.330519432252023e-18

 1.283692232131814e-17  5.429810455509873e-20 -1.021095609744378e+00
 5.429810455509873e-20  1.264622168758260e-17  4.289908249067630e-01
-1.021095609744378e+00  4.289908249067630e-01  7.356154810371039e-18

 1.284544977768325e-17  5.411565945098787e-20 -1.021522707009709e+00
 5.411565945098787e-20  1.266478402625001e-17  4.285982262352299e-01
-1.021522707009709e+00  4.285982262352299e-01  7.387464375084372e-18

 1.283305813395322e-17  5.395061963092307e-20 -1.021111675701468e+00
 5.395061963092307e-20  1.263779073880736e-17  4.292062338466634e-01
-1.021111675701468e+00  4.292062338466634e-01  7.353446873305304e-18

 1.282099551176425e-17  5.386264944180868e-20 -1.020711545103976e+00
 5.386264944180868e-20  1.261366780681720e-17  4.297296849481556e-01
-1.020711545103976e+00  4.297296849481556e-01  7.321237269850116e-18

 1.282877658351254e-17  5.377683282964523e-20 -1.021103001064257e+00
 5.377683282964523e-20  1.263252859847133e-17  4.291867312586347e-01
-1.021103001064257e+00  4.291867312586347e-01  7.352265630839155e-18

 1.283710602943299e-17  5.360972982043564e-20 -1.021514490148628e+00
 5.360972982043564e-20  1.265504399579304e-17  4.285525996547433e-01
-1.021514490148628e+00  4.285525996547433e-01  7.385781932841797e-18

 1.282442877382461e-17  5.342027734975415e-20 -1.021084340095977e+00
 5.342027734975415e-20  1.263751873766497e-17  4.289247589745783e-01
-1.021084340095977e+00  4.289247589745783e-01  7.353695550784618e-18

 1.281350414765747e-17  5.331434482492176e-20 -1.020731100157034e+00
 5.331434482492176e-20  1.262066943286139e-17  4.293033349881550e-01
-1.020731100157034e+00  4.293033349881550e-01  7.326508920802755e-18

 1.282131580293137e-17  5.319366551804477e-20 -1.021137237777370e+00
 5.319366551804477e-20  1.263114712322708e-17  4.288827181485487e-01
-1.021137237777370e+00  4.288827181485487e-01  7.357352130061463e-18

 1.281965828347993e-17  5.300152742059225e-20 -1.021164842521822e+00
 5.300152742059225e-20  1.263353256846048e-17  4.288413253165168e-01
-1.021164842521822e+00  4.288413253165168e-01  7.359051683750413e-18

 1.280974381452090e-17  5.286591525440786e-20 -1.020864251324566e+00
 5.286591525440786e-20  1.261849959454462e-17  4.291697173599993e-01
-1.020864251324566e+00  4.291697173599993e-01  7.335133562837663e-18

 1.281445114446423e-17  5.274137826644620e-20 -1.021157063333183e+00
 5.274137826644620e-20  1.262163170718967e-17  4.289235731391096e-01
-1.021157063333183e+00  4.289235731391096e-01  7.356311183020616e-18

 1.281233351923462e-17  5.256039077740719e-20 -1.021175545469729e+00
 5.256039077740719e-20  1.262167277118936e-17  4.289449474715450e-01
-1.021175545469729e+00  4.289449474715450e-01  7.356648073821273e-18

 1.280254234598709e-17  5.243524879853629e-20 -1.020885039448116e+00
 5.243524879853629e-20  1.260446002549718e-17  4.292441993245935e-01
-1.020885039448116e+00  4.292441993245935e-01  7.333783035162915e-18

 1.280710285032454e-17  5.231261718104552e-20 -1.021172272128988e+00
 5.231261718104552e-20  1.261647470727612e-17  4.289251404308888e-01
-1.021172272128988e+00  4.289251404308888e-01  7.355660870377320e-18

 1.280394004412305e-17  5.212668709815006e-20 -1.021148657318532e+00
 5.212668709815006e-20  1.261251462572154e-17  4.288907906387395e-01
-1.021148657318532e+00  4.288907906387395e-01  7.354168305339119e-18

 1.279376741927457e-17  5.199642159831422e-20 -1.020843355072111e+00
 5.199642159831422e-20  1.260016880609482e-17  4.291303663051005e-01
-1.020843355072111e+00  4.291303663051005e-01  7.331259235671892e-18

 1.279835180237561e-17  5.185881033018458e-20 -1.021136983249011e+00
 5.185881033018458e-20  1.260848495252434e-17  4.287878462850127e-01
-1.021136983249011e+00  4.287878462850127e-01  7.353880407731444e-18

 1.279493304707857e-17  5.165914898180454e-20 -1.021112644260070e+00
 5.165914898180454e-20  1.260830727064737e-17  4.288050827145927e-01
-1.021112644260070e+00  4.288050827145927e-01  7.351683501271287e-18

 1.278182458503313e-17  5.153153184078902e-20 -1.020700908180693e+00
 5.153153184078902e-20  1.258952523234487e-17  4.292095533366785e-01
-1.020700908180693e+00  4.292095533366785e-01  7.319654266396999e-18

 1.278724426692869e-17  5.141486200747375e-20 -1.021040148127862e+00
 5.141486200747375e-20  1.259963251568132e-17  4.288240580626576e-01
-1.021040148127862e+00  4.288240580626576e-01  7.345005216634036e-18

 1.279465297410629e-17  5.121535870654820e-20 -1.021465695018675e+00
 5.121535870654820e-20  1.260982241272211e-17  4.284369716631820e-01
-1.021465695018675e+00  4.284369716631820e-01  7.375996807812249e-18

 1.278117095603615e-17  5.103153664966016e-20 -1.021054417461764e+00
 5.103153664966016e-20  1.258314535832067e-17  4.290486371941251e-01
-1.021054417461764e+00  4.290486371941251e-01  7.341758493262203e-18

 1.276801345257501e-17  5.093133594090688e-20 -1.020653997183738e+00
 5.093133594090688e-20  1.256170912811021e-17  4.295755317271464e-01
-1.020653997183738e+00  4.295755317271464e-01  7.309321347731549e-18

 1.277466166079286e-17  5.083011873141273e-20 -1.021043798848135e+00
 5.083011873141273e-20  1.257885381824539e-17  4.290371720784947e-01
-1.021043798848135e+00  4.290371720784947e-01  7.340013014679772e-18

 1.278188078538512e-17  5.064525749540930e-20 -1.021454700204826e+00
 5.064525749540930e-20  1.260199661974668e-17  4.284062512685097e-01
-1.021454700204826e+00  4.284062512685097e-01  7.373271002849032e-18

 1.276812308273781e-17  5.044148137918463e-20 -1.021025219486425e+00
 5.044148137918463e-20  1.257922027987456e-17  4.287799417066649e-01
-1.021025219486425e+00  4.287799417066649e-01  7.341023954257428e-18

 1.275607530535204e-17  5.032110611451562e-20 -1.020671135610815e+00
 5.032110611451562e-20  1.256400292698448e-17  4.291614917965879e-01
-1.020671135610815e+00  4.291614917965879e-01  7.313556180571003e-18

 1.276274516943483e-17  5.018289173966471e-20 -1.021075828934393e+00
 5.018289173966471e-20  1.257788529931975e-17  4.287443563657682e-01
-1.021075828934393e+00  4.287443563657682e-01  7.344068886468170e-18

 1.275998590071243e-17  4.997697429727146e-20 -1.021103728652624e+00
 4.997697429727146e-20  1.257545294460001e-17  4.287043429077295e-01
-1.021103728652624e+00  4.287043429077295e-01  7.345570706299753e-18

 1.274896497281274e-17  4.982504917406883e-20 -1.020803394929738e+00
 4.982504917406883e-20  1.255740380745155e-17  4.290338087266189e-01
-1.020803394929738e+00  4.290338087266189e-01  7.321452027749342e-18

 1.275252954051293e-17  4.968783393089216e-20 -1.021095153518434e+00
 4.968783393089216e-20  1.256193098881938e-17  4.287900108672848e-01
-1.021095153518434e+00  4.287900108672848e-01  7.342326144880600e-18

 1.274927794700910e-17  4.948823875312257e-20 -1.021113124355462e+00
 4.948823875312257e-20  1.256036284153468e-17  4.288131190738818e-01
-1.021113124355462e+00  4.288131190738818e-01  7.342397678300554e-18

 1.273836917028297e-17  4.934753113769692e-20 -1.020822919315129e+00
 4.934753113769692e-20  1.254562339511941e-17  4.291131031184348e-01
-1.020822919315129e+00  4.291131031184348e-01  7.319328113249415e-18

 1.274178963577478e-17  4.920532689817555e-20 -1.021109724648615e+00
 4.920532689817555e-20  1.255457560864372e-17  4.287954703800629e-01
-1.021109724648615e+00  4.287954703800629e-01  7.340942609666690e-18

 1.273747557326300e-17  4.900489926754300e-20 -1.021085380149815e+00
 4.900489926754300e-20  1.254777671253333e-17  4.287627575552447e-01
-1.021085380149815e+00  4.287627575552447e-01  7.339161980364884e-18

 1.272616836577297e-17  4.885897554616853e-20 -1.020780211724741e+00
 4.885897554616853e-20  1.253480760730895e-17  4.290029201666597e-01
-1.020780211724741e+00  4.290029201666597e-01  7.316029598930672e-18

 1.272961033321390e-17  4.870206275986300e-20 -1.021073836097442e+00
 4.870206275986300e-20  1.254545546930477e-17  4.286610507311015e-01
-1.021073836097442e+00  4.286610507311015e-01  7.338414549472647e-18

 1.272502886307659e-17  4.848738725281678e-20 -1.021048853950898e+00
 4.848738725281678e-20  1.254043454983121e-17  4.286795858686224e-01
-1.021048853950898e+00  4.286795858686224e-01  7.335929850568458e-18

 1.271075955104198e-17  4.833964862754530e-20 -1.020636747135897e+00
 4.833964862754530e-20  1.252082212171221e-17  4.290849550046081e-01
-1.020636747135897e+00  4.290849550046081e-01  7.303632322395217e-18

 1.271502328900775e-17  4.820805277874077e-20 -1.020975993424080e+00
 4.820805277874077e-20  1.253478930753181e-17  4.286997730007976e-01
-1.020975993424080e+00  4.286997730007976e-01  7.328742712421075e-18

 1.272126966309401e-17  4.798908152959162e-20 -1.021401511995898e+00
 4.798908152959162e-20  1.254500204738802e-17  4.283130045344302e-01
-1.021401511995898e+00  4.283130045344302e-01  7.359487697899704e-18

 1.270661449820912e-17  4.778686138163265e-20 -1.020989947606241e+00
 4.778686138163265e-20  1.251896188051678e-17  4.289252979569065e-01
-1.020989947606241e+00  4.289252979569065e-01  7.324980645996916e-18

 1.269227909390192e-17  4.766434693476104e-20 -1.020589304004467e+00
 4.766434693476104e-20  1.249222888391003e-17  4.294529181639418e-01
-1.020589304004467e+00  4.294529181639418e-01  7.292274180201738e-18

 1.269774431236692e-17  4.754764873628090e-20 -1.020978886900998e+00
 4.754764873628090e-20  1.251117469149497e-17  4.289152709943137e-01
-1.020978886900998e+00  4.289152709943137e-01  7.322693894564475e-18

 1.270376927080020e-17  4.734323506341053e-20 -1.021389311780604e+00
 4.734323506341053e-20  1.253360725419169e-17  4.282850634849215e-01
-1.021389311780604e+00  4.282850634849215e-01  7.355660569920284e-18

 1.268882275935520e-17  4.711424286028516e-20 -1.020959786902620e+00
 4.711424286028516e-20  1.251350644219473e-17  4.286586697472872e-01
-1.020959786902620e+00  4.286586697472872e-01  7.323156405306863e-18

 1.267559121484929e-17  4.697454033592500e-20 -1.020606080057244e+00
 4.697454033592500e-20  1.249195125769101e-17  4.290396906662920e-01
-1.020606080057244e+00  4.290396906662920e-01  7.295461300742097e-18

 1.268104880741162e-17  4.681659747621108e-20 -1.021010282358009e+00
 4.681659747621108e-20  1.250236687630144e-17  4.286232183831546e-01
-1.021010282358009e+00  4.286232183831546e-01  7.325673584404710e-18

 1.267705141214158e-17  4.658826197223413e-20 -1.021036883241639e+00
 4.658826197223413e-20  1.249823903368931e-17  4.285846116237205e-01
-1.021036883241639e+00  4.285846116237205e-01  7.326810439335890e-18

 1.266482282232120e-17  4.641777377938023e-20 -1.020736714384029e+00
 4.641777377938023e-20  1.248571929821066e-17  4.289136096425181e-01
-1.020736714384029e+00  4.289136096425181e-01  7.302438537161816e-18

 1.266721817392639e-17  4.625522381671672e-20 -1.021030468254848e+00
 4.625522381671672e-20  1.249138276845402e-17  4.286676988125759e-01
-1.021030468254848e+00  4.286676988125759e-01  7.323193039071763e-18

 1.266273195060445e-17  4.603118116149781e-20 -1.021048092452178e+00
 4.603118116149781e-20  1.248678160784098e-17  4.286919941637649e-01
-1.021048092452178e+00  4.286919941637649e-01  7.322954428231925e-18

 1.265050745782461e-17  4.587088686596482e-20 -1.020754500416894e+00
 4.587088686596482e-20  1.247274784876306e-17  4.289963213788502e-01
-1.020754500416894e+00  4.289963213788502e-01  7.299340644362466e-18

 1.265268155261743e-17  4.570307823849347e-20 -1.021040941229622e+00
 4.570307823849347e-20  1.247652685890416e-17  4.286785131497882e-01
-1.021040941229622e+00  4.286785131497882e-01  7.320653241764989e-18

 1.264719608251511e-17  4.547807010215543e-20 -1.021019553954879e+00
 4.547807010215543e-20  1.247430598657482e-17  4.286410451480458e-01
-1.021019553954879e+00  4.286410451480458e-01  7.318831220447858e-18

 1.263464792441673e-17  4.530774529721485e-20 -1.020714814966603e+00
 4.530774529721485e-20  1.245936503563509e-17  4.288796944487483e-01
-1.020714814966603e+00  4.288796944487483e-01  7.295454361896597e-18

 1.263677591455037e-17  4.512503058086347e-20 -1.021006323067050e+00
 4.512503058086347e-20  1.246949160644926e-17  4.285406498847907e-01
-1.021006323067050e+00  4.285406498847907e-01  7.317377829256256e-18

 1.263089159986925e-17  4.488488456040974e-20 -1.020979939276898e+00
 4.488488456040974e-20  1.246248834402695e-17  4.285617900268104e-01
-1.020979939276898e+00  4.285617900268104e-01  7.314478508633680e-18

 1.261535831020800e-17  4.470925199250512e-20 -1.020568292774441e+00
 4.470925199250512e-20  1.244330655609715e-17  4.289668847282616e-01
-1.020568292774441e+00  4.289668847282616e-01  7.281913199411156e-18

 1.261837068900620e-17  4.455113996807000e-20 -1.020908849072813e+00
 4.455113996807000e-20  1.245520695021587e-17  4.285797539783386e-01
-1.020908849072813e+00  4.285797539783386e-01  7.306823981876720e-18

 1.262332203416125e-17  4.430520513193012e-20 -1.021334240266613e+00
 4.430520513193012e-20  1.246405906153846e-17  4.281924611126445e-01
-1.021334240266613e+00  4.281924611126445e-01  7.337256982752682e-18

 1.260733580622459e-17  4.407453518960056e-20 -1.020921440528980e+00
 4.407453518960056e-20  1.243969346128415e-17  4.288056783808465e-01
-1.020921440528980e+00  4.288056783808465e-01  7.302346811505029e-18

 1.259168807593529e-17  4.392788145939013e-20 -1.020520574723035e+00
 4.392788145939013e-20  1.241460785488301e-17  4.293332091535511e-01
-1.020520574723035e+00  4.293332091535511e-01  7.269312757423349e-18

 1.259584611507743e-17  4.377399225407700e-20 -1.020910559530022e+00
 4.377399225407700e-20  1.242719754076362e-17  4.287948044538234e-01
-1.020910559530022e+00  4.287948044538234e-01  7.299446489371730e-18

 1.260053355958817e-17  4.354010774752997e-20 -1.021320532243875e+00
 4.354010774752997e-20  1.245138188958660e-17  4.281648059414803e-01
-1.021320532243875e+00  4.281648059414803e-01  7.332055726573895e-18

 1.258423735874174e-17  4.328354103254616e-20 -1.020890462652727e+00
 4.328354103254616e-20  1.243000140468863e-17  4.285388479719062e-01
-1.020890462652727e+00  4.285388479719062e-01  7.299180527105657e-18

 1.256966419178218e-17  4.310931412889085e-20 -1.020536902675400e+00
 4.310931412889085e-20  1.241280943194839e-17  4.289194785117726e-01
-1.020536902675400e+00  4.289194785117726e-01  7.271164040289885e-18

 1.257376830722454e-17  4.291893720841561e-20 -1.020941153602668e+00
 4.291893720841561e-20  1.242332860118429e-17  4.285026167885872e-01
-1.020941153602668e+00  4.285026167885872e-01  7.301043582615886e-18

 1.256840243558763e-17  4.265913100148419e-20 -1.020967612123234e+00
 4.265913100148419e-20  1.241849490938356e-17  4.284639304756260e-01
-1.020967612123234e+00  4.284639304756260e-01  7.301827075143055e-18

 1.255479491520604e-17  4.245325634914986e-20 -1.020667266329873e+00
 4.245325634914986e-20  1.240061653939294e-17  4.287930480192606e-01
-1.020667266329873e+00  4.287930480192606e-01  7.277094136657388e-18

 1.255577458178821e-17  4.225784159384176e-20 -1.020959792157368e+00
 4.225784159384176e-20  1.241329274086598e-17  4.285480210666626e-01
-1.020959792157368e+00  4.285480210666626e-01  7.297405123742694e-18

 1.254987325625654e-17  4.199954590801754e-20 -1.020976592428030e+00
 4.199954590801754e-20  1.240613149540080e-17  4.285720164764742e-01
-1.020976592428030e+00  4.285720164764742e-01  7.296755943263361e-18

 1.253629221647841e-17  4.180136082251180e-20 -1.020685046578118e+00
 4.180136082251180e-20  1.238491195601123e-17  4.288730184472794e-01
-1.020685046578118e+00  4.288730184472794e-01  7.272943508418202e-18

 1.253707907999316e-17  4.159784957570478e-20 -1.020972802031839e+00
 4.159784957570478e-20  1.239529578083358e-17  4.285538652171966e-01
-1.020972802031839e+00  4.285538652171966e-01  7.293982546152204e-18

 1.253009316245460e-17  4.133182585770628e-20 -1.020948581548989e+00
 4.133182585770628e-20  1.239072617963200e-17  4.285204876276315e-01
-1.020948581548989e+00  4.285204876276315e-01  7.291555349591023e-18

 1.251604367414565e-17  4.112300517464389e-20 -1.020641484362089e+00
 4.112300517464389e-20  1.237337758674584e-17  4.287621814949553e-01
-1.020641484362089e+00  4.287621814949553e-01  7.267608405331589e-18

 1.251676711733147e-17  4.090077581622238e-20 -1.020934928645171e+00
 4.090077581622238e-20  1.238533808283402e-17  4.284199550169398e-01
-1.020934928645171e+00  4.284199550169398e-01  7.289303386382699e-18

 1.250947429491598e-17  4.061951909937770e-20 -1.020910853605022e+00
 4.061951909937770e-20  1.237997507110601e-17  4.284368314407502e-01
-1.020910853605022e+00  4.284368314407502e-01  7.286203885143694e-18

 1.249242374257471e-17  4.040670315410724e-20 -1.020497658787929e+00
 4.040670315410724e-20  1.236418283506875e-17  4.288426573184876e-01
-1.020497658787929e+00  4.288426573184876e-01  7.253128149322312e-18

 1.249389026306342e-17  4.020200313075567e-20 -1.020836034776827e+00
 4.020200313075567e-20  1.237086416026249e-17  4.284578860836147e-01
-1.020836034776827e+00  4.284578860836147e-01  7.277464303999254e-18

 1.249735121674779e-17  3.991104206557785e-20 -1.021262041976282e+00
 3.991104206557785e-20  1.237858490070761e-17  4.280701159953782e-01
-1.021262041976282e+00  4.280701159953782e-01  7.307528220431491e-18

 1.247985640906049e-17  3.963856957051205e-20 -1.020849659000543e+00
 3.963856957051205e-20  1.235575553643519e-17  4.286826293151276e-01
-1.020849659000543e+00  4.286826293151276e-01  7.272231237472505e-18

 1.246264985449602e-17  3.944746153146348e-20 -1.020447792677868e+00
 3.944746153146348e-20  1.232701041971652e-17  4.292105733690659e-01
-1.020447792677868e+00  4.292105733690659e-01  7.238696181532459e-18

 1.246526747335197e-17  3.924916501887234e-20 -1.020838064611170e+00
 3.924916501887234e-20  1.234439693487440e-17  4.286711590008836e-01
-1.020838064611170e+00  4.286711590008836e-01  7.268421841002658e-18

 1.246841150335650e-17  3.896630748388860e-20 -1.021248817704895e+00
 3.896630748388860e-20  1.236796882084152e-17  4.280397939539781e-01
-1.021248817704895e+00  4.280397939539781e-01  7.300651723028274e-18

 1.245051072332274e-17  3.866011094953094e-20 -1.020817680849557e+00
 3.866011094953094e-20  1.234483623683603e-17  4.284146811931847e-01
-1.020817680849557e+00  4.284146811931847e-01  7.267245532979863e-18

 1.243431380865703e-17  3.843883338295922e-20 -1.020462912487415e+00
 3.843883338295922e-20  1.232469691011997e-17  4.287963359602908e-01
-1.020462912487415e+00  4.287963359602908e-01  7.238679108986903e-18

 1.243682356210192e-17  3.819494342324799e-20 -1.020867762869899e+00
 3.819494342324799e-20  1.233659891393420e-17  4.283781753412788e-01
-1.020867762869899e+00  4.283781753412788e-01  7.268142773474132e-18

 1.242985627634648e-17  3.788224214857270e-20 -1.020895186236172e+00
 3.788224214857270e-20  1.233195122819978e-17  4.283377573113039e-01
-1.020895186236172e+00  4.283377573113039e-01  7.268531298299066e-18

 1.241458439172340e-17  3.762498940722495e-20 -1.020593992271027e+00
 3.762498940722495e-20  1.231751487049730e-17  4.286674220457224e-01
-1.020593992271027e+00  4.286674220457224e-01  7.243251692516069e-18

 1.241386223927931e-17  3.737185836932905e-20 -1.020884829393454e+00
 3.737185836932905e-20  1.232529353067190e-17  4.284239183298682e-01
-1.020884829393454e+00  4.284239183298682e-01  7.262942116142176e-18

 1.240629491973618e-17  3.706071214985077e-20 -1.020902103580612e+00
 3.706071214985077e-20  1.231569633083852e-17  4.284467527266085e-01
-1.020902103580612e+00  4.284467527266085e-01  7.261832833014258e-18

 1.239105169058435e-17  3.680346201112033e-20 -1.020611883042821e+00
 3.680346201112033e-20  1.230094531000689e-17  4.287455130112472e-01
-1.020611883042821e+00  4.287455130112472e-01  7.237618959553951e-18

 1.239009755055340e-17  3.654343093942593e-20 -1.020898549732759e+00
 3.654343093942593e-20  1.230897783020622e-17  4.284269887246464e-01
-1.020898549732759e+00  4.284269887246464e-01  7.258058403035154e-18

 1.238134221569598e-17  3.621838754069420e-20 -1.020872906731399e+00
 3.621838754069420e-20  1.230612889356390e-17  4.283948317945152e-01
-1.020872906731399e+00  4.283948317945152e-01  7.254992715203061e-18

 1.236555715987305e-17  3.594882039171476e-20 -1.020566515681835e+00
 3.594882039171476e-20  1.228986221215405e-17  4.286353443688122e-01
-1.020566515681835e+00  4.286353443688122e-01  7.230562880110630e-18

 1.236451717113522e-17  3.566293264448816e-20 -1.020860348854352e+00
 3.566293264448816e-20  1.230278390608017e-17  4.282920459011714e-01
-1.020860348854352e+00  4.282920459011714e-01  7.251742023065907e-18

 1.235540586676159e-17  3.531611590472050e-20 -1.020835280445420e+00
 3.531611590472050e-20  1.229812644149481e-17  4.283093383217773e-01
-1.020835280445420e+00  4.283093383217773e-01  7.248009906441727e-18

 1.233653328997646e-17  3.503495848889635e-20 -1.020421799061895e+00
 3.503495848889635e-20  1.227341578996436e-17  4.287149146735826e-01
-1.020421799061895e+00  4.287149146735826e-01  7.214344514479423e-18

 1.233616926098250e-17  3.476492962824545e-20 -1.020760418439902e+00
 3.476492962824545e-20  1.228907915707946e-17  4.283293106631611e-01
-1.020760418439902e+00  4.283293106631611e-01  7.238120263137956e-18

 1.233776001560041e-17  3.440388879738203e-20 -1.021185975638425e+00
 3.440388879738203e-20  1.229674139578335e-17  4.279414120508330e-01
-1.021185975638425e+00  4.279414120508330e-01  7.267559028108936e-18

 1.231837498216174e-17  3.406286041479871e-20 -1.020773256333213e+00
 3.406286041479871e-20  1.227399458817448e-17  4.285537189035397e-01
-1.020773256333213e+00  4.285537189035397e-01  7.231633802647123e-18

 1.229926489813069e-17  3.379601772439928e-20 -1.020371459993020e+00
 3.379601772439928e-20  1.225003658019177e-17  4.290810854652678e-01
-1.020371459993020e+00  4.290810854652678e-01  7.197489002166860e-18

 1.229994197408646e-17  3.352461384894734e-20 -1.020761287484845e+00
 3.352461384894734e-20  1.226249642746529e-17  4.285416302619087e-01
-1.020761287484845e+00  4.285416302619087e-01  7.226552493530897e-18

 1.230111738937997e-17  3.316220298950069e-20 -1.021171453827725e+00
 3.316220298950069e-20  1.228014216327738e-17  4.279102353410502e-01
-1.021171453827725e+00  4.279102353410502e-01  7.258097697677940e-18

 1.228124088758087e-17  3.277903829758129e-20 -1.020740463759509e+00
 3.277903829758129e-20  1.226005118612384e-17  4.282841564795350e-01
-1.020740463759509e+00  4.282841564795350e-01  7.224051799267443e-18

 1.226304735282066e-17  3.247832240958848e-20 -1.020386056412869e+00
 3.247832240958848e-20  1.224316490599125e-17  4.286647553136053e-01
-1.020386056412869e+00  4.286647553136053e-01  7.194847237348257e-18

 1.226351012079378e-17  3.215172553550968e-20 -1.020790318855511e+00
 3.215172553550968e-20  1.226133095249386e-17  4.282468786231561e-01
-1.020790318855511e+00  4.282468786231561e-01  7.223582579617402e-18

 1.225445071550251e-17  3.175318830297403e-20 -1.020816449532275e+00
 3.175318830297403e-20  1.225752057957974e-17  4.282074232990882e-01
-1.020816449532275e+00  4.282074232990882e-01  7.223175185746813e-18

 1.223709018914910e-17  3.140910195951123e-20 -1.020515217750144e+00
 3.140910195951123e-20  1.224247998421077e-17  4.285362557390196e-01
-1.020515217750144e+00  4.285362557390196e-01  7.197185764037063e-18

 1.223428039345278e-17  3.106740842393840e-20 -1.020807228147603e+00
 3.106740842393840e-20  1.224366654605327e-17  4.282904913595534e-01
-1.020807228147603e+00  4.282904913595534e-01  7.216245252492825e-18

 1.222455920613031e-17  3.066210678613031e-20 -1.020824218910601e+00
 3.066210678613031e-20  1.224213838447176e-17  4.283130190861431e-01
-1.020824218910601e+00  4.283130190861431e-01  7.214373743853597e-18

 1.220709789271324e-17  3.031400945927848e-20 -1.020532364995149e+00
 3.031400945927848e-20  1.222717391822088e-17  4.286132935149555e-01
-1.020532364995149e+00  4.286132935149555e-01  7.189274319837788e-18

 1.220392397608141e-17  2.995581330614420e-20 -1.020818588938520e+00
 2.995581330614420e-20  1.223099103108827e-17  4.282948141312257e-01
-1.020818588938520e+00  4.282948141312257e-01  7.208904844470112e-18

 1.219294692954135e-17  2.953202322692418e-20 -1.020793714666949e+00
 2.953202322692418e-20  1.222940919593404e-17  4.282609037674703e-01
-1.020793714666949e+00  4.282609037674703e-01  7.205111303147685e-18

 1.217489421429551e-17  2.915933437194582e-20 -1.020487568701487e+00
 2.915933437194582e-20  1.221908331010947e-17  4.285001837091952e-01
-1.020487568701487e+00  4.285001837091952e-01  7.179896682968008e-18

 1.217152315848298e-17  2.877090882500275e-20 -1.020780471175922e+00
 2.877090882500275e-20  1.223116731452913e-17  4.281572705233029e-01
-1.020780471175922e+00  4.281572705233029e-01  7.200179284288030e-18

 1.216004540264778e-17  2.831860465319626e-20 -1.020754449970503e+00
 2.831860465319626e-20  1.222847817452627e-17  4.281750665577822e-01
-1.020754449970503e+00  4.281750665577822e-01  7.195529555494473e-18

 1.213880144178859e-17  2.792686133055712e-20 -1.020341279436035e+00
 2.792686133055712e-20  1.220331251878294e-17  4.285796248410615e-01
-1.020341279436035e+00  4.285796248410615e-01  7.161026301334323e-18

 1.213602964256024e-17  2.754386653528993e-20 -1.020680222960537e+00
 2.754386653528993e-20  1.222023258860728e-17  4.281929232737782e-01
-1.020680222960537e+00  4.281929232737782e-01  7.183945942576104e-18

 1.213514620441037e-17  2.706708977318474e-20 -1.021104962734422e+00
 2.706708977318474e-20  1.223369599357069e-17  4.278052187734658e-01
-1.021104962734422e+00  4.278052187734658e-01  7.212420244256009e-18

 1.211325616681449e-17  2.660789856173176e-20 -1.020691732449331e+00
 2.660789856173176e-20  1.220754629035970e-17  4.284174364691275e-01
-1.020691732449331e+00  4.284174364691275e-01  7.175533807714563e-18

 1.209161363718631e-17  2.621971044965985e-20 -1.020289952888641e+00
 2.621971044965985e-20  1.218535196600573e-17  4.289440344858856e-01
-1.020289952888641e+00  4.289440344858856e-01  7.140448183385623e-18

 1.208970934619999e-17  2.582185895216201e-20 -1.020679473726755e+00
 2.582185895216201e-20  1.219601392940133e-17  4.284040379881019e-01
-1.020679473726755e+00  4.284040379881019e-01  7.168524424904809e-18

 1.208827028723336e-17  2.533055159465565e-20 -1.021089705169749e+00
 2.533055159465565e-20  1.222217850540989e-17  4.277718574206469e-01
-1.021089705169749e+00  4.277718574206469e-01  7.199087066431711e-18

 1.206572750479876e-17  2.481297530543112e-20 -1.020658461643190e+00
 2.481297530543112e-20  1.220389580261870e-17  4.281455231270057e-01
-1.020658461643190e+00  4.281455231270057e-01  7.164010006130632e-18

 1.204479579491000e-17  2.437755568800429e-20 -1.020302716804608e+00
 2.437755568800429e-20  1.219077745590077e-17  4.285268696783624e-01
-1.020302716804608e+00  4.285268696783624e-01  7.133668626971272e-18

 1.204250807855569e-17  2.391146531130128e-20 -1.020706946344112e+00
 2.391146531130128e-20  1.220038832705294e-17  4.281080521964678e-01
-1.020706946344112e+00  4.281080521964678e-01  7.161345244193849e-18

 1.203068064613189e-17  2.336755212050818e-20 -1.020734291446600e+00
 2.336755212050818e-20  1.220168328251690e-17  4.280663346713131e-01
-1.020734291446600e+00  4.280663346713131e-01  7.159949921381699e-18

 1.201045410734903e-17  2.287564407585117e-20 -1.020432282844094e+00
 2.287564407585117e-20  1.218989563786386e-17  4.283953738571394e-01
-1.020432282844094e+00  4.283953738571394e-01  7.132790500391539e-18

 1.200470503331580e-17  2.238301324802345e-20 -1.020722568336763e+00
 2.238301324802345e-20  1.219440613242663e-17  4.281510300323781e-01
-1.020722568336763e+00  4.281510300323781e-01  7.150578323650134e-18

 1.199203954002815e-17  2.182172687506115e-20 -1.020739731075269e+00
 2.182172687506115e-20  1.219023695318876e-17  4.281726452940017e-01
-1.020739731075269e+00  4.281726452940017e-01  7.147556648535638e-18

 1.197159574443705e-17  2.131241464147197e-20 -1.020448602812308e+00
 2.131241464147197e-20  1.218189952142244e-17  4.284710331877741e-01
-1.020448602812308e+00  4.284710331877741e-01  7.121325128215963e-18

 1.196535431112735e-17  2.078793635279276e-20 -1.020734345805453e+00
 2.078793635279276e-20  1.219365952981784e-17  4.281520731460216e-01
-1.020734345805453e+00  4.281520731460216e-01  7.139700401530986e-18

 1.195124376079792e-17  2.019292581281070e-20 -1.020708579744991e+00
 2.019292581281070e-20  1.219476916650587e-17  4.281184362045679e-01
-1.020708579744991e+00  4.281184362045679e-01  7.134587223777734e-18

 1.193001139829541e-17  1.964530228394579e-20 -1.020402055512684e+00
 1.964530228394579e-20  1.218394894219451e-17  4.283574714319236e-01
-1.020402055512684e+00  4.283574714319236e-01  7.108061120759640e-18

 1.192341281032720e-17  1.907599322246522e-20 -1.020695044853637e+00
 1.907599322246522e-20  1.219630815769837e-17  4.280136904337504e-01
-1.020695044853637e+00  4.280136904337504e-01  7.127036977545176e-18

 1.190864131662887e-17  1.843503792194357e-20 -1.020668861709140e+00
 1.843503792194357e-20  1.219425332286804e-17  4.280308224411984e-01
-1.020668861709140e+00  4.280308224411984e-01  7.121029580597562e-18

 1.188402751661684e-17  1.785308212512828e-20 -1.020255026867260e+00
 1.785308212512828e-20  1.217595943952477e-17  4.284352368306189e-01
-1.020255026867260e+00  4.284352368306189e-01  7.085096888806662e-18

 1.187782913836419e-17  1.727231716821243e-20 -1.020593626463938e+00
 1.727231716821243e-20  1.219115465552695e-17  4.280480301149724e-01
-1.020593626463938e+00  4.280480301149724e-01  7.106576940603412e-18

 1.187345940589312e-17  1.659289049206421e-20 -1.021018356096190e+00
 1.659289049206421e-20  1.220602844764979e-17  4.276594183389760e-01
-1.021018356096190e+00  4.276594183389760e-01  7.133602004185976e-18

 1.184800530797550e-17  1.592544540906381e-20 -1.020604677867871e+00
 1.592544540906381e-20  1.218603436852038e-17  4.282711713300308e-01
-1.020604677867871e+00  4.282711713300308e-01  7.095196356257715e-18

 1.182272912892242e-17  1.532602520463315e-20 -1.020202522280218e+00
 1.532602520463315e-20  1.216462554904425e-17  4.287973355172821e-01
-1.020202522280218e+00  4.287973355172821e-01  7.058557858642732e-18

 1.181712370879275e-17  1.469986380240441e-20 -1.020591955553501e+00
 1.469986380240441e-20  1.218521661716843e-17  4.282567398043677e-01
-1.020591955553501e+00  4.282567398043677e-01  7.085062400900823e-18

 1.181189429192766e-17  1.397783787595498e-20 -1.021001415184995e+00
 1.397783787595498e-20  1.221475388920702e-17  4.276245822951683e-01
-1.021001415184995e+00  4.276245822951683e-01  7.113961310038843e-18

 1.178548465178725e-17  1.322618641929055e-20 -1.020569641344240e+00
 1.322618641929055e-20  1.219914562549757e-17  4.279977480458057e-01
-1.020569641344240e+00  4.279977480458057e-01  7.077200461386807e-18

 1.176064309910638e-17  1.254616086364487e-20 -1.020214565938605e+00
 1.254616086364487e-20  1.218395120073431e-17  4.283773183315951e-01
-1.020214565938605e+00  4.283773183315951e-01  7.045224781130998e-18

 1.175432944472245e-17  1.182745392360460e-20 -1.020618421595876e+00
 1.182745392360460e-20  1.220147647947034e-17  4.279580698987567e-01
-1.020618421595876e+00  4.279580698987567e-01  7.071140183843582e-18

 1.173836856365404e-17  1.102560250208083e-20 -1.020644117472765e+00
 1.102560250208083e-20  1.220518637261383e-17  4.279173234001518e-01
-1.020644117472765e+00  4.279173234001518e-01  7.067839615892844e-18

 1.171395800323773e-17  1.026869221014875e-20 -1.020342193653727e+00
 1.026869221014875e-20  1.219165466710355e-17  4.282453176132517e-01
-1.020342193653727e+00  4.282453176132517e-01  7.038862896226887e-18

 1.170395691459617e-17  9.499171470774068e-21 -1.020633360718249e+00
 9.499171470774068e-21  1.220467072279216e-17  4.279990094033911e-01
-1.020633360718249e+00  4.279990094033911e-01  7.054846644708882e-18

 1.168689055135310e-17  8.653919067768560e-21 -1.020649344330928e+00
 8.653919067768560e-21  1.220744684626179e-17  4.280209259428381e-01
-1.020649344330928e+00  4.280209259428381e-01  7.049811966125550e-18

 1.166195200371296e-17  7.850949994569841e-21 -1.020357024903148e+00
 7.850949994569841e-21  1.219963400690197e-17  4.283196555208988e-01
-1.020357024903148e+00  4.283196555208988e-01  7.021514735449896e-18

 1.165116726309758e-17  7.022998943523949e-21 -1.020643523778404e+00
 7.022998943523949e-21  1.221634076717332e-17  4.279989148520966e-01
-1.020643523778404e+00  4.279989148520966e-01  7.037920801460131e-18

 1.163238714299318e-17  6.115819933346064e-21 -1.020617753394959e+00
 6.115819933346064e-21  1.221757022662409e-17  4.279643100212772e-01
-1.020617753394959e+00  4.279643100212772e-01  7.030725211388404e-18

 1.160635073802949e-17  5.246071511955310e-21 -1.020309625872986e+00
 5.246071511955310e-21  1.221095242971921e-17  4.282041105637885e-01
-1.020309625872986e+00  4.282041105637885e-01  7.001937093203426e-18

 1.159486116548307e-17  4.338927051559849e-21 -1.020602186354403e+00
 4.338927051559849e-21  1.222966165076262e-17  4.278597072640176e-01
-1.020602186354403e+00  4.278597072640176e-01  7.018683664371373e-18

 1.157511131338566e-17  3.356047520612441e-21 -1.020576734064313e+00
 3.356047520612441e-21  1.223681047909337e-17  4.278748025565828e-01
-1.020576734064313e+00  4.278748025565828e-01  7.010477274346428e-18

 1.154538892849606e-17  2.418509010087244e-21 -1.020162513804739e+00
 2.418509010087244e-21  1.221913745430541e-17  4.282785234371839e-01
-1.020162513804739e+00  4.282785234371839e-01  6.972195814560161e-18

 1.153394033187870e-17  1.468037650155361e-21 -1.020500037564107e+00
 1.468037650155361e-21  1.224368189456285e-17  4.278917144699628e-01
-1.020500037564107e+00  4.278917144699628e-01  6.991205805972185e-18

 1.152420250737599e-17  4.053491912691458e-22 -1.020924251227175e+00
 4.053491912691458e-22  1.226763396282502e-17  4.275028830871745e-01
-1.020924251227175e+00  4.275028830871745e-01  7.015737556963664e-18

 1.149327342555699e-17 -6.522992898453928e-22 -1.020510379963253e+00
-6.522992898453928e-22  1.224443242406954e-17  4.281136695754619e-01
-1.020510379963253e+00  4.281136695754619e-01  6.974799111456408e-18

 1.146237674567902e-17 -1.656780944680385e-21 -1.020108182385018e+00
-1.656780944680385e-21  1.223260738414105e-17  4.286385059046951e-01
-1.020108182385018e+00  4.286385059046951e-01  6.935570468790991e-18

 1.145102079826721e-17 -2.704648230851202e-21 -1.020497314898176e+00
-2.704648230851202e-21  1.226188672337095e-17  4.280970136662582e-01
-1.020497314898176e+00  4.280970136662582e-01  6.959389642053263e-18

 1.143989018341323e-17 -3.867050090028603e-21 -1.020905949835476e+00
-3.867050090028603e-21  1.229212243471985e-17  4.274647058960881e-01
-1.020905949835476e+00  4.274647058960881e-01  6.985485069278332e-18

 1.140744094370894e-17 -5.068551296399400e-21 -1.020473664706946e+00
-5.068551296399400e-21  1.228704597836368e-17  4.278374138839926e-01
-1.020473664706946e+00  4.278374138839926e-01  6.945866577512466e-18

 1.137640868083950e-17 -6.212152861855686e-21 -1.020118407481616e+00
-6.212152861855686e-21  1.228362765463586e-17  4.282160779226405e-01
-1.020118407481616e+00  4.282160779226405e-01  6.910978458619429e-18

 1.136373277586871e-17 -7.414326161005686e-21 -1.020521765619904e+00
-7.414326161005686e-21  1.229892942210914e-17  4.277961491708620e-01
-1.020521765619904e+00  4.277961491708620e-01  6.933874026752850e-18

 1.134125871815232e-17 -8.715732864921507e-21 -1.020547051659076e+00
-8.715732864921507e-21  1.231582232358515e-17  4.277545911198925e-01
-1.020547051659076e+00  4.277545911198925e-01  6.927474427597166e-18

 1.131014770302846e-17 -9.986204891133568e-21 -1.020244816342607e+00
-9.986204891133568e-21  1.231329304253018e-17  4.280816891633805e-01
-1.020244816342607e+00  4.280816891633805e-01  6.895316721847495e-18

 1.129334986983980e-17 -1.129672382456866e-20 -1.020535311686429e+00
-1.129672382456866e-20  1.233321483169423e-17  4.278348771202824e-01
-1.020535311686429e+00  4.278348771202824e-01  6.907998609765468e-18

 1.126924657356065e-17 -1.269677814674030e-20 -1.020550850006108e+00
-1.269677814674030e-20  1.234591645930103e-17  4.278560352444387e-01
-1.020550850006108e+00  4.278560352444387e-01  6.899583629495749e-18

 1.123717018099980e-17 -1.407478736478243e-20 -1.020258453796233e+00
-1.407478736478243e-20  1.234222059590971e-17  4.281536526377436e-01
-1.020258453796233e+00  4.281536526377436e-01  6.867834982310795e-18

 1.121891790546601e-17 -1.549703644211061e-20 -1.020544353817615e+00
-1.549703644211061e-20  1.236553091646730e-17  4.278324176730541e-01
-1.020544353817615e+00  4.278324176730541e-01  6.880646105300753e-18

 1.119258172108507e-17 -1.702781837188808e-20 -1.020517608329189e+00
-1.702781837188808e-20  1.237537748232007e-17  4.277976111215515e-01
-1.020517608329189e+00  4.277976111215515e-01  6.869721669588194e-18

 1.115876104673197e-17 -1.853812946835335e-20 -1.020209147180930e+00
-1.853812946835335e-20  1.238538589906739e-17  4.280362825133852e-01
-1.020209147180930e+00  4.280362825133852e-01  6.837146462242420e-18

 1.113929372694721e-17 -2.011403480399192e-20 -1.020501940486742e+00
-2.011403480399192e-20  1.240833828694624e-17  4.276901168488130e-01
-1.020501940486742e+00  4.276901168488130e-01  6.850035539915209e-18

 1.111129802306313e-17 -2.178584097419660e-20 -1.020476083178933e+00
-2.178584097419660e-20  1.242556923667263e-17  4.277044109161379e-01
-1.020476083178933e+00  4.277044109161379e-01  6.837802327711871e-18

 1.107309394835800e-17 -2.343498760969187e-20 -1.020060308969942e+00
-2.343498760969187e-20  1.242282395880053e-17  4.281086728906475e-01
-1.020060308969942e+00  4.281086728906475e-01  6.795282683835653e-18

 1.105290510782859e-17 -2.512895008551521e-20 -1.020396975192895e+00
-2.512895008551521e-20  1.245511509060875e-17  4.277213512892219e-01
-1.020396975192895e+00  4.277213512892219e-01  6.809983797216738e-18

 1.103435036302319e-17 -2.696810452239255e-20 -1.020822160798899e+00
-2.696810452239255e-20  1.248742482872077e-17  4.273298216882282e-01
-1.020822160798899e+00  4.273298216882282e-01  6.830218435397048e-18

 1.099453315348009e-17 -2.883816670213418e-20 -1.020408105326587e+00
-2.883816670213418e-20  1.248570803579587e-17  4.279393239370395e-01
-1.020408105326587e+00  4.279393239370395e-01  6.784757124373304e-18

 1.095367045600890e-17 -3.064137767636969e-20 -1.020003629023695e+00
-3.064137767636969e-20  1.247786701170832e-17  4.284653129251336e-01
-1.020003629023695e+00  4.284653129251336e-01  6.740701678972426e-18

 1.093272687448441e-17 -3.256458732114463e-20 -1.020392261259891e+00
-3.256458732114463e-20  1.251647686866890e-17  4.279229699512820e-01
-1.020392261259891e+00  4.279229699512820e-01  6.759685047502965e-18

 1.091240338366805e-17 -3.467471749901998e-20 -1.020801957898500e+00
-3.467471749901998e-20  1.256256470861385e-17  4.272879190312987e-01
-1.020801957898500e+00  4.272879190312987e-01  6.780915306658098e-18

 1.086940503282471e-17 -3.679453755348328e-20 -1.020368611444591e+00
-3.679453755348328e-20  1.256793462575830e-17  4.276601119310654e-01
-1.020368611444591e+00  4.276601119310654e-01  6.736112296610393e-18

 1.082662354772796e-17 -3.884286545874251e-20 -1.020011733996657e+00
-3.884286545874251e-20  1.257639219907368e-17  4.280389844953837e-01
-1.020011733996657e+00  4.280389844953837e-01  6.695832763702169e-18

 1.080278635423077e-17 -4.104284563561128e-20 -1.020415275560067e+00
-4.104284563561128e-20  1.261379878960809e-17  4.276173325338549e-01
-1.020415275560067e+00  4.276173325338549e-01  6.713306270521559e-18

 1.076954369573628e-17 -4.341972898331030e-20 -1.020440326874818e+00
-4.341972898331030e-20  1.264202647129722e-17  4.275743346773629e-01
-1.020440326874818e+00  4.275743346773629e-01  6.701278525047551e-18

 1.072730324753765e-17 -4.580571321859641e-20 -1.020136802762601e+00
-4.580571321859641e-20  1.265419325594777e-17  4.279010810551284e-01
-1.020136802762601e+00  4.279010810551284e-01  6.663229965758376e-18

 1.069674130371511e-17 -4.815065716896827e-20 -1.020426925575992e+00
-4.815065716896827e-20  1.268731688923875e-17  4.276530212285224e-01
-1.020426925575992e+00  4.276530212285224e-01  6.669901459886449e-18

 1.066183170780830e-17 -5.081588091677958e-20 -1.020442291401790e+00
-5.081588091677958e-20  1.271824015044654e-17  4.276727151200732e-01
-1.020442291401790e+00  4.276727151200732e-01  6.655295328362516e-18

 1.062682184279149e-17 -5.395437615942233e-20 -1.020148644031975e+00
-5.395437615942233e-20  1.273042500242650e-17  4.279699308584528e-01
-1.020148644031975e+00  4.279699308584528e-01  6.617069672271174e-18

 1.058089877664331e-17 -5.586804403758962e-20 -1.020433652888559e+00
-5.586804403758962e-20  1.277615737405882e-17  4.276477676322228e-01
-1.020433652888559e+00  4.276477676322228e-01  6.623220652772295e-18

 1.057360868937318e-17 -6.048862631870760e-20 -1.020407086402778e+00
-6.048862631870760e-20  1.280716454683114e-17  4.276107876934953e-01
-1.020407086402778e+00  4.276107876934953e-01  6.605499279163906e-18

 1.052048234916390e-17 -6.309603887080941e-20 -1.020098151011603e+00
-6.309603887080941e-20  1.282689041234103e-17  4.278481120909805e-01
-1.020098151011603e+00  4.278481120909805e-01  6.565847121822873e-18

 1.042544178341626e-17 -6.286086823282262e-20 -1.020389272550700e+00
-6.286086823282262e-20  1.287985280599510e-17  4.275019986047562e-01
-1.020389272550700e+00  4.275019986047562e-01  6.571327966908945e-18

 1.040528946241098e-17 -6.726321242551235e-20 -1.020362500510378e+00
-6.726321242551235e-20  1.290535831853863e-17  4.275153118187846e-01
-1.020362500510378e+00  4.275153118187846e-01  6.551499547015036e-18

 1.068792593925780e-17 -8.812834109125207e-20 -1.019947196987296e+00
-8.812834109125207e-20  1.293152922965527e-17  4.279169077994228e-01
-1.019947196987296e+00  4.279169077994228e-01  6.501236308708761e-18

 1.087064725286240e-17 -1.027773954611836e-19 -1.020283209864739e+00
-1.027773954611836e-19  1.298294223597052e-17  4.275282227406526e-01
-1.020283209864739e+00  4.275282227406526e-01  6.507840531142968e-18

 9.827303605469993e-18 -5.391225218037954e-20 -1.020706348454731e+00
-5.391225218037954e-20  1.303140212220820e-17  4.271369157337657e-01
-1.020706348454731e+00  4.271369157337657e-01  6.519591173629756e-18

 9.647025764145044e-18 -5.133523919166858e-20 -1.020291860568475e+00
-5.133523919166858e-20  1.305873507551220e-17  4.277448168688746e-01
-1.020291860568475e+00  4.277448168688746e-01  6.465481650277641e-18

 1.201554688654457e-17 -1.793723632878397e-19 -1.019888265110031e+00
-1.793723632878397e-19  1.308202007564675e-17  4.282679794943720e-01
-1.019888265110031e+00  4.282679794943720e-01  6.412567022750404e-18

-6.178890157794552e-18  7.389788308366482e-19 -1.020275794408061e+00
 7.389788308366482e-19  1.310022687778417e-17  4.277251608587653e-01
-1.020275794408061e+00  4.277251608587653e-01  6.422226436386440e-18

-4.597831115859615e-17  2.734947789075540e-18 -1.020683856346570e+00
 2.734947789075540e-18  1.307046010552814e-17  4.270903365665917e-01
-1.020683856346570e+00  4.270903365665917e-01  6.433780244368735e-18

-3.902450087825091e-17  2.359882136091109e-18 -1.020251458397374e+00
 2.359882136091109e-18  1.312130675230631e-17  4.274607326251688e-01
-1.020251458397374e+00  4.274607326251688e-01  6.379140890237960e-18

-8.489044342717476e-17  4.618032408254482e-18 -1.019895355742221e+00
 4.618032408254482e-18  1.304700123203159e-17  4.278395772307006e-01
-1.019895355742221e+00  4.278395772307006e-01  6.328659546036388e-18

 7.681306099035929e-17 -3.410689428848904e-18 -1.020297692016373e+00
-3.410689428848904e-18  1.351396936328380e-17  4.274235096898271e-01
-1.020297692016373e+00  4.274235096898271e-01  6.335413704895072e-18

 4.191097558903148e-18  1.685583721752004e-19 -1.020296127732677e+00
 1.685583721752004e-19  1.339529135865292e-17  4.274077678507681e-01
-1.020296127732677e+00  4.274077678507681e-01  6.310411943507099e-18

 1.420975600577748e-17 -3.311689055176019e-19 -1.019879746181664e+00
-3.311689055176019e-19  1.345698962921882e-17  4.278025233947674e-01
-1.019879746181664e+00  4.278025233947674e-01  6.252780146250257e-18

 7.967684053955788e-18 -3.472970393543181e-20 -1.020214645804006e+00
-3.472970393543181e-20  1.351679813301006e-17  4.274102581167084e-01
-1.020214645804006e+00  4.274102581167084e-01  6.251745822707171e-18

 9.726857122943146e-18 -1.277451533058218e-19 -1.020636926162652e+00
-1.277451533058218e-19  1.360218456967296e-17  4.270168767600004e-01
-1.020636926162652e+00  4.270168767600004e-01  6.255593809136999e-18

 9.509619310341292e-18 -1.264622232562521e-19 -1.020220895922916e+00
-1.264622232562521e-19  1.364042607355072e-17  4.276243504674347e-01
-1.020220895922916e+00  4.276243504674347e-01  6.193211092133734e-18

 9.206758427071589e-18 -1.213868077947531e-19 -1.019815366752426e+00
-1.213868077947531e-19  1.368889900537459e-17  4.281471640743787e-01
-1.019815366752426e+00  4.281471640743787e-01  6.131709359596472e-18

 9.528706127092764e-18 -1.453206087363783e-19 -1.020202445059712e+00
-1.453206087363783e-19  1.377671951450421e-17  4.276021077107325e-01
-1.020202445059712e+00  4.276021077107325e-01  6.132571400433109e-18

 9.523395474511978e-18 -1.541427216092824e-19 -1.020610038655183e+00
-1.541427216092824e-19  1.386993928215023e-17  4.269650620933230e-01
-1.020610038655183e+00  4.269650620933230e-01  6.134958429997786e-18

 9.366655036275664e-18 -1.572192063559981e-19 -1.020175133256780e+00
-1.572192063559981e-19  1.393254615651308e-17  4.273345588290983e-01
-1.020175133256780e+00  4.273345588290983e-01  6.070655883240439e-18

 9.266601426534052e-18 -1.631521159512039e-19 -1.019817096150352e+00
-1.631521159512039e-19  1.399306901866493e-17  4.277101887343884e-01
-1.019817096150352e+00  4.277101887343884e-01  6.010176365038164e-18

 9.218845606437114e-18 -1.710859401730466e-19 -1.020218968338008e+00
-1.710859401730466e-19  1.409714204037553e-17  4.272858306578777e-01
-1.020218968338008e+00  4.272858306578777e-01  6.006647134952453e-18

 9.152303481808591e-18 -1.790555606671797e-19 -1.020242090252386e+00
-1.790555606671797e-19  1.418879653713641e-17  4.272403869168982e-01
-1.020242090252386e+00  4.272403869168982e-01  5.972797130186028e-18

 9.061739890014566e-18 -1.866689423376024e-19 -1.019936832888295e+00
-1.866689423376024e-19  1.425845457686415e-17  4.275643186594644e-01
-1.019936832888295e+00  4.275643186594644e-01  5.912106352433706e-18

 8.993724536148158e-18 -1.951228483195786e-19 -1.020225314670420e+00
-1.951228483195786e-19  1.436325809358593e-17  4.273131249174821e-01
-1.020225314670420e+00  4.273131249174821e-01  5.895268686887756e-18

 8.913690315718276e-18 -2.038670395101551e-19 -1.020238917249384e+00
-2.038670395101551e-19  1.445673175860438e-17  4.273295172506385e-01
-1.020238917249384e+00  4.273295172506385e-01  5.856232733825764e-18

 8.823672232673111e-18 -2.129433844506995e-19 -1.019943859587393e+00
-2.129433844506995e-19  1.454778850505940e-17  4.276231693020670e-01
-1.019943859587393e+00  4.276231693020670e-01  5.792640974991450e-18

 8.740891608276983e-18 -2.222911050330678e-19 -1.020227292637931e+00
-2.222911050330678e-19  1.466487076499820e-17  4.272980546145498e-01
-1.020227292637931e+00  4.272980546145498e-01  5.772393592846441e-18

 8.646816776388319e-18 -2.321020539133762e-19 -1.020198165580864e+00
-2.321020539133762e-19  1.478188486681858e-17  4.272587357134166e-01
-1.020198165580864e+00  4.272587357134166e-01  5.727157414349740e-18

 8.545794413520153e-18 -2.424254210809623e-19 -1.019888018203960e+00
-2.424254210809623e-19  1.488059234056161e-17  4.274918462345684e-01
-1.019888018203960e+00  4.274918462345684e-01  5.658998475090356e-18

 8.455985523041446e-18 -2.532755822462372e-19 -1.020178516923113e+00
-2.532755822462372e-19  1.501507568361764e-17  4.271411281099330e-01
-1.020178516923113e+00  4.271411281099330e-01  5.634865442241573e-18

 8.355458682211273e-18 -2.647045502871708e-19 -1.020149250937166e+00
-2.647045502871708e-19  1.513965889493573e-17  4.271523919765023e-01
-1.020149250937166e+00  4.271523919765023e-01  5.584058728564729e-18

 8.241544053918893e-18 -2.765417754804519e-19 -1.019731140171284e+00
-2.765417754804519e-19  1.524793116196825e-17  4.275528666784473e-01
-1.019731140171284e+00  4.275528666784473e-01  5.501533404271943e-18

 8.142169530873216e-18 -2.890113487874865e-19 -1.020064632392530e+00
-2.890113487874865e-19  1.540573898399040e-17  4.271635999949698e-01
-1.020064632392530e+00  4.271635999949698e-01  5.474579959718044e-18

 8.040769740191211e-18 -3.022644322981443e-19 -1.020468495099887e+00
-3.022644322981443e-19  1.555934209603172e-17  4.267838741754688e-01
-1.020468495099887e+00  4.267838741754688e-01  5.450168590945851e-18

 7.912823083381791e-18 -3.159884943647222e-19 -1.019971485972465e+00
-3.159884943647222e-19  1.568678330402196e-17  4.274337083360238e-01
-1.019971485972465e+00  4.274337083360238e-01  5.353846440732381e-18

 7.783465076509687e-18 -3.303096690959417e-19 -1.019644564711542e+00
-3.303096690959417e-19  1.581668859572678e-17  4.278156284772064e-01
-1.019644564711542e+00  4.278156284772064e-01  5.269388435879723e-18

 7.672605265909657e-18 -3.457436488636031e-19 -1.020303260092617e+00
-3.457436488636031e-19  1.601433469470416e-17  4.270225147200394e-01
-1.020303260092617e+00  4.270225147200394e-01  5.259868774474409e-18

 7.564845471346401e-18 -3.614811188725517e-19 -1.020482745213260e+00
-3.614811188725517e-19  1.619544857918083e-17  4.267472704935573e-01
-1.020482745213260e+00  4.267472704935573e-01  5.211436890103091e-18

 7.402586938357809e-18 -3.785113693700403e-19 -1.019662354056854e+00
-3.785113693700403e-19  1.633826627987393e-17  4.275669486398538e-01
-1.019662354056854e+00  4.275669486398538e-01  5.083558804678209e-18

 7.262001887960807e-18 -3.964807613210809e-19 -1.019686186416252e+00
-3.964807613210809e-19  1.652389644629939e-17  4.274464461797953e-01
-1.019686186416252e+00  4.274464461797953e-01  5.018320970544546e-18

 7.150280227097663e-18 -4.148014313357169e-19 -1.020436347627834e+00
-4.148014313357169e-19  1.675418202379711e-17  4.265495540305794e-01
-1.020436347627834e+00  4.265495540305794e-01  5.006067925767140e-18

 6.987071582297179e-18 -4.348796644485912e-19 -1.020070673554029e+00
-4.348796644485912e-19  1.694123979018490e-17  4.269309984685391e-01
-1.020070673554029e+00  4.269309984685391e-01  4.904183052666435e-18

 6.816938315503553e-18 -4.554984170651744e-19 -1.019422098163017e+00
-4.554984170651744e-19  1.712032186243251e-17  4.276623636969583e-01
-1.019422098163017e+00  4.276623636969583e-01  4.776892244101766e-18

 6.670267110597330e-18 -4.774911752039262e-19 -1.019930433012959e+00
-4.774911752039262e-19  1.736264250601283e-17  4.270946674337115e-01
-1.019930433012959e+00  4.270946674337115e-01  4.735821982966062e-18

 6.502694872407014e-18 -5.081354119788012e-19 -1.020324910906723e+00
-5.081354119788012e-19  1.759329471143330e-17  4.266022481631195e-01
-1.020324910906723e+00  4.266022481631195e-01  4.686312446077817e-18

 6.308752146471822e-18 -5.225936728341874e-19 -1.020011767598973e+00
-5.225936728341874e-19  1.780344948026500e-17  4.269947717216495e-01
-1.020011767598973e+00  4.269947717216495e-01  4.577448293355687e-18

 6.151000338207741e-18 -5.512644938523864e-19 -1.019853236193292e+00
-5.512644938523864e-19  1.808608708958192e-17  4.273309926201556e-01
-1.019853236193292e+00  4.273309926201556e-01  4.466019596081890e-18

 5.961055891754616e-18 -5.786543656299470e-19 -1.019704463318736e+00
-5.786543656299470e-19  1.834650908246549e-17  4.274747750482180e-01
-1.019704463318736e+00  4.274747750482180e-01  4.360418972350701e-18

 5.768855077158491e-18 -6.077388454725468e-19 -1.019751116541013e+00
-6.077388454725468e-19  1.864162737740536e-17  4.271628715547244e-01
-1.019751116541013e+00  4.271628715547244e-01  4.268231454830316e-18

 5.576685520033697e-18 -6.386672448480627e-19 -1.020122086033666e+00
-6.386672448480627e-19  1.895663554271416e-17  4.264850137864570e-01
-1.020122086033666e+00  4.264850137864570e-01  4.196868198350372e-18

 5.366776659289166e-18 -6.713312733404946e-19 -1.020132792085005e+00
-6.713312733404946e-19  1.927143792487731e-17  4.264160118297697e-01
-1.020132792085005e+00  4.264160118297697e-01  4.090893183277713e-18

 5.137314722524252e-18 -7.057497362103153e-19 -1.019724460962762e+00
-7.057497362103153e-19  1.956116366584713e-17  4.270311955210264e-01
-1.019724460962762e+00  4.270311955210264e-01  3.945368437825083e-18

 4.904227141519025e-18 -7.422576954040149e-19 -1.019550282604512e+00
-7.422576954040149e-19  1.989234637235798e-17  4.273866596875479e-01
-1.019550282604512e+00  4.273866596875479e-01  3.812658731056185e-18

 4.673626312355587e-18 -7.812110979690694e-19 -1.019868245284844e+00
-7.812110979690694e-19  2.026806301775966e-17  4.270370811003755e-01
-1.019868245284844e+00  4.270370811003755e-01  3.714207815425069e-18

 4.428646016663598e-18 -8.226797976881714e-19 -1.020023234415679e+00
-8.226797976881714e-19  2.065125891929497e-17  4.267302705069185e-01
-1.020023234415679e+00  4.267302705069185e-01  3.599046978755126e-18

 4.165406538381823e-18 -8.666849164705903e-19 -1.019888164140316e+00
-8.666849164705903e-19  2.105078657732821e-17  4.267553452076815e-01
-1.019888164140316e+00  4.267553452076815e-01  3.455634707416052e-18

 3.895832065793165e-18 -9.135039533511182e-19 -1.019971900917236e+00
-9.135039533511182e-19  2.146056548644957e-17  4.266755905408761e-01
-1.019971900917236e+00  4.266755905408761e-01  3.321753454003158e-18

 3.609468912178151e-18 -9.633093743499402e-19 -1.019880479994367e+00
-9.633093743499402e-19  2.189180756001845e-17  4.268363976880452e-01
-1.019880479994367e+00  4.268363976880452e-01  3.167399576882570e-18

 3.303253047901731e-18 -1.016329056826152e-18 -1.019513193372094e+00
-1.016329056826152e-18  2.233531743166568e-17  4.271887341860764e-01
-1.019513193372094e+00  4.271887341860764e-01  2.985851329046009e-18

 2.999223390154309e-18 -1.073105094115569e-18 -1.019786807015993e+00
-1.073105094115569e-18  2.284344426194035e-17  4.267652696126027e-01
-1.019786807015993e+00  4.267652696126027e-01  2.847209362943164e-18

 2.679475562340380e-18 -1.133788867709666e-18 -1.020020722174389e+00
-1.133788867709666e-18  2.336484918050261e-17  4.263750621353090e-01
-1.020020722174389e+00  4.263750621353090e-01  2.697809544605659e-18

 2.323556063999782e-18 -1.198290982871346e-18 -1.019429950011464e+00
-1.198290982871346e-18  2.388467299523542e-17  4.268616683216792e-01
-1.019429950011464e+00  4.268616683216792e-01  2.476416848337981e-18

 1.968749825858723e-18 -1.267348704684889e-18 -1.019555379163551e+00
-1.267348704684889e-18  2.445632091421417e-17  4.266554288950554e-01
-1.019555379163551e+00  4.266554288950554e-01  2.300191152133507e-18

 1.608407517696899e-18 -1.341408129245396e-18 -1.020173706689760e+00
-1.341408129245396e-18  2.507627223189416e-17  4.260633610530303e-01
-1.020173706689760e+00  4.260633610530303e-01  2.150872752092657e-18

 1.199610427135492e-18 -1.420680070813200e-18 -1.019601675530782e+00
-1.420680070813200e-18  2.568995617475285e-17  4.267808344092873e-01
-1.019601675530782e+00  4.267808344092873e-01  1.899272123537952e-18

 7.721662451202134e-19 -1.504560775840754e-18 -1.019074143973800e+00
-1.504560775840754e-18  2.633229978924051e-17  4.273816393780993e-01
-1.019074143973800e+00  4.273816393780993e-01  1.641549569069008e-18

 3.577822460277110e-19 -1.595828096775907e-18 -1.019916085568208e+00
-1.595828096775907e-18  2.708325271578489e-17  4.263534576426862e-01
-1.019916085568208e+00  4.263534576426862e-01  1.479346513016601e-18

-9.406758963150703e-20 -1.693700780603873e-18 -1.020157807649602e+00
-1.693700780603873e-18  2.785358579999599e-17  4.259516259077745e-01
-1.020157807649602e+00  4.259516259077745e-01  1.259272023340788e-18

-6.014566853065685e-19 -1.798134266465770e-18 -1.019137715685334e+00
-1.798134266465770e-18  2.860367843778322e-17  4.269315368214055e-01
-1.019137715685334e+00  4.269315368214055e-01  9.289248045246513e-19

-1.104664607950136e-18 -1.910934920186663e-18 -1.019317389075897e+00
-1.910934920186663e-18  2.945974441731598e-17  4.266506470549012e-01
-1.019317389075897e+00  4.266506470549012e-01  6.767394527869812e-19

-1.620297635819345e-18 -2.032804230914971e-18 -1.020101582036062e+00
-2.032804230914971e-18  3.038840874781454e-17  4.257379044040422e-01
-1.020101582036062e+00  4.257379044040422e-01  4.559171654985912e-19

-2.198030919350258e-18 -2.163760020842046e-18 -1.019575104098007e+00
-2.163760020842046e-18  3.131905820944108e-17  4.262819727948862e-01
-1.019575104098007e+00  4.262819727948862e-01  1.175891054865270e-19

-2.804501108041554e-18 -2.303823243433647e-18 -1.019155391148771e+00
-2.303823243433647e-18  3.230575962822141e-17  4.268363010531345e-01
-1.019155391148771e+00  4.268363010531345e-01 -2.300718406187715e-19

-3.424675850382555e-18 -2.456290169702054e-18 -1.019525230037590e+00
-2.456290169702054e-18  3.339516297667292e-17  4.264050369602047e-01
-1.019525230037590e+00  4.264050369602047e-01 -5.338698800058170e-19

-4.087001889565022e-18 -2.620644944086386e-18 -1.019639871363388e+00
-2.620644944086386e-18  3.454504001806918e-17  4.261162089084724e-01
-1.019639871363388e+00  4.261162089084724e-01 -8.752284380687684e-19

-4.794208652137272e-18 -2.799309450572205e-18 -1.019499267487058e+00
-2.799309450572205e-18  3.576042683011457e-17  4.260939289408654e-01
-1.019499267487058e+00  4.260939289408654e-01 -1.257174086333462e-18

-5.540218642053961e-18 -2.992228079036021e-18 -1.019465521273982e+00
-2.992228079036021e-18  3.705511391535256e-17  4.260800696206601e-01
-1.019465521273982e+00  4.260800696206601e-01 -1.654158475926087e-18

-6.333525359613129e-18 -3.201294685033771e-18 -1.019316830048374e+00
-3.201294685033771e-18  3.842835689268051e-17  4.261891359254564e-01
-1.019316830048374e+00  4.261891359254564e-01 -2.084109862615917e-18

-7.173029764681183e-18 -3.428395597414792e-18 -1.019229613319595e+00
-3.428395597414792e-18  3.990403031267046e-17  4.261679978512320e-01
-1.019229613319595e+00  4.261679978512320e-01 -2.534808491773861e-18

-8.051668676931646e-18 -3.675667021449707e-18 -1.019633225323134e+00
-3.675667021449707e-18  4.149511608065193e-17  4.256763207852481e-01
-1.019633225323134e+00  4.256763207852481e-01 -2.976055858917602e-18

-8.998161921760907e-18 -3.944160943738951e-18 -1.019542186717969e+00
-3.944160943738951e-18  4.316957315136217e-17  4.258039558596660e-01
-1.019542186717969e+00  4.258039558596660e-01 -3.486035356535951e-18

-1.002467766250138e-17 -4.236029027298997e-18 -1.018632714414904e+00
-4.236029027298997e-18  4.493932629840025e-17  4.266602923966708e-01
-1.018632714414904e+00  4.266602923966708e-01 -4.090037708209278e-18

-1.108321573162865e-17 -4.556389412276982e-18 -1.019005293877557e+00
-4.556389412276982e-18  4.689415280481266e-17  4.259552908961165e-01
-1.019005293877557e+00  4.259552908961165e-01 -4.628821731186793e-18

-1.219371444148693e-17 -4.907255616432540e-18 -1.020086464074746e+00
-4.907255616432540e-18  4.902129424351709e-17  4.245865761206949e-01
-1.020086464074746e+00  4.245865761206949e-01 -5.151992198236799e-18

-1.342918073838599e-17 -5.287783818417471e-18 -1.019208888280904e+00
-5.287783818417471e-18  5.120987668133290e-17  4.255360871490195e-01
-1.019208888280904e+00  4.255360871490195e-01 -5.869328217150300e-18

-1.474941930370478e-17 -5.704143507707786e-18 -1.018208669585897e+00
-5.704143507707786e-18  5.354293808522236e-17  4.266542737904315e-01
-1.018208669585897e+00  4.266542737904315e-01 -6.641321105414162e-18

-1.610817981806109e-17 -6.164678193514222e-18 -1.019177261707030e+00
-6.164678193514222e-18  5.617083607963658e-17  4.254817691958485e-01
-1.019177261707030e+00  4.254817691958485e-01 -7.308670916899450e-18

-1.757386955756227e-17 -6.670429153849759e-18 -1.019704856494676e+00
-6.670429153849759e-18  5.896639564479406e-17  4.246693525968919e-01
-1.019704856494676e+00  4.246693525968919e-01 -8.061722329000558e-18

-1.918075236123533e-17 -7.223895059807252e-18 -1.018780308758581e+00
-7.223895059807252e-18  6.191577497465615e-17  4.255192611814136e-01
-1.018780308758581e+00  4.255192611814136e-01 -8.984980571640604e-18

-2.088458697585762e-17 -7.835002896594620e-18 -1.018510462187961e+00
-7.835002896594620e-18  6.513372339812261e-17  4.257209629635746e-01
-1.018510462187961e+00  4.257209629635746e-01 -9.921057363054644e-18

-2.269049285937985e-17 -8.511958889213051e-18 -1.019080730460461e+00
-8.511958889213051e-18  6.864639454690556e-17  4.249091401779688e-01
-1.019080730460461e+00  4.249091401779688e-01 -1.086013378747003e-17

-2.464756972013238e-17 -9.259234643838181e-18 -1.019004684987536e+00
-9.259234643838181e-18  7.242432488327043e-17  4.247405388042400e-01
-1.019004684987536e+00  4.247405388042400e-01 -1.192372653998937e-17

-2.676106168063565e-17 -1.008569999555971e-17 -1.018574884566690e+00
-1.008569999555971e-17  7.651244386758359e-17  4.250335687895992e-01
-1.018574884566690e+00  4.250335687895992e-01 -1.309770458673631e-17

-2.902401653308535e-17 -1.100391462911537e-17 -1.018595790026114e+00
-1.100391462911537e-17  8.095633271113171e-17  4.248699791329285e-01
-1.018595790026114e+00  4.248699791329285e-01 -1.432766727206251e-17

-3.146265672143395e-17 -1.202513600563869e-17 -1.018632339661086e+00
-1.202513600563869e-17  8.579458244127312e-17  4.246118180507662e-01
-1.018632339661086e+00  4.246118180507662e-01 -1.565528749313889e-17

-3.409989317183168e-17 -1.316171811001594e-17 -1.018452813967493e+00
-1.316171811001594e-17  9.104867951188048e-17  4.245483705329802e-01
-1.018452813967493e+00  4.245483705329802e-01 -1.710864942537005e-17

-3.694431117076448e-17 -1.443179632407079e-17 -1.018462511403864e+00
-1.443179632407079e-17  9.679090780768029e-17  4.242591474652320e-01
-1.018462511403864e+00  4.242591474652320e-01 -1.866859504758065e-17

-4.002190511775165e-17 -1.585116501531998e-17 -1.018473837670964e+00
-1.585116501531998e-17  1.030601523547697e-16  4.240339347456604e-01
-1.018473837670964e+00  4.240339347456604e-01 -2.036258789088716e-17

-4.336625833607586e-17 -1.744013920740796e-17 -1.018094956099466e+00
-1.744013920740796e-17  1.098977007757892e-16  4.241960438329960e-01
-1.018094956099466e+00  4.241960438329960e-01 -2.223461332152802e-17

-4.698796845182811e-17 -1.922638351411453e-17 -1.017912858575519e+00
-1.922638351411453e-17  1.174039892978177e-16  4.240459275068909e-01
-1.017912858575519e+00  4.240459275068909e-01 -2.425514203745738e-17

-5.090874705640209e-17 -2.123988254606006e-17 -1.018212001183163e+00
-2.123988254606006e-17  1.256644208023342e-16  4.233276549041702e-01
-1.018212001183163e+00  4.233276549041702e-01 -2.642105565587374e-17

-5.518586620814728e-17 -2.350835133787135e-17 -1.018093912751402e+00
-2.350835133787135e-17  1.347246493527746e-16  4.230911052196723e-01
-1.018093912751402e+00  4.230911052196723e-01 -2.882362929484224e-17

-5.985686840024753e-17 -2.607012776326454e-17 -1.017544516980238e+00
-2.607012776326454e-17  1.446937971573504e-16  4.233423605885653e-01
-1.017544516980238e+00  4.233423605885653e-01 -3.148796389284230e-17

-6.493673765736660e-17 -2.897813514999311e-17 -1.017519702751251e+00
-2.897813514999311e-17  1.557220959389264e-16  4.229817567493973e-01
-1.017519702751251e+00  4.229817567493973e-01 -3.436685808386710e-17

-7.047009672361787e-17 -3.228644696864418e-17 -1.018092158385450e+00
-3.228644696864418e-17  1.679291906174314e-16  4.220799137447619e-01
-1.018092158385450e+00  4.220799137447619e-01 -3.748688959828524e-17

-7.654976140276369e-17 -3.604826261740160e-17 -1.017827624646779e+00
-3.604826261740160e-17  1.814209077262451e-16  4.222133277390114e-01
-1.017827624646779e+00  4.222133277390114e-01 -4.099512053903471e-17

-8.326653795868415e-17 -4.033519654894764e-17 -1.015463588859630e+00
-4.033519654894764e-17  1.963496726062924e-16  4.240825881637898e-01
-1.015463588859630e+00  4.240825881637898e-01 -4.502397584044617e-17

-9.056588578025187e-17 -4.528800823244054e-17 -1.014997363891973e+00
-4.528800823244054e-17  2.130687183145340e-16  4.228821388564830e-01
-1.014997363891973e+00  4.228821388564830e-01 -4.930802455982582e-17

-9.845251664840007e-17 -5.102715741199364e-17 -1.019060786726503e+00
-5.102715741199364e-17  2.318497322686983e-16  4.170886626095760e-01
-1.019060786726503e+00  4.170886626095760e-01 -5.371239449054195e-17

-1.072853407302101e-16 -5.754327993469580e-17 -1.019105854525632e+00
-5.754327993469580e-17  2.526813114376712e-16  4.171446323972468e-01
-1.019105854525632e+00  4.171446323972468e-01 -5.897924605826909e-17

-1.172048267577906e-16 -6.496780894695590e-17 -1.013753200431739e+00
-6.496780894695590e-17  2.758693449125041e-16  4.238143032648294e-01
-1.013753200431739e+00  4.238143032648294e-01 -6.528560080317021e-17

-1.279590550427870e-16 -7.369812145864480e-17 -1.013383009736285e+00
-7.369812145864480e-17  3.021042505162340e-16  4.241819699880257e-01
-1.013383009736285e+00  4.241819699880257e-01 -7.188636028485471e-17

-1.397009452107883e-16 -8.399232887482973e-17 -1.015940641507380e+00
-8.399232887482973e-17  3.317776339748210e-16  4.191305152070818e-01
-1.015940641507380e+00  4.191305152070818e-01 -7.903180674160384e-17

-1.527391696336752e-16 -9.600335506803241e-17 -1.016656853499966e+00
-9.600335506803241e-17  3.652096261142151e-16  4.154220242610088e-01
-1.016656853499966e+00  4.154220242610088e-01 -8.723540328586229e-17

-1.672001295055273e-16 -1.099972713583480e-16 -1.017971865815401e+00
-1.099972713583480e-16  4.030817568516063e-16  4.133274087013865e-01
-1.017971865815401e+00  4.133274087013865e-01 -9.648551134841787e-17

-1.834811154309997e-16 -1.262192566422025e-16 -1.014308160764657e+00
-1.262192566422025e-16  4.460585300478233e-16  4.181802346304466e-01
-1.014308160764657e+00  4.181802346304466e-01 -1.073934991556381e-16

-2.015863120986857e-16 -1.453767556184730e-16 -1.008155705987553e+00
-1.453767556184730e-16  4.950060323505361e-16  4.241457160104183e-01
-1.008155705987553e+00  4.241457160104183e-01 -1.199280696319775e-16

-2.210899782703350e-16 -1.686152891709869e-16 -1.011887588089205e+00
-1.686152891709869e-16  5.509326489901294e-16  4.168681213388474e-01
-1.011887588089205e+00  4.168681213388474e-01 -1.333307763631642e-16

-2.425648897302474e-16 -1.963770403149048e-16 -1.018029091802045e+00
-1.963770403149048e-16  6.149522646405083e-16  4.065718329557282e-01
-1.018029091802045e+00  4.065718329557282e-01 -1.485245557948935e-16

-2.670289670439807e-16 -2.288357543510641e-16 -1.013955452784152e+00
-2.288357543510641e-16  6.887568468378478e-16  4.095244289969328e-01
-1.013955452784152e+00  4.095244289969328e-01 -1.669407873564582e-16

-2.943600620606313e-16 -2.674250298587134e-16 -1.007479886734245e+00
-2.674250298587134e-16  7.741429183591520e-16  4.167968721662076e-01
-1.007479886734245e+00  4.167968721662076e-01 -1.883973989571332e-16

-3.239703320157568e-16 -3.144204818259598e-16 -1.008292060908868e+00
-3.144204818259598e-16  8.726540350090814e-16  4.150682113332499e-01
-1.008292060908868e+00  4.150682113332499e-01 -2.125794653771225e-16

-3.561508692225020e-16 -3.716097838806011e-16 -1.011138676641657e+00
-3.716097838806011e-16  9.865344480809792e-16  4.089549452629610e-01
-1.011138676641657e+00  4.089549452629610e-01 -2.405490034184489e-16

-3.915450351742965e-16 -4.407139753364179e-16 -1.009738461705463e+00
-4.407139753364179e-16  1.119178545852672e-15  4.069134223609079e-01
-1.009738461705463e+00  4.069134223609079e-01 -2.736944146508025e-16

-4.301225311519719e-16 -5.245249494888907e-16 -1.006162777726114e+00
-5.245249494888907e-16  1.274306923916638e-15  4.077630866606207e-01
-1.006162777726114e+00  4.077630866606207e-01 -3.129065033539375e-16

-4.713330835922281e-16 -6.269026903442907e-16 -1.003789516328736e+00
-6.269026903442907e-16  1.455851071154330e-15  4.072631110657224e-01
-1.003789516328736e+00  4.072631110657224e-01 -3.591908465856926e-16

-5.143705074570824e-16 -7.524968393008491e-16 -1.003235114435228e+00
-7.524968393008491e-16  1.668387980879474e-15  4.040449845817152e-01
-1.003235114435228e+00  4.040449845817152e-01 -4.140686034966871e-16

-5.587254811852299e-16 -9.062707987498808e-16 -1.002200631565647e+00
-9.062707987498808e-16  1.918850664584341e-15  4.008803303466008e-01
-1.002200631565647e+00  4.008803303466008e-01 -4.798700042483300e-16

-6.033163359822215e-16 -1.094295010846442e-15 -1.000750030164288e+00
-1.094295010846442e-15  2.215821598711927e-15  3.989645341837880e-01
-1.000750030164288e+00  3.989645341837880e-01 -5.593544296758185e-16

-6.444853613319134e-16 -1.325238765066218e-15 -1.013480841529245e+00
-1.325238765066218e-15  2.566228053353972e-15  3.889605335865571e-01
-1.013480841529245e+00  3.889605335865571e-01 -6.546595746270804e-16

-6.865942073833151e-16 -1.601843688744389e-15 -1.012120457063274e+00
-1.601843688744389e-15  3.000737849833198e-15  4.044805115649993e-01
-1.012120457063274e+00  4.044805115649993e-01 -7.739730728666204e-16

-7.301504696373330e-16 -1.930239606867815e-15 -9.497871432685212e-01
-1.930239606867815e-15  3.548035281932058e-15  4.771490114892452e-01
-9.497871432685212e-01  4.771490114892452e-01 -9.275389112677120e-16

-7.438831938653768e-16 -2.343396789867321e-15 -8.516170264528249e-01
-2.343396789867321e-15  4.140823828620018e-15  5.379995732579942e-01
-8.516170264528249e-01  5.379995732579942e-01 -1.114426853397067e-15

-6.791712544984378e-16 -2.885024304379505e-15 -8.309325450934668e-01
-2.885024304379505e-15  4.575948911469193e-15  4.453494446046871e-01
-8.309325450934668e-01  4.453494446046871e-01 -1.321488435669686e-15

-4.812225282091781e-16 -3.523933965745726e-15 -9.804698797033473e-01
-3.523933965745726e-15  4.931706615320991e-15  2.064069665354325e-01
-9.804698797033473e-01  2.064069665354325e-01 -1.549141574862488e-15

-5.291270095825970e-16 -4.177941941764769e-15 -1.150675921362239e+00
-4.177941941764769e-15  5.599433755697513e-15  1.244791973414892e-01
-1.150675921362239e+00  1.244791973414892e-01 -1.869407311744104e-15

-7.681751836091459e-16 -4.305919325275601e-15 -1.206590478001204e+00
-4.305919325275601e-15  9.985019856655204e-15  2.971891265058352e-01
-1.206590478001204e+00  2.971891265058352e-01 -2.577153601516855e-15

-5.068450151328862e-18 -2.567390837119720e-15 -7.927651935605005e-01
-2.567390837119720e-15  1.524488631727930e-14  7.108689269761873e-01
-7.927651935605005e-01  7.108689269761873e-01 -3.199011646937422e-15

 1.328940491158740e-15 -1.531288678957070e-15 -1.085449939807323e+00
-1.531288678957070e-15  1.969537228017945e-14  6.610729349201061e-01
-1.085449939807323e+00  6.610729349201061e-01 -3.989879793556681e-15

 1.617289493446401e-15  3.729161624420184e-16 -1.049017250121992e+00
 3.729161624420184e-16  2.716045427448270e-14  5.306070843256712e-01
-1.049017250121992e+00  5.306070843256712e-01 -5.162666954433196e-15

-1.035484008906322e-15 -1.656585673500773e-17 -1.100826592825870e+00
-1.656585673500773e-17  3.171103122904247e-14  3.039683426063604e-01
-1.100826592825870e+00  3.039683426063604e-01 -5.905109118016322e-15

-5.989610643781472e-15 -1.521426571719007e-15 -1.116749852193468e+00
-1.521426571719007e-15  3.650544085133574e-14  1.275795914161336e-01
-1.116749852193468e+00  1.275795914161336e-01 -6.824140106056335e-15

-3.394954559143004e-15  6.662796470562243e-15 -6.961503069167815e-01
 6.662796470562243e-15  5.965822360842164e-14  4.140492250344698e-01
-6.961503069167815e-01  4.140492250344698e-01 -4.675035684292073e-15

 6.087514564533545e-14  1.745490857488814e-14 -8.278366626988796e-01
 1.745490857488814e-14  8.673765340509709e-14  1.798850995586721e-01
-8.278366626988796e-01  1.798850995586721e-01  2.285546545193504e-14

 2.247005974726103e-13  4.099282221699819e-14 -1.114268112869485e+00
 4.099282221699819e-14  1.243188597174267e-13  1.059421818727830e-02
-1.114268112869485e+00  1.059421818727830e-02  7.398285642943893e-14

-7.141313281512422e-13 -1.348138538516024e-13 -6.410979620539456e-01
-1.348138538516024e-13 -2.177792014945041e-13  4.796609230296840e-01
-6.410979620539456e-01  4.796609230296840e-01 -2.000276503990591e-13

 2.346961882587537e-13  1.187029688836792e-13 -7.258380890497405e-01
 1.187029688836792e-13  2.370824082103142e-13  4.951412718044659e-01
-7.258380890497405e-01  4.951412718044659e-01  9.613017509620925e-14

-6.724483190385237e-13 -1.165698803462290e-13 -3.823947238483535e-01
-1.165698803462290e-13 -1.947830140428985e-13  8.251131629345351e-01
-3.823947238483535e-01  8.251131629345351e-01 -1.638368737401282e-13

 3.757043924535283e-14  5.379182094957617e-14 -9.724540448884730e-01
 5.379182094957617e-14  1.284212503522698e-13  1.901785549955187e-01
-9.724540448884730e-01  1.901785549955187e-01  1.294934164652493e-14

-1.381153119877577e-14  5.081927917492592e-15 -7.136291951998432e-01
 5.081927917492592e-15  4.576598041137021e-14  4.888807901862691e-01
-7.136291951998432e-01  4.888807901862691e-01 -6.117480855521723e-15

-1.511063158525665e-14 -2.185154696378145e-15 -5.891281332766909e-01
-2.185154696378145e-15  2.228433458500690e-14  6.357000271460063e-01
-5.891281332766909e-01  6.357000271460063e-01 -7.078492583856186e-15

-1.193854747294344e-14 -2.656226351770753e-15 -7.581127801951385e-01
-2.656226351770753e-15  1.558492894378075e-14  4.825034598160232e-01
-7.581127801951385e-01  4.825034598160232e-01 -5.778483727992788e-15

-8.426317094260337e-15 -2.464684674033098e-15 -8.502164817278985e-01
-2.464684674033098e-15  1.014784138931091e-14  3.415029396066814e-01
-8.502164817278985e-01  3.415029396066814e-01 -4.150456797247173e-15

-5.947566080992975e-15 -2.163946239156549e-15 -1.153664566600739e+00
-2.163946239156549e-15  6.198430196008159e-15  1.731546566135149e-01
-1.153664566600739e+00  1.731546566135149e-01 -2.864595366413965e-15

-4.901828630279322e-15 -2.210467824302234e-15 -1.221865484009415e+00
-2.210467824302234e-15  3.230602509569770e-15  2.231590960462401e-01
-1.221865484009415e+00  2.231590960462401e-01 -2.327594840650371e-15

-3.824790731156725e-15 -1.808465330758081e-15 -8.504200996583561e-01
-1.808465330758081e-15 -5.107822687866948e-16  6.169505449322188e-01
-8.504200996583561e-01  6.169505449322188e-01 -1.787037624024900e-15

-2.775246839704017e-15 -1.489502460035448e-15 -9.338446868887481e-01
-1.489502460035448e-15 -3.695792756254543e-16  6.090616899489477e-01
-9.338446868887481e-01  6.090616899489477e-01 -1.267775764283961e-15

-2.205206046736994e-15 -1.308154402023533e-15 -1.268332816043555e+00
-1.308154402023533e-15  7.323617301679186e-16  1.134785264473878e-01
-1.268332816043555e+00  1.134785264473878e-01 -1.022094807562359e-15

-1.855065620594869e-15 -1.106068882282123e-15 -1.015329588907449e+00
-1.106068882282123e-15  4.427997459983442e-16  2.617785107114610e-01
-1.015329588907449e+00  2.617785107114610e-01 -8.302267097769224e-16

-1.505207497445966e-15 -9.334957629050113e-16 -9.329157385693262e-01
-9.334957629050113e-16  2.604083913297747e-16  3.531194699038470e-01
-9.329157385693262e-01  3.531194699038470e-01 -6.792313827524872e-16

-1.227028269845893e-15 -7.860039689553487e-16 -9.490424835940215e-01
-7.860039689553487e-16  1.348297695683974e-16  3.755741305185380e-01
-9.490424835940215e-01  3.755741305185380e-01 -5.583886487525984e-16

-1.002253662081207e-15 -6.596499618297935e-16 -9.458925890439368e-01
-6.596499618297935e-16  2.032029142639824e-17  4.161046627953481e-01
-9.458925890439368e-01  4.161046627953481e-01 -4.650417170472307e-16

-8.242841800713826e-16 -5.520748973683581e-16 -9.539980915138296e-01
-5.520748973683581e-16 -4.724729476866574e-17  4.371496567704362e-01
-9.539980915138296e-01  4.371496567704362e-01 -3.910257388351512e-16

-6.852495078504350e-16 -4.625759743879808e-16 -9.833879114636865e-01
-4.625759743879808e-16 -6.947233749940955e-17  4.224112208471841e-01
-9.833879114636865e-01  4.224112208471841e-01 -3.307195492551989e-16

-5.748044976295581e-16 -3.881142249038649e-16 -1.000823193269033e+00
-3.881142249038649e-16 -7.554615958622056e-17  4.092835395120951e-01
-1.000823193269033e+00  4.092835395120951e-01 -2.824974861499454e-16

-4.856506950665688e-16 -3.258410856000585e-16 -1.002797175866742e+00
-3.258410856000585e-16 -7.732978910617465e-17  4.102274394887751e-01
-1.002797175866742e+00  4.102274394887751e-01 -2.439196493288992e-16

-4.133506803257465e-16 -2.740542531084964e-16 -1.005915216919488e+00
-2.740542531084964e-16 -7.424356311919430e-17  4.114838579909262e-01
-1.005915216919488e+00  4.114838579909262e-01 -2.119509309814811e-16

-3.543333868673012e-16 -2.310369662489850e-16 -1.008484627327586e+00
-2.310369662489850e-16 -6.832284048780148e-17  4.130827208198061e-01
-1.008484627327586e+00  4.130827208198061e-01 -1.852790151073103e-16

-3.058258135464904e-16 -1.952851124259842e-16 -1.010229383408660e+00
-1.952851124259842e-16 -6.098780482385714e-17  4.147318792771837e-01
-1.010229383408660e+00  4.147318792771837e-01 -1.628730407731041e-16

-2.656646457318380e-16 -1.655741553000267e-16 -1.012568891019155e+00
-1.655741553000267e-16 -5.293521677422121e-17  4.148802594095669e-01
-1.012568891019155e+00  4.148802594095669e-01 -1.438045948023783e-16

-2.321434665745830e-16 -1.408063055920801e-16 -1.014625389678066e+00
-1.408063055920801e-16 -4.497120494537414e-17  4.148549617463128e-01
-1.014625389678066e+00  4.148549617463128e-01 -1.275075432460687e-16

-2.039530679843664e-16 -1.200705813272397e-16 -1.015158706115632e+00
-1.200705813272397e-16 -3.762482895839056e-17  4.164121546589367e-01
-1.015158706115632e+00  4.164121546589367e-01 -1.135859402089749e-16

-1.800810820060018e-16 -1.026817704516487e-16 -1.015318950967386e+00
-1.026817704516487e-16 -3.089481158014173e-17  4.183414925738397e-01
-1.015318950967386e+00  4.183414925738397e-01 -1.015657375060601e-16

-1.597276326625215e-16 -8.808482327387451e-17 -1.016276133365168e+00
-8.808482327387451e-17 -2.469499936454074e-17  4.191499193000246e-01
-1.016276133365168e+00  4.191499193000246e-01 -9.104651401279163e-17

-1.422697437510119e-16 -7.578812886097254e-17 -1.017213673263011e+00
-7.578812886097254e-17 -1.911719898506162e-17  4.196630186928490e-01
-1.017213673263011e+00  4.196630186928490e-01 -8.183986242484092e-17

-1.272118257568327e-16 -6.538771050946449e-17 -1.017490685595810e+00
-6.538771050946449e-17 -1.421109644611990e-17  4.207356778750075e-01
-1.017490685595810e+00  4.207356778750075e-01 -7.379339277583477e-17

-1.141438285833244e-16 -5.657040368109087e-17 -1.017708846321753e+00
-5.657040368109087e-17 -9.891330694636944e-18  4.217920351651208e-01
-1.017708846321753e+00  4.217920351651208e-01 -6.669624534902598e-17

-1.027356453588964e-16 -4.907824065875784e-17 -1.018282023822190e+00
-4.907824065875784e-17 -6.078145789630160e-18  4.223581171799933e-01
-1.018282023822190e+00  4.223581171799933e-01 -6.038008953174998e-17

-9.273253647541189e-17 -4.268995515687497e-17 -1.018743568245524e+00
-4.268995515687497e-17 -2.753416460764598e-18  4.229504118534146e-01
-1.018743568245524e+00  4.229504118534146e-01 -5.476732098395849e-17

-8.392734219396362e-17 -3.722498497275356e-17 -1.018741971998327e+00
-3.722498497275356e-17  1.149463294791711e-19  4.239261946864640e-01
-1.018741971998327e+00  4.239261946864640e-01 -4.979006342713214e-17

-7.613169170724371e-17 -3.254158919521721e-17 -1.018926627908447e+00
-3.254158919521721e-17  2.617570271753777e-18  4.245404661634002e-01
-1.018926627908447e+00  4.245404661634002e-01 -4.531880234617502e-17

-6.919360770925575e-17 -2.851838627005800e-17 -1.019574528878317e+00
-2.851838627005800e-17  4.808829681829884e-18  4.245500344682238e-01
-1.019574528878317e+00  4.245500344682238e-01 -4.126574891764931e-17

-6.301005346145777e-17 -2.504746643916096e-17 -1.019802332557899e+00
-2.504746643916096e-17  6.676274403586775e-18  4.250008525717009e-01
-1.019802332557899e+00  4.250008525717009e-01 -3.764268396065379e-17

-5.748059699691597e-17 -2.204476580758196e-17 -1.019605298357761e+00
-2.204476580758196e-17  8.256282739431962e-18  4.259126740942662e-01
-1.019605298357761e+00  4.259126740942662e-01 -3.440165158496266e-17

-5.250309252891658e-17 -1.944485715386694e-17 -1.019805712389805e+00
-1.944485715386694e-17  9.630479856341168e-18  4.263077395264961e-01
-1.019805712389805e+00  4.263077395264961e-01 -3.143716292155431e-17

-4.801088172328534e-17 -1.718789529294255e-17 -1.020182602604382e+00
-1.718789529294255e-17  1.081983845927592e-17  4.263491552336852e-01
-1.020182602604382e+00  4.263491552336852e-01 -2.872991783165673e-17

-4.395027771728982e-17 -1.522192941794061e-17 -1.020402585744464e+00
-1.522192941794061e-17  1.182692371757426e-17  4.265154114936031e-01
-1.020402585744464e+00  4.265154114936031e-01 -2.627578309826210e-17

-4.026707564615565e-17 -1.350504471697445e-17 -1.020569543382877e+00
-1.350504471697445e-17  1.267247333533021e-17  4.268428237064537e-01
-1.020569543382877e+00  4.268428237064537e-01 -2.404132610932040e-17

-3.692469846314649e-17 -1.200201425679295e-17 -1.020375020104775e+00
-1.200201425679295e-17  1.336794870079088e-17  4.275457456183803e-01
-1.020375020104775e+00  4.275457456183803e-01 -2.202607331859016e-17

-3.387568194361760e-17 -1.068447360652120e-17 -1.020236312728259e+00
-1.068447360652120e-17  1.395886598202160e-17  4.280040315955864e-01
-1.020236312728259e+00  4.280040315955864e-01 -2.017604308166249e-17

-3.106854369603631e-17 -9.529416016856547e-18 -1.020933389668373e+00
-9.529416016856547e-18  1.449299730346684e-17  4.274298524221902e-01
-1.020933389668373e+00  4.274298524221902e-01 -1.841440542726284e-17

-2.849879330095368e-17 -8.511518559134324e-18 -1.021440199645362e+00
-8.511518559134324e-18  1.492428269159166e-17  4.272096688637791e-01
-1.021440199645362e+00  4.272096688637791e-01 -1.680680001180262e-17

-2.616649213881037e-17 -7.611181488581599e-18 -1.020731241771136e+00
-7.611181488581599e-18  1.521796404921177e-17  4.284219875718194e-01
-1.020731241771136e+00  4.284219875718194e-01 -1.541844549086622e-17

-2.401532000298948e-17 -6.815012396782266e-18 -1.020272591036904e+00
-6.815012396782266e-18  1.546387998126336e-17  4.292486162289910e-01
-1.020272591036904e+00  4.292486162289910e-01 -1.412165682418157e-17

-2.199813646608408e-17 -6.113109430931625e-18 -1.021235232225739e+00
-6.113109430931625e-18  1.572733414560238e-17  4.282678910071464e-01
-1.021235232225739e+00  4.282678910071464e-01 -1.281478362595662e-17

-2.013910929835535e-17 -5.489979682124447e-18 -1.021917818628364e+00
-5.489979682124447e-18  1.592734371652179e-17  4.276332513939203e-01
-1.021917818628364e+00  4.276332513939203e-01 -1.162187083036725e-17

-1.845413142620073e-17 -4.933698533815073e-18 -1.021066962350321e+00
-4.933698533815073e-18  1.600787383572939e-17  4.288664165385248e-01
-1.021066962350321e+00  4.288664165385248e-01 -1.063259187422752e-17

-1.688573456327419e-17 -4.438564591481979e-18 -1.020525593807541e+00
-4.438564591481979e-18  1.606677144939618e-17  4.297470245919295e-01
-1.020525593807541e+00  4.297470245919295e-01 -9.695562299658874e-18

-1.539331047773507e-17 -3.998851462549728e-18 -1.021488464517644e+00
-3.998851462549728e-18  1.616760427627210e-17  4.288139060645945e-01
-1.021488464517644e+00  4.288139060645945e-01 -8.710455744019889e-18

-1.401509773735091e-17 -3.605843824283864e-18 -1.021966610980104e+00
-3.605843824283864e-18  1.622124021580254e-17  4.283628487345577e-01
-1.021966610980104e+00  4.283628487345577e-01 -7.825607267009495e-18

-1.276094715902043e-17 -3.252933059236891e-18 -1.021190681852399e+00
-3.252933059236891e-18  1.619419489133168e-17  4.293858870952222e-01
-1.021190681852399e+00  4.293858870952222e-01 -7.096338186706352e-18

-1.157646377353655e-17 -2.937041459004038e-18 -1.021053651254910e+00
-2.937041459004038e-18  1.617211871461151e-17  4.297522502106050e-01
-1.021053651254910e+00  4.297522502106050e-01 -6.371263581137188e-18

-1.045072296792356e-17 -2.654347194134972e-18 -1.021702639351248e+00
-2.654347194134972e-18  1.617253935842604e-17  4.291498267661589e-01
-1.021702639351248e+00  4.291498267661589e-01 -5.633334887775382e-18

-9.411626247076421e-18 -2.400054373832267e-18 -1.021735317794261e+00
-2.400054373832267e-18  1.613517190871713e-17  4.291588528898030e-01
-1.021735317794261e+00  4.291588528898030e-01 -4.987122978763521e-18

-8.447668391192315e-18 -2.170902242800285e-18 -1.021385132197728e+00
-2.170902242800285e-18  1.606547219234214e-17  4.296487696362891e-01
-1.021385132197728e+00  4.296487696362891e-01 -4.412154105178143e-18

-7.533928286169590e-18 -1.964625701810465e-18 -1.021449592083324e+00
-1.964625701810465e-18  1.600345645994902e-17  4.296938819594870e-01
-1.021449592083324e+00  4.296938819594870e-01 -3.843307045371369e-18

-6.670069891160182e-18 -1.778703753426602e-18 -1.021748938591507e+00
-1.778703753426602e-18  1.594545488777428e-17  4.294459858607463e-01
-1.021748938591507e+00  4.294459858607463e-01 -3.291186653318077e-18

-5.863801396026830e-18 -1.610665006026188e-18 -1.021796131223694e+00
-1.610665006026188e-18  1.586804813221194e-17  4.295129759967121e-01
-1.021796131223694e+00  4.295129759967121e-01 -2.791214094915548e-18

-5.113277073052336e-18 -1.458557635199329e-18 -1.021507642631986e+00
-1.458557635199329e-18  1.577042925769968e-17  4.299559555775175e-01
-1.021507642631986e+00  4.299559555775175e-01 -2.347112616641512e-18

-4.399972814346999e-18 -1.320956159524235e-18 -1.021487073499700e+00
-1.320956159524235e-18  1.568252065120989e-17  4.300254439404274e-01
-1.021487073499700e+00  4.300254439404274e-01 -1.909327290937607e-18

-3.716055797812372e-18 -1.196452707675325e-18 -1.021922389315576e+00
-1.196452707675325e-18  1.561193915705081e-17  4.295619032974912e-01
-1.021922389315576e+00  4.295619032974912e-01 -1.461764024175821e-18

-3.080123889318767e-18 -1.083398386437489e-18 -1.021943715047688e+00
-1.083398386437489e-18  1.551998242664662e-17  4.296016598521283e-01
-1.021943715047688e+00  4.296016598521283e-01 -1.070449834239863e-18

-2.489457112196450e-18 -9.805318575885109e-19 -1.021553178219480e+00
-9.805318575885109e-19  1.540525096813774e-17  4.301443170668797e-01
-1.021553178219480e+00  4.301443170668797e-01 -7.335809701280269e-19

-1.919890734698612e-18 -8.871169193728124e-19 -1.021625509398645e+00
-8.871169193728124e-19  1.531117917592176e-17  4.301565326466030e-01
-1.021625509398645e+00  4.301565326466030e-01 -3.813822206960957e-19

-1.375279185637699e-18 -8.022416119372329e-19 -1.021913728410792e+00
-8.022416119372329e-19  1.522783662187554e-17  4.298489724657047e-01
-1.021913728410792e+00  4.298489724657047e-01 -3.098902823233054e-20

-8.675934327315940e-19 -7.248848749283393e-19 -1.021851324663846e+00
-7.248848749283393e-19  1.513057304656837e-17  4.299019461852581e-01
-1.021851324663846e+00  4.299019461852581e-01  2.746634757395289e-19

-3.870517707652676e-19 -6.543169455910202e-19 -1.021759817820073e+00
-6.543169455910202e-19  1.502911454600749e-17  4.300459735239293e-01
-1.021759817820073e+00  4.300459735239293e-01  5.607714667784690e-19

 7.385772734113918e-20 -5.899536067203000e-19 -1.021871620429646e+00
-5.899536067203000e-19  1.493633412551136e-17  4.300148827620610e-01
-1.021871620429646e+00  4.300148827620610e-01  8.464481624661779e-19

 5.095974111110355e-19 -5.311820283901476e-19 -1.021897764409424e+00
-5.311820283901476e-19  1.484010211861457e-17  4.300783272321780e-01
-1.021897764409424e+00  4.300783272321780e-01  1.110877784731204e-18

 9.216141574819571e-19 -4.774624354783668e-19 -1.021835693647182e+00
-4.774624354783668e-19  1.474200524064590e-17  4.302228145488776e-01
-1.021835693647182e+00  4.302228145488776e-01  1.355082997268865e-18

 1.317036561223262e-18 -4.283670552943732e-19 -1.021915993502650e+00
-4.283670552943732e-19  1.465049366119967e-17  4.301974161852579e-01
-1.021915993502650e+00  4.301974161852579e-01  1.597893763797632e-18

 1.689525738203859e-18 -3.834539630252033e-19 -1.021831422205914e+00
-3.834539630252033e-19  1.455658526738737e-17  4.302760742631391e-01
-1.021831422205914e+00  4.302760742631391e-01  1.816941619852847e-18

 2.040966827003576e-18 -3.423007778461633e-19 -1.021611681494970e+00
-3.423007778461633e-19  1.446307293317618e-17  4.303764584770731e-01
-1.021611681494970e+00  4.303764584770731e-01  2.015427898962050e-18

 2.390159495864445e-18 -3.046303110800785e-19 -1.021975665953690e+00
-3.046303110800785e-19  1.439579357943243e-17  4.298650855894005e-01
-1.021975665953690e+00  4.298650855894005e-01  2.247904202339085e-18

 2.723966592702998e-18 -2.701432837480760e-19 -1.022360347683611e+00
-2.701432837480760e-19  1.432265569462746e-17  4.295528707508204e-01
-1.022360347683611e+00  4.295528707508204e-01  2.469754200945659e-18

 3.019838498587087e-18 -2.388875199735857e-19 -1.021817983458383e+00
-2.388875199735857e-19  1.420600435611503e-17  4.304006891411148e-01
-1.021817983458383e+00  4.304006891411148e-01  2.609071050582135e-18

 3.303096566691565e-18 -2.091479523438600e-19 -1.021322150602214e+00
-2.091479523438600e-19  1.409677514621942e-17  4.311306930638530e-01
-1.021322150602214e+00  4.311306930638530e-01  2.744331509671618e-18

 3.600869660027575e-18 -1.818997279495003e-19 -1.021930836032800e+00
-1.818997279495003e-19  1.404612870122524e-17  4.304040290600657e-01
-1.021930836032800e+00  4.304040290600657e-01  2.959062996799590e-18

 3.883199467034336e-18 -1.579518228422744e-19 -1.022408567042083e+00
-1.579518228422744e-19  1.399453341585301e-17  4.296778998431302e-01
-1.022408567042083e+00  4.296778998431302e-01  3.157153624017369e-18

 4.125916678462216e-18 -1.353961236851289e-19 -1.021762762632099e+00
-1.353961236851289e-19  1.389550015066463e-17  4.302709619286799e-01
-1.021762762632099e+00  4.302709619286799e-01  3.260552198110282e-18

 4.370133830919223e-18 -1.145494386569350e-19 -1.021627741289052e+00
-1.145494386569350e-19  1.381412273905931e-17  4.304589191912723e-01
-1.021627741289052e+00  4.304589191912723e-01  3.394701479488922e-18

 4.621706341075945e-18 -9.546705807847170e-20 -1.022213068983232e+00
-9.546705807847170e-20  1.376242944180265e-17  4.299519584577993e-01
-1.022213068983232e+00  4.299519584577993e-01  3.576691522451609e-18

 4.843087093276838e-18 -7.841170145850876e-20 -1.021979814936927e+00
-7.841170145850876e-20  1.367806537022156e-17  4.303020545167108e-01
-1.021979814936927e+00  4.303020545167108e-01  3.689279810831289e-18

 5.053264223876681e-18 -6.164856884009299e-20 -1.021667918257264e+00
-6.164856884009299e-20  1.359331170858118e-17  4.307639082775807e-01
-1.021667918257264e+00  4.307639082775807e-01  3.790273552895130e-18

 5.270361695487537e-18 -4.671293081005611e-20 -1.021985236559297e+00
-4.671293081005611e-20  1.353976150370175e-17  4.304226546279574e-01
-1.021985236559297e+00  4.304226546279574e-01  3.935379916541441e-18

 5.474708062032181e-18 -3.248230631435357e-20 -1.022121472221404e+00
-3.248230631435357e-20  1.348623763208173e-17  4.301860256815689e-01
-1.022121472221404e+00  4.301860256815689e-01  4.062432813587068e-18

 5.665436882338780e-18 -2.033214164133166e-20 -1.022028441129228e+00
-2.033214164133166e-20  1.342184323369765e-17  4.302052903542207e-01
-1.022028441129228e+00  4.302052903542207e-01  4.166488024131599e-18

 5.852684379634506e-18 -8.660441603499535e-21 -1.022102068532048e+00
-8.660441603499535e-21  1.336158638518194e-17  4.302087674876788e-01
-1.022102068532048e+00  4.302087674876788e-01  4.277410726565830e-18

 6.028943002608898e-18  1.587666537082365e-21 -1.022020707284652e+00
 1.587666537082365e-21  1.329469026109877e-17  4.304111794567070e-01
-1.022020707284652e+00  4.304111794567070e-01  4.371563734495877e-18

 6.192446339155837e-18  1.203492331592276e-20 -1.021693358824824e+00
 1.203492331592276e-20  1.322336302386931e-17  4.307999595475689e-01
-1.021693358824824e+00  4.307999595475689e-01  4.443792059889990e-18

 6.363623007512107e-18  2.122039514356693e-20 -1.021929769414169e+00
 2.122039514356693e-20  1.318236595067471e-17  4.304332903311949e-01
-1.021929769414169e+00  4.304332903311949e-01  4.556733175279680e-18

 6.533174163207343e-18  2.960597292390508e-20 -1.022346819860254e+00
 2.960597292390508e-20  1.314960077493833e-17  4.298951117289618e-01
-1.022346819860254e+00  4.298951117289618e-01  4.679728733271036e-18

 6.673466256963780e-18  3.732679751496806e-20 -1.021822002821105e+00
 3.732679751496806e-20  1.307670445395663e-17  4.304249981907866e-01
-1.021822002821105e+00  4.304249981907866e-01  4.725987795214020e-18

 6.813695532702979e-18  4.455204252924725e-20 -1.021521025841845e+00
 4.455204252924725e-20  1.301510788090717e-17  4.307294631053676e-01
-1.021521025841845e+00  4.307294631053676e-01  4.785544682451296e-18

 6.974530107316063e-18  5.116612516341191e-20 -1.022266319865237e+00
 5.116612516341191e-20  1.299755629582429e-17  4.299586392871051e-01
-1.022266319865237e+00  4.299586392871051e-01  4.921637280670144e-18

 7.112141542382912e-18  5.716547262454457e-20 -1.022282334426439e+00
 5.716547262454457e-20  1.294793557452278e-17  4.300490998089488e-01
-1.022282334426439e+00  4.300490998089488e-01  4.997605404204221e-18

 7.205055169014374e-18  5.807036121640359e-20 -1.021602518939589e+00
 5.807036121640359e-20  1.281794760141047e-17  4.309298989063433e-01
-1.021602518939589e+00  4.309298989063433e-01  5.024657448592497e-18

 7.361382009664800e-18  6.807932547725771e-20 -1.021812602060500e+00
 6.807932547725771e-20  1.283118892838609e-17  4.307627153797113e-01
-1.021812602060500e+00  4.307627153797113e-01  5.103006108801707e-18

 7.493912623030912e-18  7.281459808153607e-20 -1.022165875138143e+00
 7.281459808153607e-20  1.280989391184759e-17  4.302426389516054e-01
-1.022165875138143e+00  4.302426389516054e-01  5.199299984931965e-18

 7.609760411325567e-18  7.717589303472451e-20 -1.022012923256373e+00
 7.717589303472451e-20  1.276873033915526e-17  4.302348283830958e-01
-1.022012923256373e+00  4.302348283830958e-01  5.254473508360442e-18

 7.725525353426398e-18  8.120223077986974e-20 -1.022022169866213e+00
 8.120223077986974e-20  1.272964055431552e-17  4.302196413441516e-01
-1.022022169866213e+00  4.302196413441516e-01  5.318182972480019e-18

 7.834140172241440e-18  8.488086952310177e-20 -1.021900613321258e+00
 8.488086952310177e-20  1.268380059516555e-17  4.304226477827038e-01
-1.021900613321258e+00  4.304226477827038e-01  5.368553912460555e-18

 7.935803219491465e-18  8.831095991143231e-20 -1.021644818059029e+00
 8.831095991143231e-20  1.263708003899297e-17  4.306955176788260e-01
-1.021644818059029e+00  4.306955176788260e-01  5.406718799042327e-18

 8.049772737477803e-18  9.147701528614143e-20 -1.022025365210868e+00
 9.147701528614143e-20  1.261886098593735e-17  4.302512271003931e-01
-1.022025365210868e+00  4.302512271003931e-01  5.491805533753769e-18

 8.160365956683626e-18  9.430196756875443e-20 -1.022407692430646e+00
 9.430196756875443e-20  1.259956570932699e-17  4.299048657784445e-01
-1.022407692430646e+00  4.299048657784445e-01  5.573995987947440e-18

 8.247868497558116e-18  9.690034135746718e-20 -1.021990541434617e+00
 9.690034135746718e-20  1.254289642760782e-17  4.305344915506041e-01
-1.021990541434617e+00  4.305344915506041e-01  5.591778908318428e-18

 8.333078921984436e-18  9.935647579056751e-20 -1.021599755208116e+00
 9.935647579056751e-20  1.249055917120958e-17  4.310625180226239e-01
-1.021599755208116e+00  4.310625180226239e-01  5.610697538917480e-18

 8.435040059691044e-18  1.016201565036289e-19 -1.021991236929180e+00
 1.016201565036289e-19  1.248047524062349e-17  4.305304331019204e-01
-1.021991236929180e+00  4.305304331019204e-01  5.690403559890160e-18

 8.534802236130800e-18  1.036138981617281e-19 -1.022402290203968e+00
 1.036138981617281e-19  1.247488013958829e-17  4.299068300330358e-01
-1.022402290203968e+00  4.299068300330358e-01  5.770883887172713e-18

 8.611045837523779e-18  1.054038085326262e-19 -1.021976443212683e+00
 1.054038085326262e-19  1.243136962185802e-17  4.302843541937472e-01
-1.021976443212683e+00  4.302843541937472e-01  5.784499300634780e-18

 8.686474592396449e-18  1.071098392821711e-19 -1.021625572747256e+00
 1.071098392821711e-19  1.238856537450102e-17  4.306700390671306e-01
-1.021625572747256e+00  4.306700390671306e-01  5.801322948200070e-18

 8.778115618168039e-18  1.086517531864992e-19 -1.022029776273423e+00
 1.086517531864992e-19  1.237880582913657e-17  4.302606146246957e-01
-1.022029776273423e+00  4.302606146246957e-01  5.874370438594482e-18

 8.858064167150215e-18  1.099836915428553e-19 -1.022059171970901e+00
 1.099836915428553e-19  1.235565257455666e-17  4.302261495075374e-01
-1.022059171970901e+00  4.302261495075374e-01  5.917135613570571e-18

 8.927603896998921e-18  1.112370068788827e-19 -1.021763044307263e+00
 1.112370068788827e-19  1.231845768382470e-17  4.305578315576142e-01
-1.021763044307263e+00  4.305578315576142e-01  5.933134992660992e-18

 9.009538270464466e-18  1.123845139653957e-19 -1.022056387511310e+00
 1.123845139653957e-19  1.230437797143441e-17  4.303186056046261e-01
-1.022056387511310e+00  4.303186056046261e-01  5.992633537922110e-18

 9.082594250848805e-18  1.133576494591371e-19 -1.022075104732730e+00
 1.133576494591371e-19  1.228188378617829e-17  4.303474536748301e-01
-1.022075104732730e+00  4.303474536748301e-01  6.030015656192233e-18

 9.146067148887104e-18  1.142823950094160e-19 -1.021787016226025e+00
 1.142823950094160e-19  1.224811248217683e-17  4.306516452843616e-01
-1.021787016226025e+00  4.306516452843616e-01  6.043167078711418e-18

 9.221979108974033e-18  1.151176273334363e-19 -1.022075451371523e+00
 1.151176273334363e-19  1.223968534836437e-17  4.303379283158673e-01
-1.022075451371523e+00  4.303379283158673e-01  6.099831298542723e-18

 9.288369575201495e-18  1.157991004289330e-19 -1.022053553851084e+00
 1.157991004289330e-19  1.222119026666686e-17  4.303081231559618e-01
-1.022053553851084e+00  4.303081231559618e-01  6.132064650091317e-18

 9.346019165647847e-18  1.164501264377138e-19 -1.021750412063440e+00
 1.164501264377138e-19  1.219253671636561e-17  4.305518646190631e-01
-1.021750412063440e+00  4.305518646190631e-01  6.141856141699832e-18

 9.416694098741915e-18  1.170198647792630e-19 -1.022043744433078e+00
 1.170198647792630e-19  1.218649258199974e-17  4.302156549385369e-01
-1.022043744433078e+00  4.302156549385369e-01  6.195981462994804e-18

 9.477792110541795e-18  1.174520436296679e-19 -1.022020551937423e+00
 1.174520436296679e-19  1.216917550190062e-17  4.302372316694579e-01
-1.022020551937423e+00  4.302372316694579e-01  6.224426156245182e-18

 9.527707724300889e-18  1.178800896170684e-19 -1.021612229212168e+00
 1.178800896170684e-19  1.213611237987552e-17  4.306434489344972e-01
-1.021612229212168e+00  4.306434489344972e-01  6.222276074330660e-18

 9.594597892033012e-18  1.182715248471604e-19 -1.021952062734763e+00
 1.182715248471604e-19  1.213551051484890e-17  4.302624787521626e-01
-1.021952062734763e+00  4.302624787521626e-01  6.276398139456821e-18

 9.662014218375281e-18  1.185150846045024e-19 -1.022377049744535e+00
 1.185150846045024e-19  1.213596378664101e-17  4.298812268116941e-01
-1.022377049744535e+00  4.298812268116941e-01  6.335204103274797e-18

 9.707223404308068e-18  1.187109475754517e-19 -1.021967866967604e+00
 1.187109475754517e-19  1.209766318544038e-17  4.304959201243576e-01
-1.021967866967604e+00  4.304959201243576e-01  6.328147245712595e-18

 9.751445298128248e-18  1.189403186224658e-19 -1.021570497468985e+00
 1.189403186224658e-19  1.206351515807627e-17  4.310246511578299e-01
-1.021570497468985e+00  4.310246511578299e-01  6.322159384489472e-18

 9.814143915009608e-18  1.191398941255830e-19 -1.021960952136794e+00
 1.191398941255830e-19  1.207078038863900e-17  4.304904589401596e-01
-1.021960952136794e+00  4.304904589401596e-01  6.378361561800766e-18

 9.876173873628178e-18  1.192164776644519e-19 -1.022371523543779e+00
 1.192164776644519e-19  1.208241631601140e-17  4.298646721709107e-01
-1.022371523543779e+00  4.298646721709107e-01  6.436333769991821e-18

 9.916107816605963e-18  1.192192079330489e-19 -1.021945315468203e+00
 1.192192079330489e-19  1.205416482048503e-17  4.302407229598148e-01
-1.021945315468203e+00  4.302407229598148e-01  6.428337668025182e-18

 9.956620160515831e-18  1.192686629375803e-19 -1.021594769003317e+00
 1.192686629375803e-19  1.202805355784807e-17  4.306261858212320e-01
-1.021594769003317e+00  4.306261858212320e-01  6.424457085771732e-18

 1.001465858013084e-17  1.192705323901337e-19 -1.021998765239993e+00
 1.192705323901337e-19  1.203222215067895e-17  4.302205954740395e-01
-1.021998765239993e+00  4.302205954740395e-01  6.477585258636110e-18

 1.006158809577161e-17  1.191683370066676e-19 -1.022001367669240e+00
 1.191683370066676e-19  1.202217783565761e-17  4.302126406251215e-01
-1.022001367669240e+00  4.302126406251215e-01  6.499262198815215e-18

 1.009719141320206e-17  1.190965368819392e-19 -1.021592300635964e+00
 1.190965368819392e-19  1.199670137600556e-17  4.306119116471336e-01
-1.021592300635964e+00  4.306119116471336e-01  6.488714607260089e-18

 1.015025899950926e-17  1.190291542336734e-19 -1.021930594786353e+00
 1.190291542336734e-19  1.200277719438587e-17  4.302281707150189e-01
-1.021930594786353e+00  4.302281707150189e-01  6.534693130214609e-18

 1.020435304388682e-17  1.188488779563313e-19 -1.022354740747137e+00
 1.188488779563313e-19  1.201017598676003e-17  4.298452159566997e-01
-1.022354740747137e+00  4.298452159566997e-01  6.585707703483886e-18

 1.023668623481609e-17  1.186495593759188e-19 -1.021944975985058e+00
 1.186495593759188e-19  1.197802831325585e-17  4.304589172390604e-01
-1.021944975985058e+00  4.304589172390604e-01  6.571143279277111e-18

 1.026847020589268e-17  1.185133041357523e-19 -1.021546102445197e+00
 1.185133041357523e-19  1.195000630788596e-17  4.309875729874744e-01
-1.021546102445197e+00  4.309875729874744e-01  6.557874552898367e-18

 1.031916227631324e-17  1.183739097593253e-19 -1.021935536569226e+00
 1.183739097593253e-19  1.196218224137970e-17  4.304526865701799e-01
-1.021935536569226e+00  4.304526865701799e-01  6.607093655852632e-18

 1.036958605800617e-17  1.181385775270954e-19 -1.022345971001269e+00
 1.181385775270954e-19  1.197977177381068e-17  4.298252576163600e-01
-1.022345971001269e+00  4.298252576163600e-01  6.658373866726068e-18

 1.039828818142901e-17  1.178488753797064e-19 -1.021918493831306e+00
 1.178488753797064e-19  1.195796624440372e-17  4.301999958697632e-01
-1.021918493831306e+00  4.301999958697632e-01  6.643856252346243e-18

 1.042791970625804e-17  1.176289874538090e-19 -1.021566190391302e+00
 1.176289874538090e-19  1.193637175024777e-17  4.305830524785839e-01
-1.021566190391302e+00  4.305830524785839e-01  6.633640642656598e-18

 1.047545264562126e-17  1.173884052030840e-19 -1.021969728763841e+00
 1.173884052030840e-19  1.194696471771162e-17  4.301703832302401e-01
-1.021969728763841e+00  4.301703832302401e-01  6.680745694882607e-18

 1.051286650110408e-17  1.170601510810329e-19 -1.021997839369528e+00
 1.170601510810329e-19  1.194281454295102e-17  4.301332299836899e-01
-1.021997839369528e+00  4.301332299836899e-01  6.698518166219829e-18

 1.054137240656036e-17  1.167714260719498e-19 -1.021699871237204e+00
 1.167714260719498e-19  1.192563073252790e-17  4.304629065551291e-01
-1.021699871237204e+00  4.304629065551291e-01  6.690425273259344e-18

 1.058375307127955e-17  1.164889110846875e-19 -1.021992480176571e+00
 1.164889110846875e-19  1.193075669873625e-17  4.302207095243754e-01
-1.021992480176571e+00  4.302207095243754e-01  6.726816133813785e-18

 1.061864399551797e-17  1.161357129777108e-19 -1.022010504783853e+00
 1.161357129777108e-19  1.192546013045508e-17  4.302468094294667e-01
-1.022010504783853e+00  4.302468094294667e-01  6.741953440705021e-18

 1.064524499106233e-17  1.158303694460373e-19 -1.021720321066861e+00
 1.158303694460373e-19  1.191003491194873e-17  4.305499065685511e-01
-1.021720321066861e+00  4.305499065685511e-01  6.733574574138868e-18

 1.068557917936584e-17  1.155243111224072e-19 -1.022007599309725e+00
 1.155243111224072e-19  1.191877932944362e-17  4.302341358868358e-01
-1.022007599309725e+00  4.302341358868358e-01  6.769566828770892e-18

 1.071763781079526e-17  1.151477201604408e-19 -1.021985728084403e+00
 1.151477201604408e-19  1.191714583981358e-17  4.302011122120983e-01
-1.021985728084403e+00  4.302011122120983e-01  6.781971538534111e-18

 1.074208697436688e-17  1.148191286856492e-19 -1.021681247336025e+00
 1.148191286856492e-19  1.190349445155981e-17  4.304433033870764e-01
-1.021681247336025e+00  4.304433033870764e-01  6.772548184764610e-18

 1.078067026965599e-17  1.144801084882270e-19 -1.021972945569350e+00
 1.144801084882270e-19  1.191433267983371e-17  4.301061139368821e-01
-1.021972945569350e+00  4.301061139368821e-01  6.808122595148564e-18

 1.081077786467866e-17  1.140738050897067e-19 -1.021949379541738e+00
 1.140738050897067e-19  1.191116828819529e-17  4.301255115353518e-01
-1.021949379541738e+00  4.301255115353518e-01  6.818772835049192e-18

 1.083071987774897e-17  1.137231529006828e-19 -1.021540318514121e+00
 1.137231529006828e-19  1.189292621204989e-17  4.305299015415544e-01
-1.021540318514121e+00  4.305299015415544e-01  6.799433165227455e-18

 1.086860492940473e-17  1.133947413208777e-19 -1.021878882416332e+00
 1.133947413208777e-19  1.190605472774820e-17  4.301477249582503e-01
-1.021878882416332e+00  4.301477249582503e-01  6.836927763217073e-18

 1.090797981398004e-17  1.129751813020966e-19 -1.022303394216754e+00
 1.129751813020966e-19  1.191980093477107e-17  4.297645443647899e-01
-1.022303394216754e+00  4.297645443647899e-01  6.879747624522409e-18

 1.092605466335151e-17  1.125599615184372e-19 -1.021893790973557e+00
 1.125599615184372e-19  1.189520592713501e-17  4.303773554672966e-01
-1.021893790973557e+00  4.303773554672966e-01  6.857265039176235e-18

 1.094398868470308e-17  1.122246585851375e-19 -1.021494743608080e+00
 1.122246585851375e-19  1.187375219456898e-17  4.309054745119809e-01
-1.021494743608080e+00  4.309054745119809e-01  6.836297623501783e-18

 1.098123625796449e-17  1.119029999094398e-19 -1.021883803290120e+00
 1.119029999094398e-19  1.189440668113790e-17  4.303702731354430e-01
-1.021883803290120e+00  4.303702731354430e-01  6.878049305299742e-18

 1.101863353782614e-17  1.115000489643032e-19 -1.022294269993572e+00
 1.115000489643032e-19  1.191675185465517e-17  4.297419011634302e-01
-1.022294269993572e+00  4.297419011634302e-01  6.922146154426074e-18

 1.103469205281323e-17  1.110612391531044e-19 -1.021866741070744e+00
 1.110612391531044e-19  1.190075631726667e-17  4.301157451616148e-01
-1.021866741070744e+00  4.301157451616148e-01  6.900672992295660e-18

 1.105203597460518e-17  1.107066436389301e-19 -1.021513783713685e+00
 1.107066436389301e-19  1.188664444170903e-17  4.304985913921637e-01
-1.021513783713685e+00  4.304985913921637e-01  6.883680650395382e-18

 1.108764160527242e-17  1.103420864544808e-19 -1.021916901633329e+00
 1.103420864544808e-19  1.190277214371554e-17  4.300855176355117e-01
-1.021916901633329e+00  4.300855176355117e-01  6.924240687336231e-18

 1.111348294839145e-17  1.099051159627976e-19 -1.021945043430976e+00
 1.099051159627976e-19  1.190504208813894e-17  4.300474446852576e-01
-1.021945043430976e+00  4.300474446852576e-01  6.935711528950511e-18

 1.113074516197135e-17  1.095187812584354e-19 -1.021647012512111e+00
 1.095187812584354e-19  1.189222135553876e-17  4.303763710263642e-01
-1.021647012512111e+00  4.303763710263642e-01  6.921509995092540e-18

 1.116218884912185e-17  1.091493980843443e-19 -1.021939079015864e+00
 1.091493980843443e-19  1.190316934959618e-17  4.301340653947129e-01
-1.021939079015864e+00  4.301340653947129e-01  6.951947117879147e-18

 1.118645357190503e-17  1.087182355970008e-19 -1.021956693517511e+00
 1.087182355970008e-19  1.190299659601701e-17  4.301599358730508e-01
-1.021956693517511e+00  4.301599358730508e-01  6.961326888477180e-18

 1.120273732606683e-17  1.083466149027611e-19 -1.021666596875092e+00
 1.083466149027611e-19  1.189241390414172e-17  4.304622293252093e-01
-1.021666596875092e+00  4.304622293252093e-01  6.947408661900813e-18

 1.123303092816222e-17  1.079818186467888e-19 -1.021953603772298e+00
 1.079818186467888e-19  1.190623640948832e-17  4.301459954659295e-01
-1.021953603772298e+00  4.301459954659295e-01  6.978006860564877e-18

 1.125532357870335e-17  1.075542658588869e-19 -1.021931416662906e+00
 1.075542658588869e-19  1.190928091004199e-17  4.301126052656240e-01
-1.021931416662906e+00  4.301126052656240e-01  6.985180105572846e-18

 1.127028594280984e-17  1.071836757708832e-19 -1.021627151991803e+00
 1.071836757708832e-19  1.190082722372123e-17  4.303540516254012e-01
-1.021627151991803e+00  4.303540516254012e-01  6.970725105339648e-18

 1.129962009367077e-17  1.068088930409404e-19 -1.021918313453868e+00
 1.068088930409404e-19  1.191545588527262e-17  4.300169956509484e-01
-1.021918313453868e+00  4.300169956509484e-01  7.001363799526167e-18

 1.132072155421794e-17  1.063731458752968e-19 -1.021894010340029e+00
 1.063731458752968e-19  1.191623007749587e-17  4.300366009610924e-01
-1.021894010340029e+00  4.300366009610924e-01  7.007213488356528e-18

 1.133193149535885e-17  1.060026790471919e-19 -1.021485607010715e+00
 1.060026790471919e-19  1.190320976486920e-17  4.304396399621179e-01
-1.021485607010715e+00  4.304396399621179e-01  6.983325351579675e-18

 1.136130377168694e-17  1.056572397761352e-19 -1.021824378204126e+00
 1.056572397761352e-19  1.192063643525213e-17  4.300567120879441e-01
-1.021824378204126e+00  4.300567120879441e-01  7.016374343970299e-18

 1.139235447042453e-17  1.052264466418586e-19 -1.022247716512761e+00
 1.052264466418586e-19  1.193838400919147e-17  4.296743831396050e-01
-1.022247716512761e+00  4.296743831396050e-01  7.054775049223315e-18

 1.140234645648581e-17  1.048060489539622e-19 -1.021837964701574e+00
 1.048060489539622e-19  1.191758536058919e-17  4.302869435613141e-01
-1.021837964701574e+00  4.302869435613141e-01  7.028081808723272e-18

 1.141242809114317e-17  1.044703990861883e-19 -1.021439670098644e+00
 1.044703990861883e-19  1.190009577905728e-17  4.308137946684824e-01
-1.021439670098644e+00  4.308137946684824e-01  7.003098280460507e-18

 1.144199286343593e-17  1.041511120398095e-19 -1.021828238903236e+00
 1.041511120398095e-19  1.192233669316489e-17  4.302786910676386e-01
-1.021828238903236e+00  4.302786910676386e-01  7.040857785036719e-18

 1.147189360959499e-17  1.037536002875368e-19 -1.022237896950525e+00
 1.037536002875368e-19  1.194969189674037e-17  4.296507817281035e-01
-1.022237896950525e+00  4.296507817281035e-01  7.081053906791846e-18

 1.148067661741883e-17  1.033268326117228e-19 -1.021810875926166e+00
 1.033268326117228e-19  1.193802249589159e-17  4.300236430665704e-01
-1.021810875926166e+00  4.300236430665704e-01  7.055894127910476e-18

 1.149092560380941e-17  1.029866716225390e-19 -1.021458384884437e+00
 1.029866716225390e-19  1.192555146767390e-17  4.304056537475127e-01
-1.021458384884437e+00  4.304056537475127e-01  7.035319401804561e-18

 1.151957921137037e-17  1.026394964110440e-19 -1.021860669922189e+00
 1.026394964110440e-19  1.194441006337398e-17  4.299933217363137e-01
-1.021860669922189e+00  4.299933217363137e-01  7.072299891298723e-18

 1.153864482030282e-17  1.022222525413621e-19 -1.021888227503826e+00
 1.022222525413621e-19  1.194995643522543e-17  4.299556788753054e-01
-1.021888227503826e+00  4.299556788753054e-01  7.080312282482600e-18

 1.154932448071796e-17  1.018609611179259e-19 -1.021590755486167e+00
 1.018609611179259e-19  1.194088199375211e-17  4.302835784847191e-01
-1.021590755486167e+00  4.302835784847191e-01  7.062840594556612e-18

 1.157433588116181e-17  1.015167396323360e-19 -1.021883035681437e+00
 1.015167396323360e-19  1.195454978452631e-17  4.300405369735500e-01
-1.021883035681437e+00  4.300405369735500e-01  7.090076143373020e-18

 1.159230302585672e-17  1.011152896858590e-19 -1.021900093248236e+00
 1.011152896858590e-19  1.195665946963809e-17  4.300666525460183e-01
-1.021900093248236e+00  4.300666525460183e-01  7.096284971015419e-18

 1.160244932605283e-17  1.007732803793701e-19 -1.021609894926326e+00
 1.007732803793701e-19  1.194977431184539e-17  4.303689091490984e-01
-1.021609894926326e+00  4.303689091490984e-01  7.079317177053163e-18

 1.162675583624363e-17  1.004405644007878e-19 -1.021897063197734e+00
 1.004405644007878e-19  1.196458772331529e-17  4.300524334992415e-01
-1.021897063197734e+00  4.300524334992415e-01  7.106970412443073e-18

 1.164318499319016e-17  1.000476082306864e-19 -1.021874386331655e+00
 1.000476082306864e-19  1.197026001362681e-17  4.300193627532491e-01
-1.021874386331655e+00  4.300193627532491e-01  7.111232461366409e-18

 1.165242908892298e-17  9.971243280442900e-20 -1.021570027082153e+00
 9.971243280442900e-20  1.196391834476904e-17  4.302605392287172e-01
-1.021570027082153e+00  4.302605392287172e-01  7.093978155073008e-18

 1.167619960389454e-17  9.937479091900184e-20 -1.021862060294670e+00
 9.937479091900184e-20  1.198253153611767e-17  4.299222811644660e-01
-1.021862060294670e+00  4.299222811644660e-01  7.121968146840493e-18

 1.169183790687473e-17  9.897898685705942e-20 -1.021837568330790e+00
 9.897898685705942e-20  1.198485335971597e-17  4.299420786113898e-01
-1.021837568330790e+00  4.299420786113898e-01  7.125160267948791e-18

 1.169767855076090e-17  9.864863089769319e-20 -1.021427800057389e+00
 9.864863089769319e-20  1.197340495523367e-17  4.303465682797810e-01
-1.021427800057389e+00  4.303465682797810e-01  7.098596722126258e-18

 1.172184094358945e-17  9.834422540772992e-20 -1.021766833155690e+00
 9.834422540772992e-20  1.199278261613339e-17  4.299630747010761e-01
-1.021766833155690e+00  4.299630747010761e-01  7.129167907263168e-18

 1.174782385214239e-17  9.795541470635927e-20 -1.022191502405029e+00
 9.795541470635927e-20  1.201355195310511e-17  4.295789081449150e-01
-1.022191502405029e+00  4.295789081449150e-01  7.165242220228407e-18

 1.175281263653521e-17  9.757967018871403e-20 -1.021781166445559e+00
 9.757967018871403e-20  1.199354392387831e-17  4.301918803900727e-01
-1.021781166445559e+00  4.301918803900727e-01  7.136139413173160e-18

 1.175798492338060e-17  9.729029069684909e-20 -1.021381711103421e+00
 9.729029069684909e-20  1.197837312047535e-17  4.307199937180736e-01
-1.021381711103421e+00  4.307199937180736e-01  7.108763105338720e-18

 1.178278977733157e-17  9.701411654473330e-20 -1.021770927350411e+00
 9.701411654473330e-20  1.200372978139260e-17  4.301842081352222e-01
-1.021770927350411e+00  4.301842081352222e-01  7.144329945122376e-18

 1.180803158354230e-17  9.666154124767817e-20 -1.022181193903998e+00
 9.666154124767817e-20  1.203209047725674e-17  4.295555348401203e-01
-1.022181193903998e+00  4.295555348401203e-01  7.182391051281234e-18

 1.181222194291228e-17  9.627981506847834e-20 -1.021753449372450e+00
 9.627981506847834e-20  1.202258154775852e-17  4.299290422023033e-01
-1.021753449372450e+00  4.299290422023033e-01  7.155052319945710e-18

 1.181798635223780e-17  9.598755034139383e-20 -1.021400719923478e+00
 9.598755034139383e-20  1.201237700623217e-17  4.303112002260422e-01
-1.021400719923478e+00  4.303112002260422e-01  7.132392031722863e-18

 1.184226649440455e-17  9.568751362027393e-20 -1.021803504161343e+00
 9.568751362027393e-20  1.203238709044198e-17  4.298981609697040e-01
-1.021803504161343e+00  4.298981609697040e-01  7.167398241063738e-18

 1.185703669858072e-17  9.531754281532748e-20 -1.021831063197368e+00
 9.531754281532748e-20  1.203760869962802e-17  4.298603484370562e-01
-1.021831063197368e+00  4.298603484370562e-01  7.173450552940819e-18

 1.186350366845651e-17  9.500416128674459e-20 -1.021533395210569e+00
 9.500416128674459e-20  1.203189410967299e-17  4.301884746683929e-01
-1.021533395210569e+00  4.301884746683929e-01  7.154052945954290e-18

 1.188438893288071e-17  9.470855832151176e-20 -1.021825549467911e+00
 9.470855832151176e-20  1.204603430109011e-17  4.299456724588894e-01
-1.021825549467911e+00  4.299456724588894e-01  7.179416451992122e-18

 1.189830862107378e-17  9.435469208476084e-20 -1.021842315241037e+00
 9.435469208476084e-20  1.205032897575206e-17  4.299720063764640e-01
-1.021842315241037e+00  4.299720063764640e-01  7.183790217976832e-18

 1.190450331530851e-17  9.406217854977601e-20 -1.021552449549170e+00
 9.406217854977601e-20  1.204288759335961e-17  4.302736623831330e-01
-1.021552449549170e+00  4.302736623831330e-01  7.165083211186692e-18

 1.192494378720352e-17  9.377818013742682e-20 -1.021840278317160e+00
 9.377818013742682e-20  1.206128254559998e-17  4.299564141300592e-01
-1.021840278317160e+00  4.299564141300592e-01  7.191065643562714e-18

 1.193755131084031e-17  9.343360886216339e-20 -1.021817011733853e+00
 9.343360886216339e-20  1.206572789453304e-17  4.299241408193502e-01
-1.021817011733853e+00  4.299241408193502e-01  7.193602377903828e-18

 1.194304072330415e-17  9.314784182735502e-20 -1.021511796288604e+00
 9.314784182735502e-20  1.206145353247865e-17  4.301663432132090e-01
-1.021511796288604e+00  4.301663432132090e-01  7.174645299938029e-18

 1.196316412863889e-17  9.285759871085641e-20 -1.021804434405513e+00
 9.285759871085641e-20  1.208054173039186e-17  4.298272708556320e-01
-1.021804434405513e+00  4.298272708556320e-01  7.201088384953442e-18

 1.197522738863109e-17  9.251132447252737e-20 -1.021780650219930e+00
 9.251132447252737e-20  1.208422071882934e-17  4.298460083268194e-01
-1.021780650219930e+00  4.298460083268194e-01  7.202782661435614e-18

 1.197753406067623e-17  9.222905228554851e-20 -1.021370537693872e+00
 9.222905228554851e-20  1.207408732595592e-17  4.302508180657251e-01
-1.021370537693872e+00  4.302508180657251e-01  7.174676619866086e-18

 1.199822624176618e-17  9.197280923348053e-20 -1.021709184092518e+00
 9.197280923348053e-20  1.209425305236220e-17  4.298680234221742e-01
-1.021709184092518e+00  4.298680234221742e-01  7.203736085580124e-18

 1.202081084944456e-17  9.163234103203809e-20 -1.022133801671288e+00
 9.163234103203809e-20  1.211474360949940e-17  4.294841426194662e-01
-1.022133801671288e+00  4.294841426194662e-01  7.238361285624212e-18

 1.202246954786201e-17  9.130555096362593e-20 -1.021723648213541e+00
 9.130555096362593e-20  1.209734421084985e-17  4.300968766338813e-01
-1.021723648213541e+00  4.300968766338813e-01  7.207865831265643e-18

 1.202437305225782e-17  9.106492872884853e-20 -1.021324422042681e+00
 9.106492872884853e-20  1.208187957299076e-17  4.306245772762284e-01
-1.021324422042681e+00  4.306245772762284e-01  7.179136276462544e-18

 1.204595554939355e-17  9.083704076970863e-20 -1.021713414315768e+00
 9.083704076970863e-20  1.210905504199763e-17  4.300888859218903e-01
-1.021713414315768e+00  4.300888859218903e-01  7.213347571359059e-18

 1.206803753389865e-17  9.052940668116542e-20 -1.022123685036574e+00
 9.052940668116542e-20  1.213747239542733e-17  4.294601433960802e-01
-1.022123685036574e+00  4.294601433960802e-01  7.250102191020402e-18

 1.206913285910811e-17  9.019600088525741e-20 -1.021696331883935e+00
 9.019600088525741e-20  1.212742521223997e-17  4.298333691174139e-01
-1.021696331883935e+00  4.298333691174139e-01  7.221516129063951e-18

 1.207183723144542e-17  8.995184425292546e-20 -1.021343241441848e+00
 8.995184425292546e-20  1.211798373347060e-17  4.302161889793966e-01
-1.021343241441848e+00  4.302161889793966e-01  7.197579866726514e-18

 1.209310831042280e-17  8.969666149501185e-20 -1.021745651217994e+00
 8.969666149501185e-20  1.213897498018896e-17  4.298037027920703e-01
-1.021745651217994e+00  4.298037027920703e-01  7.231338930123087e-18

 1.210494220522023e-17  8.937318901604950e-20 -1.021773662064120e+00
 8.937318901604950e-20  1.214626487576529e-17  4.297653035085119e-01
-1.021773662064120e+00  4.297653035085119e-01  7.236240545975889e-18

 1.210851746862035e-17  8.910717463002562e-20 -1.021476266009359e+00
 8.910717463002562e-20  1.213878437187599e-17  4.300929495184946e-01
-1.021476266009359e+00  4.300929495184946e-01  7.215706518036363e-18

 1.212654945843631e-17  8.885614776578870e-20 -1.021768314809560e+00
 8.885614776578870e-20  1.215321761953926e-17  4.298502700947844e-01
-1.021768314809560e+00  4.298502700947844e-01  7.239929503309539e-18

 1.213766326586044e-17  8.854907832302907e-20 -1.021785012172066e+00
 8.854907832302907e-20  1.215864553746542e-17  4.298769230174054e-01
-1.021785012172066e+00  4.298769230174054e-01  7.243190099988387e-18

 1.214108935639507e-17  8.830264402087318e-20 -1.021494742966448e+00
 8.830264402087318e-20  1.215161392881220e-17  4.301791934462098e-01
-1.021494742966448e+00  4.301791934462098e-01  7.223370036718289e-18

 1.215881783327123e-17  8.806175682357112e-20 -1.021782692891402e+00
 8.806175682357112e-20  1.217019262568188e-17  4.298618237054199e-01
-1.021782692891402e+00  4.298618237054199e-01  7.248305140418793e-18

 1.216877550468020e-17  8.776219972000227e-20 -1.021760264593465e+00
 8.776219972000227e-20  1.217697306223203e-17  4.298285792497825e-01
-1.021760264593465e+00  4.298285792497825e-01  7.249876412528542e-18

 1.217162774127950e-17  8.751988079857652e-20 -1.021454735763265e+00
 8.751988079857652e-20  1.217283209207353e-17  4.300712129620516e-01
-1.021454735763265e+00  4.300712129620516e-01  7.229886780335517e-18

 1.218914207432535e-17  8.727486182515639e-20 -1.021746525962202e+00
 8.727486182515639e-20  1.218994032302211e-17  4.297332276546017e-01
-1.021746525962202e+00  4.297332276546017e-01  7.255278309363515e-18

 1.219867363999152e-17  8.696893913397779e-20 -1.021723450422113e+00
 8.696893913397779e-20  1.219508969906262e-17  4.297513109810702e-01
-1.021723450422113e+00  4.297513109810702e-01  7.256062579301740e-18

 1.219848272492679e-17  8.673196563180084e-20 -1.021313847488039e+00
 8.673196563180084e-20  1.218572587470016e-17  4.301555880033340e-01
-1.021313847488039e+00  4.301555880033340e-01  7.227054748398037e-18

 1.221668420724244e-17  8.651742294899336e-20 -1.021651758935711e+00
 8.651742294899336e-20  1.220698047334797e-17  4.297736494177900e-01
-1.021651758935711e+00  4.297736494177900e-01  7.255136614696814e-18

 1.223682999649256e-17  8.621862182526371e-20 -1.022076251509590e+00
 8.621862182526371e-20  1.222690679900158e-17  4.293900439274254e-01
-1.022076251509590e+00  4.293900439274254e-01  7.288851178879494e-18

 1.223610035616179e-17  8.593483361368319e-20 -1.021666557408711e+00
 8.593483361368319e-20  1.220952223799605e-17  4.300022421906171e-01
-1.021666557408711e+00  4.300022421906171e-01  7.257511464312654e-18

 1.223564584388563e-17  8.573647848293316e-20 -1.021267613412596e+00
 8.573647848293316e-20  1.219458748828338e-17  4.305296657529890e-01
-1.021267613412596e+00  4.305296657529890e-01  7.227942301265970e-18

 1.225489808857325e-17  8.554775416379325e-20 -1.021656662213106e+00
 8.554775416379325e-20  1.222019960167685e-17  4.299942520886234e-01
-1.021656662213106e+00  4.299942520886234e-01  7.261312356138530e-18

 1.227466198657588e-17  8.528072310941100e-20 -1.022066168453977e+00
 8.528072310941100e-20  1.224912138938077e-17  4.293666926959775e-01
-1.022066168453977e+00  4.293666926959775e-01  7.297180269050334e-18

 1.227348397149372e-17  8.498731764755245e-20 -1.021638516170911e+00
 8.498731764755245e-20  1.224020102285775e-17  4.297402348217644e-01
-1.021638516170911e+00  4.297402348217644e-01  7.267765223814232e-18

 1.227398671098268e-17  8.478256276120293e-20 -1.021286754392787e+00
 8.478256276120293e-20  1.222914052552216e-17  4.301213469533213e-01
-1.021286754392787e+00  4.301213469533213e-01  7.243144777658137e-18

 1.229306326119287e-17  8.456642741446294e-20 -1.021689534719503e+00
 8.456642741446294e-20  1.225091724635038e-17  4.297084646848837e-01
-1.021689534719503e+00  4.297084646848837e-01  7.276160708284992e-18

 1.230269132586927e-17  8.428277611936017e-20 -1.021716305332993e+00
 8.428277611936017e-20  1.225838997082803e-17  4.296718558855169e-01
-1.021716305332993e+00  4.296718558855169e-01  7.280205896646715e-18

 1.230411432579999e-17  8.405474776766444e-20 -1.021418663990424e+00
 8.405474776766444e-20  1.225185728717271e-17  4.300002137789072e-01
-1.021418663990424e+00  4.300002137789072e-01  7.258907847175296e-18

 1.232004945205895e-17  8.384191126617292e-20 -1.021711550628223e+00
 8.384191126617292e-20  1.226700834800869e-17  4.297566828598008e-01
-1.021711550628223e+00  4.297566828598008e-01  7.282469609475400e-18

 1.232908144331167e-17  8.357187020533935e-20 -1.021728569509875e+00
 8.357187020533935e-20  1.227158604995257e-17  4.297828604251394e-01
-1.021728569509875e+00  4.297828604251394e-01  7.285045867202678e-18

 1.233043982952792e-17  8.336345186898371e-20 -1.021438088131356e+00
 8.336345186898371e-20  1.226478096242811e-17  4.300854365916375e-01
-1.021438088131356e+00  4.300854365916375e-01  7.264514309892429e-18

 1.234612246483804e-17  8.315917684090399e-20 -1.021725656040342e+00
 8.315917684090399e-20  1.228244060433461e-17  4.297687094836710e-01
-1.021725656040342e+00  4.297687094836710e-01  7.288737508911364e-18

 1.235406554534142e-17  8.289450911571453e-20 -1.021703116194058e+00
 8.289450911571453e-20  1.228868802588530e-17  4.297358013136610e-01
-1.021703116194058e+00  4.297358013136610e-01  7.289629908619304e-18

 1.235494871703544e-17  8.268965232693796e-20 -1.021398290340297e+00
 8.268965232693796e-20  1.228343662736128e-17  4.299778032478339e-01
-1.021398290340297e+00  4.299778032478339e-01  7.269038910986217e-18

 1.237050705589122e-17  8.247751472540351e-20 -1.021690357079821e+00
 8.247751472540351e-20  1.230186232930200e-17  4.296397093402534e-01
-1.021690357079821e+00  4.296397093402534e-01  7.293808517888937e-18

 1.237807659336338e-17  8.220788362296961e-20 -1.021666319921557e+00
 8.220788362296961e-20  1.230629600647960e-17  4.296590808938838e-01
-1.021666319921557e+00  4.296590808938838e-01  7.293888891948566e-18

 1.237597117075291e-17  8.200538305805769e-20 -1.021256739529145e+00
 8.200538305805769e-20  1.229633706449289e-17  4.300634867819007e-01
-1.021256739529145e+00  4.300634867819007e-01  7.264265303722871e-18

 1.239230650032279e-17  8.182572132285822e-20 -1.021595734859934e+00
 8.182572132285822e-20  1.231764458659184e-17  4.296804617139186e-01
-1.021595734859934e+00  4.296804617139186e-01  7.291825894840348e-18

 1.241057848634973e-17  8.155986964253249e-20 -1.022020126002243e+00
 8.155986964253249e-20  1.233790192982047e-17  4.292971155179215e-01
-1.022020126002243e+00  4.292971155179215e-01  7.324938757882977e-18

 1.240798108678945e-17  8.131068572234136e-20 -1.021609698317695e+00
 8.131068572234136e-20  1.231808656489663e-17  4.299104736609743e-01
-1.021609698317695e+00  4.299104736609743e-01  7.292958708998604e-18

 1.240569717520215e-17  8.114562659702918e-20 -1.021210727268737e+00
 8.114562659702918e-20  1.230318468056337e-17  4.304381827874141e-01
-1.021210727268737e+00  4.304381827874141e-01  7.262815659916094e-18

 1.242315311377147e-17  8.098907157603955e-20 -1.021600265916783e+00
 8.098907157603955e-20  1.233123316856666e-17  4.299022675957844e-01
-1.021600265916783e+00  4.299022675957844e-01  7.295663847241891e-18

 1.244114229175068e-17  8.075248487980139e-20 -1.022010336973509e+00
 8.075248487980139e-20  1.235824716435341e-17  4.292742373436581e-01
-1.022010336973509e+00  4.292742373436581e-01  7.331025151530656e-18

 1.243818903401387e-17  8.049172248113122e-20 -1.021582454021784e+00
 8.049172248113122e-20  1.234803349476485e-17  4.296484053151657e-01
-1.021582454021784e+00  4.296484053151657e-01  7.301050538954977e-18

 1.243692127131631e-17  8.031863713736461e-20 -1.021229884830520e+00
 8.031863713736461e-20  1.233959598727295e-17  4.300308444769523e-01
-1.021229884830520e+00  4.300308444769523e-01  7.275835578635319e-18

 1.245427021081184e-17  8.013344911825488e-20 -1.021632848609420e+00
 8.013344911825488e-20  1.236054353588367e-17  4.296179859603938e-01
-1.021632848609420e+00  4.296179859603938e-01  7.308344616986774e-18

 1.246220386445893e-17  7.988001206504308e-20 -1.021660403633243e+00
 7.988001206504308e-20  1.236664412655439e-17  4.295804561105505e-01
-1.021660403633243e+00  4.295804561105505e-01  7.311941653460053e-18

 1.246193562665129e-17  7.968163288165364e-20 -1.021362955649095e+00
 7.968163288165364e-20  1.235888801175268e-17  4.299086831869582e-01
-1.021362955649095e+00  4.299086831869582e-01  7.290158050483045e-18

 1.247618300700996e-17  7.949899721581723e-20 -1.021655529997340e+00
 7.949899721581723e-20  1.237283782160667e-17  4.296660254918846e-01
-1.021655529997340e+00  4.296660254918846e-01  7.313198864506560e-18

 1.248353935135547e-17  7.925887431497625e-20 -1.021672011840235e+00
 7.925887431497625e-20  1.237697904426754e-17  4.296933391998081e-01
-1.021672011840235e+00  4.296933391998081e-01  7.315246340376073e-18

 1.248325722953691e-17  7.907979915062014e-20 -1.021381786636616e+00
 7.907979915062014e-20  1.237192130953235e-17  4.299959835427145e-01
-1.021381786636616e+00  4.299959835427145e-01  7.294256419038337e-18

 1.249733039296075e-17  7.890437051409961e-20 -1.021670200725562e+00
 7.890437051409961e-20  1.238752347708943e-17  4.296785534812151e-01
-1.021670200725562e+00  4.296785534812151e-01  7.318076590041742e-18

 1.250365408265784e-17  7.866797437711200e-20 -1.021647482393777e+00
 7.866797437711200e-20  1.239361236000883e-17  4.296461039088521e-01
-1.021647482393777e+00  4.296461039088521e-01  7.318494960202233e-18

 1.250292159844432e-17  7.849128874011025e-20 -1.021342032868930e+00
 7.849128874011025e-20  1.239078834698358e-17  4.298891169029000e-01
-1.021342032868930e+00  4.298891169029000e-01  7.297402856476819e-18

 1.251690117715541e-17  7.830785047040290e-20 -1.021634356687184e+00
 7.830785047040290e-20  1.240664367717792e-17  4.295510729240778e-01
-1.021634356687184e+00  4.295510729240778e-01  7.321746784219820e-18

 1.252290743847119e-17  7.806582512917125e-20 -1.021610611637717e+00
 7.806582512917125e-20  1.240881517004583e-17  4.295703632019509e-01
-1.021610611637717e+00  4.295703632019509e-01  7.321412299927801e-18

 1.251924318286968e-17  7.788989496946024e-20 -1.021200952081314e+00
 7.788989496946024e-20  1.240059155780851e-17  4.299750986021518e-01
-1.021200952081314e+00  4.299750986021518e-01  7.291351225703878e-18

 1.253405339407158e-17  7.773626108235500e-20 -1.021540690645926e+00
 7.773626108235500e-20  1.241960683529770e-17  4.295919261247680e-01
-1.021540690645926e+00  4.295919261247680e-01  7.318540433852805e-18

 1.255079857766604e-17  7.749535730125354e-20 -1.021965231941400e+00
 7.749535730125354e-20  1.243912395325436e-17  4.292094653372845e-01
-1.021965231941400e+00  4.292094653372845e-01  7.351239425806619e-18

 1.254664614755039e-17  7.727494242540655e-20 -1.021553263352818e+00
 7.727494242540655e-20  1.242162460291631e-17  4.298253132602144e-01
-1.021553263352818e+00  4.298253132602144e-01  7.318725035085696e-18

 1.254287052679841e-17  7.713534023685622e-20 -1.021154800585321e+00
 7.713534023685622e-20  1.240524895154887e-17  4.303527702278686e-01
-1.021154800585321e+00  4.303527702278686e-01  7.288217162094977e-18

 1.255887015054286e-17  7.700380064279340e-20 -1.021545712785618e+00
 7.700380064279340e-20  1.243009981681059e-17  4.298152230326073e-01
-1.021545712785618e+00  4.298152230326073e-01  7.320779410123772e-18

 1.257535194898902e-17  7.679333196392795e-20 -1.021954626094512e+00
 7.679333196392795e-20  1.245866969897133e-17  4.291882508842447e-01
-1.021954626094512e+00  4.291882508842447e-01  7.355665161852173e-18

 1.257094027478249e-17  7.655714726123499e-20 -1.021527097465449e+00
 7.655714726123499e-20  1.244873051963387e-17  4.295625523280621e-01
-1.021527097465449e+00  4.295625523280621e-01  7.325329673547285e-18

 1.256824671646573e-17  7.640897351103798e-20 -1.021175824960067e+00
 7.640897351103798e-20  1.243747775398689e-17  4.299449365957150e-01
-1.021175824960067e+00  4.299449365957150e-01  7.299821293076934e-18

 1.258410894229307e-17  7.624835609651122e-20 -1.021577205878056e+00
 7.624835609651122e-20  1.245881123543348e-17  4.295352447075936e-01
-1.021577205878056e+00  4.295352447075936e-01  7.331818413753591e-18

 1.259060209676218e-17  7.601768428256868e-20 -1.021604518940805e+00
 7.601768428256868e-20  1.246476862830040e-17  4.294990771671388e-01
-1.021604518940805e+00  4.294990771671388e-01  7.335018063651158e-18

 1.258895028683239e-17  7.584517222239286e-20 -1.021308681266232e+00
 7.584517222239286e-20  1.245520787755072e-17  4.298260486446854e-01
-1.021308681266232e+00  4.298260486446854e-01  7.312991395847146e-18

 1.260178712791936e-17  7.568822977164956e-20 -1.021601320071441e+00
 7.568822977164956e-20  1.246872438715913e-17  4.295834726257414e-01
-1.021601320071441e+00  4.295834726257414e-01  7.335679061879149e-18

 1.260774213599993e-17  7.547054357786299e-20 -1.021617948290298e+00
 7.547054357786299e-20  1.247397224642123e-17  4.296113903388120e-01
-1.021617948290298e+00  4.296113903388120e-01  7.337376273129052e-18

 1.260606201926748e-17  7.531449740992960e-20 -1.021327590608809e+00
 7.531449740992960e-20  1.246524282910827e-17  4.299154302093430e-01
-1.021327590608809e+00  4.299154302093430e-01  7.316015884998555e-18

 1.261873076761827e-17  7.516339796911192e-20 -1.021615069637215e+00
 7.516339796911192e-20  1.248378326227804e-17  4.296001435771841e-01
-1.021615069637215e+00  4.296001435771841e-01  7.339412994466524e-18

 1.262369663947708e-17  7.495115839061787e-20 -1.021593137554107e+00
 7.495115839061787e-20  1.248700862668693e-17  4.295678821239918e-01
-1.021593137554107e+00  4.295678821239918e-01  7.339540075332709e-18

 1.262162647375159e-17  7.479870934160824e-20 -1.021288826964337e+00
 7.479870934160824e-20  1.248202478317171e-17  4.298107593226790e-01
-1.021288826964337e+00  4.298107593226790e-01  7.318189673090914e-18

 1.263424601033647e-17  7.463763423630308e-20 -1.021581079580045e+00
 7.463763423630308e-20  1.250027911172996e-17  4.294743277041174e-01
-1.021581079580045e+00  4.294743277041174e-01  7.342181224082123e-18

 1.263887441778603e-17  7.442071475659749e-20 -1.021556129863015e+00
 7.442071475659749e-20  1.250267918383803e-17  4.294965231676038e-01
-1.021556129863015e+00  4.294965231676038e-01  7.341413696714117e-18

 1.263371243592876e-17  7.427124314712162e-20 -1.021140112391523e+00
 7.427124314712162e-20  1.249105877896063e-17  4.299065676819610e-01
-1.021140112391523e+00  4.299065676819610e-01  7.310549304383765e-18

 1.264725184433938e-17  7.414412715709024e-20 -1.021482421648660e+00
 7.414412715709024e-20  1.250907194308411e-17  4.295159702992589e-01
-1.021482421648660e+00  4.295159702992589e-01  7.337631344800935e-18

 1.266376050748566e-17  7.392946048980118e-20 -1.021951200640909e+00
 7.392946048980118e-20  1.253189211805923e-17  4.290953649677205e-01
-1.021951200640909e+00  4.290953649677205e-01  7.373304375583646e-18

 1.265836389389466e-17  7.372805225318746e-20 -1.021543022544615e+00
 7.372805225318746e-20  1.250985051062246e-17  4.297381760985749e-01
-1.021543022544615e+00  4.297381760985749e-01  7.340502225778606e-18

 1.265009997496546e-17  7.362026709093678e-20 -1.021016371982464e+00
 7.362026709093678e-20  1.248897754784109e-17  4.304112548856844e-01
-1.021016371982464e+00  4.304112548856844e-01  7.299806554729735e-18

 1.266456654055193e-17  7.353664739580219e-20 -1.021396337672351e+00
 7.353664739580219e-20  1.251405191832000e-17  4.298387600852520e-01
-1.021396337672351e+00  4.298387600852520e-01  7.331687124068715e-18

 1.268545121764859e-17  7.336004370534304e-20 -1.022033520865577e+00
 7.336004370534304e-20  1.255278531049813e-17  4.289254042961572e-01
-1.022033520865577e+00  4.289254042961572e-01  7.384219217994029e-18

 1.267965046456491e-17  7.312657330646424e-20 -1.021603276156764e+00
 7.312657330646424e-20  1.253998301942591e-17  4.293306378034615e-01
-1.021603276156764e+00  4.293306378034615e-01  7.353083341202558e-18

 1.266900355807909e-17  7.301625403033028e-20 -1.020986234371704e+00
 7.301625403033028e-20  1.251525595225023e-17  4.300668357113619e-01
-1.020986234371704e+00  4.300668357113619e-01  7.306121619698995e-18

 1.268422915688486e-17  7.292820431250312e-20 -1.021415262665169e+00
 7.292820431250312e-20  1.253581252360126e-17  4.296572650785073e-01
-1.021415262665169e+00  4.296572650785073e-01  7.339611728278901e-18

 1.269475600694696e-17  7.274484097139832e-20 -1.021655501417486e+00
 7.274484097139832e-20  1.255042568672051e-17  4.293560498117460e-01
-1.021655501417486e+00  4.293560498117460e-01  7.359217405180950e-18

 1.269110887074071e-17  7.261082086411522e-20 -1.021329553502431e+00
 7.261082086411522e-20  1.254124366034345e-17  4.296750591187263e-01
-1.021329553502431e+00  4.296750591187263e-01  7.334957971364235e-18

 1.269967220754730e-17  7.251788957757265e-20 -1.021501240742648e+00
 7.251788957757265e-20  1.254962111036401e-17  4.295677826220383e-01
-1.021501240742648e+00  4.295677826220383e-01  7.348010300041504e-18

 1.270482369316118e-17  7.238351536535906e-20 -1.021545617474618e+00
 7.238351536535906e-20  1.255372587883526e-17  4.295916366138276e-01
-1.021545617474618e+00  4.295916366138276e-01  7.351040175588493e-18

 1.270343002374152e-17  7.231652163752574e-20 -1.021322766748464e+00
 7.231652163752574e-20  1.254691451352049e-17  4.298388894126836e-01
-1.021322766748464e+00  4.298388894126836e-01  7.334179244355283e-18

 1.271458504244383e-17  7.223456560057569e-20 -1.021562671274021e+00
 7.223456560057569e-20  1.256050068848132e-17  4.295746869005794e-01
-1.021562671274021e+00  4.295746869005794e-01  7.354417152437373e-18

 1.271568098698167e-17  7.264831085808535e-20 -1.021428414469771e+00
 7.264831085808535e-20  1.256267511763264e-17  4.296661794886717e-01
-1.021428414469771e+00  4.296661794886717e-01  7.345634531629462e-18

 1.271491381968830e-17  7.217059511737933e-20 -1.021232749174400e+00
 7.217059511737933e-20  1.256015876549392e-17  4.297432553116798e-01
-1.021232749174400e+00  4.297432553116798e-01  7.331917604099953e-18

 1.273393158494486e-17  7.259262718189535e-20 -1.021969817051867e+00
 7.259262718189535e-20  1.259476150086084e-17  4.290677433157632e-01
-1.021969817051867e+00  4.290677433157632e-01  7.384648793425431e-18

 1.273212191803279e-17  7.238220076179217e-20 -1.021755773754485e+00
 7.238220076179217e-20  1.258361456252322e-17  4.294420446665042e-01
-1.021755773754485e+00  4.294420446665042e-01  7.366136520379036e-18

 1.271779036872357e-17  7.183823801854742e-20 -1.020892412602060e+00
 7.183823801854742e-20  1.255288570503100e-17  4.303046172716519e-01
-1.020892412602060e+00  4.303046172716519e-01  7.302576672088267e-18

 1.274297352546490e-17  7.269630826229538e-20 -1.021781776373439e+00
 7.269630826229538e-20  1.259828876469832e-17  4.292200089764744e-01
-1.021781776373439e+00  4.292200089764744e-01  7.371237355962047e-18

 1.280301115698831e-17  7.067483245490193e-20 -1.024166301015071e+00
 7.067483245490193e-20  1.268746425247951e-17  4.273287561527426e-01
-1.024166301015071e+00  4.273287561527426e-01  7.545634378619629e-18

 1.302599330046059e-17  6.020746759893135e-20 -1.033050879485045e+00
 6.020746759893135e-20  1.285833633640016e-17  4.235052289847202e-01
-1.033050879485045e+00  4.235052289847202e-01  8.200003569025030e-18

 1.268546828882882e-17  4.372377941264264e-20 -1.018918041588724e+00
 4.372377941264264e-20  1.204401218348141e-17  4.449899241618250e-01
-1.018918041588724e+00  4.449899241618250e-01  7.123104431064644e-18

 1.117720756859533e-17 -1.648432084098245e-21 -9.562082213572277e-01
-1.648432084098245e-21  1.013373768545065e-17  4.944228615420724e-01
-9.562082213572277e-01  4.944228615420724e-01  2.577106224063352e-18

 1.255144796600305e-17  1.207100133056334e-20 -1.010576806638459e+00
 1.207100133056334e-20  1.358363250391997e-17  4.043271127991722e-01
-1.010576806638459e+00  4.043271127991722e-01  6.992073140823022e-18

 1.625231524958405e-17 -1.607164136134071e-19 -1.156536162396271e+00
-1.607164136134071e-19  1.924574483548922e-17  2.679198348231405e-01
-1.156536162396271e+00  2.679198348231405e-01  1.812339130055535e-17

 1.299802278506655e-17  1.854344591970717e-20 -1.032293473526134e+00
 1.854344591970717e-20  1.192294623270726e-17  4.525427200941106e-01
-1.032293473526134e+00  4.525427200941106e-01  7.906194953217802e-18

 7.920460289095075e-18 -2.083653383416174e-20 -8.287346538295548e-01
-2.083653383416174e-20  2.836369450880674e-18  6.905669511652366e-01
-8.287346538295548e-01  6.905669511652366e-01 -7.523904970992036e-18

 1.287908257737122e-17  8.027600896758793e-20 -1.027961419714602e+00
 8.027600896758793e-20  1.239208282391427e-17  4.363280417575247e-01
-1.027961419714602e+00  4.363280417575247e-01  7.667819043239157e-18

 1.735372055455671e-17  2.848775267149860e-19 -1.210298028575193e+00
 2.848775267149860e-19  2.142604685515138e-17  1.934434786967068e-01
-1.210298028575193e+00  1.934434786967068e-01  2.141290526211707e-17

 1.124954183730519e-17  1.452038443086856e-19 -9.610683251030198e-01
 1.452038443086856e-19  1.183784898881947e-17  4.439243413960175e-01
-9.610683251030198e-01  4.439243413960175e-01  3.030848215858465e-18

 1.086109688823314e-17  1.195174411163345e-19 -9.464146418734716e-01
 1.195174411163345e-19  9.857691335908219e-18  4.989596315798202e-01
-9.464146418734716e-01  4.989596315798202e-01  1.553123239700627e-18

 1.646642036376116e-17 -1.083218225972398e-19 -1.168957368719117e+00
-1.083218225972398e-19  1.705418341998754e-17  3.277368638443877e-01
-1.168957368719117e+00  3.277368638443877e-01  1.831374587760181e-17

 9.693257705448436e-18 -1.544940001750168e-19 -8.959594175661081e-01
-1.544940001750168e-19  6.087813375094648e-18  6.116413932457201e-01
-8.959594175661081e-01  6.116413932457201e-01 -2.201146672835820e-18

 8.698223032036059e-18 -3.375445972755715e-19 -8.494810730815187e-01
-3.375445972755715e-19  6.518208179853722e-18  6.036657225618719e-01
-8.494810730815187e-01  6.036657225618719e-01 -4.745623840269732e-18

 1.910157902359994e-17  6.339450698840819e-20 -1.274876489401266e+00
 6.339450698840819e-20  2.465046242218692e-17  1.193800685002869e-01
-1.274876489401266e+00  1.193800685002869e-01  2.606842178982928e-17

 1.681778983647729e-17 -3.520472716312281e-19 -1.174600957510116e+00
-3.520472716312281e-19  1.962044847190626e-17  2.679574484083497e-01
-1.174600957510116e+00  2.679574484083497e-01  1.912331721651626e-17

 5.598214540811614e-18  3.621075726397938e-19 -7.452839733093192e-01
 3.621075726397938e-19 -7.429060230945745e-19  7.721241744771662e-01
-7.452839733093192e-01  7.721241744771662e-01 -1.370294316349918e-17

 9.886421953161076e-18 -7.029545872897522e-20 -9.053521226319605e-01
-7.029545872897522e-20  6.190412477078298e-18  6.061367247487153e-01
-9.053521226319605e-01  6.061367247487153e-01 -1.446799300213759e-18

 1.849452956549548e-17  6.791338960226751e-19 -1.264444179932790e+00
 6.791338960226751e-19  2.295652087026220e-17  1.400543765772211e-01
-1.264444179932790e+00  1.400543765772211e-01  2.421999135962594e-17

 1.374148953700506e-17  1.727969944554453e-19 -1.060439750107854e+00
 1.727969944554453e-19  1.686874163671324e-17  3.142638169648793e-01
-1.060439750107854e+00  3.142638169648793e-01  1.055125593842424e-17

 1.195857099624854e-17  2.092421010875634e-19 -9.918185110355217e-01
 2.092421010875634e-19  1.134750909648676e-17  4.587714008816332e-01
-9.918185110355217e-01  4.587714008816332e-01  4.783933805844453e-18

 1.150524382001243e-17  1.544092417925105e-19 -9.751234651562841e-01
 1.544092417925105e-19  8.460720315724006e-18  5.398960416223507e-01
-9.751234651562841e-01  5.398960416223507e-01  3.003684272165200e-18

 1.065898068356749e-17 -5.259346844837937e-20 -9.356613863249525e-01
-5.259346844837937e-20  7.921209168872731e-18  5.615431481594862e-01
-9.356613863249525e-01  5.615431481594862e-01  5.369067235548515e-19

 1.605600631605768e-17  1.783902283617009e-19 -1.156267567096659e+00
 1.783902283617009e-19  1.797450627472364e-17  2.914229686716930e-01
-1.156267567096659e+00  2.914229686716930e-01  1.724853908004643e-17

 1.455469937533490e-17  6.416134296639304e-20 -1.092157529677593e+00
 6.416134296639304e-20  1.580230246491546e-17  3.495106278121083e-01
-1.092157529677593e+00  3.495106278121083e-01  1.279461620827459e-17

 8.051513816384599e-18 -3.624100263811919e-20 -8.270046741893826e-01
-3.624100263811919e-20  5.432723152096482e-18  6.169979047734782e-01
-8.270046741893826e-01  6.169979047734782e-01 -6.990739001257438e-18

 1.267653779518971e-17  2.153674609512974e-20 -1.013587691994343e+00
 2.153674609512974e-20  1.388917437343266e-17  3.964094826609221e-01
-1.013587691994343e+00  3.964094826609221e-01  7.264028232326465e-18

 1.739183735521128e-17 -2.037528290889715e-19 -1.198878106548622e+00
-2.037528290889715e-19  2.176843771028520e-17  2.054470770783537e-01
-1.198878106548622e+00  2.054470770783537e-01  2.138300303865652e-17

 1.278022442209246e-17  1.016449589929471e-19 -1.023221982343843e+00
 1.016449589929471e-19  1.236356687738804e-17  4.401170256724730e-01
-1.023221982343843e+00  4.401170256724730e-01  7.170224595048526e-18

 1.010120383664664e-17  2.531516494939271e-19 -9.224640640191929e-01
 2.531516494939271e-19  5.309883401352048e-18  6.217751686645986e-01
-9.224640640191929e-01  6.217751686645986e-01 -1.411806568952462e-18

 1.118937949824283e-17 -1.429676741699919e-19 -9.559294066702895e-01
-1.429676741699919e-19  7.656684743175418e-18  5.757402032585939e-01
-9.559294066702895e-01  5.757402032585939e-01  1.966462721724257e-18

 1.405468963622838e-17  2.346256970496350e-19 -1.075613369467655e+00
 2.346256970496350e-19  1.553114300355183e-17  3.510866454411068e-01
-1.075613369467655e+00  3.510866454411068e-01  1.114683851451689e-17

 1.655378765000174e-17  1.650267994913122e-19 -1.172442236639196e+00
 1.650267994913122e-19  2.099223541945700e-17  2.099583427733578e-01
-1.172442236639196e+00  2.099583427733578e-01  1.896584924554230e-17

 1.245273342330968e-17  1.014293552146334e-19 -1.006526432195422e+00
 1.014293552146334e-19  1.313867127516129e-17  4.148178134574766e-01
-1.006526432195422e+00  4.148178134574766e-01  6.432040485510958e-18

 9.689088039480405e-18  2.413003247077693e-19 -9.001932027022342e-01
 2.413003247077693e-19  6.687525182522704e-18  5.782361827429782e-01
-9.001932027022342e-01  5.782361827429782e-01 -2.383485622846571e-18

 1.294019258388189e-17  1.220020025190641e-19 -1.028494253689402e+00
 1.220020025190641e-19  1.172448904861182e-17  4.548996908179407e-01
-1.028494253689402e+00  4.548996908179407e-01  7.477400461597497e-18

 1.427219855003631e-17  1.275788414028274e-19 -1.081279317672145e+00
 1.275788414028274e-19  1.495783693986027e-17  3.704975090261520e-01
-1.081279317672145e+00  3.704975090261520e-01  1.172909946351185e-17

 1.285362001665843e-17  8.317456869845935e-20 -1.022387455645991e+00
 8.317456869845935e-20  1.312585499273825e-17  4.175668813595215e-01
-1.022387455645991e+00  4.175668813595215e-01  7.455045840443275e-18

 1.254389421470904e-17  7.148415766135683e-20 -1.009409987642126e+00
 7.148415766135683e-20  1.235363642820231e-17  4.376075293384008e-01
-1.009409987642126e+00  4.376075293384008e-01  6.466154503305861e-18

 1.279330628787277e-17  6.823560757344693e-20 -1.019642466686093e+00
 6.823560757344693e-20  1.258955030761002e-17  4.321231649420869e-01
-1.019642466686093e+00  4.321231649420869e-01  7.221076771768377e-18

 1.282692881814116e-17  6.818506319319639e-20 -1.020817676190593e+00
 6.818506319319639e-20  1.262077485058428e-17  4.314648568151629e-01
-1.020817676190593e+00  4.314648568151629e-01  7.307407413089940e-18

 1.283258166983232e-17  6.467887079487171e-20 -1.020775518227208e+00
 6.467887079487171e-20  1.262490799552832e-17  4.313189495645274e-01
-1.020775518227208e+00  4.313189495645274e-01  7.305333256054629e-18

 1.285581868970283e-17  6.535733515469415e-20 -1.021695936129930e+00
 6.535733515469415e-20  1.266749198791231e-17  4.302459216338080e-01
-1.021695936129930e+00  4.302459216338080e-01  7.374245825135535e-18

 1.286673472306418e-17  6.061918966470509e-20 -1.022407236521630e+00
 6.061918966470509e-20  1.268477916565033e-17  4.301128339987871e-01
-1.022407236521630e+00  4.301128339987871e-01  7.419018717739099e-18

 1.280077841582043e-17  6.000218183885653e-20 -1.019609838163858e+00
 6.000218183885653e-20  1.255015124767944e-17  4.334570977019482e-01
-1.019609838163858e+00  4.334570977019482e-01  7.208911821695013e-18

 1.250116397064459e-17  5.480905830833863e-20 -1.007163341985672e+00
 5.480905830833863e-20  1.222267447044331e-17  4.419247975563945e-01
-1.007163341985672e+00  4.419247975563945e-01  6.297993277586345e-18

 1.256321755007908e-17  3.864033645692667e-20 -1.009252065642725e+00
 3.864033645692667e-20  1.277242718882492e-17  4.285217144244826e-01
-1.009252065642725e+00  4.285217144244826e-01  6.546312873984466e-18

 1.431954780661027e-17 -2.080305920440563e-20 -1.079053749968066e+00
-2.080305920440563e-20  1.541605900295785e-17  3.646160616577532e-01
-1.079053749968066e+00  3.646160616577532e-01  1.186424591375497e-17

 1.441973454499928e-17 -6.661652228672805e-20 -1.084061412057179e+00
-6.661652228672805e-20  1.406230166397961e-17  4.035563936904401e-01
-1.084061412057179e+00  4.035563936904401e-01  1.191240480524657e-17

 9.452969835239784e-18 -1.607608752826435e-19 -8.826129850441532e-01
-1.607608752826435e-19  5.472498225172418e-18  6.282335772918791e-01
-8.826129850441532e-01  6.282335772918791e-01 -3.230095659243783e-18

 1.012880563354903e-17 -2.363404900779744e-19 -9.052537037077600e-01
-2.363404900779744e-19  8.633091838863232e-18  5.452322835787283e-01
-9.052537037077600e-01  5.452322835787283e-01 -7.243195575769338e-19

 1.702722167757381e-17  1.128669358630492e-19 -1.188235265507935e+00
 1.128669358630492e-19  2.206692972515805e-17  1.833052446884236e-01
-1.188235265507935e+00  1.833052446884236e-01  2.011629382606952e-17

 1.716568253134715e-17 -4.511994308864613e-19 -1.182626295785056e+00
-4.511994308864613e-19  2.113728706059531e-17  2.319392306519746e-01
-1.182626295785056e+00  2.319392306519746e-01  2.017847454945149e-17

 8.887976228277583e-18  4.951171011283809e-19 -8.763049754148283e-01
 4.951171011283809e-19  4.397646156340420e-18  6.338399531821374e-01
-8.763049754148283e-01  6.338399531821374e-01 -4.595498510643736e-18

 8.233049415608847e-18 -2.826062779038988e-20 -8.397158659656491e-01
-2.826062779038988e-20  2.351507284936610e-18  7.097127734964574e-01
-8.397158659656491e-01  7.097127734964574e-01 -6.765007891752761e-18

 1.596660577565574e-17  4.690822919089573e-19 -1.157845691175841e+00
 4.690822919089573e-19  1.706145777527250e-17  3.048905431424105e-01
-1.157845691175841e+00  3.048905431424105e-01  1.647649928481379e-17

 1.553149526389045e-17  3.572990814078668e-19 -1.135003843741979e+00
 3.572990814078668e-19  1.891067804823238e-17  2.563509107888858e-01
-1.135003843741979e+00  2.563509107888858e-01  1.573267837315575e-17

 1.077283600602427e-17  1.350815168341929e-19 -9.377297076998804e-01
 1.350815168341929e-19  1.134719603892147e-17  4.572907847508434e-01
-9.377297076998804e-01  4.572907847508434e-01  1.337473162340726e-18

 1.176553077250976e-17  2.445418032491697e-20 -9.766069687506602e-01
 2.445418032491697e-20  1.211406405926768e-17  4.454200671038441e-01
-9.766069687506602e-01  4.454200671038441e-01  4.191763142910422e-18

 1.601290953998133e-17 -2.224031923126891e-19 -1.145431656110215e+00
-2.224031923126891e-19  1.748842784801565e-17  3.232809157022624e-01
-1.145431656110215e+00  3.232809157022624e-01  1.679906294810032e-17

 1.366924491252679e-17 -8.244157567286726e-20 -1.057919391166037e+00
-8.244157567286726e-20  1.131187692560830e-17  4.817962484330351e-01
-1.057919391166037e+00  4.817962484330351e-01  9.287948372715740e-18

 7.705056609887338e-18 -4.839026437749895e-19 -8.104114464557512e-01
-4.839026437749895e-19  1.598475929099475e-18  7.496100513208658e-01
-8.104114464557512e-01  7.496100513208658e-01 -8.317964070225888e-18

 1.062840975715901e-17 -3.757406816314731e-19 -9.248251162790917e-01
-3.757406816314731e-19  9.767623305316187e-18  5.241751774327095e-01
-9.248251162790917e-01  5.241751774327095e-01  9.310005542042142e-19

 1.769044037005813e-17  2.020710062155735e-19 -1.216834257162312e+00
 2.020710062155735e-19  2.471173740213373e-17  1.090143889955540e-01
-1.216834257162312e+00  1.090143889955540e-01  2.139613396920017e-17

 1.823647227286592e-17 -1.117672144062187e-18 -1.210773514770002e+00
-1.117672144062187e-18  2.428383369437254e-17  1.755101628106447e-01
-1.210773514770002e+00  1.755101628106447e-01  2.223317406443526e-17

 1.186368747945294e-17  5.498867715060694e-19 -1.003697056706678e+00
 5.498867715060694e-19  8.322381186224606e-18  5.412617185642246e-01
-1.003697056706678e+00  5.412617185642246e-01  4.455526257761286e-18

-2.426129842216312e-17  2.706470082310039e-19  1.133336938895547e+00
 2.706470082310039e-19 -1.664206632686570e-17  2.601307573008619e-01
 1.133336938895547e+00  2.601307573008619e-01 -3.860196699833492e-17

-2.542946291852725e-17 -1.765042051390971e-20  1.267261842248555e+00
-1.765042051390971e-20 -2.074175785552746e-17  3.124166861653296e-02
 1.267261842248555e+00  3.124166861653296e-02 -4.295374439643374e-17

-2.067456589516677e-17 -4.679580799860144e-19  6.867958169259957e-01
-4.679580799860144e-19 -7.828384070799506e-18  8.764325423551225e-01
 6.867958169259957e-01  8.764325423551225e-01 -2.700895991579111e-17

-2.190378668025885e-17  1.290876306363302e-19  8.371150490460963e-01
 1.290876306363302e-19 -1.005799854208361e-17  6.964649260054270e-01
 8.371150490460963e-01  6.964649260054270e-01 -3.057201549753643e-17

-2.700178318248025e-17 -4.799434829133170e-19  1.345773447838299e+00
-4.799434829133170e-19 -2.081970775280848e-17  9.718413089046907e-02
 1.345773447838299e+00  9.718413089046907e-02 -4.683521185458217e-17

-2.526257404351003e-17 -6.481190749676120e-20  1.205921529919722e+00
-6.481190749676120e-20 -1.840790870511654e-17  1.971032267922500e-01
 1.205921529919722e+00  1.971032267922500e-01 -4.190429274052239e-17

-2.036615774616963e-17 -2.318773272513656e-19  7.067069585676669e-01
-2.318773272513656e-19 -8.888823485900769e-18  7.653683703080475e-01
 7.067069585676669e-01  7.653683703080475e-01 -2.608412687775747e-17

-2.236090135139198e-17 -2.649925794336784e-20  9.121605762430937e-01
-2.649925794336784e-20 -1.235115731543296e-17  5.466631691527163e-01
 9.121605762430937e-01  5.466631691527163e-01 -3.240381659970613e-17

-2.652249183329764e-17 -1.372388401893772e-19  1.318841368337275e+00
-1.372388401893772e-19 -2.032362765667370e-17  9.614146730631787e-02
 1.318841368337275e+00  9.614146730631787e-02 -4.591024521238208e-17

-2.415987195936620e-17 -2.658464607201566e-20  1.088436169296316e+00
-2.658464607201566e-20 -1.571476164969057e-17  3.538820861483478e-01
 1.088436169296316e+00  3.538820861483478e-01 -3.824636543734283e-17

-2.106317564264311e-17 -7.639107975535275e-20  7.635121283778623e-01
-7.639107975535275e-20 -9.043279529547027e-18  7.516393453293575e-01
 7.635121283778623e-01  7.516393453293575e-01 -2.778543335762474e-17

-2.248835870518844e-17  6.896032659004106e-20  9.282095321291892e-01
 6.896032659004106e-20 -1.240703563407182e-17  5.347274610810708e-01
 9.282095321291892e-01  5.347274610810708e-01 -3.280689039958202e-17

-2.541257545314026e-17 -2.338598206474858e-19  1.225494284090764e+00
-2.338598206474858e-19 -1.932131512788737e-17  1.486543807056186e-01
 1.225494284090764e+00  1.486543807056186e-01 -4.279197807901979e-17

-2.503308380497971e-17  1.518041705596527e-19  1.200554512255632e+00
 1.518041705596527e-19 -1.833701486850323e-17  1.790577442178386e-01
 1.200554512255632e+00  1.790577442178386e-01 -4.145886663416547e-17

-2.186151943600682e-17 -3.057697889209024e-19  8.384230883017342e-01
-3.057697889209024e-19 -1.069543107179415e-17  6.679102117444613e-01
 8.384230883017342e-01  6.679102117444613e-01 -3.050876113763424e-17

-2.185086198260171e-17 -3.257643679267316e-20  8.382781012195392e-01
-3.257643679267316e-20 -1.002163025988558e-17  6.922550102427447e-01
 8.382781012195392e-01  6.922550102427447e-01 -3.013095869123985e-17

-2.485046964062394e-17 -2.862614661738417e-19  1.141185025235017e+00
-2.862614661738417e-19 -1.664528533430160e-17  3.190753552128106e-01
 1.141185025235017e+00  3.190753552128106e-01 -4.040903941729459e-17

-2.448010505868287e-17 -1.826060250760508e-19  1.130531707011525e+00
-1.826060250760508e-19 -1.737117262843614e-17  2.587363313163119e-01
 1.130531707011525e+00  2.587363313163119e-01 -3.987134882871142e-17

-2.268072113835013e-17 -1.056683914463355e-19  9.606870639878496e-01
-1.056683914463355e-19 -1.393520406036361e-17  4.441346495256370e-01
 9.606870639878496e-01  4.441346495256370e-01 -3.391694063184842e-17

-2.274022993352490e-17 -1.155856203777280e-19  9.524922256104774e-01
-1.155856203777280e-19 -1.311728678794171e-17  4.944986809740427e-01
 9.524922256104774e-01  4.944986809740427e-01 -3.368242953353441e-17

-2.351272729100739e-17 -8.592103514454510e-20  1.023894202164840e+00
-8.592103514454510e-20 -1.428891715803583e-17  4.299518699290162e-01
 1.023894202164840e+00  4.299518699290162e-01 -3.615494720985630e-17

-2.355201733834296e-17 -6.993136024196029e-20  1.029159715491951e+00
-6.993136024196029e-20 -1.454482577634480e-17  4.145728640806983e-01
 1.029159715491951e+00  4.145728640806983e-01 -3.631498517324355e-17

-2.345132347122942e-17 -6.253174214016603e-20  1.020617003037063e+00
-6.253174214016603e-20 -1.444755744461736e-17  4.191563471987095e-01
 1.020617003037063e+00  4.191563471987095e-01 -3.600733876643180e-17

-2.339863460589636e-17 -6.197305417580676e-20  1.015318590431795e+00
-6.197305417580676e-20 -1.433878593592572e-17  4.249436637773155e-01
 1.015318590431795e+00  4.249436637773155e-01 -3.582154608933648e-17

-2.338274510570879e-17 -6.404385483461577e-20  1.013870023063411e+00
-6.404385483461577e-20 -1.431684256198911e-17  4.258532270516076e-01
 1.013870023063411e+00  4.258532270516076e-01 -3.576955154497453e-17

-2.343063704200464e-17 -6.324924741721392e-20  1.019176413811836e+00
-6.324924741721392e-20 -1.444002799762118e-17  4.187881657530855e-01
 1.019176413811836e+00  4.187881657530855e-01 -3.595165753329820e-17

-2.343148806237345e-17 -6.131612247076288e-20  1.019324625687874e+00
-6.131612247076288e-20 -1.445323894902255e-17  4.177065893997065e-01
 1.019324625687874e+00  4.177065893997065e-01 -3.595737985864750e-17

-2.338836074987015e-17 -6.115261921256319e-20  1.014719289809030e+00
-6.115261921256319e-20 -1.435388901907275e-17  4.231670419860581e-01
 1.014719289809030e+00  4.231670419860581e-01 -3.579809575344508e-17

-2.339395444615961e-17 -6.192619992134550e-20  1.014808882524946e+00
-6.192619992134550e-20 -1.434320571442079e-17  4.239824739479015e-01
 1.014808882524946e+00  4.239824739479015e-01 -3.580268280287872e-17

-2.342135703624004e-17 -6.181731092837807e-20  1.017236744677767e+00
-6.181731092837807e-20 -1.438981614471136e-17  4.214125218717429e-01
 1.017236744677767e+00  4.214125218717429e-01 -3.588842142562193e-17

-2.342178163068440e-17 -6.119740927734422e-20  1.017232584469972e+00
-6.119740927734422e-20 -1.439657195075775e-17  4.210527539841489e-01
 1.017232584469972e+00  4.210527539841489e-01 -3.588778665181204e-17

-2.341369566281030e-17 -6.134431286980362e-20  1.016301394399786e+00
-6.134431286980362e-20 -1.438050663836147e-17  4.219176921118300e-01
 1.016301394399786e+00  4.219176921118300e-01 -3.585531079728673e-17

-2.341444243035382e-17 -6.145337039548718e-20  1.016202710049558e+00
-6.145337039548718e-20 -1.438068226963840e-17  4.219886352947265e-01
 1.016202710049558e+00  4.219886352947265e-01 -3.585205481559007e-17

-2.342119617257007e-17 -6.149760433628158e-20  1.016704666764219e+00
-6.149760433628158e-20 -1.439235046143226e-17  4.213105738681203e-01
 1.016704666764219e+00  4.213105738681203e-01 -3.586977295958094e-17

-2.342587677967533e-17 -6.137239834717788e-20  1.016964256298222e+00
-6.137239834717788e-20 -1.439978673788058e-17  4.210108118889535e-01
 1.016964256298222e+00  4.210108118889535e-01 -3.587915006426529e-17

-2.342363733951188e-17 -6.102234586778076e-20  1.016491317879692e+00
-6.102234586778076e-20 -1.438918976872105e-17  4.217045699932610e-01
 1.016491317879692e+00  4.217045699932610e-01 -3.586306674706812e-17

-2.342194466225644e-17 -6.138585791022307e-20  1.016083369764060e+00
-6.138585791022307e-20 -1.438187303666052e-17  4.222289420647242e-01
 1.016083369764060e+00  4.222289420647242e-01 -3.584921974524780e-17

-2.342783336146761e-17 -6.150281011691580e-20  1.016484701374688e+00
-6.150281011691580e-20 -1.439196819929464e-17  4.216789136652317e-01
 1.016484701374688e+00  4.216789136652317e-01 -3.586342593059817e-17

-2.343407952360236e-17 -6.144658640971415e-20  1.016942619932997e+00
-6.144658640971415e-20 -1.440530449328806e-17  4.209958649719179e-01
 1.016942619932997e+00  4.209958649719179e-01 -3.587951063152521e-17

-2.343384727930262e-17 -6.134387757167737e-20  1.016713792351546e+00
-6.134387757167737e-20 -1.440130020756436e-17  4.212312792647040e-01
 1.016713792351546e+00  4.212312792647040e-01 -3.587172665892561e-17

-2.343138315008755e-17 -6.136744277238793e-20  1.016219847048649e+00
-6.136744277238793e-20 -1.439267436838267e-17  4.218809833792861e-01
 1.016219847048649e+00  4.218809833792861e-01 -3.585485193155631e-17

-2.343349180540862e-17 -6.148424527063513e-20  1.016199233510397e+00
-6.148424527063513e-20 -1.439516188921488e-17  4.219028432356330e-01
 1.016199233510397e+00  4.219028432356330e-01 -3.585443716730729e-17

-2.343967365521965e-17 -6.152263728069510e-20  1.016612033804235e+00
-6.152263728069510e-20 -1.440575936446447e-17  4.213035085419886e-01
 1.016612033804235e+00  4.213035085419886e-01 -3.586906068143803e-17

-2.344401122073002e-17 -6.146526046897147e-20  1.016814562327167e+00
-6.146526046897147e-20 -1.441428766625353e-17  4.209965048324452e-01
 1.016814562327167e+00  4.209965048324452e-01 -3.587641883252259e-17

-2.344538237484950e-17 -6.143399786613325e-20  1.016645046423052e+00
-6.143399786613325e-20 -1.441041652789695e-17  4.213195720622082e-01
 1.016645046423052e+00  4.213195720622082e-01 -3.587106870237028e-17

-2.344717147741497e-17 -6.147481156821747e-20  1.016471068437188e+00
-6.147481156821747e-20 -1.440682912524627e-17  4.217692947717323e-01
 1.016471068437188e+00  4.217692947717323e-01 -3.586574914391234e-17

-2.344996370534065e-17 -6.155547948937590e-20  1.016440486022598e+00
-6.155547948937590e-20 -1.440556522942191e-17  4.219338920873071e-01
 1.016440486022598e+00  4.219338920873071e-01 -3.586524952185360e-17

-2.345257009429551e-17 -6.162766307223507e-20  1.016482449749534e+00
-6.162766307223507e-20 -1.440952492837102e-17  4.217629116255974e-01
 1.016482449749534e+00  4.217629116255974e-01 -3.586690304376335e-17

-2.345599654097038e-17 -6.168411769240180e-20  1.016650097470044e+00
-6.168411769240180e-20 -1.441952558699725e-17  4.213244217883366e-01
 1.016650097470044e+00  4.213244217883366e-01 -3.587276366160683e-17

-2.345989768016256e-17 -6.165981927098096e-20  1.016819557195359e+00
-6.165981927098096e-20 -1.442685281317500e-17  4.210016420381225e-01
 1.016819557195359e+00  4.210016420381225e-01 -3.587887128469127e-17

-2.346104012744909e-17 -6.160783459510478e-20  1.016637013123560e+00
-6.160783459510478e-20 -1.442456742266857e-17  4.212856122956485e-01
 1.016637013123560e+00  4.212856122956485e-01 -3.587297727367182e-17

-2.346019888575709e-17 -6.164394276236143e-20  1.016229472479515e+00
-6.164394276236143e-20 -1.441606962977625e-17  4.218810886393886e-01
 1.016229472479515e+00  4.218810886393886e-01 -3.585931327875362e-17

-2.346323112903348e-17 -6.176540853228984e-20  1.016235430396316e+00
-6.176540853228984e-20 -1.441945852701379e-17  4.218789487860946e-01
 1.016235430396316e+00  4.218789487860946e-01 -3.585998883574858e-17

-2.347101914952784e-17 -6.180940427880108e-20  1.016732642971577e+00
-6.180940427880108e-20 -1.443317900677661e-17  4.212248794481023e-01
 1.016732642971577e+00  4.212248794481023e-01 -3.587775905322200e-17

-2.347669282617165e-17 -6.173124158036746e-20  1.016979341191399e+00
-6.173124158036746e-20 -1.443962490348678e-17  4.209624971619009e-01
 1.016979341191399e+00  4.209624971619009e-01 -3.588691838469368e-17

-2.347577050311818e-17 -6.167934037049253e-20  1.016526909124178e+00
-6.167934037049253e-20 -1.443001145155196e-17  4.216319899255757e-01
 1.016526909124178e+00  4.216319899255757e-01 -3.587178387994014e-17

-2.347525413447554e-17 -6.181303927562780e-20  1.016132668547709e+00
-6.181303927562780e-20 -1.442424725834124e-17  4.221769041396336e-01
 1.016132668547709e+00  4.221769041396336e-01 -3.585859589175140e-17

-2.348214182514296e-17 -6.195657916961193e-20  1.016526077230650e+00
-6.195657916961193e-20 -1.443571504553468e-17  4.216481773214188e-01
 1.016526077230650e+00  4.216481773214188e-01 -3.587274858750257e-17

-2.348949146140234e-17 -6.192131306925391e-20  1.016984283339280e+00
-6.192131306925391e-20 -1.445264464375860e-17  4.209801260119148e-01
 1.016984283339280e+00  4.209801260119148e-01 -3.588907909288911e-17

-2.349037896955831e-17 -6.183868648309605e-20  1.016756714042412e+00
-6.183868648309605e-20 -1.444978206720715e-17  4.212280043167763e-01
 1.016756714042412e+00  4.212280043167763e-01 -3.588157803533446e-17

-2.348902673372678e-17 -6.188225997635098e-20  1.016265079096353e+00
-6.188225997635098e-20 -1.444144400788729e-17  4.218876287148188e-01
 1.016265079096353e+00  4.218876287148188e-01 -3.586500227938928e-17

-2.349225364705593e-17 -6.201132150401397e-20  1.016246917976105e+00
-6.201132150401397e-20 -1.444267140824091e-17  4.219173592928076e-01
 1.016246917976105e+00  4.219173592928076e-01 -3.586489698986085e-17

-2.349954957834797e-17 -6.206315953575330e-20  1.016661685613786e+00
-6.206315953575330e-20 -1.445562528370182e-17  4.213251374356574e-01
 1.016661685613786e+00  4.213251374356574e-01 -3.587981242277750e-17

-2.350498984974350e-17 -6.201237377706226e-20  1.016864928994520e+00
-6.201237377706226e-20 -1.446305573124659e-17  4.210256410569116e-01
 1.016864928994520e+00  4.210256410569116e-01 -3.588741805877238e-17

-2.350746788634495e-17 -6.199339020574856e-20  1.016696356856491e+00
-6.199339020574856e-20 -1.446180615816033e-17  4.213551906425368e-01
 1.016696356856491e+00  4.213551906425368e-01 -3.588232331324059e-17

-2.351036916476871e-17 -6.204974353513464e-20  1.016523716130768e+00
-6.204974353513464e-20 -1.445795302021652e-17  4.218100945549437e-01
 1.016523716130768e+00  4.218100945549437e-01 -3.587727250051097e-17

-2.351427042118530e-17 -6.213733938909105e-20  1.016494025622993e+00
-6.213733938909105e-20 -1.445710482283023e-17  4.219795944043524e-01
 1.016494025622993e+00  4.219795944043524e-01 -3.587702583630353e-17

-2.351798689968443e-17 -6.222997780371234e-20  1.016536799997910e+00
-6.222997780371234e-20 -1.446501144492506e-17  4.218131242390012e-01
 1.016536799997910e+00  4.218131242390012e-01 -3.587892959291559e-17

-2.352252494070550e-17 -6.229788350186903e-20  1.016705107163291e+00
-6.229788350186903e-20 -1.447582631020822e-17  4.213789125520639e-01
 1.016705107163291e+00  4.213789125520639e-01 -3.588503584630093e-17

-2.352753444501464e-17 -6.228177370871103e-20  1.016874700869891e+00
-6.228177370871103e-20 -1.448367953532070e-17  4.210603508943332e-01
 1.016874700869891e+00  4.210603508943332e-01 -3.589137044070527e-17

-2.352979299051088e-17 -6.223532933315731e-20  1.016692883919198e+00
-6.223532933315731e-20 -1.448150243203776e-17  4.213474300977697e-01
 1.016692883919198e+00  4.213474300977697e-01 -3.588572400422860e-17

-2.353007595442800e-17 -6.228343684330538e-20  1.016286551977014e+00
-6.228343684330538e-20 -1.447298618671303e-17  4.219452705959833e-01
 1.016286551977014e+00  4.219452705959833e-01 -3.587232639376640e-17

-2.353422242793329e-17 -6.242090817358070e-20  1.016292461025003e+00
-6.242090817358070e-20 -1.447798548689677e-17  4.219465783337881e-01
 1.016292461025003e+00  4.219465783337881e-01 -3.587322429949826e-17

-2.354312578511191e-17 -6.247373565630974e-20  1.016789429768837e+00
-6.247373565630974e-20 -1.449164843481335e-17  4.212958588198396e-01
 1.016789429768837e+00  4.212958588198396e-01 -3.589121045474822e-17

-2.354993198935827e-17 -6.240649793987008e-20  1.017037274008604e+00
-6.240649793987008e-20 -1.450081110732686e-17  4.210350375056254e-01
 1.017037274008604e+00  4.210350375056254e-01 -3.590063548536386e-17

-2.355014105712760e-17 -6.236784796184118e-20  1.016585549642995e+00
-6.236784796184118e-20 -1.449370637238632e-17  4.217063768222346e-01
 1.016585549642995e+00  4.217063768222346e-01 -3.588575292703243e-17

-2.355074806348515e-17 -6.251623915045151e-20  1.016190890939093e+00
-6.251623915045151e-20 -1.448865658728292e-17  4.222542325085321e-01
 1.016190890939093e+00  4.222542325085321e-01 -3.587277814167954e-17

-2.355876801099743e-17 -6.265981176920282e-20  1.016584423989496e+00
-6.265981176920282e-20 -1.450020293340966e-17  4.217275753657616e-01
 1.016584423989496e+00  4.217275753657616e-01 -3.588716384109627e-17

-2.356725946981614e-17 -6.263357578187202e-20  1.017043439645907e+00
-6.263357578187202e-20 -1.451620678285320e-17  4.210606053170519e-01
 1.017043439645907e+00  4.210606053170519e-01 -3.590375206959637e-17

-2.356928959912614e-17 -6.256395027610608e-20  1.016816335499870e+00
-6.256395027610608e-20 -1.451502437790474e-17  4.213098308436036e-01
 1.016816335499870e+00  4.213098308436036e-01 -3.589649879353801e-17

-2.356908007085390e-17 -6.261670785622471e-20  1.016324722453629e+00
-6.261670785622471e-20 -1.450659456490155e-17  4.219713422529390e-01
 1.016324722453629e+00  4.219713422529390e-01 -3.588015685224984e-17

-2.357345208601356e-17 -6.275237199049971e-20  1.016306420597969e+00
-6.275237199049971e-20 -1.450810063618074e-17  4.220030428505860e-01
 1.016306420597969e+00  4.220030428505860e-01 -3.588028105558469e-17

-2.358189987021996e-17 -6.282169127236011e-20  1.016721401072185e+00
-6.282169127236011e-20 -1.452270826790782e-17  4.214121181224427e-01
 1.016721401072185e+00  4.214121181224427e-01 -3.589543936619982e-17

-2.358850095549148e-17 -6.278630928814884e-20  1.016925333483792e+00
-6.278630928814884e-20 -1.453232375637905e-17  4.211131710173429e-01
 1.016925333483792e+00  4.211131710173429e-01 -3.590330624988571e-17

-2.359214096984546e-17 -6.277341161821963e-20  1.016757120613707e+00
-6.277341161821963e-20 -1.453072915418154e-17  4.214436219030127e-01
 1.016757120613707e+00  4.214436219030127e-01 -3.589846307563869e-17

-2.359620409608549e-17 -6.284870994572339e-20  1.016584323764590e+00
-6.284870994572339e-20 -1.452900088097986e-17  4.219001669783626e-01
 1.016584323764590e+00  4.219001669783626e-01 -3.589364806360297e-17

-2.360127562590182e-17 -6.294460769567465e-20  1.016554801696018e+00
-6.294460769567465e-20 -1.452975805224140e-17  4.220709498227993e-01
 1.016554801696018e+00  4.220709498227993e-01 -3.589365093962197e-17

-2.360616822226738e-17 -6.304449666784280e-20  1.016597906255802e+00
-6.304449666784280e-20 -1.453616603562519e-17  4.219053724034884e-01
 1.016597906255802e+00  4.219053724034884e-01 -3.589581078699204e-17

-2.361188374112079e-17 -6.311661091052444e-20  1.016766263414056e+00
-6.311661091052444e-20 -1.454669129636572e-17  4.214721302002961e-01
 1.016766263414056e+00  4.214721302002961e-01 -3.590216529581042e-17

-2.361807668272761e-17 -6.311980598280337e-20  1.016936077670634e+00
-6.311980598280337e-20 -1.455535456973357e-17  4.211542470931997e-01
 1.016936077670634e+00  4.211542470931997e-01 -3.590875602624371e-17

-2.362152351188337e-17 -6.308708289370323e-20  1.016754458145100e+00
-6.308708289370323e-20 -1.455622171305190e-17  4.214419944828545e-01
 1.016754458145100e+00  4.214419944828545e-01 -3.590336734216651e-17

-2.362300045663399e-17 -6.315120819645167e-20  1.016348272808828e+00
-6.315120819645167e-20 -1.454809614841133e-17  4.220405396997385e-01
 1.016348272808828e+00  4.220405396997385e-01 -3.589022837268547e-17

-2.362834656837218e-17 -6.330376057569220e-20  1.016354344721619e+00
-6.330376057569220e-20 -1.455343169726363e-17  4.220426135440748e-01
 1.016354344721619e+00  4.220426135440748e-01 -3.589138766934206e-17

-2.363845172889326e-17 -6.336799024678001e-20  1.016851163076224e+00
-6.336799024678001e-20 -1.457021635498721e-17  4.213929326362945e-01
 1.016851163076224e+00  4.213929326362945e-01 -3.590962665883889e-17

-2.364647457835392e-17 -6.330952340285901e-20  1.017099686406752e+00
-6.330952340285901e-20 -1.457930604508556e-17  4.211323243005239e-01
 1.017099686406752e+00  4.211323243005239e-01 -3.591933639630655e-17

-2.364791256455649e-17 -6.328609785564846e-20  1.016649124332890e+00
-6.328609785564846e-20 -1.457125431451184e-17  4.218037184633752e-01
 1.016649124332890e+00  4.218037184633752e-01 -3.590475875334196e-17

-2.364973162507834e-17 -6.344599824530175e-20  1.016253444767570e+00
-6.344599824530175e-20 -1.456712647538389e-17  4.223540317797732e-01
 1.016253444767570e+00  4.223540317797732e-01 -3.589201497204438e-17

-2.365895847545072e-17 -6.361393584673991e-20  1.016645219062290e+00
-6.361393584673991e-20 -1.458167511732975e-17  4.218298650393045e-01
 1.016645219062290e+00  4.218298650393045e-01 -3.590660691839113e-17

-2.366869273998603e-17 -6.360469863505384e-20  1.017105615832067e+00
-6.360469863505384e-20 -1.459629196259221e-17  4.211609428710082e-01
 1.017105615832067e+00  4.211609428710082e-01 -3.592351366310101e-17

-2.367198816965103e-17 -6.354643942073287e-20  1.016881363417179e+00
-6.354643942073287e-20 -1.459505333277173e-17  4.214067706316341e-01
 1.016881363417179e+00  4.214067706316341e-01 -3.591663314072279e-17

-2.367301942283503e-17 -6.361330838569065e-20  1.016389055413035e+00
-6.361330838569065e-20 -1.458898990929234e-17  4.220701148892670e-01
 1.016389055413035e+00  4.220701148892670e-01 -3.590054516831205e-17

-2.367862019480488e-17 -6.376347599833001e-20  1.016367987168036e+00
-6.376347599833001e-20 -1.459185877742380e-17  4.221067941122137e-01
 1.016367987168036e+00  4.221067941122137e-01 -3.590085462111282e-17

-2.368833559421608e-17 -6.384820747682784e-20  1.016783488210834e+00
-6.384820747682784e-20 -1.460695494048173e-17  4.215168252214044e-01
 1.016783488210834e+00  4.215168252214044e-01 -3.591631618702707e-17

-2.369622645669585e-17 -6.382774879754176e-20  1.016989751357626e+00
-6.382774879754176e-20 -1.461780065540461e-17  4.212156760355377e-01
 1.016989751357626e+00  4.212156760355377e-01 -3.592455233995473e-17

-2.370113899685554e-17 -6.383434266605371e-20  1.016821661942980e+00
-6.383434266605371e-20 -1.461677623516914e-17  4.215457841095272e-01
 1.016821661942980e+00  4.215457841095272e-01 -3.592000264972841e-17

-2.370647571494019e-17 -6.392028230539338e-20  1.016648216961128e+00
-6.392028230539338e-20 -1.461432809083506e-17  4.220032778526462e-01
 1.016648216961128e+00  4.220032778526462e-01 -3.591545856950333e-17

-2.371283648423355e-17 -6.403496280080450e-20  1.016618764554882e+00
-6.403496280080450e-20 -1.461683213497374e-17  4.221747399037336e-01
 1.016618764554882e+00  4.221747399037336e-01 -3.591576139351259e-17

-2.371902427681560e-17 -6.415345022709616e-20  1.016661733782870e+00
-6.415345022709616e-20 -1.462319275929981e-17  4.220100750411265e-01
 1.016661733782870e+00  4.220100750411265e-01 -3.591821845566631e-17

-2.372604527980537e-17 -6.425098016406910e-20  1.016830231029716e+00
-6.425098016406910e-20 -1.463535672001515e-17  4.215771860765876e-01
 1.016830231029716e+00  4.215771860765876e-01 -3.592488237705039e-17

-2.373355893026813e-17 -6.426489060763955e-20  1.017000827294893e+00
-6.426489060763955e-20 -1.464516592829099e-17  4.212589830185150e-01
 1.017000827294893e+00  4.212589830185150e-01 -3.593180960325977e-17

-2.373833065986991e-17 -6.425389170342527e-20  1.016819532607178e+00
-6.425389170342527e-20 -1.464410964848506e-17  4.215471140149805e-01
 1.016819532607178e+00  4.215471140149805e-01 -3.592674587188876e-17

-2.374113021981813e-17 -6.433917254112445e-20  1.016412604950092e+00
-6.433917254112445e-20 -1.463956720609345e-17  4.221472349221878e-01
 1.016412604950092e+00  4.221472349221878e-01 -3.591389894347976e-17

-2.374781687804702e-17 -6.450003609054109e-20  1.016418881397818e+00
-6.450003609054109e-20 -1.464473404120616e-17  4.221496487534881e-01
 1.016418881397818e+00  4.221496487534881e-01 -3.591538708966042e-17

-2.375928147445786e-17 -6.459387032277546e-20  1.016916979576714e+00
-6.459387032277546e-20 -1.466196975627802e-17  4.214990534950135e-01
 1.016916979576714e+00  4.214990534950135e-01 -3.593399604179126e-17

-2.376864882620075e-17 -6.454929924722568e-20  1.017164527906093e+00
-6.454929924722568e-20 -1.466900494231537e-17  4.212398331033118e-01
 1.017164527906093e+00  4.212398331033118e-01 -3.594400145198410e-17

-2.377143692453693e-17 -6.454570030182458e-20  1.016712710742679e+00
-6.454570030182458e-20 -1.466383013429855e-17  4.219125656878232e-01
 1.016712710742679e+00  4.219125656878232e-01 -3.592971442827699e-17

-2.377465462715146e-17 -6.472655918409201e-20  1.016319433777532e+00
-6.472655918409201e-20 -1.466024495659919e-17  4.224602121074095e-01
 1.016319433777532e+00  4.224602121074095e-01 -3.591739435234326e-17

-2.378528802015307e-17 -6.490350274358280e-20  1.016713104331787e+00
-6.490350274358280e-20 -1.467422568397493e-17  4.219347843234729e-01
 1.016713104331787e+00  4.219347843234729e-01 -3.593239810035524e-17

-2.379639763452474e-17 -6.491969226141288e-20  1.017171188142361e+00
-6.491969226141288e-20 -1.469081634693223e-17  4.212701438192300e-01
 1.017171188142361e+00  4.212701438192300e-01 -3.594957439196513e-17

-2.380108004734784e-17 -6.487784045398069e-20  1.016944864033041e+00
-6.487784045398069e-20 -1.469027442989720e-17  4.215197124611272e-01
 1.016944864033041e+00  4.215197124611272e-01 -3.594297783163905e-17

-2.380354431620353e-17 -6.497295888154000e-20  1.016454464001848e+00
-6.497295888154000e-20 -1.468580139333301e-17  4.221808687644960e-01
 1.016454464001848e+00  4.221808687644960e-01 -3.592731624830436e-17

-2.381059417834156e-17 -6.514762153783520e-20  1.016436073705294e+00
-6.514762153783520e-20 -1.468994211369859e-17  4.222137031478055e-01
 1.016436073705294e+00  4.222137031478055e-01 -3.592808334753936e-17

-2.382173873921969e-17 -6.525245854911265e-20  1.016850998282234e+00
-6.525245854911265e-20 -1.470345179270217e-17  4.216241746601266e-01
 1.016850998282234e+00  4.216241746601266e-01 -3.594389454734648e-17

-2.383105811083911e-17 -6.525142608967425e-20  1.017055174301103e+00
-6.525142608967425e-20 -1.471205906549144e-17  4.213262847900527e-01
 1.017055174301103e+00  4.213262847900527e-01 -3.595243412584619e-17

-2.383743376112294e-17 -6.528456593331126e-20  1.016887094238690e+00
-6.528456593331126e-20 -1.471468261128344e-17  4.216576388874869e-01
 1.016887094238690e+00  4.216576388874869e-01 -3.594826932848146e-17

-2.384425796599207e-17 -6.539011358926488e-20  1.016715072457463e+00
-6.539011358926488e-20 -1.471257710115137e-17  4.221141927903440e-01
 1.016715072457463e+00  4.221141927903440e-01 -3.594416452283222e-17

-2.385210731707193e-17 -6.553231898546305e-20  1.016686056168959e+00
-6.553231898546305e-20 -1.471516222849131e-17  4.222853658571091e-01
 1.016686056168959e+00  4.222853658571091e-01 -3.594487737850129e-17

-2.385978816816813e-17 -6.567062602587223e-20  1.016728713526067e+00
-6.567062602587223e-20 -1.472157535411741e-17  4.221213150305297e-01
 1.016728713526067e+00  4.221213150305297e-01 -3.594772437350630e-17

-2.386832060230109e-17 -6.579149515093279e-20  1.016897406098276e+00
-6.579149515093279e-20 -1.473454798914505e-17  4.216887769579823e-01
 1.016897406098276e+00  4.216887769579823e-01 -3.595480336432295e-17

-2.387735851296627e-17 -6.583892538630340e-20  1.017068150617182e+00
-6.583892538630340e-20 -1.474639085514195e-17  4.213709421407433e-01
 1.017068150617182e+00  4.213709421407433e-01 -3.596215043714849e-17

-2.388366288466666e-17 -6.584208531997026e-20  1.016886525781890e+00
-6.584208531997026e-20 -1.474431815313219e-17  4.216597528700482e-01
 1.016886525781890e+00  4.216597528700482e-01 -3.595749668368938e-17

-2.388801839502039e-17 -6.594863061153748e-20  1.016480252163061e+00
-6.594863061153748e-20 -1.474040875886134e-17  4.222595141270655e-01
 1.016480252163061e+00  4.222595141270655e-01 -3.594510107605436e-17

-2.389627586018889e-17 -6.614693812107717e-20  1.016487236772962e+00
-6.614693812107717e-20 -1.474506705770597e-17  4.222616725300252e-01
 1.016487236772962e+00  4.222616725300252e-01 -3.594705015125823e-17

-2.390931140568095e-17 -6.625157340931870e-20  1.016984606229763e+00
-6.625157340931870e-20 -1.476086828700366e-17  4.216124559844982e-01
 1.016984606229763e+00  4.216124559844982e-01 -3.596607745562102e-17

-2.392027121491339e-17 -6.624801398967388e-20  1.017232062341236e+00
-6.624801398967388e-20 -1.477141141684588e-17  4.213538524238614e-01
 1.017232062341236e+00  4.213538524238614e-01 -3.597653090753829e-17

-2.392467615280181e-17 -6.626883836331552e-20  1.016781106066357e+00
-6.626883836331552e-20 -1.476559203507026e-17  4.220260279418387e-01
 1.016781106066357e+00  4.220260279418387e-01 -3.596273316327815e-17

-2.392951508260697e-17 -6.646696662494817e-20  1.016387741283422e+00
-6.646696662494817e-20 -1.475964765789898e-17  4.225740134793051e-01
 1.016387741283422e+00  4.225740134793051e-01 -3.595087697974727e-17

-2.394178717100254e-17 -6.668133390922887e-20  1.016781455134355e+00
-6.668133390922887e-20 -1.477566926785845e-17  4.220488468778857e-01
 1.016781455134355e+00  4.220488468778857e-01 -3.596635738982781e-17

-2.395455985201293e-17 -6.672066908022381e-20  1.017240255452977e+00
-6.672066908022381e-20 -1.479402379717303e-17  4.213840165479696e-01
 1.017240255452977e+00  4.213840165479696e-01 -3.598404301704790e-17

-2.396091047642460e-17 -6.671795506412728e-20  1.017013482636021e+00
-6.671795506412728e-20 -1.479580233711372e-17  4.216346900363078e-01
 1.017013482636021e+00  4.216346900363078e-01 -3.597792398692300e-17

-2.396505886548735e-17 -6.683208056238694e-20  1.016522607636173e+00
-6.683208056238694e-20 -1.479010160854455e-17  4.222968369237369e-01
 1.016522607636173e+00  4.222968369237369e-01 -3.596274787042135e-17

-2.397382579698842e-17 -6.703836259906967e-20  1.016505316203377e+00
-6.703836259906967e-20 -1.479343618081545e-17  4.223287578781980e-01
 1.016505316203377e+00  4.223287578781980e-01 -3.596406455246556e-17

-2.398669943417286e-17 -6.717049997325343e-20  1.016920794113525e+00
-6.717049997325343e-20 -1.480743514459955e-17  4.217388762404672e-01
 1.016920794113525e+00  4.217388762404672e-01 -3.598041547179967e-17

-2.399775457009121e-17 -6.721342033093372e-20  1.017124307889849e+00
-6.721342033093372e-20 -1.481999813873501e-17  4.214421647864086e-01
 1.017124307889849e+00  4.214421647864086e-01 -3.598946231396953e-17

-2.400589298218252e-17 -6.726693532511610e-20  1.016956304256387e+00
-6.726693532511610e-20 -1.482046180186986e-17  4.217740808957881e-01
 1.016956304256387e+00  4.217740808957881e-01 -3.598584128572381e-17

-2.401450250198698e-17 -6.740547033937292e-20  1.016784713645661e+00
-6.740547033937292e-20 -1.481884713953742e-17  4.222306618139502e-01
 1.016784713645661e+00  4.222306618139502e-01 -3.598230289166247e-17

-2.402415126140684e-17 -6.757349361218686e-20  1.016755674206531e+00
-6.757349361218686e-20 -1.482055376474091e-17  4.224021187850841e-01
 1.016755674206531e+00  4.224021187850841e-01 -3.598357636876726e-17

-2.403365639581031e-17 -6.774898591809909e-20  1.016798765347263e+00
-6.774898591809909e-20 -1.482835321340721e-17  4.222378845942233e-01
 1.016798765347263e+00  4.222378845942233e-01 -3.598701076077213e-17

-2.404403315116596e-17 -6.789828292244103e-20  1.016967788161974e+00
-6.789828292244103e-20 -1.483949015661716e-17  4.218054303577289e-01
 1.016967788161974e+00  4.218054303577289e-01 -3.599468483058155e-17

-2.405492983113055e-17 -6.797521061744088e-20  1.017138159297234e+00
-6.797521061744088e-20 -1.485006920873261e-17  4.214885439298751e-01
 1.017138159297234e+00  4.214885439298751e-01 -3.600261401974668e-17

-2.406311980014944e-17 -6.802167282425239e-20  1.016956626587404e+00
-6.802167282425239e-20 -1.484896411589670e-17  4.217777993421281e-01
 1.016956626587404e+00  4.217777993421281e-01 -3.599857080712453e-17

-2.406938629789614e-17 -6.816435734743906e-20  1.016550798021854e+00
-6.816435734743906e-20 -1.484706548131359e-17  4.223774525629662e-01
 1.016550798021854e+00  4.223774525629662e-01 -3.598681015452566e-17

-2.407957413382558e-17 -6.839123741455607e-20  1.016557950176190e+00
-6.839123741455607e-20 -1.485384890238327e-17  4.223796761521699e-01
 1.016557950176190e+00  4.223796761521699e-01 -3.598939655802255e-17

-2.409456494309641e-17 -6.853681147364014e-20  1.017055595530600e+00
-6.853681147364014e-20 -1.486648194923344e-17  4.217305299651868e-01
 1.017055595530600e+00  4.217305299651868e-01 -3.600907777280653e-17

-2.410750165908550e-17 -6.856511265291946e-20  1.017303043317563e+00
-6.856511265291946e-20 -1.487811023293977e-17  4.214724429244076e-01
 1.017303043317563e+00  4.214724429244076e-01 -3.602018870617477e-17

-2.411390649341306e-17 -6.862743514259773e-20  1.016851881209250e+00
-6.862743514259773e-20 -1.487421933675849e-17  4.221453364650661e-01
 1.016851881209250e+00  4.221453364650661e-01 -3.600705539013438e-17

-2.412077749968401e-17 -6.885675970790358e-20  1.016459014948092e+00
-6.885675970790358e-20 -1.486712269546227e-17  4.226932076689048e-01
 1.016459014948092e+00  4.226932076689048e-01 -3.599590211826001e-17

-2.413510598422689e-17 -6.911300738843135e-20  1.016853119625068e+00
-6.911300738843135e-20 -1.488180535879211e-17  4.221679684536438e-01
 1.016853119625068e+00  4.221679684536438e-01 -3.601209547095980e-17

-2.414995426764954e-17 -6.918818124119136e-20  1.017311605778642e+00
-6.918818124119136e-20 -1.490001843513969e-17  4.215038055668948e-01
 1.017311605778642e+00  4.215038055668948e-01 -3.603048391808541e-17

-2.415841420822329e-17 -6.922543381865082e-20  1.017085082662185e+00
-6.922543381865082e-20 -1.490034598445119e-17  4.217546208853959e-01
 1.017085082662185e+00  4.217546208853959e-01 -3.602510307953368e-17

-2.416470366856082e-17 -6.937695366342930e-20  1.016594784899005e+00
-6.937695366342930e-20 -1.489332691718676e-17  4.224166336070296e-01
 1.016594784899005e+00  4.224166336070296e-01 -3.601069246893247e-17

-2.417563048828683e-17 -6.962780680301252e-20  1.016577134067443e+00
-6.962780680301252e-20 -1.489952618607258e-17  4.224493746216587e-01
 1.016577134067443e+00  4.224493746216587e-01 -3.601275747433645e-17

-2.419069616307776e-17 -6.980458803070239e-20  1.016992559564720e+00
-6.980458803070239e-20 -1.491442262507856e-17  4.218598982381663e-01
 1.016992559564720e+00  4.218598982381663e-01 -3.602988358754407e-17

-2.420398373055587e-17 -6.987281683778552e-20  1.017196996998001e+00
-6.987281683778552e-20 -1.492495369429631e-17  4.215625626698787e-01
 1.017196996998001e+00  4.215625626698787e-01 -3.603975694393493e-17

-2.421437620788157e-17 -6.996955928109001e-20  1.017028947826648e+00
-6.996955928109001e-20 -1.492559400868255e-17  4.218949512946941e-01
 1.017028947826648e+00  4.218949512946941e-01 -3.603694611622378e-17

-2.422526581165172e-17 -7.014811308060771e-20  1.016856741783047e+00
-7.014811308060771e-20 -1.492253426227838e-17  4.223526169416792e-01
 1.016856741783047e+00  4.223526169416792e-01 -3.603421584671680e-17

-2.423724069448906e-17 -7.036329523265468e-20  1.016828401881177e+00
-7.036329523265468e-20 -1.492401407206707e-17  4.225236967058238e-01
 1.016828401881177e+00  4.225236967058238e-01 -3.603636177143899e-17

-2.424910500116202e-17 -7.058062121495070e-20  1.016872164006083e+00
-7.058062121495070e-20 -1.493352537966611e-17  4.223590948069065e-01
 1.016872164006083e+00  4.223590948069065e-01 -3.604068628339541e-17

-2.426186342404491e-17 -7.078494827556598e-20  1.017040673070955e+00
-7.078494827556598e-20 -1.494444221922408e-17  4.219276162580881e-01
 1.017040673070955e+00  4.219276162580881e-01 -3.604922825712303e-17

-2.427518126970805e-17 -7.090098714914932e-20  1.017210927773505e+00
-7.090098714914932e-20 -1.495334938554590e-17  4.216113084955397e-01
 1.017210927773505e+00  4.216113084955397e-01 -3.605805939193722e-17

-2.428583686262603e-17 -7.099251461589029e-20  1.017030065237524e+00
-7.099251461589029e-20 -1.495397254127774e-17  4.219002003075363e-01
 1.017030065237524e+00  4.219002003075363e-01 -3.605496642667415e-17

-2.429460218354446e-17 -7.117589643516408e-20  1.016624507846905e+00
-7.117589643516408e-20 -1.495022174718578e-17  4.224998849430963e-01
 1.016624507846905e+00  4.224998849430963e-01 -3.604416323730483e-17

-2.430732257612941e-17 -7.145128268858802e-20  1.016631477550433e+00
-7.145128268858802e-20 -1.495456988450296e-17  4.225027051243608e-01
 1.016631477550433e+00  4.225027051243608e-01 -3.604771279634809e-17

-2.432488746599017e-17 -7.164767421003724e-20  1.017129165660887e+00
-7.164767421003724e-20 -1.496967279141908e-17  4.218539243945217e-01
 1.017129165660887e+00  4.218539243945217e-01 -3.606838724659001e-17

-2.434044099533605e-17 -7.172008964535207e-20  1.017376889439068e+00
-7.172008964535207e-20 -1.498116112156295e-17  4.215958789494727e-01
 1.017376889439068e+00  4.215958789494727e-01 -3.608052269190829e-17

-2.434950392876809e-17 -7.181807374740983e-20  1.016925954058153e+00
-7.181807374740983e-20 -1.497235753606697e-17  4.222688442674530e-01
 1.016925954058153e+00  4.222688442674530e-01 -3.606843616682377e-17

-2.435907709871060e-17 -7.211918802615384e-20  1.016533393323784e+00
-7.211918802615384e-20 -1.496843432256053e-17  4.228168093640109e-01
 1.016533393323784e+00  4.228168093640109e-01 -3.605835691066723e-17

-2.437614905002495e-17 -7.241515159204330e-20  1.016927591990836e+00
-7.241515159204330e-20 -1.498123959453845e-17  4.222919949168363e-01
 1.016927591990836e+00  4.222919949168363e-01 -3.607564165648955e-17

-2.439378017144360e-17 -7.254144955228506e-20  1.017385659284004e+00
-7.254144955228506e-20 -1.499685400045818e-17  4.216286981032774e-01
 1.017385659284004e+00  4.216286981032774e-01 -3.609512906577298e-17

-2.440507485593748e-17 -7.262066940756420e-20  1.017159305310077e+00
-7.262066940756420e-20 -1.499664191083846e-17  4.218795207859629e-01
 1.017159305310077e+00  4.218795207859629e-01 -3.609089442294043e-17

-2.441425550664467e-17 -7.282951816552825e-20  1.016670016691674e+00
-7.282951816552825e-20 -1.499224835777136e-17  4.225406086911276e-01
 1.016670016691674e+00  4.225406086911276e-01 -3.607768698166516e-17

-2.442811403574959e-17 -7.312808590118678e-20  1.016652512834673e+00
-7.312808590118678e-20 -1.499548972070996e-17  4.225735888810084e-01
 1.016652512834673e+00  4.225735888810084e-01 -3.608095317272737e-17

-2.444615214830405e-17 -7.335641869169793e-20  1.017067115545243e+00
-7.335641869169793e-20 -1.501016451519450e-17  4.219855818174221e-01
 1.017067115545243e+00  4.219855818174221e-01 -3.609927545057850e-17

-2.446247223168102e-17 -7.348648810158986e-20  1.017271566203497e+00
-7.348648810158986e-20 -1.502023213760046e-17  4.216886733627658e-01
 1.017271566203497e+00  4.216886733627658e-01 -3.611040411703904e-17

-2.447596038758797e-17 -7.363802944369478e-20  1.017104552672003e+00
-7.363802944369478e-20 -1.501951088632748e-17  4.220201565213846e-01
 1.017104552672003e+00  4.220201565213846e-01 -3.610891518343772e-17

-2.448999325776213e-17 -7.387180663535555e-20  1.016932685951557e+00
-7.387180663535555e-20 -1.501473347138419e-17  4.224776966835682e-01
 1.016932685951557e+00  4.224776966835682e-01 -3.610751411490849e-17

-2.450515827655593e-17 -7.413835574822137e-20  1.016903746427944e+00
-7.413835574822137e-20 -1.501755200890613e-17  4.226498340129964e-01
 1.016903746427944e+00  4.226498340129964e-01 -3.611098896043830e-17

-2.452027676243958e-17 -7.441169115672538e-20  1.016947526187672e+00
-7.441169115672538e-20 -1.502471838095982e-17  4.224856446803929e-01
 1.016947526187672e+00  4.224856446803929e-01 -3.611669745185971e-17

-2.453635352834340e-17 -7.466676378303560e-20  1.017116576419267e+00
-7.466676378303560e-20 -1.503566141046250e-17  4.220538467180072e-01
 1.017116576419267e+00  4.220538467180072e-01 -3.612667601643411e-17

-2.455304720863752e-17 -7.483667602577719e-20  1.017287022302187e+00
-7.483667602577719e-20 -1.504224486892896e-17  4.217375395282886e-01
 1.017287022302187e+00  4.217375395282886e-01 -3.613696708934789e-17

-2.456714122035759e-17 -7.499367860087202e-20  1.017106232298643e+00
-7.499367860087202e-20 -1.504399615130687e-17  4.220267219782282e-01
 1.017106232298643e+00  4.220267219782282e-01 -3.613536712051606e-17

-2.457940742616320e-17 -7.522618837316948e-20  1.016700510353557e+00
-7.522618837316948e-20 -1.503706284895313e-17  4.226269858073120e-01
 1.016700510353557e+00  4.226269858073120e-01 -3.612608663829619e-17

-2.459569663732722e-17 -7.555647421966312e-20  1.016707505871175e+00
-7.555647421966312e-20 -1.503967415945439e-17  4.226300334525693e-01
 1.016707505871175e+00  4.226300334525693e-01 -3.613120414711975e-17

-2.461690505644216e-17 -7.581909530501241e-20  1.017205844953187e+00
-7.581909530501241e-20 -1.505468239933359e-17  4.219807529117268e-01
 1.017205844953187e+00  4.219807529117268e-01 -3.615350838658306e-17

-2.463616841949617e-17 -7.594913956400298e-20  1.017453748045501e+00
-7.594913956400298e-20 -1.506203292802997e-17  4.217228220163287e-01
 1.017453748045501e+00  4.217228220163287e-01 -3.616729882328612e-17

-2.464900987071023e-17 -7.610946307044021e-20  1.017002512261201e+00
-7.610946307044021e-20 -1.505436123078583e-17  4.223965683760301e-01
 1.017002512261201e+00  4.223965683760301e-01 -3.615689374886231e-17

-2.466243921863505e-17 -7.645664888532190e-20  1.016609971099280e+00
-7.645664888532190e-20 -1.504812456214580e-17  4.229449396337130e-01
 1.016609971099280e+00  4.229449396337130e-01 -3.614855102800873e-17

-2.468344465187676e-17 -7.682240005033291e-20  1.017004338148739e+00
-7.682240005033291e-20 -1.505987238881728e-17  4.224200591219187e-01
 1.017004338148739e+00  4.224200591219187e-01 -3.616762207258565e-17

-2.470509171704440e-17 -7.700619106455811e-20  1.017462910465957e+00
-7.700619106455811e-20 -1.507395628541468e-17  4.217562575194460e-01
 1.017462910465957e+00  4.217562575194460e-01 -3.618895425673537e-17

-2.472048399939191e-17 -7.715828768256331e-20  1.017236917135057e+00
-7.715828768256331e-20 -1.507156997213049e-17  4.220069862222597e-01
 1.017236917135057e+00  4.220069862222597e-01 -3.618660833925670e-17

-2.473383745693911e-17 -7.742028173387450e-20  1.016747052087631e+00
-7.742028173387450e-20 -1.506636602305055e-17  4.226691605968361e-01
 1.016747052087631e+00  4.226691605968361e-01 -3.617530697381101e-17

-2.475195906231034e-17 -7.778148022935939e-20  1.016729368009409e+00
-7.778148022935939e-20 -1.506875485317238e-17  4.227026950595915e-01
 1.016729368009409e+00  4.227026950595915e-01 -3.618054413736996e-17

-2.477435765346369e-17 -7.807326419442885e-20  1.017144671243575e+00
-7.807326419442885e-20 -1.507896709679260e-17  4.221140407266204e-01
 1.017144671243575e+00  4.221140407266204e-01 -3.620092073081498e-17

-2.479512590540994e-17 -7.826242275492882e-20  1.017349401006084e+00
-7.826242275492882e-20 -1.508547605732860e-17  4.218168509268790e-01
 1.017349401006084e+00  4.218168509268790e-01 -3.621414365968852e-17

-2.481315450227990e-17 -7.847568879266983e-20  1.017182298756391e+00
-7.847568879266983e-20 -1.508320077111125e-17  4.221486641174882e-01
 1.017182298756391e+00  4.221486641174882e-01 -3.621479315019362e-17

-2.483182729337427e-17 -7.877355392168446e-20  1.017010422814540e+00
-7.877355392168446e-20 -1.507830414059242e-17  4.226066315159751e-01
 1.017010422814540e+00  4.226066315159751e-01 -3.621559192734162e-17

-2.485173222507829e-17 -7.910627930172241e-20  1.016981423340702e+00
-7.910627930172241e-20 -1.507927844630856e-17  4.227791656932957e-01
 1.016981423340702e+00  4.227791656932957e-01 -3.622132471890926e-17

-2.487169628544425e-17 -7.943055512574235e-20  1.017025391909594e+00
-7.943055512574235e-20 -1.508130850812464e-17  4.226149167631932e-01
 1.017025391909594e+00  4.226149167631932e-01 -3.622936149937789e-17

-2.489272760800945e-17 -7.975680215419876e-20  1.017194827207928e+00
-7.975680215419876e-20 -1.509053321836693e-17  4.221827599896354e-01
 1.017194827207928e+00  4.221827599896354e-01 -3.624173909648407e-17

-2.491448245198875e-17 -8.000015638676414e-20  1.017365229730622e+00
-8.000015638676414e-20 -1.509847681154130e-17  4.218665930398233e-01
 1.017365229730622e+00  4.218665930398233e-01 -3.625448054214695e-17

-2.493375102317826e-17 -8.020005143415137e-20  1.017184267062058e+00
-8.020005143415137e-20 -1.509115651869837e-17  4.221561388931628e-01
 1.017184267062058e+00  4.221561388931628e-01 -3.625539525154997e-17

-2.495131489153778e-17 -8.050475048234267e-20  1.016778826665370e+00
-8.050475048234267e-20 -1.508605298430877e-17  4.227563223197150e-01
 1.016778826665370e+00  4.227563223197150e-01 -3.624871628575950e-17

-2.497302181947118e-17 -8.090190077164716e-20  1.016785989521949e+00
-8.090190077164716e-20 -1.508418762829550e-17  4.227593787798642e-01
 1.016785989521949e+00  4.227593787798642e-01 -3.625650403551355e-17

-2.499976981835883e-17 -8.122227553279830e-20  1.017284190423523e+00
-8.122227553279830e-20 -1.509546220520300e-17  4.221103944224996e-01
 1.017284190423523e+00  4.221103944224996e-01 -3.628154292622142e-17

-2.502470446072159e-17 -8.141281464402044e-20  1.017532145954477e+00
-8.141281464402044e-20 -1.510374126403726e-17  4.218525157860044e-01
 1.017532145954477e+00  4.218525157860044e-01 -3.629815280623572e-17

-2.504335126469485e-17 -8.163462110745194e-20  1.017080975051046e+00
-8.163462110745194e-20 -1.509249619003405e-17  4.225262076074694e-01
 1.017080975051046e+00  4.225262076074694e-01 -3.629064843744767e-17

-2.506272578683143e-17 -8.204232860226340e-20  1.016688671861793e+00
-8.204232860226340e-20 -1.508117976458104e-17  4.230742948095134e-01
 1.016688671861793e+00  4.230742948095134e-01 -3.628529572630000e-17

-2.508982062911194e-17 -8.246409778292825e-20  1.017083426480984e+00
-8.246409778292825e-20 -1.509152571552540e-17  4.225491528710533e-01
 1.017083426480984e+00  4.225491528710533e-01 -3.630744797447658e-17

-2.511769554063189e-17 -8.271564976922618e-20  1.017541486609592e+00
-8.271564976922618e-20 -1.510096314160753e-17  4.218861334540624e-01
 1.017541486609592e+00  4.218861334540624e-01 -3.633191890485796e-17

-2.513946746402968e-17 -8.291158238011985e-20  1.017314962812442e+00
-8.291158238011985e-20 -1.509785809228546e-17  4.221374784134387e-01
 1.017314962812442e+00  4.221374784134387e-01 -3.633280336757282e-17

-2.515937259345326e-17 -8.323075774548279e-20  1.016826017984811e+00
-8.323075774548279e-20 -1.508653032199926e-17  4.227985121801152e-01
 1.016826017984811e+00  4.227985121801152e-01 -3.632487853320917e-17

-2.518420458904064e-17 -8.364080715200182e-20  1.016808901003899e+00
-8.364080715200182e-20 -1.508407783005414e-17  4.228313093744456e-01
 1.016808901003899e+00  4.228313093744456e-01 -3.633357824590056e-17

-2.521346801544978e-17 -8.398924922080757e-20  1.017223396865639e+00
-8.398924922080757e-20 -1.509274027686632e-17  4.222436105869506e-01
 1.017223396865639e+00  4.222436105869506e-01 -3.635747124696591e-17

-2.524128098908000e-17 -8.422721066630149e-20  1.017427857242308e+00
-8.422721066630149e-20 -1.509604219896439e-17  4.219469080512720e-01
 1.017427857242308e+00  4.219469080512720e-01 -3.637433541653506e-17

-2.526654079805984e-17 -8.449271837342989e-20  1.017261165058563e+00
-8.449271837342989e-20 -1.509029752039275e-17  4.222782580511174e-01
 1.017261165058563e+00  4.222782580511174e-01 -3.637875935227904e-17

-2.529262716661981e-17 -8.482812834766312e-20  1.017089433663367e+00
-8.482812834766312e-20 -1.508023840230091e-17  4.227358232779152e-01
 1.017089433663367e+00  4.227358232779152e-01 -3.638343619619128e-17

-2.532013737692818e-17 -8.520381736923038e-20  1.017060523403823e+00
-8.520381736923038e-20 -1.507561389831135e-17  4.229080724975517e-01
 1.017060523403823e+00  4.229080724975517e-01 -3.639316222615490e-17

-2.534790290153418e-17 -8.558841333398031e-20  1.017104292783134e+00
-8.558841333398031e-20 -1.507713887509592e-17  4.227439461144522e-01
 1.017104292783134e+00  4.227439461144522e-01 -3.640530345157063e-17

-2.537694134470391e-17 -8.593481721257481e-20  1.017273537515287e+00
-8.593481721257481e-20 -1.507725942456835e-17  4.223119215414247e-01
 1.017273537515287e+00  4.223119215414247e-01 -3.642191146828251e-17

-2.540692122111676e-17 -8.622241490311442e-20  1.017444186671592e+00
-8.622241490311442e-20 -1.508180595487202e-17  4.219954065867779e-01
 1.017444186671592e+00  4.219954065867779e-01 -3.643902909676303e-17

-2.543463134897323e-17 -8.645479492054979e-20  1.017263073515124e+00
-8.645479492054979e-20 -1.507207373437528e-17  4.222849332100442e-01
 1.017263073515124e+00  4.222849332100442e-01 -3.644444126991659e-17

-2.546086524752751e-17 -8.678522497389187e-20  1.016857492092216e+00
-8.678522497389187e-20 -1.505493446533516e-17  4.228850111011474e-01
 1.016857492092216e+00  4.228850111011474e-01 -3.644240011524119e-17

-2.549148331573102e-17 -8.720253976886104e-20  1.016864999713457e+00
-8.720253976886104e-20 -1.505125767908476e-17  4.228874376410812e-01
 1.016864999713457e+00  4.228874376410812e-01 -3.645498755737269e-17

-2.552738108826540e-17 -8.754203349796028e-20  1.017362957583152e+00
-8.754203349796028e-20 -1.506054060884851e-17  4.222384278768334e-01
 1.017362957583152e+00  4.222384278768334e-01 -3.648495569416133e-17

-2.556171853936396e-17 -8.775290309201839e-20  1.017610555447017e+00
-8.775290309201839e-20 -1.505789975211330e-17  4.219806519553769e-01
 1.017610555447017e+00  4.219806519553769e-01 -3.650664706958199e-17

-2.559003815910830e-17 -8.798188841813550e-20  1.017159647348090e+00
-8.798188841813550e-20 -1.504106798618002e-17  4.226537794534340e-01
 1.017159647348090e+00  4.226537794534340e-01 -3.650440827360547e-17

-2.561935489574548e-17 -8.838647211749237e-20  1.016767326547608e+00
-8.838647211749237e-20 -1.502763099991677e-17  4.232015327598801e-01
 1.016767326547608e+00  4.232015327598801e-01 -3.650447905968681e-17

-2.565667115447837e-17 -8.880970194644894e-20  1.017161789900303e+00
-8.880970194644894e-20 -1.503207279281662e-17  4.226763157403511e-01
 1.017161789900303e+00  4.226763157403511e-01 -3.653221895866563e-17

-2.569506211462959e-17 -8.904522719048404e-20  1.017619730632874e+00
-8.904522719048404e-20 -1.503609850518952e-17  4.220129929028644e-01
 1.017619730632874e+00  4.220129929028644e-01 -3.656246440782147e-17

-2.572765492478385e-17 -8.923385977276296e-20  1.017393119269880e+00
-8.923385977276296e-20 -1.502566800627018e-17  4.222639110375183e-01
 1.017393119269880e+00  4.222639110375183e-01 -3.656931267510982e-17

-2.575869888967901e-17 -8.952459812214130e-20  1.016904312347450e+00
-8.952459812214130e-20 -1.500775572886504e-17  4.229242952169009e-01
 1.016904312347450e+00  4.229242952169009e-01 -3.656755486939997e-17

-2.579499418945067e-17 -8.990626353379131e-20  1.016887071075617e+00
-8.990626353379131e-20 -1.499560081728203e-17  4.229567796438386e-01
 1.016887071075617e+00  4.229567796438386e-01 -3.658261484800953e-17

-2.583605411592713e-17 -9.021113290656476e-20  1.017300880769981e+00
-9.021113290656476e-20 -1.499767396411146e-17  4.223692728487269e-01
 1.017300880769981e+00  4.223692728487269e-01 -3.661305853307141e-17

-2.587602322368224e-17 -9.039798616663307e-20  1.017505307654325e+00
-9.039798616663307e-20 -1.499551153371689e-17  4.220718979894762e-01
 1.017505307654325e+00  4.220718979894762e-01 -3.663671559092457e-17

-2.591381139932802e-17 -9.059769455169940e-20  1.017339103562730e+00
-9.059769455169940e-20 -1.498132168668747e-17  4.224019904341629e-01
 1.017339103562730e+00  4.224019904341629e-01 -3.664817884447636e-17

-2.595279618240453e-17 -9.084964580243600e-20  1.017166864101721e+00
-9.084964580243600e-20 -1.496195348834271e-17  4.228594619517315e-01
 1.017166864101721e+00  4.228594619517315e-01 -3.666009641766450e-17

-2.599359863222188e-17 -9.113546046935411e-20  1.017137504706299e+00
-9.113546046935411e-20 -1.494925904277308e-17  4.230317321875029e-01
 1.017137504706299e+00  4.230317321875029e-01 -3.667730894390802e-17

-2.603507920782521e-17 -9.142030438301347e-20  1.017182166646534e+00
-9.142030438301347e-20 -1.494338622179479e-17  4.228663776861913e-01
 1.017182166646534e+00  4.228663776861913e-01 -3.669723778173682e-17

-2.607825659031572e-17 -9.165827891703798e-20  1.017351258934092e+00
-9.165827891703798e-20 -1.493902582474029e-17  4.224341963434941e-01
 1.017351258934092e+00  4.224341963434941e-01 -3.672187122173203e-17

-2.612281025310280e-17 -9.181007441888493e-20  1.017521289781699e+00
-9.181007441888493e-20 -1.493218808274625e-17  4.221186448860705e-01
 1.017521289781699e+00  4.221186448860705e-01 -3.674727170448748e-17

-2.616556333044015e-17 -9.190290940215197e-20  1.017340744247128e+00
-9.190290940215197e-20 -1.491436467905377e-17  4.224091999327442e-01
 1.017340744247128e+00  4.224091999327442e-01 -3.676129218332590e-17

-2.620728915817944e-17 -9.205497821669165e-20  1.016932377832193e+00
-9.205497821669165e-20 -1.489226782301675e-17  4.230152186494760e-01
 1.016932377832193e+00  4.230152186494760e-01 -3.676804266651251e-17

-2.625376615686567e-17 -9.227477611943591e-20  1.016926672125813e+00
-9.227477611943591e-20 -1.487593409636614e-17  4.230325319694803e-01
 1.016926672125813e+00  4.230325319694803e-01 -3.678935319439640e-17

-2.630523238392053e-17 -9.240389851100752e-20  1.017343642006837e+00
-9.240389851100752e-20 -1.487124794903442e-17  4.224366055882876e-01
 1.017343642006837e+00  4.224366055882876e-01 -3.682594957900158e-17

-2.635591548690268e-17 -9.241341582038259e-20  1.017546908633576e+00
-9.241341582038259e-20 -1.486128914980563e-17  4.221366217144605e-01
 1.017546908633576e+00  4.221366217144605e-01 -3.685582743554673e-17

-2.640477708520723e-17 -9.240825413346508e-20  1.017379629025435e+00
-9.240825413346508e-20 -1.484194538950279e-17  4.224652539473084e-01
 1.017379629025435e+00  4.224652539473084e-01 -3.687373798222044e-17

-2.645522926075242e-17 -9.244621900817936e-20  1.017208011714786e+00
-9.244621900817936e-20 -1.481751583197310e-17  4.229202774734975e-01
 1.017208011714786e+00  4.229202774734975e-01 -3.689239800775574e-17

-2.650788975532753e-17 -9.249202770550764e-20  1.017177672973718e+00
-9.249202770550764e-20 -1.479423209319412e-17  4.230919945688432e-01
 1.017177672973718e+00  4.230919945688432e-01 -3.691655703540756e-17

-2.656162586003892e-17 -9.250846419662718e-20  1.017219811777180e+00
-9.250846419662718e-20 -1.478019530096576e-17  4.229278088029886e-01
 1.017219811777180e+00  4.229278088029886e-01 -3.694363839720586e-17

-2.661750408518231e-17 -9.246957787384910e-20  1.017388762826693e+00
-9.246957787384910e-20 -1.476783944368805e-17  4.224941303201816e-01
 1.017388762826693e+00  4.224941303201816e-01 -3.697576901810902e-17

-2.667521968719558e-17 -9.230137822696897e-20  1.017559410708796e+00
-9.230137822696897e-20 -1.475245798244409e-17  4.221753380093355e-01
 1.017559410708796e+00  4.221753380093355e-01 -3.700898049087361e-17

-2.673158966450239e-17 -9.205555218987524e-20  1.017377460774803e+00
-9.205555218987524e-20 -1.472820163996856e-17  4.224634181485449e-01
 1.017377460774803e+00  4.224634181485449e-01 -3.703104385364536e-17

-2.678745618821874e-17 -9.184424175157414e-20  1.016971066889526e+00
-9.184424175157414e-20 -1.469683841486568e-17  4.230621532484997e-01
 1.016971066889526e+00  4.230621532484997e-01 -3.704626704030688e-17

-2.684872192112758e-17 -9.167227576782587e-20  1.016977957931473e+00
-9.167227576782587e-20 -1.467292400252279e-17  4.230630422151400e-01
 1.016977957931473e+00  4.230630422151400e-01 -3.707676342383778e-17

-2.691631839776373e-17 -9.138034336431466e-20  1.017474803249440e+00
-9.138034336431466e-20 -1.466199665901413e-17  4.224127983075649e-01
 1.017474803249440e+00  4.224127983075649e-01 -3.712528865984671e-17

-2.698345815594657e-17 -9.087924159029340e-20  1.017721438411743e+00
-9.087924159029340e-20 -1.464174332795661e-17  4.221532532626088e-01
 1.017721438411743e+00  4.221532532626088e-01 -3.716623815667395e-17

-2.704573823438645e-17 -9.033853695173656e-20  1.017270389307966e+00
-9.033853695173656e-20 -1.460543633402052e-17  4.228234941708570e-01
 1.017270389307966e+00  4.228234941708570e-01 -3.718401414851601e-17

-2.711021507131709e-17 -8.990364701870770e-20  1.016877553108855e+00
-8.990364701870770e-20 -1.457070047824049e-17  4.233689304930900e-01
 1.016877553108855e+00  4.233689304930900e-01 -3.720484570042313e-17

-2.718393755094900e-17 -8.966549730708820e-20  1.017270816435638e+00
-8.966549730708820e-20 -1.455148778108338e-17  4.228213136593238e-01
 1.017270816435638e+00  4.228213136593238e-01 -3.725410753171009e-17

-2.726005186127092e-17 -8.865922557917875e-20  1.017727373008848e+00
-8.865922557917875e-20 -1.453478118807402e-17  4.221776137165641e-01
 1.017727373008848e+00  4.221776137165641e-01 -3.730671206051335e-17

-2.733174100502240e-17 -8.776618021602226e-20  1.017500697684824e+00
-8.776618021602226e-20 -1.450164762608794e-17  4.224251577496974e-01
 1.017500697684824e+00  4.224251577496974e-01 -3.733682925046587e-17

-2.740331306486501e-17 -8.688105189522256e-20  1.017011375329820e+00
-8.688105189522256e-20 -1.445820182013865e-17  4.230829637808163e-01
 1.017011375329820e+00  4.230829637808163e-01 -3.735923183587389e-17

-2.748162817119308e-17 -8.598867678910038e-20  1.016993015179495e+00
-8.598867678910038e-20 -1.442663016587837e-17  4.231140341217595e-01
 1.016993015179495e+00  4.231140341217595e-01 -3.739938118683662e-17

-2.756628044876342e-17 -8.490457735192088e-20  1.017406242527500e+00
-8.490457735192088e-20 -1.440221981281063e-17  4.225254958649459e-01
 1.017406242527500e+00  4.225254958649459e-01 -3.745592851688767e-17

-2.765146083596816e-17 -8.358359551047915e-20  1.017608133956999e+00
-8.358359551047915e-20 -1.437049082165185e-17  4.222303154058343e-01
 1.017608133956999e+00  4.222303154058343e-01 -3.750666014640489e-17

-2.773597213598514e-17 -8.215101362391056e-20  1.017422758744630e+00
-8.215101362391056e-20 -1.433108531852406e-17  4.225745313570996e-01
 1.017422758744630e+00  4.225745313570996e-01 -3.754569592345666e-17

-2.782273770960431e-17 -8.065305534748305e-20  1.017170541195713e+00
-8.065305534748305e-20 -1.428992573908797e-17  4.230736959905957e-01
 1.017170541195713e+00  4.230736959905957e-01 -3.758414791376767e-17

-2.791482679559584e-17 -7.904379067071021e-20  1.017217444651220e+00
-7.904379067071021e-20 -1.424845939228854e-17  4.231071447488517e-01
 1.017217444651220e+00  4.231071447488517e-01 -3.763458431723217e-17

-2.801179427044171e-17 -7.721921376678213e-20  1.017521782215426e+00
-7.721921376678213e-20 -1.421349568139487e-17  4.226992768219683e-01
 1.017521782215426e+00  4.226992768219683e-01 -3.769557745179144e-17

-2.810793569121513e-17 -7.514082422115121e-20  1.017481913861793e+00
-7.514082422115121e-20 -1.417509938000275e-17  4.226006965819177e-01
 1.017481913861793e+00  4.226006965819177e-01 -3.774624192729765e-17

-2.820649690227184e-17 -7.290767058696178e-20  1.017350567421343e+00
-7.290767058696178e-20 -1.412935406267137e-17  4.226745764038803e-01
 1.017350567421343e+00  4.226745764038803e-01 -3.779574959396850e-17

-2.831130535536786e-17 -7.041641216918595e-20  1.017469138979150e+00
-7.041641216918595e-20 -1.408626965836932e-17  4.226018911186453e-01
 1.017469138979150e+00  4.226018911186453e-01 -3.785624599790042e-17

-2.841485420661696e-17 -6.766042992292639e-20  1.017142724681288e+00
-6.766042992292639e-20 -1.403360335900529e-17  4.229686619253639e-01
 1.017142724681288e+00  4.229686619253639e-01 -3.790321663214196e-17

-2.852352359996595e-17 -6.479303910149397e-20  1.016994599426912e+00
-6.479303910149397e-20 -1.398465300737127e-17  4.230310542787207e-01
 1.016994599426912e+00  4.230310542787207e-01 -3.795855410821311e-17

-2.864431551321423e-17 -6.155538632682842e-20  1.017642884653272e+00
-6.155538632682842e-20 -1.394944065428692e-17  4.222646659553969e-01
 1.017642884653272e+00  4.222646659553969e-01 -3.804426055001899e-17

-2.876315396323746e-17 -5.784833657129696e-20  1.017668872675344e+00
-5.784833657129696e-20 -1.389490601830035e-17  4.223094330001138e-01
 1.017668872675344e+00  4.223094330001138e-01 -3.811080741663254e-17

-2.887951106422370e-17 -5.397207613795007e-20  1.017021382645152e+00
-5.397207613795007e-20 -1.382658305261777e-17  4.231837593690920e-01
 1.017021382645152e+00  4.231837593690920e-01 -3.815644336201262e-17

-2.903140418148872e-17 -4.506899265161415e-20  1.017177610415930e+00
-4.506899265161415e-20 -1.382246936015940e-17  4.231380598691183e-01
 1.017177610415930e+00  4.231380598691183e-01 -3.822531404359631e-17

-2.914390321034887e-17 -4.516333179791997e-20  1.017578019076559e+00
-4.516333179791997e-20 -1.372248411914294e-17  4.226442144273045e-01
 1.017578019076559e+00  4.226442144273045e-01 -3.832085889772715e-17

-2.927778401989753e-17 -4.007515820870191e-20  1.017431314199673e+00
-4.007515820870191e-20 -1.366142823984686e-17  4.226698583424042e-01
 1.017431314199673e+00  4.226698583424042e-01 -3.839210793079532e-17

-2.941729550508808e-17 -3.458373509969627e-20  1.017330317278663e+00
-3.458373509969627e-20 -1.359960436293130e-17  4.227317301442440e-01
 1.017330317278663e+00  4.227317301442440e-01 -3.846818540172226e-17

-2.956159661775101e-17 -2.856820740544083e-20  1.017187057481913e+00
-2.856820740544083e-20 -1.353208457525876e-17  4.228262287518571e-01
 1.017187057481913e+00  4.228262287518571e-01 -3.854607569936206e-17

-2.971393426653332e-17 -2.209625631488280e-20  1.017285357356290e+00
-2.209625631488280e-20 -1.346817813674881e-17  4.226550815755414e-01
 1.017285357356290e+00  4.226550815755414e-01 -3.863593327384019e-17

-2.987491058405110e-17 -1.490491479340227e-20  1.017621456496585e+00
-1.490491479340227e-20 -1.340306162680475e-17  4.223459614453096e-01
 1.017621456496585e+00  4.223459614453096e-01 -3.873796523127540e-17

-3.003550938493599e-17 -7.080186840138647e-21  1.017307627031578e+00
-7.080186840138647e-21 -1.332590265253203e-17  4.228085001527706e-01
 1.017307627031578e+00  4.228085001527706e-01 -3.882113555119795e-17

-3.020336820727978e-17  1.267800693038025e-21  1.017089539135049e+00
 1.267800693038025e-21 -1.324540797794330e-17  4.231493578242239e-01
 1.017089539135049e+00  4.231493578242239e-01 -3.891166592733396e-17

-3.038345600515375e-17  1.042489192213918e-20  1.017450175643159e+00
 1.042489192213918e-20 -1.317932904780100e-17  4.227548719585214e-01
 1.017450175643159e+00  4.227548719585214e-01 -3.902658803551073e-17

-3.056730595000053e-17  2.047022926058171e-20  1.017531394219938e+00
 2.047022926058171e-20 -1.310115763019617e-17  4.225605536143061e-01
 1.017531394219938e+00  4.225605536143061e-01 -3.913601719135140e-17

-3.075683727418402e-17  3.136549444036382e-20  1.017430595954256e+00
 3.136549444036382e-20 -1.301982261424735e-17  4.226204278337097e-01
 1.017430595954256e+00  4.226204278337097e-01 -3.924385863288430e-17

-3.095678397023953e-17  4.325816653635272e-20  1.017543130517920e+00
 4.325816653635272e-20 -1.293879251231729e-17  4.225825465770092e-01
 1.017543130517920e+00  4.225825465770092e-01 -3.936435997294876e-17

-3.116203332455098e-17  5.623249409801402e-20  1.017373995275655e+00
 5.623249409801402e-20 -1.284496294854495e-17  4.228622999599152e-01
 1.017373995275655e+00  4.228622999599152e-01 -3.948023927954868e-17

-3.137296692115230e-17  7.026290820802362e-20  1.016975715358093e+00
 7.026290820802362e-20 -1.274821552307716e-17  4.232217137220522e-01
 1.016975715358093e+00  4.232217137220522e-01 -3.959337848859529e-17

-3.159892963047688e-17  8.555249849759179e-20  1.017201889811772e+00
 8.555249849759179e-20 -1.266470808285855e-17  4.227283725015369e-01
 1.017201889811772e+00  4.227283725015369e-01 -3.973406662385230e-17

-3.183916789753614e-17  1.024149674352529e-19  1.017837534426617e+00
 1.024149674352529e-19 -1.258129618951465e-17  4.218790757409457e-01
 1.017837534426617e+00  4.218790757409457e-01 -3.989550353034984e-17

-3.208115708161832e-17  1.208554079732524e-19  1.017558176244903e+00
 1.208554079732524e-19 -1.247588067401989e-17  4.222918305682503e-01
 1.017558176244903e+00  4.222918305682503e-01 -4.003181497740634e-17

-3.232763715424737e-17  1.406920169623145e-19  1.016639547874339e+00
 1.406920169623145e-19 -1.235204503591927e-17  4.234512604191386e-01
 1.016639547874339e+00  4.234512604191386e-01 -4.015277009434829e-17

-3.259929836451654e-17  1.622241079413281e-19  1.017091314747350e+00
 1.622241079413281e-19 -1.225777541614875e-17  4.229804984181409e-01
 1.017091314747350e+00  4.229804984181409e-01 -4.032901649045652e-17

-3.288810181609157e-17  1.861331816154036e-19  1.018050687162795e+00
 1.861331816154036e-19 -1.217015785807409e-17  4.218904071301529e-01
 1.018050687162795e+00  4.218904071301529e-01 -4.053080949503378e-17

-3.317350391207886e-17  2.122029554267811e-19  1.017422287787040e+00
 2.122029554267811e-19 -1.204133888217895e-17  4.225808571955647e-01
 1.017422287787040e+00  4.225808571955647e-01 -4.068524125251310e-17

-3.347118394211645e-17  2.403298249013637e-19  1.016665428952638e+00
 2.403298249013637e-19 -1.191249460975960e-17  4.234202162709321e-01
 1.016665428952638e+00  4.234202162709321e-01 -4.084397135847636e-17

-3.379645932829094e-17  2.712095377325411e-19  1.017228510487650e+00
 2.712095377325411e-19 -1.180687261517357e-17  4.226570330179545e-01
 1.017228510487650e+00  4.226570330179545e-01 -4.105817137804933e-17

-3.413756706763698e-17  3.052309629465678e-19  1.017840356744500e+00
 3.052309629465678e-19 -1.169877693438247e-17  4.217927027344865e-01
 1.017840356744500e+00  4.217927027344865e-01 -4.128402399981677e-17

-3.448485797460124e-17  3.423770777655453e-19  1.017394232523800e+00
 3.423770777655453e-19 -1.156292457989075e-17  4.222844945838504e-01
 1.017394232523800e+00  4.222844945838504e-01 -4.148367515848768e-17

-3.484953692947966e-17  3.827864436800056e-19  1.016887584066861e+00
 3.827864436800056e-19 -1.142337001036688e-17  4.229975951065986e-01
 1.016887584066861e+00  4.229975951065986e-01 -4.169276303552649e-17

-3.524106894006673e-17  4.271269506757102e-19  1.017203720922826e+00
 4.271269506757102e-19 -1.129349576566256e-17  4.227347130855542e-01
 1.017203720922826e+00  4.227347130855542e-01 -4.194267261148798e-17

-3.565113012049439e-17  4.759163811896441e-19  1.017451791684875e+00
 4.759163811896441e-19 -1.116550874544034e-17  4.223687593350792e-01
 1.017451791684875e+00  4.223687593350792e-01 -4.220280427542954e-17

-3.607819951551462e-17  5.293855493643514e-19  1.017313048983407e+00
 5.293855493643514e-19 -1.102327105152418e-17  4.223977000358582e-01
 1.017313048983407e+00  4.223977000358582e-01 -4.246303680301157e-17

-3.652845428950780e-17  5.880474461801973e-19  1.017214283668669e+00
 5.880474461801973e-19 -1.088009158447174e-17  4.224398719166552e-01
 1.017214283668669e+00  4.224398719166552e-01 -4.273944036894824e-17

-3.700354728582836e-17  6.522385596667463e-19  1.017177073097029e+00
 6.522385596667463e-19 -1.073263341647964e-17  4.223883660623754e-01
 1.017177073097029e+00  4.223883660623754e-01 -4.303371666929860e-17

-3.750625483967880e-17  7.233830544305487e-19  1.017295297291278e+00
 7.233830544305487e-19 -1.058876016297852e-17  4.222316314244138e-01
 1.017295297291278e+00  4.222316314244138e-01 -4.335033079741582e-17

-3.803627563924489e-17  8.014260846604916e-19  1.017353369087523e+00
 8.014260846604916e-19 -1.043789002308978e-17  4.221839831617063e-01
 1.017353369087523e+00  4.221839831617063e-01 -4.368295232108349e-17

-3.859251183467563e-17  8.872705387349005e-19  1.017072992207182e+00
 8.872705387349005e-19 -1.027658771869837e-17  4.224973791128933e-01
 1.017072992207182e+00  4.224973791128933e-01 -4.402303661083731e-17

-3.918247732232742e-17  9.819190391403275e-19  1.016991860099736e+00
 9.819190391403275e-19 -1.012005622264936e-17  4.225107704791637e-01
 1.016991860099736e+00  4.225107704791637e-01 -4.439075063432833e-17

-3.981081278266611e-17  1.086582314822534e-18  1.017315958696521e+00
 1.086582314822534e-18 -9.970537506948521e-18  4.220271295257804e-01
 1.017315958696521e+00  4.220271295257804e-01 -4.479492899991332e-17

-4.047248472447747e-17  1.202161055593535e-18  1.017287935528804e+00
 1.202161055593535e-18 -9.811719577366696e-18  4.219409176431352e-01
 1.017287935528804e+00  4.219409176431352e-01 -4.521078563085912e-17

-4.116962357065910e-17  1.329737768827149e-18  1.016834481589494e+00
 1.329737768827149e-18 -9.642896666722511e-18  4.223233011669090e-01
 1.016834481589494e+00  4.223233011669090e-01 -4.563761528118455e-17

-4.191616405282588e-17  1.471076481917483e-18  1.016984976781174e+00
 1.471076481917483e-18 -9.485629420911812e-18  4.220595545406196e-01
 1.016984976781174e+00  4.220595545406196e-01 -4.611359206128856e-17

-4.271301767089511e-17  1.627904921261616e-18  1.017476792361597e+00
 1.627904921261616e-18 -9.337495004731216e-18  4.215059669156345e-01
 1.017476792361597e+00  4.215059669156345e-01 -4.663181326834467e-17

-4.354985303229177e-17  1.801490207443844e-18  1.016978783047006e+00
 1.801490207443844e-18 -9.169783708700329e-18  4.220518536693226e-01
 1.016978783047006e+00  4.220518536693226e-01 -4.714790433673105e-17

-4.444120094896410e-17  1.994142974967905e-18  1.016511594122037e+00
 1.994142974967905e-18 -9.002175726151145e-18  4.224799408769057e-01
 1.016511594122037e+00  4.224799408769057e-01 -4.770020194294681e-17

-4.540326839783038e-17  2.209130811622319e-18  1.017177548483581e+00
 2.209130811622319e-18 -8.864587619141694e-18  4.215822882168050e-01
 1.017177548483581e+00  4.215822882168050e-01 -4.833034269037313e-17

-4.642428081052829e-17  2.448493697385305e-18  1.017345357713237e+00
 2.448493697385305e-18 -8.724445518661356e-18  4.211975491513162e-01
 1.017345357713237e+00  4.211975491513162e-01 -4.898442552752187e-17

-4.750678303377309e-17  2.714647257032821e-18  1.016689998891442e+00
 2.714647257032821e-18 -8.574744456993622e-18  4.217910527115598e-01
 1.016689998891442e+00  4.217910527115598e-01 -4.965477911193387e-17

-4.867217035203170e-17  3.012073295800639e-18  1.016647275810510e+00
 3.012073295800639e-18 -8.443013263699763e-18  4.217624889364919e-01
 1.016647275810510e+00  4.217624889364919e-01 -5.039573744410108e-17

-4.992439240359646e-17  3.345118999132703e-18  1.016954579540110e+00
 3.345118999132703e-18 -8.326905161464234e-18  4.212619706152535e-01
 1.016954579540110e+00  4.212619706152535e-01 -5.120230542498338e-17

-5.126297586391893e-17  3.717529553030566e-18  1.016818362870026e+00
 3.717529553030566e-18 -8.222362275444979e-18  4.211684022698257e-01
 1.016818362870026e+00  4.211684022698257e-01 -5.205156005638669e-17

-5.270139613172287e-17  4.135559657982396e-18  1.016653709482675e+00
 4.135559657982396e-18 -8.128496700465637e-18  4.211990419271571e-01
 1.016653709482675e+00  4.211990419271571e-01 -5.296363361743548e-17

-5.425207527122063e-17  4.604721634350305e-18  1.016700333042071e+00
 4.604721634350305e-18 -8.058523412167490e-18  4.209868121016397e-01
 1.016700333042071e+00  4.209868121016397e-01 -5.395298747468266e-17

-5.592151980280177e-17  5.132747789002540e-18  1.016551500699664e+00
 5.132747789002540e-18 -8.014144364366230e-18  4.209509012373393e-01
 1.016551500699664e+00  4.209509012373393e-01 -5.501197917428614e-17

-5.772411129395606e-17  5.728173175711320e-18  1.016382329146314e+00
 5.728173175711320e-18 -7.993297784457228e-18  4.208779290178422e-01
 1.016382329146314e+00  4.208779290178422e-01 -5.615427970900825e-17

-5.967856764792375e-17  6.400656828442569e-18  1.016586498713196e+00
 6.400656828442569e-18 -8.022484018715104e-18  4.203732496396541e-01
 1.016586498713196e+00  4.203732496396541e-01 -5.740232938917454e-17

-6.179477759715104e-17  7.160843596438837e-18  1.016591040870078e+00
 7.160843596438837e-18 -8.080876913984713e-18  4.201373708279043e-01
 1.016591040870078e+00  4.201373708279043e-01 -5.874560842019303e-17

-6.408755620900827e-17  8.021261051769685e-18  1.016098866511135e+00
 8.021261051769685e-18 -8.180699535855763e-18  4.204363289168652e-01
 1.016098866511135e+00  4.204363289168652e-01 -6.018433542481582e-17

-6.658759301674020e-17  8.999033209977791e-18  1.015995670781810e+00
 8.999033209977791e-18 -8.348540720607394e-18  4.202296594172010e-01
 1.015995670781810e+00  4.202296594172010e-01 -6.176165795455091e-17

-6.931934022845043e-17  1.011241297417688e-17  1.016311160704733e+00
 1.011241297417688e-17 -8.582675592591004e-18  4.194599483440780e-01
 1.016311160704733e+00  4.194599483440780e-01 -6.349240010359565e-17

-7.230026742329946e-17  1.138079600147023e-17  1.016153471223628e+00
 1.138079600147023e-17 -8.893091107452858e-18  4.192171706773258e-01
 1.016153471223628e+00  4.192171706773258e-01 -6.536093064841144e-17

-7.556419559576243e-17  1.282898343019353e-17  1.015708865789247e+00
 1.282898343019353e-17 -9.291166008005126e-18  4.193397365624701e-01
 1.015708865789247e+00  4.193397365624701e-01 -6.739159241392016e-17

-7.915534919338523e-17  1.448765970704646e-17  1.015606546501054e+00
 1.448765970704646e-17 -9.791186283729183e-18  4.189910548002335e-01
 1.015606546501054e+00  4.189910548002335e-01 -6.962675144164276e-17

-8.311556426610560e-17  1.639254266481093e-17  1.015741105430386e+00
 1.639254266481093e-17 -1.042159627990009e-17  4.183221162340190e-01
 1.015741105430386e+00  4.183221162340190e-01 -7.208599318581854e-17

-8.748871102774229e-17  1.858255448261777e-17  1.015604412863094e+00
 1.858255448261777e-17 -1.118915693862893e-17  4.179382708135294e-01
 1.015604412863094e+00  4.179382708135294e-01 -7.477828377567033e-17

-9.233133893433258e-17  2.110607061263237e-17  1.015032495098364e+00
 2.110607061263237e-17 -1.211656187247808e-17  4.179600735452098e-01
 1.015032495098364e+00  4.179600735452098e-01 -7.772865095536027e-17

-9.772381008415168e-17  2.402573641034587e-17  1.014852134957402e+00
 2.402573641034587e-17 -1.323230374666698e-17  4.174189567524290e-01
 1.014852134957402e+00  4.174189567524290e-01 -8.100202322667953e-17

-1.037513931609034e-16  2.741246677757561e-17  1.015264735780044e+00
 2.741246677757561e-17 -1.456961764509338e-17  4.162094397547128e-01
 1.015264735780044e+00  4.162094397547128e-01 -8.464737320402763e-17

-1.104916527362660e-16  3.134182472903395e-17  1.014825020699540e+00
 3.134182472903395e-17 -1.614498689639635e-17  4.159418451290781e-01
 1.014825020699540e+00  4.159418451290781e-01 -8.866225625466829e-17

-1.180645866364132e-16  3.591669289337229e-17  1.013730090152083e+00
 3.591669289337229e-17 -1.800565762923200e-17  4.162615237943176e-01
 1.013730090152083e+00  4.162615237943176e-01 -9.311046220498853e-17

-1.266415232770619e-16  4.127301690666635e-17  1.013887126756976e+00
 4.127301690666635e-17 -2.017963448779452e-17  4.149551431358314e-01
 1.013887126756976e+00  4.149551431358314e-01 -9.812697217100244e-17

-1.363813827854398e-16  4.755278229271180e-17  1.014476458608503e+00
 4.755278229271180e-17 -2.269901841734796e-17  4.131263754544905e-01
 1.014476458608503e+00  4.131263754544905e-01 -1.037627027929876e-16

-1.474567282363281e-16  5.491404905894995e-17  1.013484900424253e+00
 5.491404905894995e-17 -2.563372347327894e-17  4.130581165005520e-01
 1.013484900424253e+00  4.130581165005520e-01 -1.100407215501778e-16

-1.601443075554046e-16  6.358624206183976e-17  1.012129499545436e+00
 6.358624206183976e-17 -2.901013803084588e-17  4.132431789385990e-01
 1.012129499545436e+00  4.132431789385990e-01 -1.171178656864869e-16

-1.748007112766695e-16  7.386127168714794e-17  1.012288204536189e+00
 7.386127168714794e-17 -3.282217269274002e-17  4.114087037893214e-01
 1.012288204536189e+00  4.114087037893214e-01 -1.251988874681827e-16

-1.917928290225700e-16  8.604759936646090e-17  1.012660003245787e+00
 8.604759936646090e-17 -3.710615765708033e-17  4.091104720560237e-01
 1.012660003245787e+00  4.091104720560237e-01 -1.344037121863617e-16

-2.115626392849000e-16  1.005078563266933e-16  1.011468200498914e+00
 1.005078563266933e-16 -4.192642863837806e-17  4.085363558862468e-01
 1.011468200498914e+00  4.085363558862468e-01 -1.448706919749892e-16

-2.347506094425460e-16  1.177425110228372e-16  1.009862451442509e+00
 1.177425110228372e-16 -4.723117539965231e-17  4.083300285966938e-01
 1.009862451442509e+00  4.083300285966938e-01 -1.568912900141632e-16

-2.621877262563773e-16  1.383824506190294e-16  1.009329837053197e+00
 1.383824506190294e-16 -5.281836306224081e-17  4.065758203568275e-01
 1.009329837053197e+00  4.065758203568275e-01 -1.708314129187649e-16

-2.948425237576690e-16  1.631406871199189e-16  1.008692849803366e+00
 1.631406871199189e-16 -5.851704666523188e-17  4.044840385144807e-01
 1.008692849803366e+00  4.044840385144807e-01 -1.870373693836594e-16

-3.339414067887803e-16  1.928749957929553e-16  1.006684466385498e+00
 1.928749957929553e-16 -6.407878105074595e-17  4.035562379114709e-01
 1.006684466385498e+00  4.035562379114709e-01 -2.059519390974585e-16

-3.811557807529998e-16  2.286873316185319e-16  1.003887094222522e+00
 2.286873316185319e-16 -6.882282784750031e-17  4.029696565409689e-01
 1.003887094222522e+00  4.029696565409689e-01 -2.282259815754559e-16

-4.386803874359877e-16  2.719165473089567e-16  1.000451145548964e+00
 2.719165473089567e-16 -7.157603452323166e-17  4.019618951214556e-01
 1.000451145548964e+00  4.019618951214556e-01 -2.546889403415097e-16

-5.093517641853192e-16  3.241660204124737e-16  9.983168715466154e-01
 3.241660204124737e-16 -7.055373062815206e-17  3.990092128029941e-01
 9.983168715466154e-01  3.990092128029941e-01 -2.864727980048227e-16

-5.966512553166245e-16  3.871934594795903e-16  9.965247365301055e-01
 3.871934594795903e-16 -6.378710177402704e-17  3.968029622436288e-01
 9.965247365301055e-01  3.968029622436288e-01 -3.249342843667437e-16

-7.043983714129480e-16  4.628597650969992e-16  9.793705103136900e-01
 4.628597650969992e-16 -5.069951108734164e-17  4.083293272710656e-01
 9.793705103136900e-01  4.083293272710656e-01 -3.712829471016276e-16

-8.399258234828841e-16  5.540365866492286e-16  9.498530790819375e-01
 5.540365866492286e-16 -2.020414719309394e-17  4.212805874425151e-01
 9.498530790819375e-01  4.212805874425151e-01 -4.283743203990855e-16

-1.015017401268606e-15  6.636700392881209e-16  9.426028266558536e-01
 6.636700392881209e-16  5.557776847731019e-17  3.959162569946473e-01
 9.426028266558536e-01  3.959162569946473e-01 -5.016799165727472e-16

-1.237757423775718e-15  7.927823817893003e-16  9.629629999471704e-01
 7.927823817893003e-16  1.825881699668486e-16  3.366792985210186e-01
 9.629629999471704e-01  3.366792985210186e-01 -5.959775920320458e-16

-1.515953472639021e-15  9.440864833107583e-16  1.047764303957055e+00
 9.440864833107583e-16  3.443956986899393e-16  2.488131507015700e-01
 1.047764303957055e+00  2.488131507015700e-01 -7.182072900688275e-16

-1.849342833899708e-15  1.129203262593856e-15  1.117416100245310e+00
 1.129203262593856e-15  3.852172459417894e-16  2.599236007327251e-01
 1.117416100245310e+00  2.599236007327251e-01 -8.709615639182918e-16

-2.223984137326853e-15  1.331708872576370e-15  8.908162079797127e-01
 1.331708872576370e-15  6.339345013500514e-17  5.744802173378551e-01
 8.908162079797127e-01  5.744802173378551e-01 -1.042317348566300e-15

-2.756845074819256e-15  1.570433647523747e-15  7.728016669319751e-01
 1.570433647523747e-15  1.158935076196410e-16  6.348592551432940e-01
 7.728016669319751e-01  6.348592551432940e-01 -1.295806037920591e-15

-3.672832927223771e-15  1.881567215309728e-15  8.934191324054868e-01
 1.881567215309728e-15  2.066391382224466e-15  3.941412290062299e-01
 8.934191324054868e-01  3.941412290062299e-01 -1.738723706097864e-15

-4.522957104735526e-15  1.679392243750679e-15  1.100442654398942e+00
 1.679392243750679e-15  5.116296168585586e-15  1.464583900933247e-01
 1.100442654398942e+00  1.464583900933247e-01 -2.174823700677664e-15

-5.784137361115558e-15  1.847586713931261e-15  8.749349943023734e-01
 1.847586713931261e-15  7.445282627806274e-15  2.343065267098060e-01
 8.749349943023734e-01  2.343065267098060e-01 -2.820385499334974e-15

-8.212152489182601e-15  2.336650723923715e-15  8.296926877401360e-01
 2.336650723923715e-15  1.099860384062398e-14  3.261768014901491e-01
 8.296926877401360e-01  3.261768014901491e-01 -4.061811970503258e-15

-1.163494908340322e-14  2.931868947045823e-15  9.341231105585928e-01
 2.931868947045823e-15  1.526440372854624e-14  3.794975470285772e-01
 9.341231105585928e-01  3.794975470285772e-01 -5.659062010679794e-15

-1.462359057090232e-14  4.541583739070011e-15  4.886475450319585e-01
 4.541583739070011e-15  1.091240288087345e-14  8.106917846391105e-01
 4.886475450319585e-01  8.106917846391105e-01 -7.128733200251679e-15

-1.654124841915955e-14  2.504723145549165e-15  6.403532752429567e-01
 2.504723145549165e-15  2.550284593297400e-14  6.431223624853737e-01
 6.403532752429567e-01  6.431223624853737e-01 -7.536217374351921e-15

 4.906188220883145e-14 -5.953442118266647e-14  1.039749557178872e+00
-5.953442118266647e-14  1.405079360068098e-13  1.488128429218326e-01
 1.039749557178872e+00  1.488128429218326e-01  1.828264342941965e-14

 2.669413511388956e-13 -1.317627657339662e-13  7.436920981508673e-01
-1.317627657339662e-13  2.562263161125088e-13  4.403716024095068e-01
 7.436920981508673e-01  4.403716024095068e-01  1.096776791096326e-13

-6.729033110072728e-13  1.168423238832200e-13  3.216123234847023e-01
 1.168423238832200e-13 -2.084118115843251e-13  8.257509100151004e-01
 3.216123234847023e-01  8.257509100151004e-01 -1.615986604822330e-13

 2.201810650851254e-13 -4.093501253136717e-14  1.131699630219591e+00
-4.093501253136717e-14  1.217884899254272e-13 -1.862851699862508e-02
 1.131699630219591e+00 -1.862851699862508e-02  7.222554114961973e-14

-7.190593843132470e-13  1.346143523460799e-13  6.310293270462665e-01
 1.346143523460799e-13 -2.290064391823859e-13  4.663655860858650e-01
 6.310293270462665e-01  4.663655860858650e-01 -1.984763585918919e-13

 6.046673758680486e-14 -1.727571954056770e-14  8.418695126538603e-01
-1.727571954056770e-14  8.668952727250498e-14  1.539230320535531e-01
 8.418695126538603e-01  1.539230320535531e-01  2.289943902747830e-14

-4.169593838682257e-15 -5.090542531510383e-15  7.560643975647164e-01
-5.090542531510383e-15  5.768083185396194e-14  3.627472448752073e-01
 7.560643975647164e-01  3.627472448752073e-01 -4.954272792575312e-15

-5.869310134569399e-15  2.258607288276523e-15  1.197881065662785e+00
 2.258607288276523e-15  3.543652839595410e-14  9.889685526977068e-02
 1.197881065662785e+00  9.889685526977068e-02 -6.772414069272819e-15

-4.187782690255490e-16 -7.379276016462562e-16  9.260365407397518e-01
-7.379276016462562e-16  3.315734459698187e-14  5.310130256935794e-01
 9.260365407397518e-01  5.310130256935794e-01 -5.932029091927366e-15

 2.086111067179477e-15 -8.110030682493771e-16  6.013328260699941e-01
-8.110030682493771e-16  2.778143792844035e-14  8.938444651867929e-01
 6.013328260699941e-01  8.938444651867929e-01 -5.191133130360593e-15

-2.379831429848096e-16  3.224745481711294e-15  9.637245691138224e-01
 3.224745481711294e-15  1.915622736238613e-14  5.551936829651104e-01
 9.637245691138224e-01  5.551936829651104e-01 -4.210939029504438e-15

-8.365172876658603e-16  4.856170252883474e-15  1.009955653437719e+00
 4.856170252883474e-15  1.238045560064526e-14  3.569893390661448e-01
 1.009955653437719e+00  3.569893390661448e-01 -3.306087686597192e-15

-6.745579392433243e-16  5.029722118773874e-15  1.025087044106198e+00
 5.029722118773874e-15  7.317427899879394e-15  1.878568492129496e-01
 1.025087044106198e+00  1.878568492129496e-01 -2.506858715980065e-15

-4.935490144490517e-16  4.197190311869774e-15  9.967548815224238e-01
 4.197190311869774e-15  5.341834434511821e-15  1.458026624452614e-01
 9.967548815224238e-01  1.458026624452614e-01 -1.902575971313594e-15

-5.253091612959881e-16  3.475883608178732e-15  7.859559870889077e-01
 3.475883608178732e-15  5.376250910846048e-15  4.260104601161931e-01
 7.859559870889077e-01  4.260104601161931e-01 -1.617169010272674e-15

-6.769014017516269e-16  2.891890927163084e-15  8.910859633676550e-01
 2.891890927163084e-15  4.678875092435444e-15  4.300115423423816e-01
 8.910859633676550e-01  4.300115423423816e-01 -1.354833459655421e-15

-7.217558505434761e-16  2.372566931142039e-15  9.351216285667284e-01
 2.372566931142039e-15  4.111574017541008e-15  4.418245835595647e-01
 9.351216285667284e-01  4.418245835595647e-01 -1.141834545718190e-15

-7.297433523009552e-16  1.947139480005433e-15  9.488191622499536e-01
 1.947139480005433e-15  3.564462366725548e-15  4.433222143020006e-01
 9.488191622499536e-01  4.433222143020006e-01 -9.657957758147245e-16

-6.946437418328444e-16  1.616680355373619e-15  1.001115516195115e+00
 1.616680355373619e-15  3.014358014495314e-15  3.807774443891692e-01
 1.001115516195115e+00  3.807774443891692e-01 -8.187778411146097e-16

-6.532767680422430e-16  1.342556679108478e-15  1.016095368092488e+00
 1.342556679108478e-15  2.564411094684358e-15  3.510188411504181e-01
 1.016095368092488e+00  3.510188411504181e-01 -6.992097036533817e-16

-6.164552926121954e-16  1.109448197418018e-15  9.975277964228727e-01
 1.109448197418018e-15  2.215025008606563e-15  3.678820164621423e-01
 9.975277964228727e-01  3.678820164621423e-01 -6.024554941260834e-16

-5.774262263954519e-16  9.178945226420872e-16  9.906695926170764e-01
 9.178945226420872e-16  1.921951905793507e-15  3.829758887662550e-01
 9.906695926170764e-01  3.829758887662550e-01 -5.232218090023158e-16

-5.362378770484119e-16  7.624849802662919e-16  9.941955594343432e-01
 7.624849802662919e-16  1.670261674499552e-15  3.876119546001903e-01
 9.941955594343432e-01  3.876119546001903e-01 -4.575765442190107e-16

-4.951704151226055e-16  6.361105228522835e-16  1.000018959805262e+00
 6.361105228522835e-16  1.454806456087079e-15  3.875878540442145e-01
 1.000018959805262e+00  3.875878540442145e-01 -4.027454549715167e-16

-4.559795070055244e-16  5.325755222179439e-16  1.002787284984072e+00
 5.325755222179439e-16  1.271382741610548e-15  3.901123209008238e-01
 1.002787284984072e+00  3.901123209008238e-01 -3.566114865797916e-16

-4.193391868798544e-16  4.473496280538647e-16  9.990390475922936e-01
 4.473496280538647e-16  1.115163814586485e-15  3.980118156785425e-01
 9.990390475922936e-01  3.980118156785425e-01 -3.174479993406965e-16

-3.848774820602377e-16  3.778972346529023e-16  1.001153490459806e+00
 3.778972346529023e-16  9.800181021392451e-16  3.977870276235179e-01
 1.001153490459806e+00  3.977870276235179e-01 -2.842680281212522e-16

-3.529892354232562e-16  3.210253692866132e-16  1.010610682719015e+00
 3.210253692866132e-16  8.630260296597396e-16  3.899661312309625e-01
 1.010610682719015e+00  3.899661312309625e-01 -2.561444697496599e-16

-3.244550438533502e-16  2.730192061278360e-16  1.008012600367401e+00
 2.730192061278360e-16  7.636541398228589e-16  3.965567911120240e-01
 1.008012600367401e+00  3.965567911120240e-01 -2.317348743003206e-16

-2.986884488190514e-16  2.327407901136602e-16  1.000255837696683e+00
 2.327407901136602e-16  6.782308951497816e-16  4.090232756736645e-01
 1.000255837696683e+00  4.090232756736645e-01 -2.105292413981920e-16

-2.749467891068309e-16  1.998468021791585e-16  1.005730360820570e+00
 1.998468021791585e-16  6.028835583168208e-16  4.056345863138413e-01
 1.005730360820570e+00  4.056345863138413e-01 -1.925074848871812e-16

-2.533922695695913e-16  1.724432887563161e-16  1.011892380309970e+00
 1.724432887563161e-16  5.370673808887223e-16  3.995732214528674e-01
 1.011892380309970e+00  3.995732214528674e-01 -1.768620803041989e-16

-2.340868062821229e-16  1.490370232412080e-16  1.010868294064797e+00
 1.490370232412080e-16  4.801603235063129e-16  4.023262971743408e-01
 1.010868294064797e+00  4.023262971743408e-01 -1.630077186037928e-16

-2.167245936187757e-16  1.291368903580998e-16  1.009265450798641e+00
 1.291368903580998e-16  4.305022480934217e-16  4.078758646519711e-01
 1.009265450798641e+00  4.078758646519711e-01 -1.508498826683700e-16

-2.009976003012440e-16  1.122838671915910e-16  1.005534716306047e+00
 1.122838671915910e-16  3.868798924826375e-16  4.142418062435865e-01
 1.005534716306047e+00  4.142418062435865e-01 -1.400650130468129e-16

-1.867031759518690e-16  9.819230150662819e-17  1.007809724447273e+00
 9.819230150662819e-17  3.480757132138391e-16  4.113718614872608e-01
 1.007809724447273e+00  4.113718614872608e-01 -1.307127691335941e-16

-1.737894729537048e-16  8.630355246474068e-17  1.017255556888039e+00
 8.630355246474068e-17  3.135420269126480e-16  4.011101229150906e-01
 1.017255556888039e+00  4.011101229150906e-01 -1.226770060599224e-16

-1.621536436511166e-16  7.579815055843696e-17  1.013696172747282e+00
 7.579815055843696e-17  2.834967278329994e-16  4.068553462679629e-01
 1.013696172747282e+00  4.068553462679629e-01 -1.151415542848613e-16

-1.516171468227063e-16  6.663118546186410e-17  1.004543260165119e+00
 6.663118546186410e-17  2.570472707187642e-16  4.193984841845081e-01
 1.004543260165119e+00  4.193984841845081e-01 -1.082249211197573e-16

-1.420713467248149e-16  5.898657760738290e-17  1.010155491530314e+00
 5.898657760738290e-17  2.330004405724597e-16  4.146488849323754e-01
 1.010155491530314e+00  4.146488849323754e-01 -1.025035426540995e-16

-1.333863402942435e-16  5.243023936674603e-17  1.016471374858622e+00
 5.243023936674603e-17  2.114445340781791e-16  4.073346705451715e-01
 1.016471374858622e+00  4.073346705451715e-01 -9.741270124993622e-17

-1.254577275184464e-16  4.659752509213652e-17  1.012604544923976e+00
 4.659752509213652e-17  1.924549407371151e-16  4.115069906293038e-01
 1.012604544923976e+00  4.115069906293038e-01 -9.251091203792218e-17

-1.182629861043094e-16  4.150586014295383e-17  1.010504926106258e+00
 4.150586014295383e-17  1.754292487341018e-16  4.152929346200712e-01
 1.010504926106258e+00  4.152929346200712e-01 -8.814473475072835e-17

-1.117229842850708e-16  3.710345548991409e-17  1.012414854124159e+00
 3.710345548991409e-17  1.600176078901671e-16  4.144820381730349e-01
 1.012414854124159e+00  4.144820381730349e-01 -8.433071686167356e-17

-1.057370125551930e-16  3.325023957242003e-17  1.013036568651871e+00
 3.325023957242003e-17  1.461415890773861e-16  4.141471392823287e-01
 1.013036568651871e+00  4.141471392823287e-01 -8.083681936097509e-17

-1.002605762518929e-16  2.986429802091930e-17  1.013203068923000e+00
 2.986429802091930e-17  1.336238962277801e-16  4.142700206383110e-01
 1.013203068923000e+00  4.142700206383110e-01 -7.765191832831259e-17

-9.525012685966717e-17  2.688088630135433e-17  1.013572413823262e+00
 2.688088630135433e-17  1.223021034489530e-16  4.144299823166628e-01
 1.013572413823262e+00  4.144299823166628e-01 -7.476345018957680e-17

-9.065006332611855e-17  2.424089744358988e-17  1.013085027421167e+00
 2.424089744358988e-17  1.120613181809906e-16  4.155835727107399e-01
 1.013085027421167e+00  4.155835727107399e-01 -7.210254925527876e-17

-8.642561798149354e-17  2.190738502081610e-17  1.012765792182604e+00
 2.190738502081610e-17  1.027536425909668e-16  4.163151438145120e-01
 1.012765792182604e+00  4.163151438145120e-01 -6.967664196404632e-17

-8.255045835964360e-17  1.984677891570334e-17  1.013733993083587e+00
 1.984677891570334e-17  9.425364089595051e-17  4.154630541938497e-01
 1.013733993083587e+00  4.154630541938497e-01 -6.750075719080682e-17

-7.898148993079851e-17  1.801292212617330e-17  1.014428799416379e+00
 1.801292212617330e-17  8.651236997563565e-17  4.150041929637681e-01
 1.014428799416379e+00  4.150041929637681e-01 -6.549992074398085e-17

-7.567934320124417e-17  1.637027478379567e-17  1.013591450776413e+00
 1.637027478379567e-17  7.948061477855503e-17  4.164112958684278e-01
 1.013591450776413e+00  4.164112958684278e-01 -6.361184517372758e-17

-7.263210184775511e-17  1.490483410856823e-17  1.013033371750435e+00
 1.490483410856823e-17  7.304362960531658e-17  4.174398385203590e-01
 1.013033371750435e+00  4.174398385203590e-01 -6.188263779332279e-17

-6.982789115185822e-17  1.360143188116941e-17  1.014078126073580e+00
 1.360143188116941e-17  6.710956919252455e-17  4.164782917533443e-01
 1.014078126073580e+00  4.164782917533443e-01 -6.034373620612225e-17

-6.722988469988647e-17  1.243228594826768e-17  1.014793774109959e+00
 1.243228594826768e-17  6.166952070572983e-17  4.158448731371477e-01
 1.014793774109959e+00  4.158448731371477e-01 -5.891517919235523e-17

-6.480892263715368e-17  1.137604522960747e-17  1.013945145277128e+00
 1.137604522960747e-17  5.670478162212164e-17  4.170704822930756e-01
 1.013945145277128e+00  4.170704822930756e-01 -5.754266098912186e-17

-6.256632490600807e-17  1.042627588135905e-17  1.013552466396653e+00
 1.042627588135905e-17  5.212882505185330e-17  4.178285355759598e-01
 1.013552466396653e+00  4.178285355759598e-01 -5.628637984631270e-17

-6.049437343789071e-17  9.574276380070080e-18  1.014466250351312e+00
 9.574276380070080e-18  4.788313527459762e-17  4.170259990189557e-01
 1.014466250351312e+00  4.170259990189557e-01 -5.516671475008979e-17

-5.856146378875657e-17  8.803708422658393e-18  1.014741008426195e+00
 8.803708422658393e-18  4.397508595590661e-17  4.168447803799996e-01
 1.014741008426195e+00  4.168447803799996e-01 -5.410760245178475e-17

-5.675366133988511e-17  8.104012369998989e-18  1.014137132940866e+00
 8.104012369998989e-18  4.038335569333312e-17  4.176988180310003e-01
 1.014137132940866e+00  4.176988180310003e-01 -5.309360153684976e-17

-5.507430408183647e-17  7.471020786810854e-18  1.014171693770379e+00
 7.471020786810854e-18  3.704725219556652e-17  4.178870343819396e-01
 1.014171693770379e+00  4.178870343819396e-01 -5.217120764294193e-17

-5.351105573940591e-17  6.897735375370451e-18  1.014646890077661e+00
 6.897735375370451e-18  3.394701917853252e-17  4.175025744551144e-01
 1.014646890077661e+00  4.175025744551144e-01 -5.132744227759138e-17

-5.204654837453036e-17  6.375800915648001e-18  1.014677373463750e+00
 6.375800915648001e-18  3.107902667503718e-17  4.175874551971467e-01
 1.014677373463750e+00  4.175874551971467e-01 -5.052612968432073e-17

-5.067439541807668e-17  5.899882809586303e-18  1.014427675043880e+00
 5.899882809586303e-18  2.842260054623567e-17  4.180284697930496e-01
 1.014427675043880e+00  4.180284697930496e-01 -4.976834783989842e-17

-4.939202639221460e-17  5.466306280560262e-18  1.014423864209883e+00
 5.466306280560262e-18  2.594718869149745e-17  4.181619239180378e-01
 1.014423864209883e+00  4.181619239180378e-01 -4.906810606804962e-17

-4.819401721018806e-17  5.071012960776310e-18  1.014798954065612e+00
 5.071012960776310e-18  2.363518593363140e-17  4.178515685836622e-01
 1.014798954065612e+00  4.178515685836622e-01 -4.842616090528057e-17

-4.706812763273940e-17  4.709156817141507e-18  1.014911182043756e+00
 4.709156817141507e-18  2.148678414424158e-17  4.178791886494239e-01
 1.014911182043756e+00  4.178791886494239e-01 -4.781660570006867e-17

-4.600628207641704e-17  4.377072030517466e-18  1.014529715706239e+00
 4.377072030517466e-18  1.949282587692854e-17  4.184618909473286e-01
 1.014529715706239e+00  4.184618909473286e-01 -4.722808415972105e-17

-4.501207504364674e-17  4.073083823878455e-18  1.014557963134955e+00
 4.073083823878455e-18  1.762277971820675e-17  4.185393027240115e-01
 1.014557963134955e+00  4.185393027240115e-01 -4.668923597593517e-17

-4.408089631278117e-17  3.794693127048149e-18  1.015003338067994e+00
 3.794693127048149e-18  1.586598535304541e-17  4.180983246087784e-01
 1.015003338067994e+00  4.180983246087784e-01 -4.619766359985111e-17

-4.319968770996998e-17  3.538330493044016e-18  1.014964143331347e+00
 3.538330493044016e-18  1.423160334681697e-17  4.181955127460726e-01
 1.014964143331347e+00  4.181955127460726e-01 -4.571941432530536e-17

-4.236731709012064e-17  3.301967961276443e-18  1.014695692240196e+00
 3.301967961276443e-18  1.270627727384978e-17  4.186080583784869e-01
 1.014695692240196e+00  4.186080583784869e-01 -4.526133568100144e-17

-4.158609917589312e-17  3.084479620138989e-18  1.014812571677378e+00
 3.084479620138989e-18  1.127002686928067e-17  4.186064694412567e-01
 1.014812571677378e+00  4.186064694412567e-01 -4.484282676327934e-17

-4.084878281707842e-17  2.883973351319122e-18  1.014944213323870e+00
 2.883973351319122e-18  9.921159264522311e-18  4.185104684371660e-01
 1.014944213323870e+00  4.185104684371660e-01 -4.444902731250945e-17

-4.015053972974546e-17  2.698964617524993e-18  1.014898598758265e+00
 2.698964617524993e-18  8.657720907462743e-18  4.185929655360872e-01
 1.014898598758265e+00  4.185929655360872e-01 -4.407148069789615e-17

-3.949365461016891e-17  2.527299603675459e-18  1.015125279925841e+00
 2.527299603675459e-18  7.466274925550825e-18  4.184117221663062e-01
 1.015125279925841e+00  4.184117221663062e-01 -4.372462217050910e-17

-3.887231133734121e-17  2.368989322094879e-18  1.015305421443624e+00
 2.368989322094879e-18  6.349384766859769e-18  4.184877226815883e-01
 1.015305421443624e+00  4.184877226815883e-01 -4.339585870302860e-17

-3.827973046244837e-17  2.221689372878451e-18  1.015047713806844e+00
 2.221689372878451e-18  5.308423442228525e-18  4.190822271454939e-01
 1.015047713806844e+00  4.190822271454939e-01 -4.307000107247892e-17

-3.771403253640805e-17  2.085269517214183e-18  1.014492210714793e+00
 2.085269517214183e-18  4.330789217662418e-18  4.197551261041716e-01
 1.014492210714793e+00  4.197551261041716e-01 -4.275023975203344e-17

-3.717189993098967e-17  1.959216738022078e-18  1.013651490244449e+00
 1.959216738022078e-18  3.403917650061848e-18  4.199635510458082e-01
 1.013651490244449e+00  4.199635510458082e-01 -4.243529297553497e-17

-3.668205642229904e-17  1.843100572003711e-18  1.015282882010789e+00
 1.843100572003711e-18  2.478798265407522e-18  4.173375265103825e-01
 1.015282882010789e+00  4.173375265103825e-01 -4.222194585340263e-17

-3.623671722399388e-17  1.735250489920930e-18  1.018279987611492e+00
 1.735250489920930e-18  1.597202477950659e-18  4.146206307393108e-01
 1.018279987611492e+00  4.146206307393108e-01 -4.207243787283839e-17

-3.575613450517560e-17  1.631186163825162e-18  1.015095216568082e+00
 1.631186163825162e-18  8.981559638719556e-19  4.196895600266273e-01
 1.015095216568082e+00  4.196895600266273e-01 -4.172085741435012e-17

-3.528599853634887e-17  1.532880627300609e-18  1.011020967311953e+00
 1.532880627300609e-18  2.484484009145823e-19  4.249861242309947e-01
 1.011020967311953e+00  4.249861242309947e-01 -4.134902421357505e-17

-3.491476208205558e-17  1.446106508639968e-18  1.015175171499077e+00
 1.446106508639968e-18 -5.435760533608773e-19  4.197846814575836e-01
 1.015175171499077e+00  4.197846814575836e-01 -4.127491935001940e-17

-3.455049584568213e-17  1.366965425844177e-18  1.018359337564728e+00
 1.366965425844177e-18 -1.290100896575178e-18  4.148572618012260e-01
 1.018359337564728e+00  4.148572618012260e-01 -4.117651601264958e-17

-3.414296021576151e-17  1.289556602298797e-18  1.015163296426853e+00
 1.289556602298797e-18 -1.863190702772286e-18  4.178100024000727e-01
 1.015163296426853e+00  4.178100024000727e-01 -4.086548746905056e-17

-3.377611636162455e-17  1.216068946983386e-18  1.013760213522751e+00
 1.216068946983386e-18 -2.417938353225958e-18  4.201668887908548e-01
 1.013760213522751e+00  4.201668887908548e-01 -4.062904096171322e-17

-3.345248828332491e-17  1.148859826195495e-18  1.014956050540435e+00
 1.148859826195495e-18 -2.994285331184998e-18  4.196434259031222e-01
 1.014956050540435e+00  4.196434259031222e-01 -4.049282867140851e-17

-3.313267846058756e-17  1.085470322813924e-18  1.015213271039482e+00
 1.085470322813924e-18 -3.533484955448940e-18  4.194315256321099e-01
 1.015213271039482e+00  4.194315256321099e-01 -4.033123524489522e-17

-3.282506511272733e-17  1.026251860501372e-18  1.015313304812193e+00
 1.026251860501372e-18 -4.044782685659848e-18  4.192357170666197e-01
 1.015313304812193e+00  4.192357170666197e-01 -4.017174308685134e-17

-3.253129783611280e-17  9.711634438199346e-19  1.015441891020832e+00
 9.711634438199346e-19 -4.530484435893878e-18  4.190389428342473e-01
 1.015441891020832e+00  4.190389428342473e-01 -4.002070354394545e-17

-3.224767521060563e-17  9.186524004644839e-19  1.015289531302376e+00
 9.186524004644839e-19 -4.986130785697414e-18  4.191246663631651e-01
 1.015289531302376e+00  4.191246663631651e-01 -3.986689571816113e-17

-3.197751790687962e-17  8.699652756025668e-19  1.015227080242081e+00
 8.699652756025668e-19 -5.419524444213938e-18  4.192388366560140e-01
 1.015227080242081e+00  4.192388366560140e-01 -3.972302558836158e-17

-3.172063452236787e-17  8.239502389846583e-19  1.015316126790755e+00
 8.239502389846583e-19 -5.834074764008480e-18  4.191892005375260e-01
 1.015316126790755e+00  4.191892005375260e-01 -3.959080961419992e-17

-3.147557450790016e-17  7.809892672633596e-19  1.015465496803496e+00
 7.809892672633596e-19 -6.229104708618115e-18  4.191501076195820e-01
 1.015465496803496e+00  4.191501076195820e-01 -3.946682840383619e-17

-3.123766914241531e-17  7.400316446450489e-19  1.015305001777412e+00
 7.400316446450489e-19 -6.598475718159387e-18  4.194236555732762e-01
 1.015305001777412e+00  4.194236555732762e-01 -3.933760757225352e-17

-3.100769386896490e-17  7.016180306978580e-19  1.015002690536836e+00
 7.016180306978580e-19 -6.948990602959614e-18  4.197584792355096e-01
 1.015002690536836e+00  4.197584792355096e-01 -3.920855895292561e-17

-3.079154179544228e-17  6.655615487551307e-19  1.015187803476302e+00
 6.655615487551307e-19 -7.294015373316882e-18  4.194148848914736e-01
 1.015187803476302e+00  4.194148848914736e-01 -3.910148954829591e-17

-3.058559446796202e-17  6.317085048862954e-19  1.015510603722118e+00
 6.317085048862954e-19 -7.626292919635023e-18  4.188998620231400e-01
 1.015510603722118e+00  4.188998620231400e-01 -3.900404786680836e-17

-3.038526734564782e-17  5.996658232629050e-19  1.015487471515487e+00
 5.996658232629050e-19 -7.933912001919631e-18  4.189533240226936e-01
 1.015487471515487e+00  4.189533240226936e-01 -3.889932564173145e-17

-3.019215770849289e-17  5.692427998197766e-19  1.015313695494846e+00
 5.692427998197766e-19 -8.220785671497569e-18  4.194076008754263e-01
 1.015313695494846e+00  4.194076008754263e-01 -3.879399967590141e-17

-3.000574670760647e-17  5.404595979417933e-19  1.015062039436923e+00
 5.404595979417933e-19 -8.493450463205539e-18  4.199142323044977e-01
 1.015062039436923e+00  4.199142323044977e-01 -3.869000106360727e-17

-2.985403858289115e-17  5.104375408669265e-19  1.015109913848434e+00
 5.104375408669265e-19 -8.802262934651888e-18  4.198516355452490e-01
 1.015109913848434e+00  4.198516355452490e-01 -3.859306170681055e-17

-2.967323498184209e-17  4.949676371270129e-19  1.015578634012574e+00
 4.949676371270129e-19 -9.053213671312694e-18  4.191842879162179e-01
 1.015578634012574e+00  4.191842879162179e-01 -3.852448403431098e-17

-2.949785532084888e-17  4.635641505791514e-19  1.015675772817862e+00
 4.635641505791514e-19 -9.278442034524716e-18  4.189966936384172e-01
 1.015675772817862e+00  4.189966936384172e-01 -3.844675719557282e-17

-2.933651515407224e-17  4.408383730323791e-19  1.015329407315188e+00
 4.408383730323791e-19 -9.503276022804300e-18  4.195032545772411e-01
 1.015329407315188e+00  4.195032545772411e-01 -3.835366990387932e-17

-2.918249238577055e-17  4.187834389090236e-19  1.015101558132541e+00
 4.187834389090236e-19 -9.719938534063676e-18  4.198716320663486e-01
 1.015101558132541e+00  4.198716320663486e-01 -3.826798321272331e-17

-2.903653472410275e-17  3.981646486775163e-19  1.015178978030971e+00
 3.981646486775163e-19 -9.934372454286671e-18  4.197566835392540e-01
 1.015178978030971e+00  4.197566835392540e-01 -3.819579934809692e-17

-2.889777268412384e-17  3.787168402199254e-19  1.015467538753547e+00
 3.787168402199254e-19 -1.014658184096779e-17  4.192978207396368e-01
 1.015467538753547e+00  4.192978207396368e-01 -3.813377104798821e-17

-2.876322498552055e-17  3.602617395495522e-19  1.015638591179254e+00
 3.602617395495522e-19 -1.034568841528179e-17  4.190723223406837e-01
 1.015638591179254e+00  4.190723223406837e-01 -3.807053890370514e-17

-2.863146082303949e-17  3.426828156288867e-19  1.015518870255885e+00
 3.426828156288867e-19 -1.052795643728492e-17  4.193785449832639e-01
 1.015518870255885e+00  4.193785449832639e-01 -3.800005199877444e-17

-2.850412002471269e-17  3.258776376873151e-19  1.015358919214123e+00
 3.258776376873151e-19 -1.069928995905789e-17  4.198304569830815e-01
 1.015358919214123e+00  4.198304569830815e-01 -3.793080060606453e-17

-2.838182574606490e-17  3.098854162457164e-19  1.015326687395613e+00
 3.098854162457164e-19 -1.086773887149999e-17  4.200127206590094e-01
 1.015326687395613e+00  4.200127206590094e-01 -3.786819943001455e-17

-2.826375368646549e-17  2.947971618264421e-19  1.015372317637027e+00
 2.947971618264421e-19 -1.103385902214535e-17  4.198562114594006e-01
 1.015372317637027e+00  4.198562114594006e-01 -3.781021002282402e-17

-2.815033120380867e-17  2.804733849253071e-19  1.015544188536446e+00
 2.804733849253071e-19 -1.119696682878425e-17  4.194311538184089e-01
 1.015544188536446e+00  4.194311538184089e-01 -3.775861140987777e-17

-2.804129998346565e-17  2.669307232304382e-19  1.015718961577944e+00
 2.669307232304382e-19 -1.135237501809877e-17  4.191196627093914e-01
 1.015718961577944e+00  4.191196627093914e-01 -3.770936357264786e-17

-2.793304744786744e-17  2.539788672333942e-19  1.015541327067345e+00
 2.539788672333942e-19 -1.149114023443458e-17  4.194147845228808e-01
 1.015541327067345e+00  4.194147845228808e-01 -3.765007162736049e-17

-2.782649729249870e-17  2.415929268003972e-19  1.015135855875654e+00
 2.415929268003972e-19 -1.161881259800473e-17  4.200236308527177e-01
 1.015135855875654e+00  4.200236308527177e-01 -3.758480066076738e-17

-2.772624493141917e-17  2.294961080259604e-19  1.015145306501843e+00
 2.294961080259604e-19 -1.175093696293161e-17  4.200324029374313e-01
 1.015145306501843e+00  4.200324029374313e-01 -3.753572372036167e-17

-2.763487839840051e-17  2.183823885975037e-19  1.015648780705294e+00
 2.183823885975037e-19 -1.188957077261213e-17  4.193855101640599e-01
 1.015648780705294e+00  4.193855101640599e-01 -3.750556664705817e-17

-2.754444136453526e-17  2.078898087756006e-19  1.015899781813805e+00
 2.078898087756006e-19 -1.201622769045765e-17  4.191319378955072e-01
 1.015899781813805e+00  4.191319378955072e-01 -3.746838079033766e-17

-2.744902833688402e-17  1.973883939857478e-19  1.015448993445673e+00
 1.973883939857478e-19 -1.212136386196796e-17  4.198128424653247e-01
 1.015448993445673e+00  4.198128424653247e-01 -3.740838780690465e-17

-2.735865860695347e-17  1.877633855168503e-19  1.015057308165873e+00
 1.877633855168503e-19 -1.222366027395926e-17  4.203675775501530e-01
 1.015057308165873e+00  4.203675775501530e-01 -3.735188809847069e-17

-2.727907537005704e-17  1.788944131432012e-19  1.015454900339066e+00
 1.788944131432012e-19 -1.234043290783060e-17  4.198459533235622e-01
 1.015454900339066e+00  4.198459533235622e-01 -3.732423950079305e-17

-2.719837933728563e-17  1.693657997978314e-19  1.015917873871844e+00
 1.693657997978314e-19 -1.245467571920805e-17  4.191837307183665e-01
 1.015917873871844e+00  4.191837307183665e-01 -3.730017890868890e-17

-2.711540226775499e-17  1.607403509337717e-19  1.015693530610885e+00
 1.607403509337717e-19 -1.254949739054200e-17  4.194389697073979e-01
 1.015693530610885e+00  4.194389697073979e-01 -3.725356278124897e-17

-2.703866433312686e-17  1.542398006707859e-19  1.015202807230726e+00
 1.542398006707859e-19 -1.263290741824531e-17  4.201082962810169e-01
 1.015202807230726e+00  4.201082962810169e-01 -3.719906683967849e-17

-2.696124394631416e-17  1.457381274461689e-19  1.015186983025368e+00
 1.457381274461689e-19 -1.272318730660308e-17  4.201457283006398e-01
 1.015186983025368e+00  4.201457283006398e-01 -3.716231835378047e-17

-2.689301267536640e-17  1.386085215964700e-19  1.015606621118548e+00
 1.386085215964700e-19 -1.282163153606119e-17  4.195578607533127e-01
 1.015606621118548e+00  4.195578607533127e-01 -3.714185626281663e-17

-2.681136439400612e-17  1.276615426826139e-19  1.015813138489183e+00
 1.276615426826139e-19 -1.290988457619898e-17  4.192639137502907e-01
 1.015813138489183e+00  4.192639137502907e-01 -3.711515521001060e-17

-2.675700820450150e-17  1.256986368216263e-19  1.015645816724774e+00
 1.256986368216263e-19 -1.298711358138200e-17  4.196010486399913e-01
 1.015645816724774e+00  4.196010486399913e-01 -3.707676345214348e-17

-2.666721214254355e-17  1.122362786588467e-19  1.015475683463263e+00
 1.122362786588467e-19 -1.305522809577427e-17  4.200621846333489e-01
 1.015475683463263e+00  4.200621846333489e-01 -3.703949885377798e-17

-2.658823889737494e-17  1.015152743319386e-19  1.015449424790982e+00
 1.015152743319386e-19 -1.312632478719808e-17  4.202368421193770e-01
 1.015449424790982e+00  4.202368421193770e-01 -3.700806873634151e-17

-2.661046175600016e-17  1.220340805385738e-19  1.015494147931619e+00
 1.220340805385738e-19 -1.320855824105047e-17  4.200767851977960e-01
 1.015494147931619e+00  4.200767851977960e-01 -3.697969621548817e-17

-2.653724663754701e-17  1.124237281655654e-19  1.015664454413211e+00
 1.124237281655654e-19 -1.328311850595797e-17  4.196483307453472e-01
 1.015664454413211e+00  4.196483307453472e-01 -3.695645914712233e-17

-2.652520237224087e-17  1.215184746689044e-19  1.015839048303036e+00
 1.215184746689044e-19 -1.335913270989187e-17  4.193328913191945e-01
 1.015839048303036e+00  4.193328913191945e-01 -3.693443812225372e-17

-2.652752082494871e-17  1.357342001908841e-19  1.015660007422985e+00
 1.357342001908841e-19 -1.342333161002934e-17  4.196271339981107e-01
 1.015660007422985e+00  4.196271339981107e-01 -3.690120304827998e-17

-2.614472086873191e-17  3.005649863047670e-20  1.015249164582260e+00
 3.005649863047670e-20 -1.344271115846426e-17  4.202411744519796e-01
 1.015249164582260e+00  4.202411744519796e-01 -3.686077984750551e-17

-2.563779743889979e-17 -1.160961910246745e-19  1.015244896178281e+00
-1.160961910246745e-19 -1.345721510240839e-17  4.202618767652760e-01
 1.015244896178281e+00  4.202618767652760e-01 -3.683522823401263e-17

-2.488581935632959e-17 -3.405025809054518e-19  1.015667118773240e+00
-3.405025809054518e-19 -1.345538044737575e-17  4.196647706158726e-01
 1.015667118773240e+00  4.196647706158726e-01 -3.682521733939940e-17

-2.620613396076893e-17  8.366377142493666e-20  1.015872111941269e+00
 8.366377142493666e-20 -1.364883130499370e-17  4.193675285154902e-01
 1.015872111941269e+00  4.193675285154902e-01 -3.680842584103661e-17

-2.485818858230113e-17 -3.268180277835401e-19  1.015703634900306e+00
-3.268180277835401e-19 -1.356900553316249e-17  4.197026023450294e-01
 1.015703634900306e+00  4.197026023450294e-01 -3.677957118239320e-17

-3.180086640507323e-17  1.862966815527223e-18  1.015532911184532e+00
 1.862966815527223e-18 -1.430025146211030e-17  4.201618636927418e-01
 1.015532911184532e+00  4.201618636927418e-01 -3.675149687804650e-17

-1.163890683533484e-16  2.844513891804803e-17  1.015505141666815e+00
 2.844513891804803e-17 -2.269710109195485e-17  4.203355103342196e-01
 1.015505141666815e+00  4.203355103342196e-01 -3.672888830004078e-17

 1.244402962138692e-16 -4.723932314940900e-17  1.015548702846558e+00
-4.723932314940900e-17  1.040969933717544e-18  4.201741666051441e-01
 1.015548702846558e+00  4.201741666051441e-01 -3.670901793230316e-17

 1.652603144358879e-16 -6.013085633772794e-17  1.015718667607878e+00
-6.013085633772794e-17  5.061718398252134e-18  4.197438692920200e-01
 1.015718667607878e+00  4.197438692920200e-01 -3.669398432994304e-17

 1.644660388519556e-20 -8.112197443540844e-18  1.015892028737695e+00
-8.112197443540844e-18 -1.135841306724027e-17  4.194270346996156e-01
 1.015892028737695e+00  4.194270346996156e-01 -3.667983537063205e-17

-3.293916838083024e-17  2.285796907168613e-18  1.015711686148042e+00
 2.285796907168613e-18 -1.467253059116387e-17  4.197185738762596e-01
 1.015711686148042e+00  4.197185738762596e-01 -3.665418501543110e-17

-1.742012260505035e-17 -2.599034000117391e-18  1.015303805651094e+00
-2.599034000117391e-18 -1.316043972640825e-17  4.203238895781515e-01
 1.015303805651094e+00  4.203238895781515e-01 -3.662121830839360e-17

-2.643725000960005e-17  2.503319037027271e-19  1.015311813102759e+00
 2.503319037027271e-19 -1.410244191778151e-17  4.203281609298603e-01
 1.015311813102759e+00  4.203281609298603e-01 -3.660319941301300e-17

-2.709660385372852e-17  4.737988433093044e-19  1.015813692972613e+00
 4.737988433093044e-19 -1.422048912552733e-17  4.196770485774428e-01
 1.015813692972613e+00  4.196770485774428e-01 -3.660287363946871e-17

-2.747510298639896e-17  6.042593328253922e-19  1.016062374250518e+00
 6.042593328253922e-19 -1.430190396238222e-17  4.194203526829705e-01
 1.016062374250518e+00  4.194203526829705e-01 -3.659432848076545e-17

-2.584526778189765e-17  9.902222291267169e-20  1.015609630937983e+00
 9.902222291267169e-20 -1.416501194135768e-17  4.200980216624819e-01
 1.015609630937983e+00  4.200980216624819e-01 -3.656187649047535e-17

-2.569081988543357e-17  5.906262579907084e-20  1.015216655434189e+00
 5.906262579907084e-20 -1.417741565692259e-17  4.206489886332367e-01
 1.015216655434189e+00  4.206489886332367e-01 -3.653188024349282e-17

-2.536111792960661e-17 -3.774148885548427e-20  1.015612688315476e+00
-3.774148885548427e-20 -1.418731940785305e-17  4.201239760245123e-01
 1.015612688315476e+00  4.201239760245123e-01 -3.652971367340233e-17

-2.543799023092787e-17 -5.344942080458632e-21  1.016073714334198e+00
-5.344942080458632e-21 -1.423918684675997e-17  4.194589966211252e-01
 1.016073714334198e+00  4.194589966211252e-01 -3.653015462719793e-17

-2.555287706810285e-17  4.101051031334794e-20  1.015847755768371e+00
 4.101051031334794e-20 -1.427963008960478e-17  4.197113178014741e-01
 1.015847755768371e+00  4.197113178014741e-01 -3.650712741420070e-17

-2.546694157479111e-17  2.378653886123096e-20  1.015355693464941e+00
 2.378653886123096e-20 -1.429042818079213e-17  4.203775029052568e-01
 1.015355693464941e+00  4.203775029052568e-01 -3.647534678834430e-17

-2.541756825892056e-17  1.662300665640864e-20  1.015338483479113e+00
 1.662300665640864e-20 -1.431523940832954e-17  4.204119267074569e-01
 1.015338483479113e+00  4.204119267074569e-01 -3.646046807143076e-17

-2.538747665786735e-17  1.424575973344369e-20  1.015756710406144e+00
 1.424575973344369e-20 -1.435055920099416e-17  4.198212907546938e-01
 1.015756710406144e+00  4.198212907546938e-01 -3.646106810356597e-17

-2.534718260354348e-17  9.157370482100945e-21  1.015961805043619e+00
 9.157370482100945e-21 -1.437924277171700e-17  4.195248744491740e-01
 1.015961805043619e+00  4.195248744491740e-01 -3.645465626592698e-17

-2.530920341120523e-17  5.575846700629667e-21  1.015793082574107e+00
 5.575846700629667e-21 -1.439707130330527e-17  4.198597045519731e-01
 1.015793082574107e+00  4.198597045519731e-01 -3.643581508064483e-17

-2.528416542645658e-17  5.803894716699901e-21  1.015621465903530e+00
 5.803894716699901e-21 -1.441281366775245e-17  4.203185525474589e-01
 1.015621465903530e+00  4.203185525474589e-01 -3.641739076093062e-17

-2.525259422442790e-17  3.468797679541264e-21  1.015593837349531e+00
 3.468797679541264e-21 -1.443238331252449e-17  4.204905539634251e-01
 1.015593837349531e+00  4.204905539634251e-01 -3.640412946879350e-17

-2.521769880058907e-17  3.106511551844533e-23  1.015637445315019e+00
 3.106511551844533e-23 -1.445505009223092e-17  4.203275182610499e-01
 1.015637445315019e+00  4.203275182610499e-01 -3.639328772592433e-17

-2.519033135139833e-17 -1.335922022716396e-21  1.015806362298300e+00
-1.335922022716396e-21 -1.448150188014463e-17  4.198966482164483e-01
 1.015806362298300e+00  4.198966482164483e-01 -3.638694198531923e-17

-2.516102458936981e-17 -3.526608462719963e-21  1.015978528812785e+00
-3.526608462719963e-21 -1.450549209782850e-17  4.195792836026102e-01
 1.015978528812785e+00  4.195792836026102e-01 -3.638118330110684e-17

-2.513486725624206e-17 -3.906369817110582e-21  1.015798212818604e+00
-3.906369817110582e-21 -1.451877170393771e-17  4.198688734226070e-01
 1.015798212818604e+00  4.198688734226070e-01 -3.636368443519190e-17

-2.510206076353125e-17 -5.987929766478511e-21  1.015390389645766e+00
-5.987929766478511e-21 -1.452561446937222e-17  4.204723236012903e-01
 1.015390389645766e+00  4.204723236012903e-01 -3.633859965335315e-17

-2.507404948048680e-17 -7.949595469083516e-21  1.015397132132872e+00
-7.949595469083516e-21 -1.454213479751757e-17  4.204763685843294e-01
 1.015397132132872e+00  4.204763685843294e-01 -3.632815673799661e-17

-2.505302179655396e-17 -9.211446103371533e-21  1.015897926973881e+00
-9.211446103371533e-21 -1.457045486993040e-17  4.198248941133416e-01
 1.015897926973881e+00  4.198248941133416e-01 -3.633516354200465e-17

-2.502901334242845e-17 -1.072494612293879e-20  1.016146723230473e+00
-1.072494612293879e-20 -1.459019232832507e-17  4.195664401877002e-01
 1.016146723230473e+00  4.195664401877002e-01 -3.633375281394937e-17

-2.499971124368194e-17 -1.196034735947616e-20  1.015693701396823e+00
-1.196034735947616e-20 -1.459359593343143e-17  4.202427160935485e-01
 1.015693701396823e+00  4.202427160935485e-01 -3.630819037070009e-17

-2.497086975492512e-17 -1.344771598800133e-20  1.015299709109496e+00
-1.344771598800133e-20 -1.459744795268595e-17  4.207931708943462e-01
 1.015299709109496e+00  4.207931708943462e-01 -3.628483555731824e-17

-2.494969843309730e-17 -1.492906959309206e-20  1.015695356035055e+00
-1.492906959309206e-20 -1.462045060460731e-17  4.202670945709829e-01
 1.015695356035055e+00  4.202670945709829e-01 -3.628911879148196e-17

-2.492950567027772e-17 -1.614432748679789e-20  1.016156165413516e+00
-1.614432748679789e-20 -1.464392639377289e-17  4.196009802436274e-01
 1.016156165413516e+00  4.196009802436274e-01 -3.629580979567159e-17

-2.490326959638670e-17 -1.728014862281112e-20  1.015929336913759e+00
-1.728014862281112e-20 -1.465142053310333e-17  4.198528893073568e-01
 1.015929336913759e+00  4.198528893073568e-01 -3.627881166628391e-17

-2.487519227782253e-17 -1.850034550530330e-20  1.015436723604460e+00
-1.850034550530330e-20 -1.465109241079837e-17  4.205183000680395e-01
 1.015436723604460e+00  4.205183000680395e-01 -3.625288049251343e-17

-2.485193870073935e-17 -1.979588042880187e-20  1.015419542550184e+00
-1.979588042880187e-20 -1.466147390223595e-17  4.205512913700499e-01
 1.015419542550184e+00  4.205512913700499e-01 -3.624368765484029e-17

-2.483333598560859e-17 -2.090587993668382e-20  1.015837329350664e+00
-2.090587993668382e-20 -1.468292729381301e-17  4.199597922196464e-01
 1.015837329350664e+00  4.199597922196464e-01 -3.624978004703085e-17

-2.481308777188180e-17 -2.191838833760098e-20  1.016041474936195e+00
-2.191838833760098e-20 -1.469781530742808e-17  4.196631575012289e-01
 1.016041474936195e+00  4.196631575012289e-01 -3.624867227557839e-17

-2.479020580032735e-17 -2.292720284451514e-20  1.015872291807256e+00
-2.292720284451514e-20 -1.470184256591372e-17  4.199972222705816e-01
 1.015872291807256e+00  4.199972222705816e-01 -3.623498796370888e-17

-2.476807625994888e-17 -2.399493711598183e-20  1.015700826115332e+00
-2.399493711598183e-20 -1.470397496977687e-17  4.204546356427917e-01
 1.015700826115332e+00  4.204546356427917e-01 -3.622158351229746e-17

-2.474729120388100e-17 -2.504365095742773e-20  1.015672855369371e+00
-2.504365095742773e-20 -1.471046154391696e-17  4.206258645504438e-01
 1.015672855369371e+00  4.206258645504438e-01 -3.621317204445352e-17

-2.472657644478813e-17 -2.606028687860049e-20  1.015715391021846e+00
-2.606028687860049e-20 -1.472052782249440e-17  4.204629229165259e-01
 1.015715391021846e+00  4.204629229165259e-01 -3.620700711192029e-17

-2.470699551296884e-17 -2.700651396127907e-20  1.015883823126115e+00
-2.700651396127907e-20 -1.473450097540497e-17  4.200314049095011e-01
 1.015883823126115e+00  4.200314049095011e-01 -3.620521647277372e-17

-2.468819380128015e-17 -2.785617191798955e-20  1.016056352205546e+00
-2.785617191798955e-20 -1.474703638424055e-17  4.197124058698224e-01
 1.016056352205546e+00  4.197124058698224e-01 -3.620390546599996e-17

-2.466687962020590e-17 -2.866128463507416e-20  1.015875795500727e+00
-2.866128463507416e-20 -1.474804751785240e-17  4.200011743129124e-01
 1.015875795500727e+00  4.200011743129124e-01 -3.619070113218490e-17

-2.464384917446216e-17 -2.953759526973776e-20  1.015467001718700e+00
-2.953759526973776e-20 -1.474498673507106e-17  4.206048198424560e-01
 1.015467001718700e+00  4.206048198424560e-01 -3.616975791783377e-17

-2.462493760156156e-17 -3.046532381292886e-20  1.015473291131384e+00
-3.046532381292886e-20 -1.475097026768479e-17  4.206085013302356e-01
 1.015473291131384e+00  4.206085013302356e-01 -3.616335132041315e-17

-2.461108384178303e-17 -3.127408483663547e-20  1.015973935952924e+00
-3.127408483663547e-20 -1.476810942686021e-17  4.199560756690026e-01
 1.015973935952924e+00  4.199560756690026e-01 -3.617428555751416e-17

-2.459534268507290e-17 -3.194660935111285e-20  1.016222421518915e+00
-3.194660935111285e-20 -1.477870012706887e-17  4.196966800573147e-01
 1.016222421518915e+00  4.196966800573147e-01 -3.617668154090112e-17

-2.457322533860892e-17 -3.262779633013033e-20  1.015769393936233e+00
-3.262779633013033e-20 -1.477169712868504e-17  4.203718899302525e-01
 1.015769393936233e+00  4.203718899302525e-01 -3.615482598270187e-17

-2.455172667624591e-17 -3.348267627084406e-20  1.015375009862308e+00
-3.348267627084406e-20 -1.476689391332341e-17  4.209219879018770e-01
 1.015375009862308e+00  4.209219879018770e-01 -3.613505765855276e-17

-2.453788857689960e-17 -3.429395683198948e-20  1.015769585090164e+00
-3.429395683198948e-20 -1.477982818899908e-17  4.203963121908331e-01
 1.015769585090164e+00  4.203963121908331e-01 -3.614279973207129e-17

-2.452473577568601e-17 -3.490658738451996e-20  1.016230197643303e+00
-3.490658738451996e-20 -1.479551117894530e-17  4.197294890466335e-01
 1.016230197643303e+00  4.197294890466335e-01 -3.615287992872176e-17

-2.450531609475858e-17 -3.547464568229949e-20  1.016003972167884e+00
-3.547464568229949e-20 -1.479447187203620e-17  4.199797703753020e-01
 1.016003972167884e+00  4.199797703753020e-01 -3.613920243792589e-17

-2.448382947550078e-17 -3.614479784176399e-20  1.015510956838418e+00
-3.614479784176399e-20 -1.478630353627865e-17  4.206448006061208e-01
 1.015510956838418e+00  4.206448006061208e-01 -3.611646337850049e-17

-2.446712865546304e-17 -3.688234239248635e-20  1.015492544179335e+00
-3.688234239248635e-20 -1.478905906477903e-17  4.206783952849934e-01
 1.015492544179335e+00  4.206783952849934e-01 -3.611034305622422e-17

-2.445473200297766e-17 -3.751476491404462e-20  1.015910021143635e+00
-3.751476491404462e-20 -1.480230889825417e-17  4.200863073503943e-01
 1.015910021143635e+00  4.200863073503943e-01 -3.611945248239300e-17

-2.444063813550968e-17 -3.803643356172677e-20  1.016114850327943e+00
-3.803643356172677e-20 -1.480975820034042e-17  4.197878918527633e-01
 1.016114850327943e+00  4.197878918527633e-01 -3.612131200286103e-17

-2.442375184762397e-17 -3.856713054490240e-20  1.015945624651452e+00
-3.856713054490240e-20 -1.480657022372058e-17  4.201212395135501e-01
 1.015945624651452e+00  4.201212395135501e-01 -3.611048825532910e-17

-2.440746430722827e-17 -3.917371761253773e-20  1.015772880396832e+00
-3.917371761253773e-20 -1.480209639888855e-17  4.205795631891044e-01
 1.015772880396832e+00  4.205795631891044e-01 -3.609982227172638e-17

-2.439236741854676e-17 -3.977816453859829e-20  1.015744052271548e+00
-3.977816453859829e-20 -1.480119272192514e-17  4.207510512228184e-01
 1.015744052271548e+00  4.207510512228184e-01 -3.609408710827115e-17

-2.437723206391169e-17 -4.037153147050529e-20  1.015787258240446e+00
-4.037153147050529e-20 -1.480569320814321e-17  4.205863346928175e-01
 1.015787258240446e+00  4.205863346928175e-01 -3.609057735751965e-17

-2.436308315590680e-17 -4.091249934466276e-20  1.015956326135187e+00
-4.091249934466276e-20 -1.481313779579834e-17  4.201531510461336e-01
 1.015956326135187e+00  4.201531510461336e-01 -3.609136899587204e-17

-2.434958069253498e-17 -4.136585107378192e-20  1.016127758903453e+00
-4.136585107378192e-20 -1.481955774492694e-17  4.198347774152732e-01
 1.016127758903453e+00  4.198347774152732e-01 -3.609251066571162e-17

-2.433346031030593e-17 -4.177930091721490e-20  1.015945934937340e+00
-4.177930091721490e-20 -1.481507211756417e-17  4.201245042847688e-01
 1.015945934937340e+00  4.201245042847688e-01 -3.608168620082681e-17

-2.431548078312321e-17 -4.228498651980782e-20  1.015537516803076e+00
-4.228498651980782e-20 -1.480595631238453e-17  4.207270472164113e-01
 1.015537516803076e+00  4.207270472164113e-01 -3.606311514380899e-17

-2.430154485429209e-17 -4.285164726030811e-20  1.015544459322214e+00
-4.285164726030811e-20 -1.480617051443672e-17  4.207290955034969e-01
 1.015544459322214e+00  4.207290955034969e-01 -3.605902694932505e-17

-2.429252581204141e-17 -4.331607468805679e-20  1.016044670443373e+00
-4.331607468805679e-20 -1.481835351512567e-17  4.200764387722002e-01
 1.016044670443373e+00  4.200764387722002e-01 -3.607218056494026e-17

-2.428150200359768e-17 -4.364995844825202e-20  1.016292196365537e+00
-4.364995844825202e-20 -1.482345011274845e-17  4.198176779754161e-01
 1.016292196365537e+00  4.198176779754161e-01 -3.607671882101790e-17

-2.426399538967534e-17 -4.401602558366485e-20  1.015838577185076e+00
-4.401602558366485e-20 -1.481234426015541e-17  4.204929847156181e-01
 1.015838577185076e+00  4.204929847156181e-01 -3.605696117645317e-17

-2.424704176311801e-17 -4.454497775490245e-20  1.015444596600658e+00
-4.454497775490245e-20 -1.480200500339443e-17  4.210417369886446e-01
 1.015444596600658e+00  4.210417369886446e-01 -3.603926968880524e-17

-2.423762960551787e-17 -4.505719682848493e-20  1.015839775913922e+00
-4.505719682848493e-20 -1.481133257479612e-17  4.205146269375700e-01
 1.015839775913922e+00  4.205146269375700e-01 -3.604904186441756e-17

-2.422879907587802e-17 -4.537933494023519e-20  1.016299600931024e+00
-4.537933494023519e-20 -1.482230370672821e-17  4.198482498334379e-01
 1.016299600931024e+00  4.198482498334379e-01 -3.606105133040137e-17

-2.421361013793436e-17 -4.566038312384643e-20  1.016071974869566e+00
-4.566038312384643e-20 -1.481709705392566e-17  4.200996857054490e-01
 1.016071974869566e+00  4.200996857054490e-01 -3.604923157489299e-17

-2.419628205158911e-17 -4.605205100061848e-20  1.015579176950560e+00
-4.605205100061848e-20 -1.480433146268353e-17  4.207638008984350e-01
 1.015579176950560e+00  4.207638008984350e-01 -3.602835771981916e-17

-2.418366417880152e-17 -4.651641575062692e-20  1.015561935194126e+00
-4.651641575062692e-20 -1.480293851779821e-17  4.207953215119238e-01
 1.015561935194126e+00  4.207953215119238e-01 -3.602408857890233e-17

-2.417523849572647e-17 -4.689283210836303e-20  1.015979058111730e+00
-4.689283210836303e-20 -1.481162580286424e-17  4.202031290705808e-01
 1.015979058111730e+00  4.202031290705808e-01 -3.603494932783201e-17

-2.416503836994657e-17 -4.715788569153196e-20  1.016182196077043e+00
-4.715788569153196e-20 -1.481601972827108e-17  4.199062995458246e-01
 1.016182196077043e+00  4.199062995458246e-01 -3.603846921990357e-17

-2.415196726414664e-17 -4.744865917241013e-20  1.016012540587317e+00
-4.744865917241013e-20 -1.480919388341577e-17  4.202395896510549e-01
 1.016012540587317e+00  4.202395896510549e-01 -3.602930671830152e-17

-2.413944140082924e-17 -4.781217239850003e-20  1.015841011865450e+00
-4.781217239850003e-20 -1.480129973023684e-17  4.206957029914595e-01
 1.015841011865450e+00  4.206957029914595e-01 -3.602031713867782e-17

-2.412801104814880e-17 -4.819143371332944e-20  1.015812590714960e+00
-4.819143371332944e-20 -1.479690609481068e-17  4.208660651958507e-01
 1.015812590714960e+00  4.208660651958507e-01 -3.601618956072329e-17

-2.411646608948298e-17 -4.856105873448991e-20  1.015854391109406e+00
-4.856105873448991e-20 -1.479810229817286e-17  4.207026501054837e-01
 1.015854391109406e+00  4.207026501054837e-01 -3.601418441768739e-17

-2.410583960206323e-17 -4.888861445937787e-20  1.016022477789048e+00
-4.888861445937787e-20 -1.480279196214373e-17  4.202703541088934e-01
 1.016022477789048e+00  4.202703541088934e-01 -3.601645735874157e-17

-2.409580001406143e-17 -4.913397154001739e-20  1.016194658313206e+00
-4.913397154001739e-20 -1.480523160071641e-17  4.199506559593859e-01
 1.016194658313206e+00  4.199506559593859e-01 -3.601910336938397e-17

-2.408307332822034e-17 -4.934421096483238e-20  1.016013215215271e+00
-4.934421096483238e-20 -1.479830267123222e-17  4.202392379443879e-01
 1.016013215215271e+00  4.202392379443879e-01 -3.600973441188489e-17

-2.406841939356072e-17 -4.964796773560437e-20  1.015604090020545e+00
-4.964796773560437e-20 -1.478638584842102e-17  4.208419331115785e-01
 1.015604090020545e+00  4.208419331115785e-01 -3.599254531382027e-17

-2.405774341850549e-17 -5.002080667917339e-20  1.015610626470945e+00
-5.002080667917339e-20 -1.478382974811332e-17  4.208440551791137e-01
 1.015610626470945e+00  4.208440551791137e-01 -3.598981601703759e-17

-2.405192674233981e-17 -5.030193667164755e-20  1.016110715308004e+00
-5.030193667164755e-20 -1.479299449205046e-17  4.201911787823018e-01
 1.016110715308004e+00  4.201911787823018e-01 -3.600430539379333e-17

-2.404405120742886e-17 -5.045810193503086e-20  1.016358189220274e+00
-5.045810193503086e-20 -1.479558180687002e-17  4.199320702828551e-01
 1.016358189220274e+00  4.199320702828551e-01 -3.601014980062802e-17

-2.402963765555585e-17 -5.064107045811919e-20  1.015904704063711e+00
-5.064107045811919e-20 -1.478128544831312e-17  4.206069151507985e-01
 1.015904704063711e+00  4.206069151507985e-01 -3.599167415497579e-17

-2.401570972285084e-17 -5.100473713491911e-20  1.015510186460131e+00
-5.100473713491911e-20 -1.476962962924042e-17  4.211559235131177e-01
 1.015510186460131e+00  4.211559235131177e-01 -3.597521043849566e-17

-2.400927112183516e-17 -5.135061540549889e-20  1.015904693574952e+00
-5.135061540549889e-20 -1.477621975580597e-17  4.206289772924078e-01
 1.015904693574952e+00  4.206289772924078e-01 -3.598617566195549e-17

-2.400337369848735e-17 -5.151887455265162e-20  1.016365061180152e+00
-5.151887455265162e-20 -1.478528342796755e-17  4.199613866751826e-01
 1.016365061180152e+00  4.199613866751826e-01 -3.599939273868650e-17

-2.399106255986417e-17 -5.163918155740896e-20  1.016137835776911e+00
-5.163918155740896e-20 -1.477710280413049e-17  4.202120779865185e-01
 1.016137835776911e+00  4.202120779865185e-01 -3.598874814120551e-17

-2.397655072541327e-17 -5.187881254386250e-20  1.015643918036923e+00
-5.187881254386250e-20 -1.476276164963411e-17  4.208772805346768e-01
 1.015643918036923e+00  4.208772805346768e-01 -3.596896993881450e-17

-2.396670611211871e-17 -5.219785579320606e-20  1.015626018546542e+00
-5.219785579320606e-20 -1.475852823593315e-17  4.209092199621894e-01
 1.015626018546542e+00  4.209092199621894e-01 -3.596578476237518e-17

-2.396101959013967e-17 -5.243297148467399e-20  1.016043804608337e+00
-5.243297148467399e-20 -1.476689364754002e-17  4.203158345690487e-01
 1.016043804608337e+00  4.203158345690487e-01 -3.597775119807023e-17

-2.395350740097978e-17 -5.256038294294169e-20  1.016247267447519e+00
-5.256038294294169e-20 -1.476866062281688e-17  4.200181710824016e-01
 1.016247267447519e+00  4.200181710824016e-01 -3.598234054527439e-17

-2.394307075102441e-17 -5.271236388588747e-20  1.016076982128126e+00
-5.271236388588747e-20 -1.476085291643950e-17  4.203519322090489e-01
 1.016076982128126e+00  4.203519322090489e-01 -3.597418999434837e-17

-2.393313548955387e-17 -5.294431782168259e-20  1.015904774196049e+00
-5.294431782168259e-20 -1.475024528892630e-17  4.208086066232005e-01
 1.015904774196049e+00  4.208086066232005e-01 -3.596618722177093e-17

-2.392426147500231e-17 -5.319410611191914e-20  1.015876310665313e+00
-5.319410611191914e-20 -1.474430092715993e-17  4.209786858160080e-01
 1.015876310665313e+00  4.209786858160080e-01 -3.596304599813085e-17

-2.391523513555067e-17 -5.344034703524875e-20  1.015918512980456e+00
-5.344034703524875e-20 -1.474374267396224e-17  4.208143772953418e-01
 1.015918512980456e+00  4.208143772953418e-01 -3.596202114034154e-17

-2.390708365539493e-17 -5.364982930083915e-20  1.016086574562520e+00
-5.364982930083915e-20 -1.474760273827650e-17  4.203817529786035e-01
 1.016086574562520e+00  4.203817529786035e-01 -3.596523726142813e-17

-2.389947568542926e-17 -5.377568659601472e-20  1.016258073717228e+00
-5.377568659601472e-20 -1.474883848272249e-17  4.200626064240627e-01
 1.016258073717228e+00  4.200626064240627e-01 -3.596878318911765e-17

-2.388914590185875e-17 -5.387585513473961e-20  1.016076381136400e+00
-5.387585513473961e-20 -1.474031357339481e-17  4.203513574027824e-01
 1.016076381136400e+00  4.203513574027824e-01 -3.596030919968842e-17

-2.387685717104050e-17 -5.406725006521635e-20  1.015667430217206e+00
-5.406725006521635e-20 -1.472627817866725e-17  4.209537098758277e-01
 1.015667430217206e+00  4.209537098758277e-01 -3.594401072198870e-17

-2.386850699210717e-17 -5.433172073639340e-20  1.015673830725975e+00
-5.433172073639340e-20 -1.472295537498006e-17  4.209556827415141e-01
 1.015673830725975e+00  4.209556827415141e-01 -3.594214146823517e-17

-2.386498016449894e-17 -5.451052778307661e-20  1.016173695292983e+00
-5.451052778307661e-20 -1.473090161765297e-17  4.203027232838721e-01
 1.016173695292983e+00  4.203027232838721e-01 -3.595746893378941e-17

-2.385936200319224e-17 -5.456102932435355e-20  1.016420978402655e+00
-5.456102932435355e-20 -1.473187738899945e-17  4.200435368789200e-01
 1.016420978402655e+00  4.200435368789200e-01 -3.596413482812514e-17

-2.384717179816289e-17 -5.464958217585393e-20  1.015967286765933e+00
-5.464958217585393e-20 -1.471770625977020e-17  4.207183732430095e-01
 1.015967286765933e+00  4.207183732430095e-01 -3.594646277299487e-17

-2.383544060022800e-17 -5.490955410292779e-20  1.015572919222455e+00
-5.490955410292779e-20 -1.470394575472599e-17  4.212671123833210e-01
 1.015572919222455e+00  4.212671123833210e-01 -3.593079860366249e-17

-2.383116545315507e-17 -5.516415254248080e-20  1.015967399703189e+00
-5.516415254248080e-20 -1.470960031693256e-17  4.207402601871176e-01
 1.015967399703189e+00  4.207402601871176e-01 -3.594254037584853e-17

-2.382739236926128e-17 -5.523720580750296e-20  1.016426907295180e+00
-5.523720580750296e-20 -1.471774725860787e-17  4.200735849183808e-01
 1.016426907295180e+00  4.200735849183808e-01 -3.595648822036532e-17

-2.381718208010930e-17 -5.527101476541913e-20  1.016199416392487e+00
-5.527101476541913e-20 -1.470873979761378e-17  4.203242260926409e-01
 1.016199416392487e+00  4.203242260926409e-01 -3.594657961642596e-17

-2.380475545823561e-17 -5.542315694160881e-20  1.015706588689631e+00
-5.542315694160881e-20 -1.469337416588766e-17  4.209879295997414e-01
 1.015706588689631e+00  4.209879295997414e-01 -3.592756951614933e-17

-2.379695708689694e-17 -5.565952327464159e-20  1.015688562931391e+00
-5.565952327464159e-20 -1.468918246486275e-17  4.210200409256230e-01
 1.015688562931391e+00  4.210200409256230e-01 -3.592509633705319e-17

-2.379327356731931e-17 -5.580890183229836e-20  1.016104710550364e+00
-5.580890183229836e-20 -1.469559812544049e-17  4.204285483840809e-01
 1.016104710550364e+00  4.204285483840809e-01 -3.593770665766243e-17

-2.378775519557480e-17 -5.586082154042842e-20  1.016308214076527e+00
-5.586082154042842e-20 -1.469752539266572e-17  4.201308258816074e-01
 1.016308214076527e+00  4.201308258816074e-01 -3.594298429969176e-17

-2.377929780738213e-17 -5.592904010450803e-20  1.016139077806145e+00
-5.592904010450803e-20 -1.468805765350447e-17  4.204631357083601e-01
 1.016139077806145e+00  4.204631357083601e-01 -3.593554776412609e-17

-2.377129934694595e-17 -5.608047884268188e-20  1.015966354553736e+00
-5.608047884268188e-20 -1.467686247450681e-17  4.209203035159365e-01
 1.015966354553736e+00  4.209203035159365e-01 -3.592818795748778e-17

-2.376433502655723e-17 -5.626032009228883e-20  1.015937054313940e+00
-5.626032009228883e-20 -1.467040686201521e-17  4.210914372449621e-01
 1.015937054313940e+00  4.210914372449621e-01 -3.592566554053941e-17

-2.375720631894433e-17 -5.643054083756995e-20  1.015979522344142e+00
-5.643054083756995e-20 -1.466991975146167e-17  4.209270691625907e-01
 1.015979522344142e+00  4.209270691625907e-01 -3.592528539062070e-17

-2.375092516826878e-17 -5.656708686542010e-20  1.016147478237056e+00
-5.656708686542010e-20 -1.467239980312677e-17  4.204946547428921e-01
 1.016147478237056e+00  4.204946547428921e-01 -3.592912141852827e-17

-2.374516022465816e-17 -5.662952470569326e-20  1.016318517531557e+00
-5.662952470569326e-20 -1.467403653489391e-17  4.201760277987733e-01
 1.016318517531557e+00  4.201760277987733e-01 -3.593326278458880e-17

-2.373665826619255e-17 -5.665945753807978e-20  1.016136971173662e+00
-5.665945753807978e-20 -1.466492473674506e-17  4.204646630001000e-01
 1.016136971173662e+00  4.204646630001000e-01 -3.592539428632495e-17

-2.372617601260875e-17 -5.678228249460043e-20  1.015728154500873e+00
-5.678228249460043e-20 -1.465006055444482e-17  4.210670503506494e-01
 1.015728154500873e+00  4.210670503506494e-01 -3.590969028432661e-17

-2.371960502011478e-17 -5.698574022317181e-20  1.015734019501880e+00
-5.698574022317181e-20 -1.464721626550264e-17  4.210699491703523e-01
 1.015734019501880e+00  4.210699491703523e-01 -3.590838135118832e-17

-2.371783726620452e-17 -5.709685255070222e-20  1.016233341195324e+00
-5.709685255070222e-20 -1.465338220931993e-17  4.204179515193030e-01
 1.016233341195324e+00  4.204179515193030e-01 -3.592425849060966e-17

-2.371396534239294e-17 -5.708722653911429e-20  1.016480818429381e+00
-5.708722653911429e-20 -1.465471687246304e-17  4.201588067738095e-01
 1.016480818429381e+00  4.201588067738095e-01 -3.593149007627870e-17

-2.370350191921544e-17 -5.711048657582345e-20  1.016027325585335e+00
-5.711048657582345e-20 -1.463941632599698e-17  4.208337371183752e-01
 1.016027325585335e+00  4.208337371183752e-01 -3.591437442740534e-17

-2.369347326359857e-17 -5.731077061083837e-20  1.015632564694966e+00
-5.731077061083837e-20 -1.462625295193015e-17  4.213833839164652e-01
 1.015632564694966e+00  4.213833839164652e-01 -3.589923703138677e-17

-2.369088387841000e-17 -5.751048701495703e-20  1.016026754864821e+00
-5.751048701495703e-20 -1.463120810539792e-17  4.208574563214419e-01
 1.016026754864821e+00  4.208574563214419e-01 -3.591149932282046e-17

-2.368877990076605e-17 -5.752839499151577e-20  1.016486069033824e+00
-5.752839499151577e-20 -1.463982569632688e-17  4.201916873876647e-01
 1.016486069033824e+00  4.201916873876647e-01 -3.592596301351305e-17

-2.368021916799949e-17 -5.750431445206712e-20  1.016258187848604e+00
-5.750431445206712e-20 -1.463082111101390e-17  4.204433537417256e-01
 1.016258187848604e+00  4.204433537417256e-01 -3.591655560545346e-17

-2.366942540445830e-17 -5.760258337855293e-20  1.015765101189035e+00
-5.760258337855293e-20 -1.461510980773542e-17  4.211078572869564e-01
 1.015765101189035e+00  4.211078572869564e-01 -3.589804295293426e-17

-2.366324538687708e-17 -5.777761983630523e-20  1.015747019359317e+00
-5.777761983630523e-20 -1.461059018796192e-17  4.211404859104719e-01
 1.015747019359317e+00  4.211404859104719e-01 -3.589606639394080e-17

-2.366116616242196e-17 -5.787457439273297e-20  1.016163139757701e+00
-5.787457439273297e-20 -1.461611471239968e-17  4.205497585776570e-01
 1.016163139757701e+00  4.205497585776570e-01 -3.590916782058272e-17

-2.365724040478020e-17 -5.787737977384181e-20  1.016366804536687e+00
-5.787737977384181e-20 -1.461825616359387e-17  4.202532263635477e-01
 1.016366804536687e+00  4.202532263635477e-01 -3.591493733851281e-17

-2.365035507463706e-17 -5.789480613553640e-20  1.016197175187274e+00
-5.789480613553640e-20 -1.460956832344915e-17  4.205879542736250e-01
 1.016197175187274e+00  4.205879542736250e-01 -3.590796412822987e-17

-2.364390274050323e-17 -5.799223499630449e-20  1.016022918775178e+00
-5.799223499630449e-20 -1.459913843439847e-17  4.210484467235449e-01
 1.016022918775178e+00  4.210484467235449e-01 -3.590102511801847e-17

-2.363848326111411e-17 -5.812309279699239e-20  1.015993531270458e+00
-5.812309279699239e-20 -1.459278478548293e-17  4.212207316692163e-01
 1.015993531270458e+00  4.212207316692163e-01 -3.589896850164806e-17

-2.363289267029299e-17 -5.824116001052576e-20  1.016036808394410e+00
-5.824116001052576e-20 -1.459032394647708e-17  4.210562614994423e-01
 1.016036808394410e+00  4.210562614994423e-01 -3.589907986291671e-17

-2.362811955567450e-17 -5.832606456267111e-20  1.016203982882918e+00
-5.832606456267111e-20 -1.459321807301130e-17  4.206257850197442e-01
 1.016203982882918e+00  4.206257850197442e-01 -3.590334642212450e-17

-2.362386063084278e-17 -5.833992567537747e-20  1.016374810166087e+00
-5.833992567537747e-20 -1.459525011665621e-17  4.203095720132554e-01
 1.016374810166087e+00  4.203095720132554e-01 -3.590793608641789e-17

-2.361685573320314e-17 -5.831650524119426e-20  1.016192853800486e+00
-5.831650524119426e-20 -1.458599722092878e-17  4.206017824185371e-01
 1.016192853800486e+00  4.206017824185371e-01 -3.590051018163114e-17

-2.360784162760381e-17 -5.838805329303819e-20  1.015782069814446e+00
-5.838805329303819e-20 -1.457228538411243e-17  4.212094829009116e-01
 1.015782069814446e+00  4.212094829009116e-01 -3.588519178291826e-17

-2.360276240354122e-17 -5.853996388959005e-20  1.015789210813143e+00
-5.853996388959005e-20 -1.456827095866458e-17  4.212145317406042e-01
 1.015789210813143e+00  4.212145317406042e-01 -3.588438317481754e-17

-2.360255281106553e-17 -5.859719704629619e-20  1.016296635230683e+00
-5.859719704629619e-20 -1.457555054585858e-17  4.205610838297116e-01
 1.016296635230683e+00  4.205610838297116e-01 -3.590100146261237e-17

-2.360010741708360e-17 -5.852770193790469e-20  1.016539762840985e+00
-5.852770193790469e-20 -1.457703892641060e-17  4.203179869083024e-01
 1.016539762840985e+00  4.203179869083024e-01 -3.590854054699539e-17

-2.359056841216814e-17 -5.848874992798591e-20  1.016038991816633e+00
-5.848874992798591e-20 -1.456107686126124e-17  4.210427563700851e-01
 1.016038991816633e+00  4.210427563700851e-01 -3.589020504156596e-17

-2.358166102938000e-17 -5.864629278254809e-20  1.015624808356085e+00
-5.864629278254809e-20 -1.454855108786444e-17  4.215864242155644e-01
 1.015624808356085e+00  4.215864242155644e-01 -3.587479875748558e-17

-2.358089641425821e-17 -5.878183006000161e-20  1.016069551375154e+00
-5.878183006000161e-20 -1.455578160059888e-17  4.209676043261941e-01
 1.016069551375154e+00  4.209676043261941e-01 -3.588924961170923e-17

-2.358119439309843e-17 -5.872074102695042e-20  1.016617323693882e+00
-5.872074102695042e-20 -1.456514235703264e-17  4.202136340111694e-01
 1.016617323693882e+00  4.202136340111694e-01 -3.590731518181302e-17

-2.357478824589686e-17 -5.859564478200765e-20  1.016424109344006e+00
-5.859564478200765e-20 -1.455612187361898e-17  4.205274073159464e-01
 1.016424109344006e+00  4.205274073159464e-01 -3.589976807504130e-17

-2.356344033577985e-17 -5.860182294831953e-20  1.015705335433776e+00
-5.860182294831953e-20 -1.453550665043641e-17  4.215341181655887e-01
 1.015705335433776e+00  4.215341181655887e-01 -3.587398673348520e-17

-2.355796577010880e-17 -5.876468472480411e-20  1.015620032236328e+00
-5.876468472480411e-20 -1.453091668781723e-17  4.216362507786516e-01
 1.015620032236328e+00  4.216362507786516e-01 -3.587016723569160e-17

-2.356041345924569e-17 -5.877802473519318e-20  1.016365824256813e+00
-5.877802473519318e-20 -1.454476489631225e-17  4.206202992135695e-01
 1.016365824256813e+00  4.206202992135695e-01 -3.589527489836076e-17

-2.355733259374566e-17 -5.857681995151936e-20  1.016540178719862e+00
-5.857681995151936e-20 -1.454742526262647e-17  4.202945546510629e-01
 1.016540178719862e+00  4.202945546510629e-01 -3.590047812260437e-17

-2.354923551057940e-17 -5.846559700122222e-20  1.016106557592275e+00
-5.846559700122222e-20 -1.453300005852566e-17  4.209294035668791e-01
 1.016106557592275e+00  4.209294035668791e-01 -3.588494844921013e-17

-2.354484350395224e-17 -5.844337105836382e-20  1.015974042866610e+00
-5.844337105836382e-20 -1.452319954713137e-17  4.214068426072305e-01
 1.015974042866610e+00  4.214068426072305e-01 -3.588024562574164e-17

-2.354048506014997e-17 -5.838091235369686e-20  1.015903721510633e+00
-5.838091235369686e-20 -1.451672881279653e-17  4.216173054891486e-01
 1.015903721510633e+00  4.216173054891486e-01 -3.587750070762754e-17

-2.353660422838173e-17 -5.830906702757127e-20  1.016024501123530e+00
-5.830906702757127e-20 -1.451910262957003e-17  4.213640085859074e-01
 1.016024501123530e+00  4.213640085859074e-01 -3.588049085165369e-17

-2.353677726759878e-17 -5.838682821602805e-20  1.016485869129268e+00
-5.838682821602805e-20 -1.452783501876837e-17  4.206846949739579e-01
 1.016485869129268e+00  4.206846949739579e-01 -3.589610004713808e-17

-2.353255244253644e-17 -5.799228997643953e-20  1.016326887256372e+00
-5.799228997643953e-20 -1.452054043351416e-17  4.208521320674832e-01
 1.016326887256372e+00  4.208521320674832e-01 -3.589161188476492e-17

-2.352316444177837e-17 -5.780213559863023e-20  1.015738653004825e+00
-5.780213559863023e-20 -1.450181506455019e-17  4.217341485363501e-01
 1.015738653004825e+00  4.217341485363501e-01 -3.587105499348780e-17

-2.351922426292655e-17 -5.768348453079639e-20  1.015803885106193e+00
-5.768348453079639e-20 -1.449860913727215e-17  4.219835392290930e-01
 1.015803885106193e+00  4.219835392290930e-01 -3.587175967435240e-17

-2.351026200284975e-17 -5.183649937994828e-20  1.015923476947323e+00
-5.183649937994828e-20 -1.450060989035811e-17  4.219141519018633e-01
 1.015923476947323e+00  4.219141519018633e-01 -3.587535811683303e-17

-2.348581541672713e-17 -5.361482757186056e-20  1.014180483189444e+00
-5.361482757186056e-20 -1.446963073759662e-17  4.231220014943589e-01
 1.014180483189444e+00  4.231220014943589e-01 -3.581296423251084e-17

-2.336521506707358e-17 -5.469184199855684e-20  1.003791621333421e+00
-5.469184199855684e-20 -1.434948132978944e-17  4.288598571645749e-01
 1.003791621333421e+00  4.288598571645749e-01 -3.543731771601299e-17

-2.349255229668806e-17 -5.853591720868546e-20  1.017314114895819e+00
-5.853591720868546e-20 -1.470922824075453e-17  4.082874281258763e-01
 1.017314114895819e+00  4.082874281258763e-01 -3.589470039805688e-17

-2.415319681173154e-17 -1.956483429261755e-20  1.077221866081661e+00
-1.956483429261755e-20 -1.560384554488110e-17  3.603254818923646e-01
 1.077221866081661e+00  3.603254818923646e-01 -3.798532510521361e-17

-2.367562710969011e-17 -1.717427273409141e-20  1.023343879183702e+00
-1.717427273409141e-20 -1.415099174184282e-17  4.459242047874603e-01
 1.023343879183702e+00  4.459242047874603e-01 -3.615311345943374e-17

-2.222845738904934e-17  3.317611825080987e-20  8.907114121760954e-01
 3.317611825080987e-20 -1.178456228445585e-17  5.712665809725235e-01
 8.907114121760954e-01  5.712665809725235e-01 -3.144379058487312e-17

-2.333757453521276e-17 -3.109082297084250e-20  1.014834752507271e+00
-3.109082297084250e-20 -1.494430125479831e-17  3.910936675413385e-01
 1.014834752507271e+00  3.910936675413385e-01 -3.573970209996228e-17

-2.540616109920083e-17  3.024365939720024e-20  1.216335473232441e+00
 3.024365939720024e-20 -1.876497305127287e-17  1.692323440080891e-01
 1.216335473232441e+00  1.692323440080891e-01 -4.249721848852674e-17

-2.349680538198758e-17 -6.280891981134768e-20  1.016158906552145e+00
-6.280891981134768e-20 -1.441141093582282e-17  4.300308913278233e-01
 1.016158906552145e+00  4.300308913278233e-01 -3.590909351336090e-17

-2.166365164383864e-17 -1.053171066584036e-19  8.173417720812257e-01
-1.053171066584036e-19 -1.012317655844850e-17  6.865988433167917e-01
 8.173417720812257e-01  6.865988433167917e-01 -2.935727941921707e-17

-2.359476725288656e-17 -7.369261350276317e-20  1.018324790475932e+00
-7.369261350276317e-20 -1.417883408794880e-17  4.485382378057582e-01
 1.018324790475932e+00  4.485382378057582e-01 -3.604250057911471e-17

-2.486206116013962e-17 -1.610329334746425e-19  1.152867339058823e+00
-1.610329334746425e-19 -1.766051570836875e-17  2.485009548818540e-01
 1.152867339058823e+00  2.485009548818540e-01 -4.068658095195350e-17

-2.387260675383392e-17 -2.348710838216074e-20  1.064791497994230e+00
-2.348710838216074e-20 -1.588686618053725e-17  3.386546928652184e-01
 1.064791497994230e+00  3.386546928652184e-01 -3.748554617545764e-17

-2.299462820106282e-17 -6.582778242280742e-20  9.603538827499897e-01
-6.582778242280742e-20 -1.303126899485313e-17  5.099562610654188e-01
 9.603538827499897e-01  5.099562610654188e-01 -3.404232260725521e-17

-2.222098141615953e-17  1.270147894436370e-20  8.888268218193349e-01
 1.270147894436370e-20 -1.155755803016945e-17  5.859982525022582e-01
 8.888268218193349e-01  5.859982525022582e-01 -3.143795583068831e-17

-2.345712729433901e-17 -4.151707288726315e-20  1.026262902891320e+00
-4.151707288726315e-20 -1.506112058554966e-17  3.858750660617789e-01
 1.026262902891320e+00  3.858750660617789e-01 -3.616005964717847e-17

-2.540605640005014e-17  2.379940090822533e-20  1.218246922534663e+00
 2.379940090822533e-20 -1.878366032394926e-17  1.685036702425637e-01
 1.218246922534663e+00  1.685036702425637e-01 -4.256915896620603e-17

-2.347635400713361e-17 -6.379986269364566e-20  1.016505075727782e+00
-6.379986269364566e-20 -1.440220283329198e-17  4.300886841290921e-01
 1.016505075727782e+00  4.300886841290921e-01 -3.592195332537164e-17

-2.163567070670271e-17 -1.014962638098008e-19  8.167231252626406e-01
-1.014962638098008e-19 -1.008715124623468e-17  6.881087548916143e-01
 8.167231252626406e-01  6.881087548916143e-01 -2.933831675437124e-17

-2.353848499515919e-17 -7.326970712275030e-20  1.015590153930019e+00
-7.326970712275030e-20 -1.411307898984035e-17  4.517642736022427e-01
 1.015590153930019e+00  4.517642736022427e-01 -3.594312021491035e-17

-2.471064125934885e-17 -1.535233918958378e-19  1.142104765424219e+00
-1.535233918958378e-19 -1.752462263400906e-17  2.546909383918574e-01
 1.142104765424219e+00  2.546909383918574e-01 -4.029369626548325e-17

-2.394427995002002e-17  1.886265567021602e-20  1.076972434215051e+00
 1.886265567021602e-20 -1.621092285519289e-17  3.170469606104745e-01
 1.076972434215051e+00  3.170469606104745e-01 -3.783119707457667e-17

-2.363016262453383e-17 -1.071491587590350e-20  1.020524280131964e+00
-1.071491587590350e-20 -1.396068436709933e-17  4.569563037483563e-01
 1.020524280131964e+00  4.569563037483563e-01 -3.608554550876186e-17

-2.192088554056182e-17  9.580263508755084e-20  8.544724800426650e-01
 9.580263508755084e-20 -1.054659133066684e-17  6.457205496644316e-01
 8.544724800426650e-01  6.457205496644316e-01 -3.034526132794451e-17

-2.239460534252660e-17  1.245681314926397e-19  9.312708358045085e-01
 1.245681314926397e-19 -1.310955588930101e-17  4.841521996955657e-01
 9.312708358045085e-01  4.841521996955657e-01 -3.272601679424649e-17

-2.583624373107449e-17  1.683015957964444e-21  1.273560177392953e+00
 1.683015957964444e-21 -2.015591306925911e-17  8.556065193367113e-02
 1.273560177392953e+00  8.556065193367113e-02 -4.400272731012601e-17

-2.514985797394005e-17  2.575506102605684e-19  1.201086957539706e+00
 2.575506102605684e-19 -1.773880940025821e-17  2.116683192921951e-01
 1.201086957539706e+00  2.116683192921951e-01 -4.127058388216917e-17

-2.077461510981972e-17 -2.741770036842483e-19  7.130002426752998e-01
-2.741770036842483e-19 -8.323731816683706e-18  8.213165650224323e-01
 7.130002426752998e-01  8.213165650224323e-01 -2.696165962161370e-17

-2.220304730801462e-17  8.588364500933546e-20  8.746693444841858e-01
 8.588364500933546e-20 -1.097284809691910e-17  6.341213274412909e-01
 8.746693444841858e-01  6.341213274412909e-01 -3.140069714574302e-17

-2.665980681149297e-17 -4.187585430866487e-19  1.314691011664704e+00
-4.187585430866487e-19 -2.037413110070692e-17  1.167577802913072e-01
 1.314691011664704e+00  1.167577802913072e-01 -4.602459256344718e-17

-2.430887361945239e-17 -1.231009387176415e-19  1.112434376446509e+00
-1.231009387176415e-19 -1.685371317174415e-17  2.873016459572182e-01
 1.112434376446509e+00  2.873016459572182e-01 -3.904955273090333e-17

-2.076544512940907e-17 -1.508763408177649e-19  7.527919249741619e-01
-1.508763408177649e-19 -9.678568051542939e-18  7.030701690953590e-01
 7.527919249741619e-01  7.030701690953590e-01 -2.717646015533167e-17

-2.280755007354121e-17 -5.866840722965920e-20  9.612408291160743e-01
-5.866840722965920e-20 -1.345896385255757e-17  4.785960541042019e-01
 9.612408291160743e-01  4.785960541042019e-01 -3.397677545270395e-17

-2.592006810989830e-17 -5.453941295305137e-20  1.263302929279315e+00
-5.453941295305137e-20 -1.932725187719813e-17  1.448489627195862e-01
 1.263302929279315e+00  1.448489627195862e-01 -4.416026686721458e-17

-2.357472023525450e-17 -7.705638696008744e-20  1.028582243275039e+00
-7.705638696008744e-20 -1.464330366365110e-17  4.167420282085391e-01
 1.028582243275039e+00  4.167420282085391e-01 -3.633776274332723e-17

-2.158248881063320e-17 -1.132245541210450e-19  8.153051385573662e-01
-1.132245541210450e-19 -1.007291939695896e-17  6.875817953754980e-01
 8.153051385573662e-01  6.875817953754980e-01 -2.927899077397605e-17

-2.361900905788812e-17 -9.465004645048380e-20  1.025960498984110e+00
-9.465004645048380e-20 -1.419843655329618e-17  4.457446322241500e-01
 1.025960498984110e+00  4.457446322241500e-01 -3.630166759168829e-17

-2.480935116069982e-17 -1.932074377601509e-19  1.152870801022091e+00
-1.932074377601509e-19 -1.745047311234276e-17  2.591384697291814e-01
 1.152870801022091e+00  2.591384697291814e-01 -4.071682295030190e-17

-2.316298435149344e-17 -8.158699182579198e-20  1.005069691787554e+00
-8.158699182579198e-20 -1.478736365456317e-17  3.970734008849539e-01
 1.005069691787554e+00  3.970734008849539e-01 -3.545138966088635e-17

-2.269492588095976e-17 -1.008352094312180e-19  9.496511621092553e-01
-1.008352094312180e-19 -1.322425073150094e-17  4.880810714930282e-01
 9.496511621092553e-01  4.880810714930282e-01 -3.356655812088289e-17

-2.340886394372813e-17 -8.179313375844329e-20  1.014054722109445e+00
-8.179313375844329e-20 -1.416816139702402e-17  4.368021522951301e-01
 1.014054722109445e+00  4.368021522951301e-01 -3.581207562749576e-17

-2.354386461496519e-17 -7.319561134871169e-20  1.028509409073665e+00
-7.319561134871169e-20 -1.455049202758754e-17  4.149897613250061e-01
 1.028509409073665e+00  4.149897613250061e-01 -3.629971995934810e-17

-2.342814849927155e-17 -6.201345861356972e-20  1.018583621471528e+00
-6.201345861356972e-20 -1.443996447162370e-17  4.199960228376304e-01
 1.018583621471528e+00  4.199960228376304e-01 -3.593974560683870e-17

-2.340355359244035e-17 -6.077765363685957e-20  1.016432628206436e+00
-6.077765363685957e-20 -1.439849835243970e-17  4.217306571312830e-01
 1.016432628206436e+00  4.217306571312830e-01 -3.586415754117571e-17

-2.339900915810083e-17 -6.180931737498543e-20  1.016027405030636e+00
-6.180931737498543e-20 -1.438594184281013e-17  4.222374631451979e-01
 1.016027405030636e+00  4.222374631451979e-01 -3.585002966809207e-17

-2.340284048714551e-17 -6.122232166586138e-20  1.016746757501635e+00
-6.122232166586138e-20 -1.440042849382803e-17  4.213909656920525e-01
 1.016746757501635e+00  4.213909656920525e-01 -3.587356710518888e-17

-2.340331822705512e-17 -6.057623639030178e-20  1.016977497591628e+00
-6.057623639030178e-20 -1.440367119855594e-17  4.209954789587425e-01
 1.016977497591628e+00  4.209954789587425e-01 -3.588179749358529e-17

-2.339491392101961e-17 -6.063142070746571e-20  1.016151315270996e+00
-6.063142070746571e-20 -1.438514268945435e-17  4.218028528498126e-01
 1.016151315270996e+00  4.218028528498126e-01 -3.585450438489759e-17

-2.339251681413236e-17 -6.066110954820151e-20  1.016023436463056e+00
-6.066110954820151e-20 -1.438146872758517e-17  4.219788624446904e-01
 1.016023436463056e+00  4.219788624446904e-01 -3.585028002246064e-17

-2.339720274295435e-17 -6.055042329237247e-20  1.016552052852385e+00
-6.055042329237247e-20 -1.438981338038740e-17  4.213835054895471e-01
 1.016552052852385e+00  4.213835054895471e-01 -3.586952560929648e-17

-2.339626861375244e-17 -6.032258848592181e-20  1.016579908699053e+00
-6.032258848592181e-20 -1.438955142830486e-17  4.213724582579435e-01
 1.016579908699053e+00  4.213724582579435e-01 -3.587068830539128e-17

-2.338951201067382e-17 -6.016158213273597e-20  1.015953249969827e+00
-6.016158213273597e-20 -1.437650813718861e-17  4.220638241611225e-01
 1.015953249969827e+00  4.220638241611225e-01 -3.584993976110979e-17

-2.338815100989116e-17 -6.026025741713813e-20  1.016018606179572e+00
-6.026025741713813e-20 -1.437867860175393e-17  4.219705727902164e-01
 1.016018606179572e+00  4.219705727902164e-01 -3.585188524572944e-17

-2.339260138826399e-17 -5.973438808293999e-20  1.016644069739012e+00
-5.973438808293999e-20 -1.439439551089127e-17  4.211732169147529e-01
 1.016644069739012e+00  4.211732169147529e-01 -3.587341400462986e-17

-2.339374955755363e-17 -5.895433108871098e-20  1.016507748532860e+00
-5.895433108871098e-20 -1.439272615286204e-17  4.211540830014959e-01
 1.016507748532860e+00  4.211540830014959e-01 -3.587296433263979e-17

-2.339055075330473e-17 -5.975569609430700e-20  1.016219153141379e+00
-5.975569609430700e-20 -1.439055560974529e-17  4.214068251745944e-01
 1.016219153141379e+00  4.214068251745944e-01 -3.586491517226248e-17

-2.341114759807095e-17 -5.926766184000883e-20  1.018014674061092e+00
-5.926766184000883e-20 -1.441930333142409e-17  4.201139817127972e-01
 1.018014674061092e+00  4.201139817127972e-01 -3.592912063725004e-17

-2.354553937042683e-17 -4.447423718561138e-20  1.029956279682479e+00
-4.447423718561138e-20 -1.455738973429857e-17  4.132594839350771e-01
 1.029956279682479e+00  4.132594839350771e-01 -3.635126806613139e-17

-2.350529148711280e-17 -3.519812754635253e-20  1.024576200062070e+00
-3.519812754635253e-20 -1.426699839970294e-17  4.286802454847817e-01
 1.024576200062070e+00  4.286802454847817e-01 -3.616068856417339e-17

-2.267803596325694e-17 -3.209680386787795e-21  9.513071091610711e-01
-3.209680386787795e-21 -1.302998374492677e-17  4.915381752861538e-01
 9.513071091610711e-01  4.915381752861538e-01 -3.352124451938076e-17

-2.268319840435008e-17 -1.922118604955338e-20  9.670968878905485e-01
-1.922118604955338e-20 -1.399880638527805e-17  4.308386912784937e-01
 9.670968878905485e-01  4.308386912784937e-01 -3.398873114908192e-17

-2.452553635805892e-17  6.289117036007282e-20  1.148233395436834e+00
 6.289117036007282e-20 -1.750527866843125e-17  2.286963043957586e-01
 1.148233395436834e+00  2.286963043957586e-01 -4.007663105271747e-17

-2.479176285601969e-17  1.551658707116352e-19  1.155404904389650e+00
 1.551658707116352e-19 -1.658152764429612e-17  2.886761291784754e-01
 1.155404904389650e+00  2.886761291784754e-01 -4.028559605499317e-17

-2.181174694074292e-17 -9.934852848403116e-20  8.306578405506773e-01
-9.934852848403116e-20 -9.932091147881284e-18  7.020072962352296e-01
 8.306578405506773e-01  7.020072962352296e-01 -3.003883573098061e-17

-2.195071254500653e-17  1.741652908450003e-19  8.677220998819740e-01
 1.741652908450003e-19 -1.077220260464762e-17  6.268142484824843e-01
 8.677220998819740e-01  6.268142484824843e-01 -3.081566028806120e-17

-2.501948735120632e-17 -3.293613365451432e-19  1.177814589229101e+00
-3.293613365451432e-19 -1.821726259933675e-17  2.220331943543974e-01
 1.177814589229101e+00  2.220331943543974e-01 -4.149813995966116e-17

-2.483901818560557e-17 -1.328178466858077e-20  1.183094658240933e+00
-1.328178466858077e-20 -1.856970166934967e-17  1.732460971668480e-01
 1.183094658240933e+00  1.732460971668480e-01 -4.125771784350124e-17

-2.215067156336506e-17 -2.129179344215499e-19  8.968815070179600e-01
-2.129179344215499e-19 -1.255724342012063e-17  5.374843233351714e-01
 8.968815070179600e-01  5.374843233351714e-01 -3.203846111813848e-17

-2.229474466499725e-17 -1.841451924864573e-19  8.880782789014514e-01
-1.841451924864573e-19 -1.148107006813361e-17  6.099776549094902e-01
 8.880782789014514e-01  6.099776549094902e-01 -3.179625466343193e-17

-2.463311727503615e-17 -1.089982891806113e-19  1.113815232122220e+00
-1.089982891806113e-19 -1.554652006730695e-17  3.765633335534332e-01
 1.113815232122220e+00  3.765633335534332e-01 -3.947376334099515e-17

-2.388284932172841e-17 -2.940918949269401e-20  1.055008549704619e+00
-2.940918949269401e-20 -1.480505687280167e-17  4.068053675233982e-01
 1.055008549704619e+00  4.068053675233982e-01 -3.728383047688309e-17

-2.201700469046336e-17  6.205213286187435e-20  8.949701741423370e-01
 6.205213286187435e-20 -1.227814324641878e-17  5.300149626534448e-01
 8.949701741423370e-01  5.300149626534448e-01 -3.147717105694591e-17

-2.277618032256978e-17  1.841664640724570e-20  9.872085606489407e-01
 1.841664640724570e-20 -1.489356362795729e-17  3.756168247937553e-01
 9.872085606489407e-01  3.756168247937553e-01 -3.455521117478762e-17

-2.529213614022708e-17  2.796774151134870e-19  1.234583469212827e+00
 2.796774151134870e-19 -1.918638512825433e-17  1.184425285283344e-01
 1.234583469212827e+00  1.184425285283344e-01 -4.241730870923027e-17

-2.497938695293467e-17  2.276347243902361e-19  1.164119166876259e+00
 2.276347243902361e-19 -1.638450429830323e-17  3.053702056146467e-01
 1.164119166876259e+00  3.053702056146467e-01 -4.037578980416988e-17

-2.187971442455274e-17 -1.669266641842143e-19  7.973407003133046e-01
-1.669266641842143e-19 -8.916646711154175e-18  8.022358925199222e-01
 7.973407003133046e-01  8.022358925199222e-01 -2.995712824411652e-17

-2.206179237224965e-17  4.723590423117924e-19  8.609512027623730e-01
 4.723590423117924e-19 -9.956510128620191e-18  6.798105540678593e-01
 8.609512027623730e-01  6.798105540678593e-01 -3.100795170942830e-17

-2.429467762927325e-17 -4.229519865850406e-19  1.110880722920728e+00
-4.229519865850406e-19 -1.732005226179241e-17  2.768729137348334e-01
 1.110880722920728e+00  2.768729137348334e-01 -3.890949101841008e-17

-2.372180349854399e-17 -2.115056150222965e-19  9.784483269447434e-01
-2.115056150222965e-19 -1.282995396432603e-17  5.820584107577557e-01
 9.784483269447434e-01  5.820584107577557e-01 -3.573649674301148e-17

-2.180707644211484e-17  5.022358373586619e-20  7.554882009521471e-01
 5.022358373586619e-20 -7.973098766824432e-18  8.870228534467377e-01
 7.554882009521471e-01  8.870228534467377e-01 -2.924960309046145e-17

-2.552665879683466e-17  6.570597974124060e-19  1.265382376627794e+00
 6.570597974124060e-19 -1.959590490853188e-17  8.044337858656345e-02
 1.265382376627794e+00  8.044337858656345e-02 -4.239739291528427e-17

-2.511290331600659e-17 -3.048683712737030e-20  1.209288634222847e+00
-3.048683712737030e-20 -1.965718500581911e-17  1.205282241815966e-01
 1.209288634222847e+00  1.205282241815966e-01 -4.171838818319625e-17

-2.258620447632166e-17  2.881444953875727e-19  9.416964474663868e-01
 2.881444953875727e-19 -1.308465160160482e-17  4.920348560726752e-01
 9.416964474663868e-01  4.920348560726752e-01 -3.310147610990988e-17

-2.184966317710102e-17  3.350098377274951e-19  8.296923696985768e-01
 3.350098377274951e-19 -9.630971781204544e-18  7.095804924627873e-01
 8.296923696985768e-01  7.095804924627873e-01 -2.963386424602051e-17

-2.425981381092203e-17  1.379745872851098e-19  1.060671861327745e+00
 1.379745872851098e-19 -1.406186046996222e-17  4.688223916874917e-01
 1.060671861327745e+00  4.688223916874917e-01 -3.753105853184463e-17

-2.503974708844975e-17  2.069413867241445e-19  1.163070941297394e+00
 2.069413867241445e-19 -1.685132198374197e-17  2.905031719415594e-01
 1.163070941297394e+00  2.905031719415594e-01 -4.075145031834934e-17

-2.300484128756505e-17  6.884221440625697e-20  9.805331631668938e-01
 6.884221440625697e-20 -1.415464478241333e-17  4.382476494518324e-01
 9.805331631668938e-01  4.382476494518324e-01 -3.452157381967046e-17

-2.238357420722362e-17  3.385985094440899e-20  9.266003572361585e-01
 3.385985094440899e-20 -1.349727949366873e-17  4.733903603278574e-01
 9.266003572361585e-01  4.733903603278574e-01 -3.269679902358154e-17

-2.445765560318198e-17 -6.360920247941768e-20  1.117936803644399e+00
-6.360920247941768e-20 -1.705266898255621e-17  2.854059757397504e-01
 1.117936803644399e+00  2.854059757397504e-01 -3.948390097396201e-17

-2.499238444576289e-17 -1.539718818120451e-19  1.143776479717980e+00
-1.539718818120451e-19 -1.656061830630701e-17  3.321873338750001e-01
 1.143776479717980e+00  3.321873338750001e-01 -4.053336164978561e-17

-2.202580683149151e-17  9.012060661825131e-20  8.437548908283304e-01
 9.012060661825131e-20 -1.003710056406268e-17  7.000931372216945e-01
 8.437548908283304e-01  7.000931372216945e-01 -3.034234212759782e-17

-2.213147925407161e-17 -1.664781549730804e-19  8.546862884656026e-01
-1.664781549730804e-19 -1.085671867270779e-17  6.654604247868482e-01
 8.546862884656026e-01  6.654604247868482e-01 -3.103016268618908e-17

-2.518119882802330e-17  3.178053841334131e-19  1.205348218555202e+00
 3.178053841334131e-19 -1.822119662661978e-17  1.890980272250785e-01
 1.205348218555202e+00  1.890980272250785e-01 -4.163995912937741e-17

-2.498984644673490e-17  4.775720794830334e-21  1.184103213178790e+00
 4.775720794830334e-21 -1.852637750292835e-17  1.882490702283323e-01
 1.184103213178790e+00  1.882490702283323e-01 -4.136822712762726e-17

-2.234365685307559e-17  2.050345915820726e-19  9.178203031271476e-01
 2.050345915820726e-19 -1.253608182991997e-17  5.229652177349275e-01
 9.178203031271476e-01  5.229652177349275e-01 -3.227081682526436e-17

-2.233823296733275e-17  1.744487382908009e-19  8.916782709318578e-01
 1.744487382908009e-19 -1.123447399089638e-17  6.115445850027563e-01
 8.916782709318578e-01  6.115445850027563e-01 -3.154711564478630e-17

-2.438622685682903e-17  1.283478591690064e-19  1.090412574513135e+00
 1.283478591690064e-19 -1.515517425457303e-17  3.923751313480036e-01
 1.090412574513135e+00  3.923751313480036e-01 -3.842227076478577e-17

-2.419146381647116e-17  8.551204854350867e-20  1.083333479072542e+00
 8.551204854350867e-20 -1.568440820541331e-17  3.567234095421017e-01
 1.083333479072542e+00  3.567234095421017e-01 -3.813368388132863e-17

-2.336890139477283e-17  6.229555028960332e-20  1.007486423518866e+00
 6.229555028960332e-20 -1.439889252414202e-17  4.280586169603104e-01
 1.007486423518866e+00  4.280586169603104e-01 -3.551154436432005e-17

-2.341134196176513e-17  5.786101026661478e-20  1.008521777833532e+00
 5.786101026661478e-20 -1.423242714158368e-17  4.381919536640813e-01
 1.008521777833532e+00  4.381919536640813e-01 -3.557573831879439e-17

-2.356073874053361e-17  5.686623520532293e-20  1.021850729629397e+00
 5.686623520532293e-20 -1.441036774570639e-17  4.294212081585977e-01
 1.021850729629397e+00  4.294212081585977e-01 -3.605528014328850e-17

-2.353082895050820e-17  5.920739214585715e-20  1.018775214501619e+00
 5.920739214585715e-20 -1.435501850149999e-17  4.329914495923545e-01
 1.018775214501619e+00  4.329914495923545e-01 -3.594610412667002e-17

-2.354811517132463e-17  5.188876783963816e-20  1.019709348780257e+00
 5.188876783963816e-20 -1.437268506205143e-17  4.315269260674093e-01
 1.019709348780257e+00  4.315269260674093e-01 -3.597993834880505e-17

-2.358605888860133e-17  5.168150549502171e-20  1.023354695622253e+00
 5.168150549502171e-20 -1.444944100922334e-17  4.270754179998841e-01
 1.023354695622253e+00  4.270754179998841e-01 -3.610724787199418e-17

-2.356180096160966e-17  5.089945999718019e-20  1.021094958052402e+00
 5.089945999718019e-20 -1.440950320093361e-17  4.292559060622377e-01
 1.021094958052402e+00  4.292559060622377e-01 -3.602571984016262e-17

-2.354789101483908e-17  5.145785850045727e-20  1.019719109232599e+00
 5.145785850045727e-20 -1.438039683846762e-17  4.311119762400271e-01
 1.019719109232599e+00  4.311119762400271e-01 -3.597555960250031e-17

-2.356708684033694e-17  5.109306080503377e-20  1.021387173170254e+00
 5.109306080503377e-20 -1.440861420707033e-17  4.294273875905990e-01
 1.021387173170254e+00  4.294273875905990e-01 -3.603434426739166e-17

-2.356845049511024e-17  5.079285083286969e-20  1.021464734798394e+00
 5.079285083286969e-20 -1.441634032108067e-17  4.290348057515047e-01
 1.021464734798394e+00  4.290348057515047e-01 -3.603673977750375e-17

-2.356233235949975e-17  5.093053586545482e-20  1.020859157102653e+00
 5.093053586545482e-20 -1.440760875228621e-17  4.295202605882879e-01
 1.020859157102653e+00  4.295202605882879e-01 -3.601466486527374e-17

-2.356624393157762e-17  5.087686582261006e-20  1.021141783689187e+00
 5.087686582261006e-20 -1.441376639655467e-17  4.292158744117338e-01
 1.021141783689187e+00  4.292158744117338e-01 -3.602429009189903e-17

-2.356741100228507e-17  5.078312885558318e-20  1.021145403131415e+00
 5.078312885558318e-20 -1.441462606683061e-17  4.292044545188651e-01
 1.021145403131415e+00  4.292044545188651e-01 -3.602419811243160e-17

-2.356648912677921e-17  5.077302526160231e-20  1.020928740577362e+00
 5.077302526160231e-20 -1.441147440709256e-17  4.294235707542372e-01
 1.020928740577362e+00  4.294235707542372e-01 -3.601656949749765e-17

-2.357132795327829e-17  5.076840417035260e-20  1.021247963806261e+00
 5.076840417035260e-20 -1.441880721227102e-17  4.291257353036812e-01
 1.021247963806261e+00  4.291257353036812e-01 -3.602787988084642e-17

-2.357252553346027e-17  5.042931936862029e-20  1.021211657901347e+00
 5.042931936862029e-20 -1.441887699406458e-17  4.291753387152661e-01
 1.021211657901347e+00  4.291753387152661e-01 -3.602675646739264e-17

-2.357087773741637e-17  5.072538970621980e-20  1.020912172391844e+00
 5.072538970621980e-20 -1.441498697160293e-17  4.295013039012528e-01
 1.020912172391844e+00  4.295013039012528e-01 -3.601636797832327e-17

-2.357540568641845e-17  5.076312758988554e-20  1.021217787907882e+00
 5.076312758988554e-20 -1.442073105809294e-17  4.291435067338322e-01
 1.021217787907882e+00  4.291435067338322e-01 -3.602720586835065e-17

-2.357660617331016e-17  5.070000582214095e-20  1.021216853167373e+00
 5.070000582214095e-20 -1.442501540052162e-17  4.290629252501931e-01
 1.021216853167373e+00  4.290629252501931e-01 -3.602721712154587e-17

-2.357479411666163e-17  5.073568364324620e-20  1.020920046590229e+00
 5.073568364324620e-20 -1.442310769871749e-17  4.292883555463178e-01
 1.020920046590229e+00  4.292883555463178e-01 -3.601687827406537e-17

-2.357896908192028e-17  5.075884340462479e-20  1.021175359742313e+00
 5.075884340462479e-20 -1.442556715655662e-17  4.289926852371255e-01
 1.021175359742313e+00  4.289926852371255e-01 -3.602604048097495e-17

-2.358022229161037e-17  5.069154460226179e-20  1.021134881392944e+00
 5.069154460226179e-20 -1.442883719789978e-17  4.290256850296149e-01
 1.021134881392944e+00  4.290256850296149e-01 -3.602487307393058e-17

-2.357809318117811e-17  5.074290167924198e-20  1.020767045295289e+00
 5.074290167924198e-20 -1.442366287281642e-17  4.293699960119189e-01
 1.020767045295289e+00  4.293699960119189e-01 -3.601221396187814e-17

-2.358361935915979e-17  5.082597021263932e-20  1.021122609898471e+00
 5.082597021263932e-20 -1.443316479475620e-17  4.289546725206161e-01
 1.021122609898471e+00  4.289546725206161e-01 -3.602501959635399e-17

-2.358996075741765e-17  5.074728244871033e-20  1.021513822527379e+00
 5.074728244871033e-20 -1.444236592515907e-17  4.286026445516271e-01
 1.021513822527379e+00  4.286026445516271e-01 -3.603926199479305e-17

-2.358834057014345e-17  5.070261416881566e-20  1.021097473871202e+00
 5.070261416881566e-20 -1.443258328270747e-17  4.292234986195618e-01
 1.021097473871202e+00  4.292234986195618e-01 -3.602532609472745e-17

-2.358685798948324e-17  5.083199018391341e-20  1.020722146725622e+00
 5.083199018391341e-20 -1.442533101758818e-17  4.297239802568941e-01
 1.020722146725622e+00  4.297239802568941e-01 -3.601271057865481e-17

-2.359243962021156e-17  5.095654169782523e-20  1.021104744193673e+00
 5.095654169782523e-20 -1.443824365034764e-17  4.291888289149960e-01
 1.021104744193673e+00  4.291888289149960e-01 -3.602636148803050e-17

-2.359783206262282e-17  5.090970683976887e-20  1.021497178989368e+00
 5.090970683976887e-20 -1.444852258299713e-17  4.285691655349023e-01
 1.021497178989368e+00  4.285691655349023e-01 -3.604022588394829e-17

-2.359535123758017e-17  5.084534167629544e-20  1.021091839857303e+00
 5.084534167629544e-20 -1.444502753176521e-17  4.289093730149418e-01
 1.021091839857303e+00  4.289093730149418e-01 -3.602624958190371e-17

-2.359405451207206e-17  5.092933821489816e-20  1.020758488819375e+00
 5.092933821489816e-20 -1.444025082422298e-17  4.292701286264481e-01
 1.020758488819375e+00  4.292701286264481e-01 -3.601497242627778e-17

-2.360019719550622e-17  5.099461964040172e-20  1.021126533311960e+00
 5.099461964040172e-20 -1.445162860415254e-17  4.289001654570292e-01
 1.021126533311960e+00  4.289001654570292e-01 -3.602838017560102e-17

-2.360260926585263e-17  5.092884026323363e-20  1.021132504048611e+00
 5.092884026323363e-20 -1.445154335061055e-17  4.288845186411254e-01
 1.021132504048611e+00  4.288845186411254e-01 -3.602907127282944e-17

-2.360240092667783e-17  5.097956080646785e-20  1.020873316028498e+00
 5.097956080646785e-20 -1.444944731044385e-17  4.291592921388366e-01
 1.020873316028498e+00  4.291592921388366e-01 -3.602049065394442e-17

-2.360837367566823e-17  5.104008666103892e-20  1.021187612988741e+00
 5.104008666103892e-20 -1.445842588052894e-17  4.288823584474047e-01
 1.021187612988741e+00  4.288823584474047e-01 -3.603213960738864e-17

-2.361098769320025e-17  5.098181122416185e-20  1.021175335706705e+00
 5.098181122416185e-20 -1.445819347158665e-17  4.289427079412521e-01
 1.021175335706705e+00  4.289427079412521e-01 -3.603232340022289e-17

-2.361034226925448e-17  5.105669070738649e-20  1.020861497122406e+00
 5.105669070738649e-20 -1.445459296875768e-17  4.292767246024611e-01
 1.020861497122406e+00  4.292767246024611e-01 -3.602184684273500e-17

-2.361594912506226e-17  5.113058064465444e-20  1.021158756517743e+00
 5.113058064465444e-20 -1.446328997684427e-17  4.289430938072598e-01
 1.021158756517743e+00  4.289430938072598e-01 -3.603279422681849e-17

-2.361838533297012e-17  5.108275032243861e-20  1.021165603983683e+00
 5.108275032243861e-20 -1.446710052421565e-17  4.288653339991254e-01
 1.021165603983683e+00  4.288653339991254e-01 -3.603345913483181e-17

-2.361770598072693e-17  5.114605767146743e-20  1.020869899935144e+00
 5.114605767146743e-20 -1.446509516469389e-17  4.290958996233207e-01
 1.020869899935144e+00  4.290958996233207e-01 -3.602349844408210e-17

-2.362298716389971e-17  5.118909234162016e-20  1.021124217787298e+00
 5.118909234162016e-20 -1.447326919755165e-17  4.288067485915422e-01
 1.021124217787298e+00  4.288067485915422e-01 -3.603294925038487e-17

-2.362532674961219e-17  5.112884450862560e-20  1.021081098667464e+00
 5.112884450862560e-20 -1.447533608033689e-17  4.288479630230410e-01
 1.021081098667464e+00  4.288479630230410e-01 -3.603199850090166e-17

-2.362428847877926e-17  5.120344425948851e-20  1.020711227065871e+00
 5.120344425948851e-20 -1.447152697808288e-17  4.291993206458712e-01
 1.020711227065871e+00  4.291993206458712e-01 -3.601956682522253e-17

-2.363092359306485e-17  5.129749116436978e-20  1.021066823158500e+00
 5.129749116436978e-20 -1.448123597636115e-17  4.287880236365663e-01
 1.021066823158500e+00  4.287880236365663e-01 -3.603266185732228e-17

-2.363837253973839e-17  5.123526890857761e-20  1.021457887908786e+00
 5.123526890857761e-20 -1.449164881502193e-17  4.284397757069124e-01
 1.021457887908786e+00  4.284397757069124e-01 -3.604717984886360e-17

-2.363784746651138e-17  5.120710233541048e-20  1.021040083718423e+00
 5.120710233541048e-20 -1.448339311923315e-17  4.290658941034018e-01
 1.021040083718423e+00  4.290658941034018e-01 -3.603346734557048e-17

-2.363745988579050e-17  5.134217240033787e-20  1.020663150383000e+00
 5.134217240033787e-20 -1.447662062731336e-17  4.295716576911636e-01
 1.020663150383000e+00  4.295716576911636e-01 -3.602106492219233e-17

-2.364414747835343e-17  5.147604529112399e-20  1.021045233500635e+00
 5.147604529112399e-20 -1.448822399003146e-17  4.290398799664454e-01
 1.021045233500635e+00  4.290398799664454e-01 -3.603496246676126e-17

-2.365065405911779e-17  5.144716926567633e-20  1.021437988718997e+00
 5.144716926567633e-20 -1.450184516720044e-17  4.284220949566798e-01
 1.021437988718997e+00  4.284220949566798e-01 -3.604909921447877e-17

-2.364928661366308e-17  5.138586691441828e-20  1.021032602364757e+00
 5.138586691441828e-20 -1.449891878460239e-17  4.287643844197694e-01
 1.021032602364757e+00  4.287643844197694e-01 -3.603538014735218e-17

-2.364909593430061e-17  5.148904791326533e-20  1.020698184302669e+00
 5.148904791326533e-20 -1.449558537855698e-17  4.291284696868076e-01
 1.020698184302669e+00  4.291284696868076e-01 -3.602432154962094e-17

-2.365634754903979e-17  5.156276026992185e-20  1.021065171211251e+00
 5.156276026992185e-20 -1.450428471721150e-17  4.287617845406632e-01
 1.021065171211251e+00  4.287617845406632e-01 -3.603794713337576e-17

-2.365988214818191e-17  5.150700481774924e-20  1.021071243416277e+00
 5.150700481774924e-20 -1.450709418347468e-17  4.287478434656614e-01
 1.021071243416277e+00  4.287478434656614e-01 -3.603889590703997e-17

-2.366079608882449e-17  5.156300960331809e-20  1.020811979659653e+00
 5.156300960331809e-20 -1.450628906147425e-17  4.290239828140327e-01
 1.020811979659653e+00  4.290239828140327e-01 -3.603056481165757e-17

-2.366788933175580e-17  5.163084302120549e-20  1.021125750102881e+00
 5.163084302120549e-20 -1.451458487904828e-17  4.287486545957915e-01
 1.021125750102881e+00  4.287486545957915e-01 -3.604244685033794e-17

-2.367163230711011e-17  5.158721887886954e-20  1.021113421334662e+00
 5.158721887886954e-20 -1.451798200881460e-17  4.288101969809784e-01
 1.021113421334662e+00  4.288101969809784e-01 -3.604288029271605e-17

-2.367211378569504e-17  5.166790761661742e-20  1.020798962210545e+00
 5.166790761661742e-20 -1.451482204485203e-17  4.291459804399385e-01
 1.020798962210545e+00  4.291459804399385e-01 -3.603263363293147e-17

-2.367885238291044e-17  5.176090580478099e-20  1.021095712805863e+00
 5.176090580478099e-20 -1.452247998623459e-17  4.288139192802284e-01
 1.021095712805863e+00  4.288139192802284e-01 -3.604381559049651e-17

-2.368243455061720e-17  5.172346791472545e-20  1.021103046539916e+00
 5.172346791472545e-20 -1.452725413065377e-17  4.287366215308049e-01
 1.021103046539916e+00  4.287366215308049e-01 -3.604475087222017e-17

-2.368289267847436e-17  5.179746782704479e-20  1.020806674499437e+00
 5.179746782704479e-20 -1.452650472181146e-17  4.289686907025705e-01
 1.020806674499437e+00  4.289686907025705e-01 -3.603502004737306e-17

-2.368931168002135e-17  5.185499686293736e-20  1.021060027368025e+00
 5.185499686293736e-20 -1.453607065398900e-17  4.286810957250681e-01
 1.021060027368025e+00  4.286810957250681e-01 -3.604469129840127e-17

-2.369281159232079e-17  5.180476161967070e-20  1.021017745206795e+00
 5.180476161967070e-20 -1.453754517991552e-17  4.287218329131738e-01
 1.021017745206795e+00  4.287218329131738e-01 -3.604402547001701e-17

-2.369292937543426e-17  5.189011657725938e-20  1.020647846765110e+00
 5.189011657725938e-20 -1.453540276446322e-17  4.290736427603578e-01
 1.020647846765110e+00  4.290736427603578e-01 -3.603184932894167e-17

-2.370071228174203e-17  5.199696695943993e-20  1.021002099414941e+00
 5.199696695943993e-20 -1.454544597411265e-17  4.286642878894937e-01
 1.021002099414941e+00  4.286642878894937e-01 -3.604515568783071e-17

-2.370932937476760e-17  5.194621272905720e-20  1.021393340392804e+00
 5.194621272905720e-20 -1.455585963233888e-17  4.283164050600302e-01
 1.021393340392804e+00  4.283164050600302e-01 -3.605994002769027e-17

-2.370997946724946e-17  5.192684257125823e-20  1.020975930434606e+00
 5.192684257125823e-20 -1.454882389180533e-17  4.289424357034080e-01
 1.020975930434606e+00  4.289424357034080e-01 -3.604650292048117e-17

-2.371075943569477e-17  5.207601729847173e-20  1.020598244437557e+00
 5.207601729847173e-20 -1.454309231405764e-17  4.294492661924800e-01
 1.020598244437557e+00  4.294492661924800e-01 -3.603433718682578e-17

-2.371862591497647e-17  5.222502422473019e-20  1.020980158472457e+00
 5.222502422473019e-20 -1.455638728934525e-17  4.289179512321936e-01
 1.020980158472457e+00  4.289179512321936e-01 -3.604849449818695e-17

-2.372632167391113e-17  5.221382376587928e-20  1.021373209021503e+00
 5.221382376587928e-20 -1.457054017097490e-17  4.283000868281045e-01
 1.021373209021503e+00  4.283000868281045e-01 -3.606290963261292e-17

-2.372613885433460e-17  5.216668001768966e-20  1.020967183147373e+00
 5.216668001768966e-20 -1.456640884415471e-17  4.286431436277014e-01
 1.020967183147373e+00  4.286431436277014e-01 -3.604943756543662e-17

-2.372713840842514e-17  5.228049749668763e-20  1.020632155162048e+00
 5.228049749668763e-20 -1.456410702899228e-17  4.290078367698826e-01
 1.020632155162048e+00  4.290078367698826e-01 -3.603862940952101e-17

-2.373559531508563e-17  5.236684267197032e-20  1.020999485228151e+00
 5.236684267197032e-20 -1.457374635451001e-17  4.286407012789800e-01
 1.020999485228151e+00  4.286407012789800e-01 -3.605254120972384e-17

-2.374033787984708e-17  5.232957186302379e-20  1.021005547706904e+00
 5.232957186302379e-20 -1.457840055602140e-17  4.286266584324518e-01
 1.021005547706904e+00  4.286266584324518e-01 -3.605376653401092e-17

-2.374246150620211e-17  5.240105793536805e-20  1.020745756604232e+00
 5.240105793536805e-20 -1.457642116532393e-17  4.289034194150091e-01
 1.020745756604232e+00  4.289034194150091e-01 -3.604569675416737e-17

-2.375077895673102e-17  5.248709105156223e-20  1.021059698240736e+00
 5.248709105156223e-20 -1.458566231099612e-17  4.286282327688016e-01
 1.021059698240736e+00  4.286282327688016e-01 -3.605786801349148e-17

-2.375575251817316e-17  5.246101242429260e-20  1.021047523514085e+00
 5.246101242429260e-20 -1.458785348967348e-17  4.286900755116375e-01
 1.021047523514085e+00  4.286900755116375e-01 -3.605859307999766e-17

-2.375745890137921e-17  5.256238835143258e-20  1.020732092647409e+00
 5.256238835143258e-20 -1.458767127515119e-17  4.290271247270004e-01
 1.020732092647409e+00  4.290271247270004e-01 -3.604860123179943e-17

-2.376542624786672e-17  5.266768609645719e-20  1.021027827042661e+00
 5.266768609645719e-20 -1.459533689792019e-17  4.286956578068902e-01
 1.021027827042661e+00  4.286956578068902e-01 -3.606003828301111e-17

-2.377025699132240e-17  5.264872848553301e-20  1.021035677795910e+00
 5.264872848553301e-20 -1.460005796433587e-17  4.286166617351592e-01
 1.021035677795910e+00  4.286166617351592e-01 -3.606128416603321e-17

-2.377198185557557e-17  5.273785967344499e-20  1.020740736220513e+00
 5.273785967344499e-20 -1.460015939366383e-17  4.288463537208080e-01
 1.020740736220513e+00  4.288463537208080e-01 -3.605190059028762e-17

-2.377965835216455e-17  5.281870715677725e-20  1.020993546869246e+00
 5.281870715677725e-20 -1.461022349175547e-17  4.285596599622470e-01
 1.020993546869246e+00  4.285596599622470e-01 -3.606185502999634e-17

-2.378440786857807e-17  5.278669694805734e-20  1.020948911822791e+00
 5.278669694805734e-20 -1.461369324840972e-17  4.286037973677428e-01
 1.020948911822791e+00  4.286037973677428e-01 -3.606141369756008e-17

-2.378580696638471e-17  5.289375266446434e-20  1.020579102059937e+00
 5.289375266446434e-20 -1.461158126348022e-17  4.289558744554392e-01
 1.020579102059937e+00  4.289558744554392e-01 -3.604955021320242e-17

-2.379489046321272e-17  5.302053515391446e-20  1.020934910145425e+00
 5.302053515391446e-20 -1.462214508486941e-17  4.285444116536876e-01
 1.020934910145425e+00  4.285444116536876e-01 -3.606322283403185e-17

-2.380479415202965e-17  5.298419429393081e-20  1.021325755510734e+00
 5.298419429393081e-20 -1.463302950192792e-17  4.281961202091091e-01
 1.021325755510734e+00  4.281961202091091e-01 -3.607830832554115e-17

-2.380673765909797e-17  5.299347475917892e-20  1.020907751920788e+00
 5.299347475917892e-20 -1.462656097398118e-17  4.288223028519182e-01
 1.020907751920788e+00  4.288223028519182e-01 -3.606516987671689e-17

-2.380882736905117e-17  5.316383757228673e-20  1.020529992303314e+00
 5.316383757228673e-20 -1.462020466217204e-17  4.293290182604049e-01
 1.020529992303314e+00  4.293290182604049e-01 -3.605332639328111e-17

-2.381800684284719e-17  5.333854477856124e-20  1.020911288626514e+00
 5.333854477856124e-20 -1.463421673733777e-17  4.287982064681019e-01
 1.020911288626514e+00  4.287982064681019e-01 -3.606779056549262e-17

-2.382702780942389e-17  5.335029931559158e-20  1.021304054688041e+00
 5.335029931559158e-20 -1.464922948922096e-17  4.281803935196754e-01
 1.021304054688041e+00  4.281803935196754e-01 -3.608252865686757e-17

-2.382818367490428e-17  5.332437115333247e-20  1.020898258661072e+00
 5.332437115333247e-20 -1.464566477382880e-17  4.285228682805866e-01
 1.020898258661072e+00  4.285228682805866e-01 -3.606940191339344e-17

-2.383052912043774e-17  5.346522691221586e-20  1.020563216667491e+00
 5.346522691221586e-20 -1.464353931185646e-17  4.288872006384728e-01
 1.020563216667491e+00  4.288872006384728e-01 -3.605893508768577e-17

-2.384034041628396e-17  5.357854738939609e-20  1.020930329855388e+00
 5.357854738939609e-20 -1.465219205460439e-17  4.285200905735216e-01
 1.020930329855388e+00  4.285200905735216e-01 -3.607318621159524e-17

-2.384644613359965e-17  5.356816841585817e-20  1.020936057182849e+00
 5.356816841585817e-20 -1.465791781375673e-17  4.285063341584011e-01
 1.020936057182849e+00  4.285063341584011e-01 -3.607475168078621e-17

-2.384994184664751e-17  5.366661584179860e-20  1.020675851749675e+00
 5.366661584179860e-20 -1.465766045596407e-17  4.287833525628951e-01
 1.020675851749675e+00  4.287833525628951e-01 -3.606702439512779e-17

-2.385963917891744e-17  5.378403624215874e-20  1.020989265102409e+00
 5.378403624215874e-20 -1.466723032174242e-17  4.285080992706005e-01
 1.020989265102409e+00  4.285080992706005e-01 -3.607953793170361e-17

-2.386600573011521e-17  5.378172363920955e-20  1.020976887385877e+00
 5.378172363920955e-20 -1.467169652948091e-17  4.285690777287218e-01
 1.020976887385877e+00  4.285690777287218e-01 -3.608062167572341e-17

-2.386912721923254e-17  5.391077936355552e-20  1.020662317257887e+00
 5.391077936355552e-20 -1.466945642109815e-17  4.289043707130630e-01
 1.020662317257887e+00  4.289043707130630e-01 -3.607103143085978e-17

-2.387852089975538e-17  5.404688167131879e-20  1.020958605194262e+00
 5.404688167131879e-20 -1.467827087886341e-17  4.285724184811390e-01
 1.020958605194262e+00  4.285724184811390e-01 -3.608286693578377e-17

-2.388477323980337e-17  5.405599465918792e-20  1.020965074016415e+00
 5.405599465918792e-20 -1.468382709571180e-17  4.284956672054401e-01
 1.020965074016415e+00  4.284956672054401e-01 -3.608445069965354e-17

-2.388792618390421e-17  5.418544454841903e-20  1.020668442297848e+00
 5.418544454841903e-20 -1.468376870465917e-17  4.287274820765063e-01
 1.020668442297848e+00  4.287274820765063e-01 -3.607539827700289e-17

-2.389706159094271e-17  5.429034306877970e-20  1.020921790726094e+00
 5.429034306877970e-20 -1.469142159280798e-17  4.284392424584165e-01
 1.020921790726094e+00  4.284392424584165e-01 -3.608576657100431e-17

-2.390329249958853e-17  5.429843341861673e-20  1.020878989792429e+00
 5.429843341861673e-20 -1.469535057883730e-17  4.284798145393743e-01
 1.020878989792429e+00  4.284798145393743e-01 -3.608578927694644e-17

-2.390616581617363e-17  5.443623068064499e-20  1.020508916480769e+00
 5.443623068064499e-20 -1.469125427852749e-17  4.288312575947811e-01
 1.020508916480769e+00  4.288312575947811e-01 -3.607432391548950e-17

-2.391672342137526e-17  5.460295494630163e-20  1.020862755405684e+00
 5.460295494630163e-20 -1.470561297827734e-17  4.284219289674328e-01
 1.020862755405684e+00  4.284219289674328e-01 -3.608834351335875e-17

-2.392812714703360e-17  5.460413243404494e-20  1.021252758362365e+00
 5.460413243404494e-20 -1.471582067707135e-17  4.280746886362933e-01
 1.021252758362365e+00  4.280746886362933e-01 -3.610382213541816e-17

-2.393159787428403e-17  5.464324256155373e-20  1.020835387777551e+00
 5.464324256155373e-20 -1.470831020338575e-17  4.286997341396665e-01
 1.020835387777551e+00  4.286997341396665e-01 -3.609113434308770e-17

-2.393522852717206e-17  5.485493315647600e-20  1.020458398936898e+00
 5.485493315647600e-20 -1.470405265911125e-17  4.292048642918577e-01
 1.020458398936898e+00  4.292048642918577e-01 -3.607975283548816e-17

-2.394595165021406e-17  5.506743146274479e-20  1.020839220413735e+00
 5.506743146274479e-20 -1.471896858716489e-17  4.286740776299452e-01
 1.020839220413735e+00  4.286740776299452e-01 -3.609464384293370e-17

-2.395652685695595e-17  5.512168877157511e-20  1.021231023104564e+00
 5.512168877157511e-20 -1.473106369382078e-17  4.280570362040778e-01
 1.021231023104564e+00  4.280570362040778e-01 -3.610979932006025e-17

-2.395926230835090e-17  5.513842780951207e-20  1.020825261422933e+00
 5.513842780951207e-20 -1.473038476617186e-17  4.283991198590467e-01
 1.020825261422933e+00  4.283991198590467e-01 -3.609713225151111e-17

-2.396320321529414e-17  5.532064942377927e-20  1.020490377176358e+00
 5.532064942377927e-20 -1.472660847206787e-17  4.287627524469889e-01
 1.020490377176358e+00  4.287627524469889e-01 -3.608713707694703e-17

-2.397462005999654e-17  5.547621845433375e-20  1.020857088727266e+00
 5.547621845433375e-20 -1.473625020325791e-17  4.283954050821746e-01
 1.020857088727266e+00  4.283954050821746e-01 -3.610184860572100e-17

-2.398235078372734e-17  5.550985901185186e-20  1.020862669378816e+00
 5.550985901185186e-20 -1.474222016928625e-17  4.283812399012186e-01
 1.020862669378816e+00  4.283812399012186e-01 -3.610389164019630e-17

-2.398748874422759e-17  5.565460822469790e-20  1.020602360618623e+00
 5.565460822469790e-20 -1.474009923860548e-17  4.286578952098527e-01
 1.020602360618623e+00  4.286578952098527e-01 -3.609665167520369e-17

-2.399884118112591e-17  5.581584317662297e-20  1.020915222434665e+00
 5.581584317662297e-20 -1.474969930213242e-17  4.283828167090737e-01
 1.020915222434665e+00  4.283828167090737e-01 -3.610964668436392e-17

-2.400688296449270e-17  5.586796382993069e-20  1.020902573035986e+00
 5.586796382993069e-20 -1.475449615374470e-17  4.284435841119133e-01
 1.020902573035986e+00  4.284435841119133e-01 -3.611123022688261e-17

-2.401170360260020e-17  5.604497693519120e-20  1.020588267715619e+00
 5.604497693519120e-20 -1.475005620593317e-17  4.287779913790574e-01
 1.020588267715619e+00  4.287779913790574e-01 -3.610216782854127e-17

-2.402281055824788e-17  5.623134187940035e-20  1.020884353303792e+00
 5.623134187940035e-20 -1.475994660672861e-17  4.284457264140432e-01
 1.020884353303792e+00  4.284457264140432e-01 -3.611452461296128e-17

-2.403078835216813e-17  5.629692879193330e-20  1.020889993311145e+00
 5.629692879193330e-20 -1.476492104544491e-17  4.283693664425321e-01
 1.020889993311145e+00  4.283693664425321e-01 -3.611661739743949e-17

-2.403569421023196e-17  5.647447580327374e-20  1.020593307382620e+00
 5.647447580327374e-20 -1.476350353634778e-17  4.286006823767561e-01
 1.020593307382620e+00  4.286006823767561e-01 -3.610811134754100e-17

-2.404660803721819e-17  5.663535755330455e-20  1.020847110368625e+00
 5.663535755330455e-20 -1.477358870008703e-17  4.283113815557199e-01
 1.020847110368625e+00  4.283113815557199e-01 -3.611905428228493e-17

-2.405462633583092e-17  5.670171040583211e-20  1.020803632216166e+00
 5.670171040583211e-20 -1.477654893386103e-17  4.283521439382461e-01
 1.020803632216166e+00  4.283521439382461e-01 -3.611962250094981e-17

-2.405930621844721e-17  5.689849343194181e-20  1.020432703077319e+00
 5.689849343194181e-20 -1.477476728103840e-17  4.287039168508810e-01
 1.020432703077319e+00  4.287039168508810e-01 -3.610870721121233e-17

-2.407170514145011e-17  5.712252420846571e-20  1.020786969338728e+00
 5.712252420846571e-20 -1.478570637464538e-17  4.282934602498538e-01
 1.020786969338728e+00  4.282934602498538e-01 -3.612333330016717e-17

-2.408497249293460e-17  5.718479858826018e-20  1.021177371321501e+00
 5.718479858826018e-20 -1.479595040101830e-17  4.279452051713649e-01
 1.021177371321501e+00  4.279452051713649e-01 -3.613942909256130e-17

-2.409031685453434e-17  5.729295162593852e-20  1.020759081916531e+00
 5.729295162593852e-20 -1.478801062217888e-17  4.285708319624387e-01
 1.020759081916531e+00  4.285708319624387e-01 -3.612732406573677e-17

-2.409584415755529e-17  5.756420323760920e-20  1.020381158170544e+00
 5.756420323760920e-20 -1.478191850565113e-17  4.290765013227998e-01
 1.020381158170544e+00  4.290765013227998e-01 -3.611653697431228e-17

-2.410850122397742e-17  5.784603343846976e-20  1.020762413697512e+00
 5.784603343846976e-20 -1.479557421880002e-17  4.285445274443916e-01
 1.020762413697512e+00  4.285445274443916e-01 -3.613208299613239e-17

-2.412103533317211e-17  5.797100091848763e-20  1.021154698007723e+00
 5.797100091848763e-20 -1.481167673000804e-17  4.279261763318034e-01
 1.021154698007723e+00  4.279261763318034e-01 -3.614790801000278e-17

-2.412574192039309e-17  5.805467087705547e-20  1.020748091484249e+00
 5.805467087705547e-20 -1.480728799025717e-17  4.282685436396279e-01
 1.020748091484249e+00  4.282685436396279e-01 -3.613587716234219e-17

-2.413168157361726e-17  5.831362315364895e-20  1.020412453729717e+00
 5.831362315364895e-20 -1.480372438848058e-17  4.286325052538644e-01
 1.020412453729717e+00  4.286325052538644e-01 -3.612653523172837e-17

-2.414513339528237e-17  5.854183625076455e-20  1.020779361994764e+00
 5.854183625076455e-20 -1.481154557553930e-17  4.282643900535480e-01
 1.020779361994764e+00  4.282643900535480e-01 -3.614194746069378e-17

-2.415492410942126e-17  5.865201659397049e-20  1.020784929181230e+00
 5.865201659397049e-20 -1.481651810150401e-17  4.282495345122146e-01
 1.020784929181230e+00  4.282495345122146e-01 -3.614469791905047e-17

-2.416214673461821e-17  5.887543122656648e-20  1.020524247776210e+00
 5.887543122656648e-20 -1.481463968841835e-17  4.285259332592664e-01
 1.020524247776210e+00  4.285259332592664e-01 -3.613816753498204e-17

-2.417561402125109e-17  5.911564647509395e-20  1.020836823056035e+00
 5.911564647509395e-20 -1.482320813156702e-17  4.282506206439227e-01
 1.020836823056035e+00  4.282506206439227e-01 -3.615189066553576e-17

-2.418579860661550e-17  5.925112913791268e-20  1.020823746345005e+00
 5.925112913791268e-20 -1.482676505035645e-17  4.283112291135678e-01
 1.020823746345005e+00  4.283112291135678e-01 -3.615421283384520e-17

-2.419279411239483e-17  5.951362317184425e-20  1.020509198563101e+00
 5.951362317184425e-20 -1.482277270554526e-17  4.286451412669189e-01
 1.020509198563101e+00  4.286451412669189e-01 -3.614591136729066e-17

-2.420611176810067e-17  5.979191606768135e-20  1.020805460983303e+00
 5.979191606768135e-20 -1.483216751412541e-17  4.283119592542387e-01
 1.020805460983303e+00  4.283119592542387e-01 -3.615906058653576e-17

-2.421632747751346e-17  5.994481649670131e-20  1.020810768147647e+00
 5.994481649670131e-20 -1.483500290295416e-17  4.282353369781465e-01
 1.020810768147647e+00  4.282353369781465e-01 -3.616194502021423e-17

-2.422349898235054e-17  6.021630745636442e-20  1.020513215314791e+00
 6.021630745636442e-20 -1.483417226200219e-17  4.284669601392890e-01
 1.020513215314791e+00  4.284669601392890e-01 -3.615422928506506e-17

-2.423672130931424e-17  6.047625845555851e-20  1.020767029200675e+00
 6.047625845555851e-20 -1.484036722145331e-17  4.281769544490030e-01
 1.020767029200675e+00  4.281769544490030e-01 -3.616601135799632e-17

-2.424708720519380e-17  6.063632473972636e-20  1.020723957402896e+00
 6.063632473972636e-20 -1.484242122111177e-17  4.282165842740300e-01
 1.020723957402896e+00  4.282165842740300e-01 -3.616745096187101e-17

-2.425413855985290e-17  6.093250390294083e-20  1.020352265325147e+00
 6.093250390294083e-20 -1.484025694764467e-17  4.285685289130217e-01
 1.020352265325147e+00  4.285685289130217e-01 -3.615738499191436e-17

-2.426894621797318e-17  6.126222620072902e-20  1.020705788685419e+00
 6.126222620072902e-20 -1.484992565386899e-17  4.281582304926255e-01
 1.020705788685419e+00  4.281582304926255e-01 -3.617288085426735e-17

-2.428467137255130e-17  6.143480183433680e-20  1.021096541100384e+00
 6.143480183433680e-20 -1.485620173084329e-17  4.278088656764552e-01
 1.021096541100384e+00  4.278088656764552e-01 -3.618990470638579e-17

-2.429250734010461e-17  6.165214719424963e-20  1.020678154851519e+00
 6.165214719424963e-20 -1.485217504746293e-17  4.284337799406012e-01
 1.020678154851519e+00  4.284337799406012e-01 -3.617873229136545e-17

-2.430055959098992e-17  6.203542550890535e-20  1.020299445607401e+00
 6.203542550890535e-20 -1.484401263155028e-17  4.289395437020669e-01
 1.020299445607401e+00  4.289395437020669e-01 -3.616887507055326e-17

-2.431578877243222e-17  6.243483468070873e-20  1.020680493495576e+00
 6.243483468070873e-20 -1.485647262134379e-17  4.284071309670052e-01
 1.020680493495576e+00  4.284071309670052e-01 -3.618539364827772e-17

-2.433094029723333e-17  6.267396124478859e-20  1.021072843924164e+00
 6.267396124478859e-20 -1.486733682239984e-17  4.277880291444937e-01
 1.021072843924164e+00  4.277880291444937e-01 -3.620222340218280e-17

-2.433830252721955e-17  6.288969563241965e-20  1.020665766619931e+00
 6.288969563241965e-20 -1.486339198168666e-17  4.281301719835635e-01
 1.020665766619931e+00  4.281301719835635e-01 -3.619120123848695e-17

-2.434694192127655e-17  6.326959027310667e-20  1.020329656754600e+00
 6.326959027310667e-20 -1.485762691614026e-17  4.284938855175291e-01
 1.020329656754600e+00  4.284938855175291e-01 -3.618289168968727e-17

-2.436314538139388e-17  6.363708549013505e-20  1.020696601042774e+00
 6.363708549013505e-20 -1.486709204619846e-17  4.281249782526125e-01
 1.020696601042774e+00  4.281249782526125e-01 -3.619937885698789e-17

-2.437573201536029e-17  6.387866084917076e-20  1.020701951526609e+00
 6.387866084917076e-20 -1.486595177172418e-17  4.281096024495610e-01
 1.020701951526609e+00  4.281096024495610e-01 -3.620322051459684e-17

-2.438579443866829e-17  6.424083994897863e-20  1.020440578723159e+00
 6.424083994897863e-20 -1.486662695487539e-17  4.283859702292288e-01
 1.020440578723159e+00  4.283859702292288e-01 -3.619779050634166e-17

-2.440215535893876e-17  6.462675917226333e-20  1.020752875841206e+00
 6.462675917226333e-20 -1.487092385017329e-17  4.281101285188001e-01
 1.020752875841206e+00  4.281101285188001e-01 -3.621265532987258e-17

-2.441529028034260e-17  6.490821667701054e-20  1.020739963732118e+00
 6.490821667701054e-20 -1.486993659393755e-17  4.281697095020905e-01
 1.020739963732118e+00  4.281697095020905e-01 -3.621616216153860e-17

-2.442528506807614e-17  6.532279830055120e-20  1.020425184105528e+00
 6.532279830055120e-20 -1.486741744770980e-17  4.285031535409540e-01
 1.020425184105528e+00  4.285031535409540e-01 -3.620905990712676e-17

-2.444165030049147e-17  6.575722069853736e-20  1.020720561173136e+00
 6.575722069853736e-20 -1.487258481203329e-17  4.281702812719559e-01
 1.020720561173136e+00  4.281702812719559e-01 -3.622341489672991e-17

-2.445497275211993e-17  6.607394452478877e-20  1.020725399598875e+00
 6.607394452478877e-20 -1.487423577895083e-17  4.280933348354082e-01
 1.020725399598875e+00  4.280933348354082e-01 -3.622754946100142e-17

-2.446532003559762e-17  6.650783271531988e-20  1.020428406134613e+00
 6.650783271531988e-20 -1.487174574277300e-17  4.283234196843283e-01
 1.020428406134613e+00  4.283234196843283e-01 -3.622115062285457e-17

-2.448176950459544e-17  6.694090831424132e-20  1.020682009154087e+00
 6.694090831424132e-20 -1.487638732754686e-17  4.280328204278181e-01
 1.020682009154087e+00  4.280328204278181e-01 -3.623425470021265e-17

-2.449541174812919e-17  6.727874993715570e-20  1.020637579626066e+00
 6.727874993715570e-20 -1.487521944054085e-17  4.280731336170696e-01
 1.020637579626066e+00  4.280731336170696e-01 -3.623700883946501e-17

-2.450581550897559e-17  6.775624411342674e-20  1.020265765741075e+00
 6.775624411342674e-20 -1.486721569750888e-17  4.284243446648354e-01
 1.020265765741075e+00  4.284243446648354e-01 -3.622833437284058e-17

-2.452404840644721e-17  6.827674399495443e-20  1.020619959700879e+00
 6.827674399495443e-20 -1.487704692531553e-17  4.280124248574206e-01
 1.020619959700879e+00  4.280124248574206e-01 -3.624528453358074e-17

-2.454325166050826e-17  6.864174323415127e-20  1.021009950737688e+00
 6.864174323415127e-20 -1.488020627346495e-17  4.276630495087438e-01
 1.021009950737688e+00  4.276630495087438e-01 -3.626374835467690e-17

-2.455463138699858e-17  6.905545215011877e-20  1.020590557847618e+00
 6.905545215011877e-20 -1.487140546363684e-17  4.282882688629875e-01
 1.020590557847618e+00  4.282882688629875e-01 -3.625404403163263e-17

-2.456631147288423e-17  6.964673857122960e-20  1.020212140352270e+00
 6.964673857122960e-20 -1.486002790328262e-17  4.287929015309764e-01
 1.020212140352270e+00  4.287929015309764e-01 -3.624573857515700e-17

-2.458523890609695e-17  7.025603743256783e-20  1.020593139169994e+00
 7.025603743256783e-20 -1.486905357327606e-17  4.282596509260115e-01
 1.020593139169994e+00  4.282596509260115e-01 -3.626383647057351e-17

-2.460415140536454e-17  7.072504864055961e-20  1.020984396577221e+00
 7.072504864055961e-20 -1.487817358423928e-17  4.276407385420324e-01
 1.020984396577221e+00  4.276407385420324e-01 -3.628224929709136e-17

-2.461536313887559e-17  7.116221854971604e-20  1.020577261062087e+00
 7.116221854971604e-20 -1.486947755647994e-17  4.279819338785896e-01
 1.020577261062087e+00  4.279819338785896e-01 -3.627288791123337e-17

-2.462793945375998e-17  7.177669615709649e-20  1.020241651777188e+00
 7.177669615709649e-20 -1.486097544573227e-17  4.283442378372338e-01
 1.020241651777188e+00  4.283442378372338e-01 -3.626630191985135e-17

-2.464814359784016e-17  7.238589562137705e-20  1.020607418497475e+00
 7.238589562137705e-20 -1.486583211742928e-17  4.279758223347918e-01
 1.020607418497475e+00  4.279758223347918e-01 -3.628449842079932e-17

-2.466481846654869e-17  7.288067543364981e-20  1.020611740504639e+00
 7.288067543364981e-20 -1.486546357042996e-17  4.279606613754899e-01
 1.020611740504639e+00  4.279606613754899e-01 -3.629010009490707e-17

-2.467907261070122e-17  7.349518922649268e-20  1.020351103243133e+00
 7.349518922649268e-20 -1.485788536677200e-17  4.282351648562257e-01
 1.020351103243133e+00  4.282351648562257e-01 -3.628653881191173e-17

-2.469971076486798e-17  7.414783380947513e-20  1.020663509269377e+00
 7.414783380947513e-20 -1.486059651057012e-17  4.279581667615564e-01
 1.020663509269377e+00  4.279581667615564e-01 -3.630329920068443e-17

-2.471720097371450e-17  7.470274207567159e-20  1.020649317816244e+00
 7.470274207567159e-20 -1.485566689822244e-17  4.280182871063664e-01
 1.020649317816244e+00  4.280182871063664e-01 -3.630870323018116e-17

-2.473165341885125e-17  7.540383361208222e-20  1.020333871119004e+00
 7.540383361208222e-20 -1.484477207812177e-17  4.283516192092073e-01
 1.020333871119004e+00  4.283516192092073e-01 -3.630357136409143e-17

-2.475258436929971e-17  7.612832720493055e-20  1.020629586807025e+00
 7.612832720493055e-20 -1.484844876489943e-17  4.280173637529048e-01
 1.020629586807025e+00  4.280173637529048e-01 -3.631998538945076e-17

-2.477057332317565e-17  7.674860889593757e-20  1.020634252446240e+00
 7.674860889593757e-20 -1.484495572890759e-17  4.279394895883328e-01
 1.020634252446240e+00  4.279394895883328e-01 -3.632621594770713e-17

-2.478568103960737e-17  7.750055433732138e-20  1.020336311799903e+00
 7.750055433732138e-20 -1.483452528958721e-17  4.281695246604410e-01
 1.020336311799903e+00  4.281695246604410e-01 -3.632194276637061e-17

-2.480700380206758e-17  7.825291941116437e-20  1.020589594077902e+00
 7.825291941116437e-20 -1.483412362356827e-17  4.278782694697896e-01
 1.020589594077902e+00  4.278782694697896e-01 -3.633725344955824e-17

-2.482564130054389e-17  7.893093087553379e-20  1.020545356421807e+00
 7.893093087553379e-20 -1.482936050211726e-17  4.279174261141919e-01
 1.020545356421807e+00  4.279174261141919e-01 -3.634229277412263e-17

-2.484114831449283e-17  7.975491079828361e-20  1.020172740667117e+00
 7.975491079828361e-20 -1.481684754926055e-17  4.282685394478223e-01
 1.020172740667117e+00  4.282685394478223e-01 -3.633593105906790e-17

-2.486459363988347e-17  8.063132148174193e-20  1.020525987149990e+00
 8.063132148174193e-20 -1.481910374566621e-17  4.278565645067288e-01
 1.020525987149990e+00  4.278565645067288e-01 -3.635525351737073e-17

-2.488915073624820e-17  8.137101666191679e-20  1.020916308191016e+00
 8.137101666191679e-20 -1.482065472502142e-17  4.275056314959906e-01
 1.020916308191016e+00  4.275056314959906e-01 -3.637620098754376e-17

-2.490600216404035e-17  8.216109958022256e-20  1.020497001258708e+00
 8.216109958022256e-20 -1.480422704802447e-17  4.281295874096069e-01
 1.020497001258708e+00  4.281295874096069e-01 -3.636904042994609e-17

-2.492328323750322e-17  8.314868296612749e-20  1.020117465949937e+00
 8.314868296612749e-20 -1.478871251252443e-17  4.286344486396659e-01
 1.020117465949937e+00  4.286344486396659e-01 -3.636330803403850e-17

-2.494795222658408e-17  8.417192922953825e-20  1.020497771289617e+00
 8.417192922953825e-20 -1.478865392929834e-17  4.281010525454830e-01
 1.020497771289617e+00  4.281010525454830e-01 -3.638406796956243e-17

-2.497275509905539e-17  8.507096222846563e-20  1.020889119437139e+00
 8.507096222846563e-20 -1.478933633123233e-17  4.274809584884138e-01
 1.020889119437139e+00  4.274809584884138e-01 -3.640524616982947e-17

-2.498998953639067e-17  8.594656819447065e-20  1.020481607039109e+00
 8.594656819447065e-20 -1.477663548952528e-17  4.278212409311706e-01
 1.020481607039109e+00  4.278212409311706e-01 -3.639871167794825e-17

-2.500875130060268e-17  8.701625313089672e-20  1.020145348601603e+00
 8.701625313089672e-20 -1.476077647461898e-17  4.281829113048842e-01
 1.020145348601603e+00  4.281829113048842e-01 -3.639502416966487e-17

-2.503527676703506e-17  8.809919822216561e-20  1.020510931013978e+00
 8.809919822216561e-20 -1.475915627657359e-17  4.278135186076161e-01
 1.020510931013978e+00  4.278135186076161e-01 -3.641621987781400e-17

-2.505844808360811e-17  8.908095328619484e-20  1.020514869932737e+00
 8.908095328619484e-20 -1.474710403529955e-17  4.277977139185050e-01
 1.020514869932737e+00  4.277977139185050e-01 -3.642490070879331e-17

-2.507934157587682e-17  9.020278634269902e-20  1.020253307639274e+00
 9.020278634269902e-20 -1.473641761374975e-17  4.280721280728932e-01
 1.020253307639274e+00  4.280721280728932e-01 -3.642448922900571e-17

-2.510684916622951e-17  9.138467527227496e-20  1.020565309529655e+00
 9.138467527227496e-20 -1.473109763208747e-17  4.277943408423731e-01
 1.020565309529655e+00  4.277943408423731e-01 -3.644451052734793e-17

-2.513131120297220e-17  9.248238615510924e-20  1.020551322950419e+00
 9.248238615510924e-20 -1.471768211857541e-17  4.278529255096166e-01
 1.020551322950419e+00  4.278529255096166e-01 -3.645329271072220e-17

-2.515298304638749e-17  9.374931798037289e-20  1.020235314591667e+00
 9.374931798037289e-20 -1.470110060372857e-17  4.281856009087653e-01
 1.020235314591667e+00  4.281856009087653e-01 -3.645161150957835e-17

-2.518125749496829e-17  9.505953970781712e-20  1.020529880960446e+00
 9.505953970781712e-20 -1.469178151810324e-17  4.278513632477446e-01
 1.020529880960446e+00  4.278513632477446e-01 -3.647155871480407e-17

-2.520682635758715e-17  9.629018387203133e-20  1.020534319857858e+00
 9.629018387203133e-20 -1.467835486416781e-17  4.277724181498341e-01
 1.020534319857858e+00  4.277724181498341e-01 -3.648146115679350e-17

-2.522969323507770e-17  9.766971743494194e-20  1.020236540991151e+00
 9.766971743494194e-20 -1.466200503766699e-17  4.280009118279276e-01
 1.020236540991151e+00  4.280009118279276e-01 -3.648098358192092e-17

-2.525902481326871e-17  9.908262181801523e-20  1.020488899714075e+00
 9.908262181801523e-20 -1.465184981021348e-17  4.277093326565943e-01
 1.020488899714075e+00  4.277093326565943e-01 -3.650016611911215e-17

-2.528584140721206e-17  1.004347603812551e-19  1.020443640452356e+00
 1.004347603812551e-19 -1.463717245518645e-17  4.277482386182628e-01
 1.020443640452356e+00  4.277482386182628e-01 -3.650919194683975e-17

-2.530978711209227e-17  1.019647791633737e-19  1.020071212362529e+00
 1.019647791633737e-19 -1.461358813085101e-17  4.280977490714063e-01
 1.020071212362529e+00  4.280977490714063e-01 -3.650698145664253e-17

-2.534202176235319e-17  1.035838013705880e-19  1.020424337974379e+00
 1.035838013705880e-19 -1.460506255324578e-17  4.276845724390575e-01
 1.020424337974379e+00  4.276845724390575e-01 -3.653057141925547e-17

-2.537533009582874e-17  1.050730460730459e-19  1.020813283852529e+00
 1.050730460730459e-19 -1.459533674147087e-17  4.273338055312790e-01
 1.020813283852529e+00  4.273338055312790e-01 -3.655587378424501e-17

-2.540135198003189e-17  1.066509138171395e-19  1.020393314176963e+00
 1.066509138171395e-19 -1.456809785625336e-17  4.279570155716083e-01
 1.020393314176963e+00  4.279570155716083e-01 -3.655322884145570e-17

-2.542797787817152e-17  1.084480729015235e-19  1.020014074456887e+00
 1.084480729015235e-19 -1.453946434555141e-17  4.284599556401615e-01
 1.020014074456887e+00  4.284599556401615e-01 -3.655218671155233e-17

-2.546253351294406e-17  1.103454611554977e-19  1.020393698424150e+00
 1.103454611554977e-19 -1.453017888353103e-17  4.279257015933529e-01
 1.020393698424150e+00  4.279257015933529e-01 -3.657774933293047e-17

-2.549749510480021e-17  1.121500586109891e-19  1.020784006971222e+00
 1.121500586109891e-19 -1.451816474539221e-17  4.273052602276420e-01
 1.020784006971222e+00  4.273052602276420e-01 -3.660386971445660e-17

-2.552456097085509e-17  1.139213624859556e-19  1.020376278555316e+00
 1.139213624859556e-19 -1.449024306081268e-17  4.276443479845308e-01
 1.020376278555316e+00  4.276443479845308e-01 -3.660246357879291e-17

-2.555425781313309e-17  1.159715927055491e-19  1.020039519935670e+00
 1.159715927055491e-19 -1.445924003297045e-17  4.280050405413591e-01
 1.020039519935670e+00  4.280050405413591e-01 -3.660405759966308e-17

-2.559216862171274e-17  1.180822867456422e-19  1.020404110305511e+00
 1.180822867456422e-19 -1.444567752980196e-17  4.276350838941712e-01
 1.020404110305511e+00  4.276350838941712e-01 -3.663068699922717e-17

-2.562461513018144e-17  1.200003665900889e-19  1.020407665491456e+00
 1.200003665900889e-19 -1.442195585964745e-17  4.276179432167990e-01
 1.020407665491456e+00  4.276179432167990e-01 -3.664499850626086e-17

-2.565723730022293e-17  1.222134284327413e-19  1.020146055864922e+00
 1.222134284327413e-19 -1.439055609684950e-17  4.278906891226630e-01
 1.020146055864922e+00  4.278906891226630e-01 -3.665041203696156e-17

-2.569647824992941e-17  1.245159131568205e-19  1.020457124333347e+00
 1.245159131568205e-19 -1.436979029208639e-17  4.276123297052609e-01
 1.020457124333347e+00  4.276123297052609e-01 -3.667641710114338e-17

-2.573437912507183e-17  1.268514890457367e-19  1.020441736187678e+00
 1.268514890457367e-19 -1.434096334925237e-17  4.276707488265176e-01
 1.020441736187678e+00  4.276707488265176e-01 -3.669136328506602e-17

-2.577179301605069e-17  1.295020968043438e-19  1.020125616760946e+00
 1.295020968043438e-19 -1.430542894697547e-17  4.280016574246950e-01
 1.020125616760946e+00  4.280016574246950e-01 -3.669609550516679e-17

-2.580541847783184e-17  1.316783897946852e-19  1.020420471203948e+00
 1.316783897946852e-19 -1.427990840121374e-17  4.276652564524218e-01
 1.020420471203948e+00  4.276652564524218e-01 -3.672268277375363e-17

-2.585665951677778e-17  1.348991220062733e-19  1.020423441429706e+00
 1.348991220062733e-19 -1.425072433733192e-17  4.275861470929426e-01
 1.020423441429706e+00  4.275861470929426e-01 -3.673938453723967e-17

-2.589806653889860e-17  1.379158355192957e-19  1.020124109599320e+00
 1.379158355192957e-19 -1.421508421541681e-17  4.278144703149972e-01
 1.020124109599320e+00  4.278144703149972e-01 -3.674593261797247e-17

-2.591583682912867e-17  1.393983391267119e-19  1.020376846292727e+00
 1.393983391267119e-19 -1.418425236453214e-17  4.275204589581070e-01
 1.020376846292727e+00  4.275204589581070e-01 -3.677244701074046e-17

-2.596411407422395e-17  1.426084231523670e-19  1.020331576996458e+00
 1.426084231523670e-19 -1.414745346608972e-17  4.275573358350354e-01
 1.020331576996458e+00  4.275573358350354e-01 -3.678903909781748e-17

-2.602350251238429e-17  1.467645873328003e-19  1.019957241450241e+00
 1.467645873328003e-19 -1.410550540371408e-17  4.279069600158110e-01
 1.019957241450241e+00  4.279069600158110e-01 -3.679458644916135e-17

-2.591697800293477e-17  1.419918973957133e-19  1.020309292816048e+00
 1.419918973957133e-19 -1.407290666553524e-17  4.274929661248195e-01
 1.020309292816048e+00  4.274929661248195e-01 -3.682623286927726e-17

-2.643244374573490e-17  1.695650268855921e-19  1.020698802610749e+00
 1.695650268855921e-19 -1.404000088623153e-17  4.271395358228342e-01
 1.020698802610749e+00  4.271395358228342e-01 -3.685992818321268e-17

-2.740511589397343e-17  2.208542577658684e-19  1.020277948678966e+00
 2.208542577658684e-19 -1.399231956285593e-17  4.277616296006528e-01
 1.020277948678966e+00  4.277616296006528e-01 -3.686591585567579e-17

-2.780982084006644e-17  2.422097398934129e-19  1.019897172742499e+00
 2.422097398934129e-19 -1.394108926248110e-17  4.282643886477014e-01
 1.019897172742499e+00  4.282643886477014e-01 -3.687378217411337e-17

-2.324655062723833e-17  1.035670972610391e-20  1.020277091937934e+00
 1.035670972610391e-20 -1.389562536735455e-17  4.277280943088221e-01
 1.020277091937934e+00  4.277280943088221e-01 -3.690863444112569e-17

 3.582865463730507e-18 -1.346270746686952e-18  1.020667445358785e+00
-1.346270746686952e-18 -1.378738569827050e-17  4.271059485948720e-01
 1.020667445358785e+00  4.271059485948720e-01 -3.694437064266021e-17

-4.861734258448033e-17  1.290965812800790e-18  1.020258832372028e+00
 1.290965812800790e-18 -1.386412644789487e-17  4.274452544242598e-01
 1.020258832372028e+00  4.274452544242598e-01 -3.695288189039569e-17

-5.698705917882749e-17  1.702086905129073e-18  1.019921982304034e+00
 1.702086905129073e-18 -1.382900567639169e-17  4.278069746455937e-01
 1.019921982304034e+00  4.278069746455937e-01 -3.696478004743052e-17

 2.336847432822101e-17 -2.288444356465168e-18  1.020287010850155e+00
-2.288444356465168e-18 -1.357916815181979e-17  4.274407187421778e-01
 1.020287010850155e+00  4.274407187421778e-01 -3.700210786802966e-17

-3.724772241085877e-17  7.130667620714526e-19  1.020265293230327e+00
 7.130667620714526e-19 -1.367447225072128e-17  4.274495575658880e-01
 1.020265293230327e+00  4.274495575658880e-01 -3.702658113910793e-17

-3.339733121365046e-17  5.238362911042706e-19  1.019890509284636e+00
 5.238362911042706e-19 -1.360331015484269e-17  4.277918447012612e-01
 1.019890509284636e+00  4.277918447012612e-01 -3.703940908363006e-17

-3.027679096238549e-17  3.713269079249481e-19  1.020240712815875e+00
 3.713269079249481e-19 -1.354332510269556e-17  4.273753334897460e-01
 1.020240712815875e+00  4.273753334897460e-01 -3.707856592121710e-17

-2.780842291576548e-17  2.531863050471268e-19  1.020628375223389e+00
 2.531863050471268e-19 -1.347971881775607e-17  4.270208347780441e-01
 1.020628375223389e+00  4.270208347780441e-01 -3.712006251802861e-17

-2.673626815333837e-17  2.039918943701230e-19  1.020207517608248e+00
 2.039918943701230e-19 -1.340403461612146e-17  4.276405841189490e-01
 1.020207517608248e+00  4.276405841189490e-01 -3.713420937369200e-17

-2.658157578111055e-17  1.994636579581588e-19  1.019825721640758e+00
 1.994636579581588e-19 -1.332459378042079e-17  4.281419323036302e-01
 1.019825721640758e+00  4.281419323036302e-01 -3.715052552575560e-17

-2.697554663162549e-17  2.208964108014064e-19  1.020203573927853e+00
 2.208964108014064e-19 -1.326869796608956e-17  4.276054208065948e-01
 1.020203573927853e+00  4.276054208065948e-01 -3.719412057170683e-17

-2.696097670084395e-17  2.229673010486446e-19  1.020593059821221e+00
 2.229673010486446e-19 -1.320307580323588e-17  4.269818187164539e-01
 1.020593059821221e+00  4.269818187164539e-01 -3.723897575787564e-17

-2.702832915412046e-17  2.293968175581005e-19  1.020183403501578e+00
 2.293968175581005e-19 -1.311886551310882e-17  4.273187025589933e-01
 1.020183403501578e+00  4.273187025589933e-01 -3.725696893028531e-17

-2.707863388309439e-17  2.353202954865964e-19  1.019844768696952e+00
 2.353202954865964e-19 -1.303488020381482e-17  4.276769737927716e-01
 1.019844768696952e+00  4.276769737927716e-01 -3.727869742987510e-17

-2.715938925221102e-17  2.425338252945822e-19  1.020208776604243e+00
 2.425338252945822e-19 -1.295855474268336e-17  4.273032205759338e-01
 1.020208776604243e+00  4.273032205759338e-01 -3.732627230147701e-17

-2.722660774887561e-17  2.493725397545335e-19  1.020211013317287e+00
 2.493725397545335e-19 -1.287154148810679e-17  4.272830429246631e-01
 1.020211013317287e+00  4.272830429246631e-01 -3.736230798901022e-17

-2.730905203665517e-17  2.573484489226779e-19  1.019947017158870e+00
 2.573484489226779e-19 -1.277564578003804e-17  4.275539583012264e-01
 1.019947017158870e+00  4.275539583012264e-01 -3.739024651398775e-17

-2.738903018334073e-17  2.652273841883064e-19  1.020256525825127e+00
 2.652273841883064e-19 -1.268695117773361e-17  4.272728190587103e-01
 1.020256525825127e+00  4.272728190587103e-01 -3.743968581267094e-17

-2.747635207875988e-17  2.737181321534364e-19  1.020240622934095e+00
 2.737181321534364e-19 -1.258886930823493e-17  4.273276382434467e-01
 1.020240622934095e+00  4.273276382434467e-01 -3.747901840643244e-17

-2.755706449231700e-17  2.824539933679344e-19  1.019922924939502e+00
 2.824539933679344e-19 -1.248292701167564e-17  4.276569984928013e-01
 1.019922924939502e+00  4.276569984928013e-01 -3.750906118639245e-17

-2.764997006244440e-17  2.918036532684915e-19  1.020213918583253e+00
 2.918036532684915e-19 -1.238343659848096e-17  4.273228269242129e-01
 1.020213918583253e+00  4.273228269242129e-01 -3.756188137517491e-17

-2.773946176033724e-17  3.013366873704867e-19  1.020197512362951e+00
 3.013366873704867e-19 -1.227086648430870e-17  4.272570396883016e-01
 1.020197512362951e+00  4.272570396883016e-01 -3.760531580375246e-17

-2.782952692874250e-17  3.114938914574671e-19  1.019818387265010e+00
 3.114938914574671e-19 -1.215200688917958e-17  4.275262777642002e-01
 1.019818387265010e+00  4.275262777642002e-01 -3.763753183494097e-17

-2.792999108678743e-17  3.222084513518720e-19  1.020148466622624e+00
 3.222084513518720e-19 -1.204090263020648e-17  4.270923054345815e-01
 1.020148466622624e+00  4.270923054345815e-01 -3.769638891231041e-17

-2.803309959746483e-17  3.332502606641625e-19  1.020368317612555e+00
 3.332502606641625e-19 -1.191750283523606e-17  4.268857093919854e-01
 1.020368317612555e+00  4.268857093919854e-01 -3.775327272003200e-17

-2.813087888604742e-17  3.448513445306577e-19  1.019774094911502e+00
 3.448513445306577e-19 -1.177605559461547e-17  4.275874640989100e-01
 1.019774094911502e+00  4.275874640989100e-01 -3.778346546370393e-17

-2.823855689717195e-17  3.572608150169738e-19  1.019770315929454e+00
 3.572608150169738e-19 -1.163922946438491e-17  4.276058425445052e-01
 1.019770315929454e+00  4.276058425445052e-01 -3.783621531616789e-17

-2.835596788571711e-17  3.702476119322804e-19  1.020486918756005e+00
 3.702476119322804e-19 -1.151406480575581e-17  4.268275678364092e-01
 1.020486918756005e+00  4.268275678364092e-01 -3.791619157231163e-17

-2.847206976937877e-17  3.835670279023641e-19  1.020217354362583e+00
 3.835670279023641e-19 -1.135537341020399e-17  4.271199448262887e-01
 1.020217354362583e+00  4.271199448262887e-01 -3.796362205678551e-17

-2.858966678570970e-17  3.977442866495633e-19  1.019632478750840e+00
 3.977442866495633e-19 -1.119048906349212e-17  4.277407978407389e-01
 1.019632478750840e+00  4.277407978407389e-01 -3.800212744856113e-17

-2.871350568393966e-17  4.131938177191492e-19  1.020196237011598e+00
 4.131938177191492e-19 -1.104123510631395e-17  4.271063196599809e-01
 1.020196237011598e+00  4.271063196599809e-01 -3.808316447124237e-17

-2.884796312988950e-17  4.287774790531911e-19  1.020446880312533e+00
 4.287774790531911e-19 -1.087634068846197e-17  4.267918148662580e-01
 1.020446880312533e+00  4.267918148662580e-01 -3.815554172195877e-17

-2.896911120572660e-17  4.453224409889234e-19  1.019672042263388e+00
 4.453224409889234e-19 -1.068240011701539e-17  4.275585700933047e-01
 1.019672042263388e+00  4.275585700933047e-01 -3.819436998851552e-17

-2.910710277440994e-17  4.628040983043103e-19  1.019717006955972e+00
 4.628040983043103e-19 -1.050150353978857e-17  4.274149334757856e-01
 1.019717006955972e+00  4.274149334757856e-01 -3.826453348378900e-17

-2.924846356176078e-17  4.819173007478661e-19  1.020427799330868e+00
 4.819173007478661e-19 -1.032002359718852e-17  4.265677117264015e-01
 1.020427799330868e+00  4.265677117264015e-01 -3.836081556579608e-17

-2.939498743792560e-17  5.011206878974503e-19  1.020039800725634e+00
 5.011206878974503e-19 -1.011100505396787e-17  4.269743834231772e-01
 1.020039800725634e+00  4.269743834231772e-01 -3.842152611225544e-17

-2.954559240727565e-17  5.216093243650381e-19  1.019432343621490e+00
 5.216093243650381e-19 -9.882525420873165e-18  4.276516811502165e-01
 1.019432343621490e+00  4.276516811502165e-01 -3.847760487085366e-17

-2.970889281605387e-17  5.435560772467977e-19  1.019962060152206e+00
 5.435560772467977e-19 -9.673067942200685e-18  4.270526466501519e-01
 1.019962060152206e+00  4.270526466501519e-01 -3.857670691373314e-17

-2.988964161550822e-17  5.738348223864944e-19  1.020325589600254e+00
 5.738348223864944e-19 -9.471235505134948e-18  4.265990566172644e-01
 1.020325589600254e+00  4.265990566172644e-01 -3.866987093103018e-17

-3.007283137906380e-17  5.880221049404497e-19  1.019988035918656e+00
 5.880221049404497e-19 -9.235534172718644e-18  4.270272629909175e-01
 1.019988035918656e+00  4.270272629909175e-01 -3.874238712439361e-17

-3.022531325128550e-17  6.165247096402708e-19  1.019839434265848e+00
 6.165247096402708e-19 -8.935331323560774e-18  4.273489827314581e-01
 1.019839434265848e+00  4.273489827314581e-01 -3.883544259344004e-17

-3.041025230732521e-17  6.437601277790206e-19  1.019721523959128e+00
 6.437601277790206e-19 -8.665918632350781e-18  4.274488545029374e-01
 1.019721523959128e+00  4.274488545029374e-01 -3.892616453494541e-17

-3.060365617530025e-17  6.730141535492504e-19  1.019777120716769e+00
 6.730141535492504e-19 -8.393299701209743e-18  4.271498258512847e-01
 1.019777120716769e+00  4.271498258512847e-01 -3.902667484258891e-17

-3.080786548006960e-17  7.034217742693474e-19  1.020107742394033e+00
 7.034217742693474e-19 -8.107217100823433e-18  4.265044268237475e-01
 1.020107742394033e+00  4.265044268237475e-01 -3.914113206034633e-17

-3.101785130703964e-17  7.357262575609911e-19  1.020100424855694e+00
 7.357262575609911e-19 -7.798332121062094e-18  4.264577695148502e-01
 1.020100424855694e+00  4.264577695148502e-01 -3.924859663967542e-17

-3.123398727590252e-17  7.699055881928026e-19  1.019736144573834e+00
 7.699055881928026e-19 -7.466092936864937e-18  4.270174352998569e-01
 1.019736144573834e+00  4.270174352998569e-01 -3.934867617105132e-17

-3.146175296458329e-17  8.063157877199020e-19  1.019585545877759e+00
 8.063157877199020e-19 -7.119783807676802e-18  4.273434273760931e-01
 1.019585545877759e+00  4.273434273760931e-01 -3.946130834519975e-17

-3.170313509419821e-17  8.451472766174811e-19  1.019851157143547e+00
 8.451472766174811e-19 -6.769683332493415e-18  4.270535385502096e-01
 1.019851157143547e+00  4.270535385502096e-01 -3.959361828618354e-17

-3.195320712460354e-17  8.866206419564788e-19  1.019994276977913e+00
 8.866206419564788e-19 -6.392762819085231e-18  4.267834768545127e-01
 1.019994276977913e+00  4.267834768545127e-01 -3.972702934992049e-17

-3.221219025011674e-17  9.301921442407341e-19  1.019923918242299e+00
 9.301921442407341e-19 -6.000007080860859e-18  4.267203727429352e-01
 1.019923918242299e+00  4.267203727429352e-01 -3.985891216308334e-17

-3.248464027653969e-17  9.768225929408174e-19  1.019983318131102e+00
 9.768225929408174e-19 -5.584773174491430e-18  4.266678799988481e-01
 1.019983318131102e+00  4.266678799988481e-01 -4.000180736740849e-17

-3.276753105505399e-17  1.026395204658198e-18  1.019841584288316e+00
 1.026395204658198e-18 -5.146402148264448e-18  4.268817116563237e-01
 1.019841584288316e+00  4.268817116563237e-01 -4.014434836349548e-17

-3.306133288355907e-17  1.079305924762007e-18  1.019523367772604e+00
 1.079305924762007e-18 -4.678686633005592e-18  4.271776901714896e-01
 1.019523367772604e+00  4.271776901714896e-01 -4.028756883840099e-17

-3.337505651872717e-17  1.136276736495870e-18  1.019825196805527e+00
 1.136276736495870e-18 -4.202174428126948e-18  4.267428579062172e-01
 1.019825196805527e+00  4.267428579062172e-01 -4.045985615439252e-17

-3.370225467115009e-17  1.196359277322589e-18  1.020010120824994e+00
 1.196359277322589e-18 -3.692856666810943e-18  4.263894255555692e-01
 1.020010120824994e+00  4.263894255555692e-01 -4.063593394862950e-17

-3.403690467910891e-17  1.260620867021385e-18  1.019396280515287e+00
 1.260620867021385e-18 -3.143083449780152e-18  4.269041054094077e-01
 1.019396280515287e+00  4.269041054094077e-01 -4.079237424230015e-17

-3.439648611018145e-17  1.329699316399238e-18  1.019562444937978e+00
 1.329699316399238e-18 -2.577581522383920e-18  4.266460402471090e-01
 1.019562444937978e+00  4.266460402471090e-01 -4.098522884965604e-17

-3.477912139098255e-17  1.403427888443899e-18  1.020202211167573e+00
 1.403427888443899e-18 -1.988849026256351e-18  4.260235894489051e-01
 1.020202211167573e+00  4.260235894489051e-01 -4.120440512591112e-17

-3.516800248231481e-17  1.481581688964669e-18  1.019601276064762e+00
 1.481581688964669e-18 -1.336373857265489e-18  4.267780727295916e-01
 1.019601276064762e+00  4.267780727295916e-01 -4.139020463679223e-17

-3.557694957665289e-17  1.566259724790724e-18  1.019050393006035e+00
 1.566259724790724e-18 -6.549740983443772e-19  4.274136903370009e-01
 1.019050393006035e+00  4.274136903370009e-01 -4.158832997668026e-17

-3.602085817227761e-17  1.657518487925924e-18  1.019900962173616e+00
 1.657518487925924e-18  3.896459828234158e-20  4.263726439606831e-01
 1.019900962173616e+00  4.263726439606831e-01 -4.184677552440432e-17

-3.648127071591483e-17  1.754966128018143e-18  1.020173945775530e+00
 1.754966128018143e-18  7.858334443666502e-19  4.259267741362507e-01
 1.020173945775530e+00  4.259267741362507e-01 -4.209704738750774e-17

-3.695274778523493e-17  1.859204293689178e-18  1.019164007772811e+00
 1.859204293689178e-18  1.599658594238870e-18  4.268970458954441e-01
 1.019164007772811e+00  4.268970458954441e-01 -4.231532241390600e-17

-3.746184500451876e-17  1.972115626980248e-18  1.019303125770881e+00
 1.972115626980248e-18  2.441432699778629e-18  4.266705248270088e-01
 1.019303125770881e+00  4.266705248270088e-01 -4.258782626582965e-17

-3.800489150487568e-17  2.093675460691294e-18  1.020068827834953e+00
 2.093675460691294e-18  3.321874484409544e-18  4.257811161546522e-01
 1.020068827834953e+00  4.257811161546522e-01 -4.289713982298954e-17

-3.856475777969834e-17  2.223579973683501e-18  1.019584732261288e+00
 2.223579973683501e-18  4.285071824281324e-18  4.262712009105744e-01
 1.019584732261288e+00  4.262712009105744e-01 -4.317852987025399e-17

-3.915705553558958e-17  2.364442688114782e-18  1.019179794290221e+00
 2.364442688114782e-18  5.303609239998127e-18  4.268009212791369e-01
 1.019179794290221e+00  4.268009212791369e-01 -4.347973918486490e-17

-3.979004674113404e-17  2.516834121345643e-18  1.019514314640252e+00
 2.516834121345643e-18  6.369922419420691e-18  4.264082965740197e-01
 1.019514314640252e+00  4.264082965740197e-01 -4.382484883022154e-17

-4.045614868773446e-17  2.681780221135494e-18  1.019625782988871e+00
 2.681780221135494e-18  7.506914568603712e-18  4.261294146130719e-01
 1.019625782988871e+00  4.261294146130719e-01 -4.418132821083875e-17

-4.115867312798318e-17  2.859552861318816e-18  1.019519670135796e+00
 2.859552861318816e-18  8.724797019003192e-18  4.260778976330774e-01
 1.019519670135796e+00  4.260778976330774e-01 -4.455108627916453e-17

-4.190347957188770e-17  3.052329729068230e-18  1.019470697442984e+00
 3.052329729068230e-18  1.002524956388011e-17  4.260854367051095e-01
 1.019470697442984e+00  4.260854367051095e-01 -4.494538737181511e-17

-4.269138217748414e-17  3.261298285919914e-18  1.019288720530741e+00
 3.261298285919914e-18  1.141135862591551e-17  4.262267515615044e-01
 1.019288720530741e+00  4.262267515615044e-01 -4.535912763252613e-17

-4.352821251649186e-17  3.488446774189195e-18  1.019241355520923e+00
 3.488446774189195e-18  1.288743431312555e-17  4.261547263933295e-01
 1.019241355520923e+00  4.261547263933295e-01 -4.580342936613866e-17

-4.442150346794770e-17  3.735682797132117e-18  1.019670749639020e+00
 3.735682797132117e-18  1.445067781008194e-17  4.256323566458579e-01
 1.019670749639020e+00  4.256323566458579e-01 -4.629249399735965e-17

-4.536471383314048e-17  4.003868971583882e-18  1.019531367911987e+00
 4.003868971583882e-18  1.614209179641636e-17  4.258178672753048e-01
 1.019531367911987e+00  4.258178672753048e-01 -4.679187233193333e-17

-4.635907851982228e-17  4.295741377399538e-18  1.018598683450801e+00
 4.295741377399538e-18  1.796138248584234e-17  4.267025682205219e-01
 1.018598683450801e+00  4.267025682205219e-01 -4.729576470530377e-17

-4.743069048696082e-17  4.616494472976992e-18  1.019012415101921e+00
 4.616494472976992e-18  1.988496053343502e-17  4.259456041549048e-01
 1.019012415101921e+00  4.259456041549048e-01 -4.788175819144952e-17

-4.857924369357166e-17  4.967174976969990e-18  1.020115183093405e+00
 4.967174976969990e-18  2.193177126749021e-17  4.245467739798974e-01
 1.020115183093405e+00  4.245467739798974e-01 -4.853016650600153e-17

-4.978403266742101e-17  5.347287367799680e-18  1.019207783764799e+00
 5.347287367799680e-18  2.418151755317392e-17  4.255344508869990e-01
 1.019207783764799e+00  4.255344508869990e-01 -4.914979302204901e-17

-5.106952003570992e-17  5.763935980245711e-18  1.018184772096083e+00
 5.763935980245711e-18  2.659156709885456e-17  4.266867463851770e-01
 1.018184772096083e+00  4.266867463851770e-01 -4.981027035133982e-17

-5.246259897090595e-17  6.224809469654528e-18  1.019163198862270e+00
 6.224809469654528e-18  2.914111373357719e-17  4.254999086815358e-01
 1.019163198862270e+00  4.254999086815358e-01 -5.058929473496504e-17

-5.394701796135323e-17  6.730426573243950e-18  1.019721421144038e+00
 6.730426573243950e-18  3.190512518346722e-17  4.246441474661640e-01
 1.019721421144038e+00  4.246441474661640e-01 -5.140639880379205e-17

-5.552168562917176e-17  7.283892650682614e-18  1.018806692865532e+00
 7.283892650682614e-18  3.490885800438262e-17  4.254850812042916e-01
 1.018806692865532e+00  4.254850812042916e-01 -5.222981051546648e-17

-5.721606723975833e-17  7.895241918928232e-18  1.018497050433648e+00
 7.895241918928232e-18  3.814822082824361e-17  4.257406723902556e-01
 1.018497050433648e+00  4.257406723902556e-01 -5.313751685696044e-17

-5.904200321661604e-17  8.572370400445047e-18  1.019048631005800e+00
 8.572370400445047e-18  4.162497188522376e-17  4.249525223004982e-01
 1.019048631005800e+00  4.249525223004982e-01 -5.414404565558215e-17

-6.099684414278328e-17  9.319849678523176e-18  1.019015496863632e+00
 9.319849678523176e-18  4.540110100522664e-17  4.247295479653013e-01
 1.019015496863632e+00  4.247295479653013e-01 -5.520536942879277e-17

-6.309563664985215e-17  1.014664228247194e-17  1.018601918820174e+00
 1.014664228247194e-17  4.950687169872361e-17  4.249970834458292e-01
 1.018601918820174e+00  4.249970834458292e-01 -5.633610787993275e-17

-6.535946843910528e-17  1.106511394478113e-17  1.018586913577492e+00
 1.106511394478113e-17  5.395232016083481e-17  4.248739860464810e-01
 1.018586913577492e+00  4.248739860464810e-01 -5.757156606776739e-17

-6.779968612873750e-17  1.208661567245270e-17  1.018617538181150e+00
 1.208661567245270e-17  5.878134270367321e-17  4.246295954812634e-01
 1.018617538181150e+00  4.246295954812634e-01 -5.890824852215605e-17

-7.043110535753021e-17  1.322440068777147e-17  1.018462884295185e+00
 1.322440068777147e-17  6.404961128164396e-17  4.245434287708950e-01
 1.018462884295185e+00  4.245434287708950e-01 -6.034825725174638e-17

-7.327615490210650e-17  1.449418434770563e-17  1.018463920799496e+00
 1.449418434770563e-17  6.978021188929846e-17  4.242618078921222e-01
 1.018463920799496e+00  4.242618078921222e-01 -6.191503124934805e-17

-7.635454523717226e-17  1.591399393023472e-17  1.018456279666768e+00
 1.591399393023472e-17  7.605123715020050e-17  4.240507441962975e-01
 1.018456279666768e+00  4.240507441962975e-01 -6.361571913901879e-17

-7.968637870579185e-17  1.750372057758908e-17  1.018102451351641e+00
 1.750372057758908e-17  8.290791584527879e-17  4.241804587987935e-01
 1.018102451351641e+00  4.241804587987935e-01 -6.545289248168014e-17

-8.330221880637159e-17  1.929083973453919e-17  1.017940219469905e+00
 1.929083973453919e-17  9.041708454456822e-17  4.240125266292527e-01
 1.017940219469905e+00  4.240125266292527e-01 -6.746152497090654e-17

-8.723365920937530e-17  2.130482571320803e-17  1.018200970230500e+00
 2.130482571320803e-17  9.865278572422121e-17  4.233452860469289e-01
 1.018200970230500e+00  4.233452860469289e-01 -6.966837938630475e-17

-9.150716283384412e-17  2.357387501101644e-17  1.018061419024274e+00
 2.357387501101644e-17  1.077191152933822e-16  4.231344504410921e-01
 1.018061419024274e+00  4.231344504410921e-01 -7.206602881256729e-17

-9.615995716815880e-17  2.613710510356219e-17  1.017553574714946e+00
 2.613710510356219e-17  1.177134277613983e-16  4.233321055810205e-01
 1.017553574714946e+00  4.233321055810205e-01 -7.467958621200915e-17

-1.012399834326851e-16  2.904669018669173e-17  1.017550005713022e+00
 2.904669018669173e-17  1.287327436336500e-16  4.229409876926976e-01
 1.017550005713022e+00  4.229409876926976e-01 -7.756671439699277e-17

-1.067946080626427e-16  3.235662717651446e-17  1.018091769719751e+00
 3.235662717651446e-17  1.409127454225300e-16  4.220778614430078e-01
 1.018091769719751e+00  4.220778614430078e-01 -8.076043614586900e-17

-1.128666220913089e-16  3.611867810340162e-17  1.017803885762627e+00
 3.611867810340162e-17  1.544325670084655e-16  4.222669793145235e-01
 1.017803885762627e+00  4.222669793145235e-01 -8.424931113383793e-17

-1.195008084705522e-16  4.040703770844717e-17  1.015450039987060e+00
 4.040703770844717e-17  1.694903567557726e-16  4.241003398033150e-01
 1.015450039987060e+00  4.241003398033150e-01 -8.803069693325981e-17

-1.267821523229123e-16  4.536317532574041e-17  1.015014460689737e+00
 4.536317532574041e-17  1.861680188282122e-16  4.228565184349911e-01
 1.015014460689737e+00  4.228565184349911e-01 -9.228880564244059e-17

-1.348108103046409e-16  5.110475126155061e-17  1.019087150287507e+00
 5.110475126155061e-17  2.046523183694823e-16  4.170546497968263e-01
 1.019087150287507e+00  4.170546497968263e-01 -9.717141203401668e-17

-1.436489324248160e-16  5.762039153751743e-17  1.019092326867773e+00
 5.762039153751743e-17  2.255114688323389e-16  4.171644173186332e-01
 1.019092326867773e+00  4.171644173186332e-01 -1.024536480562837e-16

-1.533863051981392e-16  6.504651191428234e-17  1.013721797951038e+00
 6.504651191428234e-17  2.490964368513269e-16  4.238567868805154e-01
 1.013721797951038e+00  4.238567868805154e-01 -1.081651037955202e-16

-1.641316424630542e-16  7.378284473321590e-17  1.013394197808244e+00
 7.378284473321590e-17  2.753792418542040e-16  4.241706188553607e-01
 1.013394197808244e+00  4.241706188553607e-01 -1.147433917235594e-16

-1.759614742663755e-16  8.408140917916116e-17  1.015967029932828e+00
 8.408140917916116e-17  3.048044039924623e-16  4.190947967869540e-01
 1.015967029932828e+00  4.190947967869540e-01 -1.222129249407119e-16

-1.890220304135039e-16  9.609537638310438e-17  1.016648110425354e+00
 9.609537638310438e-17  3.380886953214301e-16  4.154259319599455e-01
 1.016648110425354e+00  4.154259319599455e-01 -1.305396624638757e-16

-2.035330592381201e-16  1.100919388303236e-16  1.017958119272093e+00
 1.100919388303236e-16  3.758792677875519e-16  4.133440800715643e-01
 1.017958119272093e+00  4.133440800715643e-01 -1.399675615798365e-16

-2.196934987417646e-16  1.263174360342792e-16  1.014318104975297e+00
 1.263174360342792e-16  4.191758156112865e-16  4.181756296736333e-01
 1.014318104975297e+00  4.181756296736333e-01 -1.504869640418295e-16

-2.375875218932642e-16  1.454807065621492e-16  1.008156191005168e+00
 1.454807065621492e-16  4.685142149018259e-16  4.241496409685291e-01
 1.008156191005168e+00  4.241496409685291e-01 -1.623694410510180e-16

-2.572202337492232e-16  1.687275415356816e-16  1.011869967697160e+00
 1.687275415356816e-16  5.241024160147618e-16  4.168849410516154e-01
 1.011869967697160e+00  4.168849410516154e-01 -1.762497082343185e-16

-2.789075426089888e-16  1.964970923983415e-16  1.018037370227148e+00
 1.964970923983415e-16  5.876052203959954e-16  4.065549998748327e-01
 1.018037370227148e+00  4.065549998748327e-01 -1.921983914002027e-16

-3.032328526579355e-16  2.289605308417124e-16  1.013983385424433e+00
 2.289605308417124e-16  6.616367997358407e-16  4.094902310560002e-01
 1.013983385424433e+00  4.094902310560002e-01 -2.102140888863608e-16

-3.303479752456330e-16  2.675547945960229e-16  1.007468700933773e+00
 2.675547945960229e-16  7.475088748437068e-16  4.168149356475590e-01
 1.007468700933773e+00  4.168149356475590e-01 -2.309894210437563e-16

-3.599957049289715e-16  3.145583189047525e-16  1.008258415325553e+00
 3.145583189047525e-16  8.459998760700032e-16  4.151132575057833e-01
 1.008258415325553e+00  4.151132575057833e-01 -2.553223667199772e-16

-3.922773726720194e-16  3.717613588700740e-16  1.011147379411313e+00
 3.717613588700740e-16  9.596225066381160e-16  4.089451395656547e-01
 1.011147379411313e+00  4.089451395656547e-01 -2.836969473295747e-16

-4.276212789213985e-16  4.408789020828538e-16  1.009770216191347e+00
 4.408789020828538e-16  1.092261782774193e-15  4.068706650502878e-01
 1.009770216191347e+00  4.068706650502878e-01 -3.167836339007316e-16

-4.660800546798140e-16  5.246959907074395e-16  1.006163723655021e+00
 5.246959907074395e-16  1.247562659062678e-15  4.077593177315191e-01
 1.006163723655021e+00  4.077593177315191e-01 -3.556999176747030e-16

-5.072006522593153e-16  6.270802105482165e-16  1.003764896828516e+00
 6.270802105482165e-16  1.429194972547928e-15  4.072969271025787e-01
 1.003764896828516e+00  4.072969271025787e-01 -4.018139843325947e-16

-5.502136463908320e-16  7.526894024907010e-16  1.003219650382547e+00
 7.526894024907010e-16  1.641684717917869e-15  4.040652275777765e-01
 1.003219650382547e+00  4.040652275777765e-01 -4.567449368578943e-16

-5.945239290800748e-16  9.064842821646672e-16  1.002218819802162e+00
 9.064842821646672e-16  1.892105067803656e-15  4.008534783989002e-01
 1.002218819802162e+00  4.008534783989002e-01 -5.225569706522596e-16

-6.390585106834342e-16  1.094522380127426e-15  1.000779611047338e+00
 1.094522380127426e-15  2.189100275556516e-15  3.989269144932447e-01
 1.000779611047338e+00  3.989269144932447e-01 -6.020036687305716e-16

-6.807122419192406e-16  1.325468998469503e-15  1.013467679483034e+00
 1.325468998469503e-15  2.539103809002176e-15  3.889804376834567e-01
 1.013467679483034e+00  3.889804376834567e-01 -6.988680839604495e-16

-7.228404913306362e-16  1.602005225287258e-15  1.012086760591093e+00
 1.602005225287258e-15  2.974597373382214e-15  4.045267842444144e-01
 1.012086760591093e+00  4.045267842444144e-01 -8.182191908180627e-16

-7.642977405884019e-16  1.930176230387245e-15  9.497979104021667e-01
 1.930176230387245e-15  3.525966476898596e-15  4.771400523398079e-01
 9.497979104021667e-01  4.771400523398079e-01 -9.654848329903674e-16

-7.746427641286937e-16  2.342970904108756e-15  8.516426939463786e-01
 2.342970904108756e-15  4.122241846265541e-15  5.379642352946626e-01
 8.516426939463786e-01  5.379642352946626e-01 -1.142906049551342e-15

-7.088504398652787e-16  2.884729863905780e-15  8.309250320974352e-01
 2.884729863905780e-15  4.553103503855713e-15  4.453499090111118e-01
 8.309250320974352e-01  4.453499090111118e-01 -1.348153760032016e-15

-5.162193465278176e-16  3.523198571269482e-15  9.804574678212726e-01
 3.523198571269482e-15  4.895048241927923e-15  2.064193435615433e-01
 9.804574678212726e-01  2.064193435615433e-01 -1.591741087145601e-15

-5.718096621642561e-16  4.174411580517774e-15  1.150676795330496e+00
 4.174411580517774e-15  5.553583512711993e-15  1.244810265411581e-01
 1.150676795330496e+00  1.244810265411581e-01 -1.930420736611217e-15

-8.123520513010631e-16  4.305035021409815e-15  1.206591752506459e+00
 4.305035021409815e-15  9.950071806106769e-15  2.971892312547121e-01
 1.206591752506459e+00  2.971892312547121e-01 -2.639721166860306e-15

-3.158429431190130e-17  2.572831845070071e-15  7.927649088166282e-01
 2.572831845070071e-15  1.523764336229919e-14  7.108694909855575e-01
 7.927649088166282e-01  7.108694909855575e-01 -3.221708644217637e-15

 1.289153174674617e-15  1.532235884684331e-15  1.085450527445613e+00
 1.532235884684331e-15  1.967855663516216e-14  6.610726505193891e-01
 1.085450527445613e+00  6.610726505193891e-01 -4.045306459997388e-15

 1.577460110587520e-15 -3.750242155541656e-16  1.049017672714352e+00
-3.750242155541656e-16  2.713564063891662e-14  5.306068450955592e-01
 1.049017672714352e+00  5.306068450955592e-01 -5.219849535608208e-15

-1.075163109771400e-15  1.731693238123677e-17  1.100826671056806e+00
 1.731693238123677e-17  3.168114820559204e-14  3.039682702979910e-01
 1.100826671056806e+00  3.039682702979910e-01 -5.959842159415967e-15

-6.027824541576973e-15  1.525083587026278e-15  1.116749836588491e+00
 1.525083587026278e-15  3.647281875678559e-14  1.275796221468365e-01
 1.116749836588491e+00  1.275796221468365e-01 -6.874856378076411e-15

-3.419087539171564e-15 -6.661438602265450e-15  6.961503871045132e-01
-6.661438602265450e-15  5.964088050153256e-14  4.140491942650368e-01
 6.961503871045132e-01  4.140491942650368e-01 -4.690255465925006e-15

 6.084686562991774e-14 -1.745357882222054e-14  8.278367515368379e-01
-1.745357882222054e-14  8.670835326237681e-14  1.798850442049132e-01
 8.278367515368379e-01  1.798850442049132e-01  2.282463273196036e-14

 2.246609419036623e-13 -4.099356826864342e-14  1.114268166774518e+00
-4.099356826864342e-14  1.242764815425703e-13  1.059420267975585e-02
 1.114268166774518e+00  1.059420267975585e-02  7.391981791281884e-14

-7.141537806822069e-13  1.348143495682137e-13  6.410980219874021e-01
 1.348143495682137e-13 -2.178398727916356e-13  4.796609074325832e-01
 6.410980219874021e-01  4.796609074325832e-01 -2.000418791287069e-13

 2.346705649361168e-13 -1.187025733674468e-13  7.258381720451531e-01
-1.187025733674468e-13  2.370693251845628e-13  4.951412364542991e-01
 7.258381720451531e-01  4.951412364542991e-01  9.610805010559906e-14

-6.724614808890524e-13  1.165710878054410e-13  3.823948031672628e-01
 1.165710878054410e-13 -1.947744624829504e-13  8.251131340363497e-01
 3.823948031672628e-01  8.251131340363497e-01 -1.638231723820871e-13

 3.753619631419105e-14 -5.379181114687693e-14  9.724541000411989e-01
-5.379181114687693e-14  1.283894085959442e-13  1.901785601272498e-01
 9.724541000411989e-01  1.901785601272498e-01  1.290109709704312e-14

-1.383639344638813e-14 -5.081363293957312e-15  7.136292720201786e-01
-5.081363293957312e-15  4.575210221908865e-14  4.888807849776544e-01
 7.136292720201786e-01  4.888807849776544e-01 -6.136756288921651e-15

-1.513102350993927e-14  2.185855199626140e-15  5.891282477282876e-01
 2.185855199626140e-15  2.227893974684805e-14  6.356999661597026e-01
 5.891282477282876e-01  6.356999661597026e-01 -7.083293166764890e-15

-1.196534454707044e-14  2.656064525132427e-15  7.581130554045203e-01
 2.656064525132427e-15  1.556886565997021e-14  4.825032584762205e-01
 7.581130554045203e-01  4.825032584762205e-01 -5.801900609603521e-15

-8.456849783707280e-15  2.463103127802025e-15  8.502170001122161e-01
 2.463103127802025e-15  1.012097029282658e-14  3.415026343800380e-01
 8.502170001122161e-01  3.415026343800380e-01 -4.184359940646371e-15

-5.990352751531540e-15  2.159949729476102e-15  1.153664919585653e+00
 2.159949729476102e-15  6.156915362439169e-15  1.731544397243558e-01
 1.153664919585653e+00  1.731544397243558e-01 -2.929274165865266e-15

-4.946717869216882e-15  2.207641028363955e-15  1.221864054632534e+00
 2.207641028363955e-15  3.192387233201725e-15  2.231596373674824e-01
 1.221864054632534e+00  2.231596373674824e-01 -2.396906792006996e-15

-3.853957951074163e-15  1.811249404791582e-15  8.504198362443828e-01
 1.811249404791582e-15 -5.205683282346207e-16  6.169501660067218e-01
 8.504198362443828e-01  6.169501660067218e-01 -1.816260527819410e-15

-2.809002753340344e-15  1.489322413830166e-15  9.338481928094586e-01
 1.489322413830166e-15 -3.846264281541343e-16  6.090579566936872e-01
 9.338481928094586e-01  6.090579566936872e-01 -1.305925700940650e-15

-2.249389984255985e-15  1.309885461201871e-15  1.268330087138144e+00
 1.309885461201871e-15  6.928907002540845e-16  1.134827110230579e-01
 1.268330087138144e+00  1.134827110230579e-01 -1.090579281257032e-15

-1.890503613457728e-15  1.106833672160301e-15  1.015319694426849e+00
 1.106833672160301e-15  4.110060966131970e-16  2.617881360912694e-01
 1.015319694426849e+00  2.617881360912694e-01 -8.745546732838829e-16

-1.538041238254248e-15  9.336107173981792e-16  9.329208412528844e-01
 9.336107173981792e-16  2.329905393009777e-16  3.531111109670155e-01
 9.329208412528844e-01  3.531111109670155e-01 -7.161064789411469e-16

-1.260617861532200e-15  7.858576893443506e-16  9.490587562485643e-01
 7.858576893443506e-16  1.080912322666290e-16  3.755566610601079e-01
 9.490587562485643e-01  3.755566610601079e-01 -5.972154952659622e-16

-1.035795775026220e-15  6.595273479055383e-16  9.458903424431707e-01
 6.595273479055383e-16 -4.475551343798869e-18  4.161127300430959e-01
 9.458903424431707e-01  4.161127300430959e-01 -5.029659870096776e-16

-8.581840329497269e-16  5.520081790738052e-16  9.539717057646058e-01
 5.520081790738052e-16 -7.119304596877650e-17  4.371825211119103e-01
 9.539717057646058e-01  4.371825211119103e-01 -4.292420390046823e-16

-7.202470627473680e-16  4.624994300541916e-16  9.833901372759551e-01
 4.624994300541916e-16 -9.467332370186438e-17  4.224058671382881e-01
 9.833901372759551e-01  4.224058671382881e-01 -3.718327127979925e-16

-6.104408343519329e-16  3.880245957232475e-16  1.000853963290659e+00
 3.880245957232475e-16 -1.018267556802660e-16  4.092428212405138e-01
 1.000853963290659e+00  4.092428212405138e-01 -3.252840577152667e-16

-5.213561601686527e-16  3.257570319496034e-16  1.002797115882182e+00
 3.257570319496034e-16 -1.038189670265541e-16  4.102251862494892e-01
 1.002797115882182e+00  4.102251862494892e-01 -2.866736928192375e-16

-4.491535362842384e-16  2.739962559519843e-16  1.005890751282722e+00
 2.739962559519843e-16 -1.008910253237254e-16  4.115172384473880e-01
 1.005890751282722e+00  4.115172384473880e-01 -2.548140097767379e-16

-3.902439167229770e-16  2.309928963143271e-16  1.008471041633262e+00
 2.309928963143271e-16 -9.504368549828472e-17  4.131009081516284e-01
 1.008471041633262e+00  4.131009081516284e-01 -2.282456379132538e-16

-3.418050894312386e-16  1.952589254191229e-16  1.010247264629593e+00
 1.952589254191229e-16 -8.775730913482025e-17  4.147058683170877e-01
 1.010247264629593e+00  4.147058683170877e-01 -2.058748168521092e-16

-3.017291736946074e-16  1.655634526695304e-16  1.012595747861382e+00
 1.655634526695304e-16 -7.982238293487583e-17  4.148458809716488e-01
 1.012595747861382e+00  4.148458809716488e-01 -1.869374061394537e-16

-2.682813519875297e-16  1.408090574745902e-16  1.014611928504019e+00
 1.408090574745902e-16 -7.197120787239041e-17  4.148746592184189e-01
 1.014611928504019e+00  4.148746592184189e-01 -1.707619801892528e-16

-2.401116213331475e-16  1.200871113801509e-16  1.015126791060260e+00
 1.200871113801509e-16 -6.463137672443973e-17  4.164551213308768e-01
 1.015126791060260e+00  4.164551213308768e-01 -1.568078513202433e-16

-2.162495881823110e-16  1.027130501621413e-16  1.015330012672715e+00
 1.027130501621413e-16 -5.787132457560204e-17  4.183301691728989e-01
 1.015330012672715e+00  4.183301691728989e-01 -1.447290142268145e-16

-1.959338020991393e-16  8.812915056505852e-17  1.016303596162381e+00
 8.812915056505852e-17 -5.169692046570489e-17  4.191130798040917e-01
 1.016303596162381e+00  4.191130798040917e-01 -1.342532997943345e-16

-1.785113871942756e-16  7.584306509359383e-17  1.017205160758265e+00
 7.584306509359383e-17 -4.615513623087685e-17  4.196669009867371e-01
 1.017205160758265e+00  4.196669009867371e-01 -1.250977794120461e-16

-1.634660689025039e-16  6.545251862804692e-17  1.017475500221852e+00
 6.545251862804692e-17 -4.124545097689608e-17  4.207542112697140e-01
 1.017475500221852e+00  4.207542112697140e-01 -1.170376863802036e-16

-1.504093504646735e-16  5.664466452702954e-17  1.017718523215067e+00
 5.664466452702954e-17 -3.691716903044482e-17  4.217876664590807e-01
 1.017718523215067e+00  4.217876664590807e-01 -1.099278813929612e-16

-1.390243406523158e-16  4.916072664354873e-17  1.018283962052871e+00
 4.916072664354873e-17 -3.311868710869119e-17  4.223599541177230e-01
 1.018283962052871e+00  4.223599541177230e-01 -1.036431933168303e-16

-1.290401636409562e-16  4.277963249655357e-17  1.018726724082099e+00
 4.277963249655357e-17 -2.980269211025356e-17  4.229660641017834e-01
 1.018726724082099e+00  4.229660641017834e-01 -9.805347893724741e-17

-1.202380543409312e-16  3.732140731200076e-17  1.018749507323936e+00
 3.732140731200076e-17 -2.691762501320143e-17  4.239105895769642e-01
 1.018749507323936e+00  4.239105895769642e-01 -9.305291729377393e-17

-1.124515532234252e-16  3.264397537690197e-17  1.018953503083373e+00
 3.264397537690197e-17 -2.441521428028381e-17  4.245080475899821e-01
 1.018953503083373e+00  4.245080475899821e-01 -8.858288666773973e-17

-1.055377695407493e-16  2.862555349736312e-17  1.019563309617370e+00
 2.862555349736312e-17 -2.225420895338258e-17  4.245683085565363e-01
 1.019563309617370e+00  4.245683085565363e-01 -8.458383765082016e-17

-9.936397483556824e-17  2.515891433444881e-17  1.019770255086911e+00
 2.515891433444881e-17 -2.039040541944109e-17  4.250438111000624e-01
 1.019770255086911e+00  4.250438111000624e-01 -8.097000138029950e-17

-9.383023581836077e-17  2.216056160933898e-17  1.019614824968096e+00
 2.216056160933898e-17 -1.878565989383978e-17  4.259017203954307e-01
 1.019614824968096e+00  4.259017203954307e-01 -7.769414433113353e-17

-8.886187730115593e-17  1.956448854447153e-17  1.019836131774442e+00
 1.956448854447153e-17 -1.741351597381858e-17  4.262667281604426e-01
 1.019836131774442e+00  4.262667281604426e-01 -7.474055443269148e-17

-8.438387487124908e-17  1.731052947191278e-17  1.020182235039068e+00
 1.731052947191278e-17 -1.624354712216528e-17  4.263472614516770e-01
 1.020182235039068e+00  4.263472614516770e-01 -7.206436645018858e-17

-8.033195451442787e-17  1.534720727179077e-17  1.020379041601378e+00
 1.534720727179077e-17 -1.524717696340912e-17  4.265480420369762e-01
 1.020379041601378e+00  4.265480420369762e-01 -6.962510739756110e-17

-7.665622005329102e-17  1.363282395805852e-17  1.020556349547829e+00
 1.363282395805852e-17 -1.440207470366884e-17  4.268604706881924e-01
 1.020556349547829e+00  4.268604706881924e-01 -6.740071277938511e-17

-7.330874326706902e-17  1.213212365882409e-17  1.020392663305180e+00
 1.213212365882409e-17 -1.368461561796052e-17  4.275198053185868e-01
 1.020392663305180e+00  4.275198053185868e-01 -6.535643796706696e-17

-7.025581919166022e-17  1.081749209944023e-17  1.020262710816062e+00
 1.081749209944023e-17 -1.308368527704534e-17  4.279701941274731e-01
 1.020262710816062e+00  4.279701941274731e-01 -6.348495281104849e-17

-6.747330668493806e-17  9.663889904875943e-18  1.020919921679582e+00
 9.663889904875943e-18 -1.259574605244470e-17  4.274283371562444e-01
 1.020919921679582e+00  4.274283371562444e-01 -6.179506284553408e-17

-6.492211737256683e-17  8.647525099462798e-18  1.021409731492195e+00
 8.647525099462798e-18 -1.219096638957911e-17  4.272515289904188e-01
 1.021409731492195e+00  4.272515289904188e-01 -6.023790014041062e-17

-6.256659597215087e-17  7.747817262179850e-18  1.020743254437110e+00
 7.747817262179850e-18 -1.184107997836518e-17  4.284102276105748e-01
 1.020743254437110e+00  4.284102276105748e-01 -5.876497801269507e-17

-6.040033105815270e-17  6.953993150848503e-18  1.020299771911783e+00
 6.953993150848503e-18 -1.156088475081728e-17  4.292129644389028e-01
 1.020299771911783e+00  4.292129644389028e-01 -5.741229966528646e-17

-5.841680884469077e-17  6.253317449036809e-18  1.021227655589378e+00
 6.253317449036809e-18 -1.136225277488036e-17  4.282719467239913e-01
 1.021227655589378e+00  4.282719467239913e-01 -5.620929888572371e-17

-5.658203624700487e-17  5.630857438854099e-18  1.021905530855206e+00
 5.630857438854099e-18 -1.120775111576657e-17  4.276501944575830e-01
 1.021905530855206e+00  4.276501944575830e-01 -5.508989128809429e-17

-5.486823136666085e-17  5.075288200128934e-18  1.021079286170818e+00
 5.075288200128934e-18 -1.106665447479581e-17  4.288618335149570e-01
 1.021079286170818e+00  4.288618335149570e-01 -5.400180249765661e-17

-5.328146912850102e-17  4.581234318158374e-18  1.020527037258077e+00
 4.581234318158374e-18 -1.096634308035010e-17  4.297533166020093e-01
 1.020527037258077e+00  4.297533166020093e-01 -5.299963930951209e-17

-5.182284140609746e-17  4.142399418210569e-18  1.021460177984797e+00
 4.142399418210569e-18 -1.092553528542851e-17  4.288421772592682e-01
 1.021460177984797e+00  4.288421772592682e-01 -5.211891141781466e-17

-5.046191675130681e-17  3.749786581397446e-18  1.021969817682751e+00
 3.749786581397446e-18 -1.090437004561627e-17  4.283451414491621e-01
 1.021969817682751e+00  4.283451414491621e-01 -5.128675865915924e-17

-4.918132986856520e-17  3.397351484604822e-18  1.021229179478126e+00
 3.397351484604822e-18 -1.088189896100131e-17  4.293310785519858e-01
 1.021229179478126e+00  4.293310785519858e-01 -5.046899311821971e-17

-4.799205294434827e-17  3.082126023917883e-18  1.021038675584476e+00
 3.082126023917883e-18 -1.088775589771142e-17  4.297673173577325e-01
 1.021038675584476e+00  4.297673173577325e-01 -4.972383546346447e-17

-4.688910454383036e-17  2.799878226498165e-18  1.021659461736316e+00
 2.799878226498165e-18 -1.092660238535166e-17  4.292044293724828e-01
 1.021659461736316e+00  4.292044293724828e-01 -4.905580906735324e-17

-4.585179888753458e-17  2.545860893254202e-18  1.021744077593689e+00
 2.545860893254202e-18 -1.097043262206988e-17  4.291524385622884e-01
 1.021744077593689e+00  4.291524385622884e-01 -4.841372979706436e-17

-4.487599402699765e-17  2.317073337807942e-18  1.021417104460682e+00
 2.317073337807942e-18 -1.101721286579284e-17  4.296086658822358e-01
 1.021417104460682e+00  4.296086658822358e-01 -4.779857410688997e-17

-4.396450463487622e-17  2.111160290952483e-18  1.021451465234579e+00
 2.111160290952483e-18 -1.108001546819372e-17  4.296906455619423e-01
 1.021451465234579e+00  4.296906455619423e-01 -4.723418361463171e-17

-4.311114063368991e-17  1.925486157201158e-18  1.021727212442216e+00
 1.925486157201158e-18 -1.115586369856381e-17  4.294770947545465e-01
 1.021727212442216e+00  4.294770947545465e-01 -4.671332200601675e-17

-4.230689354083127e-17  1.757606923884845e-18  1.021782910922363e+00
 1.757606923884845e-18 -1.123408755248776e-17  4.295309591784658e-01
 1.021782910922363e+00  4.295309591784658e-01 -4.621720659026409e-17

-4.154681406635075e-17  1.605704636469303e-18  1.021524863828279e+00
 1.605704636469303e-18 -1.131179868428148e-17  4.299306080168449e-01
 1.021524863828279e+00  4.299306080168449e-01 -4.574008003328935e-17

-4.083301771567386e-17  1.468395689236661e-18  1.021514246902663e+00
 1.468395689236661e-18 -1.139897644937901e-17  4.299905957147519e-01
 1.021514246902663e+00  4.299905957147519e-01 -4.529932435829235e-17

-4.016401439683000e-17  1.344033587991638e-18  1.021909514599274e+00
 1.344033587991638e-18 -1.149755124099798e-17  4.295808871412238e-01
 1.021909514599274e+00  4.295808871412238e-01 -4.489851460811019e-17

-3.952878996444551e-17  1.230962047384095e-18  1.021912472580863e+00
 1.230962047384095e-18 -1.159094899195849e-17  4.296439754326977e-01
 1.021912472580863e+00  4.296439754326977e-01 -4.450791875418220e-17

-3.892509964061700e-17  1.128236460266901e-18  1.021564395843166e+00
 1.128236460266901e-18 -1.167807911829641e-17  4.301329947512649e-01
 1.021564395843166e+00  4.301329947512649e-01 -4.412729163445371e-17

-3.835843434491578e-17  1.035020670007074e-18  1.021651749586622e+00
 1.035020670007074e-18 -1.177505314762057e-17  4.301210419072454e-01
 1.021651749586622e+00  4.301210419072454e-01 -4.378257424874686e-17

-3.782356793470190e-17  9.501842793279525e-19  1.021905101747454e+00
 9.501842793279525e-19 -1.187701182528337e-17  4.298527710719338e-01
 1.021905101747454e+00  4.298527710719338e-01 -4.346280238377971e-17

-3.731360186842464e-17  8.728290908342841e-19  1.021837602860893e+00
 8.728290908342841e-19 -1.197366972389951e-17  4.299184897674354e-01
 1.021837602860893e+00  4.299184897674354e-01 -4.314970269056979e-17

-3.683020204886154e-17  8.020657605760585e-19  1.021769090203753e+00
 8.020657605760585e-19 -1.206884138256691e-17  4.300202595020969e-01
 1.021769090203753e+00  4.300202595020969e-01 -4.285340041860645e-17

-3.637337226125205e-17  7.379951727352742e-19  1.021872460757996e+00
 7.379951727352742e-19 -1.216582346061901e-17  4.300180019348300e-01
 1.021872460757996e+00  4.300180019348300e-01 -4.257882734546099e-17

-3.593859569778630e-17  6.792276845939932e-19  1.021881137878151e+00
 6.792276845939932e-19 -1.226081851526536e-17  4.300940744438583e-01
 1.021881137878151e+00  4.300940744438583e-01 -4.231554811416115e-17

-3.552482422036177e-17  6.255297502469252e-19  1.021843267064027e+00
 6.255297502469252e-19 -1.235369808771620e-17  4.302071631035910e-01
 1.021843267064027e+00  4.302071631035910e-01 -4.206427630628684e-17

-3.513257695025542e-17  5.764363024131879e-19  1.021942034484061e+00
 5.764363024131879e-19 -1.244790808903544e-17  4.301653985031301e-01
 1.021942034484061e+00  4.301653985031301e-01 -4.183057062460651e-17

-3.475668621514532e-17  5.314617019218710e-19  1.021820601037510e+00
 5.314617019218710e-19 -1.253697524074573e-17  4.302933174139481e-01
 1.021820601037510e+00  4.302933174139481e-01 -4.160101011776685e-17

-3.439689975795313e-17  4.903528256059321e-19  1.021580318054960e+00
 4.903528256059321e-19 -1.262428183979952e-17  4.304183467611070e-01
 1.021580318054960e+00  4.304183467611070e-01 -4.137833989255903e-17

-3.406056470739398e-17  4.527301480623734e-19  1.021983794990019e+00
 4.527301480623734e-19 -1.272235381923782e-17  4.298555828840014e-01
 1.021983794990019e+00  4.298555828840014e-01 -4.118886630278440e-17

-3.374074094750967e-17  4.179981920255104e-19  1.022389079290319e+00
 4.179981920255104e-19 -1.281548181014001e-17  4.295134135716745e-01
 1.022389079290319e+00  4.295134135716745e-01 -4.100973646014587e-17

-3.342624148237471e-17  3.857994024188631e-19  1.021818364009839e+00
 3.857994024188631e-19 -1.288541299200768e-17  4.303973250795022e-01
 1.021818364009839e+00  4.303973250795022e-01 -4.080597568753580e-17

-3.312582857860496e-17  3.569524652349231e-19  1.021299332911340e+00
 3.569524652349231e-19 -1.295540430836156e-17  4.311618265085602e-01
 1.021299332911340e+00  4.311618265085602e-01 -4.061266935082484e-17

-3.284923792388103e-17  3.305841894902790e-19  1.021915732334360e+00
 3.305841894902790e-19 -1.304928216104393e-17  4.304233001765677e-01
 1.021915732334360e+00  4.304233001765677e-01 -4.046701217162118e-17

-3.258345504436913e-17  3.056278654264860e-19  1.022424029604204e+00
 3.056278654264860e-19 -1.314109958994807e-17  4.296536618770837e-01
 1.022424029604204e+00  4.296536618770837e-01 -4.032518021449069e-17

-3.231783344915971e-17  2.828364367987978e-19  1.021789205295277e+00
 2.828364367987978e-19 -1.320668120565701e-17  4.302359334936669e-01
 1.021789205295277e+00  4.302359334936669e-01 -4.015072635239144e-17

-3.206857054779860e-17  2.620905030579522e-19  1.021613880805233e+00
 2.620905030579522e-19 -1.327723411809978e-17  4.304778187366115e-01
 1.021613880805233e+00  4.304778187366115e-01 -3.999958457337130e-17

-3.183771064731510e-17  2.428848945542316e-19  1.022179872242323e+00
 2.428848945542316e-19 -1.335901241486218e-17  4.299951005647657e-01
 1.022179872242323e+00  4.299951005647657e-01 -3.988114194159101e-17

-3.160887152637504e-17  2.248408572987534e-19  1.021988882785580e+00
 2.248408572987534e-19 -1.342471849453348e-17  4.302908469427876e-01
 1.021988882785580e+00  4.302908469427876e-01 -3.974232098649571e-17

-3.138817640471875e-17  2.088616062912254e-19  1.021692823621754e+00
 2.088616062912254e-19 -1.348637013550150e-17  4.307257689283938e-01
 1.021692823621754e+00  4.307257689283938e-01 -3.960563789087194e-17

-3.118192150322559e-17  1.939070427998962e-19  1.021977012441981e+00
 1.939070427998962e-19 -1.355889493044147e-17  4.304191811725850e-01
 1.021977012441981e+00  4.304191811725850e-01 -3.949468864012961e-17

-3.098225577294669e-17  1.800651811143136e-19  1.022125422524107e+00
 1.800651811143136e-19 -1.362774240151818e-17  4.301580481863536e-01
 1.022125422524107e+00  4.301580481863536e-01 -3.938405059866463e-17

-3.078932407012335e-17  1.673014850903443e-19  1.022134727260938e+00
 1.673014850903443e-19 -1.369108366944549e-17  4.301323149820281e-01
 1.022134727260938e+00  4.301323149820281e-01 -3.927361162565225e-17

-3.060410987051197e-17  1.554976241423191e-19  1.022121131549645e+00
 1.554976241423191e-19 -1.375004161908152e-17  4.302797774097316e-01
 1.022121131549645e+00  4.302797774097316e-01 -3.916726386358850e-17

-3.042219941570141e-17  1.446397113500797e-19  1.021755484522273e+00
 1.446397113500797e-19 -1.380007961095201e-17  4.307568053817759e-01
 1.021755484522273e+00  4.307568053817759e-01 -3.905294289742099e-17

-3.024926490618651e-17  1.347432385943657e-19  1.021668947242474e+00
 1.347432385943657e-19 -1.385707709414763e-17  4.307391966899886e-01
 1.021668947242474e+00  4.307391966899886e-01 -3.895234564384932e-17

-3.008962844739485e-17  1.255139582423583e-19  1.022266988113851e+00
 1.255139582423583e-19 -1.392619909398293e-17  4.299281999001486e-01
 1.022266988113851e+00  4.299281999001486e-01 -3.887968300574771e-17

-2.993101790031780e-17  1.168169325939643e-19  1.022323316633774e+00
 1.168169325939643e-19 -1.398070711870942e-17  4.298487851321781e-01
 1.022323316633774e+00  4.298487851321781e-01 -3.879203754659172e-17

-2.977111479720176e-17  1.089142262982590e-19  1.021640481489949e+00
 1.089142262982590e-19 -1.401754502558561e-17  4.307100048610005e-01
 1.021640481489949e+00  4.307100048610005e-01 -3.868229799847474e-17

-2.962289043504001e-17  1.017616511151860e-19  1.021566100873580e+00
 1.017616511151860e-19 -1.406494103360307e-17  4.308609895099556e-01
 1.021566100873580e+00  4.308609895099556e-01 -3.859727966752669e-17

-2.948603784129982e-17  9.505699402155490e-20  1.022126227724495e+00
 9.505699402155490e-20 -1.412545495911836e-17  4.301815628169278e-01
 1.022126227724495e+00  4.301815628169278e-01 -3.853759258499219e-17

-2.934888064591968e-17  8.874739719082950e-20  1.022170383133169e+00
 8.874739719082950e-20 -1.417451910113002e-17  4.300484844200436e-01
 1.022170383133169e+00  4.300484844200436e-01 -3.846290932554346e-17

-2.923605192695200e-17  8.771299590622923e-20  1.021871202992417e+00
 8.771299590622923e-20 -1.426442958505430e-17  4.304184926499887e-01
 1.021871202992417e+00  4.304184926499887e-01 -3.837140844125651e-17

-2.908710805339794e-17  7.769762118877303e-20  1.022025579071519e+00
 7.769762118877303e-20 -1.425755368861449e-17  4.304184901342473e-01
 1.022025579071519e+00  4.304184901342473e-01 -3.831435649043947e-17

-2.896325571899788e-17  7.277916616950243e-20  1.021968846388015e+00
 7.277916616950243e-20 -1.429797129121047e-17  4.305766033623623e-01
 1.021968846388015e+00  4.305766033623623e-01 -3.824488148580957e-17

-2.884094157405541e-17  6.834039358972153e-20  1.021717604201846e+00
 6.834039358972153e-20 -1.433462497665921e-17  4.307782874600271e-01
 1.021717604201846e+00  4.307782874600271e-01 -3.817087618482651e-17

-2.872824578110120e-17  6.421952349826064e-20  1.022043851785019e+00
 6.421952349826064e-20 -1.438228883637226e-17  4.302820638025078e-01
 1.022043851785019e+00  4.302820638025078e-01 -3.811944393713939e-17

-2.861689542107257e-17  6.029517919764809e-20  1.022127032081473e+00
 6.029517919764809e-20 -1.442341267542047e-17  4.300530892688900e-01
 1.022127032081473e+00  4.300530892688900e-01 -3.806183498996588e-17

-2.850631828112292e-17  5.677597602186249e-20  1.021884344091228e+00
 5.677597602186249e-20 -1.445585217053217e-17  4.302985166718199e-01
 1.021884344091228e+00  4.302985166718199e-01 -3.799523852363068e-17

-2.840330626927870e-17  5.352513601899391e-20  1.021981892990411e+00
 5.352513601899391e-20 -1.449126495253634e-17  4.303250967061126e-01
 1.021981892990411e+00  4.303250967061126e-01 -3.794295865472405e-17

-2.830368974897334e-17  5.050006212315972e-20  1.022068809550352e+00
 5.050006212315972e-20 -1.452454025780684e-17  4.303973776678455e-01
 1.022068809550352e+00  4.303973776678455e-01 -3.789241376874676e-17

-2.820554522725520e-17  4.776661773793406e-20  1.022006109979660e+00
 4.776661773793406e-20 -1.455446610934221e-17  4.306001121922201e-01
 1.022006109979660e+00  4.306001121922201e-01 -3.783849771834980e-17

-2.810895284522579e-17  4.526389712317569e-20  1.021856247999363e+00
 4.526389712317569e-20 -1.458347179130697e-17  4.307536885302122e-01
 1.021856247999363e+00  4.307536885302122e-01 -3.778313106076955e-17

-2.801744230495505e-17  4.300684149541544e-20  1.021973428001928e+00
 4.300684149541544e-20 -1.461837974036340e-17  4.304687767617398e-01
 1.021973428001928e+00  4.304687767617398e-01 -3.773865370059097e-17

-2.793076468984600e-17  4.082299898727366e-20  1.022288992045622e+00
 4.082299898727366e-20 -1.465521073232943e-17  4.299923495486046e-01
 1.022288992045622e+00  4.299923495486046e-01 -3.770283794928214e-17

-2.784049194585888e-17  3.876423885225645e-20  1.021966376322564e+00
 3.876423885225645e-20 -1.467743368324814e-17  4.302925833006274e-01
 1.021966376322564e+00  4.302925833006274e-01 -3.764639321226600e-17

-2.775316117946040e-17  3.703360693728274e-20  1.021652205811606e+00
 3.703360693728274e-20 -1.469835289534277e-17  4.306448795784659e-01
 1.021652205811606e+00  4.306448795784659e-01 -3.759191316106080e-17

-2.767545586497121e-17  3.541703693660931e-20  1.022020382886089e+00
 3.541703693660931e-20 -1.473132292251045e-17  4.302812306802686e-01
 1.022020382886089e+00  4.302812306802686e-01 -3.756291213189228e-17

-2.759634613136828e-17  3.382059582200635e-20  1.022028231344857e+00
 3.382059582200635e-20 -1.475565499546670e-17  4.302703663760957e-01
 1.022028231344857e+00  4.302703663760957e-01 -3.752267099116155e-17

-2.751685593357199e-17  3.247018006853309e-20  1.021773157707609e+00
 3.247018006853309e-20 -1.477558441310107e-17  4.305475552282522e-01
 1.021773157707609e+00  4.305475552282522e-01 -3.747459188878881e-17

-2.744563478683170e-17  3.124554258181825e-20  1.022087821736128e+00
 3.124554258181825e-20 -1.480384355240623e-17  4.302771698199480e-01
 1.022087821736128e+00  4.302771698199480e-01 -3.744790726485386e-17

-2.737309647370912e-17  3.002644591167483e-20  1.022075651215568e+00
 3.002644591167483e-20 -1.482499751483099e-17  4.303450207027623e-01
 1.022075651215568e+00  4.303450207027623e-01 -3.741099463211824e-17

-2.729928114414457e-17  2.904211534862368e-20  1.021763437582375e+00
 2.904211534862368e-20 -1.484028394975116e-17  4.306845988575729e-01
 1.021763437582375e+00  4.306845988575729e-01 -3.736467520618479e-17

-2.723359486619574e-17  2.814651825596245e-20  1.022062229848740e+00
 2.814651825596245e-20 -1.486656327374764e-17  4.303557694258148e-01
 1.022062229848740e+00  4.303557694258148e-01 -3.734091695677505e-17

-2.716655514432204e-17  2.722132263388256e-20  1.022071214067864e+00
 2.722132263388256e-20 -1.488703148543344e-17  4.302819812273787e-01
 1.022071214067864e+00  4.302819812273787e-01 -3.730799901541215e-17

-2.709813291360511e-17  2.649213145290121e-20  1.021776867492459e+00
 2.649213145290121e-20 -1.490161901851562e-17  4.305175306968803e-01
 1.021776867492459e+00  4.305175306968803e-01 -3.726548505893741e-17

-2.703732303455879e-17  2.581760319764566e-20  1.022030711201896e+00
 2.581760319764566e-20 -1.492388761983610e-17  4.302348513838291e-01
 1.022030711201896e+00  4.302348513838291e-01 -3.724333135035463e-17

-2.697520578803424e-17  2.511912518444841e-20  1.021989644807576e+00
 2.511912518444841e-20 -1.494082624770254e-17  4.302794473631806e-01
 1.021989644807576e+00  4.302794473631806e-01 -3.721184047497242e-17

-2.691126977463222e-17  2.462197951110664e-20  1.021622911267564e+00
 2.462197951110664e-20 -1.495058852989036e-17  4.306328947890368e-01
 1.021622911267564e+00  4.306328947890368e-01 -3.716984394274915e-17

-2.685645843708406e-17  2.420303487516584e-20  1.021978201120400e+00
 2.420303487516584e-20 -1.497397048344229e-17  4.302271501330219e-01
 1.021978201120400e+00  4.302271501330219e-01 -3.715415091410507e-17

-2.680389346664843e-17  2.367985781844857e-20  1.022369066549402e+00
 2.367985781844857e-20 -1.499570922851677e-17  4.298842803432386e-01
 1.022369066549402e+00  4.298842803432386e-01 -3.714074950473548e-17

-2.674476776930638e-17  2.326428173985205e-20  1.021954122126907e+00
 2.326428173985205e-20 -1.499906075426691e-17  4.305124281500339e-01
 1.021954122126907e+00  4.305124281500339e-01 -3.710006079137861e-17

-2.668710091719434e-17  2.305995358300904e-20  1.021579909951116e+00
 2.305995358300904e-20 -1.500427865467126e-17  4.310203716002381e-01
 1.021579909951116e+00  4.310203716002381e-01 -3.706147192731896e-17

-2.663775704635719e-17  2.288275004097105e-20  1.021962027659032e+00
 2.288275004097105e-20 -1.502649451287798e-17  4.304936005338132e-01
 1.021962027659032e+00  4.304936005338132e-01 -3.704985377850036e-17

-2.658946658850612e-17  2.258376032668894e-20  1.022354646938605e+00
 2.258376032668894e-20 -1.504943955356586e-17  4.298808321494877e-01
 1.022354646938605e+00  4.298808321494877e-01 -3.703921398760318e-17

-2.653452101454321e-17  2.230602946804294e-20  1.021952890299334e+00
 2.230602946804294e-20 -1.505420280737499e-17  4.302249942532099e-01
 1.021952890299334e+00  4.302249942532099e-01 -3.700155844367721e-17

-2.648189708199242e-17  2.222953105706029e-20  1.021621787176521e+00
 2.222953105706029e-20 -1.505864772388366e-17  4.305930830740693e-01
 1.021621787176521e+00  4.305930830740693e-01 -3.696724109705873e-17

-2.643778160713184e-17  2.213664574687638e-20  1.021987768511865e+00
 2.213664574687638e-20 -1.507567608953297e-17  4.302381364104625e-01
 1.021987768511865e+00  4.302381364104625e-01 -3.695811698993028e-17

-2.639072999338117e-17  2.196086154616710e-20  1.021969853064905e+00
 2.196086154616710e-20 -1.508561161922047e-17  4.302550637621286e-01
 1.021969853064905e+00  4.302550637621286e-01 -3.693612395001628e-17

-2.634105765604506e-17  2.194675780269233e-20  1.021603189700845e+00
 2.194675780269233e-20 -1.508914655828140e-17  4.306007468024340e-01
 1.021603189700845e+00  4.306007468024340e-01 -3.690246999503927e-17

-2.630001036826532e-17  2.198361552679250e-20  1.021957234053060e+00
 2.198361552679250e-20 -1.510551819638232e-17  4.301922544878582e-01
 1.021957234053060e+00  4.301922544878582e-01 -3.689476806061831e-17

-2.626072630127814e-17  2.188759254274387e-20  1.022345739127923e+00
 2.188759254274387e-20 -1.512089393144822e-17  4.298495377219868e-01
 1.022345739127923e+00  4.298495377219868e-01 -3.688902609868475e-17

-2.621443840678372e-17  2.186486017434315e-20  1.021930609610178e+00
 2.186486017434315e-20 -1.511858753037424e-17  4.304762273178098e-01
 1.021930609610178e+00  4.304762273178098e-01 -3.685578225625138e-17

-2.616918448326751e-17  2.202624242929565e-20  1.021556422428135e+00
 2.202624242929565e-20 -1.511772194591039e-17  4.309822174725705e-01
 1.021556422428135e+00  4.309822174725705e-01 -3.682438629841191e-17

-2.613181888553544e-17  2.218941041734414e-20  1.021936989940443e+00
 2.218941041734414e-20 -1.513360642008439e-17  4.304552735954860e-01
 1.021936989940443e+00  4.304552735954860e-01 -3.681964735798534e-17

-2.609509803664314e-17  2.220517670651321e-20  1.022328274302920e+00
 2.220517670651321e-20 -1.515074117215495e-17  4.298423192644665e-01
 1.022328274302920e+00  4.298423192644665e-01 -3.681563619494923e-17

-2.605135239864480e-17  2.221947608671657e-20  1.021925841430663e+00
 2.221947608671657e-20 -1.515031360764340e-17  4.301846112846549e-01
 1.021925841430663e+00  4.301846112846549e-01 -3.678440252942722e-17

-2.600955301479266e-17  2.241093457516709e-20  1.021593883102671e+00
 2.241093457516709e-20 -1.514938490045434e-17  4.305492675637198e-01
 1.021593883102671e+00  4.305492675637198e-01 -3.675627059064567e-17

-2.597589658727596e-17  2.258024691015165e-20  1.021958878448092e+00
 2.258024691015165e-20 -1.516151462292009e-17  4.301878546543821e-01
 1.021958878448092e+00  4.301878546543821e-01 -3.675310654533428e-17

-2.593926794236860e-17  2.264254340416040e-20  1.021965006512880e+00
 2.264254340416040e-20 -1.516674714099115e-17  4.301769975490496e-01
 1.021965006512880e+00  4.301769975490496e-01 -3.673776524505275e-17

-2.590075137559691e-17  2.283097016757590e-20  1.021709098110903e+00
 2.283097016757590e-20 -1.516664001120514e-17  4.304524765058047e-01
 1.021709098110903e+00  4.304524765058047e-01 -3.671367234251243e-17

-2.586905334265006e-17  2.303509153664835e-20  1.022022978584034e+00
 2.303509153664835e-20 -1.517600867439754e-17  4.301796729172313e-01
 1.022022978584034e+00  4.301796729172313e-01 -3.671007364997632e-17

-2.583464814642584e-17  2.314031056458677e-20  1.022009693340437e+00
 2.314031056458677e-20 -1.517949192791976e-17  4.302451383808431e-01
 1.022009693340437e+00  4.302451383808431e-01 -3.669537394893023e-17

-2.579764181994470e-17  2.338797400563912e-20  1.021697040781249e+00
 2.338797400563912e-20 -1.517744003590953e-17  4.305819223353026e-01
 1.021697040781249e+00  4.305819223353026e-01 -3.667046236688580e-17

-2.576749008308338e-17  2.363475890171526e-20  1.021994739429372e+00
 2.363475890171526e-20 -1.518623124874058e-17  4.302512355538227e-01
 1.021994739429372e+00  4.302512355538227e-01 -3.666730341589298e-17

-2.573476450563836e-17  2.376542652048293e-20  1.022002231272725e+00
 2.376542652048293e-20 -1.519013939275599e-17  4.301762436775069e-01
 1.022002231272725e+00  4.301762436775069e-01 -3.665421627850519e-17

-2.569949748942764e-17  2.401854589034631e-20  1.021706987065450e+00
 2.401854589034631e-20 -1.518812635196265e-17  4.304099241490103e-01
 1.021706987065450e+00  4.304099241490103e-01 -3.663083233243696e-17

-2.567072948207315e-17  2.425208783069480e-20  1.021960339013347e+00
 2.425208783069480e-20 -1.519547368733299e-17  4.301248513521048e-01
 1.021960339013347e+00  4.301248513521048e-01 -3.662713111065590e-17

-2.563958044608365e-17  2.439615804723991e-20  1.021918410211826e+00
 2.439615804723991e-20 -1.519652824391641e-17  4.301675340692734e-01
 1.021918410211826e+00  4.301675340692734e-01 -3.661341784138093e-17

-2.560558597585548e-17  2.467810795464704e-20  1.021550679205498e+00
 2.467810795464704e-20 -1.519205507230744e-17  4.305194634026577e-01
 1.021550679205498e+00  4.305194634026577e-01 -3.658856036928666e-17

-2.557973521640393e-17  2.498075278235313e-20  1.021905218269960e+00
 2.498075278235313e-20 -1.520112782938440e-17  4.301121814182232e-01
 1.021905218269960e+00  4.301121814182232e-01 -3.658940756019940e-17

-2.555518664791885e-17  2.512311036070311e-20  1.022295221771736e+00
 2.512311036070311e-20 -1.520884216334568e-17  4.297679416699221e-01
 1.022295221771736e+00  4.297679416699221e-01 -3.659196075112873e-17

-2.552317183495095e-17  2.532184697323381e-20  1.021879447805281e+00
 2.532184697323381e-20 -1.520002791381946e-17  4.303946113327621e-01
 1.021879447805281e+00  4.303946113327621e-01 -3.656666934176926e-17

-2.549174960086488e-17  2.568638059977669e-20  1.021504333471900e+00
 2.568638059977669e-20 -1.519153527375030e-17  4.309009504621397e-01
 1.021504333471900e+00  4.309009504621397e-01 -3.654294424379679e-17

-2.546781319334699e-17  2.603520591237158e-20  1.021885366855815e+00
 2.603520591237158e-20 -1.520149434110945e-17  4.303727383009462e-01
 1.021885366855815e+00  4.303727383009462e-01 -3.654566948697730e-17

-2.544412653639592e-17  2.622343575595336e-20  1.022277213108117e+00
 2.622343575595336e-20 -1.521196274637913e-17  4.297582166079225e-01
 1.022277213108117e+00  4.297582166079225e-01 -3.654888553640309e-17

-2.541301520651369e-17  2.638852335090629e-20  1.021873878114891e+00
 2.638852335090629e-20 -1.520490637593524e-17  4.301006003885436e-01
 1.021873878114891e+00  4.301006003885436e-01 -3.652459266610940e-17

-2.538347816551010e-17  2.671822204584506e-20  1.021540857973428e+00
 2.671822204584506e-20 -1.519802901311174e-17  4.304655170026383e-01
 1.021540857973428e+00  4.304655170026383e-01 -3.650317008140960e-17

-2.536174371095502e-17  2.701296202636653e-20  1.021906438644531e+00
 2.701296202636653e-20 -1.520398753713290e-17  4.301025676946551e-01
 1.021906438644531e+00  4.301025676946551e-01 -3.650655512777178e-17

-2.533668896645041e-17  2.718785667059455e-20  1.021912725348493e+00
 2.718785667059455e-20 -1.520334331352458e-17  4.300906511769605e-01
 1.021912725348493e+00  4.300906511769605e-01 -3.649753867905693e-17

-2.530940131667063e-17  2.747533806546693e-20  1.021655610095367e+00
 2.747533806546693e-20 -1.519756494445311e-17  4.303666273360774e-01
 1.021655610095367e+00  4.303666273360774e-01 -3.647952143006519e-17

-2.528862499991363e-17  2.777040560662577e-20  1.021969376936860e+00
 2.777040560662577e-20 -1.520224903345146e-17  4.300932541863662e-01
 1.021969376936860e+00  4.300932541863662e-01 -3.648184323488653e-17

-2.526484017307794e-17  2.795702273113551e-20  1.021956580898539e+00
 2.795702273113551e-20 -1.519990148453610e-17  4.301575072312941e-01
 1.021956580898539e+00  4.301575072312941e-01 -3.647289849308330e-17

-2.523814353952356e-17  2.827238709918250e-20  1.021643075209620e+00
 2.827238709918250e-20 -1.519284080927565e-17  4.304944659411239e-01
 1.021643075209620e+00  4.304944659411239e-01 -3.645351485046963e-17

-2.521801979328225e-17  2.858261937907831e-20  1.021940292862933e+00
 2.858261937907831e-20 -1.519712735503251e-17  4.301635715724364e-01
 1.021940292862933e+00  4.301635715724364e-01 -3.645572396341161e-17

-2.519505832462048e-17  2.876663559675075e-20  1.021948434529894e+00
 2.876663559675075e-20 -1.519603931459530e-17  4.300872228718231e-01
 1.021948434529894e+00  4.300872228718231e-01 -3.644787778506936e-17

-2.516927984030802e-17  2.906552509784488e-20  1.021652888659787e+00
 2.906552509784488e-20 -1.518960168265596e-17  4.303206793879864e-01
 1.021652888659787e+00  4.303206793879864e-01 -3.642954068834635e-17

-2.514973722783821e-17  2.933864391356369e-20  1.021905269047031e+00
 2.933864391356369e-20 -1.519172855173089e-17  4.300361945178084e-01
 1.021905269047031e+00  4.300361945178084e-01 -3.643070804256411e-17

-2.512757611738410e-17  2.951606595422223e-20  1.021863408801944e+00
 2.951606595422223e-20 -1.518914652330717e-17  4.300782595296567e-01
 1.021863408801944e+00  4.300782595296567e-01 -3.642175014335964e-17

-2.510233288956139e-17  2.982067220594094e-20  1.021496046127377e+00
 2.982067220594094e-20 -1.518048546416616e-17  4.304291180049609e-01
 1.021496046127377e+00  4.304291180049609e-01 -3.640151413434958e-17

-2.508499558069897e-17  3.014282843691238e-20  1.021850232490673e+00
 3.014282843691238e-20 -1.518491032885760e-17  4.300216277736891e-01
 1.021850232490673e+00  4.300216277736891e-01 -3.640681874674408e-17

-2.506873839575991e-17  3.030026697972298e-20  1.022239909392619e+00
 3.030026697972298e-20 -1.518964694072665e-17  4.296773669121459e-01
 1.022239909392619e+00  4.296773669121459e-01 -3.641369641587833e-17

-2.504480107731726e-17  3.050874253776151e-20  1.021823981117149e+00
 3.050874253776151e-20 -1.517590696784606e-17  4.303038732701522e-01
 1.021823981117149e+00  4.303038732701522e-01 -3.639260586929188e-17

-2.502124537497098e-17  3.087674644727822e-20  1.021448482031951e+00
 3.087674644727822e-20 -1.516515300314073e-17  4.308101368325303e-01
 1.021448482031951e+00  4.308101368325303e-01 -3.637294843917706e-17

-2.500498069147206e-17  3.122550938759476e-20  1.021829711709615e+00
 3.122550938759476e-20 -1.517027775609900e-17  4.302811737956327e-01
 1.021829711709615e+00  4.302811737956327e-01 -3.637964140019718e-17

-2.498877429468669e-17  3.141160048258302e-20  1.022221968818779e+00
 3.141160048258302e-20 -1.517732632283504e-17  4.296658430964312e-01
 1.022221968818779e+00  4.296658430964312e-01 -3.638671659710513e-17

-2.496494322036932e-17  3.156893749126129e-20  1.021817863626127e+00
 3.156893749126129e-20 -1.516742408883378e-17  4.300088168367405e-01
 1.021817863626127e+00  4.300088168367405e-01 -3.636612892591898e-17

-2.494250552019209e-17  3.188815030223842e-20  1.021484174093929e+00
 3.188815030223842e-20 -1.515740851731963e-17  4.303741447416361e-01
 1.021484174093929e+00  4.303741447416361e-01 -3.634830632677236e-17

-2.492770885452187e-17  3.216889426711457e-20  1.021850474905986e+00
 3.216889426711457e-20 -1.515982068173946e-17  4.300099839844739e-01
 1.021850474905986e+00  4.300099839844739e-01 -3.635523519438462e-17

-2.490941767621761e-17  3.232675611174083e-20  1.021857068496195e+00
 3.232675611174083e-20 -1.515627188028543e-17  4.299973231831998e-01
 1.021857068496195e+00  4.299973231831998e-01 -3.634964664450863e-17

-2.488871798542125e-17  3.259400134599072e-20  1.021599124411801e+00
 3.259400134599072e-20 -1.514779625030384e-17  4.302739645511038e-01
 1.021599124411801e+00  4.302739645511038e-01 -3.633491966407320e-17

-2.487437549320910e-17  3.286713863993613e-20  1.021912504315297e+00
 3.286713863993613e-20 -1.514960908885683e-17  4.300008364054584e-01
 1.021912504315297e+00  4.300008364054584e-01 -3.634045277783719e-17

-2.485687740246965e-17  3.302902849922745e-20  1.021900049658476e+00
 3.302902849922745e-20 -1.514417883717578e-17  4.300643660851379e-01
 1.021900049658476e+00  4.300643660851379e-01 -3.633465305086299e-17

-2.483631721887960e-17  3.331568191399011e-20  1.021586778803454e+00
 3.331568191399011e-20 -1.513438610493683e-17  4.304006720819338e-01
 1.021586778803454e+00  4.304006720819338e-01 -3.631832208093463e-17

-2.482218162586559e-17  3.359718093396255e-20  1.021883743634808e+00
 3.359718093396255e-20 -1.513659589507453e-17  4.300698475624967e-01
 1.021883743634808e+00  4.300698475624967e-01 -3.632348166897923e-17

-2.480506734775058e-17  3.375185139262807e-20  1.021891469659691e+00
 3.375185139262807e-20 -1.513269987267972e-17  4.299938579808735e-01
 1.021891469659691e+00  4.299938579808735e-01 -3.631849765120775e-17

-2.478500457913660e-17  3.401695849053159e-20  1.021595906603975e+00
 3.401695849053159e-20 -1.512403736890212e-17  4.302271687121967e-01
 1.021595906603975e+00  4.302271687121967e-01 -3.630295646883114e-17

-2.477104830993041e-17  3.425706146839898e-20  1.021848445071961e+00
 3.425706146839898e-20 -1.512429228978470e-17  4.299422213335914e-01
 1.021848445071961e+00  4.299422213335914e-01 -3.630684837879921e-17

-2.475434567822183e-17  3.439828271340913e-20  1.021806654351932e+00
 3.439828271340913e-20 -1.511980558860989e-17  4.299839301566634e-01
 1.021806654351932e+00  4.299839301566634e-01 -3.630053693301039e-17

-2.473443749545303e-17  3.466775433739884e-20  1.021439265846374e+00
 3.466775433739884e-20 -1.510767433260486e-17  4.303347097787621e-01
 1.021439265846374e+00  4.303347097787621e-01 -3.628287168325218e-17

-2.472231310453577e-17  3.495267445189153e-20  1.021793084351058e+00
 3.495267445189153e-20 -1.511082777094907e-17  4.299275997400948e-01
 1.021793084351058e+00  4.299275997400948e-01 -3.629066516712922e-17

-2.471115301670468e-17  3.507202926786014e-20  1.022182411547557e+00
 3.507202926786014e-20 -1.511302309255137e-17  4.295835374404491e-01
 1.022182411547557e+00  4.295835374404491e-01 -3.629996412144786e-17

-2.469220738573387e-17  3.523775995498548e-20  1.021766858887900e+00
 3.523775995498548e-20 -1.509801827171720e-17  4.302092798388660e-01
 1.021766858887900e+00  4.302092798388660e-01 -3.628125401068105e-17

-2.467353665820806e-17  3.556458929095485e-20  1.021391857001576e+00
 3.556458929095485e-20 -1.508481713553230e-17  4.307147731802383e-01
 1.021391857001576e+00  4.307147731802383e-01 -3.626391782496980e-17

-2.466204189267374e-17  3.587264992933449e-20  1.021772496760828e+00
 3.587264992933449e-20 -1.508825382384503e-17  4.301864633903427e-01
 1.021772496760828e+00  4.301864633903427e-01 -3.627283291887329e-17

-2.465050217260911e-17  3.601659813417493e-20  1.022164029618593e+00
 3.601659813417493e-20 -1.509374303662954e-17  4.295719252631498e-01
 1.022164029618593e+00  4.295719252631498e-01 -3.628206588660661e-17

-2.463125230518160e-17  3.613255248579241e-20  1.021760587867949e+00
 3.613255248579241e-20 -1.508167068464283e-17  4.299140224240828e-01
 1.021760587867949e+00  4.299140224240828e-01 -3.626362630616129e-17

-2.461329936480614e-17  3.640730319237706e-20  1.021427524965582e+00
 3.640730319237706e-20 -1.506988054739864e-17  4.302785067278934e-01
 1.021427524965582e+00  4.302785067278934e-01 -3.624789438318668e-17

-2.460288089939504e-17  3.664413803512913e-20  1.021793075742650e+00
 3.664413803512913e-20 -1.507108779890487e-17  4.299151419319844e-01
 1.021793075742650e+00  4.299151419319844e-01 -3.625681167988187e-17

-2.458888023268961e-17  3.675897133766867e-20  1.021799178725941e+00
 3.675897133766867e-20 -1.506633594278366e-17  4.299030214833874e-01
 1.021799178725941e+00  4.299030214833874e-01 -3.625316796323248e-17

-2.457239344664188e-17  3.698309668052125e-20  1.021541782545905e+00
 3.698309668052125e-20 -1.505650065320138e-17  4.301789132630157e-01
 1.021541782545905e+00  4.301789132630157e-01 -3.624037090189032e-17

-2.456217627815613e-17  3.721036113215404e-20  1.021855469240082e+00
 3.721036113215404e-20 -1.505626612847947e-17  4.299052423583593e-01
 1.021855469240082e+00  4.299052423583593e-01 -3.624777607598659e-17

-2.454871550635498e-17  3.732666830783511e-20  1.021842743571933e+00
 3.732666830783511e-20 -1.505103174259574e-17  4.299690437828079e-01
 1.021842743571933e+00  4.299690437828079e-01 -3.624378038442446e-17

-2.453211236288467e-17  3.756885067167296e-20  1.021529153287216e+00
 3.756885067167296e-20 -1.503872126747566e-17  4.303058067475379e-01
 1.021529153287216e+00  4.303058067475379e-01 -3.622920541230690e-17

-2.452185866539830e-17  3.780346437147433e-20  1.021826072451821e+00
 3.780346437147433e-20 -1.503947588953512e-17  4.299750432454128e-01
 1.021826072451821e+00  4.299750432454128e-01 -3.623608557406933e-17

-2.450855245243536e-17  3.791531550808921e-20  1.021833984960710e+00
 3.791531550808921e-20 -1.503529537851999e-17  4.298986776377142e-01
 1.021833984960710e+00  4.298986776377142e-01 -3.623278624388617e-17

-2.449222374109740e-17  3.813469719627470e-20  1.021538570991283e+00
 3.813469719627470e-20 -1.502518388546882e-17  4.301316192313697e-01
 1.021538570991283e+00  4.301316192313697e-01 -3.621888592566417e-17

-2.448193119504814e-17  3.832859356225955e-20  1.021791261259269e+00
 3.832859356225955e-20 -1.502471294908879e-17  4.298465294660787e-01
 1.021791261259269e+00  4.298465294660787e-01 -3.622437813979782e-17

-2.446882038971591e-17  3.842455617184489e-20  1.021749304412370e+00
 3.842455617184489e-20 -1.501821753739542e-17  4.298886631372453e-01
 1.021749304412370e+00  4.298886631372453e-01 -3.621961619768496e-17

-2.445243144117677e-17  3.864683939775957e-20  1.021381289718365e+00
 3.864683939775957e-20 -1.500614129994749e-17  4.302402498871993e-01
 1.021381289718365e+00  4.302402498871993e-01 -3.620344532915108e-17

-2.444376708038099e-17  3.888823091001843e-20  1.021735169391772e+00
 3.888823091001843e-20 -1.500768718598461e-17  4.298328732876321e-01
 1.021735169391772e+00  4.298328732876321e-01 -3.621271943578617e-17

-2.443601226732055e-17  3.896303231666544e-20  1.022125447618414e+00
 3.896303231666544e-20 -1.500944407289759e-17  4.294874731679720e-01
 1.022125447618414e+00  4.294874731679720e-01 -3.622349360994649e-17

-2.442040327992030e-17  3.908366559158936e-20  1.021710103638224e+00
 3.908366559158936e-20 -1.499333715719839e-17  4.301129998134985e-01
 1.021710103638224e+00  4.301129998134985e-01 -3.620619751446637e-17

-2.440499776419133e-17  3.936380560340148e-20  1.021334089636133e+00
 3.936380560340148e-20 -1.497889832675957e-17  4.306199490230703e-01
 1.021334089636133e+00  4.306199490230703e-01 -3.619019875765144e-17

-2.439671441425775e-17  3.962844455643835e-20  1.021714179623644e+00
 3.962844455643835e-20 -1.498243415310349e-17  4.300924651435988e-01
 1.021714179623644e+00  4.300924651435988e-01 -3.620043418599927e-17

-2.438834351374968e-17  3.973006127794485e-20  1.022106636891349e+00
 3.973006127794485e-20 -1.498670520899283e-17  4.294767175428099e-01
 1.022106636891349e+00  4.294767175428099e-01 -3.621100641843448e-17

-2.437220534119423e-17  3.980090394451980e-20  1.021703993866031e+00
 3.980090394451980e-20 -1.497435494539451e-17  4.298177054624343e-01
 1.021703993866031e+00  4.298177054624343e-01 -3.619386994057570e-17

-2.435729444292221e-17  4.003204995040113e-20  1.021370095784130e+00
 4.003204995040113e-20 -1.496234085178787e-17  4.301831752474493e-01
 1.021370095784130e+00  4.301831752474493e-01 -3.617935390117917e-17

-2.434986791029546e-17  4.022558982491605e-20  1.021734963759146e+00
 4.022558982491605e-20 -1.496272140655507e-17  4.298207459363647e-01
 1.021734963759146e+00  4.298207459363647e-01 -3.618946270800590e-17

-2.433882498302859e-17  4.029685765061166e-20  1.021741958323472e+00
 4.029685765061166e-20 -1.495699717327442e-17  4.298077586575331e-01
 1.021741958323472e+00  4.298077586575331e-01 -3.618703711297600e-17

-2.432524029239756e-17  4.047523424508819e-20  1.021484917272512e+00
 4.047523424508819e-20 -1.494617830226640e-17  4.300833307967279e-01
 1.021484917272512e+00  4.300833307967279e-01 -3.617541118360829e-17

-2.431786336762158e-17  4.066218802326875e-20  1.021797620807475e+00
 4.066218802326875e-20 -1.494650968676999e-17  4.298107579155732e-01
 1.021797620807475e+00  4.298107579155732e-01 -3.618391365942452e-17

-2.430720696574612e-17  4.073356582262641e-20  1.021784998458925e+00
 4.073356582262641e-20 -1.493964628694554e-17  4.298744011742256e-01
 1.021784998458925e+00  4.298744011742256e-01 -3.618102653760271e-17

-2.429337115729397e-17  4.093308070797687e-20  1.021472345972383e+00
 4.093308070797687e-20 -1.492782292489769e-17  4.302100790624361e-01
 1.021472345972383e+00  4.302100790624361e-01 -3.616756382833702e-17

-2.428582843009776e-17  4.112761560195474e-20  1.021768987030451e+00
 4.112761560195474e-20 -1.492810614612714e-17  4.298797199938018e-01
 1.021768987030451e+00  4.298797199938018e-01 -3.617548906372163e-17

-2.427518886499870e-17  4.119696627479467e-20  1.021776369838682e+00
 4.119696627479467e-20 -1.492300796316325e-17  4.298041590178225e-01
 1.021776369838682e+00  4.298041590178225e-01 -3.617320215678241e-17

-2.426149304288983e-17  4.137573095225753e-20  1.021481267609243e+00
 4.137573095225753e-20 -1.491285930718730e-17  4.300370239702195e-01
 1.021481267609243e+00  4.300370239702195e-01 -3.616032000441510e-17

-2.425378897435844e-17  4.153154790762522e-20  1.021733978752400e+00
 4.153154790762522e-20 -1.491149390131957e-17  4.297519756239384e-01
 1.021733978752400e+00  4.297519756239384e-01 -3.616679784426495e-17

-2.424322369263582e-17  4.158339631721960e-20  1.021691856637813e+00
 4.158339631721960e-20 -1.490555027993866e-17  4.297941489494659e-01
 1.021691856637813e+00  4.297941489494659e-01 -3.616299184323622e-17

-2.422934708392584e-17  4.176812428138311e-20  1.021324176357830e+00
 4.176812428138311e-20 -1.489276474093001e-17  4.301452136719685e-01
 1.021324176357830e+00  4.301452136719685e-01 -3.614777233135516e-17

-2.422315851855122e-17  4.196869037357164e-20  1.021678395141282e+00
 4.196869037357164e-20 -1.489495935034613e-17  4.297375563813617e-01
 1.021678395141282e+00  4.297375563813617e-01 -3.615797807042957e-17

-2.421783670014670e-17  4.200565181651860e-20  1.022068337154769e+00
 4.200565181651860e-20 -1.489563269488631e-17  4.293929365758252e-01
 1.022068337154769e+00  4.293929365758252e-01 -3.616964037459831e-17

-2.420462121205643e-17  4.208562106293283e-20  1.021652351194256e+00
 4.208562106293283e-20 -1.487941087780836e-17  4.300194537023633e-01
 1.021652351194256e+00  4.300194537023633e-01 -3.615320127084550e-17

-2.419158382963896e-17  4.232562434402978e-20  1.021276709701075e+00
 4.232562434402978e-20 -1.486473610714184e-17  4.305259938059852e-01
 1.021276709701075e+00  4.305259938059852e-01 -3.613807554269015e-17

-2.418564046894164e-17  4.255367826883823e-20  1.021657723099415e+00
 4.255367826883823e-20 -1.486841024773373e-17  4.299973942762479e-01
 1.021657723099415e+00  4.299973942762479e-01 -3.614918466134923e-17

-2.417956221263597e-17  4.261693828106434e-20  1.022049696413253e+00
 4.261693828106434e-20 -1.487310719888585e-17  4.293821905871302e-01
 1.022049696413253e+00  4.293821905871302e-01 -3.616056305265168e-17

-2.416568279453608e-17  4.265127815685905e-20  1.021646373372832e+00
 4.265127815685905e-20 -1.486046742351163e-17  4.297240993678720e-01
 1.021646373372832e+00  4.297240993678720e-01 -3.614420848941160e-17

-2.415301512261424e-17  4.284324862730437e-20  1.021313303027244e+00
 4.284324862730437e-20 -1.484709742474380e-17  4.300888689177057e-01
 1.021313303027244e+00  4.300888689177057e-01 -3.613050970597031e-17

-2.414779479678911e-17  4.300169069677394e-20  1.021678319814878e+00
 4.300169069677394e-20 -1.484774559338517e-17  4.297264626434005e-01
 1.021678319814878e+00  4.297264626434005e-01 -3.614139570550554e-17

-2.413891720451114e-17  4.303829708598964e-20  1.021684478474446e+00
 4.303829708598964e-20 -1.484239077510594e-17  4.297145511219589e-01
 1.021684478474446e+00  4.297145511219589e-01 -3.613969634551351e-17

-2.412748174506171e-17  4.318035603106970e-20  1.021427892508593e+00
 4.318035603106970e-20 -1.483314293710586e-17  4.299897414293234e-01
 1.021427892508593e+00  4.299897414293234e-01 -3.612882573724939e-17

-2.412222819489476e-17  4.332991301039812e-20  1.021741268877196e+00
 4.332991301039812e-20 -1.483250519332934e-17  4.297164931335761e-01
 1.021741268877196e+00  4.297164931335761e-01 -3.613807555386344e-17

-2.411365533643853e-17  4.336807932648878e-20  1.021728115853779e+00
 4.336807932648878e-20 -1.482482542545476e-17  4.297808249401070e-01
 1.021728115853779e+00  4.297808249401070e-01 -3.613587878693210e-17

-2.410188034709999e-17  4.353435332943992e-20  1.021415271967250e+00
 4.353435332943992e-20 -1.481415294183476e-17  4.301169332824816e-01
 1.021415271967250e+00  4.301169332824816e-01 -3.612310396427461e-17

-2.409637798201532e-17  4.369368837583298e-20  1.021712269492052e+00
 4.369368837583298e-20 -1.481436049303007e-17  4.297863598630365e-01
 1.021712269492052e+00  4.297863598630365e-01 -3.613172231362638e-17

-2.408774738945146e-17  4.372922710166342e-20  1.021719560625301e+00
 4.372922710166342e-20 -1.480989386945510e-17  4.297110379811266e-01
 1.021719560625301e+00  4.297110379811266e-01 -3.613009887835456e-17

-2.407603714569301e-17  4.387359898780721e-20  1.021424498259672e+00
 4.387359898780721e-20 -1.479990821269890e-17  4.299439648593438e-01
 1.021424498259672e+00  4.299439648593438e-01 -3.611787119109504e-17

-2.407029626623595e-17  4.399610893370951e-20  1.021677396913857e+00
 4.399610893370951e-20 -1.479855128537979e-17  4.296587891889197e-01
 1.021677396913857e+00  4.296587891889197e-01 -3.612499517743186e-17

-2.406166767634229e-17  4.401643675919754e-20  1.021635141649357e+00
 4.401643675919754e-20 -1.479204261908500e-17  4.297012537100014e-01
 1.021635141649357e+00  4.297012537100014e-01 -3.612181194938623e-17

-2.404970894685216e-17  4.416789174052621e-20  1.021267738032026e+00
 4.416789174052621e-20 -1.478072453454492e-17  4.300523605779885e-01
 1.021267738032026e+00  4.300523605779885e-01 -3.610721785428223e-17

-2.404541314310621e-17  4.433663024337419e-20  1.021621950911241e+00
 4.433663024337419e-20 -1.478231100964179e-17  4.296451236376527e-01
 1.021621950911241e+00  4.296451236376527e-01 -3.611802682454282e-17

-2.404195505621322e-17  4.433959631260711e-20  1.022011278193135e+00
 4.433959631260711e-20 -1.478352103375420e-17  4.293013094537609e-01
 1.022011278193135e+00  4.293013094537609e-01 -3.613025870279139e-17

-2.403059130923433e-17  4.438870160670559e-20  1.021595687332920e+00
 4.438870160670559e-20 -1.476766010482276e-17  4.299273436613469e-01
 1.021595687332920e+00  4.299273436613469e-01 -3.611441283853405e-17

-2.401938901539973e-17  4.459730485231335e-20  1.021220841853218e+00
 4.459730485231335e-20 -1.475359369439833e-17  4.304329947341671e-01
 1.021220841853218e+00  4.304329947341671e-01 -3.609988332032160e-17

-2.401525024061749e-17  4.479450126144651e-20  1.021601540768580e+00
 4.479450126144651e-20 -1.475688198888410e-17  4.299050407200538e-01
 1.021601540768580e+00  4.299050407200538e-01 -3.611153991576683e-17

-2.401095520027937e-17  4.482999801025548e-20  1.021992969358738e+00
 4.482999801025548e-20 -1.476182939796964e-17  4.292910002565937e-01
 1.021992969358738e+00  4.292910002565937e-01 -3.612344772318024e-17

-2.399884490840642e-17  4.483337142409439e-20  1.021589694160462e+00
 4.483337142409439e-20 -1.474883762451556e-17  4.296331907116910e-01
 1.021589694160462e+00  4.296331907116910e-01 -3.610763225424360e-17

-2.398793145268296e-17  4.499731975109149e-20  1.021257156711365e+00
 4.499731975109149e-20 -1.473721078309824e-17  4.299974794124732e-01
 1.021257156711365e+00  4.299974794124732e-01 -3.609447941006970e-17

-2.398444518921346e-17  4.512501116181683e-20  1.021622554053668e+00
 4.512501116181683e-20 -1.473838736591936e-17  4.296348302063717e-01
 1.021622554053668e+00  4.296348302063717e-01 -3.610589660857965e-17

-2.397727239374243e-17  4.513149634831767e-20  1.021627988968586e+00
 4.513149634831767e-20 -1.473324498828576e-17  4.296238835206966e-01
 1.021627988968586e+00  4.296238835206966e-01 -3.610468001139347e-17

-2.396752789453251e-17  4.524539174712383e-20  1.021371047293012e+00
 4.524539174712383e-20 -1.472282690891987e-17  4.298995490305167e-01
 1.021371047293012e+00  4.298995490305167e-01 -3.609429590533365e-17

-2.396396526314737e-17  4.536673630008013e-20  1.021685709077283e+00
 4.536673630008013e-20 -1.472357489377779e-17  4.296251412938059e-01
 1.021685709077283e+00  4.296251412938059e-01 -3.610408113982655e-17

-2.395705761526694e-17  4.537657991140011e-20  1.021672821265386e+00
 4.537657991140011e-20 -1.471784901061130e-17  4.296896800603165e-01
 1.021672821265386e+00  4.296896800603165e-01 -3.610237600742054e-17

-2.394691496149987e-17  4.551537696428850e-20  1.021358649848590e+00
 4.551537696428850e-20 -1.470566335712250e-17  4.300279364835918e-01
 1.021358649848590e+00  4.300279364835918e-01 -3.609002833323391e-17

-2.394304112074470e-17  4.564793071340493e-20  1.021655568753782e+00
 4.564793071340493e-20 -1.470659229900403e-17  4.296979120625384e-01
 1.021655568753782e+00  4.296979120625384e-01 -3.609910954545813e-17

-2.393603465144787e-17  4.565449148495565e-20  1.021664033910302e+00
 4.565449148495565e-20 -1.470229353837208e-17  4.296213299029113e-01
 1.021664033910302e+00  4.296213299029113e-01 -3.609798410722473e-17

-2.392592394361222e-17  4.577450986874722e-20  1.021369252248236e+00
 4.577450986874722e-20 -1.469306944189875e-17  4.298539097126337e-01
 1.021369252248236e+00  4.298539097126337e-01 -3.608621472855002e-17

-2.392176093960350e-17  4.586852750045687e-20  1.021621617248632e+00
 4.586852750045687e-20 -1.469277237383889e-17  4.295697112000574e-01
 1.021621617248632e+00  4.295697112000574e-01 -3.609376195302204e-17

-2.391469663383845e-17  4.586525923619292e-20  1.021578860928467e+00
 4.586525923619292e-20 -1.468612350648837e-17  4.296133327343586e-01
 1.021578860928467e+00  4.296133327343586e-01 -3.609099612749849e-17

-2.390429145941615e-17  4.599032005432142e-20  1.021211390696061e+00
 4.599032005432142e-20 -1.467479603043742e-17  4.299648107747640e-01
 1.021211390696061e+00  4.299648107747640e-01 -3.607682695500342e-17

-2.390155095489554e-17  4.613398368841509e-20  1.021567006164131e+00
 4.613398368841509e-20 -1.467746922560608e-17  4.295563682687450e-01
 1.021567006164131e+00  4.295563682687450e-01 -3.608810565195739e-17

-2.389963106482328e-17  4.611355437947656e-20  1.021957221501541e+00
 4.611355437947656e-20 -1.467974525267607e-17  4.292124808561862e-01
 1.021957221501541e+00  4.292124808561862e-01 -3.610078325260606e-17

-2.388976128110398e-17  4.613364011099202e-20  1.021539499967230e+00
 4.613364011099202e-20 -1.466423202850063e-17  4.298419162983812e-01
 1.021539499967230e+00  4.298419162983812e-01 -3.608527072768756e-17

-2.388005117564319e-17  4.631646014872056e-20  1.021163844137438e+00
 4.631646014872056e-20 -1.464946562156061e-17  4.303489737883500e-01
 1.021163844137438e+00  4.303489737883500e-01 -3.607111308792266e-17

-2.387741928199897e-17  4.649438683444207e-20  1.021546566654375e+00
 4.649438683444207e-20 -1.465426601047170e-17  4.298185246788079e-01
 1.021546566654375e+00  4.298185246788079e-01 -3.608323414934697e-17

-2.387460211337341e-17  4.650370208958655e-20  1.021938453605999e+00
 4.650370208958655e-20 -1.465946210504347e-17  4.292035646723638e-01
 1.021938453605999e+00  4.292035646723638e-01 -3.609554541521472e-17

-2.386395207649338e-17  4.648202230920778e-20  1.021534765513713e+00
 4.648202230920778e-20 -1.464786523351842e-17  4.295468041842497e-01
 1.021534765513713e+00  4.295468041842497e-01 -3.608009870615857e-17

-2.385449102394484e-17  4.662248622576565e-20  1.021201929592398e+00
 4.662248622576565e-20 -1.463732429677408e-17  4.299129765834606e-01
 1.021201929592398e+00  4.299129765834606e-01 -3.606731395019542e-17

-2.385243943251184e-17  4.672961463593880e-20  1.021566425767223e+00
 4.672961463593880e-20 -1.463913037174585e-17  4.295526496037577e-01
 1.021566425767223e+00  4.295526496037577e-01 -3.607907219382264e-17

-2.384671092011638e-17  4.671489727749841e-20  1.021573074353847e+00
 4.671489727749841e-20 -1.463409000415197e-17  4.295411986001424e-01
 1.021573074353847e+00  4.295411986001424e-01 -3.607826507340452e-17

-2.383840042500636e-17  4.680382377911541e-20  1.021317568119223e+00
 4.680382377911541e-20 -1.462455503800185e-17  4.298159391015572e-01
 1.021317568119223e+00  4.298159391015572e-01 -3.606829234784233e-17

-2.383623193924576e-17  4.690173501815908e-20  1.021630850632190e+00
 4.690173501815908e-20 -1.462474557837568e-17  4.295436448089597e-01
 1.021630850632190e+00  4.295436448089597e-01 -3.607838579965475e-17

-2.383071603876766e-17  4.688894686687714e-20  1.021617509337745e+00
 4.688894686687714e-20 -1.461921068769459e-17  4.296094246110915e-01
 1.021617509337745e+00  4.296094246110915e-01 -3.607701572600793e-17

-2.382197459679694e-17  4.700627406750093e-20  1.021304748077042e+00
 4.700627406750093e-20 -1.460957665466118e-17  4.299468481152421e-01
 1.021304748077042e+00  4.299468481152421e-01 -3.606506382634489e-17

-2.381948361662713e-17  4.711704569218231e-20  1.021601964327894e+00
 4.711704569218231e-20 -1.461075696774015e-17  4.296173533818945e-01
 1.021601964327894e+00  4.296173533818945e-01 -3.607449947055726e-17

-2.381383920114678e-17  4.710508724320351e-20  1.021609737772584e+00
 4.710508724320351e-20 -1.460799460538694e-17  4.295429595635269e-01
 1.021609737772584e+00  4.295429595635269e-01 -3.607368771633605e-17

-2.380508505357340e-17  4.719953215757880e-20  1.021314585203909e+00
 4.719953215757880e-20 -1.459842316644510e-17  4.297775233691699e-01
 1.021314585203909e+00  4.297775233691699e-01 -3.606224088964882e-17

-2.380228246124373e-17  4.727801140197503e-20  1.021567889939379e+00
 4.727801140197503e-20 -1.459836588313705e-17  4.294937044376577e-01
 1.021567889939379e+00  4.294937044376577e-01 -3.607015199263990e-17

-2.379656160150799e-17  4.724969999146422e-20  1.021525396231847e+00
 4.724969999146422e-20 -1.459306506551127e-17  4.295381295075891e-01
 1.021525396231847e+00  4.295381295075891e-01 -3.606772251440192e-17

-2.378740940707619e-17  4.735780225824776e-20  1.021151304664644e+00
 4.735780225824776e-20 -1.458244678862122e-17  4.298951317264106e-01
 1.021151304664644e+00  4.298951317264106e-01 -3.605364081444051e-17

-2.378599184044062e-17  4.748576313229253e-20  1.021508278256122e+00
 4.748576313229253e-20 -1.458598315614464e-17  4.294810242431274e-01
 1.021508278256122e+00  4.294810242431274e-01 -3.606528185353149e-17

-2.378587615820809e-17  4.744546890923478e-20  1.021942289893156e+00
 4.744546890923478e-20 -1.458984468983103e-17  4.290997086287890e-01
 1.021942289893156e+00  4.290997086287890e-01 -3.607982972373111e-17

-2.377745277460647e-17  4.743473264525913e-20  1.021529250444282e+00
 4.743473264525913e-20 -1.457453707023094e-17  4.297548520024111e-01
 1.021529250444282e+00  4.297548520024111e-01 -3.606483584798729e-17

-2.376772577483241e-17  4.759945224294632e-20  1.021026320305240e+00
 4.759945224294632e-20 -1.455935362611395e-17  4.304062256877894e-01
 1.021026320305240e+00  4.304062256877894e-01 -3.604652584773727e-17

-2.376608460939394e-17  4.779124892625924e-20  1.021397412593382e+00
 4.779124892625924e-20 -1.456369304917347e-17  4.298416397930451e-01
 1.021397412593382e+00  4.298416397930451e-01 -3.605847180730632e-17

-2.376674541197602e-17  4.778774992957357e-20  1.022016487011706e+00
 4.778774992957357e-20 -1.457580362691605e-17  4.289416947657937e-01
 1.022016487011706e+00  4.289416947657937e-01 -3.607899745027887e-17

-2.375743648224422e-17  4.769232533117315e-20  1.021610648671418e+00
 4.769232533117315e-20 -1.456496984895170e-17  4.293152757903675e-01
 1.021610648671418e+00  4.293152757903675e-01 -3.606382002159017e-17

-2.374673791230738e-17  4.782095584012635e-20  1.021012961557154e+00
 4.782095584012635e-20 -1.454730330036343e-17  4.300341185935194e-01
 1.021012961557154e+00  4.300341185935194e-01 -3.604214369743147e-17

-2.374632049615566e-17  4.796701488213585e-20  1.021404746000351e+00
 4.796701488213585e-20 -1.455071435319117e-17  4.296743063215553e-01
 1.021404746000351e+00  4.296743063215553e-01 -3.605520178554343e-17

-2.374389667826580e-17  4.792832959970842e-20  1.021623660641135e+00
 4.792832959970842e-20 -1.455166521171993e-17  4.293987081165890e-01
 1.021623660641135e+00  4.293987081165890e-01 -3.606208640179320e-17

-2.373634621702579e-17  4.796978936371561e-20  1.021338021898608e+00
 4.796978936371561e-20 -1.454223628353456e-17  4.296655129694464e-01
 1.021338021898608e+00  4.296655129694464e-01 -3.605128206350227e-17

-2.373414864007058e-17  4.806689083374751e-20  1.021530845283507e+00
 4.806689083374751e-20 -1.454219175943666e-17  4.295277399091474e-01
 1.021530845283507e+00  4.295277399091474e-01 -3.605744381890166e-17

-2.373012580141924e-17  4.805451778534628e-20  1.021545628980497e+00
 4.805451778534628e-20 -1.453713565059994e-17  4.295889086866467e-01
 1.021545628980497e+00  4.295889086866467e-01 -3.605729651286756e-17

-2.372331251870860e-17  4.815295010009270e-20  1.021300038529915e+00
 4.815295010009270e-20 -1.452985628169018e-17  4.298700801816281e-01
 1.021300038529915e+00  4.298700801816281e-01 -3.604798159761796e-17

-2.372199810849558e-17  4.823027547937363e-20  1.021549093522713e+00
 4.823027547937363e-20 -1.453021263695599e-17  4.295925610241303e-01
 1.021549093522713e+00  4.295925610241303e-01 -3.605650168601494e-17

-2.371646686299485e-17  4.845834457443884e-20  1.021444495302855e+00
 4.845834457443884e-20 -1.452492336386216e-17  4.296419347419664e-01
 1.021444495302855e+00  4.296419347419664e-01 -3.605213740662136e-17

-2.370999040268297e-17  4.832370156375741e-20  1.021258627618218e+00
 4.832370156375741e-20 -1.452133246483645e-17  4.297096778562921e-01
 1.021258627618218e+00  4.297096778562921e-01 -3.604477406653454e-17

-2.371193257236200e-17  4.857121929040376e-20  1.021957231490995e+00
 4.857121929040376e-20 -1.453231260716151e-17  4.290861170489160e-01
 1.021957231490995e+00  4.290861170489160e-01 -3.606725337125474e-17

-2.370616726104916e-17  4.811547841050256e-20  1.021724960968990e+00
 4.811547841050256e-20 -1.452238965169591e-17  4.294836375641395e-01
 1.021724960968990e+00  4.294836375641395e-01 -3.605858702340208e-17

-2.369550346417966e-17  4.778791946665873e-20  1.020902626127939e+00
 4.778791946665873e-20 -1.450335434589996e-17  4.302943316690545e-01
 1.020902626127939e+00  4.302943316690545e-01 -3.603079946187238e-17

-2.369971806137167e-17  4.934440713904590e-20  1.021807146186491e+00
 4.934440713904590e-20 -1.452245196546863e-17  4.291854989090541e-01
 1.021807146186491e+00  4.291854989090541e-01 -3.606198141201784e-17

-2.372220251061303e-17  4.804973684963334e-20  1.024157575764066e+00
 4.804973684963334e-20 -1.455919095601055e-17  4.273323762252636e-01
 1.024157575764066e+00  4.273323762252636e-01 -3.614514125363034e-17

-2.382188643690422e-17  3.686436474353807e-20  1.033036981771231e+00
 3.686436474353807e-20 -1.464356292667577e-17  4.235212701655950e-01
 1.033036981771231e+00  4.235212701655950e-01 -3.646820357056940e-17

-2.368215653471278e-17  2.920743489102438e-20  1.018927250931009e+00
 2.920743489102438e-20 -1.426468423654781e-17  4.449849419512041e-01
 1.018927250931009e+00  4.449849419512041e-01 -3.598949288852877e-17

-2.298057581184910e-17  1.077796664662309e-20  9.562088782853281e-01
 1.077796664662309e-20 -1.334670423101086e-17  4.944255880533032e-01
 9.562088782853281e-01  4.944255880533032e-01 -3.380310715551982e-17

-2.343299367327498e-17  3.175251971263703e-20  1.010564517311948e+00
 3.175251971263703e-20 -1.487568889364521e-17  4.043394737158411e-01
 1.010564517311948e+00  4.043394737158411e-01 -3.565043831398358e-17

-2.505672116269111e-17 -6.365747942648150e-20  1.156539187052859e+00
-6.365747942648150e-20 -1.748963920325621e-17  2.679113397095618e-01
 1.156539187052859e+00  2.679113397095618e-01 -4.084543066120890e-17

-2.388599809841935e-17  1.636556395346583e-20  1.032314059264172e+00
 1.636556395346583e-20 -1.428162147522173e-17  4.525179196656383e-01
 1.032314059264172e+00  4.525179196656383e-01 -3.652505741366191e-17

-2.190174704889459e-17  6.020195354477942e-22  8.287288474982497e-01
 6.020195354477942e-22 -1.022305471535723e-17  6.905758018472493e-01
 8.287288474982497e-01  6.905758018472493e-01 -2.972367118833382e-17

-2.373882304282095e-17  4.614975892631958e-20  1.027935559747424e+00
 4.614975892631958e-20 -1.444862012196307e-17  4.363624792798366e-01
 1.027935559747424e+00  4.363624792798366e-01 -3.628945035932797e-17

-2.544049480306285e-17  1.449210307196002e-19  1.210303398045712e+00
 1.449210307196002e-19 -1.843174498530155e-17  1.934364862263440e-01
 1.210303398045712e+00  1.934364862263440e-01 -4.225661785899336e-17

-2.281351012937934e-17  7.608823324662319e-20  9.610900582407755e-01
 7.608823324662319e-20 -1.405296732163018e-17  4.438940683034486e-01
 9.610900582407755e-01  4.438940683034486e-01 -3.378884316380106e-17

-2.282216984351442e-17  7.720592756617297e-20  9.464189580354975e-01
 7.720592756617297e-20 -1.323397696482470e-17  4.989521809353080e-01
 9.464189580354975e-01  4.989521809353080e-01 -3.337886469912771e-17

-2.538945352412577e-17 -4.435576617165535e-20  1.168937915648054e+00
-4.435576617165535e-20 -1.661116245418149e-17  3.277621245779216e-01
 1.168937915648054e+00  3.277621245779216e-01 -4.137485434125655e-17

-2.254971393662416e-17 -6.555868971728768e-20  8.959527816055004e-01
-6.555868971728768e-20 -1.164908629536710e-17  6.116532768233192e-01
 8.959527816055004e-01  6.116532768233192e-01 -3.205258065700456e-17

-2.190836240938449e-17 -1.636613128287429e-19  8.494927973329888e-01
-1.636613128287429e-19 -1.174079119910980e-17  6.036513177021486e-01
 8.494927973329888e-01  6.036513177021486e-01 -3.055518922010409e-17

-2.609622488825046e-17  5.641980972998064e-20  1.274887643008495e+00
 5.641980972998064e-20 -1.987341314371672e-17  1.193669043729116e-01
 1.274887643008495e+00  1.193669043729116e-01 -4.430182972601278e-17

-2.526321132856181e-17 -1.593547459117379e-19  1.174592478161629e+00
-1.593547459117379e-19 -1.765847804058377e-17  2.679678897822507e-01
 1.174592478161629e+00  2.679678897822507e-01 -4.135289862372953e-17

-2.096505499281045e-17  1.983225892736785e-19  7.452717295584572e-01
 1.983225892736785e-19 -8.657545529232685e-18  7.721390574107716e-01
 7.452717295584572e-01  7.721390574107716e-01 -2.711616988739546e-17

-2.263518518687460e-17 -3.439927362889015e-20  9.053588716245371e-01
-3.439927362889015e-20 -1.169807751362550e-17  6.061285183415414e-01
 9.053588716245371e-01  6.061285183415414e-01 -3.245553386632053e-17

-2.589739002422317e-17  3.631277479218598e-19  1.264455527162910e+00
 3.631277479218598e-19 -1.910968518705354e-17  1.400393301106488e-01
 1.264455527162910e+00  1.400393301106488e-01 -4.356060030638232e-17

-2.375310960671626e-17  9.326120172177448e-20  1.060433657170134e+00
 9.326120172177448e-20 -1.629343037240371e-17  3.142686394496729e-01
 1.060433657170134e+00  3.142686394496729e-01 -3.711804030101177e-17

-2.329519020755447e-17  1.141072443191081e-19  9.918095235401144e-01
 1.141072443191081e-19 -1.389599514841939e-17  4.587814532189592e-01
 9.918095235401144e-01  4.587814532189592e-01 -3.492408166555415e-17

-2.335123732027264e-17  8.352931751958940e-20  9.751311326071133e-01
 8.352931751958940e-20 -1.271716949014000e-17  5.398896821577202e-01
 9.751311326071133e-01  5.398896821577202e-01 -3.451327567553090e-17

-2.292323447906399e-17 -8.271033436417126e-21  9.356594815455913e-01
-8.271033436417126e-21 -1.245858948747818e-17  5.615444226775328e-01
 9.356594815455913e-01  5.615444226775328e-01 -3.328723050489386e-17

-2.501430106713478e-17  1.122383873907498e-19  1.156254647457956e+00
 1.122383873907498e-19 -1.694089225979534e-17  2.914311797192163e-01
 1.156254647457956e+00  2.914311797192163e-01 -4.065509037056548e-17

-2.429626172855047e-17  4.272658835330486e-20  1.092181046992042e+00
 4.272658835330486e-20 -1.589058940655560e-17  3.494829554592798e-01
 1.092181046992042e+00  3.494829554592798e-01 -3.849094630881723e-17

-2.152274088649370e-17 -4.870749650404207e-21  8.270201124866569e-01
-4.870749650404207e-21 -1.111147730780571e-17  6.169868821176990e-01
 8.270201124866569e-01  6.169868821176990e-01 -2.936414462780875e-17

-2.333969698179468e-17  2.921616505392621e-20  1.013564617223843e+00
 2.921616505392621e-20 -1.491684353044602e-17  3.964476354440559e-01
 1.013564617223843e+00  3.964476354440559e-01 -3.570962345258242e-17

-2.536383060992788e-17 -9.026411140865019e-20  1.198872272740747e+00
-9.026411140865019e-20 -1.852992129031317e-17  2.054608116968291e-01
 1.198872272740747e+00  2.054608116968291e-01 -4.221277381197290e-17

-2.367428511877799e-17  6.622277702634624e-20  1.023234826920642e+00
 6.622277702634624e-20 -1.440917538060342e-17  4.401002034729133e-01
 1.023234826920642e+00  4.401002034729133e-01 -3.613681855517509e-17

-2.292042452332965e-17  1.380974313023952e-19  9.224822884485627e-01
 1.380974313023952e-19 -1.137699287550079e-17  6.217476501669388e-01
 9.224822884485627e-01  6.217476501669388e-01 -3.279199103468651e-17

-2.328636012944640e-17 -4.719867397534906e-20  9.559223681894518e-01
-4.719867397534906e-20 -1.239708332231137e-17  5.757442096746879e-01
 9.559223681894518e-01  5.757442096746879e-01 -3.419299309217603e-17

-2.407928714863129e-17  1.439653592235621e-19  1.075593141084128e+00
 1.439653592235621e-19 -1.577297001735166e-17  3.511127401765328e-01
 1.075593141084128e+00  3.511127401765328e-01 -3.774770726601530e-17

-2.495223989116643e-17  9.376627496848432e-20  1.172433488850241e+00
 9.376627496848432e-20 -1.813675538560389e-17  2.099670409799453e-01
 1.172433488850241e+00  2.099670409799453e-01 -4.102747650771122e-17

-2.330207008918180e-17  6.476091746669698e-20  1.006537666284703e+00
 6.476091746669698e-20 -1.460568740347693e-17  4.147986963536479e-01
 1.006537666284703e+00  4.147986963536479e-01 -3.544125396799719e-17

-2.237120413293765e-17  1.405937431964534e-19  9.002166013471510e-01
 1.405937431964534e-19 -1.176640419311257e-17  5.782075427991145e-01
 9.002166013471510e-01  5.782075427991145e-01 -3.175925204026250e-17

-2.376105752051818e-17  8.841562918147044e-20  1.028482120533553e+00
 8.841562918147044e-20 -1.408166209276115e-17  4.549198691147089e-01
 1.028482120533553e+00  4.549198691147089e-01 -3.631204833888396e-17

-2.422845514521918e-17  8.799711330353724e-20  1.081249454330263e+00
 8.799711330353724e-20 -1.550422617606916e-17  3.705391155112275e-01
 1.081249454330263e+00  3.705391155112275e-01 -3.810214891075133e-17

-2.356901434650995e-17  5.763558620551081e-20  1.022398585531441e+00
 5.763558620551081e-20 -1.462660111305375e-17  4.175556272173107e-01
 1.022398585531441e+00  4.175556272173107e-01 -3.604486715389670e-17

-2.344589101403178e-17  5.415306743933800e-20  1.009435885022542e+00
 5.415306743933800e-20 -1.426975196255799e-17  4.375724121471263e-01
 1.009435885022542e+00  4.375724121471263e-01 -3.560564835261791e-17

-2.355670913048852e-17  5.490869390072175e-20  1.019633544272432e+00
 5.490869390072175e-20 -1.438481514426086e-17  4.321272226910948e-01
 1.019633544272432e+00  4.321272226910948e-01 -3.597082755246985e-17

-2.357191619542760e-17  5.629712458462142e-20  1.020803906081483e+00
 5.629712458462142e-20 -1.439812322272203e-17  4.314814037274320e-01
 1.020803906081483e+00  4.314814037274320e-01 -3.601425375856826e-17

-2.357704674603827e-17  4.993354772066469e-20  1.020785286639715e+00
 4.993354772066469e-20 -1.439495513349437e-17  4.313142951301726e-01
 1.020785286639715e+00  4.313142951301726e-01 -3.601376351601836e-17

-2.358369630054709e-17  4.999697522229315e-20  1.021696347016555e+00
 4.999697522229315e-20 -1.441178252643692e-17  4.302497147898683e-01
 1.021696347016555e+00  4.302497147898683e-01 -3.604390110121804e-17

-2.358230617128779e-17  4.168676092007524e-20  1.022390137486152e+00
 4.168676092007524e-20 -1.442278514269893e-17  4.301291265069193e-01
 1.022390137486152e+00  4.301291265069193e-01 -3.606537210494499e-17

-2.355156207678816e-17  4.321892252756676e-20  1.019618331611045e+00
 4.321892252756676e-20 -1.436089106897108e-17  4.334403354124833e-01
 1.019618331611045e+00  4.334403354124833e-01 -3.596890003619938e-17

-2.341448309396168e-17  4.317112646114442e-20  1.007191047059593e+00
 4.317112646114442e-20 -1.419829567122795e-17  4.418910838768030e-01
 1.007191047059593e+00  4.418910838768030e-01 -3.553065740599177e-17

-2.340984939567353e-17  3.847686626459779e-20  1.009241582279657e+00
 3.847686626459779e-20 -1.444275876167226e-17  4.285392691702505e-01
 1.009241582279657e+00  4.285392691702505e-01 -3.560199124529435e-17

-2.419595220070913e-17  1.506119263672757e-20  1.079024844109309e+00
 1.506119263672757e-20 -1.567945772347975e-17  3.646560874987568e-01
 1.079024844109309e+00  3.646560874987568e-01 -3.811178551004568e-17

-2.438176760931820e-17 -2.742238109697665e-20  1.084072104924828e+00
-2.742238109697665e-20 -1.514296296830429e-17  4.035467569312750e-01
 1.084072104924828e+00  4.035467569312750e-01 -3.837760775969622e-17

-2.234736315809565e-17 -7.340978923010793e-20  8.826363730529498e-01
-7.340978923010793e-20 -1.125358144876542e-17  6.282021795404173e-01
 8.826363730529498e-01  6.282021795404173e-01 -3.155149622773591e-17

-2.235830037683073e-17 -1.030532230533169e-19  9.052506431868527e-01
-1.030532230533169e-19 -1.256597177782193e-17  5.452304557661510e-01
 9.052506431868527e-01  5.452304557661510e-01 -3.229158676914835e-17

-2.501529767847116e-17  8.749565595581980e-20  1.188221103663546e+00
 8.749565595581980e-20 -1.855083896193974e-17  1.833219765882862e-01
 1.188221103663546e+00  1.833219765882862e-01 -4.141454889025287e-17

-2.519670884476229e-17 -2.225975303256131e-19  1.182619734509452e+00
-2.225975303256131e-19 -1.820100875998616e-17  2.319465570762906e-01
 1.182619734509452e+00  2.319465570762906e-01 -4.163976755654768e-17

-2.216846403903905e-17  2.678085336602827e-19  8.763127723859183e-01
 2.678085336602827e-19 -1.085014886788833e-17  6.338290008144805e-01
 8.763127723859183e-01  6.338290008144805e-01 -3.109246220191660e-17

-2.203373150270653e-17 -4.451751288404699e-22  8.397311878827833e-01
-4.451751288404699e-22 -9.996129746727444e-18  7.096945009379343e-01
 8.397311878827833e-01  7.096945009379343e-01 -3.033044983349661e-17

-2.494385834308047e-17  2.541974051709654e-19  1.157840323309486e+00
 2.541974051709654e-19 -1.647947911844576e-17  3.049017108443461e-01
 1.157840323309486e+00  3.049017108443461e-01 -4.035706955475181e-17

-2.447748372962213e-17  1.724386093143487e-19  1.134980512548672e+00
 1.724386093143487e-19 -1.715530458682042e-17  2.563809339685140e-01
 1.134980512548672e+00  2.563809339685140e-01 -3.956405549953104e-17

-2.244123150993350e-17  6.546993651321701e-20  9.377333140745161e-01
 6.546993651321701e-20 -1.367066296287533e-17  4.572860139352247e-01
 9.377333140745161e-01  4.572860139352247e-01 -3.291404117001181e-17

-2.298105721280164e-17  3.232235078168322e-20  9.766295901367421e-01
 3.232235078168322e-20 -1.410316691430149e-17  4.453899907209487e-01
 9.766295901367421e-01  4.453899907209487e-01 -3.442267993622079e-17

-2.499865138216261e-17 -1.019100600294649e-19  1.145424390919298e+00
-1.019100600294649e-19 -1.670125416523145e-17  3.232843651270816e-01
 1.145424390919298e+00  3.232843651270816e-01 -4.056360642656856e-17

-2.430536325264499e-17 -3.918083816358771e-20  1.057910733079575e+00
-3.918083816358771e-20 -1.405308280325821e-17  4.818085166054079e-01
 1.057910733079575e+00  4.818085166054079e-01 -3.760707481575607e-17

-2.189436056135240e-17 -2.412319354288207e-19  8.104141699083316e-01
-2.412319354288207e-19 -9.688772269564560e-18  7.496132486948256e-01
 8.104141699083316e-01  7.496132486948256e-01 -2.974744792960416e-17

-2.260580685830751e-17 -1.864580860639832e-19  9.248227887540771e-01
-1.864580860639832e-19 -1.312319315130849e-17  5.241804859852797e-01
 9.248227887540771e-01  5.241804859852797e-01 -3.315055043883161e-17

-2.511703689277047e-17  1.304358941816833e-19  1.216833313452675e+00
 1.304358941816833e-19 -1.966664095474575e-17  1.090131782480201e-01
 1.216833313452675e+00  1.090131782480201e-01 -4.172401307511799e-17

-2.550933604773128e-17 -5.551867097845050e-19  1.210782120364647e+00
-5.551867097845050e-19 -1.956983929526646e-17  1.755002379873760e-01
 1.210782120364647e+00  1.755002379873760e-01 -4.234440091856148e-17

-2.374471963433729e-17  3.051593751894891e-19  1.003698266097252e+00
 3.051593751894891e-19 -1.286895641528476e-17  5.412606011355424e-01
 1.003698266097252e+00  5.412606011355424e-01 -3.580158543104349e-17


CELL_DATA 3096
SCALARS dislocation_index int
LOOKUP_TABLE default
0
1
2
3
4
5
6
7
8
9
10
11
12
13
14
15
16
17
18
19
20
21
22
23
24
25
26
27
28
29
30
31
32
33
34
35
36
37
38
39
40
41
42
43
44
45
46
47
48
49
50
51
52
53
54
55
56
57
58
59
60
61
62
63
64
65
66
67
68
69
70
71
72
73
74
75
76
77
78
79
80
81
82
83
84
85
86
87
88
89
90
91
92
93
94
95
96
97
98
99
100
101
102
103
104
105
106
107
108
109
110
111
112
113
114
115
116
117
118
119
120
121
122
123
124
125
126
127
128
129
130
131
132
133
134
135
136
137
138
139
140
141
142
143
144
145
146
147
148
149
150
151
152
153
154
155
156
157
158
159
160
161
162
163
164
165
166
167
168
169
170
171
172
173
174
175
176
177
178
179
180
181
182
183
184
185
186
187
188
189
190
191
192
193
194
195
196
197
198
199
200
201
202
203
204
205
206
207
208
209
210
211
212
213
214
215
216
217
218
219
220
221
222
223
224
225
226
227
228
229
230
231
232
233
234
235
236
237
238
239
240
241
242
243
244
245
246
247
248
249
250
251
252
253
254
255
256
257
258
259
260
261
262
263
264
265
266
267
268
269
270
271
272
273
274
275
276
277
278
279
280
281
282
283
284
285
286
287
288
289
290
291
292
293
294
295
296
297
298
299
300
301
302
303
304
305
306
307
308
309
310
311
312
313
314
315
316
317
318
319
320
321
322
323
324
325
326
327
328
329
330
331
332
333
334
335
336
337
338
339
340
341
342
343
344
345
346
347
348
349
350
351
352
353
354
355
356
357
358
359
360
361
362
363
364
365
366
367
368
369
370
371
372
373
374
375
376
377
378
379
380
381
382
383
384
385
386
387
388
389
390
391
392
393
394
395
396
397
398
399
400
401
402
403
404
405
406
407
408
409
410
411
412
413
414
415
416
417
418
419
420
421
422
423
424
425
426
427
428
429
430
431
432
433
434
435
436
437
438
439
440
441
442
443
444
445
446
447
448
449
450
451
452
453
454
455
456
457
458
459
460
461
462
463
464
465
466
467
468
469
470
471
472
473
474
475
476
477
478
479
480
481
482
483
484
485
486
487
488
489
490
491
492
493
494
495
496
497
498
499
500
501
502
503
504
505
506
507
508
509
510
511
512
513
514
515
516
517
518
519
520
521
522
523
524
525
526
527
528
529
530
531
532
533
534
535
536
537
538
539
540
541
542
543
544
545
546
547
548
549
550
551
552
553
554
555
556
557
558
559
560
561
562
563
564
565
566
567
568
569
570
571
572
573
574
575
576
577
578
579
580
581
582
583
584
585
586
587
588
589
590
591
592
593
594
595
596
597
598
599
600
601
602
603
604
605
606
607
608
609
610
611
612
613
614
615
616
617
618
619
620
621
622
623
624
625
626
627
628
629
630
631
632
633
634
635
636
637
638
639
640
641
642
643
644
645
646
647
648
649
650
651
652
653
654
655
656
657
658
659
660
661
662
663
664
665
666
667
668
669
670
671
672
673
674
675
676
677
678
679
680
681
682
683
684
685
686
687
688
689
690
691
692
693
694
695
696
697
698
699
700
701
702
703
704
705
706
707
708
709
710
711
712
713
714
715
716
717
718
719
720
721
722
723
724
725
726
727
728
729
730
731
732
733
734
735
736
737
738
739
740
741
742
743
744
745
746
747
748
749
750
751
752
753
754
755
756
757
758
759
760
761
762
763
764
765
766
767
768
769
770
771
772
773
774
775
776
777
778
779
780
781
782
783
784
785
786
787
788
789
790
791
792
793
794
795
796
797
798
799
800
801
802
803
804
805
806
807
808
809
810
811
812
813
814
815
816
817
818
819
820
821
822
823
824
825
826
827
828
829
830
831
832
833
834
835
836
837
838
839
840
841
842
843
844
845
846
847
848
849
850
851
852
853
854
855
856
857
858
859
860
861
862
863
864
865
866
867
868
869
870
871
872
873
874
875
876
877
878
879
880
881
882
883
884
885
886
887
888
889
890
891
892
893
894
895
896
897
898
899
900
901
902
903
904
905
906
907
908
909
910
911
912
913
914
915
916
917
918
919
920
921
922
923
924
925
926
927
928
929
930
931
932
933
934
935
936
937
938
939
940
941
942
943
944
945
946
947
948
949
950
951
952
953
954
955
956
957
958
959
960
961
962
963
964
965
966
967
968
969
970
971
972
973
974
975
976
977
978
979
980
981
982
983
984
985
986
987
988
989
990
991
992
993
994
995
996
997
998
999
1000
1001
1002
1003
1004
1005
1006
1007
1008
1009
1010
1011
1012
1013
1014
1015
1016
1017
1018
1019
1020
1021
1022
1023
1024
1025
1026
1027
1028
1029
1030
1031
1032
1033
1034
1035
1036
1037
1038
1039
1040
1041
1042
1043
1044
1045
1046
1047
1048
1049
1050
1051
1052
1053
1054
1055
1056
1057
1058
1059
1060
1061
1062
1063
1064
1065
1066
1067
1068
1069
1070
1071
1072
1073
1074
1075
1076
1077
1078
1079
1080
1081
1082
1083
1084
1085
1086
1087
1088
1089
1090
1091
1092
1093
1094
1095
1096
1097
1098
1099
1100
1101
1102
1103
1104
1105
1106
1107
1108
1109
1110
1111
1112
1113
1114
1115
1116
1117
1118
1119
1120
1121
1122
1123
1124
1125
1126
1127
1128
1129
1130
1131
1132
1133
1134
1135
1136
1137
1138
1139
1140
1141
1142
1143
1144
1145
1146
1147
1148
1149
1150
1151
1152
1153
1154
1155
1156
1157
1158
1159
1160
1161
1162
1163
1164
1165
1166
1167
1168
1169
1170
1171
1172
1173
1174
1175
1176
1177
1178
1179
1180
1181
1182
1183
1184
1185
1186
1187
1188
1189
1190
1191
1192
1193
1194
1195
1196
1197
1198
1199
1200
1201
1202
1203
1204
1205
1206
1207
1208
1209
1210
1211
1212
1213
1214
1215
1216
1217
1218
1219
1220
1221
1222
1223
1224
1225
1226
1227
1228
1229
1230
1231
1232
1233
1234
1235
1236
1237
1238
1239
1240
1241
1242
1243
1244
1245
1246
1247
1248
1249
1250
1251
1252
1253
1254
1255
1256
1257
1258
1259
1260
1261
1262
1263
1264
1265
1266
1267
1268
1269
1270
1271
1272
1273
1274
1275
1276
1277
1278
1279
1280
1281
1282
1283
1284
1285
1286
1287
1288
1289
1290
1291
1292
1293
1294
1295
1296
1297
1298
1299
1300
1301
1302
1303
1304
1305
1306
1307
1308
1309
1310
1311
1312
1313
1314
1315
1316
1317
1318
1319
1320
1321
1322
1323
1324
1325
1326
1327
1328
1329
1330
1331
1332
1333
1334
1335
1336
1337
1338
1339
1340
1341
1342
1343
1344
1345
1346
1347
1348
1349
1350
1351
1352
1353
1354
1355
1356
1357
1358
1359
1360
1361
1362
1363
1364
1365
1366
1367
1368
1369
1370
1371
1372
1373
1374
1375
1376
1377
1378
1379
1380
1381
1382
1383
1384
1385
1386
1387
1388
1389
1390
1391
1392
1393
1394
1395
1396
1397
1398
1399
1400
1401
1402
1403
1404
1405
1406
1407
1408
1409
1410
1411
1412
1413
1414
1415
1416
1417
1418
1419
1420
1421
1422
1423
1424
1425
1426
1427
1428
1429
1430
1431
1432
1433
1434
1435
1436
1437
1438
1439
1440
1441
1442
1443
1444
1445
1446
1447
1448
1449
1450
1451
1452
1453
1454
1455
1456
1457
1458
1459
1460
1461
1462
1463
1464
1465
1466
1467
1468
1469
1470
1471
1472
1473
1474
1475
1476
1477
1478
1479
1480
1481
1482
1483
1484
1485
1486
1487
1488
1489
1490
1491
1492
1493
1494
1495
1496
1497
1498
1499
1500
1501
1502
1503
1504
1505
1506
1507
1508
1509
1510
1511
1512
1513
1514
1515
1516
1517
1518
1519
1520
1521
1522
1523
1524
1525
1526
1527
1528
1529
1530
1531
1532
1533
1534
1535
1536
1537
1538
1539
1540
1541
1542
1543
1544
1545
1546
1547
1548
1549
1550
1551
1552
1553
1554
1555
1556
1557
1558
1559
1560
1561
1562
1563
1564
1565
1566
1567
1568
1569
1570
1571
1572
1573
1574
1575
1576
1577
1578
1579
1580
1581
1582
1583
1584
1585
1586
1587
1588
1589
1590
1591
1592
1593
1594
1595
1596
1597
1598
1599
1600
1601
1602
1603
1604
1605
1606
1607
1608
1609
1610
1611
1612
1613
1614
1615
1616
1617
1618
1619
1620
1621
1622
1623
1624
1625
1626
1627
1628
1629
1630
1631
1632
1633
1634
1635
1636
1637
1638
1639
1640
1641
1642
1643
1644
1645
1646
1647
1648
1649
1650
1651
1652
1653
1654
1655
1656
1657
1658
1659
1660
1661
1662
1663
1664
1665
1666
1667
1668
1669
1670
1671
1672
1673
1674
1675
1676
1677
1678
1679
1680
1681
1682
1683
1684
1685
1686
1687
1688
1689
1690
1691
1692
1693
1694
1695
1696
1697
1698
1699
1700
1701
1702
1703
1704
1705
1706
1707
1708
1709
1710
1711
1712
1713
1714
1715
1716
1717
1718
1719
1720
1721
1722
1723
1724
1725
1726
1727
1728
1729
1730
1731
1732
1733
1734
1735
1736
1737
1738
1739
1740
1741
1742
1743
1744
1745
1746
1747
1748
1749
1750
1751
1752
1753
1754
1755
1756
1757
1758
1759
1760
1761
1762
1763
1764
1765
1766
1767
1768
1769
1770
1771
1772
1773
1774
1775
1776
1777
1778
1779
1780
1781
1782
1783
1784
1785
1786
1787
1788
1789
1790
1791
1792
1793
1794
1795
1796
1797
1798
1799
1800
1801
1802
1803
1804
1805
1806
1807
1808
1809
1810
1811
1812
1813
1814
1815
1816
1817
1818
1819
1820
1821
1822
1823
1824
1825
1826
1827
1828
1829
1830
1831
1832
1833
1834
1835
1836
1837
1838
1839
1840
1841
1842
1843
1844
1845
1846
1847
1848
1849
1850
1851
1852
1853
1854
1855
1856
1857
1858
1859
1860
1861
1862
1863
1864
1865
1866
1867
1868
1869
1870
1871
1872
1873
1874
1875
1876
1877
1878
1879
1880
1881
1882
1883
1884
1885
1886
1887
1888
1889
1890
1891
1892
1893
1894
1895
1896
1897
1898
1899
1900
1901
1902
1903
1904
1905
1906
1907
1908
1909
1910
1911
1912
1913
1914
1915
1916
1917
1918
1919
1920
1921
1922
1923
1924
1925
1926
1927
1928
1929
1930
1931
1932
1933
1934
1935
1936
1937
1938
1939
1940
1941
1942
1943
1944
1945
1946
1947
1948
1949
1950
1951
1952
1953
1954
1955
1956
1957
1958
1959
1960
1961
1962
1963
1964
1965
1966
1967
1968
1969
1970
1971
1972
1973
1974
1975
1976
1977
1978
1979
1980
1981
1982
1983
1984
1985
1986
1987
1988
1989
1990
1991
1992
1993
1994
1995
1996
1997
1998
1999
2000
2001
2002
2003
2004
2005
2006
2007
2008
2009
2010
2011
2012
2013
2014
2015
2016
2017
2018
2019
2020
2021
2022
2023
2024
2025
2026
2027
2028
2029
2030
2031
2032
2033
2034
2035
2036
2037
2038
2039
2040
2041
2042
2043
2044
2045
2046
2047
2048
2049
2050
2051
2052
2053
2054
2055
2056
2057
2058
2059
2060
2061
2062
2063
2064
2065
2066
2067
2068
2069
2070
2071
2072
2073
2074
2075
2076
2077
2078
2079
2080
2081
2082
2083
2084
2085
2086
2087
2088
2089
2090
2091
2092
2093
2094
2095
2096
2097
2098
2099
2100
2101
2102
2103
2104
2105
2106
2107
2108
2109
2110
2111
2112
2113
2114
2115
2116
2117
2118
2119
2120
2121
2122
2123
2124
2125
2126
2127
2128
2129
2130
2131
2132
2133
2134
2135
2136
2137
2138
2139
2140
2141
2142
2143
2144
2145
2146
2147
2148
2149
2150
2151
2152
2153
2154
2155
2156
2157
2158
2159
2160
2161
2162
2163
2164
2165
2166
2167
2168
2169
2170
2171
2172
2173
2174
2175
2176
2177
2178
2179
2180
2181
2182
2183
2184
2185
2186
2187
2188
2189
2190
2191
2192
2193
2194
2195
2196
2197
2198
2199
2200
2201
2202
2203
2204
2205
2206
2207
2208
2209
2210
2211
2212
2213
2214
2215
2216
2217
2218
2219
2220
2221
2222
2223
2224
2225
2226
2227
2228
2229
2230
2231
2232
2233
2234
2235
2236
2237
2238
2239
2240
2241
2242
2243
2244
2245
2246
2247
2248
2249
2250
2251
2252
2253
2254
2255
2256
2257
2258
2259
2260
2261
2262
2263
2264
2265
2266
2267
2268
2269
2270
2271
2272
2273
2274
2275
2276
2277
2278
2279
2280
2281
2282
2283
2284
2285
2286
2287
2288
2289
2290
2291
2292
2293
2294
2295
2296
2297
2298
2299
2300
2301
2302
2303
2304
2305
2306
2307
2308
2309
2310
2311
2312
2313
2314
2315
2316
2317
2318
2319
2320
2321
2322
2323
2324
2325
2326
2327
2328
2329
2330
2331
2332
2333
2334
2335
2336
2337
2338
2339
2340
2341
2342
2343
2344
2345
2346
2347
2348
2349
2350
2351
2352
2353
2354
2355
2356
2357
2358
2359
2360
2361
2362
2363
2364
2365
2366
2367
2368
2369
2370
2371
2372
2373
2374
2375
2376
2377
2378
2379
2380
2381
2382
2383
2384
2385
2386
2387
2388
2389
2390
2391
2392
2393
2394
2395
2396
2397
2398
2399
2400
2401
2402
2403
2404
2405
2406
2407
2408
2409
2410
2411
2412
2413
2414
2415
2416
2417
2418
2419
2420
2421
2422
2423
2424
2425
2426
2427
2428
2429
2430
2431
2432
2433
2434
2435
2436
2437
2438
2439
2440
2441
2442
2443
2444
2445
2446
2447
2448
2449
2450
2451
2452
2453
2454
2455
2456
2457
2458
2459
2460
2461
2462
2463
2464
2465
2466
2467
2468
2469
2470
2471
2472
2473
2474
2475
2476
2477
2478
2479
2480
2481
2482
2483
2484
2485
2486
2487
2488
2489
2490
2491
2492
2493
2494
2495
2496
2497
2498
2499
2500
2501
2502
2503
2504
2505
2506
2507
2508
2509
2510
2511
2512
2513
2514
2515
2516
2517
2518
2519
2520
2521
2522
2523
2524
2525
2526
2527
2528
2529
2530
2531
2532
2533
2534
2535
2536
2537
2538
2539
2540
2541
2542
2543
2544
2545
2546
2547
2548
2549
2550
2551
2552
2553
2554
2555
2556
2557
2558
2559
2560
2561
2562
2563
2564
2565
2566
2567
2568
2569
2570
2571
2572
2573
2574
2575
2576
2577
2578
2579
2580
2581
2582
2583
2584
2585
2586
2587
2588
2589
2590
2591
2592
2593
2594
2595
2596
2597
2598
2599
2600
2601
2602
2603
2604
2605
2606
2607
2608
2609
2610
2611
2612
2613
2614
2615
2616
2617
2618
2619
2620
2621
2622
2623
2624
2625
2626
2627
2628
2629
2630
2631
2632
2633
2634
2635
2636
2637
2638
2639
2640
2641
2642
2643
2644
2645
2646
2647
2648
2649
2650
2651
2652
2653
2654
2655
2656
2657
2658
2659
2660
2661
2662
2663
2664
2665
2666
2667
2668
2669
2670
2671
2672
2673
2674
2675
2676
2677
2678
2679
2680
2681
2682
2683
2684
2685
2686
2687
2688
2689
2690
2691
2692
2693
2694
2695
2696
2697
2698
2699
2700
2701
2702
2703
2704
2705
2706
2707
2708
2709
2710
2711
2712
2713
2714
2715
2716
2717
2718
2719
2720
2721
2722
2723
2724
2725
2726
2727
2728
2729
2730
2731
2732
2733
2734
2735
2736
2737
2738
2739
2740
2741
2742
2743
2744
2745
2746
2747
2748
2749
2750
2751
2752
2753
2754
2755
2756
2757
2758
2759
2760
2761
2762
2763
2764
2765
2766
2767
2768
2769
2770
2771
2772
2773
2774
2775
2776
2777
2778
2779
2780
2781
2782
2783
2784
2785
2786
2787
2788
2789
2790
2791
2792
2793
2794
2795
2796
2797
2798
2799
2800
2801
2802
2803
2804
2805
2806
2807
2808
2809
2810
2811
2812
2813
2814
2815
2816
2817
2818
2819
2820
2821
2822
2823
2824
2825
2826
2827
2828
2829
2830
2831
2832
2833
2834
2835
2836
2837
2838
2839
2840
2841
2842
2843
2844
2845
2846
2847
2848
2849
2850
2851
2852
2853
2854
2855
2856
2857
2858
2859
2860
2861
2862
2863
2864
2865
2866
2867
2868
2869
2870
2871
2872
2873
2874
2875
2876
2877
2878
2879
2880
2881
2882
2883
2884
2885
2886
2887
2888
2889
2890
2891
2892
2893
2894
2895
2896
2897
2898
2899
2900
2901
2902
2903
2904
2905
2906
2907
2908
2909
2910
2911
2912
2913
2914
2915
2916
2917
2918
2919
2920
2921
2922
2923
2924
2925
2926
2927
2928
2929
2930
2931
2932
2933
2934
2935
2936
2937
2938
2939
2940
2941
2942
2943
2944
2945
2946
2947
2948
2949
2950
2951
2952
2953
2954
2955
2956
2957
2958
2959
2960
2961
2962
2963
2964
2965
2966
2967
2968
2969
2970
2971
2972
2973
2974
2975
2976
2977
2978
2979
2980
2981
2982
2983
2984
2985
2986
2987
2988
2989
2990
2991
2992
2993
2994
2995
2996
2997
2998
2999
3000
3001
3002
3003
3004
3005
3006
3007
3008
3009
3010
3011
3012
3013
3014
3015
3016
3017
3018
3019
3020
3021
3022
3023
3024
3025
3026
3027
3028
3029
3030
3031
3032
3033
3034
3035
3036
3037
3038
3039
3040
3041
3042
3043
3044
3045
3046
3047
3048
3049
3050
3051
3052
3053
3054
3055
3056
3057
3058
3059
3060
3061
3062
3063
3064
3065
3066
3067
3068
3069
3070
3071
3072
3073
3074
3075
3076
3077
3078
3079
3080
3081
3082
3083
3084
3085
3086
3087
3088
3089
3090
3091
3092
3093
3094
3095

VECTORS burgers_vector_global double
-1.429999999999999e+00 -8.256108849411650e-01  3.393140768766017e-17
 1.429999999999999e+00  8.256108849411650e-01 -3.393140768766017e-17
-1.429999999999999e+00 -8.256108849411650e-01  3.393140768766017e-17
-1.429999999999999e+00 -8.256108849411650e-01  3.393140768766017e-17
-1.429999999999999e+00 -8.256108849411650e-01  3.393140768766017e-17
-1.429999999999999e+00 -8.256108849411650e-01  3.393140768766017e-17
-1.429999999999999e+00 -8.256108849411650e-01  3.393140768766017e-17
-1.429999999999999e+00 -8.256108849411650e-01  3.393140768766017e-17
-1.429999999999999e+00 -8.256108849411650e-01  3.393140768766017e-17
-1.429999999999999e+00 -8.256108849411650e-01  3.393140768766017e-17
-1.429999999999999e+00 -8.256108849411650e-01  3.393140768766017e-17
-1.429999999999999e+00 -8.256108849411650e-01  3.393140768766017e-17
-1.429999999999999e+00 -8.256108849411650e-01  3.393140768766017e-17
-1.429999999999999e+00 -8.256108849411650e-01  3.393140768766017e-17
-1.429999999999999e+00 -8.256108849411650e-01  3.393140768766017e-17
-1.429999999999999e+00 -8.256108849411650e-01  3.393140768766017e-17
-1.429999999999999e+00 -8.256108849411650e-01  3.393140768766017e-17
-1.429999999999999e+00 -8.256108849411650e-01  3.393140768766017e-17
-1.429999999999999e+00 -8.256108849411650e-01  3.393140768766017e-17
-1.429999999999999e+00 -8.256108849411650e-01  3.393140768766017e-17
-1.429999999999999e+00 -8.256108849411650e-01  3.393140768766017e-17
-1.429999999999999e+00 -8.256108849411650e-01  3.393140768766017e-17
-1.429999999999999e+00 -8.256108849411650e-01  3.393140768766017e-17
-1.429999999999999e+00 -8.256108849411650e-01  3.393140768766017e-17
-1.429999999999999e+00 -8.256108849411650e-01  3.393140768766017e-17
-1.429999999999999e+00 -8.256108849411650e-01  3.393140768766017e-17
-1.429999999999999e+00 -8.256108849411650e-01  3.393140768766017e-17
-1.429999999999999e+00 -8.256108849411650e-01  3.393140768766017e-17
-1.429999999999999e+00 -8.256108849411650e-01  3.393140768766017e-17
-1.429999999999999e+00 -8.256108849411650e-01  3.393140768766017e-17
-1.429999999999999e+00 -8.256108849411650e-01  3.393140768766017e-17
-1.429999999999999e+00 -8.256108849411650e-01  3.393140768766017e-17
-1.429999999999999e+00 -8.256108849411650e-01  3.393140768766017e-17
-1.429999999999999e+00 -8.256108849411650e-01  3.393140768766017e-17
-1.429999999999999e+00 -8.256108849411650e-01  3.393140768766017e-17
-1.429999999999999e+00 -8.256108849411650e-01  3.393140768766017e-17
-1.429999999999999e+00 -8.256108849411650e-01  3.393140768766017e-17
-1.429999999999999e+00 -8.256108849411650e-01  3.393140768766017e-17
-1.429999999999999e+00 -8.256108849411650e-01  3.393140768766017e-17
-1.429999999999999e+00 -8.256108849411650e-01  3.393140768766017e-17
-1.429999999999999e+00 -8.256108849411650e-01  3.393140768766017e-17
-1.429999999999999e+00 -8.256108849411650e-01  3.393140768766017e-17
-1.429999999999999e+00 -8.256108849411650e-01  3.393140768766017e-17
-1.429999999999999e+00 -8.256108849411650e-01  3.393140768766017e-17
-1.429999999999999e+00 -8.256108849411650e-01  3.393140768766017e-17
-1.429999999999999e+00 -8.256108849411650e-01  3.393140768766017e-17
-1.429999999999999e+00 -8.256108849411650e-01  3.393140768766017e-17
-1.429999999999999e+00 -8.256108849411650e-01  3.393140768766017e-17
-1.429999999999999e+00 -8.256108849411650e-01  3.393140768766017e-17
-1.429999999999999e+00 -8.256108849411650e-01  3.393140768766017e-17
-1.429999999999999e+00 -8.256108849411650e-01  3.393140768766017e-17
-1.429999999999999e+00 -8.256108849411650e-01  3.393140768766017e-17
-1.429999999999999e+00 -8.256108849411650e-01  3.393140768766017e-17
-1.429999999999999e+00 -8.256108849411650e-01  3.393140768766017e-17
-1.429999999999999e+00 -8.256108849411650e-01  3.393140768766017e-17
-1.429999999999999e+00 -8.256108849411650e-01  3.393140768766017e-17
-1.429999999999999e+00 -8.256108849411650e-01  3.393140768766017e-17
-1.429999999999999e+00 -8.256108849411650e-01  3.393140768766017e-17
-1.429999999999999e+00 -8.256108849411650e-01  3.393140768766017e-17
-1.429999999999999e+00 -8.256108849411650e-01  3.393140768766017e-17
-1.429999999999999e+00 -8.256108849411650e-01  3.393140768766017e-17
-1.429999999999999e+00 -8.256108849411650e-01  3.393140768766017e-17
-1.429999999999999e+00 -8.256108849411650e-01  3.393140768766017e-17
-1.429999999999999e+00 -8.256108849411650e-01  3.393140768766017e-17
-1.429999999999999e+00 -8.256108849411650e-01  3.393140768766017e-17
-1.429999999999999e+00 -8.256108849411650e-01  3.393140768766017e-17
-1.429999999999999e+00 -8.256108849411650e-01  3.393140768766017e-17
-1.429999999999999e+00 -8.256108849411650e-01  3.393140768766017e-17
-1.429999999999999e+00 -8.256108849411650e-01  3.393140768766017e-17
-1.429999999999999e+00 -8.256108849411650e-01  3.393140768766017e-17
-1.429999999999999e+00 -8.256108849411650e-01  3.393140768766017e-17
-1.429999999999999e+00 -8.256108849411650e-01  3.393140768766017e-17
-1.429999999999999e+00 -8.256108849411650e-01  3.393140768766017e-17
-1.429999999999999e+00 -8.256108849411650e-01  3.393140768766017e-17
-1.429999999999999e+00 -8.256108849411650e-01  3.393140768766017e-17
-1.429999999999999e+00 -8.256108849411650e-01  3.393140768766017e-17
-1.429999999999999e+00 -8.256108849411650e-01  3.393140768766017e-17
-1.429999999999999e+00 -8.256108849411650e-01  3.393140768766017e-17
-1.429999999999999e+00 -8.256108849411650e-01  3.393140768766017e-17
-1.429999999999999e+00 -8.256108849411650e-01  3.393140768766017e-17
-1.429999999999999e+00 -8.256108849411650e-01  3.393140768766017e-17
-1.429999999999999e+00 -8.256108849411650e-01  3.393140768766017e-17
-1.429999999999999e+00 -8.256108849411650e-01  3.393140768766017e-17
-1.429999999999999e+00 -8.256108849411650e-01  3.393140768766017e-17
-1.429999999999999e+00 -8.256108849411650e-01  3.393140768766017e-17
-1.429999999999999e+00 -8.256108849411650e-01  3.393140768766017e-17
-1.429999999999999e+00 -8.256108849411650e-01  3.393140768766017e-17
-1.429999999999999e+00 -8.256108849411650e-01  3.393140768766017e-17
-1.429999999999999e+00 -8.256108849411650e-01  3.393140768766017e-17
-1.429999999999999e+00 -8.256108849411650e-01  3.393140768766017e-17
-1.429999999999999e+00 -8.256108849411650e-01  3.393140768766017e-17
-1.429999999999999e+00 -8.256108849411650e-01  3.393140768766017e-17
-1.429999999999999e+00 -8.256108849411650e-01  3.393140768766017e-17
-1.429999999999999e+00 -8.256108849411650e-01  3.393140768766017e-17
-1.429999999999999e+00 -8.256108849411650e-01  3.393140768766017e-17
-1.429999999999999e+00 -8.256108849411650e-01  3.393140768766017e-17
-1.429999999999999e+00 -8.256108849411650e-01  3.393140768766017e-17
-1.429999999999999e+00 -8.256108849411650e-01  3.393140768766017e-17
-1.429999999999999e+00 -8.256108849411650e-01  3.393140768766017e-17
-1.429999999999999e+00 -8.256108849411650e-01  3.393140768766017e-17
-1.429999999999999e+00 -8.256108849411650e-01  3.393140768766017e-17
-1.429999999999999e+00 -8.256108849411650e-01  3.393140768766017e-17
-1.429999999999999e+00 -8.256108849411650e-01  3.393140768766017e-17
-1.429999999999999e+00 -8.256108849411650e-01  3.393140768766017e-17
-1.429999999999999e+00 -8.256108849411650e-01  3.393140768766017e-17
-1.429999999999999e+00 -8.256108849411650e-01  3.393140768766017e-17
-1.429999999999999e+00 -8.256108849411650e-01  3.393140768766017e-17
-1.429999999999999e+00 -8.256108849411650e-01  3.393140768766017e-17
-1.429999999999999e+00 -8.256108849411650e-01  3.393140768766017e-17
-1.429999999999999e+00 -8.256108849411650e-01  3.393140768766017e-17
-1.429999999999999e+00 -8.256108849411650e-01  3.393140768766017e-17
-1.429999999999999e+00 -8.256108849411650e-01  3.393140768766017e-17
-1.429999999999999e+00 -8.256108849411650e-01  3.393140768766017e-17
-1.429999999999999e+00 -8.256108849411650e-01  3.393140768766017e-17
-1.429999999999999e+00 -8.256108849411650e-01  3.393140768766017e-17
-1.429999999999999e+00 -8.256108849411650e-01  3.393140768766017e-17
-1.429999999999999e+00 -8.256108849411650e-01  3.393140768766017e-17
-1.429999999999999e+00 -8.256108849411650e-01  3.393140768766017e-17
-1.429999999999999e+00 -8.256108849411650e-01  3.393140768766017e-17
-1.429999999999999e+00 -8.256108849411650e-01  3.393140768766017e-17
-1.429999999999999e+00 -8.256108849411650e-01  3.393140768766017e-17
-1.429999999999999e+00 -8.256108849411650e-01  3.393140768766017e-17
-1.429999999999999e+00 -8.256108849411650e-01  3.393140768766017e-17
-1.429999999999999e+00 -8.256108849411650e-01  3.393140768766017e-17
-1.429999999999999e+00 -8.256108849411650e-01  3.393140768766017e-17
-1.429999999999999e+00 -8.256108849411650e-01  3.393140768766017e-17
-1.429999999999999e+00 -8.256108849411650e-01  3.393140768766017e-17
-1.429999999999999e+00 -8.256108849411650e-01  3.393140768766017e-17
-1.429999999999999e+00 -8.256108849411650e-01  3.393140768766017e-17
-1.429999999999999e+00 -8.256108849411650e-01  3.393140768766017e-17
-1.429999999999999e+00 -8.256108849411650e-01  3.393140768766017e-17
-1.429999999999999e+00 -8.256108849411650e-01  3.393140768766017e-17
-1.429999999999999e+00 -8.256108849411650e-01  3.393140768766017e-17
-1.429999999999999e+00 -8.256108849411650e-01  3.393140768766017e-17
-1.429999999999999e+00 -8.256108849411650e-01  3.393140768766017e-17
-1.429999999999999e+00 -8.256108849411650e-01  3.393140768766017e-17
-1.429999999999999e+00 -8.256108849411650e-01  3.393140768766017e-17
-1.429999999999999e+00 -8.256108849411650e-01  3.393140768766017e-17
-1.429999999999999e+00 -8.256108849411650e-01  3.393140768766017e-17
-1.429999999999999e+00 -8.256108849411650e-01  3.393140768766017e-17
-1.429999999999999e+00 -8.256108849411650e-01  3.393140768766017e-17
-1.429999999999999e+00 -8.256108849411650e-01  3.393140768766017e-17
-1.429999999999999e+00 -8.256108849411650e-01  3.393140768766017e-17
-1.429999999999999e+00 -8.256108849411650e-01  3.393140768766017e-17
-1.429999999999999e+00 -8.256108849411650e-01  3.393140768766017e-17
-1.429999999999999e+00 -8.256108849411650e-01  3.393140768766017e-17
-1.429999999999999e+00 -8.256108849411650e-01  3.393140768766017e-17
-1.429999999999999e+00 -8.256108849411650e-01  3.393140768766017e-17
-1.429999999999999e+00 -8.256108849411650e-01  3.393140768766017e-17
-1.429999999999999e+00 -8.256108849411650e-01  3.393140768766017e-17
-1.429999999999999e+00 -8.256108849411650e-01  3.393140768766017e-17
-1.429999999999999e+00 -8.256108849411650e-01  3.393140768766017e-17
-1.429999999999999e+00 -8.256108849411650e-01  3.393140768766017e-17
-1.429999999999999e+00 -8.256108849411650e-01  3.393140768766017e-17
-1.429999999999999e+00 -8.256108849411650e-01  3.393140768766017e-17
-1.429999999999999e+00 -8.256108849411650e-01  3.393140768766017e-17
-1.429999999999999e+00 -8.256108849411650e-01  3.393140768766017e-17
-1.429999999999999e+00 -8.256108849411650e-01  3.393140768766017e-17
-1.429999999999999e+00 -8.256108849411650e-01  3.393140768766017e-17
-1.429999999999999e+00 -8.256108849411650e-01  3.393140768766017e-17
-1.429999999999999e+00 -8.256108849411650e-01  3.393140768766017e-17
-1.429999999999999e+00 -8.256108849411650e-01  3.393140768766017e-17
-1.429999999999999e+00 -8.256108849411650e-01  3.393140768766017e-17
-1.429999999999999e+00 -8.256108849411650e-01  3.393140768766017e-17
-1.429999999999999e+00 -8.256108849411650e-01  3.393140768766017e-17
-1.429999999999999e+00 -8.256108849411650e-01  3.393140768766017e-17
-1.429999999999999e+00 -8.256108849411650e-01  3.393140768766017e-17
-1.429999999999999e+00 -8.256108849411650e-01  3.393140768766017e-17
-1.429999999999999e+00 -8.256108849411650e-01  3.393140768766017e-17
-1.429999999999999e+00 -8.256108849411650e-01  3.393140768766017e-17
-1.429999999999999e+00 -8.256108849411650e-01  3.393140768766017e-17
-1.429999999999999e+00 -8.256108849411650e-01  3.393140768766017e-17
-1.429999999999999e+00 -8.256108849411650e-01  3.393140768766017e-17
-1.429999999999999e+00 -8.256108849411650e-01  3.393140768766017e-17
-1.429999999999999e+00 -8.256108849411650e-01  3.393140768766017e-17
-1.429999999999999e+00 -8.256108849411650e-01  3.393140768766017e-17
-1.429999999999999e+00 -8.256108849411650e-01  3.393140768766017e-17
-1.429999999999999e+00 -8.256108849411650e-01  3.393140768766017e-17
-1.429999999999999e+00 -8.256108849411650e-01  3.393140768766017e-17
-1.429999999999999e+00 -8.256108849411650e-01  3.393140768766017e-17
-1.429999999999999e+00 -8.256108849411650e-01  3.393140768766017e-17
-1.429999999999999e+00 -8.256108849411650e-01  3.393140768766017e-17
-1.429999999999999e+00 -8.256108849411650e-01  3.393140768766017e-17
-1.429999999999999e+00 -8.256108849411650e-01  3.393140768766017e-17
-1.429999999999999e+00 -8.256108849411650e-01  3.393140768766017e-17
-1.429999999999999e+00 -8.256108849411650e-01  3.393140768766017e-17
-1.429999999999999e+00 -8.256108849411650e-01  3.393140768766017e-17
-1.429999999999999e+00 -8.256108849411650e-01  3.393140768766017e-17
-1.429999999999999e+00 -8.256108849411650e-01  3.393140768766017e-17
-1.429999999999999e+00 -8.256108849411650e-01  3.393140768766017e-17
-1.429999999999999e+00 -8.256108849411650e-01  3.393140768766017e-17
-1.429999999999999e+00 -8.256108849411650e-01  3.393140768766017e-17
-1.429999999999999e+00 -8.256108849411650e-01  3.393140768766017e-17
-1.429999999999999e+00 -8.256108849411650e-01  3.393140768766017e-17
-1.429999999999999e+00 -8.256108849411650e-01  3.393140768766017e-17
-1.429999999999999e+00 -8.256108849411650e-01  3.393140768766017e-17
-1.429999999999999e+00 -8.256108849411650e-01  3.393140768766017e-17
-1.429999999999999e+00 -8.256108849411650e-01  3.393140768766017e-17
-1.429999999999999e+00 -8.256108849411650e-01  3.393140768766017e-17
-1.429999999999999e+00 -8.256108849411650e-01  3.393140768766017e-17
-1.429999999999999e+00 -8.256108849411650e-01  3.393140768766017e-17
-1.429999999999999e+00 -8.256108849411650e-01  3.393140768766017e-17
-1.429999999999999e+00 -8.256108849411650e-01  3.393140768766017e-17
-1.429999999999999e+00 -8.256108849411650e-01  3.393140768766017e-17
-1.429999999999999e+00 -8.256108849411650e-01  3.393140768766017e-17
-1.429999999999999e+00 -8.256108849411650e-01  3.393140768766017e-17
-1.429999999999999e+00 -8.256108849411650e-01  3.393140768766017e-17
-1.429999999999999e+00 -8.256108849411650e-01  3.393140768766017e-17
-1.429999999999999e+00 -8.256108849411650e-01  3.393140768766017e-17
-1.429999999999999e+00 -8.256108849411650e-01  3.393140768766017e-17
-1.429999999999999e+00 -8.256108849411650e-01  3.393140768766017e-17
-1.429999999999999e+00 -8.256108849411650e-01  3.393140768766017e-17
-1.429999999999999e+00 -8.256108849411650e-01  3.393140768766017e-17
-1.429999999999999e+00 -8.256108849411650e-01  3.393140768766017e-17
-1.429999999999999e+00 -8.256108849411650e-01  3.393140768766017e-17
-1.429999999999999e+00 -8.256108849411650e-01  3.393140768766017e-17
-1.429999999999999e+00 -8.256108849411650e-01  3.393140768766017e-17
-1.429999999999999e+00 -8.256108849411650e-01  3.393140768766017e-17
-1.429999999999999e+00 -8.256108849411650e-01  3.393140768766017e-17
-1.429999999999999e+00 -8.256108849411650e-01  3.393140768766017e-17
-1.429999999999999e+00 -8.256108849411650e-01  3.393140768766017e-17
-1.429999999999999e+00 -8.256108849411650e-01  3.393140768766017e-17
-1.429999999999999e+00 -8.256108849411650e-01  3.393140768766017e-17
-1.429999999999999e+00 -8.256108849411650e-01  3.393140768766017e-17
-1.429999999999999e+00 -8.256108849411650e-01  3.393140768766017e-17
-1.429999999999999e+00 -8.256108849411650e-01  3.393140768766017e-17
-1.429999999999999e+00 -8.256108849411650e-01  3.393140768766017e-17
-1.429999999999999e+00 -8.256108849411650e-01  3.393140768766017e-17
-1.429999999999999e+00 -8.256108849411650e-01  3.393140768766017e-17
-1.429999999999999e+00 -8.256108849411650e-01  3.393140768766017e-17
-1.429999999999999e+00 -8.256108849411650e-01  3.393140768766017e-17
-1.429999999999999e+00 -8.256108849411650e-01  3.393140768766017e-17
-1.429999999999999e+00 -8.256108849411650e-01  3.393140768766017e-17
-1.429999999999999e+00 -8.256108849411650e-01  3.393140768766017e-17
-1.429999999999999e+00 -8.256108849411650e-01  3.393140768766017e-17
-1.429999999999999e+00 -8.256108849411650e-01  3.393140768766017e-17
-1.429999999999999e+00 -8.256108849411650e-01  3.393140768766017e-17
-1.429999999999999e+00 -8.256108849411650e-01  3.393140768766017e-17
-1.429999999999999e+00 -8.256108849411650e-01  3.393140768766017e-17
-1.429999999999999e+00 -8.256108849411650e-01  3.393140768766017e-17
-1.429999999999999e+00 -8.256108849411650e-01  3.393140768766017e-17
-1.429999999999999e+00 -8.256108849411650e-01  3.393140768766017e-17
-1.429999999999999e+00 -8.256108849411650e-01  3.393140768766017e-17
-1.429999999999999e+00 -8.256108849411650e-01  3.393140768766017e-17
-1.429999999999999e+00 -8.256108849411650e-01  3.393140768766017e-17
-1.429999999999999e+00 -8.256108849411650e-01  3.393140768766017e-17
-1.429999999999999e+00 -8.256108849411650e-01  3.393140768766017e-17
-1.429999999999999e+00 -8.256108849411650e-01  3.393140768766017e-17
-1.429999999999999e+00 -8.256108849411650e-01  3.393140768766017e-17
-1.429999999999999e+00 -8.256108849411650e-01  3.393140768766017e-17
-1.429999999999999e+00 -8.256108849411650e-01  3.393140768766017e-17
-1.429999999999999e+00 -8.256108849411650e-01  3.393140768766017e-17
-1.429999999999999e+00 -8.256108849411650e-01  3.393140768766017e-17
-1.429999999999999e+00 -8.256108849411650e-01  3.393140768766017e-17
-1.429999999999999e+00 -8.256108849411650e-01  3.393140768766017e-17
-1.429999999999999e+00 -8.256108849411650e-01  3.393140768766017e-17
-1.429999999999999e+00 -8.256108849411650e-01  3.393140768766017e-17
-1.429999999999999e+00 -8.256108849411650e-01  3.393140768766017e-17
-1.429999999999999e+00 -8.256108849411650e-01  3.393140768766017e-17
-1.429999999999999e+00 -8.256108849411650e-01  3.393140768766017e-17
-1.429999999999999e+00 -8.256108849411650e-01  3.393140768766017e-17
-1.429999999999999e+00 -8.256108849411650e-01  3.393140768766017e-17
-1.429999999999999e+00 -8.256108849411650e-01  3.393140768766017e-17
-1.429999999999999e+00 -8.256108849411650e-01  3.393140768766017e-17
-1.429999999999999e+00 -8.256108849411650e-01  3.393140768766017e-17
-1.429999999999999e+00 -8.256108849411650e-01  3.393140768766017e-17
-1.429999999999999e+00 -8.256108849411650e-01  3.393140768766017e-17
-1.429999999999999e+00 -8.256108849411650e-01  3.393140768766017e-17
-1.429999999999999e+00 -8.256108849411650e-01  3.393140768766017e-17
-1.429999999999999e+00 -8.256108849411650e-01  3.393140768766017e-17
-1.429999999999999e+00 -8.256108849411650e-01  3.393140768766017e-17
-1.429999999999999e+00 -8.256108849411650e-01  3.393140768766017e-17
-1.429999999999999e+00 -8.256108849411650e-01  3.393140768766017e-17
-1.429999999999999e+00 -8.256108849411650e-01  3.393140768766017e-17
-1.429999999999999e+00 -8.256108849411650e-01  3.393140768766017e-17
-1.429999999999999e+00 -8.256108849411650e-01  3.393140768766017e-17
-1.429999999999999e+00 -8.256108849411650e-01  3.393140768766017e-17
-1.429999999999999e+00 -8.256108849411650e-01  3.393140768766017e-17
-1.429999999999999e+00 -8.256108849411650e-01  3.393140768766017e-17
-1.429999999999999e+00 -8.256108849411650e-01  3.393140768766017e-17
-1.429999999999999e+00 -8.256108849411650e-01  3.393140768766017e-17
-1.429999999999999e+00 -8.256108849411650e-01  3.393140768766017e-17
-1.429999999999999e+00 -8.256108849411650e-01  3.393140768766017e-17
-1.429999999999999e+00 -8.256108849411650e-01  3.393140768766017e-17
-1.429999999999999e+00 -8.256108849411650e-01  3.393140768766017e-17
-1.429999999999999e+00 -8.256108849411650e-01  3.393140768766017e-17
-1.429999999999999e+00 -8.256108849411650e-01  3.393140768766017e-17
-1.429999999999999e+00 -8.256108849411650e-01  3.393140768766017e-17
-1.429999999999999e+00 -8.256108849411650e-01  3.393140768766017e-17
-1.429999999999999e+00 -8.256108849411650e-01  3.393140768766017e-17
-1.429999999999999e+00 -8.256108849411650e-01  3.393140768766017e-17
-1.429999999999999e+00 -8.256108849411650e-01  3.393140768766017e-17
-1.429999999999999e+00 -8.256108849411650e-01  3.393140768766017e-17
-1.429999999999999e+00 -8.256108849411650e-01  3.393140768766017e-17
-1.429999999999999e+00 -8.256108849411650e-01  3.393140768766017e-17
-1.429999999999999e+00 -8.256108849411650e-01  3.393140768766017e-17
-1.429999999999999e+00 -8.256108849411650e-01  3.393140768766017e-17
-1.429999999999999e+00 -8.256108849411650e-01  3.393140768766017e-17
-1.429999999999999e+00 -8.256108849411650e-01  3.393140768766017e-17
-1.429999999999999e+00 -8.256108849411650e-01  3.393140768766017e-17
-1.429999999999999e+00 -8.256108849411650e-01  3.393140768766017e-17
-1.429999999999999e+00 -8.256108849411650e-01  3.393140768766017e-17
-1.429999999999999e+00 -8.256108849411650e-01  3.393140768766017e-17
-1.429999999999999e+00 -8.256108849411650e-01  3.393140768766017e-17
-1.429999999999999e+00 -8.256108849411650e-01  3.393140768766017e-17
-1.429999999999999e+00 -8.256108849411650e-01  3.393140768766017e-17
-1.429999999999999e+00 -8.256108849411650e-01  3.393140768766017e-17
-1.429999999999999e+00 -8.256108849411650e-01  3.393140768766017e-17
-1.429999999999999e+00 -8.256108849411650e-01  3.393140768766017e-17
-1.429999999999999e+00 -8.256108849411650e-01  3.393140768766017e-17
-1.429999999999999e+00 -8.256108849411650e-01  3.393140768766017e-17
-1.429999999999999e+00 -8.256108849411650e-01  3.393140768766017e-17
-1.429999999999999e+00 -8.256108849411650e-01  3.393140768766017e-17
-1.429999999999999e+00 -8.256108849411650e-01  3.393140768766017e-17
-1.429999999999999e+00 -8.256108849411650e-01  3.393140768766017e-17
-1.429999999999999e+00 -8.256108849411650e-01  3.393140768766017e-17
-1.429999999999999e+00 -8.256108849411650e-01  3.393140768766017e-17
-1.429999999999999e+00 -8.256108849411650e-01  3.393140768766017e-17
-1.429999999999999e+00 -8.256108849411650e-01  3.393140768766017e-17
-1.429999999999999e+00 -8.256108849411650e-01  3.393140768766017e-17
-1.429999999999999e+00 -8.256108849411650e-01  3.393140768766017e-17
-1.429999999999999e+00 -8.256108849411650e-01  3.393140768766017e-17
-1.429999999999999e+00 -8.256108849411650e-01  3.393140768766017e-17
-1.429999999999999e+00 -8.256108849411650e-01  3.393140768766017e-17
-1.429999999999999e+00 -8.256108849411650e-01  3.393140768766017e-17
-1.429999999999999e+00 -8.256108849411650e-01  3.393140768766017e-17
-1.429999999999999e+00 -8.256108849411650e-01  3.393140768766017e-17
-1.429999999999999e+00 -8.256108849411650e-01  3.393140768766017e-17
-1.429999999999999e+00 -8.256108849411650e-01  3.393140768766017e-17
-1.429999999999999e+00 -8.256108849411650e-01  3.393140768766017e-17
-1.429999999999999e+00 -8.256108849411650e-01  3.393140768766017e-17
-1.429999999999999e+00 -8.256108849411650e-01  3.393140768766017e-17
-1.429999999999999e+00 -8.256108849411650e-01  3.393140768766017e-17
-1.429999999999999e+00 -8.256108849411650e-01  3.393140768766017e-17
-1.429999999999999e+00 -8.256108849411650e-01  3.393140768766017e-17
-1.429999999999999e+00 -8.256108849411650e-01  3.393140768766017e-17
-1.429999999999999e+00 -8.256108849411650e-01  3.393140768766017e-17
-1.429999999999999e+00 -8.256108849411650e-01  3.393140768766017e-17
-1.429999999999999e+00 -8.256108849411650e-01  3.393140768766017e-17
-1.429999999999999e+00 -8.256108849411650e-01  3.393140768766017e-17
-1.429999999999999e+00 -8.256108849411650e-01  3.393140768766017e-17
-1.429999999999999e+00 -8.256108849411650e-01  3.393140768766017e-17
-1.429999999999999e+00 -8.256108849411650e-01  3.393140768766017e-17
-1.429999999999999e+00 -8.256108849411650e-01  3.393140768766017e-17
-1.429999999999999e+00 -8.256108849411650e-01  3.393140768766017e-17
-1.429999999999999e+00 -8.256108849411650e-01  3.393140768766017e-17
-1.429999999999999e+00 -8.256108849411650e-01  3.393140768766017e-17
-1.429999999999999e+00 -8.256108849411650e-01  3.393140768766017e-17
-1.429999999999999e+00 -8.256108849411650e-01  3.393140768766017e-17
-1.429999999999999e+00 -8.256108849411650e-01  3.393140768766017e-17
-1.429999999999999e+00 -8.256108849411650e-01  3.393140768766017e-17
-1.429999999999999e+00 -8.256108849411650e-01  3.393140768766017e-17
-1.429999999999999e+00 -8.256108849411650e-01  3.393140768766017e-17
-1.429999999999999e+00 -8.256108849411650e-01  3.393140768766017e-17
-1.429999999999999e+00 -8.256108849411650e-01  3.393140768766017e-17
-1.429999999999999e+00 -8.256108849411650e-01  3.393140768766017e-17
-1.429999999999999e+00 -8.256108849411650e-01  3.393140768766017e-17
-1.429999999999999e+00 -8.256108849411650e-01  3.393140768766017e-17
-1.429999999999999e+00 -8.256108849411650e-01  3.393140768766017e-17
-1.429999999999999e+00 -8.256108849411650e-01  3.393140768766017e-17
-1.429999999999999e+00 -8.256108849411650e-01  3.393140768766017e-17
-1.429999999999999e+00 -8.256108849411650e-01  3.393140768766017e-17
-1.429999999999999e+00 -8.256108849411650e-01  3.393140768766017e-17
-1.429999999999999e+00 -8.256108849411650e-01  3.393140768766017e-17
-1.429999999999999e+00 -8.256108849411650e-01  3.393140768766017e-17
-1.429999999999999e+00 -8.256108849411650e-01  3.393140768766017e-17
-1.429999999999999e+00 -8.256108849411650e-01  3.393140768766017e-17
-1.429999999999999e+00 -8.256108849411650e-01  3.393140768766017e-17
-1.429999999999999e+00 -8.256108849411650e-01  3.393140768766017e-17
-1.429999999999999e+00 -8.256108849411650e-01  3.393140768766017e-17
-1.429999999999999e+00 -8.256108849411650e-01  3.393140768766017e-17
-1.429999999999999e+00 -8.256108849411650e-01  3.393140768766017e-17
-1.429999999999999e+00 -8.256108849411650e-01  3.393140768766017e-17
-1.429999999999999e+00 -8.256108849411650e-01  3.393140768766017e-17
-1.429999999999999e+00 -8.256108849411650e-01  3.393140768766017e-17
-1.429999999999999e+00 -8.256108849411650e-01  3.393140768766017e-17
-1.429999999999999e+00 -8.256108849411650e-01  3.393140768766017e-17
-1.429999999999999e+00 -8.256108849411650e-01  3.393140768766017e-17
-1.429999999999999e+00 -8.256108849411650e-01  3.393140768766017e-17
-1.429999999999999e+00 -8.256108849411650e-01  3.393140768766017e-17
-1.429999999999999e+00 -8.256108849411650e-01  3.393140768766017e-17
-1.429999999999999e+00 -8.256108849411650e-01  3.393140768766017e-17
-1.429999999999999e+00 -8.256108849411650e-01  3.393140768766017e-17
-1.429999999999999e+00 -8.256108849411650e-01  3.393140768766017e-17
-1.429999999999999e+00 -8.256108849411650e-01  3.393140768766017e-17
-1.429999999999999e+00 -8.256108849411650e-01  3.393140768766017e-17
-1.429999999999999e+00 -8.256108849411650e-01  3.393140768766017e-17
-1.429999999999999e+00 -8.256108849411650e-01  3.393140768766017e-17
-1.429999999999999e+00 -8.256108849411650e-01  3.393140768766017e-17
 1.429999999999999e+00  8.256108849411650e-01 -3.393140768766017e-17
-1.429999999999999e+00 -8.256108849411650e-01  3.393140768766017e-17
-1.429999999999999e+00 -8.256108849411650e-01  3.393140768766017e-17
-1.429999999999999e+00 -8.256108849411650e-01  3.393140768766017e-17
-1.429999999999999e+00 -8.256108849411650e-01  3.393140768766017e-17
-1.429999999999999e+00 -8.256108849411650e-01  3.393140768766017e-17
-1.429999999999999e+00 -8.256108849411650e-01  3.393140768766017e-17
-1.429999999999999e+00 -8.256108849411650e-01  3.393140768766017e-17
-1.429999999999999e+00 -8.256108849411650e-01  3.393140768766017e-17
-1.429999999999999e+00 -8.256108849411650e-01  3.393140768766017e-17
-1.429999999999999e+00 -8.256108849411650e-01  3.393140768766017e-17
-1.429999999999999e+00 -8.256108849411650e-01  3.393140768766017e-17
-1.429999999999999e+00 -8.256108849411650e-01  3.393140768766017e-17
-1.429999999999999e+00 -8.256108849411650e-01  3.393140768766017e-17
-1.429999999999999e+00 -8.256108849411650e-01  3.393140768766017e-17
-1.429999999999999e+00 -8.256108849411650e-01  3.393140768766017e-17
-1.429999999999999e+00 -8.256108849411650e-01  3.393140768766017e-17
-1.429999999999999e+00 -8.256108849411650e-01  3.393140768766017e-17
-1.429999999999999e+00 -8.256108849411650e-01  3.393140768766017e-17
-1.429999999999999e+00 -8.256108849411650e-01  3.393140768766017e-17
-1.429999999999999e+00 -8.256108849411650e-01  3.393140768766017e-17
-1.429999999999999e+00 -8.256108849411650e-01  3.393140768766017e-17
-1.429999999999999e+00 -8.256108849411650e-01  3.393140768766017e-17
-1.429999999999999e+00 -8.256108849411650e-01  3.393140768766017e-17
-1.429999999999999e+00 -8.256108849411650e-01  3.393140768766017e-17
-1.429999999999999e+00 -8.256108849411650e-01  3.393140768766017e-17
-1.429999999999999e+00 -8.256108849411650e-01  3.393140768766017e-17
-1.429999999999999e+00 -8.256108849411650e-01  3.393140768766017e-17
-1.429999999999999e+00 -8.256108849411650e-01  3.393140768766017e-17
-1.429999999999999e+00 -8.256108849411650e-01  3.393140768766017e-17
-1.429999999999999e+00 -8.256108849411650e-01  3.393140768766017e-17
-1.429999999999999e+00 -8.256108849411650e-01  3.393140768766017e-17
-1.429999999999999e+00 -8.256108849411650e-01  3.393140768766017e-17
-1.429999999999999e+00 -8.256108849411650e-01  3.393140768766017e-17
-1.429999999999999e+00 -8.256108849411650e-01  3.393140768766017e-17
-1.429999999999999e+00 -8.256108849411650e-01  3.393140768766017e-17
-1.429999999999999e+00 -8.256108849411650e-01  3.393140768766017e-17
-1.429999999999999e+00 -8.256108849411650e-01  3.393140768766017e-17
-1.429999999999999e+00 -8.256108849411650e-01  3.393140768766017e-17
-1.429999999999999e+00 -8.256108849411650e-01  3.393140768766017e-17
-1.429999999999999e+00 -8.256108849411650e-01  3.393140768766017e-17
-1.429999999999999e+00 -8.256108849411650e-01  3.393140768766017e-17
-1.429999999999999e+00 -8.256108849411650e-01  3.393140768766017e-17
-1.429999999999999e+00 -8.256108849411650e-01  3.393140768766017e-17
-1.429999999999999e+00 -8.256108849411650e-01  3.393140768766017e-17
-1.429999999999999e+00 -8.256108849411650e-01  3.393140768766017e-17
-1.429999999999999e+00 -8.256108849411650e-01  3.393140768766017e-17
-1.429999999999999e+00 -8.256108849411650e-01  3.393140768766017e-17
-1.429999999999999e+00 -8.256108849411650e-01  3.393140768766017e-17
-1.429999999999999e+00 -8.256108849411650e-01  3.393140768766017e-17
-1.429999999999999e+00 -8.256108849411650e-01  3.393140768766017e-17
-1.429999999999999e+00 -8.256108849411650e-01  3.393140768766017e-17
-1.429999999999999e+00 -8.256108849411650e-01  3.393140768766017e-17
-1.429999999999999e+00 -8.256108849411650e-01  3.393140768766017e-17
-1.429999999999999e+00 -8.256108849411650e-01  3.393140768766017e-17
-1.429999999999999e+00 -8.256108849411650e-01  3.393140768766017e-17
-1.429999999999999e+00 -8.256108849411650e-01  3.393140768766017e-17
-1.429999999999999e+00 -8.256108849411650e-01  3.393140768766017e-17
-1.429999999999999e+00 -8.256108849411650e-01  3.393140768766017e-17
-1.429999999999999e+00 -8.256108849411650e-01  3.393140768766017e-17
-1.429999999999999e+00 -8.256108849411650e-01  3.393140768766017e-17
-1.429999999999999e+00 -8.256108849411650e-01  3.393140768766017e-17
-1.429999999999999e+00 -8.256108849411650e-01  3.393140768766017e-17
-1.429999999999999e+00 -8.256108849411650e-01  3.393140768766017e-17
-1.429999999999999e+00 -8.256108849411650e-01  3.393140768766017e-17
-1.429999999999999e+00 -8.256108849411650e-01  3.393140768766017e-17
-1.429999999999999e+00 -8.256108849411650e-01  3.393140768766017e-17
-1.429999999999999e+00 -8.256108849411650e-01  3.393140768766017e-17
-1.429999999999999e+00 -8.256108849411650e-01  3.393140768766017e-17
-1.429999999999999e+00 -8.256108849411650e-01  3.393140768766017e-17
-1.429999999999999e+00 -8.256108849411650e-01  3.393140768766017e-17
-1.429999999999999e+00 -8.256108849411650e-01  3.393140768766017e-17
-1.429999999999999e+00 -8.256108849411650e-01  3.393140768766017e-17
-1.429999999999999e+00 -8.256108849411650e-01  3.393140768766017e-17
-1.429999999999999e+00 -8.256108849411650e-01  3.393140768766017e-17
-1.429999999999999e+00 -8.256108849411650e-01  3.393140768766017e-17
-1.429999999999999e+00 -8.256108849411650e-01  3.393140768766017e-17
-1.429999999999999e+00 -8.256108849411650e-01  3.393140768766017e-17
-1.429999999999999e+00 -8.256108849411650e-01  3.393140768766017e-17
-1.429999999999999e+00 -8.256108849411650e-01  3.393140768766017e-17
-1.429999999999999e+00 -8.256108849411650e-01  3.393140768766017e-17
-1.429999999999999e+00 -8.256108849411650e-01  3.393140768766017e-17
-1.429999999999999e+00 -8.256108849411650e-01  3.393140768766017e-17
-1.429999999999999e+00 -8.256108849411650e-01  3.393140768766017e-17
-1.429999999999999e+00 -8.256108849411650e-01  3.393140768766017e-17
-1.429999999999999e+00 -8.256108849411650e-01  3.393140768766017e-17
-1.429999999999999e+00 -8.256108849411650e-01  3.393140768766017e-17
-1.429999999999999e+00 -8.256108849411650e-01  3.393140768766017e-17
-1.429999999999999e+00 -8.256108849411650e-01  3.393140768766017e-17
-1.429999999999999e+00 -8.256108849411650e-01  3.393140768766017e-17
-1.429999999999999e+00 -8.256108849411650e-01  3.393140768766017e-17
-1.429999999999999e+00 -8.256108849411650e-01  3.393140768766017e-17
-1.429999999999999e+00 -8.256108849411650e-01  3.393140768766017e-17
-1.429999999999999e+00 -8.256108849411650e-01  3.393140768766017e-17
-1.429999999999999e+00 -8.256108849411650e-01  3.393140768766017e-17
-1.429999999999999e+00 -8.256108849411650e-01  3.393140768766017e-17
-1.429999999999999e+00 -8.256108849411650e-01  3.393140768766017e-17
-1.429999999999999e+00 -8.256108849411650e-01  3.393140768766017e-17
-1.429999999999999e+00 -8.256108849411650e-01  3.393140768766017e-17
-1.429999999999999e+00 -8.256108849411650e-01  3.393140768766017e-17
-1.429999999999999e+00 -8.256108849411650e-01  3.393140768766017e-17
-1.429999999999999e+00 -8.256108849411650e-01  3.393140768766017e-17
-1.429999999999999e+00 -8.256108849411650e-01  3.393140768766017e-17
-1.429999999999999e+00 -8.256108849411650e-01  3.393140768766017e-17
-1.429999999999999e+00 -8.256108849411650e-01  3.393140768766017e-17
-1.429999999999999e+00 -8.256108849411650e-01  3.393140768766017e-17
-1.429999999999999e+00 -8.256108849411650e-01  3.393140768766017e-17
-1.429999999999999e+00 -8.256108849411650e-01  3.393140768766017e-17
-1.429999999999999e+00 -8.256108849411650e-01  3.393140768766017e-17
-1.429999999999999e+00 -8.256108849411650e-01  3.393140768766017e-17
-1.429999999999999e+00 -8.256108849411650e-01  3.393140768766017e-17
-1.429999999999999e+00 -8.256108849411650e-01  3.393140768766017e-17
-1.429999999999999e+00 -8.256108849411650e-01  3.393140768766017e-17
-1.429999999999999e+00 -8.256108849411650e-01  3.393140768766017e-17
-1.429999999999999e+00 -8.256108849411650e-01  3.393140768766017e-17
-1.429999999999999e+00 -8.256108849411650e-01  3.393140768766017e-17
-1.429999999999999e+00 -8.256108849411650e-01  3.393140768766017e-17
-1.429999999999999e+00 -8.256108849411650e-01  3.393140768766017e-17
-1.429999999999999e+00 -8.256108849411650e-01  3.393140768766017e-17
-1.429999999999999e+00 -8.256108849411650e-01  3.393140768766017e-17
-1.429999999999999e+00 -8.256108849411650e-01  3.393140768766017e-17
-1.429999999999999e+00 -8.256108849411650e-01  3.393140768766017e-17
-1.429999999999999e+00 -8.256108849411650e-01  3.393140768766017e-17
-1.429999999999999e+00 -8.256108849411650e-01  3.393140768766017e-17
-1.429999999999999e+00 -8.256108849411650e-01  3.393140768766017e-17
-1.429999999999999e+00 -8.256108849411650e-01  3.393140768766017e-17
-1.429999999999999e+00 -8.256108849411650e-01  3.393140768766017e-17
-1.429999999999999e+00 -8.256108849411650e-01  3.393140768766017e-17
-1.429999999999999e+00 -8.256108849411650e-01  3.393140768766017e-17
-1.429999999999999e+00 -8.256108849411650e-01  3.393140768766017e-17
-1.429999999999999e+00 -8.256108849411650e-01  3.393140768766017e-17
-1.429999999999999e+00 -8.256108849411650e-01  3.393140768766017e-17
-1.429999999999999e+00 -8.256108849411650e-01  3.393140768766017e-17
-1.429999999999999e+00 -8.256108849411650e-01  3.393140768766017e-17
-1.429999999999999e+00 -8.256108849411650e-01  3.393140768766017e-17
-1.429999999999999e+00 -8.256108849411650e-01  3.393140768766017e-17
-1.429999999999999e+00 -8.256108849411650e-01  3.393140768766017e-17
-1.429999999999999e+00 -8.256108849411650e-01  3.393140768766017e-17
-1.429999999999999e+00 -8.256108849411650e-01  3.393140768766017e-17
-1.429999999999999e+00 -8.256108849411650e-01  3.393140768766017e-17
-1.429999999999999e+00 -8.256108849411650e-01  3.393140768766017e-17
-1.429999999999999e+00 -8.256108849411650e-01  3.393140768766017e-17
-1.429999999999999e+00 -8.256108849411650e-01  3.393140768766017e-17
-1.429999999999999e+00 -8.256108849411650e-01  3.393140768766017e-17
-1.429999999999999e+00 -8.256108849411650e-01  3.393140768766017e-17
-1.429999999999999e+00 -8.256108849411650e-01  3.393140768766017e-17
-1.429999999999999e+00 -8.256108849411650e-01  3.393140768766017e-17
-1.429999999999999e+00 -8.256108849411650e-01  3.393140768766017e-17
-1.429999999999999e+00 -8.256108849411650e-01  3.393140768766017e-17
-1.429999999999999e+00 -8.256108849411650e-01  3.393140768766017e-17
-1.429999999999999e+00 -8.256108849411650e-01  3.393140768766017e-17
-1.429999999999999e+00 -8.256108849411650e-01  3.393140768766017e-17
-1.429999999999999e+00 -8.256108849411650e-01  3.393140768766017e-17
-1.429999999999999e+00 -8.256108849411650e-01  3.393140768766017e-17
-1.429999999999999e+00 -8.256108849411650e-01  3.393140768766017e-17
-1.429999999999999e+00 -8.256108849411650e-01  3.393140768766017e-17
-1.429999999999999e+00 -8.256108849411650e-01  3.393140768766017e-17
-1.429999999999999e+00 -8.256108849411650e-01  3.393140768766017e-17
-1.429999999999999e+00 -8.256108849411650e-01  3.393140768766017e-17
-1.429999999999999e+00 -8.256108849411650e-01  3.393140768766017e-17
-1.429999999999999e+00 -8.256108849411650e-01  3.393140768766017e-17
-1.429999999999999e+00 -8.256108849411650e-01  3.393140768766017e-17
-1.429999999999999e+00 -8.256108849411650e-01  3.393140768766017e-17
-1.429999999999999e+00 -8.256108849411650e-01  3.393140768766017e-17
-1.429999999999999e+00 -8.256108849411650e-01  3.393140768766017e-17
-1.429999999999999e+00 -8.256108849411650e-01  3.393140768766017e-17
-1.429999999999999e+00 -8.256108849411650e-01  3.393140768766017e-17
-1.429999999999999e+00 -8.256108849411650e-01  3.393140768766017e-17
-1.429999999999999e+00 -8.256108849411650e-01  3.393140768766017e-17
-1.429999999999999e+00 -8.256108849411650e-01  3.393140768766017e-17
-1.429999999999999e+00 -8.256108849411650e-01  3.393140768766017e-17
-1.429999999999999e+00 -8.256108849411650e-01  3.393140768766017e-17
-1.429999999999999e+00 -8.256108849411650e-01  3.393140768766017e-17
-1.429999999999999e+00 -8.256108849411650e-01  3.393140768766017e-17
-1.429999999999999e+00 -8.256108849411650e-01  3.393140768766017e-17
-1.429999999999999e+00 -8.256108849411650e-01  3.393140768766017e-17
-1.429999999999999e+00 -8.256108849411650e-01  3.393140768766017e-17
-1.429999999999999e+00 -8.256108849411650e-01  3.393140768766017e-17
-1.429999999999999e+00 -8.256108849411650e-01  3.393140768766017e-17
-1.429999999999999e+00 -8.256108849411650e-01  3.393140768766017e-17
-1.429999999999999e+00 -8.256108849411650e-01  3.393140768766017e-17
-1.429999999999999e+00 -8.256108849411650e-01  3.393140768766017e-17
-1.429999999999999e+00 -8.256108849411650e-01  3.393140768766017e-17
-1.429999999999999e+00 -8.256108849411650e-01  3.393140768766017e-17
-1.429999999999999e+00 -8.256108849411650e-01  3.393140768766017e-17
-1.429999999999999e+00 -8.256108849411650e-01  3.393140768766017e-17
-1.429999999999999e+00 -8.256108849411650e-01  3.393140768766017e-17
-1.429999999999999e+00 -8.256108849411650e-01  3.393140768766017e-17
-1.429999999999999e+00 -8.256108849411650e-01  3.393140768766017e-17
-1.429999999999999e+00 -8.256108849411650e-01  3.393140768766017e-17
-1.429999999999999e+00 -8.256108849411650e-01  3.393140768766017e-17
-1.429999999999999e+00 -8.256108849411650e-01  3.393140768766017e-17
-1.429999999999999e+00 -8.256108849411650e-01  3.393140768766017e-17
-1.429999999999999e+00 -8.256108849411650e-01  3.393140768766017e-17
-1.429999999999999e+00 -8.256108849411650e-01  3.393140768766017e-17
-1.429999999999999e+00 -8.256108849411650e-01  3.393140768766017e-17
-1.429999999999999e+00 -8.256108849411650e-01  3.393140768766017e-17
-1.429999999999999e+00 -8.256108849411650e-01  3.393140768766017e-17
-1.429999999999999e+00 -8.256108849411650e-01  3.393140768766017e-17
-1.429999999999999e+00 -8.256108849411650e-01  3.393140768766017e-17
-1.429999999999999e+00 -8.256108849411650e-01  3.393140768766017e-17
-1.429999999999999e+00 -8.256108849411650e-01  3.393140768766017e-17
-1.429999999999999e+00 -8.256108849411650e-01  3.393140768766017e-17
-1.429999999999999e+00 -8.256108849411650e-01  3.393140768766017e-17
-1.429999999999999e+00 -8.256108849411650e-01  3.393140768766017e-17
-1.429999999999999e+00 -8.256108849411650e-01  3.393140768766017e-17
-1.429999999999999e+00 -8.256108849411650e-01  3.393140768766017e-17
-1.429999999999999e+00 -8.256108849411650e-01  3.393140768766017e-17
-1.429999999999999e+00 -8.256108849411650e-01  3.393140768766017e-17
-1.429999999999999e+00 -8.256108849411650e-01  3.393140768766017e-17
-1.429999999999999e+00 -8.256108849411650e-01  3.393140768766017e-17
-1.429999999999999e+00 -8.256108849411650e-01  3.393140768766017e-17
-1.429999999999999e+00 -8.256108849411650e-01  3.393140768766017e-17
-1.429999999999999e+00 -8.256108849411650e-01  3.393140768766017e-17
-1.429999999999999e+00 -8.256108849411650e-01  3.393140768766017e-17
-1.429999999999999e+00 -8.256108849411650e-01  3.393140768766017e-17
-1.429999999999999e+00 -8.256108849411650e-01  3.393140768766017e-17
-1.429999999999999e+00 -8.256108849411650e-01  3.393140768766017e-17
-1.429999999999999e+00 -8.256108849411650e-01  3.393140768766017e-17
-1.429999999999999e+00 -8.256108849411650e-01  3.393140768766017e-17
-1.429999999999999e+00 -8.256108849411650e-01  3.393140768766017e-17
-1.429999999999999e+00 -8.256108849411650e-01  3.393140768766017e-17
-1.429999999999999e+00 -8.256108849411650e-01  3.393140768766017e-17
-1.429999999999999e+00 -8.256108849411650e-01  3.393140768766017e-17
-1.429999999999999e+00 -8.256108849411650e-01  3.393140768766017e-17
-1.429999999999999e+00 -8.256108849411650e-01  3.393140768766017e-17
-1.429999999999999e+00 -8.256108849411650e-01  3.393140768766017e-17
-1.429999999999999e+00 -8.256108849411650e-01  3.393140768766017e-17
-1.429999999999999e+00 -8.256108849411650e-01  3.393140768766017e-17
-1.429999999999999e+00 -8.256108849411650e-01  3.393140768766017e-17
-1.429999999999999e+00 -8.256108849411650e-01  3.393140768766017e-17
-1.429999999999999e+00 -8.256108849411650e-01  3.393140768766017e-17
-1.429999999999999e+00 -8.256108849411650e-01  3.393140768766017e-17
-1.429999999999999e+00 -8.256108849411650e-01  3.393140768766017e-17
-1.429999999999999e+00 -8.256108849411650e-01  3.393140768766017e-17
-1.429999999999999e+00 -8.256108849411650e-01  3.393140768766017e-17
-1.429999999999999e+00 -8.256108849411650e-01  3.393140768766017e-17
-1.429999999999999e+00 -8.256108849411650e-01  3.393140768766017e-17
-1.429999999999999e+00 -8.256108849411650e-01  3.393140768766017e-17
-1.429999999999999e+00 -8.256108849411650e-01  3.393140768766017e-17
-1.429999999999999e+00 -8.256108849411650e-01  3.393140768766017e-17
-1.429999999999999e+00 -8.256108849411650e-01  3.393140768766017e-17
-1.429999999999999e+00 -8.256108849411650e-01  3.393140768766017e-17
-1.429999999999999e+00 -8.256108849411650e-01  3.393140768766017e-17
-1.429999999999999e+00 -8.256108849411650e-01  3.393140768766017e-17
-1.429999999999999e+00 -8.256108849411650e-01  3.393140768766017e-17
-1.429999999999999e+00 -8.256108849411650e-01  3.393140768766017e-17
-1.429999999999999e+00 -8.256108849411650e-01  3.393140768766017e-17
-1.429999999999999e+00 -8.256108849411650e-01  3.393140768766017e-17
-1.429999999999999e+00 -8.256108849411650e-01  3.393140768766017e-17
-1.429999999999999e+00 -8.256108849411650e-01  3.393140768766017e-17
-1.429999999999999e+00 -8.256108849411650e-01  3.393140768766017e-17
-1.429999999999999e+00 -8.256108849411650e-01  3.393140768766017e-17
-1.429999999999999e+00 -8.256108849411650e-01  3.393140768766017e-17
-1.429999999999999e+00 -8.256108849411650e-01  3.393140768766017e-17
-1.429999999999999e+00 -8.256108849411650e-01  3.393140768766017e-17
-1.429999999999999e+00 -8.256108849411650e-01  3.393140768766017e-17
-1.429999999999999e+00 -8.256108849411650e-01  3.393140768766017e-17
-1.429999999999999e+00 -8.256108849411650e-01  3.393140768766017e-17
-1.429999999999999e+00 -8.256108849411650e-01  3.393140768766017e-17
-1.429999999999999e+00 -8.256108849411650e-01  3.393140768766017e-17
-1.429999999999999e+00 -8.256108849411650e-01  3.393140768766017e-17
-1.429999999999999e+00 -8.256108849411650e-01  3.393140768766017e-17
-1.429999999999999e+00 -8.256108849411650e-01  3.393140768766017e-17
-1.429999999999999e+00 -8.256108849411650e-01  3.393140768766017e-17
-1.429999999999999e+00 -8.256108849411650e-01  3.393140768766017e-17
-1.429999999999999e+00 -8.256108849411650e-01  3.393140768766017e-17
-1.429999999999999e+00 -8.256108849411650e-01  3.393140768766017e-17
-1.429999999999999e+00 -8.256108849411650e-01  3.393140768766017e-17
-1.429999999999999e+00 -8.256108849411650e-01  3.393140768766017e-17
-1.429999999999999e+00 -8.256108849411650e-01  3.393140768766017e-17
-1.429999999999999e+00 -8.256108849411650e-01  3.393140768766017e-17
-1.429999999999999e+00 -8.256108849411650e-01  3.393140768766017e-17
-1.429999999999999e+00 -8.256108849411650e-01  3.393140768766017e-17
-1.429999999999999e+00 -8.256108849411650e-01  3.393140768766017e-17
-1.429999999999999e+00 -8.256108849411650e-01  3.393140768766017e-17
-1.429999999999999e+00 -8.256108849411650e-01  3.393140768766017e-17
-1.429999999999999e+00 -8.256108849411650e-01  3.393140768766017e-17
-1.429999999999999e+00 -8.256108849411650e-01  3.393140768766017e-17
-1.429999999999999e+00 -8.256108849411650e-01  3.393140768766017e-17
-1.429999999999999e+00 -8.256108849411650e-01  3.393140768766017e-17
-1.429999999999999e+00 -8.256108849411650e-01  3.393140768766017e-17
-1.429999999999999e+00 -8.256108849411650e-01  3.393140768766017e-17
-1.429999999999999e+00 -8.256108849411650e-01  3.393140768766017e-17
-1.429999999999999e+00 -8.256108849411650e-01  3.393140768766017e-17
-1.429999999999999e+00 -8.256108849411650e-01  3.393140768766017e-17
-1.429999999999999e+00 -8.256108849411650e-01  3.393140768766017e-17
-1.429999999999999e+00 -8.256108849411650e-01  3.393140768766017e-17
-1.429999999999999e+00 -8.256108849411650e-01  3.393140768766017e-17
-1.429999999999999e+00 -8.256108849411650e-01  3.393140768766017e-17
-1.429999999999999e+00 -8.256108849411650e-01  3.393140768766017e-17
-1.429999999999999e+00 -8.256108849411650e-01  3.393140768766017e-17
-1.429999999999999e+00 -8.256108849411650e-01  3.393140768766017e-17
-1.429999999999999e+00 -8.256108849411650e-01  3.393140768766017e-17
-1.429999999999999e+00 -8.256108849411650e-01  3.393140768766017e-17
-1.429999999999999e+00 -8.256108849411650e-01  3.393140768766017e-17
-1.429999999999999e+00 -8.256108849411650e-01  3.393140768766017e-17
-1.429999999999999e+00 -8.256108849411650e-01  3.393140768766017e-17
-1.429999999999999e+00 -8.256108849411650e-01  3.393140768766017e-17
-1.429999999999999e+00 -8.256108849411650e-01  3.393140768766017e-17
-1.429999999999999e+00 -8.256108849411650e-01  3.393140768766017e-17
-1.429999999999999e+00 -8.256108849411650e-01  3.393140768766017e-17
-1.429999999999999e+00 -8.256108849411650e-01  3.393140768766017e-17
-1.429999999999999e+00 -8.256108849411650e-01  3.393140768766017e-17
-1.429999999999999e+00 -8.256108849411650e-01  3.393140768766017e-17
-1.429999999999999e+00 -8.256108849411650e-01  3.393140768766017e-17
-1.429999999999999e+00 -8.256108849411650e-01  3.393140768766017e-17
-1.429999999999999e+00 -8.256108849411650e-01  3.393140768766017e-17
-1.429999999999999e+00 -8.256108849411650e-01  3.393140768766017e-17
-1.429999999999999e+00 -8.256108849411650e-01  3.393140768766017e-17
-1.429999999999999e+00 -8.256108849411650e-01  3.393140768766017e-17
-1.429999999999999e+00 -8.256108849411650e-01  3.393140768766017e-17
-1.429999999999999e+00 -8.256108849411650e-01  3.393140768766017e-17
-1.429999999999999e+00 -8.256108849411650e-01  3.393140768766017e-17
-1.429999999999999e+00 -8.256108849411650e-01  3.393140768766017e-17
-1.429999999999999e+00 -8.256108849411650e-01  3.393140768766017e-17
-1.429999999999999e+00 -8.256108849411650e-01  3.393140768766017e-17
-1.429999999999999e+00 -8.256108849411650e-01  3.393140768766017e-17
-1.429999999999999e+00 -8.256108849411650e-01  3.393140768766017e-17
-1.429999999999999e+00 -8.256108849411650e-01  3.393140768766017e-17
-1.429999999999999e+00 -8.256108849411650e-01  3.393140768766017e-17
-1.429999999999999e+00 -8.256108849411650e-01  3.393140768766017e-17
-1.429999999999999e+00 -8.256108849411650e-01  3.393140768766017e-17
-1.429999999999999e+00 -8.256108849411650e-01  3.393140768766017e-17
-1.429999999999999e+00 -8.256108849411650e-01  3.393140768766017e-17
-1.429999999999999e+00 -8.256108849411650e-01  3.393140768766017e-17
-1.429999999999999e+00 -8.256108849411650e-01  3.393140768766017e-17
-1.429999999999999e+00 -8.256108849411650e-01  3.393140768766017e-17
-1.429999999999999e+00 -8.256108849411650e-01  3.393140768766017e-17
-1.429999999999999e+00 -8.256108849411650e-01  3.393140768766017e-17
-1.429999999999999e+00 -8.256108849411650e-01  3.393140768766017e-17
-1.429999999999999e+00 -8.256108849411650e-01  3.393140768766017e-17
-1.429999999999999e+00 -8.256108849411650e-01  3.393140768766017e-17
-1.429999999999999e+00 -8.256108849411650e-01  3.393140768766017e-17
-1.429999999999999e+00 -8.256108849411650e-01  3.393140768766017e-17
-1.429999999999999e+00 -8.256108849411650e-01  3.393140768766017e-17
-1.429999999999999e+00 -8.256108849411650e-01  3.393140768766017e-17
-1.429999999999999e+00 -8.256108849411650e-01  3.393140768766017e-17
-1.429999999999999e+00 -8.256108849411650e-01  3.393140768766017e-17
-1.429999999999999e+00 -8.256108849411650e-01  3.393140768766017e-17
-1.429999999999999e+00 -8.256108849411650e-01  3.393140768766017e-17
-1.429999999999999e+00 -8.256108849411650e-01  3.393140768766017e-17
-1.429999999999999e+00 -8.256108849411650e-01  3.393140768766017e-17
-1.429999999999999e+00 -8.256108849411650e-01  3.393140768766017e-17
-1.429999999999999e+00 -8.256108849411650e-01  3.393140768766017e-17
-1.429999999999999e+00 -8.256108849411650e-01  3.393140768766017e-17
-1.429999999999999e+00 -8.256108849411650e-01  3.393140768766017e-17
-1.429999999999999e+00 -8.256108849411650e-01  3.393140768766017e-17
-1.429999999999999e+00 -8.256108849411650e-01  3.393140768766017e-17
-1.429999999999999e+00 -8.256108849411650e-01  3.393140768766017e-17
-1.429999999999999e+00 -8.256108849411650e-01  3.393140768766017e-17
-1.429999999999999e+00 -8.256108849411650e-01  3.393140768766017e-17
-1.429999999999999e+00 -8.256108849411650e-01  3.393140768766017e-17
-1.429999999999999e+00 -8.256108849411650e-01  3.393140768766017e-17
-1.429999999999999e+00 -8.256108849411650e-01  3.393140768766017e-17
-1.429999999999999e+00 -8.256108849411650e-01  3.393140768766017e-17
-1.429999999999999e+00 -8.256108849411650e-01  3.393140768766017e-17
-1.429999999999999e+00 -8.256108849411650e-01  3.393140768766017e-17
-1.429999999999999e+00 -8.256108849411650e-01  3.393140768766017e-17
-1.429999999999999e+00 -8.256108849411650e-01  3.393140768766017e-17
-1.429999999999999e+00 -8.256108849411650e-01  3.393140768766017e-17
-1.429999999999999e+00 -8.256108849411650e-01  3.393140768766017e-17
-1.429999999999999e+00 -8.256108849411650e-01  3.393140768766017e-17
-1.429999999999999e+00 -8.256108849411650e-01  3.393140768766017e-17
-1.429999999999999e+00 -8.256108849411650e-01  3.393140768766017e-17
-1.429999999999999e+00 -8.256108849411650e-01  3.393140768766017e-17
-1.429999999999999e+00 -8.256108849411650e-01  3.393140768766017e-17
-1.429999999999999e+00 -8.256108849411650e-01  3.393140768766017e-17
-1.429999999999999e+00 -8.256108849411650e-01  3.393140768766017e-17
-1.429999999999999e+00 -8.256108849411650e-01  3.393140768766017e-17
-1.429999999999999e+00 -8.256108849411650e-01  3.393140768766017e-17
-1.429999999999999e+00 -8.256108849411650e-01  3.393140768766017e-17
-1.429999999999999e+00 -8.256108849411650e-01  3.393140768766017e-17
-1.429999999999999e+00 -8.256108849411650e-01  3.393140768766017e-17
-1.429999999999999e+00 -8.256108849411650e-01  3.393140768766017e-17
-1.429999999999999e+00 -8.256108849411650e-01  3.393140768766017e-17
-1.429999999999999e+00 -8.256108849411650e-01  3.393140768766017e-17
-1.429999999999999e+00 -8.256108849411650e-01  3.393140768766017e-17
-1.429999999999999e+00 -8.256108849411650e-01  3.393140768766017e-17
-1.429999999999999e+00 -8.256108849411650e-01  3.393140768766017e-17
-1.429999999999999e+00 -8.256108849411650e-01  3.393140768766017e-17
-1.429999999999999e+00 -8.256108849411650e-01  3.393140768766017e-17
-1.429999999999999e+00 -8.256108849411650e-01  3.393140768766017e-17
-1.429999999999999e+00 -8.256108849411650e-01  3.393140768766017e-17
-1.429999999999999e+00 -8.256108849411650e-01  3.393140768766017e-17
 1.429999999999999e+00  8.256108849411650e-01 -3.393140768766017e-17
-1.429999999999999e+00 -8.256108849411650e-01  3.393140768766017e-17
 1.429999999999999e+00  8.256108849411650e-01 -3.393140768766017e-17
 1.429999999999999e+00  8.256108849411650e-01 -3.393140768766017e-17
 1.429999999999999e+00  8.256108849411650e-01 -3.393140768766017e-17
 1.429999999999999e+00  8.256108849411650e-01 -3.393140768766017e-17
 1.429999999999999e+00  8.256108849411650e-01 -3.393140768766017e-17
 1.429999999999999e+00  8.256108849411650e-01 -3.393140768766017e-17
 1.429999999999999e+00  8.256108849411650e-01 -3.393140768766017e-17
 1.429999999999999e+00  8.256108849411650e-01 -3.393140768766017e-17
 1.429999999999999e+00  8.256108849411650e-01 -3.393140768766017e-17
 1.429999999999999e+00  8.256108849411650e-01 -3.393140768766017e-17
 1.429999999999999e+00  8.256108849411650e-01 -3.393140768766017e-17
 1.429999999999999e+00  8.256108849411650e-01 -3.393140768766017e-17
 1.429999999999999e+00  8.256108849411650e-01 -3.393140768766017e-17
 1.429999999999999e+00  8.256108849411650e-01 -3.393140768766017e-17
 1.429999999999999e+00  8.256108849411650e-01 -3.393140768766017e-17
 1.429999999999999e+00  8.256108849411650e-01 -3.393140768766017e-17
 1.429999999999999e+00  8.256108849411650e-01 -3.393140768766017e-17
 1.429999999999999e+00  8.256108849411650e-01 -3.393140768766017e-17
 1.429999999999999e+00  8.256108849411650e-01 -3.393140768766017e-17
 1.429999999999999e+00  8.256108849411650e-01 -3.393140768766017e-17
 1.429999999999999e+00  8.256108849411650e-01 -3.393140768766017e-17
 1.429999999999999e+00  8.256108849411650e-01 -3.393140768766017e-17
 1.429999999999999e+00  8.256108849411650e-01 -3.393140768766017e-17
 1.429999999999999e+00  8.256108849411650e-01 -3.393140768766017e-17
 1.429999999999999e+00  8.256108849411650e-01 -3.393140768766017e-17
 1.429999999999999e+00  8.256108849411650e-01 -3.393140768766017e-17
 1.429999999999999e+00  8.256108849411650e-01 -3.393140768766017e-17
 1.429999999999999e+00  8.256108849411650e-01 -3.393140768766017e-17
 1.429999999999999e+00  8.256108849411650e-01 -3.393140768766017e-17
 1.429999999999999e+00  8.256108849411650e-01 -3.393140768766017e-17
 1.429999999999999e+00  8.256108849411650e-01 -3.393140768766017e-17
 1.429999999999999e+00  8.256108849411650e-01 -3.393140768766017e-17
 1.429999999999999e+00  8.256108849411650e-01 -3.393140768766017e-17
 1.429999999999999e+00  8.256108849411650e-01 -3.393140768766017e-17
 1.429999999999999e+00  8.256108849411650e-01 -3.393140768766017e-17
 1.429999999999999e+00  8.256108849411650e-01 -3.393140768766017e-17
 1.429999999999999e+00  8.256108849411650e-01 -3.393140768766017e-17
 1.429999999999999e+00  8.256108849411650e-01 -3.393140768766017e-17
 1.429999999999999e+00  8.256108849411650e-01 -3.393140768766017e-17
 1.429999999999999e+00  8.256108849411650e-01 -3.393140768766017e-17
 1.429999999999999e+00  8.256108849411650e-01 -3.393140768766017e-17
 1.429999999999999e+00  8.256108849411650e-01 -3.393140768766017e-17
 1.429999999999999e+00  8.256108849411650e-01 -3.393140768766017e-17
 1.429999999999999e+00  8.256108849411650e-01 -3.393140768766017e-17
 1.429999999999999e+00  8.256108849411650e-01 -3.393140768766017e-17
 1.429999999999999e+00  8.256108849411650e-01 -3.393140768766017e-17
 1.429999999999999e+00  8.256108849411650e-01 -3.393140768766017e-17
 1.429999999999999e+00  8.256108849411650e-01 -3.393140768766017e-17
 1.429999999999999e+00  8.256108849411650e-01 -3.393140768766017e-17
 1.429999999999999e+00  8.256108849411650e-01 -3.393140768766017e-17
 1.429999999999999e+00  8.256108849411650e-01 -3.393140768766017e-17
 1.429999999999999e+00  8.256108849411650e-01 -3.393140768766017e-17
 1.429999999999999e+00  8.256108849411650e-01 -3.393140768766017e-17
 1.429999999999999e+00  8.256108849411650e-01 -3.393140768766017e-17
 1.429999999999999e+00  8.256108849411650e-01 -3.393140768766017e-17
 1.429999999999999e+00  8.256108849411650e-01 -3.393140768766017e-17
 1.429999999999999e+00  8.256108849411650e-01 -3.393140768766017e-17
 1.429999999999999e+00  8.256108849411650e-01 -3.393140768766017e-17
 1.429999999999999e+00  8.256108849411650e-01 -3.393140768766017e-17
 1.429999999999999e+00  8.256108849411650e-01 -3.393140768766017e-17
 1.429999999999999e+00  8.256108849411650e-01 -3.393140768766017e-17
 1.429999999999999e+00  8.256108849411650e-01 -3.393140768766017e-17
 1.429999999999999e+00  8.256108849411650e-01 -3.393140768766017e-17
 1.429999999999999e+00  8.256108849411650e-01 -3.393140768766017e-17
 1.429999999999999e+00  8.256108849411650e-01 -3.393140768766017e-17
 1.429999999999999e+00  8.256108849411650e-01 -3.393140768766017e-17
 1.429999999999999e+00  8.256108849411650e-01 -3.393140768766017e-17
 1.429999999999999e+00  8.256108849411650e-01 -3.393140768766017e-17
 1.429999999999999e+00  8.256108849411650e-01 -3.393140768766017e-17
 1.429999999999999e+00  8.256108849411650e-01 -3.393140768766017e-17
 1.429999999999999e+00  8.256108849411650e-01 -3.393140768766017e-17
 1.429999999999999e+00  8.256108849411650e-01 -3.393140768766017e-17
 1.429999999999999e+00  8.256108849411650e-01 -3.393140768766017e-17
 1.429999999999999e+00  8.256108849411650e-01 -3.393140768766017e-17
 1.429999999999999e+00  8.256108849411650e-01 -3.393140768766017e-17
 1.429999999999999e+00  8.256108849411650e-01 -3.393140768766017e-17
 1.429999999999999e+00  8.256108849411650e-01 -3.393140768766017e-17
 1.429999999999999e+00  8.256108849411650e-01 -3.393140768766017e-17
 1.429999999999999e+00  8.256108849411650e-01 -3.393140768766017e-17
 1.429999999999999e+00  8.256108849411650e-01 -3.393140768766017e-17
 1.429999999999999e+00  8.256108849411650e-01 -3.393140768766017e-17
 1.429999999999999e+00  8.256108849411650e-01 -3.393140768766017e-17
 1.429999999999999e+00  8.256108849411650e-01 -3.393140768766017e-17
 1.429999999999999e+00  8.256108849411650e-01 -3.393140768766017e-17
 1.429999999999999e+00  8.256108849411650e-01 -3.393140768766017e-17
 1.429999999999999e+00  8.256108849411650e-01 -3.393140768766017e-17
 1.429999999999999e+00  8.256108849411650e-01 -3.393140768766017e-17
 1.429999999999999e+00  8.256108849411650e-01 -3.393140768766017e-17
 1.429999999999999e+00  8.256108849411650e-01 -3.393140768766017e-17
 1.429999999999999e+00  8.256108849411650e-01 -3.393140768766017e-17
 1.429999999999999e+00  8.256108849411650e-01 -3.393140768766017e-17
 1.429999999999999e+00  8.256108849411650e-01 -3.393140768766017e-17
 1.429999999999999e+00  8.256108849411650e-01 -3.393140768766017e-17
 1.429999999999999e+00  8.256108849411650e-01 -3.393140768766017e-17
 1.429999999999999e+00  8.256108849411650e-01 -3.393140768766017e-17
 1.429999999999999e+00  8.256108849411650e-01 -3.393140768766017e-17
 1.429999999999999e+00  8.256108849411650e-01 -3.393140768766017e-17
 1.429999999999999e+00  8.256108849411650e-01 -3.393140768766017e-17
 1.429999999999999e+00  8.256108849411650e-01 -3.393140768766017e-17
 1.429999999999999e+00  8.256108849411650e-01 -3.393140768766017e-17
 1.429999999999999e+00  8.256108849411650e-01 -3.393140768766017e-17
 1.429999999999999e+00  8.256108849411650e-01 -3.393140768766017e-17
 1.429999999999999e+00  8.256108849411650e-01 -3.393140768766017e-17
 1.429999999999999e+00  8.256108849411650e-01 -3.393140768766017e-17
 1.429999999999999e+00  8.256108849411650e-01 -3.393140768766017e-17
 1.429999999999999e+00  8.256108849411650e-01 -3.393140768766017e-17
 1.429999999999999e+00  8.256108849411650e-01 -3.393140768766017e-17
 1.429999999999999e+00  8.256108849411650e-01 -3.393140768766017e-17
 1.429999999999999e+00  8.256108849411650e-01 -3.393140768766017e-17
 1.429999999999999e+00  8.256108849411650e-01 -3.393140768766017e-17
 1.429999999999999e+00  8.256108849411650e-01 -3.393140768766017e-17
 1.429999999999999e+00  8.256108849411650e-01 -3.393140768766017e-17
 1.429999999999999e+00  8.256108849411650e-01 -3.393140768766017e-17
 1.429999999999999e+00  8.256108849411650e-01 -3.393140768766017e-17
 1.429999999999999e+00  8.256108849411650e-01 -3.393140768766017e-17
 1.429999999999999e+00  8.256108849411650e-01 -3.393140768766017e-17
 1.429999999999999e+00  8.256108849411650e-01 -3.393140768766017e-17
 1.429999999999999e+00  8.256108849411650e-01 -3.393140768766017e-17
 1.429999999999999e+00  8.256108849411650e-01 -3.393140768766017e-17
 1.429999999999999e+00  8.256108849411650e-01 -3.393140768766017e-17
 1.429999999999999e+00  8.256108849411650e-01 -3.393140768766017e-17
 1.429999999999999e+00  8.256108849411650e-01 -3.393140768766017e-17
 1.429999999999999e+00  8.256108849411650e-01 -3.393140768766017e-17
 1.429999999999999e+00  8.256108849411650e-01 -3.393140768766017e-17
 1.429999999999999e+00  8.256108849411650e-01 -3.393140768766017e-17
 1.429999999999999e+00  8.256108849411650e-01 -3.393140768766017e-17
 1.429999999999999e+00  8.256108849411650e-01 -3.393140768766017e-17
 1.429999999999999e+00  8.256108849411650e-01 -3.393140768766017e-17
 1.429999999999999e+00  8.256108849411650e-01 -3.393140768766017e-17
 1.429999999999999e+00  8.256108849411650e-01 -3.393140768766017e-17
 1.429999999999999e+00  8.256108849411650e-01 -3.393140768766017e-17
 1.429999999999999e+00  8.256108849411650e-01 -3.393140768766017e-17
 1.429999999999999e+00  8.256108849411650e-01 -3.393140768766017e-17
 1.429999999999999e+00  8.256108849411650e-01 -3.393140768766017e-17
 1.429999999999999e+00  8.256108849411650e-01 -3.393140768766017e-17
 1.429999999999999e+00  8.256108849411650e-01 -3.393140768766017e-17
 1.429999999999999e+00  8.256108849411650e-01 -3.393140768766017e-17
 1.429999999999999e+00  8.256108849411650e-01 -3.393140768766017e-17
 1.429999999999999e+00  8.256108849411650e-01 -3.393140768766017e-17
 1.429999999999999e+00  8.256108849411650e-01 -3.393140768766017e-17
 1.429999999999999e+00  8.256108849411650e-01 -3.393140768766017e-17
 1.429999999999999e+00  8.256108849411650e-01 -3.393140768766017e-17
 1.429999999999999e+00  8.256108849411650e-01 -3.393140768766017e-17
 1.429999999999999e+00  8.256108849411650e-01 -3.393140768766017e-17
 1.429999999999999e+00  8.256108849411650e-01 -3.393140768766017e-17
 1.429999999999999e+00  8.256108849411650e-01 -3.393140768766017e-17
 1.429999999999999e+00  8.256108849411650e-01 -3.393140768766017e-17
 1.429999999999999e+00  8.256108849411650e-01 -3.393140768766017e-17
 1.429999999999999e+00  8.256108849411650e-01 -3.393140768766017e-17
 1.429999999999999e+00  8.256108849411650e-01 -3.393140768766017e-17
 1.429999999999999e+00  8.256108849411650e-01 -3.393140768766017e-17
 1.429999999999999e+00  8.256108849411650e-01 -3.393140768766017e-17
 1.429999999999999e+00  8.256108849411650e-01 -3.393140768766017e-17
 1.429999999999999e+00  8.256108849411650e-01 -3.393140768766017e-17
 1.429999999999999e+00  8.256108849411650e-01 -3.393140768766017e-17
 1.429999999999999e+00  8.256108849411650e-01 -3.393140768766017e-17
 1.429999999999999e+00  8.256108849411650e-01 -3.393140768766017e-17
 1.429999999999999e+00  8.256108849411650e-01 -3.393140768766017e-17
 1.429999999999999e+00  8.256108849411650e-01 -3.393140768766017e-17
 1.429999999999999e+00  8.256108849411650e-01 -3.393140768766017e-17
 1.429999999999999e+00  8.256108849411650e-01 -3.393140768766017e-17
 1.429999999999999e+00  8.256108849411650e-01 -3.393140768766017e-17
 1.429999999999999e+00  8.256108849411650e-01 -3.393140768766017e-17
 1.429999999999999e+00  8.256108849411650e-01 -3.393140768766017e-17
 1.429999999999999e+00  8.256108849411650e-01 -3.393140768766017e-17
 1.429999999999999e+00  8.256108849411650e-01 -3.393140768766017e-17
 1.429999999999999e+00  8.256108849411650e-01 -3.393140768766017e-17
 1.429999999999999e+00  8.256108849411650e-01 -3.393140768766017e-17
 1.429999999999999e+00  8.256108849411650e-01 -3.393140768766017e-17
 1.429999999999999e+00  8.256108849411650e-01 -3.393140768766017e-17
 1.429999999999999e+00  8.256108849411650e-01 -3.393140768766017e-17
 1.429999999999999e+00  8.256108849411650e-01 -3.393140768766017e-17
 1.429999999999999e+00  8.256108849411650e-01 -3.393140768766017e-17
 1.429999999999999e+00  8.256108849411650e-01 -3.393140768766017e-17
 1.429999999999999e+00  8.256108849411650e-01 -3.393140768766017e-17
 1.429999999999999e+00  8.256108849411650e-01 -3.393140768766017e-17
 1.429999999999999e+00  8.256108849411650e-01 -3.393140768766017e-17
 1.429999999999999e+00  8.256108849411650e-01 -3.393140768766017e-17
 1.429999999999999e+00  8.256108849411650e-01 -3.393140768766017e-17
 1.429999999999999e+00  8.256108849411650e-01 -3.393140768766017e-17
 1.429999999999999e+00  8.256108849411650e-01 -3.393140768766017e-17
 1.429999999999999e+00  8.256108849411650e-01 -3.393140768766017e-17
 1.429999999999999e+00  8.256108849411650e-01 -3.393140768766017e-17
 1.429999999999999e+00  8.256108849411650e-01 -3.393140768766017e-17
 1.429999999999999e+00  8.256108849411650e-01 -3.393140768766017e-17
 1.429999999999999e+00  8.256108849411650e-01 -3.393140768766017e-17
 1.429999999999999e+00  8.256108849411650e-01 -3.393140768766017e-17
 1.429999999999999e+00  8.256108849411650e-01 -3.393140768766017e-17
 1.429999999999999e+00  8.256108849411650e-01 -3.393140768766017e-17
 1.429999999999999e+00  8.256108849411650e-01 -3.393140768766017e-17
 1.429999999999999e+00  8.256108849411650e-01 -3.393140768766017e-17
 1.429999999999999e+00  8.256108849411650e-01 -3.393140768766017e-17
 1.429999999999999e+00  8.256108849411650e-01 -3.393140768766017e-17
 1.429999999999999e+00  8.256108849411650e-01 -3.393140768766017e-17
 1.429999999999999e+00  8.256108849411650e-01 -3.393140768766017e-17
 1.429999999999999e+00  8.256108849411650e-01 -3.393140768766017e-17
 1.429999999999999e+00  8.256108849411650e-01 -3.393140768766017e-17
 1.429999999999999e+00  8.256108849411650e-01 -3.393140768766017e-17
 1.429999999999999e+00  8.256108849411650e-01 -3.393140768766017e-17
 1.429999999999999e+00  8.256108849411650e-01 -3.393140768766017e-17
 1.429999999999999e+00  8.256108849411650e-01 -3.393140768766017e-17
 1.429999999999999e+00  8.256108849411650e-01 -3.393140768766017e-17
 1.429999999999999e+00  8.256108849411650e-01 -3.393140768766017e-17
 1.429999999999999e+00  8.256108849411650e-01 -3.393140768766017e-17
 1.429999999999999e+00  8.256108849411650e-01 -3.393140768766017e-17
 1.429999999999999e+00  8.256108849411650e-01 -3.393140768766017e-17
 1.429999999999999e+00  8.256108849411650e-01 -3.393140768766017e-17
 1.429999999999999e+00  8.256108849411650e-01 -3.393140768766017e-17
 1.429999999999999e+00  8.256108849411650e-01 -3.393140768766017e-17
 1.429999999999999e+00  8.256108849411650e-01 -3.393140768766017e-17
 1.429999999999999e+00  8.256108849411650e-01 -3.393140768766017e-17
 1.429999999999999e+00  8.256108849411650e-01 -3.393140768766017e-17
 1.429999999999999e+00  8.256108849411650e-01 -3.393140768766017e-17
 1.429999999999999e+00  8.256108849411650e-01 -3.393140768766017e-17
 1.429999999999999e+00  8.256108849411650e-01 -3.393140768766017e-17
 1.429999999999999e+00  8.256108849411650e-01 -3.393140768766017e-17
 1.429999999999999e+00  8.256108849411650e-01 -3.393140768766017e-17
 1.429999999999999e+00  8.256108849411650e-01 -3.393140768766017e-17
 1.429999999999999e+00  8.256108849411650e-01 -3.393140768766017e-17
 1.429999999999999e+00  8.256108849411650e-01 -3.393140768766017e-17
 1.429999999999999e+00  8.256108849411650e-01 -3.393140768766017e-17
 1.429999999999999e+00  8.256108849411650e-01 -3.393140768766017e-17
 1.429999999999999e+00  8.256108849411650e-01 -3.393140768766017e-17
 1.429999999999999e+00  8.256108849411650e-01 -3.393140768766017e-17
 1.429999999999999e+00  8.256108849411650e-01 -3.393140768766017e-17
 1.429999999999999e+00  8.256108849411650e-01 -3.393140768766017e-17
 1.429999999999999e+00  8.256108849411650e-01 -3.393140768766017e-17
 1.429999999999999e+00  8.256108849411650e-01 -3.393140768766017e-17
 1.429999999999999e+00  8.256108849411650e-01 -3.393140768766017e-17
 1.429999999999999e+00  8.256108849411650e-01 -3.393140768766017e-17
 1.429999999999999e+00  8.256108849411650e-01 -3.393140768766017e-17
 1.429999999999999e+00  8.256108849411650e-01 -3.393140768766017e-17
 1.429999999999999e+00  8.256108849411650e-01 -3.393140768766017e-17
 1.429999999999999e+00  8.256108849411650e-01 -3.393140768766017e-17
 1.429999999999999e+00  8.256108849411650e-01 -3.393140768766017e-17
 1.429999999999999e+00  8.256108849411650e-01 -3.393140768766017e-17
 1.429999999999999e+00  8.256108849411650e-01 -3.393140768766017e-17
 1.429999999999999e+00  8.256108849411650e-01 -3.393140768766017e-17
 1.429999999999999e+00  8.256108849411650e-01 -3.393140768766017e-17
 1.429999999999999e+00  8.256108849411650e-01 -3.393140768766017e-17
 1.429999999999999e+00  8.256108849411650e-01 -3.393140768766017e-17
 1.429999999999999e+00  8.256108849411650e-01 -3.393140768766017e-17
 1.429999999999999e+00  8.256108849411650e-01 -3.393140768766017e-17
 1.429999999999999e+00  8.256108849411650e-01 -3.393140768766017e-17
 1.429999999999999e+00  8.256108849411650e-01 -3.393140768766017e-17
 1.429999999999999e+00  8.256108849411650e-01 -3.393140768766017e-17
 1.429999999999999e+00  8.256108849411650e-01 -3.393140768766017e-17
 1.429999999999999e+00  8.256108849411650e-01 -3.393140768766017e-17
 1.429999999999999e+00  8.256108849411650e-01 -3.393140768766017e-17
 1.429999999999999e+00  8.256108849411650e-01 -3.393140768766017e-17
 1.429999999999999e+00  8.256108849411650e-01 -3.393140768766017e-17
 1.429999999999999e+00  8.256108849411650e-01 -3.393140768766017e-17
 1.429999999999999e+00  8.256108849411650e-01 -3.393140768766017e-17
 1.429999999999999e+00  8.256108849411650e-01 -3.393140768766017e-17
 1.429999999999999e+00  8.256108849411650e-01 -3.393140768766017e-17
 1.429999999999999e+00  8.256108849411650e-01 -3.393140768766017e-17
 1.429999999999999e+00  8.256108849411650e-01 -3.393140768766017e-17
 1.429999999999999e+00  8.256108849411650e-01 -3.393140768766017e-17
 1.429999999999999e+00  8.256108849411650e-01 -3.393140768766017e-17
 1.429999999999999e+00  8.256108849411650e-01 -3.393140768766017e-17
 1.429999999999999e+00  8.256108849411650e-01 -3.393140768766017e-17
 1.429999999999999e+00  8.256108849411650e-01 -3.393140768766017e-17
 1.429999999999999e+00  8.256108849411650e-01 -3.393140768766017e-17
 1.429999999999999e+00  8.256108849411650e-01 -3.393140768766017e-17
 1.429999999999999e+00  8.256108849411650e-01 -3.393140768766017e-17
 1.429999999999999e+00  8.256108849411650e-01 -3.393140768766017e-17
 1.429999999999999e+00  8.256108849411650e-01 -3.393140768766017e-17
 1.429999999999999e+00  8.256108849411650e-01 -3.393140768766017e-17
 1.429999999999999e+00  8.256108849411650e-01 -3.393140768766017e-17
 1.429999999999999e+00  8.256108849411650e-01 -3.393140768766017e-17
 1.429999999999999e+00  8.256108849411650e-01 -3.393140768766017e-17
 1.429999999999999e+00  8.256108849411650e-01 -3.393140768766017e-17
 1.429999999999999e+00  8.256108849411650e-01 -3.393140768766017e-17
 1.429999999999999e+00  8.256108849411650e-01 -3.393140768766017e-17
 1.429999999999999e+00  8.256108849411650e-01 -3.393140768766017e-17
 1.429999999999999e+00  8.256108849411650e-01 -3.393140768766017e-17
 1.429999999999999e+00  8.256108849411650e-01 -3.393140768766017e-17
 1.429999999999999e+00  8.256108849411650e-01 -3.393140768766017e-17
 1.429999999999999e+00  8.256108849411650e-01 -3.393140768766017e-17
 1.429999999999999e+00  8.256108849411650e-01 -3.393140768766017e-17
 1.429999999999999e+00  8.256108849411650e-01 -3.393140768766017e-17
 1.429999999999999e+00  8.256108849411650e-01 -3.393140768766017e-17
 1.429999999999999e+00  8.256108849411650e-01 -3.393140768766017e-17
 1.429999999999999e+00  8.256108849411650e-01 -3.393140768766017e-17
 1.429999999999999e+00  8.256108849411650e-01 -3.393140768766017e-17
 1.429999999999999e+00  8.256108849411650e-01 -3.393140768766017e-17
 1.429999999999999e+00  8.256108849411650e-01 -3.393140768766017e-17
 1.429999999999999e+00  8.256108849411650e-01 -3.393140768766017e-17
 1.429999999999999e+00  8.256108849411650e-01 -3.393140768766017e-17
 1.429999999999999e+00  8.256108849411650e-01 -3.393140768766017e-17
 1.429999999999999e+00  8.256108849411650e-01 -3.393140768766017e-17
 1.429999999999999e+00  8.256108849411650e-01 -3.393140768766017e-17
 1.429999999999999e+00  8.256108849411650e-01 -3.393140768766017e-17
 1.429999999999999e+00  8.256108849411650e-01 -3.393140768766017e-17
 1.429999999999999e+00  8.256108849411650e-01 -3.393140768766017e-17
 1.429999999999999e+00  8.256108849411650e-01 -3.393140768766017e-17
 1.429999999999999e+00  8.256108849411650e-01 -3.393140768766017e-17
 1.429999999999999e+00  8.256108849411650e-01 -3.393140768766017e-17
 1.429999999999999e+00  8.256108849411650e-01 -3.393140768766017e-17
 1.429999999999999e+00  8.256108849411650e-01 -3.393140768766017e-17
 1.429999999999999e+00  8.256108849411650e-01 -3.393140768766017e-17
 1.429999999999999e+00  8.256108849411650e-01 -3.393140768766017e-17
 1.429999999999999e+00  8.256108849411650e-01 -3.393140768766017e-17
 1.429999999999999e+00  8.256108849411650e-01 -3.393140768766017e-17
 1.429999999999999e+00  8.256108849411650e-01 -3.393140768766017e-17
 1.429999999999999e+00  8.256108849411650e-01 -3.393140768766017e-17
 1.429999999999999e+00  8.256108849411650e-01 -3.393140768766017e-17
 1.429999999999999e+00  8.256108849411650e-01 -3.393140768766017e-17
 1.429999999999999e+00  8.256108849411650e-01 -3.393140768766017e-17
 1.429999999999999e+00  8.256108849411650e-01 -3.393140768766017e-17
 1.429999999999999e+00  8.256108849411650e-01 -3.393140768766017e-17
 1.429999999999999e+00  8.256108849411650e-01 -3.393140768766017e-17
 1.429999999999999e+00  8.256108849411650e-01 -3.393140768766017e-17
 1.429999999999999e+00  8.256108849411650e-01 -3.393140768766017e-17
 1.429999999999999e+00  8.256108849411650e-01 -3.393140768766017e-17
 1.429999999999999e+00  8.256108849411650e-01 -3.393140768766017e-17
 1.429999999999999e+00  8.256108849411650e-01 -3.393140768766017e-17
 1.429999999999999e+00  8.256108849411650e-01 -3.393140768766017e-17
 1.429999999999999e+00  8.256108849411650e-01 -3.393140768766017e-17
 1.429999999999999e+00  8.256108849411650e-01 -3.393140768766017e-17
 1.429999999999999e+00  8.256108849411650e-01 -3.393140768766017e-17
 1.429999999999999e+00  8.256108849411650e-01 -3.393140768766017e-17
 1.429999999999999e+00  8.256108849411650e-01 -3.393140768766017e-17
 1.429999999999999e+00  8.256108849411650e-01 -3.393140768766017e-17
 1.429999999999999e+00  8.256108849411650e-01 -3.393140768766017e-17
 1.429999999999999e+00  8.256108849411650e-01 -3.393140768766017e-17
 1.429999999999999e+00  8.256108849411650e-01 -3.393140768766017e-17
 1.429999999999999e+00  8.256108849411650e-01 -3.393140768766017e-17
 1.429999999999999e+00  8.256108849411650e-01 -3.393140768766017e-17
 1.429999999999999e+00  8.256108849411650e-01 -3.393140768766017e-17
 1.429999999999999e+00  8.256108849411650e-01 -3.393140768766017e-17
 1.429999999999999e+00  8.256108849411650e-01 -3.393140768766017e-17
 1.429999999999999e+00  8.256108849411650e-01 -3.393140768766017e-17
 1.429999999999999e+00  8.256108849411650e-01 -3.393140768766017e-17
 1.429999999999999e+00  8.256108849411650e-01 -3.393140768766017e-17
 1.429999999999999e+00  8.256108849411650e-01 -3.393140768766017e-17
 1.429999999999999e+00  8.256108849411650e-01 -3.393140768766017e-17
 1.429999999999999e+00  8.256108849411650e-01 -3.393140768766017e-17
 1.429999999999999e+00  8.256108849411650e-01 -3.393140768766017e-17
 1.429999999999999e+00  8.256108849411650e-01 -3.393140768766017e-17
 1.429999999999999e+00  8.256108849411650e-01 -3.393140768766017e-17
 1.429999999999999e+00  8.256108849411650e-01 -3.393140768766017e-17
 1.429999999999999e+00  8.256108849411650e-01 -3.393140768766017e-17
 1.429999999999999e+00  8.256108849411650e-01 -3.393140768766017e-17
 1.429999999999999e+00  8.256108849411650e-01 -3.393140768766017e-17
 1.429999999999999e+00  8.256108849411650e-01 -3.393140768766017e-17
 1.429999999999999e+00  8.256108849411650e-01 -3.393140768766017e-17
 1.429999999999999e+00  8.256108849411650e-01 -3.393140768766017e-17
 1.429999999999999e+00  8.256108849411650e-01 -3.393140768766017e-17
 1.429999999999999e+00  8.256108849411650e-01 -3.393140768766017e-17
 1.429999999999999e+00  8.256108849411650e-01 -3.393140768766017e-17
 1.429999999999999e+00  8.256108849411650e-01 -3.393140768766017e-17
 1.429999999999999e+00  8.256108849411650e-01 -3.393140768766017e-17
 1.429999999999999e+00  8.256108849411650e-01 -3.393140768766017e-17
 1.429999999999999e+00  8.256108849411650e-01 -3.393140768766017e-17
 1.429999999999999e+00  8.256108849411650e-01 -3.393140768766017e-17
 1.429999999999999e+00  8.256108849411650e-01 -3.393140768766017e-17
 1.429999999999999e+00  8.256108849411650e-01 -3.393140768766017e-17
 1.429999999999999e+00  8.256108849411650e-01 -3.393140768766017e-17
 1.429999999999999e+00  8.256108849411650e-01 -3.393140768766017e-17
 1.429999999999999e+00  8.256108849411650e-01 -3.393140768766017e-17
 1.429999999999999e+00  8.256108849411650e-01 -3.393140768766017e-17
 1.429999999999999e+00  8.256108849411650e-01 -3.393140768766017e-17
 1.429999999999999e+00  8.256108849411650e-01 -3.393140768766017e-17
 1.429999999999999e+00  8.256108849411650e-01 -3.393140768766017e-17
 1.429999999999999e+00  8.256108849411650e-01 -3.393140768766017e-17
 1.429999999999999e+00  8.256108849411650e-01 -3.393140768766017e-17
 1.429999999999999e+00  8.256108849411650e-01 -3.393140768766017e-17
 1.429999999999999e+00  8.256108849411650e-01 -3.393140768766017e-17
 1.429999999999999e+00  8.256108849411650e-01 -3.393140768766017e-17
 1.429999999999999e+00  8.256108849411650e-01 -3.393140768766017e-17
 1.429999999999999e+00  8.256108849411650e-01 -3.393140768766017e-17
 1.429999999999999e+00  8.256108849411650e-01 -3.393140768766017e-17
 1.429999999999999e+00  8.256108849411650e-01 -3.393140768766017e-17
 1.429999999999999e+00  8.256108849411650e-01 -3.393140768766017e-17
 1.429999999999999e+00  8.256108849411650e-01 -3.393140768766017e-17
 1.429999999999999e+00  8.256108849411650e-01 -3.393140768766017e-17
 1.429999999999999e+00  8.256108849411650e-01 -3.393140768766017e-17
 1.429999999999999e+00  8.256108849411650e-01 -3.393140768766017e-17
 1.429999999999999e+00  8.256108849411650e-01 -3.393140768766017e-17
 1.429999999999999e+00  8.256108849411650e-01 -3.393140768766017e-17
 1.429999999999999e+00  8.256108849411650e-01 -3.393140768766017e-17
 1.429999999999999e+00  8.256108849411650e-01 -3.393140768766017e-17
 1.429999999999999e+00  8.256108849411650e-01 -3.393140768766017e-17
 1.429999999999999e+00  8.256108849411650e-01 -3.393140768766017e-17
 1.429999999999999e+00  8.256108849411650e-01 -3.393140768766017e-17
 1.429999999999999e+00  8.256108849411650e-01 -3.393140768766017e-17
-1.429999999999999e+00 -8.256108849411650e-01  3.393140768766017e-17
 1.429999999999999e+00  8.256108849411650e-01 -3.393140768766017e-17
 1.429999999999999e+00  8.256108849411650e-01 -3.393140768766017e-17
 1.429999999999999e+00  8.256108849411650e-01 -3.393140768766017e-17
 1.429999999999999e+00  8.256108849411650e-01 -3.393140768766017e-17
 1.429999999999999e+00  8.256108849411650e-01 -3.393140768766017e-17
 1.429999999999999e+00  8.256108849411650e-01 -3.393140768766017e-17
 1.429999999999999e+00  8.256108849411650e-01 -3.393140768766017e-17
 1.429999999999999e+00  8.256108849411650e-01 -3.393140768766017e-17
 1.429999999999999e+00  8.256108849411650e-01 -3.393140768766017e-17
 1.429999999999999e+00  8.256108849411650e-01 -3.393140768766017e-17
 1.429999999999999e+00  8.256108849411650e-01 -3.393140768766017e-17
 1.429999999999999e+00  8.256108849411650e-01 -3.393140768766017e-17
 1.429999999999999e+00  8.256108849411650e-01 -3.393140768766017e-17
 1.429999999999999e+00  8.256108849411650e-01 -3.393140768766017e-17
 1.429999999999999e+00  8.256108849411650e-01 -3.393140768766017e-17
 1.429999999999999e+00  8.256108849411650e-01 -3.393140768766017e-17
 1.429999999999999e+00  8.256108849411650e-01 -3.393140768766017e-17
 1.429999999999999e+00  8.256108849411650e-01 -3.393140768766017e-17
 1.429999999999999e+00  8.256108849411650e-01 -3.393140768766017e-17
 1.429999999999999e+00  8.256108849411650e-01 -3.393140768766017e-17
 1.429999999999999e+00  8.256108849411650e-01 -3.393140768766017e-17
 1.429999999999999e+00  8.256108849411650e-01 -3.393140768766017e-17
 1.429999999999999e+00  8.256108849411650e-01 -3.393140768766017e-17
 1.429999999999999e+00  8.256108849411650e-01 -3.393140768766017e-17
 1.429999999999999e+00  8.256108849411650e-01 -3.393140768766017e-17
 1.429999999999999e+00  8.256108849411650e-01 -3.393140768766017e-17
 1.429999999999999e+00  8.256108849411650e-01 -3.393140768766017e-17
 1.429999999999999e+00  8.256108849411650e-01 -3.393140768766017e-17
 1.429999999999999e+00  8.256108849411650e-01 -3.393140768766017e-17
 1.429999999999999e+00  8.256108849411650e-01 -3.393140768766017e-17
 1.429999999999999e+00  8.256108849411650e-01 -3.393140768766017e-17
 1.429999999999999e+00  8.256108849411650e-01 -3.393140768766017e-17
 1.429999999999999e+00  8.256108849411650e-01 -3.393140768766017e-17
 1.429999999999999e+00  8.256108849411650e-01 -3.393140768766017e-17
 1.429999999999999e+00  8.256108849411650e-01 -3.393140768766017e-17
 1.429999999999999e+00  8.256108849411650e-01 -3.393140768766017e-17
 1.429999999999999e+00  8.256108849411650e-01 -3.393140768766017e-17
 1.429999999999999e+00  8.256108849411650e-01 -3.393140768766017e-17
 1.429999999999999e+00  8.256108849411650e-01 -3.393140768766017e-17
 1.429999999999999e+00  8.256108849411650e-01 -3.393140768766017e-17
 1.429999999999999e+00  8.256108849411650e-01 -3.393140768766017e-17
 1.429999999999999e+00  8.256108849411650e-01 -3.393140768766017e-17
 1.429999999999999e+00  8.256108849411650e-01 -3.393140768766017e-17
 1.429999999999999e+00  8.256108849411650e-01 -3.393140768766017e-17
 1.429999999999999e+00  8.256108849411650e-01 -3.393140768766017e-17
 1.429999999999999e+00  8.256108849411650e-01 -3.393140768766017e-17
 1.429999999999999e+00  8.256108849411650e-01 -3.393140768766017e-17
 1.429999999999999e+00  8.256108849411650e-01 -3.393140768766017e-17
 1.429999999999999e+00  8.256108849411650e-01 -3.393140768766017e-17
 1.429999999999999e+00  8.256108849411650e-01 -3.393140768766017e-17
 1.429999999999999e+00  8.256108849411650e-01 -3.393140768766017e-17
 1.429999999999999e+00  8.256108849411650e-01 -3.393140768766017e-17
 1.429999999999999e+00  8.256108849411650e-01 -3.393140768766017e-17
 1.429999999999999e+00  8.256108849411650e-01 -3.393140768766017e-17
 1.429999999999999e+00  8.256108849411650e-01 -3.393140768766017e-17
 1.429999999999999e+00  8.256108849411650e-01 -3.393140768766017e-17
 1.429999999999999e+00  8.256108849411650e-01 -3.393140768766017e-17
 1.429999999999999e+00  8.256108849411650e-01 -3.393140768766017e-17
 1.429999999999999e+00  8.256108849411650e-01 -3.393140768766017e-17
 1.429999999999999e+00  8.256108849411650e-01 -3.393140768766017e-17
 1.429999999999999e+00  8.256108849411650e-01 -3.393140768766017e-17
 1.429999999999999e+00  8.256108849411650e-01 -3.393140768766017e-17
 1.429999999999999e+00  8.256108849411650e-01 -3.393140768766017e-17
 1.429999999999999e+00  8.256108849411650e-01 -3.393140768766017e-17
 1.429999999999999e+00  8.256108849411650e-01 -3.393140768766017e-17
 1.429999999999999e+00  8.256108849411650e-01 -3.393140768766017e-17
 1.429999999999999e+00  8.256108849411650e-01 -3.393140768766017e-17
 1.429999999999999e+00  8.256108849411650e-01 -3.393140768766017e-17
 1.429999999999999e+00  8.256108849411650e-01 -3.393140768766017e-17
 1.429999999999999e+00  8.256108849411650e-01 -3.393140768766017e-17
 1.429999999999999e+00  8.256108849411650e-01 -3.393140768766017e-17
 1.429999999999999e+00  8.256108849411650e-01 -3.393140768766017e-17
 1.429999999999999e+00  8.256108849411650e-01 -3.393140768766017e-17
 1.429999999999999e+00  8.256108849411650e-01 -3.393140768766017e-17
 1.429999999999999e+00  8.256108849411650e-01 -3.393140768766017e-17
 1.429999999999999e+00  8.256108849411650e-01 -3.393140768766017e-17
 1.429999999999999e+00  8.256108849411650e-01 -3.393140768766017e-17
 1.429999999999999e+00  8.256108849411650e-01 -3.393140768766017e-17
 1.429999999999999e+00  8.256108849411650e-01 -3.393140768766017e-17
 1.429999999999999e+00  8.256108849411650e-01 -3.393140768766017e-17
 1.429999999999999e+00  8.256108849411650e-01 -3.393140768766017e-17
 1.429999999999999e+00  8.256108849411650e-01 -3.393140768766017e-17
 1.429999999999999e+00  8.256108849411650e-01 -3.393140768766017e-17
 1.429999999999999e+00  8.256108849411650e-01 -3.393140768766017e-17
 1.429999999999999e+00  8.256108849411650e-01 -3.393140768766017e-17
 1.429999999999999e+00  8.256108849411650e-01 -3.393140768766017e-17
 1.429999999999999e+00  8.256108849411650e-01 -3.393140768766017e-17
 1.429999999999999e+00  8.256108849411650e-01 -3.393140768766017e-17
 1.429999999999999e+00  8.256108849411650e-01 -3.393140768766017e-17
 1.429999999999999e+00  8.256108849411650e-01 -3.393140768766017e-17
 1.429999999999999e+00  8.256108849411650e-01 -3.393140768766017e-17
 1.429999999999999e+00  8.256108849411650e-01 -3.393140768766017e-17
 1.429999999999999e+00  8.256108849411650e-01 -3.393140768766017e-17
 1.429999999999999e+00  8.256108849411650e-01 -3.393140768766017e-17
 1.429999999999999e+00  8.256108849411650e-01 -3.393140768766017e-17
 1.429999999999999e+00  8.256108849411650e-01 -3.393140768766017e-17
 1.429999999999999e+00  8.256108849411650e-01 -3.393140768766017e-17
 1.429999999999999e+00  8.256108849411650e-01 -3.393140768766017e-17
 1.429999999999999e+00  8.256108849411650e-01 -3.393140768766017e-17
 1.429999999999999e+00  8.256108849411650e-01 -3.393140768766017e-17
 1.429999999999999e+00  8.256108849411650e-01 -3.393140768766017e-17
 1.429999999999999e+00  8.256108849411650e-01 -3.393140768766017e-17
 1.429999999999999e+00  8.256108849411650e-01 -3.393140768766017e-17
 1.429999999999999e+00  8.256108849411650e-01 -3.393140768766017e-17
 1.429999999999999e+00  8.256108849411650e-01 -3.393140768766017e-17
 1.429999999999999e+00  8.256108849411650e-01 -3.393140768766017e-17
 1.429999999999999e+00  8.256108849411650e-01 -3.393140768766017e-17
 1.429999999999999e+00  8.256108849411650e-01 -3.393140768766017e-17
 1.429999999999999e+00  8.256108849411650e-01 -3.393140768766017e-17
 1.429999999999999e+00  8.256108849411650e-01 -3.393140768766017e-17
 1.429999999999999e+00  8.256108849411650e-01 -3.393140768766017e-17
 1.429999999999999e+00  8.256108849411650e-01 -3.393140768766017e-17
 1.429999999999999e+00  8.256108849411650e-01 -3.393140768766017e-17
 1.429999999999999e+00  8.256108849411650e-01 -3.393140768766017e-17
 1.429999999999999e+00  8.256108849411650e-01 -3.393140768766017e-17
 1.429999999999999e+00  8.256108849411650e-01 -3.393140768766017e-17
 1.429999999999999e+00  8.256108849411650e-01 -3.393140768766017e-17
 1.429999999999999e+00  8.256108849411650e-01 -3.393140768766017e-17
 1.429999999999999e+00  8.256108849411650e-01 -3.393140768766017e-17
 1.429999999999999e+00  8.256108849411650e-01 -3.393140768766017e-17
 1.429999999999999e+00  8.256108849411650e-01 -3.393140768766017e-17
 1.429999999999999e+00  8.256108849411650e-01 -3.393140768766017e-17
 1.429999999999999e+00  8.256108849411650e-01 -3.393140768766017e-17
 1.429999999999999e+00  8.256108849411650e-01 -3.393140768766017e-17
 1.429999999999999e+00  8.256108849411650e-01 -3.393140768766017e-17
 1.429999999999999e+00  8.256108849411650e-01 -3.393140768766017e-17
 1.429999999999999e+00  8.256108849411650e-01 -3.393140768766017e-17
 1.429999999999999e+00  8.256108849411650e-01 -3.393140768766017e-17
 1.429999999999999e+00  8.256108849411650e-01 -3.393140768766017e-17
 1.429999999999999e+00  8.256108849411650e-01 -3.393140768766017e-17
 1.429999999999999e+00  8.256108849411650e-01 -3.393140768766017e-17
 1.429999999999999e+00  8.256108849411650e-01 -3.393140768766017e-17
 1.429999999999999e+00  8.256108849411650e-01 -3.393140768766017e-17
 1.429999999999999e+00  8.256108849411650e-01 -3.393140768766017e-17
 1.429999999999999e+00  8.256108849411650e-01 -3.393140768766017e-17
 1.429999999999999e+00  8.256108849411650e-01 -3.393140768766017e-17
 1.429999999999999e+00  8.256108849411650e-01 -3.393140768766017e-17
 1.429999999999999e+00  8.256108849411650e-01 -3.393140768766017e-17
 1.429999999999999e+00  8.256108849411650e-01 -3.393140768766017e-17
 1.429999999999999e+00  8.256108849411650e-01 -3.393140768766017e-17
 1.429999999999999e+00  8.256108849411650e-01 -3.393140768766017e-17
 1.429999999999999e+00  8.256108849411650e-01 -3.393140768766017e-17
 1.429999999999999e+00  8.256108849411650e-01 -3.393140768766017e-17
 1.429999999999999e+00  8.256108849411650e-01 -3.393140768766017e-17
 1.429999999999999e+00  8.256108849411650e-01 -3.393140768766017e-17
 1.429999999999999e+00  8.256108849411650e-01 -3.393140768766017e-17
 1.429999999999999e+00  8.256108849411650e-01 -3.393140768766017e-17
 1.429999999999999e+00  8.256108849411650e-01 -3.393140768766017e-17
 1.429999999999999e+00  8.256108849411650e-01 -3.393140768766017e-17
 1.429999999999999e+00  8.256108849411650e-01 -3.393140768766017e-17
 1.429999999999999e+00  8.256108849411650e-01 -3.393140768766017e-17
 1.429999999999999e+00  8.256108849411650e-01 -3.393140768766017e-17
 1.429999999999999e+00  8.256108849411650e-01 -3.393140768766017e-17
 1.429999999999999e+00  8.256108849411650e-01 -3.393140768766017e-17
 1.429999999999999e+00  8.256108849411650e-01 -3.393140768766017e-17
 1.429999999999999e+00  8.256108849411650e-01 -3.393140768766017e-17
 1.429999999999999e+00  8.256108849411650e-01 -3.393140768766017e-17
 1.429999999999999e+00  8.256108849411650e-01 -3.393140768766017e-17
 1.429999999999999e+00  8.256108849411650e-01 -3.393140768766017e-17
 1.429999999999999e+00  8.256108849411650e-01 -3.393140768766017e-17
 1.429999999999999e+00  8.256108849411650e-01 -3.393140768766017e-17
 1.429999999999999e+00  8.256108849411650e-01 -3.393140768766017e-17
 1.429999999999999e+00  8.256108849411650e-01 -3.393140768766017e-17
 1.429999999999999e+00  8.256108849411650e-01 -3.393140768766017e-17
 1.429999999999999e+00  8.256108849411650e-01 -3.393140768766017e-17
 1.429999999999999e+00  8.256108849411650e-01 -3.393140768766017e-17
 1.429999999999999e+00  8.256108849411650e-01 -3.393140768766017e-17
 1.429999999999999e+00  8.256108849411650e-01 -3.393140768766017e-17
 1.429999999999999e+00  8.256108849411650e-01 -3.393140768766017e-17
 1.429999999999999e+00  8.256108849411650e-01 -3.393140768766017e-17
 1.429999999999999e+00  8.256108849411650e-01 -3.393140768766017e-17
 1.429999999999999e+00  8.256108849411650e-01 -3.393140768766017e-17
 1.429999999999999e+00  8.256108849411650e-01 -3.393140768766017e-17
 1.429999999999999e+00  8.256108849411650e-01 -3.393140768766017e-17
 1.429999999999999e+00  8.256108849411650e-01 -3.393140768766017e-17
 1.429999999999999e+00  8.256108849411650e-01 -3.393140768766017e-17
 1.429999999999999e+00  8.256108849411650e-01 -3.393140768766017e-17
 1.429999999999999e+00  8.256108849411650e-01 -3.393140768766017e-17
 1.429999999999999e+00  8.256108849411650e-01 -3.393140768766017e-17
 1.429999999999999e+00  8.256108849411650e-01 -3.393140768766017e-17
 1.429999999999999e+00  8.256108849411650e-01 -3.393140768766017e-17
 1.429999999999999e+00  8.256108849411650e-01 -3.393140768766017e-17
 1.429999999999999e+00  8.256108849411650e-01 -3.393140768766017e-17
 1.429999999999999e+00  8.256108849411650e-01 -3.393140768766017e-17
 1.429999999999999e+00  8.256108849411650e-01 -3.393140768766017e-17
 1.429999999999999e+00  8.256108849411650e-01 -3.393140768766017e-17
 1.429999999999999e+00  8.256108849411650e-01 -3.393140768766017e-17
 1.429999999999999e+00  8.256108849411650e-01 -3.393140768766017e-17
 1.429999999999999e+00  8.256108849411650e-01 -3.393140768766017e-17
 1.429999999999999e+00  8.256108849411650e-01 -3.393140768766017e-17
 1.429999999999999e+00  8.256108849411650e-01 -3.393140768766017e-17
 1.429999999999999e+00  8.256108849411650e-01 -3.393140768766017e-17
 1.429999999999999e+00  8.256108849411650e-01 -3.393140768766017e-17
 1.429999999999999e+00  8.256108849411650e-01 -3.393140768766017e-17
 1.429999999999999e+00  8.256108849411650e-01 -3.393140768766017e-17
 1.429999999999999e+00  8.256108849411650e-01 -3.393140768766017e-17
 1.429999999999999e+00  8.256108849411650e-01 -3.393140768766017e-17
 1.429999999999999e+00  8.256108849411650e-01 -3.393140768766017e-17
 1.429999999999999e+00  8.256108849411650e-01 -3.393140768766017e-17
 1.429999999999999e+00  8.256108849411650e-01 -3.393140768766017e-17
 1.429999999999999e+00  8.256108849411650e-01 -3.393140768766017e-17
 1.429999999999999e+00  8.256108849411650e-01 -3.393140768766017e-17
 1.429999999999999e+00  8.256108849411650e-01 -3.393140768766017e-17
 1.429999999999999e+00  8.256108849411650e-01 -3.393140768766017e-17
 1.429999999999999e+00  8.256108849411650e-01 -3.393140768766017e-17
 1.429999999999999e+00  8.256108849411650e-01 -3.393140768766017e-17
 1.429999999999999e+00  8.256108849411650e-01 -3.393140768766017e-17
 1.429999999999999e+00  8.256108849411650e-01 -3.393140768766017e-17
 1.429999999999999e+00  8.256108849411650e-01 -3.393140768766017e-17
 1.429999999999999e+00  8.256108849411650e-01 -3.393140768766017e-17
 1.429999999999999e+00  8.256108849411650e-01 -3.393140768766017e-17
 1.429999999999999e+00  8.256108849411650e-01 -3.393140768766017e-17
 1.429999999999999e+00  8.256108849411650e-01 -3.393140768766017e-17
 1.429999999999999e+00  8.256108849411650e-01 -3.393140768766017e-17
 1.429999999999999e+00  8.256108849411650e-01 -3.393140768766017e-17
 1.429999999999999e+00  8.256108849411650e-01 -3.393140768766017e-17
 1.429999999999999e+00  8.256108849411650e-01 -3.393140768766017e-17
 1.429999999999999e+00  8.256108849411650e-01 -3.393140768766017e-17
 1.429999999999999e+00  8.256108849411650e-01 -3.393140768766017e-17
 1.429999999999999e+00  8.256108849411650e-01 -3.393140768766017e-17
 1.429999999999999e+00  8.256108849411650e-01 -3.393140768766017e-17
 1.429999999999999e+00  8.256108849411650e-01 -3.393140768766017e-17
 1.429999999999999e+00  8.256108849411650e-01 -3.393140768766017e-17
 1.429999999999999e+00  8.256108849411650e-01 -3.393140768766017e-17
 1.429999999999999e+00  8.256108849411650e-01 -3.393140768766017e-17
 1.429999999999999e+00  8.256108849411650e-01 -3.393140768766017e-17
 1.429999999999999e+00  8.256108849411650e-01 -3.393140768766017e-17
 1.429999999999999e+00  8.256108849411650e-01 -3.393140768766017e-17
 1.429999999999999e+00  8.256108849411650e-01 -3.393140768766017e-17
 1.429999999999999e+00  8.256108849411650e-01 -3.393140768766017e-17
 1.429999999999999e+00  8.256108849411650e-01 -3.393140768766017e-17
 1.429999999999999e+00  8.256108849411650e-01 -3.393140768766017e-17
 1.429999999999999e+00  8.256108849411650e-01 -3.393140768766017e-17
 1.429999999999999e+00  8.256108849411650e-01 -3.393140768766017e-17
 1.429999999999999e+00  8.256108849411650e-01 -3.393140768766017e-17
 1.429999999999999e+00  8.256108849411650e-01 -3.393140768766017e-17
 1.429999999999999e+00  8.256108849411650e-01 -3.393140768766017e-17
 1.429999999999999e+00  8.256108849411650e-01 -3.393140768766017e-17
 1.429999999999999e+00  8.256108849411650e-01 -3.393140768766017e-17
 1.429999999999999e+00  8.256108849411650e-01 -3.393140768766017e-17
 1.429999999999999e+00  8.256108849411650e-01 -3.393140768766017e-17
 1.429999999999999e+00  8.256108849411650e-01 -3.393140768766017e-17
 1.429999999999999e+00  8.256108849411650e-01 -3.393140768766017e-17
 1.429999999999999e+00  8.256108849411650e-01 -3.393140768766017e-17
 1.429999999999999e+00  8.256108849411650e-01 -3.393140768766017e-17
 1.429999999999999e+00  8.256108849411650e-01 -3.393140768766017e-17
 1.429999999999999e+00  8.256108849411650e-01 -3.393140768766017e-17
 1.429999999999999e+00  8.256108849411650e-01 -3.393140768766017e-17
 1.429999999999999e+00  8.256108849411650e-01 -3.393140768766017e-17
 1.429999999999999e+00  8.256108849411650e-01 -3.393140768766017e-17
 1.429999999999999e+00  8.256108849411650e-01 -3.393140768766017e-17
 1.429999999999999e+00  8.256108849411650e-01 -3.393140768766017e-17
 1.429999999999999e+00  8.256108849411650e-01 -3.393140768766017e-17
 1.429999999999999e+00  8.256108849411650e-01 -3.393140768766017e-17
 1.429999999999999e+00  8.256108849411650e-01 -3.393140768766017e-17
 1.429999999999999e+00  8.256108849411650e-01 -3.393140768766017e-17
 1.429999999999999e+00  8.256108849411650e-01 -3.393140768766017e-17
 1.429999999999999e+00  8.256108849411650e-01 -3.393140768766017e-17
 1.429999999999999e+00  8.256108849411650e-01 -3.393140768766017e-17
 1.429999999999999e+00  8.256108849411650e-01 -3.393140768766017e-17
 1.429999999999999e+00  8.256108849411650e-01 -3.393140768766017e-17
 1.429999999999999e+00  8.256108849411650e-01 -3.393140768766017e-17
 1.429999999999999e+00  8.256108849411650e-01 -3.393140768766017e-17
 1.429999999999999e+00  8.256108849411650e-01 -3.393140768766017e-17
 1.429999999999999e+00  8.256108849411650e-01 -3.393140768766017e-17
 1.429999999999999e+00  8.256108849411650e-01 -3.393140768766017e-17
 1.429999999999999e+00  8.256108849411650e-01 -3.393140768766017e-17
 1.429999999999999e+00  8.256108849411650e-01 -3.393140768766017e-17
 1.429999999999999e+00  8.256108849411650e-01 -3.393140768766017e-17
 1.429999999999999e+00  8.256108849411650e-01 -3.393140768766017e-17
 1.429999999999999e+00  8.256108849411650e-01 -3.393140768766017e-17
 1.429999999999999e+00  8.256108849411650e-01 -3.393140768766017e-17
 1.429999999999999e+00  8.256108849411650e-01 -3.393140768766017e-17
 1.429999999999999e+00  8.256108849411650e-01 -3.393140768766017e-17
 1.429999999999999e+00  8.256108849411650e-01 -3.393140768766017e-17
 1.429999999999999e+00  8.256108849411650e-01 -3.393140768766017e-17
 1.429999999999999e+00  8.256108849411650e-01 -3.393140768766017e-17
 1.429999999999999e+00  8.256108849411650e-01 -3.393140768766017e-17
 1.429999999999999e+00  8.256108849411650e-01 -3.393140768766017e-17
 1.429999999999999e+00  8.256108849411650e-01 -3.393140768766017e-17
 1.429999999999999e+00  8.256108849411650e-01 -3.393140768766017e-17
 1.429999999999999e+00  8.256108849411650e-01 -3.393140768766017e-17
 1.429999999999999e+00  8.256108849411650e-01 -3.393140768766017e-17
 1.429999999999999e+00  8.256108849411650e-01 -3.393140768766017e-17
 1.429999999999999e+00  8.256108849411650e-01 -3.393140768766017e-17
 1.429999999999999e+00  8.256108849411650e-01 -3.393140768766017e-17
 1.429999999999999e+00  8.256108849411650e-01 -3.393140768766017e-17
 1.429999999999999e+00  8.256108849411650e-01 -3.393140768766017e-17
 1.429999999999999e+00  8.256108849411650e-01 -3.393140768766017e-17
 1.429999999999999e+00  8.256108849411650e-01 -3.393140768766017e-17
 1.429999999999999e+00  8.256108849411650e-01 -3.393140768766017e-17
 1.429999999999999e+00  8.256108849411650e-01 -3.393140768766017e-17
 1.429999999999999e+00  8.256108849411650e-01 -3.393140768766017e-17
 1.429999999999999e+00  8.256108849411650e-01 -3.393140768766017e-17
 1.429999999999999e+00  8.256108849411650e-01 -3.393140768766017e-17
 1.429999999999999e+00  8.256108849411650e-01 -3.393140768766017e-17
 1.429999999999999e+00  8.256108849411650e-01 -3.393140768766017e-17
 1.429999999999999e+00  8.256108849411650e-01 -3.393140768766017e-17
 1.429999999999999e+00  8.256108849411650e-01 -3.393140768766017e-17
 1.429999999999999e+00  8.256108849411650e-01 -3.393140768766017e-17
 1.429999999999999e+00  8.256108849411650e-01 -3.393140768766017e-17
 1.429999999999999e+00  8.256108849411650e-01 -3.393140768766017e-17
 1.429999999999999e+00  8.256108849411650e-01 -3.393140768766017e-17
 1.429999999999999e+00  8.256108849411650e-01 -3.393140768766017e-17
 1.429999999999999e+00  8.256108849411650e-01 -3.393140768766017e-17
 1.429999999999999e+00  8.256108849411650e-01 -3.393140768766017e-17
 1.429999999999999e+00  8.256108849411650e-01 -3.393140768766017e-17
 1.429999999999999e+00  8.256108849411650e-01 -3.393140768766017e-17
 1.429999999999999e+00  8.256108849411650e-01 -3.393140768766017e-17
 1.429999999999999e+00  8.256108849411650e-01 -3.393140768766017e-17
 1.429999999999999e+00  8.256108849411650e-01 -3.393140768766017e-17
 1.429999999999999e+00  8.256108849411650e-01 -3.393140768766017e-17
 1.429999999999999e+00  8.256108849411650e-01 -3.393140768766017e-17
 1.429999999999999e+00  8.256108849411650e-01 -3.393140768766017e-17
 1.429999999999999e+00  8.256108849411650e-01 -3.393140768766017e-17
 1.429999999999999e+00  8.256108849411650e-01 -3.393140768766017e-17
 1.429999999999999e+00  8.256108849411650e-01 -3.393140768766017e-17
 1.429999999999999e+00  8.256108849411650e-01 -3.393140768766017e-17
 1.429999999999999e+00  8.256108849411650e-01 -3.393140768766017e-17
 1.429999999999999e+00  8.256108849411650e-01 -3.393140768766017e-17
 1.429999999999999e+00  8.256108849411650e-01 -3.393140768766017e-17
 1.429999999999999e+00  8.256108849411650e-01 -3.393140768766017e-17
 1.429999999999999e+00  8.256108849411650e-01 -3.393140768766017e-17
 1.429999999999999e+00  8.256108849411650e-01 -3.393140768766017e-17
 1.429999999999999e+00  8.256108849411650e-01 -3.393140768766017e-17
 1.429999999999999e+00  8.256108849411650e-01 -3.393140768766017e-17
 1.429999999999999e+00  8.256108849411650e-01 -3.393140768766017e-17
 1.429999999999999e+00  8.256108849411650e-01 -3.393140768766017e-17
 1.429999999999999e+00  8.256108849411650e-01 -3.393140768766017e-17
 1.429999999999999e+00  8.256108849411650e-01 -3.393140768766017e-17
 1.429999999999999e+00  8.256108849411650e-01 -3.393140768766017e-17
 1.429999999999999e+00  8.256108849411650e-01 -3.393140768766017e-17
 1.429999999999999e+00  8.256108849411650e-01 -3.393140768766017e-17
 1.429999999999999e+00  8.256108849411650e-01 -3.393140768766017e-17
 1.429999999999999e+00  8.256108849411650e-01 -3.393140768766017e-17
 1.429999999999999e+00  8.256108849411650e-01 -3.393140768766017e-17
 1.429999999999999e+00  8.256108849411650e-01 -3.393140768766017e-17
 1.429999999999999e+00  8.256108849411650e-01 -3.393140768766017e-17
 1.429999999999999e+00  8.256108849411650e-01 -3.393140768766017e-17
 1.429999999999999e+00  8.256108849411650e-01 -3.393140768766017e-17
 1.429999999999999e+00  8.256108849411650e-01 -3.393140768766017e-17
 1.429999999999999e+00  8.256108849411650e-01 -3.393140768766017e-17
 1.429999999999999e+00  8.256108849411650e-01 -3.393140768766017e-17
 1.429999999999999e+00  8.256108849411650e-01 -3.393140768766017e-17
 1.429999999999999e+00  8.256108849411650e-01 -3.393140768766017e-17
 1.429999999999999e+00  8.256108849411650e-01 -3.393140768766017e-17
 1.429999999999999e+00  8.256108849411650e-01 -3.393140768766017e-17
 1.429999999999999e+00  8.256108849411650e-01 -3.393140768766017e-17
 1.429999999999999e+00  8.256108849411650e-01 -3.393140768766017e-17
 1.429999999999999e+00  8.256108849411650e-01 -3.393140768766017e-17
 1.429999999999999e+00  8.256108849411650e-01 -3.393140768766017e-17
 1.429999999999999e+00  8.256108849411650e-01 -3.393140768766017e-17
 1.429999999999999e+00  8.256108849411650e-01 -3.393140768766017e-17
 1.429999999999999e+00  8.256108849411650e-01 -3.393140768766017e-17
 1.429999999999999e+00  8.256108849411650e-01 -3.393140768766017e-17
 1.429999999999999e+00  8.256108849411650e-01 -3.393140768766017e-17
 1.429999999999999e+00  8.256108849411650e-01 -3.393140768766017e-17
 1.429999999999999e+00  8.256108849411650e-01 -3.393140768766017e-17
 1.429999999999999e+00  8.256108849411650e-01 -3.393140768766017e-17
 1.429999999999999e+00  8.256108849411650e-01 -3.393140768766017e-17
 1.429999999999999e+00  8.256108849411650e-01 -3.393140768766017e-17
 1.429999999999999e+00  8.256108849411650e-01 -3.393140768766017e-17
 1.429999999999999e+00  8.256108849411650e-01 -3.393140768766017e-17
 1.429999999999999e+00  8.256108849411650e-01 -3.393140768766017e-17
 1.429999999999999e+00  8.256108849411650e-01 -3.393140768766017e-17
 1.429999999999999e+00  8.256108849411650e-01 -3.393140768766017e-17
 1.429999999999999e+00  8.256108849411650e-01 -3.393140768766017e-17
 1.429999999999999e+00  8.256108849411650e-01 -3.393140768766017e-17
 1.429999999999999e+00  8.256108849411650e-01 -3.393140768766017e-17
 1.429999999999999e+00  8.256108849411650e-01 -3.393140768766017e-17
 1.429999999999999e+00  8.256108849411650e-01 -3.393140768766017e-17
 1.429999999999999e+00  8.256108849411650e-01 -3.393140768766017e-17
 1.429999999999999e+00  8.256108849411650e-01 -3.393140768766017e-17
 1.429999999999999e+00  8.256108849411650e-01 -3.393140768766017e-17
 1.429999999999999e+00  8.256108849411650e-01 -3.393140768766017e-17
 1.429999999999999e+00  8.256108849411650e-01 -3.393140768766017e-17
 1.429999999999999e+00  8.256108849411650e-01 -3.393140768766017e-17
 1.429999999999999e+00  8.256108849411650e-01 -3.393140768766017e-17
 1.429999999999999e+00  8.256108849411650e-01 -3.393140768766017e-17
 1.429999999999999e+00  8.256108849411650e-01 -3.393140768766017e-17
 1.429999999999999e+00  8.256108849411650e-01 -3.393140768766017e-17
 1.429999999999999e+00  8.256108849411650e-01 -3.393140768766017e-17
 1.429999999999999e+00  8.256108849411650e-01 -3.393140768766017e-17
 1.429999999999999e+00  8.256108849411650e-01 -3.393140768766017e-17
-1.429999999999999e+00  8.256108849411650e-01  1.696570384383008e-17
 1.429999999999999e+00 -8.256108849411650e-01 -1.696570384383008e-17
-1.429999999999999e+00  8.256108849411650e-01  1.696570384383008e-17
-1.429999999999999e+00  8.256108849411650e-01  1.696570384383008e-17
-1.429999999999999e+00  8.256108849411650e-01  1.696570384383008e-17
-1.429999999999999e+00  8.256108849411650e-01  1.696570384383008e-17
-1.429999999999999e+00  8.256108849411650e-01  1.696570384383008e-17
-1.429999999999999e+00  8.256108849411650e-01  1.696570384383008e-17
-1.429999999999999e+00  8.256108849411650e-01  1.696570384383008e-17
-1.429999999999999e+00  8.256108849411650e-01  1.696570384383008e-17
-1.429999999999999e+00  8.256108849411650e-01  1.696570384383008e-17
-1.429999999999999e+00  8.256108849411650e-01  1.696570384383008e-17
-1.429999999999999e+00  8.256108849411650e-01  1.696570384383008e-17
-1.429999999999999e+00  8.256108849411650e-01  1.696570384383008e-17
-1.429999999999999e+00  8.256108849411650e-01  1.696570384383008e-17
-1.429999999999999e+00  8.256108849411650e-01  1.696570384383008e-17
-1.429999999999999e+00  8.256108849411650e-01  1.696570384383008e-17
-1.429999999999999e+00  8.256108849411650e-01  1.696570384383008e-17
-1.429999999999999e+00  8.256108849411650e-01  1.696570384383008e-17
-1.429999999999999e+00  8.256108849411650e-01  1.696570384383008e-17
-1.429999999999999e+00  8.256108849411650e-01  1.696570384383008e-17
-1.429999999999999e+00  8.256108849411650e-01  1.696570384383008e-17
-1.429999999999999e+00  8.256108849411650e-01  1.696570384383008e-17
-1.429999999999999e+00  8.256108849411650e-01  1.696570384383008e-17
-1.429999999999999e+00  8.256108849411650e-01  1.696570384383008e-17
-1.429999999999999e+00  8.256108849411650e-01  1.696570384383008e-17
-1.429999999999999e+00  8.256108849411650e-01  1.696570384383008e-17
-1.429999999999999e+00  8.256108849411650e-01  1.696570384383008e-17
-1.429999999999999e+00  8.256108849411650e-01  1.696570384383008e-17
-1.429999999999999e+00  8.256108849411650e-01  1.696570384383008e-17
-1.429999999999999e+00  8.256108849411650e-01  1.696570384383008e-17
-1.429999999999999e+00  8.256108849411650e-01  1.696570384383008e-17
-1.429999999999999e+00  8.256108849411650e-01  1.696570384383008e-17
-1.429999999999999e+00  8.256108849411650e-01  1.696570384383008e-17
-1.429999999999999e+00  8.256108849411650e-01  1.696570384383008e-17
-1.429999999999999e+00  8.256108849411650e-01  1.696570384383008e-17
-1.429999999999999e+00  8.256108849411650e-01  1.696570384383008e-17
-1.429999999999999e+00  8.256108849411650e-01  1.696570384383008e-17
-1.429999999999999e+00  8.256108849411650e-01  1.696570384383008e-17
-1.429999999999999e+00  8.256108849411650e-01  1.696570384383008e-17
-1.429999999999999e+00  8.256108849411650e-01  1.696570384383008e-17
-1.429999999999999e+00  8.256108849411650e-01  1.696570384383008e-17
-1.429999999999999e+00  8.256108849411650e-01  1.696570384383008e-17
-1.429999999999999e+00  8.256108849411650e-01  1.696570384383008e-17
-1.429999999999999e+00  8.256108849411650e-01  1.696570384383008e-17
-1.429999999999999e+00  8.256108849411650e-01  1.696570384383008e-17
-1.429999999999999e+00  8.256108849411650e-01  1.696570384383008e-17
-1.429999999999999e+00  8.256108849411650e-01  1.696570384383008e-17
-1.429999999999999e+00  8.256108849411650e-01  1.696570384383008e-17
-1.429999999999999e+00  8.256108849411650e-01  1.696570384383008e-17
-1.429999999999999e+00  8.256108849411650e-01  1.696570384383008e-17
-1.429999999999999e+00  8.256108849411650e-01  1.696570384383008e-17
-1.429999999999999e+00  8.256108849411650e-01  1.696570384383008e-17
-1.429999999999999e+00  8.256108849411650e-01  1.696570384383008e-17
-1.429999999999999e+00  8.256108849411650e-01  1.696570384383008e-17
-1.429999999999999e+00  8.256108849411650e-01  1.696570384383008e-17
-1.429999999999999e+00  8.256108849411650e-01  1.696570384383008e-17
-1.429999999999999e+00  8.256108849411650e-01  1.696570384383008e-17
-1.429999999999999e+00  8.256108849411650e-01  1.696570384383008e-17
-1.429999999999999e+00  8.256108849411650e-01  1.696570384383008e-17
-1.429999999999999e+00  8.256108849411650e-01  1.696570384383008e-17
-1.429999999999999e+00  8.256108849411650e-01  1.696570384383008e-17
-1.429999999999999e+00  8.256108849411650e-01  1.696570384383008e-17
-1.429999999999999e+00  8.256108849411650e-01  1.696570384383008e-17
-1.429999999999999e+00  8.256108849411650e-01  1.696570384383008e-17
-1.429999999999999e+00  8.256108849411650e-01  1.696570384383008e-17
-1.429999999999999e+00  8.256108849411650e-01  1.696570384383008e-17
-1.429999999999999e+00  8.256108849411650e-01  1.696570384383008e-17
-1.429999999999999e+00  8.256108849411650e-01  1.696570384383008e-17
-1.429999999999999e+00  8.256108849411650e-01  1.696570384383008e-17
-1.429999999999999e+00  8.256108849411650e-01  1.696570384383008e-17
-1.429999999999999e+00  8.256108849411650e-01  1.696570384383008e-17
-1.429999999999999e+00  8.256108849411650e-01  1.696570384383008e-17
-1.429999999999999e+00  8.256108849411650e-01  1.696570384383008e-17
-1.429999999999999e+00  8.256108849411650e-01  1.696570384383008e-17
-1.429999999999999e+00  8.256108849411650e-01  1.696570384383008e-17
-1.429999999999999e+00  8.256108849411650e-01  1.696570384383008e-17
-1.429999999999999e+00  8.256108849411650e-01  1.696570384383008e-17
-1.429999999999999e+00  8.256108849411650e-01  1.696570384383008e-17
-1.429999999999999e+00  8.256108849411650e-01  1.696570384383008e-17
-1.429999999999999e+00  8.256108849411650e-01  1.696570384383008e-17
-1.429999999999999e+00  8.256108849411650e-01  1.696570384383008e-17
-1.429999999999999e+00  8.256108849411650e-01  1.696570384383008e-17
-1.429999999999999e+00  8.256108849411650e-01  1.696570384383008e-17
-1.429999999999999e+00  8.256108849411650e-01  1.696570384383008e-17
-1.429999999999999e+00  8.256108849411650e-01  1.696570384383008e-17
-1.429999999999999e+00  8.256108849411650e-01  1.696570384383008e-17
-1.429999999999999e+00  8.256108849411650e-01  1.696570384383008e-17
-1.429999999999999e+00  8.256108849411650e-01  1.696570384383008e-17
-1.429999999999999e+00  8.256108849411650e-01  1.696570384383008e-17
-1.429999999999999e+00  8.256108849411650e-01  1.696570384383008e-17
-1.429999999999999e+00  8.256108849411650e-01  1.696570384383008e-17
-1.429999999999999e+00  8.256108849411650e-01  1.696570384383008e-17
-1.429999999999999e+00  8.256108849411650e-01  1.696570384383008e-17
-1.429999999999999e+00  8.256108849411650e-01  1.696570384383008e-17
-1.429999999999999e+00  8.256108849411650e-01  1.696570384383008e-17
-1.429999999999999e+00  8.256108849411650e-01  1.696570384383008e-17
-1.429999999999999e+00  8.256108849411650e-01  1.696570384383008e-17
-1.429999999999999e+00  8.256108849411650e-01  1.696570384383008e-17
-1.429999999999999e+00  8.256108849411650e-01  1.696570384383008e-17
-1.429999999999999e+00  8.256108849411650e-01  1.696570384383008e-17
-1.429999999999999e+00  8.256108849411650e-01  1.696570384383008e-17
-1.429999999999999e+00  8.256108849411650e-01  1.696570384383008e-17
-1.429999999999999e+00  8.256108849411650e-01  1.696570384383008e-17
-1.429999999999999e+00  8.256108849411650e-01  1.696570384383008e-17
-1.429999999999999e+00  8.256108849411650e-01  1.696570384383008e-17
-1.429999999999999e+00  8.256108849411650e-01  1.696570384383008e-17
-1.429999999999999e+00  8.256108849411650e-01  1.696570384383008e-17
-1.429999999999999e+00  8.256108849411650e-01  1.696570384383008e-17
-1.429999999999999e+00  8.256108849411650e-01  1.696570384383008e-17
-1.429999999999999e+00  8.256108849411650e-01  1.696570384383008e-17
-1.429999999999999e+00  8.256108849411650e-01  1.696570384383008e-17
-1.429999999999999e+00  8.256108849411650e-01  1.696570384383008e-17
-1.429999999999999e+00  8.256108849411650e-01  1.696570384383008e-17
-1.429999999999999e+00  8.256108849411650e-01  1.696570384383008e-17
-1.429999999999999e+00  8.256108849411650e-01  1.696570384383008e-17
-1.429999999999999e+00  8.256108849411650e-01  1.696570384383008e-17
-1.429999999999999e+00  8.256108849411650e-01  1.696570384383008e-17
-1.429999999999999e+00  8.256108849411650e-01  1.696570384383008e-17
-1.429999999999999e+00  8.256108849411650e-01  1.696570384383008e-17
-1.429999999999999e+00  8.256108849411650e-01  1.696570384383008e-17
-1.429999999999999e+00  8.256108849411650e-01  1.696570384383008e-17
-1.429999999999999e+00  8.256108849411650e-01  1.696570384383008e-17
-1.429999999999999e+00  8.256108849411650e-01  1.696570384383008e-17
-1.429999999999999e+00  8.256108849411650e-01  1.696570384383008e-17
-1.429999999999999e+00  8.256108849411650e-01  1.696570384383008e-17
-1.429999999999999e+00  8.256108849411650e-01  1.696570384383008e-17
-1.429999999999999e+00  8.256108849411650e-01  1.696570384383008e-17
-1.429999999999999e+00  8.256108849411650e-01  1.696570384383008e-17
-1.429999999999999e+00  8.256108849411650e-01  1.696570384383008e-17
-1.429999999999999e+00  8.256108849411650e-01  1.696570384383008e-17
-1.429999999999999e+00  8.256108849411650e-01  1.696570384383008e-17
-1.429999999999999e+00  8.256108849411650e-01  1.696570384383008e-17
-1.429999999999999e+00  8.256108849411650e-01  1.696570384383008e-17
-1.429999999999999e+00  8.256108849411650e-01  1.696570384383008e-17
-1.429999999999999e+00  8.256108849411650e-01  1.696570384383008e-17
-1.429999999999999e+00  8.256108849411650e-01  1.696570384383008e-17
-1.429999999999999e+00  8.256108849411650e-01  1.696570384383008e-17
-1.429999999999999e+00  8.256108849411650e-01  1.696570384383008e-17
-1.429999999999999e+00  8.256108849411650e-01  1.696570384383008e-17
-1.429999999999999e+00  8.256108849411650e-01  1.696570384383008e-17
-1.429999999999999e+00  8.256108849411650e-01  1.696570384383008e-17
-1.429999999999999e+00  8.256108849411650e-01  1.696570384383008e-17
-1.429999999999999e+00  8.256108849411650e-01  1.696570384383008e-17
-1.429999999999999e+00  8.256108849411650e-01  1.696570384383008e-17
-1.429999999999999e+00  8.256108849411650e-01  1.696570384383008e-17
-1.429999999999999e+00  8.256108849411650e-01  1.696570384383008e-17
-1.429999999999999e+00  8.256108849411650e-01  1.696570384383008e-17
-1.429999999999999e+00  8.256108849411650e-01  1.696570384383008e-17
-1.429999999999999e+00  8.256108849411650e-01  1.696570384383008e-17
-1.429999999999999e+00  8.256108849411650e-01  1.696570384383008e-17
-1.429999999999999e+00  8.256108849411650e-01  1.696570384383008e-17
-1.429999999999999e+00  8.256108849411650e-01  1.696570384383008e-17
-1.429999999999999e+00  8.256108849411650e-01  1.696570384383008e-17
-1.429999999999999e+00  8.256108849411650e-01  1.696570384383008e-17
-1.429999999999999e+00  8.256108849411650e-01  1.696570384383008e-17
-1.429999999999999e+00  8.256108849411650e-01  1.696570384383008e-17
-1.429999999999999e+00  8.256108849411650e-01  1.696570384383008e-17
-1.429999999999999e+00  8.256108849411650e-01  1.696570384383008e-17
-1.429999999999999e+00  8.256108849411650e-01  1.696570384383008e-17
-1.429999999999999e+00  8.256108849411650e-01  1.696570384383008e-17
-1.429999999999999e+00  8.256108849411650e-01  1.696570384383008e-17
-1.429999999999999e+00  8.256108849411650e-01  1.696570384383008e-17
-1.429999999999999e+00  8.256108849411650e-01  1.696570384383008e-17
-1.429999999999999e+00  8.256108849411650e-01  1.696570384383008e-17
-1.429999999999999e+00  8.256108849411650e-01  1.696570384383008e-17
-1.429999999999999e+00  8.256108849411650e-01  1.696570384383008e-17
-1.429999999999999e+00  8.256108849411650e-01  1.696570384383008e-17
-1.429999999999999e+00  8.256108849411650e-01  1.696570384383008e-17
-1.429999999999999e+00  8.256108849411650e-01  1.696570384383008e-17
-1.429999999999999e+00  8.256108849411650e-01  1.696570384383008e-17
-1.429999999999999e+00  8.256108849411650e-01  1.696570384383008e-17
-1.429999999999999e+00  8.256108849411650e-01  1.696570384383008e-17
-1.429999999999999e+00  8.256108849411650e-01  1.696570384383008e-17
-1.429999999999999e+00  8.256108849411650e-01  1.696570384383008e-17
-1.429999999999999e+00  8.256108849411650e-01  1.696570384383008e-17
-1.429999999999999e+00  8.256108849411650e-01  1.696570384383008e-17
-1.429999999999999e+00  8.256108849411650e-01  1.696570384383008e-17
-1.429999999999999e+00  8.256108849411650e-01  1.696570384383008e-17
-1.429999999999999e+00  8.256108849411650e-01  1.696570384383008e-17
-1.429999999999999e+00  8.256108849411650e-01  1.696570384383008e-17
-1.429999999999999e+00  8.256108849411650e-01  1.696570384383008e-17
-1.429999999999999e+00  8.256108849411650e-01  1.696570384383008e-17
-1.429999999999999e+00  8.256108849411650e-01  1.696570384383008e-17
-1.429999999999999e+00  8.256108849411650e-01  1.696570384383008e-17
-1.429999999999999e+00  8.256108849411650e-01  1.696570384383008e-17
-1.429999999999999e+00  8.256108849411650e-01  1.696570384383008e-17
-1.429999999999999e+00  8.256108849411650e-01  1.696570384383008e-17
-1.429999999999999e+00  8.256108849411650e-01  1.696570384383008e-17
-1.429999999999999e+00  8.256108849411650e-01  1.696570384383008e-17
-1.429999999999999e+00  8.256108849411650e-01  1.696570384383008e-17
-1.429999999999999e+00  8.256108849411650e-01  1.696570384383008e-17
-1.429999999999999e+00  8.256108849411650e-01  1.696570384383008e-17
-1.429999999999999e+00  8.256108849411650e-01  1.696570384383008e-17
-1.429999999999999e+00  8.256108849411650e-01  1.696570384383008e-17
-1.429999999999999e+00  8.256108849411650e-01  1.696570384383008e-17
-1.429999999999999e+00  8.256108849411650e-01  1.696570384383008e-17
-1.429999999999999e+00  8.256108849411650e-01  1.696570384383008e-17
-1.429999999999999e+00  8.256108849411650e-01  1.696570384383008e-17
-1.429999999999999e+00  8.256108849411650e-01  1.696570384383008e-17
-1.429999999999999e+00  8.256108849411650e-01  1.696570384383008e-17
-1.429999999999999e+00  8.256108849411650e-01  1.696570384383008e-17
-1.429999999999999e+00  8.256108849411650e-01  1.696570384383008e-17
-1.429999999999999e+00  8.256108849411650e-01  1.696570384383008e-17
-1.429999999999999e+00  8.256108849411650e-01  1.696570384383008e-17
-1.429999999999999e+00  8.256108849411650e-01  1.696570384383008e-17
-1.429999999999999e+00  8.256108849411650e-01  1.696570384383008e-17
-1.429999999999999e+00  8.256108849411650e-01  1.696570384383008e-17
-1.429999999999999e+00  8.256108849411650e-01  1.696570384383008e-17
-1.429999999999999e+00  8.256108849411650e-01  1.696570384383008e-17
-1.429999999999999e+00  8.256108849411650e-01  1.696570384383008e-17
-1.429999999999999e+00  8.256108849411650e-01  1.696570384383008e-17
-1.429999999999999e+00  8.256108849411650e-01  1.696570384383008e-17
-1.429999999999999e+00  8.256108849411650e-01  1.696570384383008e-17
-1.429999999999999e+00  8.256108849411650e-01  1.696570384383008e-17
-1.429999999999999e+00  8.256108849411650e-01  1.696570384383008e-17
-1.429999999999999e+00  8.256108849411650e-01  1.696570384383008e-17
-1.429999999999999e+00  8.256108849411650e-01  1.696570384383008e-17
-1.429999999999999e+00  8.256108849411650e-01  1.696570384383008e-17
-1.429999999999999e+00  8.256108849411650e-01  1.696570384383008e-17
-1.429999999999999e+00  8.256108849411650e-01  1.696570384383008e-17
-1.429999999999999e+00  8.256108849411650e-01  1.696570384383008e-17
-1.429999999999999e+00  8.256108849411650e-01  1.696570384383008e-17
-1.429999999999999e+00  8.256108849411650e-01  1.696570384383008e-17
-1.429999999999999e+00  8.256108849411650e-01  1.696570384383008e-17
-1.429999999999999e+00  8.256108849411650e-01  1.696570384383008e-17
-1.429999999999999e+00  8.256108849411650e-01  1.696570384383008e-17
-1.429999999999999e+00  8.256108849411650e-01  1.696570384383008e-17
-1.429999999999999e+00  8.256108849411650e-01  1.696570384383008e-17
-1.429999999999999e+00  8.256108849411650e-01  1.696570384383008e-17
-1.429999999999999e+00  8.256108849411650e-01  1.696570384383008e-17
-1.429999999999999e+00  8.256108849411650e-01  1.696570384383008e-17
-1.429999999999999e+00  8.256108849411650e-01  1.696570384383008e-17
-1.429999999999999e+00  8.256108849411650e-01  1.696570384383008e-17
-1.429999999999999e+00  8.256108849411650e-01  1.696570384383008e-17
-1.429999999999999e+00  8.256108849411650e-01  1.696570384383008e-17
-1.429999999999999e+00  8.256108849411650e-01  1.696570384383008e-17
-1.429999999999999e+00  8.256108849411650e-01  1.696570384383008e-17
-1.429999999999999e+00  8.256108849411650e-01  1.696570384383008e-17
-1.429999999999999e+00  8.256108849411650e-01  1.696570384383008e-17
-1.429999999999999e+00  8.256108849411650e-01  1.696570384383008e-17
-1.429999999999999e+00  8.256108849411650e-01  1.696570384383008e-17
-1.429999999999999e+00  8.256108849411650e-01  1.696570384383008e-17
-1.429999999999999e+00  8.256108849411650e-01  1.696570384383008e-17
-1.429999999999999e+00  8.256108849411650e-01  1.696570384383008e-17
-1.429999999999999e+00  8.256108849411650e-01  1.696570384383008e-17
-1.429999999999999e+00  8.256108849411650e-01  1.696570384383008e-17
-1.429999999999999e+00  8.256108849411650e-01  1.696570384383008e-17
-1.429999999999999e+00  8.256108849411650e-01  1.696570384383008e-17
-1.429999999999999e+00  8.256108849411650e-01  1.696570384383008e-17
-1.429999999999999e+00  8.256108849411650e-01  1.696570384383008e-17
-1.429999999999999e+00  8.256108849411650e-01  1.696570384383008e-17
-1.429999999999999e+00  8.256108849411650e-01  1.696570384383008e-17
-1.429999999999999e+00  8.256108849411650e-01  1.696570384383008e-17
-1.429999999999999e+00  8.256108849411650e-01  1.696570384383008e-17
-1.429999999999999e+00  8.256108849411650e-01  1.696570384383008e-17
-1.429999999999999e+00  8.256108849411650e-01  1.696570384383008e-17
-1.429999999999999e+00  8.256108849411650e-01  1.696570384383008e-17
-1.429999999999999e+00  8.256108849411650e-01  1.696570384383008e-17
-1.429999999999999e+00  8.256108849411650e-01  1.696570384383008e-17
-1.429999999999999e+00  8.256108849411650e-01  1.696570384383008e-17
-1.429999999999999e+00  8.256108849411650e-01  1.696570384383008e-17
-1.429999999999999e+00  8.256108849411650e-01  1.696570384383008e-17
-1.429999999999999e+00  8.256108849411650e-01  1.696570384383008e-17
-1.429999999999999e+00  8.256108849411650e-01  1.696570384383008e-17
-1.429999999999999e+00  8.256108849411650e-01  1.696570384383008e-17
-1.429999999999999e+00  8.256108849411650e-01  1.696570384383008e-17
-1.429999999999999e+00  8.256108849411650e-01  1.696570384383008e-17
-1.429999999999999e+00  8.256108849411650e-01  1.696570384383008e-17
-1.429999999999999e+00  8.256108849411650e-01  1.696570384383008e-17
-1.429999999999999e+00  8.256108849411650e-01  1.696570384383008e-17
-1.429999999999999e+00  8.256108849411650e-01  1.696570384383008e-17
-1.429999999999999e+00  8.256108849411650e-01  1.696570384383008e-17
-1.429999999999999e+00  8.256108849411650e-01  1.696570384383008e-17
-1.429999999999999e+00  8.256108849411650e-01  1.696570384383008e-17
-1.429999999999999e+00  8.256108849411650e-01  1.696570384383008e-17
-1.429999999999999e+00  8.256108849411650e-01  1.696570384383008e-17
-1.429999999999999e+00  8.256108849411650e-01  1.696570384383008e-17
-1.429999999999999e+00  8.256108849411650e-01  1.696570384383008e-17
-1.429999999999999e+00  8.256108849411650e-01  1.696570384383008e-17
-1.429999999999999e+00  8.256108849411650e-01  1.696570384383008e-17
-1.429999999999999e+00  8.256108849411650e-01  1.696570384383008e-17
-1.429999999999999e+00  8.256108849411650e-01  1.696570384383008e-17
-1.429999999999999e+00  8.256108849411650e-01  1.696570384383008e-17
-1.429999999999999e+00  8.256108849411650e-01  1.696570384383008e-17
-1.429999999999999e+00  8.256108849411650e-01  1.696570384383008e-17
-1.429999999999999e+00  8.256108849411650e-01  1.696570384383008e-17
-1.429999999999999e+00  8.256108849411650e-01  1.696570384383008e-17
-1.429999999999999e+00  8.256108849411650e-01  1.696570384383008e-17
-1.429999999999999e+00  8.256108849411650e-01  1.696570384383008e-17
-1.429999999999999e+00  8.256108849411650e-01  1.696570384383008e-17
-1.429999999999999e+00  8.256108849411650e-01  1.696570384383008e-17
-1.429999999999999e+00  8.256108849411650e-01  1.696570384383008e-17
-1.429999999999999e+00  8.256108849411650e-01  1.696570384383008e-17
-1.429999999999999e+00  8.256108849411650e-01  1.696570384383008e-17
-1.429999999999999e+00  8.256108849411650e-01  1.696570384383008e-17
-1.429999999999999e+00  8.256108849411650e-01  1.696570384383008e-17
-1.429999999999999e+00  8.256108849411650e-01  1.696570384383008e-17
-1.429999999999999e+00  8.256108849411650e-01  1.696570384383008e-17
-1.429999999999999e+00  8.256108849411650e-01  1.696570384383008e-17
-1.429999999999999e+00  8.256108849411650e-01  1.696570384383008e-17
-1.429999999999999e+00  8.256108849411650e-01  1.696570384383008e-17
-1.429999999999999e+00  8.256108849411650e-01  1.696570384383008e-17
-1.429999999999999e+00  8.256108849411650e-01  1.696570384383008e-17
-1.429999999999999e+00  8.256108849411650e-01  1.696570384383008e-17
-1.429999999999999e+00  8.256108849411650e-01  1.696570384383008e-17
-1.429999999999999e+00  8.256108849411650e-01  1.696570384383008e-17
-1.429999999999999e+00  8.256108849411650e-01  1.696570384383008e-17
-1.429999999999999e+00  8.256108849411650e-01  1.696570384383008e-17
-1.429999999999999e+00  8.256108849411650e-01  1.696570384383008e-17
-1.429999999999999e+00  8.256108849411650e-01  1.696570384383008e-17
-1.429999999999999e+00  8.256108849411650e-01  1.696570384383008e-17
-1.429999999999999e+00  8.256108849411650e-01  1.696570384383008e-17
-1.429999999999999e+00  8.256108849411650e-01  1.696570384383008e-17
-1.429999999999999e+00  8.256108849411650e-01  1.696570384383008e-17
-1.429999999999999e+00  8.256108849411650e-01  1.696570384383008e-17
-1.429999999999999e+00  8.256108849411650e-01  1.696570384383008e-17
-1.429999999999999e+00  8.256108849411650e-01  1.696570384383008e-17
-1.429999999999999e+00  8.256108849411650e-01  1.696570384383008e-17
-1.429999999999999e+00  8.256108849411650e-01  1.696570384383008e-17
-1.429999999999999e+00  8.256108849411650e-01  1.696570384383008e-17
-1.429999999999999e+00  8.256108849411650e-01  1.696570384383008e-17
-1.429999999999999e+00  8.256108849411650e-01  1.696570384383008e-17
-1.429999999999999e+00  8.256108849411650e-01  1.696570384383008e-17
-1.429999999999999e+00  8.256108849411650e-01  1.696570384383008e-17
-1.429999999999999e+00  8.256108849411650e-01  1.696570384383008e-17
-1.429999999999999e+00  8.256108849411650e-01  1.696570384383008e-17
-1.429999999999999e+00  8.256108849411650e-01  1.696570384383008e-17
-1.429999999999999e+00  8.256108849411650e-01  1.696570384383008e-17
-1.429999999999999e+00  8.256108849411650e-01  1.696570384383008e-17
-1.429999999999999e+00  8.256108849411650e-01  1.696570384383008e-17
-1.429999999999999e+00  8.256108849411650e-01  1.696570384383008e-17
-1.429999999999999e+00  8.256108849411650e-01  1.696570384383008e-17
-1.429999999999999e+00  8.256108849411650e-01  1.696570384383008e-17
-1.429999999999999e+00  8.256108849411650e-01  1.696570384383008e-17
-1.429999999999999e+00  8.256108849411650e-01  1.696570384383008e-17
-1.429999999999999e+00  8.256108849411650e-01  1.696570384383008e-17
-1.429999999999999e+00  8.256108849411650e-01  1.696570384383008e-17
-1.429999999999999e+00  8.256108849411650e-01  1.696570384383008e-17
-1.429999999999999e+00  8.256108849411650e-01  1.696570384383008e-17
-1.429999999999999e+00  8.256108849411650e-01  1.696570384383008e-17
-1.429999999999999e+00  8.256108849411650e-01  1.696570384383008e-17
-1.429999999999999e+00  8.256108849411650e-01  1.696570384383008e-17
-1.429999999999999e+00  8.256108849411650e-01  1.696570384383008e-17
-1.429999999999999e+00  8.256108849411650e-01  1.696570384383008e-17
-1.429999999999999e+00  8.256108849411650e-01  1.696570384383008e-17
-1.429999999999999e+00  8.256108849411650e-01  1.696570384383008e-17
-1.429999999999999e+00  8.256108849411650e-01  1.696570384383008e-17
-1.429999999999999e+00  8.256108849411650e-01  1.696570384383008e-17
-1.429999999999999e+00  8.256108849411650e-01  1.696570384383008e-17
-1.429999999999999e+00  8.256108849411650e-01  1.696570384383008e-17
-1.429999999999999e+00  8.256108849411650e-01  1.696570384383008e-17
-1.429999999999999e+00  8.256108849411650e-01  1.696570384383008e-17
-1.429999999999999e+00  8.256108849411650e-01  1.696570384383008e-17
-1.429999999999999e+00  8.256108849411650e-01  1.696570384383008e-17
-1.429999999999999e+00  8.256108849411650e-01  1.696570384383008e-17
-1.429999999999999e+00  8.256108849411650e-01  1.696570384383008e-17
-1.429999999999999e+00  8.256108849411650e-01  1.696570384383008e-17
-1.429999999999999e+00  8.256108849411650e-01  1.696570384383008e-17
-1.429999999999999e+00  8.256108849411650e-01  1.696570384383008e-17
-1.429999999999999e+00  8.256108849411650e-01  1.696570384383008e-17
-1.429999999999999e+00  8.256108849411650e-01  1.696570384383008e-17
-1.429999999999999e+00  8.256108849411650e-01  1.696570384383008e-17
-1.429999999999999e+00  8.256108849411650e-01  1.696570384383008e-17
-1.429999999999999e+00  8.256108849411650e-01  1.696570384383008e-17
-1.429999999999999e+00  8.256108849411650e-01  1.696570384383008e-17
-1.429999999999999e+00  8.256108849411650e-01  1.696570384383008e-17
-1.429999999999999e+00  8.256108849411650e-01  1.696570384383008e-17
-1.429999999999999e+00  8.256108849411650e-01  1.696570384383008e-17
-1.429999999999999e+00  8.256108849411650e-01  1.696570384383008e-17
-1.429999999999999e+00  8.256108849411650e-01  1.696570384383008e-17
-1.429999999999999e+00  8.256108849411650e-01  1.696570384383008e-17
-1.429999999999999e+00  8.256108849411650e-01  1.696570384383008e-17
-1.429999999999999e+00  8.256108849411650e-01  1.696570384383008e-17
-1.429999999999999e+00  8.256108849411650e-01  1.696570384383008e-17
-1.429999999999999e+00  8.256108849411650e-01  1.696570384383008e-17
-1.429999999999999e+00  8.256108849411650e-01  1.696570384383008e-17
-1.429999999999999e+00  8.256108849411650e-01  1.696570384383008e-17
-1.429999999999999e+00  8.256108849411650e-01  1.696570384383008e-17
-1.429999999999999e+00  8.256108849411650e-01  1.696570384383008e-17
-1.429999999999999e+00  8.256108849411650e-01  1.696570384383008e-17
-1.429999999999999e+00  8.256108849411650e-01  1.696570384383008e-17
-1.429999999999999e+00  8.256108849411650e-01  1.696570384383008e-17
-1.429999999999999e+00  8.256108849411650e-01  1.696570384383008e-17
-1.429999999999999e+00  8.256108849411650e-01  1.696570384383008e-17
-1.429999999999999e+00  8.256108849411650e-01  1.696570384383008e-17
-1.429999999999999e+00  8.256108849411650e-01  1.696570384383008e-17
-1.429999999999999e+00  8.256108849411650e-01  1.696570384383008e-17
-1.429999999999999e+00  8.256108849411650e-01  1.696570384383008e-17
 1.429999999999999e+00 -8.256108849411650e-01 -1.696570384383008e-17
-1.429999999999999e+00  8.256108849411650e-01  1.696570384383008e-17
-1.429999999999999e+00  8.256108849411650e-01  1.696570384383008e-17
-1.429999999999999e+00  8.256108849411650e-01  1.696570384383008e-17
-1.429999999999999e+00  8.256108849411650e-01  1.696570384383008e-17
-1.429999999999999e+00  8.256108849411650e-01  1.696570384383008e-17
-1.429999999999999e+00  8.256108849411650e-01  1.696570384383008e-17
-1.429999999999999e+00  8.256108849411650e-01  1.696570384383008e-17
-1.429999999999999e+00  8.256108849411650e-01  1.696570384383008e-17
-1.429999999999999e+00  8.256108849411650e-01  1.696570384383008e-17
-1.429999999999999e+00  8.256108849411650e-01  1.696570384383008e-17
-1.429999999999999e+00  8.256108849411650e-01  1.696570384383008e-17
-1.429999999999999e+00  8.256108849411650e-01  1.696570384383008e-17
-1.429999999999999e+00  8.256108849411650e-01  1.696570384383008e-17
-1.429999999999999e+00  8.256108849411650e-01  1.696570384383008e-17
-1.429999999999999e+00  8.256108849411650e-01  1.696570384383008e-17
-1.429999999999999e+00  8.256108849411650e-01  1.696570384383008e-17
-1.429999999999999e+00  8.256108849411650e-01  1.696570384383008e-17
-1.429999999999999e+00  8.256108849411650e-01  1.696570384383008e-17
-1.429999999999999e+00  8.256108849411650e-01  1.696570384383008e-17
-1.429999999999999e+00  8.256108849411650e-01  1.696570384383008e-17
-1.429999999999999e+00  8.256108849411650e-01  1.696570384383008e-17
-1.429999999999999e+00  8.256108849411650e-01  1.696570384383008e-17
-1.429999999999999e+00  8.256108849411650e-01  1.696570384383008e-17
-1.429999999999999e+00  8.256108849411650e-01  1.696570384383008e-17
-1.429999999999999e+00  8.256108849411650e-01  1.696570384383008e-17
-1.429999999999999e+00  8.256108849411650e-01  1.696570384383008e-17
-1.429999999999999e+00  8.256108849411650e-01  1.696570384383008e-17
-1.429999999999999e+00  8.256108849411650e-01  1.696570384383008e-17
-1.429999999999999e+00  8.256108849411650e-01  1.696570384383008e-17
-1.429999999999999e+00  8.256108849411650e-01  1.696570384383008e-17
-1.429999999999999e+00  8.256108849411650e-01  1.696570384383008e-17
-1.429999999999999e+00  8.256108849411650e-01  1.696570384383008e-17
-1.429999999999999e+00  8.256108849411650e-01  1.696570384383008e-17
-1.429999999999999e+00  8.256108849411650e-01  1.696570384383008e-17
-1.429999999999999e+00  8.256108849411650e-01  1.696570384383008e-17
-1.429999999999999e+00  8.256108849411650e-01  1.696570384383008e-17
-1.429999999999999e+00  8.256108849411650e-01  1.696570384383008e-17
-1.429999999999999e+00  8.256108849411650e-01  1.696570384383008e-17
-1.429999999999999e+00  8.256108849411650e-01  1.696570384383008e-17
-1.429999999999999e+00  8.256108849411650e-01  1.696570384383008e-17
-1.429999999999999e+00  8.256108849411650e-01  1.696570384383008e-17
-1.429999999999999e+00  8.256108849411650e-01  1.696570384383008e-17
-1.429999999999999e+00  8.256108849411650e-01  1.696570384383008e-17
-1.429999999999999e+00  8.256108849411650e-01  1.696570384383008e-17
-1.429999999999999e+00  8.256108849411650e-01  1.696570384383008e-17
-1.429999999999999e+00  8.256108849411650e-01  1.696570384383008e-17
-1.429999999999999e+00  8.256108849411650e-01  1.696570384383008e-17
-1.429999999999999e+00  8.256108849411650e-01  1.696570384383008e-17
-1.429999999999999e+00  8.256108849411650e-01  1.696570384383008e-17
-1.429999999999999e+00  8.256108849411650e-01  1.696570384383008e-17
-1.429999999999999e+00  8.256108849411650e-01  1.696570384383008e-17
-1.429999999999999e+00  8.256108849411650e-01  1.696570384383008e-17
-1.429999999999999e+00  8.256108849411650e-01  1.696570384383008e-17
-1.429999999999999e+00  8.256108849411650e-01  1.696570384383008e-17
-1.429999999999999e+00  8.256108849411650e-01  1.696570384383008e-17
-1.429999999999999e+00  8.256108849411650e-01  1.696570384383008e-17
-1.429999999999999e+00  8.256108849411650e-01  1.696570384383008e-17
-1.429999999999999e+00  8.256108849411650e-01  1.696570384383008e-17
-1.429999999999999e+00  8.256108849411650e-01  1.696570384383008e-17
-1.429999999999999e+00  8.256108849411650e-01  1.696570384383008e-17
-1.429999999999999e+00  8.256108849411650e-01  1.696570384383008e-17
-1.429999999999999e+00  8.256108849411650e-01  1.696570384383008e-17
-1.429999999999999e+00  8.256108849411650e-01  1.696570384383008e-17
-1.429999999999999e+00  8.256108849411650e-01  1.696570384383008e-17
-1.429999999999999e+00  8.256108849411650e-01  1.696570384383008e-17
-1.429999999999999e+00  8.256108849411650e-01  1.696570384383008e-17
-1.429999999999999e+00  8.256108849411650e-01  1.696570384383008e-17
-1.429999999999999e+00  8.256108849411650e-01  1.696570384383008e-17
-1.429999999999999e+00  8.256108849411650e-01  1.696570384383008e-17
-1.429999999999999e+00  8.256108849411650e-01  1.696570384383008e-17
-1.429999999999999e+00  8.256108849411650e-01  1.696570384383008e-17
-1.429999999999999e+00  8.256108849411650e-01  1.696570384383008e-17
-1.429999999999999e+00  8.256108849411650e-01  1.696570384383008e-17
-1.429999999999999e+00  8.256108849411650e-01  1.696570384383008e-17
-1.429999999999999e+00  8.256108849411650e-01  1.696570384383008e-17
-1.429999999999999e+00  8.256108849411650e-01  1.696570384383008e-17
-1.429999999999999e+00  8.256108849411650e-01  1.696570384383008e-17
-1.429999999999999e+00  8.256108849411650e-01  1.696570384383008e-17
-1.429999999999999e+00  8.256108849411650e-01  1.696570384383008e-17
-1.429999999999999e+00  8.256108849411650e-01  1.696570384383008e-17
-1.429999999999999e+00  8.256108849411650e-01  1.696570384383008e-17
-1.429999999999999e+00  8.256108849411650e-01  1.696570384383008e-17
-1.429999999999999e+00  8.256108849411650e-01  1.696570384383008e-17
-1.429999999999999e+00  8.256108849411650e-01  1.696570384383008e-17
-1.429999999999999e+00  8.256108849411650e-01  1.696570384383008e-17
-1.429999999999999e+00  8.256108849411650e-01  1.696570384383008e-17
-1.429999999999999e+00  8.256108849411650e-01  1.696570384383008e-17
-1.429999999999999e+00  8.256108849411650e-01  1.696570384383008e-17
-1.429999999999999e+00  8.256108849411650e-01  1.696570384383008e-17
-1.429999999999999e+00  8.256108849411650e-01  1.696570384383008e-17
-1.429999999999999e+00  8.256108849411650e-01  1.696570384383008e-17
-1.429999999999999e+00  8.256108849411650e-01  1.696570384383008e-17
-1.429999999999999e+00  8.256108849411650e-01  1.696570384383008e-17
-1.429999999999999e+00  8.256108849411650e-01  1.696570384383008e-17
-1.429999999999999e+00  8.256108849411650e-01  1.696570384383008e-17
-1.429999999999999e+00  8.256108849411650e-01  1.696570384383008e-17
-1.429999999999999e+00  8.256108849411650e-01  1.696570384383008e-17
-1.429999999999999e+00  8.256108849411650e-01  1.696570384383008e-17
-1.429999999999999e+00  8.256108849411650e-01  1.696570384383008e-17
-1.429999999999999e+00  8.256108849411650e-01  1.696570384383008e-17
-1.429999999999999e+00  8.256108849411650e-01  1.696570384383008e-17
-1.429999999999999e+00  8.256108849411650e-01  1.696570384383008e-17
-1.429999999999999e+00  8.256108849411650e-01  1.696570384383008e-17
-1.429999999999999e+00  8.256108849411650e-01  1.696570384383008e-17
-1.429999999999999e+00  8.256108849411650e-01  1.696570384383008e-17
-1.429999999999999e+00  8.256108849411650e-01  1.696570384383008e-17
-1.429999999999999e+00  8.256108849411650e-01  1.696570384383008e-17
-1.429999999999999e+00  8.256108849411650e-01  1.696570384383008e-17
-1.429999999999999e+00  8.256108849411650e-01  1.696570384383008e-17
-1.429999999999999e+00  8.256108849411650e-01  1.696570384383008e-17
-1.429999999999999e+00  8.256108849411650e-01  1.696570384383008e-17
-1.429999999999999e+00  8.256108849411650e-01  1.696570384383008e-17
-1.429999999999999e+00  8.256108849411650e-01  1.696570384383008e-17
-1.429999999999999e+00  8.256108849411650e-01  1.696570384383008e-17
-1.429999999999999e+00  8.256108849411650e-01  1.696570384383008e-17
-1.429999999999999e+00  8.256108849411650e-01  1.696570384383008e-17
-1.429999999999999e+00  8.256108849411650e-01  1.696570384383008e-17
-1.429999999999999e+00  8.256108849411650e-01  1.696570384383008e-17
-1.429999999999999e+00  8.256108849411650e-01  1.696570384383008e-17
-1.429999999999999e+00  8.256108849411650e-01  1.696570384383008e-17
-1.429999999999999e+00  8.256108849411650e-01  1.696570384383008e-17
-1.429999999999999e+00  8.256108849411650e-01  1.696570384383008e-17
-1.429999999999999e+00  8.256108849411650e-01  1.696570384383008e-17
-1.429999999999999e+00  8.256108849411650e-01  1.696570384383008e-17
-1.429999999999999e+00  8.256108849411650e-01  1.696570384383008e-17
-1.429999999999999e+00  8.256108849411650e-01  1.696570384383008e-17
-1.429999999999999e+00  8.256108849411650e-01  1.696570384383008e-17
-1.429999999999999e+00  8.256108849411650e-01  1.696570384383008e-17
-1.429999999999999e+00  8.256108849411650e-01  1.696570384383008e-17
-1.429999999999999e+00  8.256108849411650e-01  1.696570384383008e-17
-1.429999999999999e+00  8.256108849411650e-01  1.696570384383008e-17
-1.429999999999999e+00  8.256108849411650e-01  1.696570384383008e-17
-1.429999999999999e+00  8.256108849411650e-01  1.696570384383008e-17
-1.429999999999999e+00  8.256108849411650e-01  1.696570384383008e-17
-1.429999999999999e+00  8.256108849411650e-01  1.696570384383008e-17
-1.429999999999999e+00  8.256108849411650e-01  1.696570384383008e-17
-1.429999999999999e+00  8.256108849411650e-01  1.696570384383008e-17
-1.429999999999999e+00  8.256108849411650e-01  1.696570384383008e-17
-1.429999999999999e+00  8.256108849411650e-01  1.696570384383008e-17
-1.429999999999999e+00  8.256108849411650e-01  1.696570384383008e-17
-1.429999999999999e+00  8.256108849411650e-01  1.696570384383008e-17
-1.429999999999999e+00  8.256108849411650e-01  1.696570384383008e-17
-1.429999999999999e+00  8.256108849411650e-01  1.696570384383008e-17
-1.429999999999999e+00  8.256108849411650e-01  1.696570384383008e-17
-1.429999999999999e+00  8.256108849411650e-01  1.696570384383008e-17
-1.429999999999999e+00  8.256108849411650e-01  1.696570384383008e-17
-1.429999999999999e+00  8.256108849411650e-01  1.696570384383008e-17
-1.429999999999999e+00  8.256108849411650e-01  1.696570384383008e-17
-1.429999999999999e+00  8.256108849411650e-01  1.696570384383008e-17
-1.429999999999999e+00  8.256108849411650e-01  1.696570384383008e-17
-1.429999999999999e+00  8.256108849411650e-01  1.696570384383008e-17
-1.429999999999999e+00  8.256108849411650e-01  1.696570384383008e-17
-1.429999999999999e+00  8.256108849411650e-01  1.696570384383008e-17
-1.429999999999999e+00  8.256108849411650e-01  1.696570384383008e-17
-1.429999999999999e+00  8.256108849411650e-01  1.696570384383008e-17
-1.429999999999999e+00  8.256108849411650e-01  1.696570384383008e-17
-1.429999999999999e+00  8.256108849411650e-01  1.696570384383008e-17
-1.429999999999999e+00  8.256108849411650e-01  1.696570384383008e-17
-1.429999999999999e+00  8.256108849411650e-01  1.696570384383008e-17
-1.429999999999999e+00  8.256108849411650e-01  1.696570384383008e-17
-1.429999999999999e+00  8.256108849411650e-01  1.696570384383008e-17
-1.429999999999999e+00  8.256108849411650e-01  1.696570384383008e-17
-1.429999999999999e+00  8.256108849411650e-01  1.696570384383008e-17
-1.429999999999999e+00  8.256108849411650e-01  1.696570384383008e-17
-1.429999999999999e+00  8.256108849411650e-01  1.696570384383008e-17
-1.429999999999999e+00  8.256108849411650e-01  1.696570384383008e-17
-1.429999999999999e+00  8.256108849411650e-01  1.696570384383008e-17
-1.429999999999999e+00  8.256108849411650e-01  1.696570384383008e-17
-1.429999999999999e+00  8.256108849411650e-01  1.696570384383008e-17
-1.429999999999999e+00  8.256108849411650e-01  1.696570384383008e-17
-1.429999999999999e+00  8.256108849411650e-01  1.696570384383008e-17
-1.429999999999999e+00  8.256108849411650e-01  1.696570384383008e-17
-1.429999999999999e+00  8.256108849411650e-01  1.696570384383008e-17
-1.429999999999999e+00  8.256108849411650e-01  1.696570384383008e-17
-1.429999999999999e+00  8.256108849411650e-01  1.696570384383008e-17
-1.429999999999999e+00  8.256108849411650e-01  1.696570384383008e-17
-1.429999999999999e+00  8.256108849411650e-01  1.696570384383008e-17
-1.429999999999999e+00  8.256108849411650e-01  1.696570384383008e-17
-1.429999999999999e+00  8.256108849411650e-01  1.696570384383008e-17
-1.429999999999999e+00  8.256108849411650e-01  1.696570384383008e-17
-1.429999999999999e+00  8.256108849411650e-01  1.696570384383008e-17
-1.429999999999999e+00  8.256108849411650e-01  1.696570384383008e-17
-1.429999999999999e+00  8.256108849411650e-01  1.696570384383008e-17
-1.429999999999999e+00  8.256108849411650e-01  1.696570384383008e-17
-1.429999999999999e+00  8.256108849411650e-01  1.696570384383008e-17
-1.429999999999999e+00  8.256108849411650e-01  1.696570384383008e-17
-1.429999999999999e+00  8.256108849411650e-01  1.696570384383008e-17
-1.429999999999999e+00  8.256108849411650e-01  1.696570384383008e-17
-1.429999999999999e+00  8.256108849411650e-01  1.696570384383008e-17
-1.429999999999999e+00  8.256108849411650e-01  1.696570384383008e-17
-1.429999999999999e+00  8.256108849411650e-01  1.696570384383008e-17
-1.429999999999999e+00  8.256108849411650e-01  1.696570384383008e-17
-1.429999999999999e+00  8.256108849411650e-01  1.696570384383008e-17
-1.429999999999999e+00  8.256108849411650e-01  1.696570384383008e-17
-1.429999999999999e+00  8.256108849411650e-01  1.696570384383008e-17
-1.429999999999999e+00  8.256108849411650e-01  1.696570384383008e-17
-1.429999999999999e+00  8.256108849411650e-01  1.696570384383008e-17
-1.429999999999999e+00  8.256108849411650e-01  1.696570384383008e-17
-1.429999999999999e+00  8.256108849411650e-01  1.696570384383008e-17
-1.429999999999999e+00  8.256108849411650e-01  1.696570384383008e-17
-1.429999999999999e+00  8.256108849411650e-01  1.696570384383008e-17
-1.429999999999999e+00  8.256108849411650e-01  1.696570384383008e-17
-1.429999999999999e+00  8.256108849411650e-01  1.696570384383008e-17
-1.429999999999999e+00  8.256108849411650e-01  1.696570384383008e-17
-1.429999999999999e+00  8.256108849411650e-01  1.696570384383008e-17
-1.429999999999999e+00  8.256108849411650e-01  1.696570384383008e-17
-1.429999999999999e+00  8.256108849411650e-01  1.696570384383008e-17
-1.429999999999999e+00  8.256108849411650e-01  1.696570384383008e-17
-1.429999999999999e+00  8.256108849411650e-01  1.696570384383008e-17
-1.429999999999999e+00  8.256108849411650e-01  1.696570384383008e-17
-1.429999999999999e+00  8.256108849411650e-01  1.696570384383008e-17
-1.429999999999999e+00  8.256108849411650e-01  1.696570384383008e-17
-1.429999999999999e+00  8.256108849411650e-01  1.696570384383008e-17
-1.429999999999999e+00  8.256108849411650e-01  1.696570384383008e-17
-1.429999999999999e+00  8.256108849411650e-01  1.696570384383008e-17
-1.429999999999999e+00  8.256108849411650e-01  1.696570384383008e-17
-1.429999999999999e+00  8.256108849411650e-01  1.696570384383008e-17
-1.429999999999999e+00  8.256108849411650e-01  1.696570384383008e-17
-1.429999999999999e+00  8.256108849411650e-01  1.696570384383008e-17
-1.429999999999999e+00  8.256108849411650e-01  1.696570384383008e-17
-1.429999999999999e+00  8.256108849411650e-01  1.696570384383008e-17
-1.429999999999999e+00  8.256108849411650e-01  1.696570384383008e-17
-1.429999999999999e+00  8.256108849411650e-01  1.696570384383008e-17
-1.429999999999999e+00  8.256108849411650e-01  1.696570384383008e-17
-1.429999999999999e+00  8.256108849411650e-01  1.696570384383008e-17
-1.429999999999999e+00  8.256108849411650e-01  1.696570384383008e-17
-1.429999999999999e+00  8.256108849411650e-01  1.696570384383008e-17
-1.429999999999999e+00  8.256108849411650e-01  1.696570384383008e-17
-1.429999999999999e+00  8.256108849411650e-01  1.696570384383008e-17
-1.429999999999999e+00  8.256108849411650e-01  1.696570384383008e-17
-1.429999999999999e+00  8.256108849411650e-01  1.696570384383008e-17
-1.429999999999999e+00  8.256108849411650e-01  1.696570384383008e-17
-1.429999999999999e+00  8.256108849411650e-01  1.696570384383008e-17
-1.429999999999999e+00  8.256108849411650e-01  1.696570384383008e-17
-1.429999999999999e+00  8.256108849411650e-01  1.696570384383008e-17
-1.429999999999999e+00  8.256108849411650e-01  1.696570384383008e-17
-1.429999999999999e+00  8.256108849411650e-01  1.696570384383008e-17
-1.429999999999999e+00  8.256108849411650e-01  1.696570384383008e-17
-1.429999999999999e+00  8.256108849411650e-01  1.696570384383008e-17
-1.429999999999999e+00  8.256108849411650e-01  1.696570384383008e-17
-1.429999999999999e+00  8.256108849411650e-01  1.696570384383008e-17
-1.429999999999999e+00  8.256108849411650e-01  1.696570384383008e-17
-1.429999999999999e+00  8.256108849411650e-01  1.696570384383008e-17
-1.429999999999999e+00  8.256108849411650e-01  1.696570384383008e-17
-1.429999999999999e+00  8.256108849411650e-01  1.696570384383008e-17
-1.429999999999999e+00  8.256108849411650e-01  1.696570384383008e-17
-1.429999999999999e+00  8.256108849411650e-01  1.696570384383008e-17
-1.429999999999999e+00  8.256108849411650e-01  1.696570384383008e-17
-1.429999999999999e+00  8.256108849411650e-01  1.696570384383008e-17
-1.429999999999999e+00  8.256108849411650e-01  1.696570384383008e-17
-1.429999999999999e+00  8.256108849411650e-01  1.696570384383008e-17
-1.429999999999999e+00  8.256108849411650e-01  1.696570384383008e-17
-1.429999999999999e+00  8.256108849411650e-01  1.696570384383008e-17
-1.429999999999999e+00  8.256108849411650e-01  1.696570384383008e-17
-1.429999999999999e+00  8.256108849411650e-01  1.696570384383008e-17
-1.429999999999999e+00  8.256108849411650e-01  1.696570384383008e-17
-1.429999999999999e+00  8.256108849411650e-01  1.696570384383008e-17
-1.429999999999999e+00  8.256108849411650e-01  1.696570384383008e-17
-1.429999999999999e+00  8.256108849411650e-01  1.696570384383008e-17
-1.429999999999999e+00  8.256108849411650e-01  1.696570384383008e-17
-1.429999999999999e+00  8.256108849411650e-01  1.696570384383008e-17
-1.429999999999999e+00  8.256108849411650e-01  1.696570384383008e-17
-1.429999999999999e+00  8.256108849411650e-01  1.696570384383008e-17
-1.429999999999999e+00  8.256108849411650e-01  1.696570384383008e-17
-1.429999999999999e+00  8.256108849411650e-01  1.696570384383008e-17
-1.429999999999999e+00  8.256108849411650e-01  1.696570384383008e-17
-1.429999999999999e+00  8.256108849411650e-01  1.696570384383008e-17
-1.429999999999999e+00  8.256108849411650e-01  1.696570384383008e-17
-1.429999999999999e+00  8.256108849411650e-01  1.696570384383008e-17
-1.429999999999999e+00  8.256108849411650e-01  1.696570384383008e-17
-1.429999999999999e+00  8.256108849411650e-01  1.696570384383008e-17
-1.429999999999999e+00  8.256108849411650e-01  1.696570384383008e-17
-1.429999999999999e+00  8.256108849411650e-01  1.696570384383008e-17
-1.429999999999999e+00  8.256108849411650e-01  1.696570384383008e-17
-1.429999999999999e+00  8.256108849411650e-01  1.696570384383008e-17
-1.429999999999999e+00  8.256108849411650e-01  1.696570384383008e-17
-1.429999999999999e+00  8.256108849411650e-01  1.696570384383008e-17
-1.429999999999999e+00  8.256108849411650e-01  1.696570384383008e-17
-1.429999999999999e+00  8.256108849411650e-01  1.696570384383008e-17
-1.429999999999999e+00  8.256108849411650e-01  1.696570384383008e-17
-1.429999999999999e+00  8.256108849411650e-01  1.696570384383008e-17
-1.429999999999999e+00  8.256108849411650e-01  1.696570384383008e-17
-1.429999999999999e+00  8.256108849411650e-01  1.696570384383008e-17
-1.429999999999999e+00  8.256108849411650e-01  1.696570384383008e-17
-1.429999999999999e+00  8.256108849411650e-01  1.696570384383008e-17
-1.429999999999999e+00  8.256108849411650e-01  1.696570384383008e-17
-1.429999999999999e+00  8.256108849411650e-01  1.696570384383008e-17
-1.429999999999999e+00  8.256108849411650e-01  1.696570384383008e-17
-1.429999999999999e+00  8.256108849411650e-01  1.696570384383008e-17
-1.429999999999999e+00  8.256108849411650e-01  1.696570384383008e-17
-1.429999999999999e+00  8.256108849411650e-01  1.696570384383008e-17
-1.429999999999999e+00  8.256108849411650e-01  1.696570384383008e-17
-1.429999999999999e+00  8.256108849411650e-01  1.696570384383008e-17
-1.429999999999999e+00  8.256108849411650e-01  1.696570384383008e-17
-1.429999999999999e+00  8.256108849411650e-01  1.696570384383008e-17
-1.429999999999999e+00  8.256108849411650e-01  1.696570384383008e-17
-1.429999999999999e+00  8.256108849411650e-01  1.696570384383008e-17
-1.429999999999999e+00  8.256108849411650e-01  1.696570384383008e-17
-1.429999999999999e+00  8.256108849411650e-01  1.696570384383008e-17
-1.429999999999999e+00  8.256108849411650e-01  1.696570384383008e-17
-1.429999999999999e+00  8.256108849411650e-01  1.696570384383008e-17
-1.429999999999999e+00  8.256108849411650e-01  1.696570384383008e-17
-1.429999999999999e+00  8.256108849411650e-01  1.696570384383008e-17
-1.429999999999999e+00  8.256108849411650e-01  1.696570384383008e-17
-1.429999999999999e+00  8.256108849411650e-01  1.696570384383008e-17
-1.429999999999999e+00  8.256108849411650e-01  1.696570384383008e-17
-1.429999999999999e+00  8.256108849411650e-01  1.696570384383008e-17
-1.429999999999999e+00  8.256108849411650e-01  1.696570384383008e-17
-1.429999999999999e+00  8.256108849411650e-01  1.696570384383008e-17
-1.429999999999999e+00  8.256108849411650e-01  1.696570384383008e-17
-1.429999999999999e+00  8.256108849411650e-01  1.696570384383008e-17
-1.429999999999999e+00  8.256108849411650e-01  1.696570384383008e-17
-1.429999999999999e+00  8.256108849411650e-01  1.696570384383008e-17
-1.429999999999999e+00  8.256108849411650e-01  1.696570384383008e-17
-1.429999999999999e+00  8.256108849411650e-01  1.696570384383008e-17
-1.429999999999999e+00  8.256108849411650e-01  1.696570384383008e-17
-1.429999999999999e+00  8.256108849411650e-01  1.696570384383008e-17
-1.429999999999999e+00  8.256108849411650e-01  1.696570384383008e-17
-1.429999999999999e+00  8.256108849411650e-01  1.696570384383008e-17
-1.429999999999999e+00  8.256108849411650e-01  1.696570384383008e-17
-1.429999999999999e+00  8.256108849411650e-01  1.696570384383008e-17
-1.429999999999999e+00  8.256108849411650e-01  1.696570384383008e-17
-1.429999999999999e+00  8.256108849411650e-01  1.696570384383008e-17
-1.429999999999999e+00  8.256108849411650e-01  1.696570384383008e-17
-1.429999999999999e+00  8.256108849411650e-01  1.696570384383008e-17
-1.429999999999999e+00  8.256108849411650e-01  1.696570384383008e-17
-1.429999999999999e+00  8.256108849411650e-01  1.696570384383008e-17
-1.429999999999999e+00  8.256108849411650e-01  1.696570384383008e-17
-1.429999999999999e+00  8.256108849411650e-01  1.696570384383008e-17
-1.429999999999999e+00  8.256108849411650e-01  1.696570384383008e-17
-1.429999999999999e+00  8.256108849411650e-01  1.696570384383008e-17
-1.429999999999999e+00  8.256108849411650e-01  1.696570384383008e-17
-1.429999999999999e+00  8.256108849411650e-01  1.696570384383008e-17
-1.429999999999999e+00  8.256108849411650e-01  1.696570384383008e-17
-1.429999999999999e+00  8.256108849411650e-01  1.696570384383008e-17
-1.429999999999999e+00  8.256108849411650e-01  1.696570384383008e-17
-1.429999999999999e+00  8.256108849411650e-01  1.696570384383008e-17
-1.429999999999999e+00  8.256108849411650e-01  1.696570384383008e-17
-1.429999999999999e+00  8.256108849411650e-01  1.696570384383008e-17
-1.429999999999999e+00  8.256108849411650e-01  1.696570384383008e-17
-1.429999999999999e+00  8.256108849411650e-01  1.696570384383008e-17
-1.429999999999999e+00  8.256108849411650e-01  1.696570384383008e-17
-1.429999999999999e+00  8.256108849411650e-01  1.696570384383008e-17
-1.429999999999999e+00  8.256108849411650e-01  1.696570384383008e-17
-1.429999999999999e+00  8.256108849411650e-01  1.696570384383008e-17
-1.429999999999999e+00  8.256108849411650e-01  1.696570384383008e-17
-1.429999999999999e+00  8.256108849411650e-01  1.696570384383008e-17
-1.429999999999999e+00  8.256108849411650e-01  1.696570384383008e-17
-1.429999999999999e+00  8.256108849411650e-01  1.696570384383008e-17
-1.429999999999999e+00  8.256108849411650e-01  1.696570384383008e-17
-1.429999999999999e+00  8.256108849411650e-01  1.696570384383008e-17
-1.429999999999999e+00  8.256108849411650e-01  1.696570384383008e-17
-1.429999999999999e+00  8.256108849411650e-01  1.696570384383008e-17
-1.429999999999999e+00  8.256108849411650e-01  1.696570384383008e-17
-1.429999999999999e+00  8.256108849411650e-01  1.696570384383008e-17
-1.429999999999999e+00  8.256108849411650e-01  1.696570384383008e-17
-1.429999999999999e+00  8.256108849411650e-01  1.696570384383008e-17
-1.429999999999999e+00  8.256108849411650e-01  1.696570384383008e-17
-1.429999999999999e+00  8.256108849411650e-01  1.696570384383008e-17
-1.429999999999999e+00  8.256108849411650e-01  1.696570384383008e-17
-1.429999999999999e+00  8.256108849411650e-01  1.696570384383008e-17
-1.429999999999999e+00  8.256108849411650e-01  1.696570384383008e-17
-1.429999999999999e+00  8.256108849411650e-01  1.696570384383008e-17
-1.429999999999999e+00  8.256108849411650e-01  1.696570384383008e-17
-1.429999999999999e+00  8.256108849411650e-01  1.696570384383008e-17
-1.429999999999999e+00  8.256108849411650e-01  1.696570384383008e-17
-1.429999999999999e+00  8.256108849411650e-01  1.696570384383008e-17
-1.429999999999999e+00  8.256108849411650e-01  1.696570384383008e-17
-1.429999999999999e+00  8.256108849411650e-01  1.696570384383008e-17
-1.429999999999999e+00  8.256108849411650e-01  1.696570384383008e-17
-1.429999999999999e+00  8.256108849411650e-01  1.696570384383008e-17
-1.429999999999999e+00  8.256108849411650e-01  1.696570384383008e-17
-1.429999999999999e+00  8.256108849411650e-01  1.696570384383008e-17
-1.429999999999999e+00  8.256108849411650e-01  1.696570384383008e-17
-1.429999999999999e+00  8.256108849411650e-01  1.696570384383008e-17
-1.429999999999999e+00  8.256108849411650e-01  1.696570384383008e-17
-1.429999999999999e+00  8.256108849411650e-01  1.696570384383008e-17
-1.429999999999999e+00  8.256108849411650e-01  1.696570384383008e-17
-1.429999999999999e+00  8.256108849411650e-01  1.696570384383008e-17
-1.429999999999999e+00  8.256108849411650e-01  1.696570384383008e-17
-1.429999999999999e+00  8.256108849411650e-01  1.696570384383008e-17
-1.429999999999999e+00  8.256108849411650e-01  1.696570384383008e-17
-1.429999999999999e+00  8.256108849411650e-01  1.696570384383008e-17
-1.429999999999999e+00  8.256108849411650e-01  1.696570384383008e-17
 1.429999999999999e+00 -8.256108849411650e-01 -1.696570384383008e-17
-1.429999999999999e+00  8.256108849411650e-01  1.696570384383008e-17
 1.429999999999999e+00 -8.256108849411650e-01 -1.696570384383008e-17
 1.429999999999999e+00 -8.256108849411650e-01 -1.696570384383008e-17
 1.429999999999999e+00 -8.256108849411650e-01 -1.696570384383008e-17
 1.429999999999999e+00 -8.256108849411650e-01 -1.696570384383008e-17
 1.429999999999999e+00 -8.256108849411650e-01 -1.696570384383008e-17
 1.429999999999999e+00 -8.256108849411650e-01 -1.696570384383008e-17
 1.429999999999999e+00 -8.256108849411650e-01 -1.696570384383008e-17
 1.429999999999999e+00 -8.256108849411650e-01 -1.696570384383008e-17
 1.429999999999999e+00 -8.256108849411650e-01 -1.696570384383008e-17
 1.429999999999999e+00 -8.256108849411650e-01 -1.696570384383008e-17
 1.429999999999999e+00 -8.256108849411650e-01 -1.696570384383008e-17
 1.429999999999999e+00 -8.256108849411650e-01 -1.696570384383008e-17
 1.429999999999999e+00 -8.256108849411650e-01 -1.696570384383008e-17
 1.429999999999999e+00 -8.256108849411650e-01 -1.696570384383008e-17
 1.429999999999999e+00 -8.256108849411650e-01 -1.696570384383008e-17
 1.429999999999999e+00 -8.256108849411650e-01 -1.696570384383008e-17
 1.429999999999999e+00 -8.256108849411650e-01 -1.696570384383008e-17
 1.429999999999999e+00 -8.256108849411650e-01 -1.696570384383008e-17
 1.429999999999999e+00 -8.256108849411650e-01 -1.696570384383008e-17
 1.429999999999999e+00 -8.256108849411650e-01 -1.696570384383008e-17
 1.429999999999999e+00 -8.256108849411650e-01 -1.696570384383008e-17
 1.429999999999999e+00 -8.256108849411650e-01 -1.696570384383008e-17
 1.429999999999999e+00 -8.256108849411650e-01 -1.696570384383008e-17
 1.429999999999999e+00 -8.256108849411650e-01 -1.696570384383008e-17
 1.429999999999999e+00 -8.256108849411650e-01 -1.696570384383008e-17
 1.429999999999999e+00 -8.256108849411650e-01 -1.696570384383008e-17
 1.429999999999999e+00 -8.256108849411650e-01 -1.696570384383008e-17
 1.429999999999999e+00 -8.256108849411650e-01 -1.696570384383008e-17
 1.429999999999999e+00 -8.256108849411650e-01 -1.696570384383008e-17
 1.429999999999999e+00 -8.256108849411650e-01 -1.696570384383008e-17
 1.429999999999999e+00 -8.256108849411650e-01 -1.696570384383008e-17
 1.429999999999999e+00 -8.256108849411650e-01 -1.696570384383008e-17
 1.429999999999999e+00 -8.256108849411650e-01 -1.696570384383008e-17
 1.429999999999999e+00 -8.256108849411650e-01 -1.696570384383008e-17
 1.429999999999999e+00 -8.256108849411650e-01 -1.696570384383008e-17
 1.429999999999999e+00 -8.256108849411650e-01 -1.696570384383008e-17
 1.429999999999999e+00 -8.256108849411650e-01 -1.696570384383008e-17
 1.429999999999999e+00 -8.256108849411650e-01 -1.696570384383008e-17
 1.429999999999999e+00 -8.256108849411650e-01 -1.696570384383008e-17
 1.429999999999999e+00 -8.256108849411650e-01 -1.696570384383008e-17
 1.429999999999999e+00 -8.256108849411650e-01 -1.696570384383008e-17
 1.429999999999999e+00 -8.256108849411650e-01 -1.696570384383008e-17
 1.429999999999999e+00 -8.256108849411650e-01 -1.696570384383008e-17
 1.429999999999999e+00 -8.256108849411650e-01 -1.696570384383008e-17
 1.429999999999999e+00 -8.256108849411650e-01 -1.696570384383008e-17
 1.429999999999999e+00 -8.256108849411650e-01 -1.696570384383008e-17
 1.429999999999999e+00 -8.256108849411650e-01 -1.696570384383008e-17
 1.429999999999999e+00 -8.256108849411650e-01 -1.696570384383008e-17
 1.429999999999999e+00 -8.256108849411650e-01 -1.696570384383008e-17
 1.429999999999999e+00 -8.256108849411650e-01 -1.696570384383008e-17
 1.429999999999999e+00 -8.256108849411650e-01 -1.696570384383008e-17
 1.429999999999999e+00 -8.256108849411650e-01 -1.696570384383008e-17
 1.429999999999999e+00 -8.256108849411650e-01 -1.696570384383008e-17
 1.429999999999999e+00 -8.256108849411650e-01 -1.696570384383008e-17
 1.429999999999999e+00 -8.256108849411650e-01 -1.696570384383008e-17
 1.429999999999999e+00 -8.256108849411650e-01 -1.696570384383008e-17
 1.429999999999999e+00 -8.256108849411650e-01 -1.696570384383008e-17
 1.429999999999999e+00 -8.256108849411650e-01 -1.696570384383008e-17
 1.429999999999999e+00 -8.256108849411650e-01 -1.696570384383008e-17
 1.429999999999999e+00 -8.256108849411650e-01 -1.696570384383008e-17
 1.429999999999999e+00 -8.256108849411650e-01 -1.696570384383008e-17
 1.429999999999999e+00 -8.256108849411650e-01 -1.696570384383008e-17
 1.429999999999999e+00 -8.256108849411650e-01 -1.696570384383008e-17
 1.429999999999999e+00 -8.256108849411650e-01 -1.696570384383008e-17
 1.429999999999999e+00 -8.256108849411650e-01 -1.696570384383008e-17
 1.429999999999999e+00 -8.256108849411650e-01 -1.696570384383008e-17
 1.429999999999999e+00 -8.256108849411650e-01 -1.696570384383008e-17
 1.429999999999999e+00 -8.256108849411650e-01 -1.696570384383008e-17
 1.429999999999999e+00 -8.256108849411650e-01 -1.696570384383008e-17
 1.429999999999999e+00 -8.256108849411650e-01 -1.696570384383008e-17
 1.429999999999999e+00 -8.256108849411650e-01 -1.696570384383008e-17
 1.429999999999999e+00 -8.256108849411650e-01 -1.696570384383008e-17
 1.429999999999999e+00 -8.256108849411650e-01 -1.696570384383008e-17
 1.429999999999999e+00 -8.256108849411650e-01 -1.696570384383008e-17
 1.429999999999999e+00 -8.256108849411650e-01 -1.696570384383008e-17
 1.429999999999999e+00 -8.256108849411650e-01 -1.696570384383008e-17
 1.429999999999999e+00 -8.256108849411650e-01 -1.696570384383008e-17
 1.429999999999999e+00 -8.256108849411650e-01 -1.696570384383008e-17
 1.429999999999999e+00 -8.256108849411650e-01 -1.696570384383008e-17
 1.429999999999999e+00 -8.256108849411650e-01 -1.696570384383008e-17
 1.429999999999999e+00 -8.256108849411650e-01 -1.696570384383008e-17
 1.429999999999999e+00 -8.256108849411650e-01 -1.696570384383008e-17
 1.429999999999999e+00 -8.256108849411650e-01 -1.696570384383008e-17
 1.429999999999999e+00 -8.256108849411650e-01 -1.696570384383008e-17
 1.429999999999999e+00 -8.256108849411650e-01 -1.696570384383008e-17
 1.429999999999999e+00 -8.256108849411650e-01 -1.696570384383008e-17
 1.429999999999999e+00 -8.256108849411650e-01 -1.696570384383008e-17
 1.429999999999999e+00 -8.256108849411650e-01 -1.696570384383008e-17
 1.429999999999999e+00 -8.256108849411650e-01 -1.696570384383008e-17
 1.429999999999999e+00 -8.256108849411650e-01 -1.696570384383008e-17
 1.429999999999999e+00 -8.256108849411650e-01 -1.696570384383008e-17
 1.429999999999999e+00 -8.256108849411650e-01 -1.696570384383008e-17
 1.429999999999999e+00 -8.256108849411650e-01 -1.696570384383008e-17
 1.429999999999999e+00 -8.256108849411650e-01 -1.696570384383008e-17
 1.429999999999999e+00 -8.256108849411650e-01 -1.696570384383008e-17
 1.429999999999999e+00 -8.256108849411650e-01 -1.696570384383008e-17
 1.429999999999999e+00 -8.256108849411650e-01 -1.696570384383008e-17
 1.429999999999999e+00 -8.256108849411650e-01 -1.696570384383008e-17
 1.429999999999999e+00 -8.256108849411650e-01 -1.696570384383008e-17
 1.429999999999999e+00 -8.256108849411650e-01 -1.696570384383008e-17
 1.429999999999999e+00 -8.256108849411650e-01 -1.696570384383008e-17
 1.429999999999999e+00 -8.256108849411650e-01 -1.696570384383008e-17
 1.429999999999999e+00 -8.256108849411650e-01 -1.696570384383008e-17
 1.429999999999999e+00 -8.256108849411650e-01 -1.696570384383008e-17
 1.429999999999999e+00 -8.256108849411650e-01 -1.696570384383008e-17
 1.429999999999999e+00 -8.256108849411650e-01 -1.696570384383008e-17
 1.429999999999999e+00 -8.256108849411650e-01 -1.696570384383008e-17
 1.429999999999999e+00 -8.256108849411650e-01 -1.696570384383008e-17
 1.429999999999999e+00 -8.256108849411650e-01 -1.696570384383008e-17
 1.429999999999999e+00 -8.256108849411650e-01 -1.696570384383008e-17
 1.429999999999999e+00 -8.256108849411650e-01 -1.696570384383008e-17
 1.429999999999999e+00 -8.256108849411650e-01 -1.696570384383008e-17
 1.429999999999999e+00 -8.256108849411650e-01 -1.696570384383008e-17
 1.429999999999999e+00 -8.256108849411650e-01 -1.696570384383008e-17
 1.429999999999999e+00 -8.256108849411650e-01 -1.696570384383008e-17
 1.429999999999999e+00 -8.256108849411650e-01 -1.696570384383008e-17
 1.429999999999999e+00 -8.256108849411650e-01 -1.696570384383008e-17
 1.429999999999999e+00 -8.256108849411650e-01 -1.696570384383008e-17
 1.429999999999999e+00 -8.256108849411650e-01 -1.696570384383008e-17
 1.429999999999999e+00 -8.256108849411650e-01 -1.696570384383008e-17
 1.429999999999999e+00 -8.256108849411650e-01 -1.696570384383008e-17
 1.429999999999999e+00 -8.256108849411650e-01 -1.696570384383008e-17
 1.429999999999999e+00 -8.256108849411650e-01 -1.696570384383008e-17
 1.429999999999999e+00 -8.256108849411650e-01 -1.696570384383008e-17
 1.429999999999999e+00 -8.256108849411650e-01 -1.696570384383008e-17
 1.429999999999999e+00 -8.256108849411650e-01 -1.696570384383008e-17
 1.429999999999999e+00 -8.256108849411650e-01 -1.696570384383008e-17
 1.429999999999999e+00 -8.256108849411650e-01 -1.696570384383008e-17
 1.429999999999999e+00 -8.256108849411650e-01 -1.696570384383008e-17
 1.429999999999999e+00 -8.256108849411650e-01 -1.696570384383008e-17
 1.429999999999999e+00 -8.256108849411650e-01 -1.696570384383008e-17
 1.429999999999999e+00 -8.256108849411650e-01 -1.696570384383008e-17
 1.429999999999999e+00 -8.256108849411650e-01 -1.696570384383008e-17
 1.429999999999999e+00 -8.256108849411650e-01 -1.696570384383008e-17
 1.429999999999999e+00 -8.256108849411650e-01 -1.696570384383008e-17
 1.429999999999999e+00 -8.256108849411650e-01 -1.696570384383008e-17
 1.429999999999999e+00 -8.256108849411650e-01 -1.696570384383008e-17
 1.429999999999999e+00 -8.256108849411650e-01 -1.696570384383008e-17
 1.429999999999999e+00 -8.256108849411650e-01 -1.696570384383008e-17
 1.429999999999999e+00 -8.256108849411650e-01 -1.696570384383008e-17
 1.429999999999999e+00 -8.256108849411650e-01 -1.696570384383008e-17
 1.429999999999999e+00 -8.256108849411650e-01 -1.696570384383008e-17
 1.429999999999999e+00 -8.256108849411650e-01 -1.696570384383008e-17
 1.429999999999999e+00 -8.256108849411650e-01 -1.696570384383008e-17
 1.429999999999999e+00 -8.256108849411650e-01 -1.696570384383008e-17
 1.429999999999999e+00 -8.256108849411650e-01 -1.696570384383008e-17
 1.429999999999999e+00 -8.256108849411650e-01 -1.696570384383008e-17
 1.429999999999999e+00 -8.256108849411650e-01 -1.696570384383008e-17
 1.429999999999999e+00 -8.256108849411650e-01 -1.696570384383008e-17
 1.429999999999999e+00 -8.256108849411650e-01 -1.696570384383008e-17
 1.429999999999999e+00 -8.256108849411650e-01 -1.696570384383008e-17
 1.429999999999999e+00 -8.256108849411650e-01 -1.696570384383008e-17
 1.429999999999999e+00 -8.256108849411650e-01 -1.696570384383008e-17
 1.429999999999999e+00 -8.256108849411650e-01 -1.696570384383008e-17
 1.429999999999999e+00 -8.256108849411650e-01 -1.696570384383008e-17
 1.429999999999999e+00 -8.256108849411650e-01 -1.696570384383008e-17
 1.429999999999999e+00 -8.256108849411650e-01 -1.696570384383008e-17
 1.429999999999999e+00 -8.256108849411650e-01 -1.696570384383008e-17
 1.429999999999999e+00 -8.256108849411650e-01 -1.696570384383008e-17
 1.429999999999999e+00 -8.256108849411650e-01 -1.696570384383008e-17
 1.429999999999999e+00 -8.256108849411650e-01 -1.696570384383008e-17
 1.429999999999999e+00 -8.256108849411650e-01 -1.696570384383008e-17
 1.429999999999999e+00 -8.256108849411650e-01 -1.696570384383008e-17
 1.429999999999999e+00 -8.256108849411650e-01 -1.696570384383008e-17
 1.429999999999999e+00 -8.256108849411650e-01 -1.696570384383008e-17
 1.429999999999999e+00 -8.256108849411650e-01 -1.696570384383008e-17
 1.429999999999999e+00 -8.256108849411650e-01 -1.696570384383008e-17
 1.429999999999999e+00 -8.256108849411650e-01 -1.696570384383008e-17
 1.429999999999999e+00 -8.256108849411650e-01 -1.696570384383008e-17
 1.429999999999999e+00 -8.256108849411650e-01 -1.696570384383008e-17
 1.429999999999999e+00 -8.256108849411650e-01 -1.696570384383008e-17
 1.429999999999999e+00 -8.256108849411650e-01 -1.696570384383008e-17
 1.429999999999999e+00 -8.256108849411650e-01 -1.696570384383008e-17
 1.429999999999999e+00 -8.256108849411650e-01 -1.696570384383008e-17
 1.429999999999999e+00 -8.256108849411650e-01 -1.696570384383008e-17
 1.429999999999999e+00 -8.256108849411650e-01 -1.696570384383008e-17
 1.429999999999999e+00 -8.256108849411650e-01 -1.696570384383008e-17
 1.429999999999999e+00 -8.256108849411650e-01 -1.696570384383008e-17
 1.429999999999999e+00 -8.256108849411650e-01 -1.696570384383008e-17
 1.429999999999999e+00 -8.256108849411650e-01 -1.696570384383008e-17
 1.429999999999999e+00 -8.256108849411650e-01 -1.696570384383008e-17
 1.429999999999999e+00 -8.256108849411650e-01 -1.696570384383008e-17
 1.429999999999999e+00 -8.256108849411650e-01 -1.696570384383008e-17
 1.429999999999999e+00 -8.256108849411650e-01 -1.696570384383008e-17
 1.429999999999999e+00 -8.256108849411650e-01 -1.696570384383008e-17
 1.429999999999999e+00 -8.256108849411650e-01 -1.696570384383008e-17
 1.429999999999999e+00 -8.256108849411650e-01 -1.696570384383008e-17
 1.429999999999999e+00 -8.256108849411650e-01 -1.696570384383008e-17
 1.429999999999999e+00 -8.256108849411650e-01 -1.696570384383008e-17
 1.429999999999999e+00 -8.256108849411650e-01 -1.696570384383008e-17
 1.429999999999999e+00 -8.256108849411650e-01 -1.696570384383008e-17
 1.429999999999999e+00 -8.256108849411650e-01 -1.696570384383008e-17
 1.429999999999999e+00 -8.256108849411650e-01 -1.696570384383008e-17
 1.429999999999999e+00 -8.256108849411650e-01 -1.696570384383008e-17
 1.429999999999999e+00 -8.256108849411650e-01 -1.696570384383008e-17
 1.429999999999999e+00 -8.256108849411650e-01 -1.696570384383008e-17
 1.429999999999999e+00 -8.256108849411650e-01 -1.696570384383008e-17
 1.429999999999999e+00 -8.256108849411650e-01 -1.696570384383008e-17
 1.429999999999999e+00 -8.256108849411650e-01 -1.696570384383008e-17
 1.429999999999999e+00 -8.256108849411650e-01 -1.696570384383008e-17
 1.429999999999999e+00 -8.256108849411650e-01 -1.696570384383008e-17
 1.429999999999999e+00 -8.256108849411650e-01 -1.696570384383008e-17
 1.429999999999999e+00 -8.256108849411650e-01 -1.696570384383008e-17
 1.429999999999999e+00 -8.256108849411650e-01 -1.696570384383008e-17
 1.429999999999999e+00 -8.256108849411650e-01 -1.696570384383008e-17
 1.429999999999999e+00 -8.256108849411650e-01 -1.696570384383008e-17
 1.429999999999999e+00 -8.256108849411650e-01 -1.696570384383008e-17
 1.429999999999999e+00 -8.256108849411650e-01 -1.696570384383008e-17
 1.429999999999999e+00 -8.256108849411650e-01 -1.696570384383008e-17
 1.429999999999999e+00 -8.256108849411650e-01 -1.696570384383008e-17
 1.429999999999999e+00 -8.256108849411650e-01 -1.696570384383008e-17
 1.429999999999999e+00 -8.256108849411650e-01 -1.696570384383008e-17
 1.429999999999999e+00 -8.256108849411650e-01 -1.696570384383008e-17
 1.429999999999999e+00 -8.256108849411650e-01 -1.696570384383008e-17
 1.429999999999999e+00 -8.256108849411650e-01 -1.696570384383008e-17
 1.429999999999999e+00 -8.256108849411650e-01 -1.696570384383008e-17
 1.429999999999999e+00 -8.256108849411650e-01 -1.696570384383008e-17
 1.429999999999999e+00 -8.256108849411650e-01 -1.696570384383008e-17
 1.429999999999999e+00 -8.256108849411650e-01 -1.696570384383008e-17
 1.429999999999999e+00 -8.256108849411650e-01 -1.696570384383008e-17
 1.429999999999999e+00 -8.256108849411650e-01 -1.696570384383008e-17
 1.429999999999999e+00 -8.256108849411650e-01 -1.696570384383008e-17
 1.429999999999999e+00 -8.256108849411650e-01 -1.696570384383008e-17
 1.429999999999999e+00 -8.256108849411650e-01 -1.696570384383008e-17
 1.429999999999999e+00 -8.256108849411650e-01 -1.696570384383008e-17
 1.429999999999999e+00 -8.256108849411650e-01 -1.696570384383008e-17
 1.429999999999999e+00 -8.256108849411650e-01 -1.696570384383008e-17
 1.429999999999999e+00 -8.256108849411650e-01 -1.696570384383008e-17
 1.429999999999999e+00 -8.256108849411650e-01 -1.696570384383008e-17
 1.429999999999999e+00 -8.256108849411650e-01 -1.696570384383008e-17
 1.429999999999999e+00 -8.256108849411650e-01 -1.696570384383008e-17
 1.429999999999999e+00 -8.256108849411650e-01 -1.696570384383008e-17
 1.429999999999999e+00 -8.256108849411650e-01 -1.696570384383008e-17
 1.429999999999999e+00 -8.256108849411650e-01 -1.696570384383008e-17
 1.429999999999999e+00 -8.256108849411650e-01 -1.696570384383008e-17
 1.429999999999999e+00 -8.256108849411650e-01 -1.696570384383008e-17
 1.429999999999999e+00 -8.256108849411650e-01 -1.696570384383008e-17
 1.429999999999999e+00 -8.256108849411650e-01 -1.696570384383008e-17
 1.429999999999999e+00 -8.256108849411650e-01 -1.696570384383008e-17
 1.429999999999999e+00 -8.256108849411650e-01 -1.696570384383008e-17
 1.429999999999999e+00 -8.256108849411650e-01 -1.696570384383008e-17
 1.429999999999999e+00 -8.256108849411650e-01 -1.696570384383008e-17
 1.429999999999999e+00 -8.256108849411650e-01 -1.696570384383008e-17
 1.429999999999999e+00 -8.256108849411650e-01 -1.696570384383008e-17
 1.429999999999999e+00 -8.256108849411650e-01 -1.696570384383008e-17
 1.429999999999999e+00 -8.256108849411650e-01 -1.696570384383008e-17
 1.429999999999999e+00 -8.256108849411650e-01 -1.696570384383008e-17
 1.429999999999999e+00 -8.256108849411650e-01 -1.696570384383008e-17
 1.429999999999999e+00 -8.256108849411650e-01 -1.696570384383008e-17
 1.429999999999999e+00 -8.256108849411650e-01 -1.696570384383008e-17
 1.429999999999999e+00 -8.256108849411650e-01 -1.696570384383008e-17
 1.429999999999999e+00 -8.256108849411650e-01 -1.696570384383008e-17
 1.429999999999999e+00 -8.256108849411650e-01 -1.696570384383008e-17
 1.429999999999999e+00 -8.256108849411650e-01 -1.696570384383008e-17
 1.429999999999999e+00 -8.256108849411650e-01 -1.696570384383008e-17
 1.429999999999999e+00 -8.256108849411650e-01 -1.696570384383008e-17
 1.429999999999999e+00 -8.256108849411650e-01 -1.696570384383008e-17
 1.429999999999999e+00 -8.256108849411650e-01 -1.696570384383008e-17
 1.429999999999999e+00 -8.256108849411650e-01 -1.696570384383008e-17
 1.429999999999999e+00 -8.256108849411650e-01 -1.696570384383008e-17
 1.429999999999999e+00 -8.256108849411650e-01 -1.696570384383008e-17
 1.429999999999999e+00 -8.256108849411650e-01 -1.696570384383008e-17
 1.429999999999999e+00 -8.256108849411650e-01 -1.696570384383008e-17
 1.429999999999999e+00 -8.256108849411650e-01 -1.696570384383008e-17
 1.429999999999999e+00 -8.256108849411650e-01 -1.696570384383008e-17
 1.429999999999999e+00 -8.256108849411650e-01 -1.696570384383008e-17
 1.429999999999999e+00 -8.256108849411650e-01 -1.696570384383008e-17
 1.429999999999999e+00 -8.256108849411650e-01 -1.696570384383008e-17
 1.429999999999999e+00 -8.256108849411650e-01 -1.696570384383008e-17
 1.429999999999999e+00 -8.256108849411650e-01 -1.696570384383008e-17
 1.429999999999999e+00 -8.256108849411650e-01 -1.696570384383008e-17
 1.429999999999999e+00 -8.256108849411650e-01 -1.696570384383008e-17
 1.429999999999999e+00 -8.256108849411650e-01 -1.696570384383008e-17
 1.429999999999999e+00 -8.256108849411650e-01 -1.696570384383008e-17
 1.429999999999999e+00 -8.256108849411650e-01 -1.696570384383008e-17
 1.429999999999999e+00 -8.256108849411650e-01 -1.696570384383008e-17
 1.429999999999999e+00 -8.256108849411650e-01 -1.696570384383008e-17
 1.429999999999999e+00 -8.256108849411650e-01 -1.696570384383008e-17
 1.429999999999999e+00 -8.256108849411650e-01 -1.696570384383008e-17
 1.429999999999999e+00 -8.256108849411650e-01 -1.696570384383008e-17
 1.429999999999999e+00 -8.256108849411650e-01 -1.696570384383008e-17
 1.429999999999999e+00 -8.256108849411650e-01 -1.696570384383008e-17
 1.429999999999999e+00 -8.256108849411650e-01 -1.696570384383008e-17
 1.429999999999999e+00 -8.256108849411650e-01 -1.696570384383008e-17
 1.429999999999999e+00 -8.256108849411650e-01 -1.696570384383008e-17
 1.429999999999999e+00 -8.256108849411650e-01 -1.696570384383008e-17
 1.429999999999999e+00 -8.256108849411650e-01 -1.696570384383008e-17
 1.429999999999999e+00 -8.256108849411650e-01 -1.696570384383008e-17
 1.429999999999999e+00 -8.256108849411650e-01 -1.696570384383008e-17
 1.429999999999999e+00 -8.256108849411650e-01 -1.696570384383008e-17
 1.429999999999999e+00 -8.256108849411650e-01 -1.696570384383008e-17
 1.429999999999999e+00 -8.256108849411650e-01 -1.696570384383008e-17
 1.429999999999999e+00 -8.256108849411650e-01 -1.696570384383008e-17
 1.429999999999999e+00 -8.256108849411650e-01 -1.696570384383008e-17
 1.429999999999999e+00 -8.256108849411650e-01 -1.696570384383008e-17
 1.429999999999999e+00 -8.256108849411650e-01 -1.696570384383008e-17
 1.429999999999999e+00 -8.256108849411650e-01 -1.696570384383008e-17
 1.429999999999999e+00 -8.256108849411650e-01 -1.696570384383008e-17
 1.429999999999999e+00 -8.256108849411650e-01 -1.696570384383008e-17
 1.429999999999999e+00 -8.256108849411650e-01 -1.696570384383008e-17
 1.429999999999999e+00 -8.256108849411650e-01 -1.696570384383008e-17
 1.429999999999999e+00 -8.256108849411650e-01 -1.696570384383008e-17
 1.429999999999999e+00 -8.256108849411650e-01 -1.696570384383008e-17
 1.429999999999999e+00 -8.256108849411650e-01 -1.696570384383008e-17
 1.429999999999999e+00 -8.256108849411650e-01 -1.696570384383008e-17
 1.429999999999999e+00 -8.256108849411650e-01 -1.696570384383008e-17
 1.429999999999999e+00 -8.256108849411650e-01 -1.696570384383008e-17
 1.429999999999999e+00 -8.256108849411650e-01 -1.696570384383008e-17
 1.429999999999999e+00 -8.256108849411650e-01 -1.696570384383008e-17
 1.429999999999999e+00 -8.256108849411650e-01 -1.696570384383008e-17
 1.429999999999999e+00 -8.256108849411650e-01 -1.696570384383008e-17
 1.429999999999999e+00 -8.256108849411650e-01 -1.696570384383008e-17
 1.429999999999999e+00 -8.256108849411650e-01 -1.696570384383008e-17
 1.429999999999999e+00 -8.256108849411650e-01 -1.696570384383008e-17
 1.429999999999999e+00 -8.256108849411650e-01 -1.696570384383008e-17
 1.429999999999999e+00 -8.256108849411650e-01 -1.696570384383008e-17
 1.429999999999999e+00 -8.256108849411650e-01 -1.696570384383008e-17
 1.429999999999999e+00 -8.256108849411650e-01 -1.696570384383008e-17
 1.429999999999999e+00 -8.256108849411650e-01 -1.696570384383008e-17
 1.429999999999999e+00 -8.256108849411650e-01 -1.696570384383008e-17
 1.429999999999999e+00 -8.256108849411650e-01 -1.696570384383008e-17
 1.429999999999999e+00 -8.256108849411650e-01 -1.696570384383008e-17
 1.429999999999999e+00 -8.256108849411650e-01 -1.696570384383008e-17
 1.429999999999999e+00 -8.256108849411650e-01 -1.696570384383008e-17
 1.429999999999999e+00 -8.256108849411650e-01 -1.696570384383008e-17
 1.429999999999999e+00 -8.256108849411650e-01 -1.696570384383008e-17
 1.429999999999999e+00 -8.256108849411650e-01 -1.696570384383008e-17
 1.429999999999999e+00 -8.256108849411650e-01 -1.696570384383008e-17
 1.429999999999999e+00 -8.256108849411650e-01 -1.696570384383008e-17
 1.429999999999999e+00 -8.256108849411650e-01 -1.696570384383008e-17
 1.429999999999999e+00 -8.256108849411650e-01 -1.696570384383008e-17
 1.429999999999999e+00 -8.256108849411650e-01 -1.696570384383008e-17
 1.429999999999999e+00 -8.256108849411650e-01 -1.696570384383008e-17
 1.429999999999999e+00 -8.256108849411650e-01 -1.696570384383008e-17
 1.429999999999999e+00 -8.256108849411650e-01 -1.696570384383008e-17
 1.429999999999999e+00 -8.256108849411650e-01 -1.696570384383008e-17
 1.429999999999999e+00 -8.256108849411650e-01 -1.696570384383008e-17
 1.429999999999999e+00 -8.256108849411650e-01 -1.696570384383008e-17
 1.429999999999999e+00 -8.256108849411650e-01 -1.696570384383008e-17
 1.429999999999999e+00 -8.256108849411650e-01 -1.696570384383008e-17
 1.429999999999999e+00 -8.256108849411650e-01 -1.696570384383008e-17
 1.429999999999999e+00 -8.256108849411650e-01 -1.696570384383008e-17
 1.429999999999999e+00 -8.256108849411650e-01 -1.696570384383008e-17
 1.429999999999999e+00 -8.256108849411650e-01 -1.696570384383008e-17
 1.429999999999999e+00 -8.256108849411650e-01 -1.696570384383008e-17
 1.429999999999999e+00 -8.256108849411650e-01 -1.696570384383008e-17
 1.429999999999999e+00 -8.256108849411650e-01 -1.696570384383008e-17
 1.429999999999999e+00 -8.256108849411650e-01 -1.696570384383008e-17
 1.429999999999999e+00 -8.256108849411650e-01 -1.696570384383008e-17
 1.429999999999999e+00 -8.256108849411650e-01 -1.696570384383008e-17
 1.429999999999999e+00 -8.256108849411650e-01 -1.696570384383008e-17
 1.429999999999999e+00 -8.256108849411650e-01 -1.696570384383008e-17
 1.429999999999999e+00 -8.256108849411650e-01 -1.696570384383008e-17
 1.429999999999999e+00 -8.256108849411650e-01 -1.696570384383008e-17
 1.429999999999999e+00 -8.256108849411650e-01 -1.696570384383008e-17
 1.429999999999999e+00 -8.256108849411650e-01 -1.696570384383008e-17
 1.429999999999999e+00 -8.256108849411650e-01 -1.696570384383008e-17
 1.429999999999999e+00 -8.256108849411650e-01 -1.696570384383008e-17
 1.429999999999999e+00 -8.256108849411650e-01 -1.696570384383008e-17
 1.429999999999999e+00 -8.256108849411650e-01 -1.696570384383008e-17
 1.429999999999999e+00 -8.256108849411650e-01 -1.696570384383008e-17
 1.429999999999999e+00 -8.256108849411650e-01 -1.696570384383008e-17
 1.429999999999999e+00 -8.256108849411650e-01 -1.696570384383008e-17
 1.429999999999999e+00 -8.256108849411650e-01 -1.696570384383008e-17
 1.429999999999999e+00 -8.256108849411650e-01 -1.696570384383008e-17
 1.429999999999999e+00 -8.256108849411650e-01 -1.696570384383008e-17
 1.429999999999999e+00 -8.256108849411650e-01 -1.696570384383008e-17
 1.429999999999999e+00 -8.256108849411650e-01 -1.696570384383008e-17
 1.429999999999999e+00 -8.256108849411650e-01 -1.696570384383008e-17
 1.429999999999999e+00 -8.256108849411650e-01 -1.696570384383008e-17
 1.429999999999999e+00 -8.256108849411650e-01 -1.696570384383008e-17
 1.429999999999999e+00 -8.256108849411650e-01 -1.696570384383008e-17
 1.429999999999999e+00 -8.256108849411650e-01 -1.696570384383008e-17
 1.429999999999999e+00 -8.256108849411650e-01 -1.696570384383008e-17
 1.429999999999999e+00 -8.256108849411650e-01 -1.696570384383008e-17
 1.429999999999999e+00 -8.256108849411650e-01 -1.696570384383008e-17
 1.429999999999999e+00 -8.256108849411650e-01 -1.696570384383008e-17
 1.429999999999999e+00 -8.256108849411650e-01 -1.696570384383008e-17
 1.429999999999999e+00 -8.256108849411650e-01 -1.696570384383008e-17
 1.429999999999999e+00 -8.256108849411650e-01 -1.696570384383008e-17
 1.429999999999999e+00 -8.256108849411650e-01 -1.696570384383008e-17
 1.429999999999999e+00 -8.256108849411650e-01 -1.696570384383008e-17
 1.429999999999999e+00 -8.256108849411650e-01 -1.696570384383008e-17
 1.429999999999999e+00 -8.256108849411650e-01 -1.696570384383008e-17
 1.429999999999999e+00 -8.256108849411650e-01 -1.696570384383008e-17
 1.429999999999999e+00 -8.256108849411650e-01 -1.696570384383008e-17
 1.429999999999999e+00 -8.256108849411650e-01 -1.696570384383008e-17
-1.429999999999999e+00  8.256108849411650e-01  1.696570384383008e-17
 1.429999999999999e+00 -8.256108849411650e-01 -1.696570384383008e-17
 1.429999999999999e+00 -8.256108849411650e-01 -1.696570384383008e-17
 1.429999999999999e+00 -8.256108849411650e-01 -1.696570384383008e-17
 1.429999999999999e+00 -8.256108849411650e-01 -1.696570384383008e-17
 1.429999999999999e+00 -8.256108849411650e-01 -1.696570384383008e-17
 1.429999999999999e+00 -8.256108849411650e-01 -1.696570384383008e-17
 1.429999999999999e+00 -8.256108849411650e-01 -1.696570384383008e-17
 1.429999999999999e+00 -8.256108849411650e-01 -1.696570384383008e-17
 1.429999999999999e+00 -8.256108849411650e-01 -1.696570384383008e-17
 1.429999999999999e+00 -8.256108849411650e-01 -1.696570384383008e-17
 1.429999999999999e+00 -8.256108849411650e-01 -1.696570384383008e-17
 1.429999999999999e+00 -8.256108849411650e-01 -1.696570384383008e-17
 1.429999999999999e+00 -8.256108849411650e-01 -1.696570384383008e-17
 1.429999999999999e+00 -8.256108849411650e-01 -1.696570384383008e-17
 1.429999999999999e+00 -8.256108849411650e-01 -1.696570384383008e-17
 1.429999999999999e+00 -8.256108849411650e-01 -1.696570384383008e-17
 1.429999999999999e+00 -8.256108849411650e-01 -1.696570384383008e-17
 1.429999999999999e+00 -8.256108849411650e-01 -1.696570384383008e-17
 1.429999999999999e+00 -8.256108849411650e-01 -1.696570384383008e-17
 1.429999999999999e+00 -8.256108849411650e-01 -1.696570384383008e-17
 1.429999999999999e+00 -8.256108849411650e-01 -1.696570384383008e-17
 1.429999999999999e+00 -8.256108849411650e-01 -1.696570384383008e-17
 1.429999999999999e+00 -8.256108849411650e-01 -1.696570384383008e-17
 1.429999999999999e+00 -8.256108849411650e-01 -1.696570384383008e-17
 1.429999999999999e+00 -8.256108849411650e-01 -1.696570384383008e-17
 1.429999999999999e+00 -8.256108849411650e-01 -1.696570384383008e-17
 1.429999999999999e+00 -8.256108849411650e-01 -1.696570384383008e-17
 1.429999999999999e+00 -8.256108849411650e-01 -1.696570384383008e-17
 1.429999999999999e+00 -8.256108849411650e-01 -1.696570384383008e-17
 1.429999999999999e+00 -8.256108849411650e-01 -1.696570384383008e-17
 1.429999999999999e+00 -8.256108849411650e-01 -1.696570384383008e-17
 1.429999999999999e+00 -8.256108849411650e-01 -1.696570384383008e-17
 1.429999999999999e+00 -8.256108849411650e-01 -1.696570384383008e-17
 1.429999999999999e+00 -8.256108849411650e-01 -1.696570384383008e-17
 1.429999999999999e+00 -8.256108849411650e-01 -1.696570384383008e-17
 1.429999999999999e+00 -8.256108849411650e-01 -1.696570384383008e-17
 1.429999999999999e+00 -8.256108849411650e-01 -1.696570384383008e-17
 1.429999999999999e+00 -8.256108849411650e-01 -1.696570384383008e-17
 1.429999999999999e+00 -8.256108849411650e-01 -1.696570384383008e-17
 1.429999999999999e+00 -8.256108849411650e-01 -1.696570384383008e-17
 1.429999999999999e+00 -8.256108849411650e-01 -1.696570384383008e-17
 1.429999999999999e+00 -8.256108849411650e-01 -1.696570384383008e-17
 1.429999999999999e+00 -8.256108849411650e-01 -1.696570384383008e-17
 1.429999999999999e+00 -8.256108849411650e-01 -1.696570384383008e-17
 1.429999999999999e+00 -8.256108849411650e-01 -1.696570384383008e-17
 1.429999999999999e+00 -8.256108849411650e-01 -1.696570384383008e-17
 1.429999999999999e+00 -8.256108849411650e-01 -1.696570384383008e-17
 1.429999999999999e+00 -8.256108849411650e-01 -1.696570384383008e-17
 1.429999999999999e+00 -8.256108849411650e-01 -1.696570384383008e-17
 1.429999999999999e+00 -8.256108849411650e-01 -1.696570384383008e-17
 1.429999999999999e+00 -8.256108849411650e-01 -1.696570384383008e-17
 1.429999999999999e+00 -8.256108849411650e-01 -1.696570384383008e-17
 1.429999999999999e+00 -8.256108849411650e-01 -1.696570384383008e-17
 1.429999999999999e+00 -8.256108849411650e-01 -1.696570384383008e-17
 1.429999999999999e+00 -8.256108849411650e-01 -1.696570384383008e-17
 1.429999999999999e+00 -8.256108849411650e-01 -1.696570384383008e-17
 1.429999999999999e+00 -8.256108849411650e-01 -1.696570384383008e-17
 1.429999999999999e+00 -8.256108849411650e-01 -1.696570384383008e-17
 1.429999999999999e+00 -8.256108849411650e-01 -1.696570384383008e-17
 1.429999999999999e+00 -8.256108849411650e-01 -1.696570384383008e-17
 1.429999999999999e+00 -8.256108849411650e-01 -1.696570384383008e-17
 1.429999999999999e+00 -8.256108849411650e-01 -1.696570384383008e-17
 1.429999999999999e+00 -8.256108849411650e-01 -1.696570384383008e-17
 1.429999999999999e+00 -8.256108849411650e-01 -1.696570384383008e-17
 1.429999999999999e+00 -8.256108849411650e-01 -1.696570384383008e-17
 1.429999999999999e+00 -8.256108849411650e-01 -1.696570384383008e-17
 1.429999999999999e+00 -8.256108849411650e-01 -1.696570384383008e-17
 1.429999999999999e+00 -8.256108849411650e-01 -1.696570384383008e-17
 1.429999999999999e+00 -8.256108849411650e-01 -1.696570384383008e-17
 1.429999999999999e+00 -8.256108849411650e-01 -1.696570384383008e-17
 1.429999999999999e+00 -8.256108849411650e-01 -1.696570384383008e-17
 1.429999999999999e+00 -8.256108849411650e-01 -1.696570384383008e-17
 1.429999999999999e+00 -8.256108849411650e-01 -1.696570384383008e-17
 1.429999999999999e+00 -8.256108849411650e-01 -1.696570384383008e-17
 1.429999999999999e+00 -8.256108849411650e-01 -1.696570384383008e-17
 1.429999999999999e+00 -8.256108849411650e-01 -1.696570384383008e-17
 1.429999999999999e+00 -8.256108849411650e-01 -1.696570384383008e-17
 1.429999999999999e+00 -8.256108849411650e-01 -1.696570384383008e-17
 1.429999999999999e+00 -8.256108849411650e-01 -1.696570384383008e-17
 1.429999999999999e+00 -8.256108849411650e-01 -1.696570384383008e-17
 1.429999999999999e+00 -8.256108849411650e-01 -1.696570384383008e-17
 1.429999999999999e+00 -8.256108849411650e-01 -1.696570384383008e-17
 1.429999999999999e+00 -8.256108849411650e-01 -1.696570384383008e-17
 1.429999999999999e+00 -8.256108849411650e-01 -1.696570384383008e-17
 1.429999999999999e+00 -8.256108849411650e-01 -1.696570384383008e-17
 1.429999999999999e+00 -8.256108849411650e-01 -1.696570384383008e-17
 1.429999999999999e+00 -8.256108849411650e-01 -1.696570384383008e-17
 1.429999999999999e+00 -8.256108849411650e-01 -1.696570384383008e-17
 1.429999999999999e+00 -8.256108849411650e-01 -1.696570384383008e-17
 1.429999999999999e+00 -8.256108849411650e-01 -1.696570384383008e-17
 1.429999999999999e+00 -8.256108849411650e-01 -1.696570384383008e-17
 1.429999999999999e+00 -8.256108849411650e-01 -1.696570384383008e-17
 1.429999999999999e+00 -8.256108849411650e-01 -1.696570384383008e-17
 1.429999999999999e+00 -8.256108849411650e-01 -1.696570384383008e-17
 1.429999999999999e+00 -8.256108849411650e-01 -1.696570384383008e-17
 1.429999999999999e+00 -8.256108849411650e-01 -1.696570384383008e-17
 1.429999999999999e+00 -8.256108849411650e-01 -1.696570384383008e-17
 1.429999999999999e+00 -8.256108849411650e-01 -1.696570384383008e-17
 1.429999999999999e+00 -8.256108849411650e-01 -1.696570384383008e-17
 1.429999999999999e+00 -8.256108849411650e-01 -1.696570384383008e-17
 1.429999999999999e+00 -8.256108849411650e-01 -1.696570384383008e-17
 1.429999999999999e+00 -8.256108849411650e-01 -1.696570384383008e-17
 1.429999999999999e+00 -8.256108849411650e-01 -1.696570384383008e-17
 1.429999999999999e+00 -8.256108849411650e-01 -1.696570384383008e-17
 1.429999999999999e+00 -8.256108849411650e-01 -1.696570384383008e-17
 1.429999999999999e+00 -8.256108849411650e-01 -1.696570384383008e-17
 1.429999999999999e+00 -8.256108849411650e-01 -1.696570384383008e-17
 1.429999999999999e+00 -8.256108849411650e-01 -1.696570384383008e-17
 1.429999999999999e+00 -8.256108849411650e-01 -1.696570384383008e-17
 1.429999999999999e+00 -8.256108849411650e-01 -1.696570384383008e-17
 1.429999999999999e+00 -8.256108849411650e-01 -1.696570384383008e-17
 1.429999999999999e+00 -8.256108849411650e-01 -1.696570384383008e-17
 1.429999999999999e+00 -8.256108849411650e-01 -1.696570384383008e-17
 1.429999999999999e+00 -8.256108849411650e-01 -1.696570384383008e-17
 1.429999999999999e+00 -8.256108849411650e-01 -1.696570384383008e-17
 1.429999999999999e+00 -8.256108849411650e-01 -1.696570384383008e-17
 1.429999999999999e+00 -8.256108849411650e-01 -1.696570384383008e-17
 1.429999999999999e+00 -8.256108849411650e-01 -1.696570384383008e-17
 1.429999999999999e+00 -8.256108849411650e-01 -1.696570384383008e-17
 1.429999999999999e+00 -8.256108849411650e-01 -1.696570384383008e-17
 1.429999999999999e+00 -8.256108849411650e-01 -1.696570384383008e-17
 1.429999999999999e+00 -8.256108849411650e-01 -1.696570384383008e-17
 1.429999999999999e+00 -8.256108849411650e-01 -1.696570384383008e-17
 1.429999999999999e+00 -8.256108849411650e-01 -1.696570384383008e-17
 1.429999999999999e+00 -8.256108849411650e-01 -1.696570384383008e-17
 1.429999999999999e+00 -8.256108849411650e-01 -1.696570384383008e-17
 1.429999999999999e+00 -8.256108849411650e-01 -1.696570384383008e-17
 1.429999999999999e+00 -8.256108849411650e-01 -1.696570384383008e-17
 1.429999999999999e+00 -8.256108849411650e-01 -1.696570384383008e-17
 1.429999999999999e+00 -8.256108849411650e-01 -1.696570384383008e-17
 1.429999999999999e+00 -8.256108849411650e-01 -1.696570384383008e-17
 1.429999999999999e+00 -8.256108849411650e-01 -1.696570384383008e-17
 1.429999999999999e+00 -8.256108849411650e-01 -1.696570384383008e-17
 1.429999999999999e+00 -8.256108849411650e-01 -1.696570384383008e-17
 1.429999999999999e+00 -8.256108849411650e-01 -1.696570384383008e-17
 1.429999999999999e+00 -8.256108849411650e-01 -1.696570384383008e-17
 1.429999999999999e+00 -8.256108849411650e-01 -1.696570384383008e-17
 1.429999999999999e+00 -8.256108849411650e-01 -1.696570384383008e-17
 1.429999999999999e+00 -8.256108849411650e-01 -1.696570384383008e-17
 1.429999999999999e+00 -8.256108849411650e-01 -1.696570384383008e-17
 1.429999999999999e+00 -8.256108849411650e-01 -1.696570384383008e-17
 1.429999999999999e+00 -8.256108849411650e-01 -1.696570384383008e-17
 1.429999999999999e+00 -8.256108849411650e-01 -1.696570384383008e-17
 1.429999999999999e+00 -8.256108849411650e-01 -1.696570384383008e-17
 1.429999999999999e+00 -8.256108849411650e-01 -1.696570384383008e-17
 1.429999999999999e+00 -8.256108849411650e-01 -1.696570384383008e-17
 1.429999999999999e+00 -8.256108849411650e-01 -1.696570384383008e-17
 1.429999999999999e+00 -8.256108849411650e-01 -1.696570384383008e-17
 1.429999999999999e+00 -8.256108849411650e-01 -1.696570384383008e-17
 1.429999999999999e+00 -8.256108849411650e-01 -1.696570384383008e-17
 1.429999999999999e+00 -8.256108849411650e-01 -1.696570384383008e-17
 1.429999999999999e+00 -8.256108849411650e-01 -1.696570384383008e-17
 1.429999999999999e+00 -8.256108849411650e-01 -1.696570384383008e-17
 1.429999999999999e+00 -8.256108849411650e-01 -1.696570384383008e-17
 1.429999999999999e+00 -8.256108849411650e-01 -1.696570384383008e-17
 1.429999999999999e+00 -8.256108849411650e-01 -1.696570384383008e-17
 1.429999999999999e+00 -8.256108849411650e-01 -1.696570384383008e-17
 1.429999999999999e+00 -8.256108849411650e-01 -1.696570384383008e-17
 1.429999999999999e+00 -8.256108849411650e-01 -1.696570384383008e-17
 1.429999999999999e+00 -8.256108849411650e-01 -1.696570384383008e-17
 1.429999999999999e+00 -8.256108849411650e-01 -1.696570384383008e-17
 1.429999999999999e+00 -8.256108849411650e-01 -1.696570384383008e-17
 1.429999999999999e+00 -8.256108849411650e-01 -1.696570384383008e-17
 1.429999999999999e+00 -8.256108849411650e-01 -1.696570384383008e-17
 1.429999999999999e+00 -8.256108849411650e-01 -1.696570384383008e-17
 1.429999999999999e+00 -8.256108849411650e-01 -1.696570384383008e-17
 1.429999999999999e+00 -8.256108849411650e-01 -1.696570384383008e-17
 1.429999999999999e+00 -8.256108849411650e-01 -1.696570384383008e-17
 1.429999999999999e+00 -8.256108849411650e-01 -1.696570384383008e-17
 1.429999999999999e+00 -8.256108849411650e-01 -1.696570384383008e-17
 1.429999999999999e+00 -8.256108849411650e-01 -1.696570384383008e-17
 1.429999999999999e+00 -8.256108849411650e-01 -1.696570384383008e-17
 1.429999999999999e+00 -8.256108849411650e-01 -1.696570384383008e-17
 1.429999999999999e+00 -8.256108849411650e-01 -1.696570384383008e-17
 1.429999999999999e+00 -8.256108849411650e-01 -1.696570384383008e-17
 1.429999999999999e+00 -8.256108849411650e-01 -1.696570384383008e-17
 1.429999999999999e+00 -8.256108849411650e-01 -1.696570384383008e-17
 1.429999999999999e+00 -8.256108849411650e-01 -1.696570384383008e-17
 1.429999999999999e+00 -8.256108849411650e-01 -1.696570384383008e-17
 1.429999999999999e+00 -8.256108849411650e-01 -1.696570384383008e-17
 1.429999999999999e+00 -8.256108849411650e-01 -1.696570384383008e-17
 1.429999999999999e+00 -8.256108849411650e-01 -1.696570384383008e-17
 1.429999999999999e+00 -8.256108849411650e-01 -1.696570384383008e-17
 1.429999999999999e+00 -8.256108849411650e-01 -1.696570384383008e-17
 1.429999999999999e+00 -8.256108849411650e-01 -1.696570384383008e-17
 1.429999999999999e+00 -8.256108849411650e-01 -1.696570384383008e-17
 1.429999999999999e+00 -8.256108849411650e-01 -1.696570384383008e-17
 1.429999999999999e+00 -8.256108849411650e-01 -1.696570384383008e-17
 1.429999999999999e+00 -8.256108849411650e-01 -1.696570384383008e-17
 1.429999999999999e+00 -8.256108849411650e-01 -1.696570384383008e-17
 1.429999999999999e+00 -8.256108849411650e-01 -1.696570384383008e-17
 1.429999999999999e+00 -8.256108849411650e-01 -1.696570384383008e-17
 1.429999999999999e+00 -8.256108849411650e-01 -1.696570384383008e-17
 1.429999999999999e+00 -8.256108849411650e-01 -1.696570384383008e-17
 1.429999999999999e+00 -8.256108849411650e-01 -1.696570384383008e-17
 1.429999999999999e+00 -8.256108849411650e-01 -1.696570384383008e-17
 1.429999999999999e+00 -8.256108849411650e-01 -1.696570384383008e-17
 1.429999999999999e+00 -8.256108849411650e-01 -1.696570384383008e-17
 1.429999999999999e+00 -8.256108849411650e-01 -1.696570384383008e-17
 1.429999999999999e+00 -8.256108849411650e-01 -1.696570384383008e-17
 1.429999999999999e+00 -8.256108849411650e-01 -1.696570384383008e-17
 1.429999999999999e+00 -8.256108849411650e-01 -1.696570384383008e-17
 1.429999999999999e+00 -8.256108849411650e-01 -1.696570384383008e-17
 1.429999999999999e+00 -8.256108849411650e-01 -1.696570384383008e-17
 1.429999999999999e+00 -8.256108849411650e-01 -1.696570384383008e-17
 1.429999999999999e+00 -8.256108849411650e-01 -1.696570384383008e-17
 1.429999999999999e+00 -8.256108849411650e-01 -1.696570384383008e-17
 1.429999999999999e+00 -8.256108849411650e-01 -1.696570384383008e-17
 1.429999999999999e+00 -8.256108849411650e-01 -1.696570384383008e-17
 1.429999999999999e+00 -8.256108849411650e-01 -1.696570384383008e-17
 1.429999999999999e+00 -8.256108849411650e-01 -1.696570384383008e-17
 1.429999999999999e+00 -8.256108849411650e-01 -1.696570384383008e-17
 1.429999999999999e+00 -8.256108849411650e-01 -1.696570384383008e-17
 1.429999999999999e+00 -8.256108849411650e-01 -1.696570384383008e-17
 1.429999999999999e+00 -8.256108849411650e-01 -1.696570384383008e-17
 1.429999999999999e+00 -8.256108849411650e-01 -1.696570384383008e-17
 1.429999999999999e+00 -8.256108849411650e-01 -1.696570384383008e-17
 1.429999999999999e+00 -8.256108849411650e-01 -1.696570384383008e-17
 1.429999999999999e+00 -8.256108849411650e-01 -1.696570384383008e-17
 1.429999999999999e+00 -8.256108849411650e-01 -1.696570384383008e-17
 1.429999999999999e+00 -8.256108849411650e-01 -1.696570384383008e-17
 1.429999999999999e+00 -8.256108849411650e-01 -1.696570384383008e-17
 1.429999999999999e+00 -8.256108849411650e-01 -1.696570384383008e-17
 1.429999999999999e+00 -8.256108849411650e-01 -1.696570384383008e-17
 1.429999999999999e+00 -8.256108849411650e-01 -1.696570384383008e-17
 1.429999999999999e+00 -8.256108849411650e-01 -1.696570384383008e-17
 1.429999999999999e+00 -8.256108849411650e-01 -1.696570384383008e-17
 1.429999999999999e+00 -8.256108849411650e-01 -1.696570384383008e-17
 1.429999999999999e+00 -8.256108849411650e-01 -1.696570384383008e-17
 1.429999999999999e+00 -8.256108849411650e-01 -1.696570384383008e-17
 1.429999999999999e+00 -8.256108849411650e-01 -1.696570384383008e-17
 1.429999999999999e+00 -8.256108849411650e-01 -1.696570384383008e-17
 1.429999999999999e+00 -8.256108849411650e-01 -1.696570384383008e-17
 1.429999999999999e+00 -8.256108849411650e-01 -1.696570384383008e-17
 1.429999999999999e+00 -8.256108849411650e-01 -1.696570384383008e-17
 1.429999999999999e+00 -8.256108849411650e-01 -1.696570384383008e-17
 1.429999999999999e+00 -8.256108849411650e-01 -1.696570384383008e-17
 1.429999999999999e+00 -8.256108849411650e-01 -1.696570384383008e-17
 1.429999999999999e+00 -8.256108849411650e-01 -1.696570384383008e-17
 1.429999999999999e+00 -8.256108849411650e-01 -1.696570384383008e-17
 1.429999999999999e+00 -8.256108849411650e-01 -1.696570384383008e-17
 1.429999999999999e+00 -8.256108849411650e-01 -1.696570384383008e-17
 1.429999999999999e+00 -8.256108849411650e-01 -1.696570384383008e-17
 1.429999999999999e+00 -8.256108849411650e-01 -1.696570384383008e-17
 1.429999999999999e+00 -8.256108849411650e-01 -1.696570384383008e-17
 1.429999999999999e+00 -8.256108849411650e-01 -1.696570384383008e-17
 1.429999999999999e+00 -8.256108849411650e-01 -1.696570384383008e-17
 1.429999999999999e+00 -8.256108849411650e-01 -1.696570384383008e-17
 1.429999999999999e+00 -8.256108849411650e-01 -1.696570384383008e-17
 1.429999999999999e+00 -8.256108849411650e-01 -1.696570384383008e-17
 1.429999999999999e+00 -8.256108849411650e-01 -1.696570384383008e-17
 1.429999999999999e+00 -8.256108849411650e-01 -1.696570384383008e-17
 1.429999999999999e+00 -8.256108849411650e-01 -1.696570384383008e-17
 1.429999999999999e+00 -8.256108849411650e-01 -1.696570384383008e-17
 1.429999999999999e+00 -8.256108849411650e-01 -1.696570384383008e-17
 1.429999999999999e+00 -8.256108849411650e-01 -1.696570384383008e-17
 1.429999999999999e+00 -8.256108849411650e-01 -1.696570384383008e-17
 1.429999999999999e+00 -8.256108849411650e-01 -1.696570384383008e-17
 1.429999999999999e+00 -8.256108849411650e-01 -1.696570384383008e-17
 1.429999999999999e+00 -8.256108849411650e-01 -1.696570384383008e-17
 1.429999999999999e+00 -8.256108849411650e-01 -1.696570384383008e-17
 1.429999999999999e+00 -8.256108849411650e-01 -1.696570384383008e-17
 1.429999999999999e+00 -8.256108849411650e-01 -1.696570384383008e-17
 1.429999999999999e+00 -8.256108849411650e-01 -1.696570384383008e-17
 1.429999999999999e+00 -8.256108849411650e-01 -1.696570384383008e-17
 1.429999999999999e+00 -8.256108849411650e-01 -1.696570384383008e-17
 1.429999999999999e+00 -8.256108849411650e-01 -1.696570384383008e-17
 1.429999999999999e+00 -8.256108849411650e-01 -1.696570384383008e-17
 1.429999999999999e+00 -8.256108849411650e-01 -1.696570384383008e-17
 1.429999999999999e+00 -8.256108849411650e-01 -1.696570384383008e-17
 1.429999999999999e+00 -8.256108849411650e-01 -1.696570384383008e-17
 1.429999999999999e+00 -8.256108849411650e-01 -1.696570384383008e-17
 1.429999999999999e+00 -8.256108849411650e-01 -1.696570384383008e-17
 1.429999999999999e+00 -8.256108849411650e-01 -1.696570384383008e-17
 1.429999999999999e+00 -8.256108849411650e-01 -1.696570384383008e-17
 1.429999999999999e+00 -8.256108849411650e-01 -1.696570384383008e-17
 1.429999999999999e+00 -8.256108849411650e-01 -1.696570384383008e-17
 1.429999999999999e+00 -8.256108849411650e-01 -1.696570384383008e-17
 1.429999999999999e+00 -8.256108849411650e-01 -1.696570384383008e-17
 1.429999999999999e+00 -8.256108849411650e-01 -1.696570384383008e-17
 1.429999999999999e+00 -8.256108849411650e-01 -1.696570384383008e-17
 1.429999999999999e+00 -8.256108849411650e-01 -1.696570384383008e-17
 1.429999999999999e+00 -8.256108849411650e-01 -1.696570384383008e-17
 1.429999999999999e+00 -8.256108849411650e-01 -1.696570384383008e-17
 1.429999999999999e+00 -8.256108849411650e-01 -1.696570384383008e-17
 1.429999999999999e+00 -8.256108849411650e-01 -1.696570384383008e-17
 1.429999999999999e+00 -8.256108849411650e-01 -1.696570384383008e-17
 1.429999999999999e+00 -8.256108849411650e-01 -1.696570384383008e-17
 1.429999999999999e+00 -8.256108849411650e-01 -1.696570384383008e-17
 1.429999999999999e+00 -8.256108849411650e-01 -1.696570384383008e-17
 1.429999999999999e+00 -8.256108849411650e-01 -1.696570384383008e-17
 1.429999999999999e+00 -8.256108849411650e-01 -1.696570384383008e-17
 1.429999999999999e+00 -8.256108849411650e-01 -1.696570384383008e-17
 1.429999999999999e+00 -8.256108849411650e-01 -1.696570384383008e-17
 1.429999999999999e+00 -8.256108849411650e-01 -1.696570384383008e-17
 1.429999999999999e+00 -8.256108849411650e-01 -1.696570384383008e-17
 1.429999999999999e+00 -8.256108849411650e-01 -1.696570384383008e-17
 1.429999999999999e+00 -8.256108849411650e-01 -1.696570384383008e-17
 1.429999999999999e+00 -8.256108849411650e-01 -1.696570384383008e-17
 1.429999999999999e+00 -8.256108849411650e-01 -1.696570384383008e-17
 1.429999999999999e+00 -8.256108849411650e-01 -1.696570384383008e-17
 1.429999999999999e+00 -8.256108849411650e-01 -1.696570384383008e-17
 1.429999999999999e+00 -8.256108849411650e-01 -1.696570384383008e-17
 1.429999999999999e+00 -8.256108849411650e-01 -1.696570384383008e-17
 1.429999999999999e+00 -8.256108849411650e-01 -1.696570384383008e-17
 1.429999999999999e+00 -8.256108849411650e-01 -1.696570384383008e-17
 1.429999999999999e+00 -8.256108849411650e-01 -1.696570384383008e-17
 1.429999999999999e+00 -8.256108849411650e-01 -1.696570384383008e-17
 1.429999999999999e+00 -8.256108849411650e-01 -1.696570384383008e-17
 1.429999999999999e+00 -8.256108849411650e-01 -1.696570384383008e-17
 1.429999999999999e+00 -8.256108849411650e-01 -1.696570384383008e-17
 1.429999999999999e+00 -8.256108849411650e-01 -1.696570384383008e-17
 1.429999999999999e+00 -8.256108849411650e-01 -1.696570384383008e-17
 1.429999999999999e+00 -8.256108849411650e-01 -1.696570384383008e-17
 1.429999999999999e+00 -8.256108849411650e-01 -1.696570384383008e-17
 1.429999999999999e+00 -8.256108849411650e-01 -1.696570384383008e-17
 1.429999999999999e+00 -8.256108849411650e-01 -1.696570384383008e-17
 1.429999999999999e+00 -8.256108849411650e-01 -1.696570384383008e-17
 1.429999999999999e+00 -8.256108849411650e-01 -1.696570384383008e-17
 1.429999999999999e+00 -8.256108849411650e-01 -1.696570384383008e-17
 1.429999999999999e+00 -8.256108849411650e-01 -1.696570384383008e-17
 1.429999999999999e+00 -8.256108849411650e-01 -1.696570384383008e-17
 1.429999999999999e+00 -8.256108849411650e-01 -1.696570384383008e-17
 1.429999999999999e+00 -8.256108849411650e-01 -1.696570384383008e-17
 1.429999999999999e+00 -8.256108849411650e-01 -1.696570384383008e-17
 1.429999999999999e+00 -8.256108849411650e-01 -1.696570384383008e-17
 1.429999999999999e+00 -8.256108849411650e-01 -1.696570384383008e-17
 1.429999999999999e+00 -8.256108849411650e-01 -1.696570384383008e-17
 1.429999999999999e+00 -8.256108849411650e-01 -1.696570384383008e-17
 1.429999999999999e+00 -8.256108849411650e-01 -1.696570384383008e-17
 1.429999999999999e+00 -8.256108849411650e-01 -1.696570384383008e-17
 1.429999999999999e+00 -8.256108849411650e-01 -1.696570384383008e-17
 1.429999999999999e+00 -8.256108849411650e-01 -1.696570384383008e-17
 1.429999999999999e+00 -8.256108849411650e-01 -1.696570384383008e-17
 1.429999999999999e+00 -8.256108849411650e-01 -1.696570384383008e-17
 1.429999999999999e+00 -8.256108849411650e-01 -1.696570384383008e-17
 1.429999999999999e+00 -8.256108849411650e-01 -1.696570384383008e-17
 1.429999999999999e+00 -8.256108849411650e-01 -1.696570384383008e-17
 1.429999999999999e+00 -8.256108849411650e-01 -1.696570384383008e-17
 1.429999999999999e+00 -8.256108849411650e-01 -1.696570384383008e-17
 1.429999999999999e+00 -8.256108849411650e-01 -1.696570384383008e-17
 1.429999999999999e+00 -8.256108849411650e-01 -1.696570384383008e-17
 1.429999999999999e+00 -8.256108849411650e-01 -1.696570384383008e-17
 1.429999999999999e+00 -8.256108849411650e-01 -1.696570384383008e-17
 1.429999999999999e+00 -8.256108849411650e-01 -1.696570384383008e-17
 1.429999999999999e+00 -8.256108849411650e-01 -1.696570384383008e-17
 1.429999999999999e+00 -8.256108849411650e-01 -1.696570384383008e-17
 1.429999999999999e+00 -8.256108849411650e-01 -1.696570384383008e-17
 1.429999999999999e+00 -8.256108849411650e-01 -1.696570384383008e-17
 1.429999999999999e+00 -8.256108849411650e-01 -1.696570384383008e-17
 1.429999999999999e+00 -8.256108849411650e-01 -1.696570384383008e-17
 1.429999999999999e+00 -8.256108849411650e-01 -1.696570384383008e-17
 1.429999999999999e+00 -8.256108849411650e-01 -1.696570384383008e-17
 1.429999999999999e+00 -8.256108849411650e-01 -1.696570384383008e-17
 1.429999999999999e+00 -8.256108849411650e-01 -1.696570384383008e-17
 1.429999999999999e+00 -8.256108849411650e-01 -1.696570384383008e-17
 1.429999999999999e+00 -8.256108849411650e-01 -1.696570384383008e-17
 1.429999999999999e+00 -8.256108849411650e-01 -1.696570384383008e-17
 1.429999999999999e+00 -8.256108849411650e-01 -1.696570384383008e-17
 1.429999999999999e+00 -8.256108849411650e-01 -1.696570384383008e-17
 1.429999999999999e+00 -8.256108849411650e-01 -1.696570384383008e-17
 1.429999999999999e+00 -8.256108849411650e-01 -1.696570384383008e-17
 1.429999999999999e+00 -8.256108849411650e-01 -1.696570384383008e-17
 1.429999999999999e+00 -8.256108849411650e-01 -1.696570384383008e-17
 1.429999999999999e+00 -8.256108849411650e-01 -1.696570384383008e-17
 1.429999999999999e+00 -8.256108849411650e-01 -1.696570384383008e-17
 1.429999999999999e+00 -8.256108849411650e-01 -1.696570384383008e-17
 1.429999999999999e+00 -8.256108849411650e-01 -1.696570384383008e-17
 1.429999999999999e+00 -8.256108849411650e-01 -1.696570384383008e-17
 1.429999999999999e+00 -8.256108849411650e-01 -1.696570384383008e-17
 1.429999999999999e+00 -8.256108849411650e-01 -1.696570384383008e-17
 1.429999999999999e+00 -8.256108849411650e-01 -1.696570384383008e-17
 1.429999999999999e+00 -8.256108849411650e-01 -1.696570384383008e-17
 1.429999999999999e+00 -8.256108849411650e-01 -1.696570384383008e-17
 1.429999999999999e+00 -8.256108849411650e-01 -1.696570384383008e-17
 1.429999999999999e+00 -8.256108849411650e-01 -1.696570384383008e-17
 1.429999999999999e+00 -8.256108849411650e-01 -1.696570384383008e-17
 1.429999999999999e+00 -8.256108849411650e-01 -1.696570384383008e-17
 1.429999999999999e+00 -8.256108849411650e-01 -1.696570384383008e-17
 1.429999999999999e+00 -8.256108849411650e-01 -1.696570384383008e-17
 1.429999999999999e+00 -8.256108849411650e-01 -1.696570384383008e-17
 1.429999999999999e+00 -8.256108849411650e-01 -1.696570384383008e-17
 1.429999999999999e+00 -8.256108849411650e-01 -1.696570384383008e-17
 1.429999999999999e+00 -8.256108849411650e-01 -1.696570384383008e-17

VECTORS burgers_vector_local double
-1.666666666666667e-01 -3.333333333333333e-01 -1.666666666666665e-01
1.666666666666667e-01 3.333333333333333e-01 1.666666666666665e-01
-1.666666666666667e-01 -3.333333333333333e-01 -1.666666666666665e-01
-1.666666666666667e-01 -3.333333333333333e-01 -1.666666666666665e-01
-1.666666666666667e-01 -3.333333333333333e-01 -1.666666666666665e-01
-1.666666666666667e-01 -3.333333333333333e-01 -1.666666666666665e-01
-1.666666666666667e-01 -3.333333333333333e-01 -1.666666666666665e-01
-1.666666666666667e-01 -3.333333333333333e-01 -1.666666666666665e-01
-1.666666666666667e-01 -3.333333333333333e-01 -1.666666666666665e-01
-1.666666666666667e-01 -3.333333333333333e-01 -1.666666666666665e-01
-1.666666666666667e-01 -3.333333333333333e-01 -1.666666666666665e-01
-1.666666666666667e-01 -3.333333333333333e-01 -1.666666666666665e-01
-1.666666666666667e-01 -3.333333333333333e-01 -1.666666666666665e-01
-1.666666666666667e-01 -3.333333333333333e-01 -1.666666666666665e-01
-1.666666666666667e-01 -3.333333333333333e-01 -1.666666666666665e-01
-1.666666666666667e-01 -3.333333333333333e-01 -1.666666666666665e-01
-1.666666666666667e-01 -3.333333333333333e-01 -1.666666666666665e-01
-1.666666666666667e-01 -3.333333333333333e-01 -1.666666666666665e-01
-1.666666666666667e-01 -3.333333333333333e-01 -1.666666666666665e-01
-1.666666666666667e-01 -3.333333333333333e-01 -1.666666666666665e-01
-1.666666666666667e-01 -3.333333333333333e-01 -1.666666666666665e-01
-1.666666666666667e-01 -3.333333333333333e-01 -1.666666666666665e-01
-1.666666666666667e-01 -3.333333333333333e-01 -1.666666666666665e-01
-1.666666666666667e-01 -3.333333333333333e-01 -1.666666666666665e-01
-1.666666666666667e-01 -3.333333333333333e-01 -1.666666666666665e-01
-1.666666666666667e-01 -3.333333333333333e-01 -1.666666666666665e-01
-1.666666666666667e-01 -3.333333333333333e-01 -1.666666666666665e-01
-1.666666666666667e-01 -3.333333333333333e-01 -1.666666666666665e-01
-1.666666666666667e-01 -3.333333333333333e-01 -1.666666666666665e-01
-1.666666666666667e-01 -3.333333333333333e-01 -1.666666666666665e-01
-1.666666666666667e-01 -3.333333333333333e-01 -1.666666666666665e-01
-1.666666666666667e-01 -3.333333333333333e-01 -1.666666666666665e-01
-1.666666666666667e-01 -3.333333333333333e-01 -1.666666666666665e-01
-1.666666666666667e-01 -3.333333333333333e-01 -1.666666666666665e-01
-1.666666666666667e-01 -3.333333333333333e-01 -1.666666666666665e-01
-1.666666666666667e-01 -3.333333333333333e-01 -1.666666666666665e-01
-1.666666666666667e-01 -3.333333333333333e-01 -1.666666666666665e-01
-1.666666666666667e-01 -3.333333333333333e-01 -1.666666666666665e-01
-1.666666666666667e-01 -3.333333333333333e-01 -1.666666666666665e-01
-1.666666666666667e-01 -3.333333333333333e-01 -1.666666666666665e-01
-1.666666666666667e-01 -3.333333333333333e-01 -1.666666666666665e-01
-1.666666666666667e-01 -3.333333333333333e-01 -1.666666666666665e-01
-1.666666666666667e-01 -3.333333333333333e-01 -1.666666666666665e-01
-1.666666666666667e-01 -3.333333333333333e-01 -1.666666666666665e-01
-1.666666666666667e-01 -3.333333333333333e-01 -1.666666666666665e-01
-1.666666666666667e-01 -3.333333333333333e-01 -1.666666666666665e-01
-1.666666666666667e-01 -3.333333333333333e-01 -1.666666666666665e-01
-1.666666666666667e-01 -3.333333333333333e-01 -1.666666666666665e-01
-1.666666666666667e-01 -3.333333333333333e-01 -1.666666666666665e-01
-1.666666666666667e-01 -3.333333333333333e-01 -1.666666666666665e-01
-1.666666666666667e-01 -3.333333333333333e-01 -1.666666666666665e-01
-1.666666666666667e-01 -3.333333333333333e-01 -1.666666666666665e-01
-1.666666666666667e-01 -3.333333333333333e-01 -1.666666666666665e-01
-1.666666666666667e-01 -3.333333333333333e-01 -1.666666666666665e-01
-1.666666666666667e-01 -3.333333333333333e-01 -1.666666666666665e-01
-1.666666666666667e-01 -3.333333333333333e-01 -1.666666666666665e-01
-1.666666666666667e-01 -3.333333333333333e-01 -1.666666666666665e-01
-1.666666666666667e-01 -3.333333333333333e-01 -1.666666666666665e-01
-1.666666666666667e-01 -3.333333333333333e-01 -1.666666666666665e-01
-1.666666666666667e-01 -3.333333333333333e-01 -1.666666666666665e-01
-1.666666666666667e-01 -3.333333333333333e-01 -1.666666666666665e-01
-1.666666666666667e-01 -3.333333333333333e-01 -1.666666666666665e-01
-1.666666666666667e-01 -3.333333333333333e-01 -1.666666666666665e-01
-1.666666666666667e-01 -3.333333333333333e-01 -1.666666666666665e-01
-1.666666666666667e-01 -3.333333333333333e-01 -1.666666666666665e-01
-1.666666666666667e-01 -3.333333333333333e-01 -1.666666666666665e-01
-1.666666666666667e-01 -3.333333333333333e-01 -1.666666666666665e-01
-1.666666666666667e-01 -3.333333333333333e-01 -1.666666666666665e-01
-1.666666666666667e-01 -3.333333333333333e-01 -1.666666666666665e-01
-1.666666666666667e-01 -3.333333333333333e-01 -1.666666666666665e-01
-1.666666666666667e-01 -3.333333333333333e-01 -1.666666666666665e-01
-1.666666666666667e-01 -3.333333333333333e-01 -1.666666666666665e-01
-1.666666666666667e-01 -3.333333333333333e-01 -1.666666666666665e-01
-1.666666666666667e-01 -3.333333333333333e-01 -1.666666666666665e-01
-1.666666666666667e-01 -3.333333333333333e-01 -1.666666666666665e-01
-1.666666666666667e-01 -3.333333333333333e-01 -1.666666666666665e-01
-1.666666666666667e-01 -3.333333333333333e-01 -1.666666666666665e-01
-1.666666666666667e-01 -3.333333333333333e-01 -1.666666666666665e-01
-1.666666666666667e-01 -3.333333333333333e-01 -1.666666666666665e-01
-1.666666666666667e-01 -3.333333333333333e-01 -1.666666666666665e-01
-1.666666666666667e-01 -3.333333333333333e-01 -1.666666666666665e-01
-1.666666666666667e-01 -3.333333333333333e-01 -1.666666666666665e-01
-1.666666666666667e-01 -3.333333333333333e-01 -1.666666666666665e-01
-1.666666666666667e-01 -3.333333333333333e-01 -1.666666666666665e-01
-1.666666666666667e-01 -3.333333333333333e-01 -1.666666666666665e-01
-1.666666666666667e-01 -3.333333333333333e-01 -1.666666666666665e-01
-1.666666666666667e-01 -3.333333333333333e-01 -1.666666666666665e-01
-1.666666666666667e-01 -3.333333333333333e-01 -1.666666666666665e-01
-1.666666666666667e-01 -3.333333333333333e-01 -1.666666666666665e-01
-1.666666666666667e-01 -3.333333333333333e-01 -1.666666666666665e-01
-1.666666666666667e-01 -3.333333333333333e-01 -1.666666666666665e-01
-1.666666666666667e-01 -3.333333333333333e-01 -1.666666666666665e-01
-1.666666666666667e-01 -3.333333333333333e-01 -1.666666666666665e-01
-1.666666666666667e-01 -3.333333333333333e-01 -1.666666666666665e-01
-1.666666666666667e-01 -3.333333333333333e-01 -1.666666666666665e-01
-1.666666666666667e-01 -3.333333333333333e-01 -1.666666666666665e-01
-1.666666666666667e-01 -3.333333333333333e-01 -1.666666666666665e-01
-1.666666666666667e-01 -3.333333333333333e-01 -1.666666666666665e-01
-1.666666666666667e-01 -3.333333333333333e-01 -1.666666666666665e-01
-1.666666666666667e-01 -3.333333333333333e-01 -1.666666666666665e-01
-1.666666666666667e-01 -3.333333333333333e-01 -1.666666666666665e-01
-1.666666666666667e-01 -3.333333333333333e-01 -1.666666666666665e-01
-1.666666666666667e-01 -3.333333333333333e-01 -1.666666666666665e-01
-1.666666666666667e-01 -3.333333333333333e-01 -1.666666666666665e-01
-1.666666666666667e-01 -3.333333333333333e-01 -1.666666666666665e-01
-1.666666666666667e-01 -3.333333333333333e-01 -1.666666666666665e-01
-1.666666666666667e-01 -3.333333333333333e-01 -1.666666666666665e-01
-1.666666666666667e-01 -3.333333333333333e-01 -1.666666666666665e-01
-1.666666666666667e-01 -3.333333333333333e-01 -1.666666666666665e-01
-1.666666666666667e-01 -3.333333333333333e-01 -1.666666666666665e-01
-1.666666666666667e-01 -3.333333333333333e-01 -1.666666666666665e-01
-1.666666666666667e-01 -3.333333333333333e-01 -1.666666666666665e-01
-1.666666666666667e-01 -3.333333333333333e-01 -1.666666666666665e-01
-1.666666666666667e-01 -3.333333333333333e-01 -1.666666666666665e-01
-1.666666666666667e-01 -3.333333333333333e-01 -1.666666666666665e-01
-1.666666666666667e-01 -3.333333333333333e-01 -1.666666666666665e-01
-1.666666666666667e-01 -3.333333333333333e-01 -1.666666666666665e-01
-1.666666666666667e-01 -3.333333333333333e-01 -1.666666666666665e-01
-1.666666666666667e-01 -3.333333333333333e-01 -1.666666666666665e-01
-1.666666666666667e-01 -3.333333333333333e-01 -1.666666666666665e-01
-1.666666666666667e-01 -3.333333333333333e-01 -1.666666666666665e-01
-1.666666666666667e-01 -3.333333333333333e-01 -1.666666666666665e-01
-1.666666666666667e-01 -3.333333333333333e-01 -1.666666666666665e-01
-1.666666666666667e-01 -3.333333333333333e-01 -1.666666666666665e-01
-1.666666666666667e-01 -3.333333333333333e-01 -1.666666666666665e-01
-1.666666666666667e-01 -3.333333333333333e-01 -1.666666666666665e-01
-1.666666666666667e-01 -3.333333333333333e-01 -1.666666666666665e-01
-1.666666666666667e-01 -3.333333333333333e-01 -1.666666666666665e-01
-1.666666666666667e-01 -3.333333333333333e-01 -1.666666666666665e-01
-1.666666666666667e-01 -3.333333333333333e-01 -1.666666666666665e-01
-1.666666666666667e-01 -3.333333333333333e-01 -1.666666666666665e-01
-1.666666666666667e-01 -3.333333333333333e-01 -1.666666666666665e-01
-1.666666666666667e-01 -3.333333333333333e-01 -1.666666666666665e-01
-1.666666666666667e-01 -3.333333333333333e-01 -1.666666666666665e-01
-1.666666666666667e-01 -3.333333333333333e-01 -1.666666666666665e-01
-1.666666666666667e-01 -3.333333333333333e-01 -1.666666666666665e-01
-1.666666666666667e-01 -3.333333333333333e-01 -1.666666666666665e-01
-1.666666666666667e-01 -3.333333333333333e-01 -1.666666666666665e-01
-1.666666666666667e-01 -3.333333333333333e-01 -1.666666666666665e-01
-1.666666666666667e-01 -3.333333333333333e-01 -1.666666666666665e-01
-1.666666666666667e-01 -3.333333333333333e-01 -1.666666666666665e-01
-1.666666666666667e-01 -3.333333333333333e-01 -1.666666666666665e-01
-1.666666666666667e-01 -3.333333333333333e-01 -1.666666666666665e-01
-1.666666666666667e-01 -3.333333333333333e-01 -1.666666666666665e-01
-1.666666666666667e-01 -3.333333333333333e-01 -1.666666666666665e-01
-1.666666666666667e-01 -3.333333333333333e-01 -1.666666666666665e-01
-1.666666666666667e-01 -3.333333333333333e-01 -1.666666666666665e-01
-1.666666666666667e-01 -3.333333333333333e-01 -1.666666666666665e-01
-1.666666666666667e-01 -3.333333333333333e-01 -1.666666666666665e-01
-1.666666666666667e-01 -3.333333333333333e-01 -1.666666666666665e-01
-1.666666666666667e-01 -3.333333333333333e-01 -1.666666666666665e-01
-1.666666666666667e-01 -3.333333333333333e-01 -1.666666666666665e-01
-1.666666666666667e-01 -3.333333333333333e-01 -1.666666666666665e-01
-1.666666666666667e-01 -3.333333333333333e-01 -1.666666666666665e-01
-1.666666666666667e-01 -3.333333333333333e-01 -1.666666666666665e-01
-1.666666666666667e-01 -3.333333333333333e-01 -1.666666666666665e-01
-1.666666666666667e-01 -3.333333333333333e-01 -1.666666666666665e-01
-1.666666666666667e-01 -3.333333333333333e-01 -1.666666666666665e-01
-1.666666666666667e-01 -3.333333333333333e-01 -1.666666666666665e-01
-1.666666666666667e-01 -3.333333333333333e-01 -1.666666666666665e-01
-1.666666666666667e-01 -3.333333333333333e-01 -1.666666666666665e-01
-1.666666666666667e-01 -3.333333333333333e-01 -1.666666666666665e-01
-1.666666666666667e-01 -3.333333333333333e-01 -1.666666666666665e-01
-1.666666666666667e-01 -3.333333333333333e-01 -1.666666666666665e-01
-1.666666666666667e-01 -3.333333333333333e-01 -1.666666666666665e-01
-1.666666666666667e-01 -3.333333333333333e-01 -1.666666666666665e-01
-1.666666666666667e-01 -3.333333333333333e-01 -1.666666666666665e-01
-1.666666666666667e-01 -3.333333333333333e-01 -1.666666666666665e-01
-1.666666666666667e-01 -3.333333333333333e-01 -1.666666666666665e-01
-1.666666666666667e-01 -3.333333333333333e-01 -1.666666666666665e-01
-1.666666666666667e-01 -3.333333333333333e-01 -1.666666666666665e-01
-1.666666666666667e-01 -3.333333333333333e-01 -1.666666666666665e-01
-1.666666666666667e-01 -3.333333333333333e-01 -1.666666666666665e-01
-1.666666666666667e-01 -3.333333333333333e-01 -1.666666666666665e-01
-1.666666666666667e-01 -3.333333333333333e-01 -1.666666666666665e-01
-1.666666666666667e-01 -3.333333333333333e-01 -1.666666666666665e-01
-1.666666666666667e-01 -3.333333333333333e-01 -1.666666666666665e-01
-1.666666666666667e-01 -3.333333333333333e-01 -1.666666666666665e-01
-1.666666666666667e-01 -3.333333333333333e-01 -1.666666666666665e-01
-1.666666666666667e-01 -3.333333333333333e-01 -1.666666666666665e-01
-1.666666666666667e-01 -3.333333333333333e-01 -1.666666666666665e-01
-1.666666666666667e-01 -3.333333333333333e-01 -1.666666666666665e-01
-1.666666666666667e-01 -3.333333333333333e-01 -1.666666666666665e-01
-1.666666666666667e-01 -3.333333333333333e-01 -1.666666666666665e-01
-1.666666666666667e-01 -3.333333333333333e-01 -1.666666666666665e-01
-1.666666666666667e-01 -3.333333333333333e-01 -1.666666666666665e-01
-1.666666666666667e-01 -3.333333333333333e-01 -1.666666666666665e-01
-1.666666666666667e-01 -3.333333333333333e-01 -1.666666666666665e-01
-1.666666666666667e-01 -3.333333333333333e-01 -1.666666666666665e-01
-1.666666666666667e-01 -3.333333333333333e-01 -1.666666666666665e-01
-1.666666666666667e-01 -3.333333333333333e-01 -1.666666666666665e-01
-1.666666666666667e-01 -3.333333333333333e-01 -1.666666666666665e-01
-1.666666666666667e-01 -3.333333333333333e-01 -1.666666666666665e-01
-1.666666666666667e-01 -3.333333333333333e-01 -1.666666666666665e-01
-1.666666666666667e-01 -3.333333333333333e-01 -1.666666666666665e-01
-1.666666666666667e-01 -3.333333333333333e-01 -1.666666666666665e-01
-1.666666666666667e-01 -3.333333333333333e-01 -1.666666666666665e-01
-1.666666666666667e-01 -3.333333333333333e-01 -1.666666666666665e-01
-1.666666666666667e-01 -3.333333333333333e-01 -1.666666666666665e-01
-1.666666666666667e-01 -3.333333333333333e-01 -1.666666666666665e-01
-1.666666666666667e-01 -3.333333333333333e-01 -1.666666666666665e-01
-1.666666666666667e-01 -3.333333333333333e-01 -1.666666666666665e-01
-1.666666666666667e-01 -3.333333333333333e-01 -1.666666666666665e-01
-1.666666666666667e-01 -3.333333333333333e-01 -1.666666666666665e-01
-1.666666666666667e-01 -3.333333333333333e-01 -1.666666666666665e-01
-1.666666666666667e-01 -3.333333333333333e-01 -1.666666666666665e-01
-1.666666666666667e-01 -3.333333333333333e-01 -1.666666666666665e-01
-1.666666666666667e-01 -3.333333333333333e-01 -1.666666666666665e-01
-1.666666666666667e-01 -3.333333333333333e-01 -1.666666666666665e-01
-1.666666666666667e-01 -3.333333333333333e-01 -1.666666666666665e-01
-1.666666666666667e-01 -3.333333333333333e-01 -1.666666666666665e-01
-1.666666666666667e-01 -3.333333333333333e-01 -1.666666666666665e-01
-1.666666666666667e-01 -3.333333333333333e-01 -1.666666666666665e-01
-1.666666666666667e-01 -3.333333333333333e-01 -1.666666666666665e-01
-1.666666666666667e-01 -3.333333333333333e-01 -1.666666666666665e-01
-1.666666666666667e-01 -3.333333333333333e-01 -1.666666666666665e-01
-1.666666666666667e-01 -3.333333333333333e-01 -1.666666666666665e-01
-1.666666666666667e-01 -3.333333333333333e-01 -1.666666666666665e-01
-1.666666666666667e-01 -3.333333333333333e-01 -1.666666666666665e-01
-1.666666666666667e-01 -3.333333333333333e-01 -1.666666666666665e-01
-1.666666666666667e-01 -3.333333333333333e-01 -1.666666666666665e-01
-1.666666666666667e-01 -3.333333333333333e-01 -1.666666666666665e-01
-1.666666666666667e-01 -3.333333333333333e-01 -1.666666666666665e-01
-1.666666666666667e-01 -3.333333333333333e-01 -1.666666666666665e-01
-1.666666666666667e-01 -3.333333333333333e-01 -1.666666666666665e-01
-1.666666666666667e-01 -3.333333333333333e-01 -1.666666666666665e-01
-1.666666666666667e-01 -3.333333333333333e-01 -1.666666666666665e-01
-1.666666666666667e-01 -3.333333333333333e-01 -1.666666666666665e-01
-1.666666666666667e-01 -3.333333333333333e-01 -1.666666666666665e-01
-1.666666666666667e-01 -3.333333333333333e-01 -1.666666666666665e-01
-1.666666666666667e-01 -3.333333333333333e-01 -1.666666666666665e-01
-1.666666666666667e-01 -3.333333333333333e-01 -1.666666666666665e-01
-1.666666666666667e-01 -3.333333333333333e-01 -1.666666666666665e-01
-1.666666666666667e-01 -3.333333333333333e-01 -1.666666666666665e-01
-1.666666666666667e-01 -3.333333333333333e-01 -1.666666666666665e-01
-1.666666666666667e-01 -3.333333333333333e-01 -1.666666666666665e-01
-1.666666666666667e-01 -3.333333333333333e-01 -1.666666666666665e-01
-1.666666666666667e-01 -3.333333333333333e-01 -1.666666666666665e-01
-1.666666666666667e-01 -3.333333333333333e-01 -1.666666666666665e-01
-1.666666666666667e-01 -3.333333333333333e-01 -1.666666666666665e-01
-1.666666666666667e-01 -3.333333333333333e-01 -1.666666666666665e-01
-1.666666666666667e-01 -3.333333333333333e-01 -1.666666666666665e-01
-1.666666666666667e-01 -3.333333333333333e-01 -1.666666666666665e-01
-1.666666666666667e-01 -3.333333333333333e-01 -1.666666666666665e-01
-1.666666666666667e-01 -3.333333333333333e-01 -1.666666666666665e-01
-1.666666666666667e-01 -3.333333333333333e-01 -1.666666666666665e-01
-1.666666666666667e-01 -3.333333333333333e-01 -1.666666666666665e-01
-1.666666666666667e-01 -3.333333333333333e-01 -1.666666666666665e-01
-1.666666666666667e-01 -3.333333333333333e-01 -1.666666666666665e-01
-1.666666666666667e-01 -3.333333333333333e-01 -1.666666666666665e-01
-1.666666666666667e-01 -3.333333333333333e-01 -1.666666666666665e-01
-1.666666666666667e-01 -3.333333333333333e-01 -1.666666666666665e-01
-1.666666666666667e-01 -3.333333333333333e-01 -1.666666666666665e-01
-1.666666666666667e-01 -3.333333333333333e-01 -1.666666666666665e-01
-1.666666666666667e-01 -3.333333333333333e-01 -1.666666666666665e-01
-1.666666666666667e-01 -3.333333333333333e-01 -1.666666666666665e-01
-1.666666666666667e-01 -3.333333333333333e-01 -1.666666666666665e-01
-1.666666666666667e-01 -3.333333333333333e-01 -1.666666666666665e-01
-1.666666666666667e-01 -3.333333333333333e-01 -1.666666666666665e-01
-1.666666666666667e-01 -3.333333333333333e-01 -1.666666666666665e-01
-1.666666666666667e-01 -3.333333333333333e-01 -1.666666666666665e-01
-1.666666666666667e-01 -3.333333333333333e-01 -1.666666666666665e-01
-1.666666666666667e-01 -3.333333333333333e-01 -1.666666666666665e-01
-1.666666666666667e-01 -3.333333333333333e-01 -1.666666666666665e-01
-1.666666666666667e-01 -3.333333333333333e-01 -1.666666666666665e-01
-1.666666666666667e-01 -3.333333333333333e-01 -1.666666666666665e-01
-1.666666666666667e-01 -3.333333333333333e-01 -1.666666666666665e-01
-1.666666666666667e-01 -3.333333333333333e-01 -1.666666666666665e-01
-1.666666666666667e-01 -3.333333333333333e-01 -1.666666666666665e-01
-1.666666666666667e-01 -3.333333333333333e-01 -1.666666666666665e-01
-1.666666666666667e-01 -3.333333333333333e-01 -1.666666666666665e-01
-1.666666666666667e-01 -3.333333333333333e-01 -1.666666666666665e-01
-1.666666666666667e-01 -3.333333333333333e-01 -1.666666666666665e-01
-1.666666666666667e-01 -3.333333333333333e-01 -1.666666666666665e-01
-1.666666666666667e-01 -3.333333333333333e-01 -1.666666666666665e-01
-1.666666666666667e-01 -3.333333333333333e-01 -1.666666666666665e-01
-1.666666666666667e-01 -3.333333333333333e-01 -1.666666666666665e-01
-1.666666666666667e-01 -3.333333333333333e-01 -1.666666666666665e-01
-1.666666666666667e-01 -3.333333333333333e-01 -1.666666666666665e-01
-1.666666666666667e-01 -3.333333333333333e-01 -1.666666666666665e-01
-1.666666666666667e-01 -3.333333333333333e-01 -1.666666666666665e-01
-1.666666666666667e-01 -3.333333333333333e-01 -1.666666666666665e-01
-1.666666666666667e-01 -3.333333333333333e-01 -1.666666666666665e-01
-1.666666666666667e-01 -3.333333333333333e-01 -1.666666666666665e-01
-1.666666666666667e-01 -3.333333333333333e-01 -1.666666666666665e-01
-1.666666666666667e-01 -3.333333333333333e-01 -1.666666666666665e-01
-1.666666666666667e-01 -3.333333333333333e-01 -1.666666666666665e-01
-1.666666666666667e-01 -3.333333333333333e-01 -1.666666666666665e-01
-1.666666666666667e-01 -3.333333333333333e-01 -1.666666666666665e-01
-1.666666666666667e-01 -3.333333333333333e-01 -1.666666666666665e-01
-1.666666666666667e-01 -3.333333333333333e-01 -1.666666666666665e-01
-1.666666666666667e-01 -3.333333333333333e-01 -1.666666666666665e-01
-1.666666666666667e-01 -3.333333333333333e-01 -1.666666666666665e-01
-1.666666666666667e-01 -3.333333333333333e-01 -1.666666666666665e-01
-1.666666666666667e-01 -3.333333333333333e-01 -1.666666666666665e-01
-1.666666666666667e-01 -3.333333333333333e-01 -1.666666666666665e-01
-1.666666666666667e-01 -3.333333333333333e-01 -1.666666666666665e-01
-1.666666666666667e-01 -3.333333333333333e-01 -1.666666666666665e-01
-1.666666666666667e-01 -3.333333333333333e-01 -1.666666666666665e-01
-1.666666666666667e-01 -3.333333333333333e-01 -1.666666666666665e-01
-1.666666666666667e-01 -3.333333333333333e-01 -1.666666666666665e-01
-1.666666666666667e-01 -3.333333333333333e-01 -1.666666666666665e-01
-1.666666666666667e-01 -3.333333333333333e-01 -1.666666666666665e-01
-1.666666666666667e-01 -3.333333333333333e-01 -1.666666666666665e-01
-1.666666666666667e-01 -3.333333333333333e-01 -1.666666666666665e-01
-1.666666666666667e-01 -3.333333333333333e-01 -1.666666666666665e-01
-1.666666666666667e-01 -3.333333333333333e-01 -1.666666666666665e-01
-1.666666666666667e-01 -3.333333333333333e-01 -1.666666666666665e-01
-1.666666666666667e-01 -3.333333333333333e-01 -1.666666666666665e-01
-1.666666666666667e-01 -3.333333333333333e-01 -1.666666666666665e-01
-1.666666666666667e-01 -3.333333333333333e-01 -1.666666666666665e-01
-1.666666666666667e-01 -3.333333333333333e-01 -1.666666666666665e-01
-1.666666666666667e-01 -3.333333333333333e-01 -1.666666666666665e-01
-1.666666666666667e-01 -3.333333333333333e-01 -1.666666666666665e-01
-1.666666666666667e-01 -3.333333333333333e-01 -1.666666666666665e-01
-1.666666666666667e-01 -3.333333333333333e-01 -1.666666666666665e-01
-1.666666666666667e-01 -3.333333333333333e-01 -1.666666666666665e-01
-1.666666666666667e-01 -3.333333333333333e-01 -1.666666666666665e-01
-1.666666666666667e-01 -3.333333333333333e-01 -1.666666666666665e-01
-1.666666666666667e-01 -3.333333333333333e-01 -1.666666666666665e-01
-1.666666666666667e-01 -3.333333333333333e-01 -1.666666666666665e-01
-1.666666666666667e-01 -3.333333333333333e-01 -1.666666666666665e-01
-1.666666666666667e-01 -3.333333333333333e-01 -1.666666666666665e-01
-1.666666666666667e-01 -3.333333333333333e-01 -1.666666666666665e-01
-1.666666666666667e-01 -3.333333333333333e-01 -1.666666666666665e-01
-1.666666666666667e-01 -3.333333333333333e-01 -1.666666666666665e-01
-1.666666666666667e-01 -3.333333333333333e-01 -1.666666666666665e-01
-1.666666666666667e-01 -3.333333333333333e-01 -1.666666666666665e-01
-1.666666666666667e-01 -3.333333333333333e-01 -1.666666666666665e-01
-1.666666666666667e-01 -3.333333333333333e-01 -1.666666666666665e-01
-1.666666666666667e-01 -3.333333333333333e-01 -1.666666666666665e-01
-1.666666666666667e-01 -3.333333333333333e-01 -1.666666666666665e-01
-1.666666666666667e-01 -3.333333333333333e-01 -1.666666666666665e-01
-1.666666666666667e-01 -3.333333333333333e-01 -1.666666666666665e-01
-1.666666666666667e-01 -3.333333333333333e-01 -1.666666666666665e-01
-1.666666666666667e-01 -3.333333333333333e-01 -1.666666666666665e-01
-1.666666666666667e-01 -3.333333333333333e-01 -1.666666666666665e-01
-1.666666666666667e-01 -3.333333333333333e-01 -1.666666666666665e-01
-1.666666666666667e-01 -3.333333333333333e-01 -1.666666666666665e-01
-1.666666666666667e-01 -3.333333333333333e-01 -1.666666666666665e-01
-1.666666666666667e-01 -3.333333333333333e-01 -1.666666666666665e-01
-1.666666666666667e-01 -3.333333333333333e-01 -1.666666666666665e-01
-1.666666666666667e-01 -3.333333333333333e-01 -1.666666666666665e-01
-1.666666666666667e-01 -3.333333333333333e-01 -1.666666666666665e-01
-1.666666666666667e-01 -3.333333333333333e-01 -1.666666666666665e-01
-1.666666666666667e-01 -3.333333333333333e-01 -1.666666666666665e-01
-1.666666666666667e-01 -3.333333333333333e-01 -1.666666666666665e-01
-1.666666666666667e-01 -3.333333333333333e-01 -1.666666666666665e-01
-1.666666666666667e-01 -3.333333333333333e-01 -1.666666666666665e-01
-1.666666666666667e-01 -3.333333333333333e-01 -1.666666666666665e-01
-1.666666666666667e-01 -3.333333333333333e-01 -1.666666666666665e-01
-1.666666666666667e-01 -3.333333333333333e-01 -1.666666666666665e-01
-1.666666666666667e-01 -3.333333333333333e-01 -1.666666666666665e-01
-1.666666666666667e-01 -3.333333333333333e-01 -1.666666666666665e-01
-1.666666666666667e-01 -3.333333333333333e-01 -1.666666666666665e-01
-1.666666666666667e-01 -3.333333333333333e-01 -1.666666666666665e-01
-1.666666666666667e-01 -3.333333333333333e-01 -1.666666666666665e-01
-1.666666666666667e-01 -3.333333333333333e-01 -1.666666666666665e-01
-1.666666666666667e-01 -3.333333333333333e-01 -1.666666666666665e-01
-1.666666666666667e-01 -3.333333333333333e-01 -1.666666666666665e-01
-1.666666666666667e-01 -3.333333333333333e-01 -1.666666666666665e-01
-1.666666666666667e-01 -3.333333333333333e-01 -1.666666666666665e-01
-1.666666666666667e-01 -3.333333333333333e-01 -1.666666666666665e-01
-1.666666666666667e-01 -3.333333333333333e-01 -1.666666666666665e-01
-1.666666666666667e-01 -3.333333333333333e-01 -1.666666666666665e-01
-1.666666666666667e-01 -3.333333333333333e-01 -1.666666666666665e-01
-1.666666666666667e-01 -3.333333333333333e-01 -1.666666666666665e-01
-1.666666666666667e-01 -3.333333333333333e-01 -1.666666666666665e-01
-1.666666666666667e-01 -3.333333333333333e-01 -1.666666666666665e-01
-1.666666666666667e-01 -3.333333333333333e-01 -1.666666666666665e-01
-1.666666666666667e-01 -3.333333333333333e-01 -1.666666666666665e-01
-1.666666666666667e-01 -3.333333333333333e-01 -1.666666666666665e-01
-1.666666666666667e-01 -3.333333333333333e-01 -1.666666666666665e-01
-1.666666666666667e-01 -3.333333333333333e-01 -1.666666666666665e-01
-1.666666666666667e-01 -3.333333333333333e-01 -1.666666666666665e-01
-1.666666666666667e-01 -3.333333333333333e-01 -1.666666666666665e-01
-1.666666666666667e-01 -3.333333333333333e-01 -1.666666666666665e-01
-1.666666666666667e-01 -3.333333333333333e-01 -1.666666666666665e-01
-1.666666666666667e-01 -3.333333333333333e-01 -1.666666666666665e-01
-1.666666666666667e-01 -3.333333333333333e-01 -1.666666666666665e-01
-1.666666666666667e-01 -3.333333333333333e-01 -1.666666666666665e-01
-1.666666666666667e-01 -3.333333333333333e-01 -1.666666666666665e-01
-1.666666666666667e-01 -3.333333333333333e-01 -1.666666666666665e-01
-1.666666666666667e-01 -3.333333333333333e-01 -1.666666666666665e-01
-1.666666666666667e-01 -3.333333333333333e-01 -1.666666666666665e-01
-1.666666666666667e-01 -3.333333333333333e-01 -1.666666666666665e-01
-1.666666666666667e-01 -3.333333333333333e-01 -1.666666666666665e-01
-1.666666666666667e-01 -3.333333333333333e-01 -1.666666666666665e-01
-1.666666666666667e-01 -3.333333333333333e-01 -1.666666666666665e-01
1.666666666666667e-01 3.333333333333333e-01 1.666666666666665e-01
-1.666666666666667e-01 -3.333333333333333e-01 -1.666666666666665e-01
-1.666666666666667e-01 -3.333333333333333e-01 -1.666666666666665e-01
-1.666666666666667e-01 -3.333333333333333e-01 -1.666666666666665e-01
-1.666666666666667e-01 -3.333333333333333e-01 -1.666666666666665e-01
-1.666666666666667e-01 -3.333333333333333e-01 -1.666666666666665e-01
-1.666666666666667e-01 -3.333333333333333e-01 -1.666666666666665e-01
-1.666666666666667e-01 -3.333333333333333e-01 -1.666666666666665e-01
-1.666666666666667e-01 -3.333333333333333e-01 -1.666666666666665e-01
-1.666666666666667e-01 -3.333333333333333e-01 -1.666666666666665e-01
-1.666666666666667e-01 -3.333333333333333e-01 -1.666666666666665e-01
-1.666666666666667e-01 -3.333333333333333e-01 -1.666666666666665e-01
-1.666666666666667e-01 -3.333333333333333e-01 -1.666666666666665e-01
-1.666666666666667e-01 -3.333333333333333e-01 -1.666666666666665e-01
-1.666666666666667e-01 -3.333333333333333e-01 -1.666666666666665e-01
-1.666666666666667e-01 -3.333333333333333e-01 -1.666666666666665e-01
-1.666666666666667e-01 -3.333333333333333e-01 -1.666666666666665e-01
-1.666666666666667e-01 -3.333333333333333e-01 -1.666666666666665e-01
-1.666666666666667e-01 -3.333333333333333e-01 -1.666666666666665e-01
-1.666666666666667e-01 -3.333333333333333e-01 -1.666666666666665e-01
-1.666666666666667e-01 -3.333333333333333e-01 -1.666666666666665e-01
-1.666666666666667e-01 -3.333333333333333e-01 -1.666666666666665e-01
-1.666666666666667e-01 -3.333333333333333e-01 -1.666666666666665e-01
-1.666666666666667e-01 -3.333333333333333e-01 -1.666666666666665e-01
-1.666666666666667e-01 -3.333333333333333e-01 -1.666666666666665e-01
-1.666666666666667e-01 -3.333333333333333e-01 -1.666666666666665e-01
-1.666666666666667e-01 -3.333333333333333e-01 -1.666666666666665e-01
-1.666666666666667e-01 -3.333333333333333e-01 -1.666666666666665e-01
-1.666666666666667e-01 -3.333333333333333e-01 -1.666666666666665e-01
-1.666666666666667e-01 -3.333333333333333e-01 -1.666666666666665e-01
-1.666666666666667e-01 -3.333333333333333e-01 -1.666666666666665e-01
-1.666666666666667e-01 -3.333333333333333e-01 -1.666666666666665e-01
-1.666666666666667e-01 -3.333333333333333e-01 -1.666666666666665e-01
-1.666666666666667e-01 -3.333333333333333e-01 -1.666666666666665e-01
-1.666666666666667e-01 -3.333333333333333e-01 -1.666666666666665e-01
-1.666666666666667e-01 -3.333333333333333e-01 -1.666666666666665e-01
-1.666666666666667e-01 -3.333333333333333e-01 -1.666666666666665e-01
-1.666666666666667e-01 -3.333333333333333e-01 -1.666666666666665e-01
-1.666666666666667e-01 -3.333333333333333e-01 -1.666666666666665e-01
-1.666666666666667e-01 -3.333333333333333e-01 -1.666666666666665e-01
-1.666666666666667e-01 -3.333333333333333e-01 -1.666666666666665e-01
-1.666666666666667e-01 -3.333333333333333e-01 -1.666666666666665e-01
-1.666666666666667e-01 -3.333333333333333e-01 -1.666666666666665e-01
-1.666666666666667e-01 -3.333333333333333e-01 -1.666666666666665e-01
-1.666666666666667e-01 -3.333333333333333e-01 -1.666666666666665e-01
-1.666666666666667e-01 -3.333333333333333e-01 -1.666666666666665e-01
-1.666666666666667e-01 -3.333333333333333e-01 -1.666666666666665e-01
-1.666666666666667e-01 -3.333333333333333e-01 -1.666666666666665e-01
-1.666666666666667e-01 -3.333333333333333e-01 -1.666666666666665e-01
-1.666666666666667e-01 -3.333333333333333e-01 -1.666666666666665e-01
-1.666666666666667e-01 -3.333333333333333e-01 -1.666666666666665e-01
-1.666666666666667e-01 -3.333333333333333e-01 -1.666666666666665e-01
-1.666666666666667e-01 -3.333333333333333e-01 -1.666666666666665e-01
-1.666666666666667e-01 -3.333333333333333e-01 -1.666666666666665e-01
-1.666666666666667e-01 -3.333333333333333e-01 -1.666666666666665e-01
-1.666666666666667e-01 -3.333333333333333e-01 -1.666666666666665e-01
-1.666666666666667e-01 -3.333333333333333e-01 -1.666666666666665e-01
-1.666666666666667e-01 -3.333333333333333e-01 -1.666666666666665e-01
-1.666666666666667e-01 -3.333333333333333e-01 -1.666666666666665e-01
-1.666666666666667e-01 -3.333333333333333e-01 -1.666666666666665e-01
-1.666666666666667e-01 -3.333333333333333e-01 -1.666666666666665e-01
-1.666666666666667e-01 -3.333333333333333e-01 -1.666666666666665e-01
-1.666666666666667e-01 -3.333333333333333e-01 -1.666666666666665e-01
-1.666666666666667e-01 -3.333333333333333e-01 -1.666666666666665e-01
-1.666666666666667e-01 -3.333333333333333e-01 -1.666666666666665e-01
-1.666666666666667e-01 -3.333333333333333e-01 -1.666666666666665e-01
-1.666666666666667e-01 -3.333333333333333e-01 -1.666666666666665e-01
-1.666666666666667e-01 -3.333333333333333e-01 -1.666666666666665e-01
-1.666666666666667e-01 -3.333333333333333e-01 -1.666666666666665e-01
-1.666666666666667e-01 -3.333333333333333e-01 -1.666666666666665e-01
-1.666666666666667e-01 -3.333333333333333e-01 -1.666666666666665e-01
-1.666666666666667e-01 -3.333333333333333e-01 -1.666666666666665e-01
-1.666666666666667e-01 -3.333333333333333e-01 -1.666666666666665e-01
-1.666666666666667e-01 -3.333333333333333e-01 -1.666666666666665e-01
-1.666666666666667e-01 -3.333333333333333e-01 -1.666666666666665e-01
-1.666666666666667e-01 -3.333333333333333e-01 -1.666666666666665e-01
-1.666666666666667e-01 -3.333333333333333e-01 -1.666666666666665e-01
-1.666666666666667e-01 -3.333333333333333e-01 -1.666666666666665e-01
-1.666666666666667e-01 -3.333333333333333e-01 -1.666666666666665e-01
-1.666666666666667e-01 -3.333333333333333e-01 -1.666666666666665e-01
-1.666666666666667e-01 -3.333333333333333e-01 -1.666666666666665e-01
-1.666666666666667e-01 -3.333333333333333e-01 -1.666666666666665e-01
-1.666666666666667e-01 -3.333333333333333e-01 -1.666666666666665e-01
-1.666666666666667e-01 -3.333333333333333e-01 -1.666666666666665e-01
-1.666666666666667e-01 -3.333333333333333e-01 -1.666666666666665e-01
-1.666666666666667e-01 -3.333333333333333e-01 -1.666666666666665e-01
-1.666666666666667e-01 -3.333333333333333e-01 -1.666666666666665e-01
-1.666666666666667e-01 -3.333333333333333e-01 -1.666666666666665e-01
-1.666666666666667e-01 -3.333333333333333e-01 -1.666666666666665e-01
-1.666666666666667e-01 -3.333333333333333e-01 -1.666666666666665e-01
-1.666666666666667e-01 -3.333333333333333e-01 -1.666666666666665e-01
-1.666666666666667e-01 -3.333333333333333e-01 -1.666666666666665e-01
-1.666666666666667e-01 -3.333333333333333e-01 -1.666666666666665e-01
-1.666666666666667e-01 -3.333333333333333e-01 -1.666666666666665e-01
-1.666666666666667e-01 -3.333333333333333e-01 -1.666666666666665e-01
-1.666666666666667e-01 -3.333333333333333e-01 -1.666666666666665e-01
-1.666666666666667e-01 -3.333333333333333e-01 -1.666666666666665e-01
-1.666666666666667e-01 -3.333333333333333e-01 -1.666666666666665e-01
-1.666666666666667e-01 -3.333333333333333e-01 -1.666666666666665e-01
-1.666666666666667e-01 -3.333333333333333e-01 -1.666666666666665e-01
-1.666666666666667e-01 -3.333333333333333e-01 -1.666666666666665e-01
-1.666666666666667e-01 -3.333333333333333e-01 -1.666666666666665e-01
-1.666666666666667e-01 -3.333333333333333e-01 -1.666666666666665e-01
-1.666666666666667e-01 -3.333333333333333e-01 -1.666666666666665e-01
-1.666666666666667e-01 -3.333333333333333e-01 -1.666666666666665e-01
-1.666666666666667e-01 -3.333333333333333e-01 -1.666666666666665e-01
-1.666666666666667e-01 -3.333333333333333e-01 -1.666666666666665e-01
-1.666666666666667e-01 -3.333333333333333e-01 -1.666666666666665e-01
-1.666666666666667e-01 -3.333333333333333e-01 -1.666666666666665e-01
-1.666666666666667e-01 -3.333333333333333e-01 -1.666666666666665e-01
-1.666666666666667e-01 -3.333333333333333e-01 -1.666666666666665e-01
-1.666666666666667e-01 -3.333333333333333e-01 -1.666666666666665e-01
-1.666666666666667e-01 -3.333333333333333e-01 -1.666666666666665e-01
-1.666666666666667e-01 -3.333333333333333e-01 -1.666666666666665e-01
-1.666666666666667e-01 -3.333333333333333e-01 -1.666666666666665e-01
-1.666666666666667e-01 -3.333333333333333e-01 -1.666666666666665e-01
-1.666666666666667e-01 -3.333333333333333e-01 -1.666666666666665e-01
-1.666666666666667e-01 -3.333333333333333e-01 -1.666666666666665e-01
-1.666666666666667e-01 -3.333333333333333e-01 -1.666666666666665e-01
-1.666666666666667e-01 -3.333333333333333e-01 -1.666666666666665e-01
-1.666666666666667e-01 -3.333333333333333e-01 -1.666666666666665e-01
-1.666666666666667e-01 -3.333333333333333e-01 -1.666666666666665e-01
-1.666666666666667e-01 -3.333333333333333e-01 -1.666666666666665e-01
-1.666666666666667e-01 -3.333333333333333e-01 -1.666666666666665e-01
-1.666666666666667e-01 -3.333333333333333e-01 -1.666666666666665e-01
-1.666666666666667e-01 -3.333333333333333e-01 -1.666666666666665e-01
-1.666666666666667e-01 -3.333333333333333e-01 -1.666666666666665e-01
-1.666666666666667e-01 -3.333333333333333e-01 -1.666666666666665e-01
-1.666666666666667e-01 -3.333333333333333e-01 -1.666666666666665e-01
-1.666666666666667e-01 -3.333333333333333e-01 -1.666666666666665e-01
-1.666666666666667e-01 -3.333333333333333e-01 -1.666666666666665e-01
-1.666666666666667e-01 -3.333333333333333e-01 -1.666666666666665e-01
-1.666666666666667e-01 -3.333333333333333e-01 -1.666666666666665e-01
-1.666666666666667e-01 -3.333333333333333e-01 -1.666666666666665e-01
-1.666666666666667e-01 -3.333333333333333e-01 -1.666666666666665e-01
-1.666666666666667e-01 -3.333333333333333e-01 -1.666666666666665e-01
-1.666666666666667e-01 -3.333333333333333e-01 -1.666666666666665e-01
-1.666666666666667e-01 -3.333333333333333e-01 -1.666666666666665e-01
-1.666666666666667e-01 -3.333333333333333e-01 -1.666666666666665e-01
-1.666666666666667e-01 -3.333333333333333e-01 -1.666666666666665e-01
-1.666666666666667e-01 -3.333333333333333e-01 -1.666666666666665e-01
-1.666666666666667e-01 -3.333333333333333e-01 -1.666666666666665e-01
-1.666666666666667e-01 -3.333333333333333e-01 -1.666666666666665e-01
-1.666666666666667e-01 -3.333333333333333e-01 -1.666666666666665e-01
-1.666666666666667e-01 -3.333333333333333e-01 -1.666666666666665e-01
-1.666666666666667e-01 -3.333333333333333e-01 -1.666666666666665e-01
-1.666666666666667e-01 -3.333333333333333e-01 -1.666666666666665e-01
-1.666666666666667e-01 -3.333333333333333e-01 -1.666666666666665e-01
-1.666666666666667e-01 -3.333333333333333e-01 -1.666666666666665e-01
-1.666666666666667e-01 -3.333333333333333e-01 -1.666666666666665e-01
-1.666666666666667e-01 -3.333333333333333e-01 -1.666666666666665e-01
-1.666666666666667e-01 -3.333333333333333e-01 -1.666666666666665e-01
-1.666666666666667e-01 -3.333333333333333e-01 -1.666666666666665e-01
-1.666666666666667e-01 -3.333333333333333e-01 -1.666666666666665e-01
-1.666666666666667e-01 -3.333333333333333e-01 -1.666666666666665e-01
-1.666666666666667e-01 -3.333333333333333e-01 -1.666666666666665e-01
-1.666666666666667e-01 -3.333333333333333e-01 -1.666666666666665e-01
-1.666666666666667e-01 -3.333333333333333e-01 -1.666666666666665e-01
-1.666666666666667e-01 -3.333333333333333e-01 -1.666666666666665e-01
-1.666666666666667e-01 -3.333333333333333e-01 -1.666666666666665e-01
-1.666666666666667e-01 -3.333333333333333e-01 -1.666666666666665e-01
-1.666666666666667e-01 -3.333333333333333e-01 -1.666666666666665e-01
-1.666666666666667e-01 -3.333333333333333e-01 -1.666666666666665e-01
-1.666666666666667e-01 -3.333333333333333e-01 -1.666666666666665e-01
-1.666666666666667e-01 -3.333333333333333e-01 -1.666666666666665e-01
-1.666666666666667e-01 -3.333333333333333e-01 -1.666666666666665e-01
-1.666666666666667e-01 -3.333333333333333e-01 -1.666666666666665e-01
-1.666666666666667e-01 -3.333333333333333e-01 -1.666666666666665e-01
-1.666666666666667e-01 -3.333333333333333e-01 -1.666666666666665e-01
-1.666666666666667e-01 -3.333333333333333e-01 -1.666666666666665e-01
-1.666666666666667e-01 -3.333333333333333e-01 -1.666666666666665e-01
-1.666666666666667e-01 -3.333333333333333e-01 -1.666666666666665e-01
-1.666666666666667e-01 -3.333333333333333e-01 -1.666666666666665e-01
-1.666666666666667e-01 -3.333333333333333e-01 -1.666666666666665e-01
-1.666666666666667e-01 -3.333333333333333e-01 -1.666666666666665e-01
-1.666666666666667e-01 -3.333333333333333e-01 -1.666666666666665e-01
-1.666666666666667e-01 -3.333333333333333e-01 -1.666666666666665e-01
-1.666666666666667e-01 -3.333333333333333e-01 -1.666666666666665e-01
-1.666666666666667e-01 -3.333333333333333e-01 -1.666666666666665e-01
-1.666666666666667e-01 -3.333333333333333e-01 -1.666666666666665e-01
-1.666666666666667e-01 -3.333333333333333e-01 -1.666666666666665e-01
-1.666666666666667e-01 -3.333333333333333e-01 -1.666666666666665e-01
-1.666666666666667e-01 -3.333333333333333e-01 -1.666666666666665e-01
-1.666666666666667e-01 -3.333333333333333e-01 -1.666666666666665e-01
-1.666666666666667e-01 -3.333333333333333e-01 -1.666666666666665e-01
-1.666666666666667e-01 -3.333333333333333e-01 -1.666666666666665e-01
-1.666666666666667e-01 -3.333333333333333e-01 -1.666666666666665e-01
-1.666666666666667e-01 -3.333333333333333e-01 -1.666666666666665e-01
-1.666666666666667e-01 -3.333333333333333e-01 -1.666666666666665e-01
-1.666666666666667e-01 -3.333333333333333e-01 -1.666666666666665e-01
-1.666666666666667e-01 -3.333333333333333e-01 -1.666666666666665e-01
-1.666666666666667e-01 -3.333333333333333e-01 -1.666666666666665e-01
-1.666666666666667e-01 -3.333333333333333e-01 -1.666666666666665e-01
-1.666666666666667e-01 -3.333333333333333e-01 -1.666666666666665e-01
-1.666666666666667e-01 -3.333333333333333e-01 -1.666666666666665e-01
-1.666666666666667e-01 -3.333333333333333e-01 -1.666666666666665e-01
-1.666666666666667e-01 -3.333333333333333e-01 -1.666666666666665e-01
-1.666666666666667e-01 -3.333333333333333e-01 -1.666666666666665e-01
-1.666666666666667e-01 -3.333333333333333e-01 -1.666666666666665e-01
-1.666666666666667e-01 -3.333333333333333e-01 -1.666666666666665e-01
-1.666666666666667e-01 -3.333333333333333e-01 -1.666666666666665e-01
-1.666666666666667e-01 -3.333333333333333e-01 -1.666666666666665e-01
-1.666666666666667e-01 -3.333333333333333e-01 -1.666666666666665e-01
-1.666666666666667e-01 -3.333333333333333e-01 -1.666666666666665e-01
-1.666666666666667e-01 -3.333333333333333e-01 -1.666666666666665e-01
-1.666666666666667e-01 -3.333333333333333e-01 -1.666666666666665e-01
-1.666666666666667e-01 -3.333333333333333e-01 -1.666666666666665e-01
-1.666666666666667e-01 -3.333333333333333e-01 -1.666666666666665e-01
-1.666666666666667e-01 -3.333333333333333e-01 -1.666666666666665e-01
-1.666666666666667e-01 -3.333333333333333e-01 -1.666666666666665e-01
-1.666666666666667e-01 -3.333333333333333e-01 -1.666666666666665e-01
-1.666666666666667e-01 -3.333333333333333e-01 -1.666666666666665e-01
-1.666666666666667e-01 -3.333333333333333e-01 -1.666666666666665e-01
-1.666666666666667e-01 -3.333333333333333e-01 -1.666666666666665e-01
-1.666666666666667e-01 -3.333333333333333e-01 -1.666666666666665e-01
-1.666666666666667e-01 -3.333333333333333e-01 -1.666666666666665e-01
-1.666666666666667e-01 -3.333333333333333e-01 -1.666666666666665e-01
-1.666666666666667e-01 -3.333333333333333e-01 -1.666666666666665e-01
-1.666666666666667e-01 -3.333333333333333e-01 -1.666666666666665e-01
-1.666666666666667e-01 -3.333333333333333e-01 -1.666666666666665e-01
-1.666666666666667e-01 -3.333333333333333e-01 -1.666666666666665e-01
-1.666666666666667e-01 -3.333333333333333e-01 -1.666666666666665e-01
-1.666666666666667e-01 -3.333333333333333e-01 -1.666666666666665e-01
-1.666666666666667e-01 -3.333333333333333e-01 -1.666666666666665e-01
-1.666666666666667e-01 -3.333333333333333e-01 -1.666666666666665e-01
-1.666666666666667e-01 -3.333333333333333e-01 -1.666666666666665e-01
-1.666666666666667e-01 -3.333333333333333e-01 -1.666666666666665e-01
-1.666666666666667e-01 -3.333333333333333e-01 -1.666666666666665e-01
-1.666666666666667e-01 -3.333333333333333e-01 -1.666666666666665e-01
-1.666666666666667e-01 -3.333333333333333e-01 -1.666666666666665e-01
-1.666666666666667e-01 -3.333333333333333e-01 -1.666666666666665e-01
-1.666666666666667e-01 -3.333333333333333e-01 -1.666666666666665e-01
-1.666666666666667e-01 -3.333333333333333e-01 -1.666666666666665e-01
-1.666666666666667e-01 -3.333333333333333e-01 -1.666666666666665e-01
-1.666666666666667e-01 -3.333333333333333e-01 -1.666666666666665e-01
-1.666666666666667e-01 -3.333333333333333e-01 -1.666666666666665e-01
-1.666666666666667e-01 -3.333333333333333e-01 -1.666666666666665e-01
-1.666666666666667e-01 -3.333333333333333e-01 -1.666666666666665e-01
-1.666666666666667e-01 -3.333333333333333e-01 -1.666666666666665e-01
-1.666666666666667e-01 -3.333333333333333e-01 -1.666666666666665e-01
-1.666666666666667e-01 -3.333333333333333e-01 -1.666666666666665e-01
-1.666666666666667e-01 -3.333333333333333e-01 -1.666666666666665e-01
-1.666666666666667e-01 -3.333333333333333e-01 -1.666666666666665e-01
-1.666666666666667e-01 -3.333333333333333e-01 -1.666666666666665e-01
-1.666666666666667e-01 -3.333333333333333e-01 -1.666666666666665e-01
-1.666666666666667e-01 -3.333333333333333e-01 -1.666666666666665e-01
-1.666666666666667e-01 -3.333333333333333e-01 -1.666666666666665e-01
-1.666666666666667e-01 -3.333333333333333e-01 -1.666666666666665e-01
-1.666666666666667e-01 -3.333333333333333e-01 -1.666666666666665e-01
-1.666666666666667e-01 -3.333333333333333e-01 -1.666666666666665e-01
-1.666666666666667e-01 -3.333333333333333e-01 -1.666666666666665e-01
-1.666666666666667e-01 -3.333333333333333e-01 -1.666666666666665e-01
-1.666666666666667e-01 -3.333333333333333e-01 -1.666666666666665e-01
-1.666666666666667e-01 -3.333333333333333e-01 -1.666666666666665e-01
-1.666666666666667e-01 -3.333333333333333e-01 -1.666666666666665e-01
-1.666666666666667e-01 -3.333333333333333e-01 -1.666666666666665e-01
-1.666666666666667e-01 -3.333333333333333e-01 -1.666666666666665e-01
-1.666666666666667e-01 -3.333333333333333e-01 -1.666666666666665e-01
-1.666666666666667e-01 -3.333333333333333e-01 -1.666666666666665e-01
-1.666666666666667e-01 -3.333333333333333e-01 -1.666666666666665e-01
-1.666666666666667e-01 -3.333333333333333e-01 -1.666666666666665e-01
-1.666666666666667e-01 -3.333333333333333e-01 -1.666666666666665e-01
-1.666666666666667e-01 -3.333333333333333e-01 -1.666666666666665e-01
-1.666666666666667e-01 -3.333333333333333e-01 -1.666666666666665e-01
-1.666666666666667e-01 -3.333333333333333e-01 -1.666666666666665e-01
-1.666666666666667e-01 -3.333333333333333e-01 -1.666666666666665e-01
-1.666666666666667e-01 -3.333333333333333e-01 -1.666666666666665e-01
-1.666666666666667e-01 -3.333333333333333e-01 -1.666666666666665e-01
-1.666666666666667e-01 -3.333333333333333e-01 -1.666666666666665e-01
-1.666666666666667e-01 -3.333333333333333e-01 -1.666666666666665e-01
-1.666666666666667e-01 -3.333333333333333e-01 -1.666666666666665e-01
-1.666666666666667e-01 -3.333333333333333e-01 -1.666666666666665e-01
-1.666666666666667e-01 -3.333333333333333e-01 -1.666666666666665e-01
-1.666666666666667e-01 -3.333333333333333e-01 -1.666666666666665e-01
-1.666666666666667e-01 -3.333333333333333e-01 -1.666666666666665e-01
-1.666666666666667e-01 -3.333333333333333e-01 -1.666666666666665e-01
-1.666666666666667e-01 -3.333333333333333e-01 -1.666666666666665e-01
-1.666666666666667e-01 -3.333333333333333e-01 -1.666666666666665e-01
-1.666666666666667e-01 -3.333333333333333e-01 -1.666666666666665e-01
-1.666666666666667e-01 -3.333333333333333e-01 -1.666666666666665e-01
-1.666666666666667e-01 -3.333333333333333e-01 -1.666666666666665e-01
-1.666666666666667e-01 -3.333333333333333e-01 -1.666666666666665e-01
-1.666666666666667e-01 -3.333333333333333e-01 -1.666666666666665e-01
-1.666666666666667e-01 -3.333333333333333e-01 -1.666666666666665e-01
-1.666666666666667e-01 -3.333333333333333e-01 -1.666666666666665e-01
-1.666666666666667e-01 -3.333333333333333e-01 -1.666666666666665e-01
-1.666666666666667e-01 -3.333333333333333e-01 -1.666666666666665e-01
-1.666666666666667e-01 -3.333333333333333e-01 -1.666666666666665e-01
-1.666666666666667e-01 -3.333333333333333e-01 -1.666666666666665e-01
-1.666666666666667e-01 -3.333333333333333e-01 -1.666666666666665e-01
-1.666666666666667e-01 -3.333333333333333e-01 -1.666666666666665e-01
-1.666666666666667e-01 -3.333333333333333e-01 -1.666666666666665e-01
-1.666666666666667e-01 -3.333333333333333e-01 -1.666666666666665e-01
-1.666666666666667e-01 -3.333333333333333e-01 -1.666666666666665e-01
-1.666666666666667e-01 -3.333333333333333e-01 -1.666666666666665e-01
-1.666666666666667e-01 -3.333333333333333e-01 -1.666666666666665e-01
-1.666666666666667e-01 -3.333333333333333e-01 -1.666666666666665e-01
-1.666666666666667e-01 -3.333333333333333e-01 -1.666666666666665e-01
-1.666666666666667e-01 -3.333333333333333e-01 -1.666666666666665e-01
-1.666666666666667e-01 -3.333333333333333e-01 -1.666666666666665e-01
-1.666666666666667e-01 -3.333333333333333e-01 -1.666666666666665e-01
-1.666666666666667e-01 -3.333333333333333e-01 -1.666666666666665e-01
-1.666666666666667e-01 -3.333333333333333e-01 -1.666666666666665e-01
-1.666666666666667e-01 -3.333333333333333e-01 -1.666666666666665e-01
-1.666666666666667e-01 -3.333333333333333e-01 -1.666666666666665e-01
-1.666666666666667e-01 -3.333333333333333e-01 -1.666666666666665e-01
-1.666666666666667e-01 -3.333333333333333e-01 -1.666666666666665e-01
-1.666666666666667e-01 -3.333333333333333e-01 -1.666666666666665e-01
-1.666666666666667e-01 -3.333333333333333e-01 -1.666666666666665e-01
-1.666666666666667e-01 -3.333333333333333e-01 -1.666666666666665e-01
-1.666666666666667e-01 -3.333333333333333e-01 -1.666666666666665e-01
-1.666666666666667e-01 -3.333333333333333e-01 -1.666666666666665e-01
-1.666666666666667e-01 -3.333333333333333e-01 -1.666666666666665e-01
-1.666666666666667e-01 -3.333333333333333e-01 -1.666666666666665e-01
-1.666666666666667e-01 -3.333333333333333e-01 -1.666666666666665e-01
-1.666666666666667e-01 -3.333333333333333e-01 -1.666666666666665e-01
-1.666666666666667e-01 -3.333333333333333e-01 -1.666666666666665e-01
-1.666666666666667e-01 -3.333333333333333e-01 -1.666666666666665e-01
-1.666666666666667e-01 -3.333333333333333e-01 -1.666666666666665e-01
-1.666666666666667e-01 -3.333333333333333e-01 -1.666666666666665e-01
-1.666666666666667e-01 -3.333333333333333e-01 -1.666666666666665e-01
-1.666666666666667e-01 -3.333333333333333e-01 -1.666666666666665e-01
-1.666666666666667e-01 -3.333333333333333e-01 -1.666666666666665e-01
-1.666666666666667e-01 -3.333333333333333e-01 -1.666666666666665e-01
-1.666666666666667e-01 -3.333333333333333e-01 -1.666666666666665e-01
-1.666666666666667e-01 -3.333333333333333e-01 -1.666666666666665e-01
-1.666666666666667e-01 -3.333333333333333e-01 -1.666666666666665e-01
-1.666666666666667e-01 -3.333333333333333e-01 -1.666666666666665e-01
-1.666666666666667e-01 -3.333333333333333e-01 -1.666666666666665e-01
-1.666666666666667e-01 -3.333333333333333e-01 -1.666666666666665e-01
-1.666666666666667e-01 -3.333333333333333e-01 -1.666666666666665e-01
-1.666666666666667e-01 -3.333333333333333e-01 -1.666666666666665e-01
-1.666666666666667e-01 -3.333333333333333e-01 -1.666666666666665e-01
-1.666666666666667e-01 -3.333333333333333e-01 -1.666666666666665e-01
-1.666666666666667e-01 -3.333333333333333e-01 -1.666666666666665e-01
-1.666666666666667e-01 -3.333333333333333e-01 -1.666666666666665e-01
-1.666666666666667e-01 -3.333333333333333e-01 -1.666666666666665e-01
-1.666666666666667e-01 -3.333333333333333e-01 -1.666666666666665e-01
-1.666666666666667e-01 -3.333333333333333e-01 -1.666666666666665e-01
-1.666666666666667e-01 -3.333333333333333e-01 -1.666666666666665e-01
-1.666666666666667e-01 -3.333333333333333e-01 -1.666666666666665e-01
-1.666666666666667e-01 -3.333333333333333e-01 -1.666666666666665e-01
-1.666666666666667e-01 -3.333333333333333e-01 -1.666666666666665e-01
-1.666666666666667e-01 -3.333333333333333e-01 -1.666666666666665e-01
-1.666666666666667e-01 -3.333333333333333e-01 -1.666666666666665e-01
-1.666666666666667e-01 -3.333333333333333e-01 -1.666666666666665e-01
-1.666666666666667e-01 -3.333333333333333e-01 -1.666666666666665e-01
-1.666666666666667e-01 -3.333333333333333e-01 -1.666666666666665e-01
-1.666666666666667e-01 -3.333333333333333e-01 -1.666666666666665e-01
-1.666666666666667e-01 -3.333333333333333e-01 -1.666666666666665e-01
-1.666666666666667e-01 -3.333333333333333e-01 -1.666666666666665e-01
-1.666666666666667e-01 -3.333333333333333e-01 -1.666666666666665e-01
-1.666666666666667e-01 -3.333333333333333e-01 -1.666666666666665e-01
-1.666666666666667e-01 -3.333333333333333e-01 -1.666666666666665e-01
-1.666666666666667e-01 -3.333333333333333e-01 -1.666666666666665e-01
-1.666666666666667e-01 -3.333333333333333e-01 -1.666666666666665e-01
-1.666666666666667e-01 -3.333333333333333e-01 -1.666666666666665e-01
-1.666666666666667e-01 -3.333333333333333e-01 -1.666666666666665e-01
-1.666666666666667e-01 -3.333333333333333e-01 -1.666666666666665e-01
-1.666666666666667e-01 -3.333333333333333e-01 -1.666666666666665e-01
-1.666666666666667e-01 -3.333333333333333e-01 -1.666666666666665e-01
-1.666666666666667e-01 -3.333333333333333e-01 -1.666666666666665e-01
-1.666666666666667e-01 -3.333333333333333e-01 -1.666666666666665e-01
-1.666666666666667e-01 -3.333333333333333e-01 -1.666666666666665e-01
-1.666666666666667e-01 -3.333333333333333e-01 -1.666666666666665e-01
-1.666666666666667e-01 -3.333333333333333e-01 -1.666666666666665e-01
-1.666666666666667e-01 -3.333333333333333e-01 -1.666666666666665e-01
-1.666666666666667e-01 -3.333333333333333e-01 -1.666666666666665e-01
-1.666666666666667e-01 -3.333333333333333e-01 -1.666666666666665e-01
-1.666666666666667e-01 -3.333333333333333e-01 -1.666666666666665e-01
-1.666666666666667e-01 -3.333333333333333e-01 -1.666666666666665e-01
-1.666666666666667e-01 -3.333333333333333e-01 -1.666666666666665e-01
-1.666666666666667e-01 -3.333333333333333e-01 -1.666666666666665e-01
-1.666666666666667e-01 -3.333333333333333e-01 -1.666666666666665e-01
-1.666666666666667e-01 -3.333333333333333e-01 -1.666666666666665e-01
-1.666666666666667e-01 -3.333333333333333e-01 -1.666666666666665e-01
-1.666666666666667e-01 -3.333333333333333e-01 -1.666666666666665e-01
-1.666666666666667e-01 -3.333333333333333e-01 -1.666666666666665e-01
-1.666666666666667e-01 -3.333333333333333e-01 -1.666666666666665e-01
-1.666666666666667e-01 -3.333333333333333e-01 -1.666666666666665e-01
-1.666666666666667e-01 -3.333333333333333e-01 -1.666666666666665e-01
-1.666666666666667e-01 -3.333333333333333e-01 -1.666666666666665e-01
-1.666666666666667e-01 -3.333333333333333e-01 -1.666666666666665e-01
-1.666666666666667e-01 -3.333333333333333e-01 -1.666666666666665e-01
-1.666666666666667e-01 -3.333333333333333e-01 -1.666666666666665e-01
1.666666666666667e-01 3.333333333333333e-01 1.666666666666665e-01
-1.666666666666667e-01 -3.333333333333333e-01 -1.666666666666665e-01
1.666666666666667e-01 3.333333333333333e-01 1.666666666666665e-01
1.666666666666667e-01 3.333333333333333e-01 1.666666666666665e-01
1.666666666666667e-01 3.333333333333333e-01 1.666666666666665e-01
1.666666666666667e-01 3.333333333333333e-01 1.666666666666665e-01
1.666666666666667e-01 3.333333333333333e-01 1.666666666666665e-01
1.666666666666667e-01 3.333333333333333e-01 1.666666666666665e-01
1.666666666666667e-01 3.333333333333333e-01 1.666666666666665e-01
1.666666666666667e-01 3.333333333333333e-01 1.666666666666665e-01
1.666666666666667e-01 3.333333333333333e-01 1.666666666666665e-01
1.666666666666667e-01 3.333333333333333e-01 1.666666666666665e-01
1.666666666666667e-01 3.333333333333333e-01 1.666666666666665e-01
1.666666666666667e-01 3.333333333333333e-01 1.666666666666665e-01
1.666666666666667e-01 3.333333333333333e-01 1.666666666666665e-01
1.666666666666667e-01 3.333333333333333e-01 1.666666666666665e-01
1.666666666666667e-01 3.333333333333333e-01 1.666666666666665e-01
1.666666666666667e-01 3.333333333333333e-01 1.666666666666665e-01
1.666666666666667e-01 3.333333333333333e-01 1.666666666666665e-01
1.666666666666667e-01 3.333333333333333e-01 1.666666666666665e-01
1.666666666666667e-01 3.333333333333333e-01 1.666666666666665e-01
1.666666666666667e-01 3.333333333333333e-01 1.666666666666665e-01
1.666666666666667e-01 3.333333333333333e-01 1.666666666666665e-01
1.666666666666667e-01 3.333333333333333e-01 1.666666666666665e-01
1.666666666666667e-01 3.333333333333333e-01 1.666666666666665e-01
1.666666666666667e-01 3.333333333333333e-01 1.666666666666665e-01
1.666666666666667e-01 3.333333333333333e-01 1.666666666666665e-01
1.666666666666667e-01 3.333333333333333e-01 1.666666666666665e-01
1.666666666666667e-01 3.333333333333333e-01 1.666666666666665e-01
1.666666666666667e-01 3.333333333333333e-01 1.666666666666665e-01
1.666666666666667e-01 3.333333333333333e-01 1.666666666666665e-01
1.666666666666667e-01 3.333333333333333e-01 1.666666666666665e-01
1.666666666666667e-01 3.333333333333333e-01 1.666666666666665e-01
1.666666666666667e-01 3.333333333333333e-01 1.666666666666665e-01
1.666666666666667e-01 3.333333333333333e-01 1.666666666666665e-01
1.666666666666667e-01 3.333333333333333e-01 1.666666666666665e-01
1.666666666666667e-01 3.333333333333333e-01 1.666666666666665e-01
1.666666666666667e-01 3.333333333333333e-01 1.666666666666665e-01
1.666666666666667e-01 3.333333333333333e-01 1.666666666666665e-01
1.666666666666667e-01 3.333333333333333e-01 1.666666666666665e-01
1.666666666666667e-01 3.333333333333333e-01 1.666666666666665e-01
1.666666666666667e-01 3.333333333333333e-01 1.666666666666665e-01
1.666666666666667e-01 3.333333333333333e-01 1.666666666666665e-01
1.666666666666667e-01 3.333333333333333e-01 1.666666666666665e-01
1.666666666666667e-01 3.333333333333333e-01 1.666666666666665e-01
1.666666666666667e-01 3.333333333333333e-01 1.666666666666665e-01
1.666666666666667e-01 3.333333333333333e-01 1.666666666666665e-01
1.666666666666667e-01 3.333333333333333e-01 1.666666666666665e-01
1.666666666666667e-01 3.333333333333333e-01 1.666666666666665e-01
1.666666666666667e-01 3.333333333333333e-01 1.666666666666665e-01
1.666666666666667e-01 3.333333333333333e-01 1.666666666666665e-01
1.666666666666667e-01 3.333333333333333e-01 1.666666666666665e-01
1.666666666666667e-01 3.333333333333333e-01 1.666666666666665e-01
1.666666666666667e-01 3.333333333333333e-01 1.666666666666665e-01
1.666666666666667e-01 3.333333333333333e-01 1.666666666666665e-01
1.666666666666667e-01 3.333333333333333e-01 1.666666666666665e-01
1.666666666666667e-01 3.333333333333333e-01 1.666666666666665e-01
1.666666666666667e-01 3.333333333333333e-01 1.666666666666665e-01
1.666666666666667e-01 3.333333333333333e-01 1.666666666666665e-01
1.666666666666667e-01 3.333333333333333e-01 1.666666666666665e-01
1.666666666666667e-01 3.333333333333333e-01 1.666666666666665e-01
1.666666666666667e-01 3.333333333333333e-01 1.666666666666665e-01
1.666666666666667e-01 3.333333333333333e-01 1.666666666666665e-01
1.666666666666667e-01 3.333333333333333e-01 1.666666666666665e-01
1.666666666666667e-01 3.333333333333333e-01 1.666666666666665e-01
1.666666666666667e-01 3.333333333333333e-01 1.666666666666665e-01
1.666666666666667e-01 3.333333333333333e-01 1.666666666666665e-01
1.666666666666667e-01 3.333333333333333e-01 1.666666666666665e-01
1.666666666666667e-01 3.333333333333333e-01 1.666666666666665e-01
1.666666666666667e-01 3.333333333333333e-01 1.666666666666665e-01
1.666666666666667e-01 3.333333333333333e-01 1.666666666666665e-01
1.666666666666667e-01 3.333333333333333e-01 1.666666666666665e-01
1.666666666666667e-01 3.333333333333333e-01 1.666666666666665e-01
1.666666666666667e-01 3.333333333333333e-01 1.666666666666665e-01
1.666666666666667e-01 3.333333333333333e-01 1.666666666666665e-01
1.666666666666667e-01 3.333333333333333e-01 1.666666666666665e-01
1.666666666666667e-01 3.333333333333333e-01 1.666666666666665e-01
1.666666666666667e-01 3.333333333333333e-01 1.666666666666665e-01
1.666666666666667e-01 3.333333333333333e-01 1.666666666666665e-01
1.666666666666667e-01 3.333333333333333e-01 1.666666666666665e-01
1.666666666666667e-01 3.333333333333333e-01 1.666666666666665e-01
1.666666666666667e-01 3.333333333333333e-01 1.666666666666665e-01
1.666666666666667e-01 3.333333333333333e-01 1.666666666666665e-01
1.666666666666667e-01 3.333333333333333e-01 1.666666666666665e-01
1.666666666666667e-01 3.333333333333333e-01 1.666666666666665e-01
1.666666666666667e-01 3.333333333333333e-01 1.666666666666665e-01
1.666666666666667e-01 3.333333333333333e-01 1.666666666666665e-01
1.666666666666667e-01 3.333333333333333e-01 1.666666666666665e-01
1.666666666666667e-01 3.333333333333333e-01 1.666666666666665e-01
1.666666666666667e-01 3.333333333333333e-01 1.666666666666665e-01
1.666666666666667e-01 3.333333333333333e-01 1.666666666666665e-01
1.666666666666667e-01 3.333333333333333e-01 1.666666666666665e-01
1.666666666666667e-01 3.333333333333333e-01 1.666666666666665e-01
1.666666666666667e-01 3.333333333333333e-01 1.666666666666665e-01
1.666666666666667e-01 3.333333333333333e-01 1.666666666666665e-01
1.666666666666667e-01 3.333333333333333e-01 1.666666666666665e-01
1.666666666666667e-01 3.333333333333333e-01 1.666666666666665e-01
1.666666666666667e-01 3.333333333333333e-01 1.666666666666665e-01
1.666666666666667e-01 3.333333333333333e-01 1.666666666666665e-01
1.666666666666667e-01 3.333333333333333e-01 1.666666666666665e-01
1.666666666666667e-01 3.333333333333333e-01 1.666666666666665e-01
1.666666666666667e-01 3.333333333333333e-01 1.666666666666665e-01
1.666666666666667e-01 3.333333333333333e-01 1.666666666666665e-01
1.666666666666667e-01 3.333333333333333e-01 1.666666666666665e-01
1.666666666666667e-01 3.333333333333333e-01 1.666666666666665e-01
1.666666666666667e-01 3.333333333333333e-01 1.666666666666665e-01
1.666666666666667e-01 3.333333333333333e-01 1.666666666666665e-01
1.666666666666667e-01 3.333333333333333e-01 1.666666666666665e-01
1.666666666666667e-01 3.333333333333333e-01 1.666666666666665e-01
1.666666666666667e-01 3.333333333333333e-01 1.666666666666665e-01
1.666666666666667e-01 3.333333333333333e-01 1.666666666666665e-01
1.666666666666667e-01 3.333333333333333e-01 1.666666666666665e-01
1.666666666666667e-01 3.333333333333333e-01 1.666666666666665e-01
1.666666666666667e-01 3.333333333333333e-01 1.666666666666665e-01
1.666666666666667e-01 3.333333333333333e-01 1.666666666666665e-01
1.666666666666667e-01 3.333333333333333e-01 1.666666666666665e-01
1.666666666666667e-01 3.333333333333333e-01 1.666666666666665e-01
1.666666666666667e-01 3.333333333333333e-01 1.666666666666665e-01
1.666666666666667e-01 3.333333333333333e-01 1.666666666666665e-01
1.666666666666667e-01 3.333333333333333e-01 1.666666666666665e-01
1.666666666666667e-01 3.333333333333333e-01 1.666666666666665e-01
1.666666666666667e-01 3.333333333333333e-01 1.666666666666665e-01
1.666666666666667e-01 3.333333333333333e-01 1.666666666666665e-01
1.666666666666667e-01 3.333333333333333e-01 1.666666666666665e-01
1.666666666666667e-01 3.333333333333333e-01 1.666666666666665e-01
1.666666666666667e-01 3.333333333333333e-01 1.666666666666665e-01
1.666666666666667e-01 3.333333333333333e-01 1.666666666666665e-01
1.666666666666667e-01 3.333333333333333e-01 1.666666666666665e-01
1.666666666666667e-01 3.333333333333333e-01 1.666666666666665e-01
1.666666666666667e-01 3.333333333333333e-01 1.666666666666665e-01
1.666666666666667e-01 3.333333333333333e-01 1.666666666666665e-01
1.666666666666667e-01 3.333333333333333e-01 1.666666666666665e-01
1.666666666666667e-01 3.333333333333333e-01 1.666666666666665e-01
1.666666666666667e-01 3.333333333333333e-01 1.666666666666665e-01
1.666666666666667e-01 3.333333333333333e-01 1.666666666666665e-01
1.666666666666667e-01 3.333333333333333e-01 1.666666666666665e-01
1.666666666666667e-01 3.333333333333333e-01 1.666666666666665e-01
1.666666666666667e-01 3.333333333333333e-01 1.666666666666665e-01
1.666666666666667e-01 3.333333333333333e-01 1.666666666666665e-01
1.666666666666667e-01 3.333333333333333e-01 1.666666666666665e-01
1.666666666666667e-01 3.333333333333333e-01 1.666666666666665e-01
1.666666666666667e-01 3.333333333333333e-01 1.666666666666665e-01
1.666666666666667e-01 3.333333333333333e-01 1.666666666666665e-01
1.666666666666667e-01 3.333333333333333e-01 1.666666666666665e-01
1.666666666666667e-01 3.333333333333333e-01 1.666666666666665e-01
1.666666666666667e-01 3.333333333333333e-01 1.666666666666665e-01
1.666666666666667e-01 3.333333333333333e-01 1.666666666666665e-01
1.666666666666667e-01 3.333333333333333e-01 1.666666666666665e-01
1.666666666666667e-01 3.333333333333333e-01 1.666666666666665e-01
1.666666666666667e-01 3.333333333333333e-01 1.666666666666665e-01
1.666666666666667e-01 3.333333333333333e-01 1.666666666666665e-01
1.666666666666667e-01 3.333333333333333e-01 1.666666666666665e-01
1.666666666666667e-01 3.333333333333333e-01 1.666666666666665e-01
1.666666666666667e-01 3.333333333333333e-01 1.666666666666665e-01
1.666666666666667e-01 3.333333333333333e-01 1.666666666666665e-01
1.666666666666667e-01 3.333333333333333e-01 1.666666666666665e-01
1.666666666666667e-01 3.333333333333333e-01 1.666666666666665e-01
1.666666666666667e-01 3.333333333333333e-01 1.666666666666665e-01
1.666666666666667e-01 3.333333333333333e-01 1.666666666666665e-01
1.666666666666667e-01 3.333333333333333e-01 1.666666666666665e-01
1.666666666666667e-01 3.333333333333333e-01 1.666666666666665e-01
1.666666666666667e-01 3.333333333333333e-01 1.666666666666665e-01
1.666666666666667e-01 3.333333333333333e-01 1.666666666666665e-01
1.666666666666667e-01 3.333333333333333e-01 1.666666666666665e-01
1.666666666666667e-01 3.333333333333333e-01 1.666666666666665e-01
1.666666666666667e-01 3.333333333333333e-01 1.666666666666665e-01
1.666666666666667e-01 3.333333333333333e-01 1.666666666666665e-01
1.666666666666667e-01 3.333333333333333e-01 1.666666666666665e-01
1.666666666666667e-01 3.333333333333333e-01 1.666666666666665e-01
1.666666666666667e-01 3.333333333333333e-01 1.666666666666665e-01
1.666666666666667e-01 3.333333333333333e-01 1.666666666666665e-01
1.666666666666667e-01 3.333333333333333e-01 1.666666666666665e-01
1.666666666666667e-01 3.333333333333333e-01 1.666666666666665e-01
1.666666666666667e-01 3.333333333333333e-01 1.666666666666665e-01
1.666666666666667e-01 3.333333333333333e-01 1.666666666666665e-01
1.666666666666667e-01 3.333333333333333e-01 1.666666666666665e-01
1.666666666666667e-01 3.333333333333333e-01 1.666666666666665e-01
1.666666666666667e-01 3.333333333333333e-01 1.666666666666665e-01
1.666666666666667e-01 3.333333333333333e-01 1.666666666666665e-01
1.666666666666667e-01 3.333333333333333e-01 1.666666666666665e-01
1.666666666666667e-01 3.333333333333333e-01 1.666666666666665e-01
1.666666666666667e-01 3.333333333333333e-01 1.666666666666665e-01
1.666666666666667e-01 3.333333333333333e-01 1.666666666666665e-01
1.666666666666667e-01 3.333333333333333e-01 1.666666666666665e-01
1.666666666666667e-01 3.333333333333333e-01 1.666666666666665e-01
1.666666666666667e-01 3.333333333333333e-01 1.666666666666665e-01
1.666666666666667e-01 3.333333333333333e-01 1.666666666666665e-01
1.666666666666667e-01 3.333333333333333e-01 1.666666666666665e-01
1.666666666666667e-01 3.333333333333333e-01 1.666666666666665e-01
1.666666666666667e-01 3.333333333333333e-01 1.666666666666665e-01
1.666666666666667e-01 3.333333333333333e-01 1.666666666666665e-01
1.666666666666667e-01 3.333333333333333e-01 1.666666666666665e-01
1.666666666666667e-01 3.333333333333333e-01 1.666666666666665e-01
1.666666666666667e-01 3.333333333333333e-01 1.666666666666665e-01
1.666666666666667e-01 3.333333333333333e-01 1.666666666666665e-01
1.666666666666667e-01 3.333333333333333e-01 1.666666666666665e-01
1.666666666666667e-01 3.333333333333333e-01 1.666666666666665e-01
1.666666666666667e-01 3.333333333333333e-01 1.666666666666665e-01
1.666666666666667e-01 3.333333333333333e-01 1.666666666666665e-01
1.666666666666667e-01 3.333333333333333e-01 1.666666666666665e-01
1.666666666666667e-01 3.333333333333333e-01 1.666666666666665e-01
1.666666666666667e-01 3.333333333333333e-01 1.666666666666665e-01
1.666666666666667e-01 3.333333333333333e-01 1.666666666666665e-01
1.666666666666667e-01 3.333333333333333e-01 1.666666666666665e-01
1.666666666666667e-01 3.333333333333333e-01 1.666666666666665e-01
1.666666666666667e-01 3.333333333333333e-01 1.666666666666665e-01
1.666666666666667e-01 3.333333333333333e-01 1.666666666666665e-01
1.666666666666667e-01 3.333333333333333e-01 1.666666666666665e-01
1.666666666666667e-01 3.333333333333333e-01 1.666666666666665e-01
1.666666666666667e-01 3.333333333333333e-01 1.666666666666665e-01
1.666666666666667e-01 3.333333333333333e-01 1.666666666666665e-01
1.666666666666667e-01 3.333333333333333e-01 1.666666666666665e-01
1.666666666666667e-01 3.333333333333333e-01 1.666666666666665e-01
1.666666666666667e-01 3.333333333333333e-01 1.666666666666665e-01
1.666666666666667e-01 3.333333333333333e-01 1.666666666666665e-01
1.666666666666667e-01 3.333333333333333e-01 1.666666666666665e-01
1.666666666666667e-01 3.333333333333333e-01 1.666666666666665e-01
1.666666666666667e-01 3.333333333333333e-01 1.666666666666665e-01
1.666666666666667e-01 3.333333333333333e-01 1.666666666666665e-01
1.666666666666667e-01 3.333333333333333e-01 1.666666666666665e-01
1.666666666666667e-01 3.333333333333333e-01 1.666666666666665e-01
1.666666666666667e-01 3.333333333333333e-01 1.666666666666665e-01
1.666666666666667e-01 3.333333333333333e-01 1.666666666666665e-01
1.666666666666667e-01 3.333333333333333e-01 1.666666666666665e-01
1.666666666666667e-01 3.333333333333333e-01 1.666666666666665e-01
1.666666666666667e-01 3.333333333333333e-01 1.666666666666665e-01
1.666666666666667e-01 3.333333333333333e-01 1.666666666666665e-01
1.666666666666667e-01 3.333333333333333e-01 1.666666666666665e-01
1.666666666666667e-01 3.333333333333333e-01 1.666666666666665e-01
1.666666666666667e-01 3.333333333333333e-01 1.666666666666665e-01
1.666666666666667e-01 3.333333333333333e-01 1.666666666666665e-01
1.666666666666667e-01 3.333333333333333e-01 1.666666666666665e-01
1.666666666666667e-01 3.333333333333333e-01 1.666666666666665e-01
1.666666666666667e-01 3.333333333333333e-01 1.666666666666665e-01
1.666666666666667e-01 3.333333333333333e-01 1.666666666666665e-01
1.666666666666667e-01 3.333333333333333e-01 1.666666666666665e-01
1.666666666666667e-01 3.333333333333333e-01 1.666666666666665e-01
1.666666666666667e-01 3.333333333333333e-01 1.666666666666665e-01
1.666666666666667e-01 3.333333333333333e-01 1.666666666666665e-01
1.666666666666667e-01 3.333333333333333e-01 1.666666666666665e-01
1.666666666666667e-01 3.333333333333333e-01 1.666666666666665e-01
1.666666666666667e-01 3.333333333333333e-01 1.666666666666665e-01
1.666666666666667e-01 3.333333333333333e-01 1.666666666666665e-01
1.666666666666667e-01 3.333333333333333e-01 1.666666666666665e-01
1.666666666666667e-01 3.333333333333333e-01 1.666666666666665e-01
1.666666666666667e-01 3.333333333333333e-01 1.666666666666665e-01
1.666666666666667e-01 3.333333333333333e-01 1.666666666666665e-01
1.666666666666667e-01 3.333333333333333e-01 1.666666666666665e-01
1.666666666666667e-01 3.333333333333333e-01 1.666666666666665e-01
1.666666666666667e-01 3.333333333333333e-01 1.666666666666665e-01
1.666666666666667e-01 3.333333333333333e-01 1.666666666666665e-01
1.666666666666667e-01 3.333333333333333e-01 1.666666666666665e-01
1.666666666666667e-01 3.333333333333333e-01 1.666666666666665e-01
1.666666666666667e-01 3.333333333333333e-01 1.666666666666665e-01
1.666666666666667e-01 3.333333333333333e-01 1.666666666666665e-01
1.666666666666667e-01 3.333333333333333e-01 1.666666666666665e-01
1.666666666666667e-01 3.333333333333333e-01 1.666666666666665e-01
1.666666666666667e-01 3.333333333333333e-01 1.666666666666665e-01
1.666666666666667e-01 3.333333333333333e-01 1.666666666666665e-01
1.666666666666667e-01 3.333333333333333e-01 1.666666666666665e-01
1.666666666666667e-01 3.333333333333333e-01 1.666666666666665e-01
1.666666666666667e-01 3.333333333333333e-01 1.666666666666665e-01
1.666666666666667e-01 3.333333333333333e-01 1.666666666666665e-01
1.666666666666667e-01 3.333333333333333e-01 1.666666666666665e-01
1.666666666666667e-01 3.333333333333333e-01 1.666666666666665e-01
1.666666666666667e-01 3.333333333333333e-01 1.666666666666665e-01
1.666666666666667e-01 3.333333333333333e-01 1.666666666666665e-01
1.666666666666667e-01 3.333333333333333e-01 1.666666666666665e-01
1.666666666666667e-01 3.333333333333333e-01 1.666666666666665e-01
1.666666666666667e-01 3.333333333333333e-01 1.666666666666665e-01
1.666666666666667e-01 3.333333333333333e-01 1.666666666666665e-01
1.666666666666667e-01 3.333333333333333e-01 1.666666666666665e-01
1.666666666666667e-01 3.333333333333333e-01 1.666666666666665e-01
1.666666666666667e-01 3.333333333333333e-01 1.666666666666665e-01
1.666666666666667e-01 3.333333333333333e-01 1.666666666666665e-01
1.666666666666667e-01 3.333333333333333e-01 1.666666666666665e-01
1.666666666666667e-01 3.333333333333333e-01 1.666666666666665e-01
1.666666666666667e-01 3.333333333333333e-01 1.666666666666665e-01
1.666666666666667e-01 3.333333333333333e-01 1.666666666666665e-01
1.666666666666667e-01 3.333333333333333e-01 1.666666666666665e-01
1.666666666666667e-01 3.333333333333333e-01 1.666666666666665e-01
1.666666666666667e-01 3.333333333333333e-01 1.666666666666665e-01
1.666666666666667e-01 3.333333333333333e-01 1.666666666666665e-01
1.666666666666667e-01 3.333333333333333e-01 1.666666666666665e-01
1.666666666666667e-01 3.333333333333333e-01 1.666666666666665e-01
1.666666666666667e-01 3.333333333333333e-01 1.666666666666665e-01
1.666666666666667e-01 3.333333333333333e-01 1.666666666666665e-01
1.666666666666667e-01 3.333333333333333e-01 1.666666666666665e-01
1.666666666666667e-01 3.333333333333333e-01 1.666666666666665e-01
1.666666666666667e-01 3.333333333333333e-01 1.666666666666665e-01
1.666666666666667e-01 3.333333333333333e-01 1.666666666666665e-01
1.666666666666667e-01 3.333333333333333e-01 1.666666666666665e-01
1.666666666666667e-01 3.333333333333333e-01 1.666666666666665e-01
1.666666666666667e-01 3.333333333333333e-01 1.666666666666665e-01
1.666666666666667e-01 3.333333333333333e-01 1.666666666666665e-01
1.666666666666667e-01 3.333333333333333e-01 1.666666666666665e-01
1.666666666666667e-01 3.333333333333333e-01 1.666666666666665e-01
1.666666666666667e-01 3.333333333333333e-01 1.666666666666665e-01
1.666666666666667e-01 3.333333333333333e-01 1.666666666666665e-01
1.666666666666667e-01 3.333333333333333e-01 1.666666666666665e-01
1.666666666666667e-01 3.333333333333333e-01 1.666666666666665e-01
1.666666666666667e-01 3.333333333333333e-01 1.666666666666665e-01
1.666666666666667e-01 3.333333333333333e-01 1.666666666666665e-01
1.666666666666667e-01 3.333333333333333e-01 1.666666666666665e-01
1.666666666666667e-01 3.333333333333333e-01 1.666666666666665e-01
1.666666666666667e-01 3.333333333333333e-01 1.666666666666665e-01
1.666666666666667e-01 3.333333333333333e-01 1.666666666666665e-01
1.666666666666667e-01 3.333333333333333e-01 1.666666666666665e-01
1.666666666666667e-01 3.333333333333333e-01 1.666666666666665e-01
1.666666666666667e-01 3.333333333333333e-01 1.666666666666665e-01
1.666666666666667e-01 3.333333333333333e-01 1.666666666666665e-01
1.666666666666667e-01 3.333333333333333e-01 1.666666666666665e-01
1.666666666666667e-01 3.333333333333333e-01 1.666666666666665e-01
1.666666666666667e-01 3.333333333333333e-01 1.666666666666665e-01
1.666666666666667e-01 3.333333333333333e-01 1.666666666666665e-01
1.666666666666667e-01 3.333333333333333e-01 1.666666666666665e-01
1.666666666666667e-01 3.333333333333333e-01 1.666666666666665e-01
1.666666666666667e-01 3.333333333333333e-01 1.666666666666665e-01
1.666666666666667e-01 3.333333333333333e-01 1.666666666666665e-01
1.666666666666667e-01 3.333333333333333e-01 1.666666666666665e-01
1.666666666666667e-01 3.333333333333333e-01 1.666666666666665e-01
1.666666666666667e-01 3.333333333333333e-01 1.666666666666665e-01
1.666666666666667e-01 3.333333333333333e-01 1.666666666666665e-01
1.666666666666667e-01 3.333333333333333e-01 1.666666666666665e-01
1.666666666666667e-01 3.333333333333333e-01 1.666666666666665e-01
1.666666666666667e-01 3.333333333333333e-01 1.666666666666665e-01
1.666666666666667e-01 3.333333333333333e-01 1.666666666666665e-01
1.666666666666667e-01 3.333333333333333e-01 1.666666666666665e-01
1.666666666666667e-01 3.333333333333333e-01 1.666666666666665e-01
1.666666666666667e-01 3.333333333333333e-01 1.666666666666665e-01
1.666666666666667e-01 3.333333333333333e-01 1.666666666666665e-01
1.666666666666667e-01 3.333333333333333e-01 1.666666666666665e-01
1.666666666666667e-01 3.333333333333333e-01 1.666666666666665e-01
1.666666666666667e-01 3.333333333333333e-01 1.666666666666665e-01
1.666666666666667e-01 3.333333333333333e-01 1.666666666666665e-01
1.666666666666667e-01 3.333333333333333e-01 1.666666666666665e-01
1.666666666666667e-01 3.333333333333333e-01 1.666666666666665e-01
1.666666666666667e-01 3.333333333333333e-01 1.666666666666665e-01
1.666666666666667e-01 3.333333333333333e-01 1.666666666666665e-01
1.666666666666667e-01 3.333333333333333e-01 1.666666666666665e-01
1.666666666666667e-01 3.333333333333333e-01 1.666666666666665e-01
1.666666666666667e-01 3.333333333333333e-01 1.666666666666665e-01
1.666666666666667e-01 3.333333333333333e-01 1.666666666666665e-01
1.666666666666667e-01 3.333333333333333e-01 1.666666666666665e-01
1.666666666666667e-01 3.333333333333333e-01 1.666666666666665e-01
1.666666666666667e-01 3.333333333333333e-01 1.666666666666665e-01
1.666666666666667e-01 3.333333333333333e-01 1.666666666666665e-01
1.666666666666667e-01 3.333333333333333e-01 1.666666666666665e-01
1.666666666666667e-01 3.333333333333333e-01 1.666666666666665e-01
1.666666666666667e-01 3.333333333333333e-01 1.666666666666665e-01
1.666666666666667e-01 3.333333333333333e-01 1.666666666666665e-01
1.666666666666667e-01 3.333333333333333e-01 1.666666666666665e-01
1.666666666666667e-01 3.333333333333333e-01 1.666666666666665e-01
1.666666666666667e-01 3.333333333333333e-01 1.666666666666665e-01
1.666666666666667e-01 3.333333333333333e-01 1.666666666666665e-01
1.666666666666667e-01 3.333333333333333e-01 1.666666666666665e-01
1.666666666666667e-01 3.333333333333333e-01 1.666666666666665e-01
1.666666666666667e-01 3.333333333333333e-01 1.666666666666665e-01
1.666666666666667e-01 3.333333333333333e-01 1.666666666666665e-01
1.666666666666667e-01 3.333333333333333e-01 1.666666666666665e-01
1.666666666666667e-01 3.333333333333333e-01 1.666666666666665e-01
1.666666666666667e-01 3.333333333333333e-01 1.666666666666665e-01
1.666666666666667e-01 3.333333333333333e-01 1.666666666666665e-01
1.666666666666667e-01 3.333333333333333e-01 1.666666666666665e-01
1.666666666666667e-01 3.333333333333333e-01 1.666666666666665e-01
1.666666666666667e-01 3.333333333333333e-01 1.666666666666665e-01
1.666666666666667e-01 3.333333333333333e-01 1.666666666666665e-01
1.666666666666667e-01 3.333333333333333e-01 1.666666666666665e-01
1.666666666666667e-01 3.333333333333333e-01 1.666666666666665e-01
1.666666666666667e-01 3.333333333333333e-01 1.666666666666665e-01
1.666666666666667e-01 3.333333333333333e-01 1.666666666666665e-01
1.666666666666667e-01 3.333333333333333e-01 1.666666666666665e-01
1.666666666666667e-01 3.333333333333333e-01 1.666666666666665e-01
1.666666666666667e-01 3.333333333333333e-01 1.666666666666665e-01
1.666666666666667e-01 3.333333333333333e-01 1.666666666666665e-01
1.666666666666667e-01 3.333333333333333e-01 1.666666666666665e-01
1.666666666666667e-01 3.333333333333333e-01 1.666666666666665e-01
1.666666666666667e-01 3.333333333333333e-01 1.666666666666665e-01
1.666666666666667e-01 3.333333333333333e-01 1.666666666666665e-01
1.666666666666667e-01 3.333333333333333e-01 1.666666666666665e-01
1.666666666666667e-01 3.333333333333333e-01 1.666666666666665e-01
1.666666666666667e-01 3.333333333333333e-01 1.666666666666665e-01
1.666666666666667e-01 3.333333333333333e-01 1.666666666666665e-01
1.666666666666667e-01 3.333333333333333e-01 1.666666666666665e-01
1.666666666666667e-01 3.333333333333333e-01 1.666666666666665e-01
1.666666666666667e-01 3.333333333333333e-01 1.666666666666665e-01
1.666666666666667e-01 3.333333333333333e-01 1.666666666666665e-01
1.666666666666667e-01 3.333333333333333e-01 1.666666666666665e-01
1.666666666666667e-01 3.333333333333333e-01 1.666666666666665e-01
-1.666666666666667e-01 -3.333333333333333e-01 -1.666666666666665e-01
1.666666666666667e-01 3.333333333333333e-01 1.666666666666665e-01
1.666666666666667e-01 3.333333333333333e-01 1.666666666666665e-01
1.666666666666667e-01 3.333333333333333e-01 1.666666666666665e-01
1.666666666666667e-01 3.333333333333333e-01 1.666666666666665e-01
1.666666666666667e-01 3.333333333333333e-01 1.666666666666665e-01
1.666666666666667e-01 3.333333333333333e-01 1.666666666666665e-01
1.666666666666667e-01 3.333333333333333e-01 1.666666666666665e-01
1.666666666666667e-01 3.333333333333333e-01 1.666666666666665e-01
1.666666666666667e-01 3.333333333333333e-01 1.666666666666665e-01
1.666666666666667e-01 3.333333333333333e-01 1.666666666666665e-01
1.666666666666667e-01 3.333333333333333e-01 1.666666666666665e-01
1.666666666666667e-01 3.333333333333333e-01 1.666666666666665e-01
1.666666666666667e-01 3.333333333333333e-01 1.666666666666665e-01
1.666666666666667e-01 3.333333333333333e-01 1.666666666666665e-01
1.666666666666667e-01 3.333333333333333e-01 1.666666666666665e-01
1.666666666666667e-01 3.333333333333333e-01 1.666666666666665e-01
1.666666666666667e-01 3.333333333333333e-01 1.666666666666665e-01
1.666666666666667e-01 3.333333333333333e-01 1.666666666666665e-01
1.666666666666667e-01 3.333333333333333e-01 1.666666666666665e-01
1.666666666666667e-01 3.333333333333333e-01 1.666666666666665e-01
1.666666666666667e-01 3.333333333333333e-01 1.666666666666665e-01
1.666666666666667e-01 3.333333333333333e-01 1.666666666666665e-01
1.666666666666667e-01 3.333333333333333e-01 1.666666666666665e-01
1.666666666666667e-01 3.333333333333333e-01 1.666666666666665e-01
1.666666666666667e-01 3.333333333333333e-01 1.666666666666665e-01
1.666666666666667e-01 3.333333333333333e-01 1.666666666666665e-01
1.666666666666667e-01 3.333333333333333e-01 1.666666666666665e-01
1.666666666666667e-01 3.333333333333333e-01 1.666666666666665e-01
1.666666666666667e-01 3.333333333333333e-01 1.666666666666665e-01
1.666666666666667e-01 3.333333333333333e-01 1.666666666666665e-01
1.666666666666667e-01 3.333333333333333e-01 1.666666666666665e-01
1.666666666666667e-01 3.333333333333333e-01 1.666666666666665e-01
1.666666666666667e-01 3.333333333333333e-01 1.666666666666665e-01
1.666666666666667e-01 3.333333333333333e-01 1.666666666666665e-01
1.666666666666667e-01 3.333333333333333e-01 1.666666666666665e-01
1.666666666666667e-01 3.333333333333333e-01 1.666666666666665e-01
1.666666666666667e-01 3.333333333333333e-01 1.666666666666665e-01
1.666666666666667e-01 3.333333333333333e-01 1.666666666666665e-01
1.666666666666667e-01 3.333333333333333e-01 1.666666666666665e-01
1.666666666666667e-01 3.333333333333333e-01 1.666666666666665e-01
1.666666666666667e-01 3.333333333333333e-01 1.666666666666665e-01
1.666666666666667e-01 3.333333333333333e-01 1.666666666666665e-01
1.666666666666667e-01 3.333333333333333e-01 1.666666666666665e-01
1.666666666666667e-01 3.333333333333333e-01 1.666666666666665e-01
1.666666666666667e-01 3.333333333333333e-01 1.666666666666665e-01
1.666666666666667e-01 3.333333333333333e-01 1.666666666666665e-01
1.666666666666667e-01 3.333333333333333e-01 1.666666666666665e-01
1.666666666666667e-01 3.333333333333333e-01 1.666666666666665e-01
1.666666666666667e-01 3.333333333333333e-01 1.666666666666665e-01
1.666666666666667e-01 3.333333333333333e-01 1.666666666666665e-01
1.666666666666667e-01 3.333333333333333e-01 1.666666666666665e-01
1.666666666666667e-01 3.333333333333333e-01 1.666666666666665e-01
1.666666666666667e-01 3.333333333333333e-01 1.666666666666665e-01
1.666666666666667e-01 3.333333333333333e-01 1.666666666666665e-01
1.666666666666667e-01 3.333333333333333e-01 1.666666666666665e-01
1.666666666666667e-01 3.333333333333333e-01 1.666666666666665e-01
1.666666666666667e-01 3.333333333333333e-01 1.666666666666665e-01
1.666666666666667e-01 3.333333333333333e-01 1.666666666666665e-01
1.666666666666667e-01 3.333333333333333e-01 1.666666666666665e-01
1.666666666666667e-01 3.333333333333333e-01 1.666666666666665e-01
1.666666666666667e-01 3.333333333333333e-01 1.666666666666665e-01
1.666666666666667e-01 3.333333333333333e-01 1.666666666666665e-01
1.666666666666667e-01 3.333333333333333e-01 1.666666666666665e-01
1.666666666666667e-01 3.333333333333333e-01 1.666666666666665e-01
1.666666666666667e-01 3.333333333333333e-01 1.666666666666665e-01
1.666666666666667e-01 3.333333333333333e-01 1.666666666666665e-01
1.666666666666667e-01 3.333333333333333e-01 1.666666666666665e-01
1.666666666666667e-01 3.333333333333333e-01 1.666666666666665e-01
1.666666666666667e-01 3.333333333333333e-01 1.666666666666665e-01
1.666666666666667e-01 3.333333333333333e-01 1.666666666666665e-01
1.666666666666667e-01 3.333333333333333e-01 1.666666666666665e-01
1.666666666666667e-01 3.333333333333333e-01 1.666666666666665e-01
1.666666666666667e-01 3.333333333333333e-01 1.666666666666665e-01
1.666666666666667e-01 3.333333333333333e-01 1.666666666666665e-01
1.666666666666667e-01 3.333333333333333e-01 1.666666666666665e-01
1.666666666666667e-01 3.333333333333333e-01 1.666666666666665e-01
1.666666666666667e-01 3.333333333333333e-01 1.666666666666665e-01
1.666666666666667e-01 3.333333333333333e-01 1.666666666666665e-01
1.666666666666667e-01 3.333333333333333e-01 1.666666666666665e-01
1.666666666666667e-01 3.333333333333333e-01 1.666666666666665e-01
1.666666666666667e-01 3.333333333333333e-01 1.666666666666665e-01
1.666666666666667e-01 3.333333333333333e-01 1.666666666666665e-01
1.666666666666667e-01 3.333333333333333e-01 1.666666666666665e-01
1.666666666666667e-01 3.333333333333333e-01 1.666666666666665e-01
1.666666666666667e-01 3.333333333333333e-01 1.666666666666665e-01
1.666666666666667e-01 3.333333333333333e-01 1.666666666666665e-01
1.666666666666667e-01 3.333333333333333e-01 1.666666666666665e-01
1.666666666666667e-01 3.333333333333333e-01 1.666666666666665e-01
1.666666666666667e-01 3.333333333333333e-01 1.666666666666665e-01
1.666666666666667e-01 3.333333333333333e-01 1.666666666666665e-01
1.666666666666667e-01 3.333333333333333e-01 1.666666666666665e-01
1.666666666666667e-01 3.333333333333333e-01 1.666666666666665e-01
1.666666666666667e-01 3.333333333333333e-01 1.666666666666665e-01
1.666666666666667e-01 3.333333333333333e-01 1.666666666666665e-01
1.666666666666667e-01 3.333333333333333e-01 1.666666666666665e-01
1.666666666666667e-01 3.333333333333333e-01 1.666666666666665e-01
1.666666666666667e-01 3.333333333333333e-01 1.666666666666665e-01
1.666666666666667e-01 3.333333333333333e-01 1.666666666666665e-01
1.666666666666667e-01 3.333333333333333e-01 1.666666666666665e-01
1.666666666666667e-01 3.333333333333333e-01 1.666666666666665e-01
1.666666666666667e-01 3.333333333333333e-01 1.666666666666665e-01
1.666666666666667e-01 3.333333333333333e-01 1.666666666666665e-01
1.666666666666667e-01 3.333333333333333e-01 1.666666666666665e-01
1.666666666666667e-01 3.333333333333333e-01 1.666666666666665e-01
1.666666666666667e-01 3.333333333333333e-01 1.666666666666665e-01
1.666666666666667e-01 3.333333333333333e-01 1.666666666666665e-01
1.666666666666667e-01 3.333333333333333e-01 1.666666666666665e-01
1.666666666666667e-01 3.333333333333333e-01 1.666666666666665e-01
1.666666666666667e-01 3.333333333333333e-01 1.666666666666665e-01
1.666666666666667e-01 3.333333333333333e-01 1.666666666666665e-01
1.666666666666667e-01 3.333333333333333e-01 1.666666666666665e-01
1.666666666666667e-01 3.333333333333333e-01 1.666666666666665e-01
1.666666666666667e-01 3.333333333333333e-01 1.666666666666665e-01
1.666666666666667e-01 3.333333333333333e-01 1.666666666666665e-01
1.666666666666667e-01 3.333333333333333e-01 1.666666666666665e-01
1.666666666666667e-01 3.333333333333333e-01 1.666666666666665e-01
1.666666666666667e-01 3.333333333333333e-01 1.666666666666665e-01
1.666666666666667e-01 3.333333333333333e-01 1.666666666666665e-01
1.666666666666667e-01 3.333333333333333e-01 1.666666666666665e-01
1.666666666666667e-01 3.333333333333333e-01 1.666666666666665e-01
1.666666666666667e-01 3.333333333333333e-01 1.666666666666665e-01
1.666666666666667e-01 3.333333333333333e-01 1.666666666666665e-01
1.666666666666667e-01 3.333333333333333e-01 1.666666666666665e-01
1.666666666666667e-01 3.333333333333333e-01 1.666666666666665e-01
1.666666666666667e-01 3.333333333333333e-01 1.666666666666665e-01
1.666666666666667e-01 3.333333333333333e-01 1.666666666666665e-01
1.666666666666667e-01 3.333333333333333e-01 1.666666666666665e-01
1.666666666666667e-01 3.333333333333333e-01 1.666666666666665e-01
1.666666666666667e-01 3.333333333333333e-01 1.666666666666665e-01
1.666666666666667e-01 3.333333333333333e-01 1.666666666666665e-01
1.666666666666667e-01 3.333333333333333e-01 1.666666666666665e-01
1.666666666666667e-01 3.333333333333333e-01 1.666666666666665e-01
1.666666666666667e-01 3.333333333333333e-01 1.666666666666665e-01
1.666666666666667e-01 3.333333333333333e-01 1.666666666666665e-01
1.666666666666667e-01 3.333333333333333e-01 1.666666666666665e-01
1.666666666666667e-01 3.333333333333333e-01 1.666666666666665e-01
1.666666666666667e-01 3.333333333333333e-01 1.666666666666665e-01
1.666666666666667e-01 3.333333333333333e-01 1.666666666666665e-01
1.666666666666667e-01 3.333333333333333e-01 1.666666666666665e-01
1.666666666666667e-01 3.333333333333333e-01 1.666666666666665e-01
1.666666666666667e-01 3.333333333333333e-01 1.666666666666665e-01
1.666666666666667e-01 3.333333333333333e-01 1.666666666666665e-01
1.666666666666667e-01 3.333333333333333e-01 1.666666666666665e-01
1.666666666666667e-01 3.333333333333333e-01 1.666666666666665e-01
1.666666666666667e-01 3.333333333333333e-01 1.666666666666665e-01
1.666666666666667e-01 3.333333333333333e-01 1.666666666666665e-01
1.666666666666667e-01 3.333333333333333e-01 1.666666666666665e-01
1.666666666666667e-01 3.333333333333333e-01 1.666666666666665e-01
1.666666666666667e-01 3.333333333333333e-01 1.666666666666665e-01
1.666666666666667e-01 3.333333333333333e-01 1.666666666666665e-01
1.666666666666667e-01 3.333333333333333e-01 1.666666666666665e-01
1.666666666666667e-01 3.333333333333333e-01 1.666666666666665e-01
1.666666666666667e-01 3.333333333333333e-01 1.666666666666665e-01
1.666666666666667e-01 3.333333333333333e-01 1.666666666666665e-01
1.666666666666667e-01 3.333333333333333e-01 1.666666666666665e-01
1.666666666666667e-01 3.333333333333333e-01 1.666666666666665e-01
1.666666666666667e-01 3.333333333333333e-01 1.666666666666665e-01
1.666666666666667e-01 3.333333333333333e-01 1.666666666666665e-01
1.666666666666667e-01 3.333333333333333e-01 1.666666666666665e-01
1.666666666666667e-01 3.333333333333333e-01 1.666666666666665e-01
1.666666666666667e-01 3.333333333333333e-01 1.666666666666665e-01
1.666666666666667e-01 3.333333333333333e-01 1.666666666666665e-01
1.666666666666667e-01 3.333333333333333e-01 1.666666666666665e-01
1.666666666666667e-01 3.333333333333333e-01 1.666666666666665e-01
1.666666666666667e-01 3.333333333333333e-01 1.666666666666665e-01
1.666666666666667e-01 3.333333333333333e-01 1.666666666666665e-01
1.666666666666667e-01 3.333333333333333e-01 1.666666666666665e-01
1.666666666666667e-01 3.333333333333333e-01 1.666666666666665e-01
1.666666666666667e-01 3.333333333333333e-01 1.666666666666665e-01
1.666666666666667e-01 3.333333333333333e-01 1.666666666666665e-01
1.666666666666667e-01 3.333333333333333e-01 1.666666666666665e-01
1.666666666666667e-01 3.333333333333333e-01 1.666666666666665e-01
1.666666666666667e-01 3.333333333333333e-01 1.666666666666665e-01
1.666666666666667e-01 3.333333333333333e-01 1.666666666666665e-01
1.666666666666667e-01 3.333333333333333e-01 1.666666666666665e-01
1.666666666666667e-01 3.333333333333333e-01 1.666666666666665e-01
1.666666666666667e-01 3.333333333333333e-01 1.666666666666665e-01
1.666666666666667e-01 3.333333333333333e-01 1.666666666666665e-01
1.666666666666667e-01 3.333333333333333e-01 1.666666666666665e-01
1.666666666666667e-01 3.333333333333333e-01 1.666666666666665e-01
1.666666666666667e-01 3.333333333333333e-01 1.666666666666665e-01
1.666666666666667e-01 3.333333333333333e-01 1.666666666666665e-01
1.666666666666667e-01 3.333333333333333e-01 1.666666666666665e-01
1.666666666666667e-01 3.333333333333333e-01 1.666666666666665e-01
1.666666666666667e-01 3.333333333333333e-01 1.666666666666665e-01
1.666666666666667e-01 3.333333333333333e-01 1.666666666666665e-01
1.666666666666667e-01 3.333333333333333e-01 1.666666666666665e-01
1.666666666666667e-01 3.333333333333333e-01 1.666666666666665e-01
1.666666666666667e-01 3.333333333333333e-01 1.666666666666665e-01
1.666666666666667e-01 3.333333333333333e-01 1.666666666666665e-01
1.666666666666667e-01 3.333333333333333e-01 1.666666666666665e-01
1.666666666666667e-01 3.333333333333333e-01 1.666666666666665e-01
1.666666666666667e-01 3.333333333333333e-01 1.666666666666665e-01
1.666666666666667e-01 3.333333333333333e-01 1.666666666666665e-01
1.666666666666667e-01 3.333333333333333e-01 1.666666666666665e-01
1.666666666666667e-01 3.333333333333333e-01 1.666666666666665e-01
1.666666666666667e-01 3.333333333333333e-01 1.666666666666665e-01
1.666666666666667e-01 3.333333333333333e-01 1.666666666666665e-01
1.666666666666667e-01 3.333333333333333e-01 1.666666666666665e-01
1.666666666666667e-01 3.333333333333333e-01 1.666666666666665e-01
1.666666666666667e-01 3.333333333333333e-01 1.666666666666665e-01
1.666666666666667e-01 3.333333333333333e-01 1.666666666666665e-01
1.666666666666667e-01 3.333333333333333e-01 1.666666666666665e-01
1.666666666666667e-01 3.333333333333333e-01 1.666666666666665e-01
1.666666666666667e-01 3.333333333333333e-01 1.666666666666665e-01
1.666666666666667e-01 3.333333333333333e-01 1.666666666666665e-01
1.666666666666667e-01 3.333333333333333e-01 1.666666666666665e-01
1.666666666666667e-01 3.333333333333333e-01 1.666666666666665e-01
1.666666666666667e-01 3.333333333333333e-01 1.666666666666665e-01
1.666666666666667e-01 3.333333333333333e-01 1.666666666666665e-01
1.666666666666667e-01 3.333333333333333e-01 1.666666666666665e-01
1.666666666666667e-01 3.333333333333333e-01 1.666666666666665e-01
1.666666666666667e-01 3.333333333333333e-01 1.666666666666665e-01
1.666666666666667e-01 3.333333333333333e-01 1.666666666666665e-01
1.666666666666667e-01 3.333333333333333e-01 1.666666666666665e-01
1.666666666666667e-01 3.333333333333333e-01 1.666666666666665e-01
1.666666666666667e-01 3.333333333333333e-01 1.666666666666665e-01
1.666666666666667e-01 3.333333333333333e-01 1.666666666666665e-01
1.666666666666667e-01 3.333333333333333e-01 1.666666666666665e-01
1.666666666666667e-01 3.333333333333333e-01 1.666666666666665e-01
1.666666666666667e-01 3.333333333333333e-01 1.666666666666665e-01
1.666666666666667e-01 3.333333333333333e-01 1.666666666666665e-01
1.666666666666667e-01 3.333333333333333e-01 1.666666666666665e-01
1.666666666666667e-01 3.333333333333333e-01 1.666666666666665e-01
1.666666666666667e-01 3.333333333333333e-01 1.666666666666665e-01
1.666666666666667e-01 3.333333333333333e-01 1.666666666666665e-01
1.666666666666667e-01 3.333333333333333e-01 1.666666666666665e-01
1.666666666666667e-01 3.333333333333333e-01 1.666666666666665e-01
1.666666666666667e-01 3.333333333333333e-01 1.666666666666665e-01
1.666666666666667e-01 3.333333333333333e-01 1.666666666666665e-01
1.666666666666667e-01 3.333333333333333e-01 1.666666666666665e-01
1.666666666666667e-01 3.333333333333333e-01 1.666666666666665e-01
1.666666666666667e-01 3.333333333333333e-01 1.666666666666665e-01
1.666666666666667e-01 3.333333333333333e-01 1.666666666666665e-01
1.666666666666667e-01 3.333333333333333e-01 1.666666666666665e-01
1.666666666666667e-01 3.333333333333333e-01 1.666666666666665e-01
1.666666666666667e-01 3.333333333333333e-01 1.666666666666665e-01
1.666666666666667e-01 3.333333333333333e-01 1.666666666666665e-01
1.666666666666667e-01 3.333333333333333e-01 1.666666666666665e-01
1.666666666666667e-01 3.333333333333333e-01 1.666666666666665e-01
1.666666666666667e-01 3.333333333333333e-01 1.666666666666665e-01
1.666666666666667e-01 3.333333333333333e-01 1.666666666666665e-01
1.666666666666667e-01 3.333333333333333e-01 1.666666666666665e-01
1.666666666666667e-01 3.333333333333333e-01 1.666666666666665e-01
1.666666666666667e-01 3.333333333333333e-01 1.666666666666665e-01
1.666666666666667e-01 3.333333333333333e-01 1.666666666666665e-01
1.666666666666667e-01 3.333333333333333e-01 1.666666666666665e-01
1.666666666666667e-01 3.333333333333333e-01 1.666666666666665e-01
1.666666666666667e-01 3.333333333333333e-01 1.666666666666665e-01
1.666666666666667e-01 3.333333333333333e-01 1.666666666666665e-01
1.666666666666667e-01 3.333333333333333e-01 1.666666666666665e-01
1.666666666666667e-01 3.333333333333333e-01 1.666666666666665e-01
1.666666666666667e-01 3.333333333333333e-01 1.666666666666665e-01
1.666666666666667e-01 3.333333333333333e-01 1.666666666666665e-01
1.666666666666667e-01 3.333333333333333e-01 1.666666666666665e-01
1.666666666666667e-01 3.333333333333333e-01 1.666666666666665e-01
1.666666666666667e-01 3.333333333333333e-01 1.666666666666665e-01
1.666666666666667e-01 3.333333333333333e-01 1.666666666666665e-01
1.666666666666667e-01 3.333333333333333e-01 1.666666666666665e-01
1.666666666666667e-01 3.333333333333333e-01 1.666666666666665e-01
1.666666666666667e-01 3.333333333333333e-01 1.666666666666665e-01
1.666666666666667e-01 3.333333333333333e-01 1.666666666666665e-01
1.666666666666667e-01 3.333333333333333e-01 1.666666666666665e-01
1.666666666666667e-01 3.333333333333333e-01 1.666666666666665e-01
1.666666666666667e-01 3.333333333333333e-01 1.666666666666665e-01
1.666666666666667e-01 3.333333333333333e-01 1.666666666666665e-01
1.666666666666667e-01 3.333333333333333e-01 1.666666666666665e-01
1.666666666666667e-01 3.333333333333333e-01 1.666666666666665e-01
1.666666666666667e-01 3.333333333333333e-01 1.666666666666665e-01
1.666666666666667e-01 3.333333333333333e-01 1.666666666666665e-01
1.666666666666667e-01 3.333333333333333e-01 1.666666666666665e-01
1.666666666666667e-01 3.333333333333333e-01 1.666666666666665e-01
1.666666666666667e-01 3.333333333333333e-01 1.666666666666665e-01
1.666666666666667e-01 3.333333333333333e-01 1.666666666666665e-01
1.666666666666667e-01 3.333333333333333e-01 1.666666666666665e-01
1.666666666666667e-01 3.333333333333333e-01 1.666666666666665e-01
1.666666666666667e-01 3.333333333333333e-01 1.666666666666665e-01
1.666666666666667e-01 3.333333333333333e-01 1.666666666666665e-01
1.666666666666667e-01 3.333333333333333e-01 1.666666666666665e-01
1.666666666666667e-01 3.333333333333333e-01 1.666666666666665e-01
1.666666666666667e-01 3.333333333333333e-01 1.666666666666665e-01
1.666666666666667e-01 3.333333333333333e-01 1.666666666666665e-01
1.666666666666667e-01 3.333333333333333e-01 1.666666666666665e-01
1.666666666666667e-01 3.333333333333333e-01 1.666666666666665e-01
1.666666666666667e-01 3.333333333333333e-01 1.666666666666665e-01
1.666666666666667e-01 3.333333333333333e-01 1.666666666666665e-01
1.666666666666667e-01 3.333333333333333e-01 1.666666666666665e-01
1.666666666666667e-01 3.333333333333333e-01 1.666666666666665e-01
1.666666666666667e-01 3.333333333333333e-01 1.666666666666665e-01
1.666666666666667e-01 3.333333333333333e-01 1.666666666666665e-01
1.666666666666667e-01 3.333333333333333e-01 1.666666666666665e-01
1.666666666666667e-01 3.333333333333333e-01 1.666666666666665e-01
1.666666666666667e-01 3.333333333333333e-01 1.666666666666665e-01
1.666666666666667e-01 3.333333333333333e-01 1.666666666666665e-01
1.666666666666667e-01 3.333333333333333e-01 1.666666666666665e-01
1.666666666666667e-01 3.333333333333333e-01 1.666666666666665e-01
1.666666666666667e-01 3.333333333333333e-01 1.666666666666665e-01
1.666666666666667e-01 3.333333333333333e-01 1.666666666666665e-01
1.666666666666667e-01 3.333333333333333e-01 1.666666666666665e-01
1.666666666666667e-01 3.333333333333333e-01 1.666666666666665e-01
1.666666666666667e-01 3.333333333333333e-01 1.666666666666665e-01
1.666666666666667e-01 3.333333333333333e-01 1.666666666666665e-01
1.666666666666667e-01 3.333333333333333e-01 1.666666666666665e-01
1.666666666666667e-01 3.333333333333333e-01 1.666666666666665e-01
1.666666666666667e-01 3.333333333333333e-01 1.666666666666665e-01
1.666666666666667e-01 3.333333333333333e-01 1.666666666666665e-01
1.666666666666667e-01 3.333333333333333e-01 1.666666666666665e-01
1.666666666666667e-01 3.333333333333333e-01 1.666666666666665e-01
1.666666666666667e-01 3.333333333333333e-01 1.666666666666665e-01
1.666666666666667e-01 3.333333333333333e-01 1.666666666666665e-01
1.666666666666667e-01 3.333333333333333e-01 1.666666666666665e-01
1.666666666666667e-01 3.333333333333333e-01 1.666666666666665e-01
1.666666666666667e-01 3.333333333333333e-01 1.666666666666665e-01
1.666666666666667e-01 3.333333333333333e-01 1.666666666666665e-01
1.666666666666667e-01 3.333333333333333e-01 1.666666666666665e-01
1.666666666666667e-01 3.333333333333333e-01 1.666666666666665e-01
1.666666666666667e-01 3.333333333333333e-01 1.666666666666665e-01
1.666666666666667e-01 3.333333333333333e-01 1.666666666666665e-01
1.666666666666667e-01 3.333333333333333e-01 1.666666666666665e-01
1.666666666666667e-01 3.333333333333333e-01 1.666666666666665e-01
1.666666666666667e-01 3.333333333333333e-01 1.666666666666665e-01
1.666666666666667e-01 3.333333333333333e-01 1.666666666666665e-01
1.666666666666667e-01 3.333333333333333e-01 1.666666666666665e-01
1.666666666666667e-01 3.333333333333333e-01 1.666666666666665e-01
1.666666666666667e-01 3.333333333333333e-01 1.666666666666665e-01
1.666666666666667e-01 3.333333333333333e-01 1.666666666666665e-01
1.666666666666667e-01 3.333333333333333e-01 1.666666666666665e-01
1.666666666666667e-01 3.333333333333333e-01 1.666666666666665e-01
1.666666666666667e-01 3.333333333333333e-01 1.666666666666665e-01
1.666666666666667e-01 3.333333333333333e-01 1.666666666666665e-01
1.666666666666667e-01 3.333333333333333e-01 1.666666666666665e-01
1.666666666666667e-01 3.333333333333333e-01 1.666666666666665e-01
1.666666666666667e-01 3.333333333333333e-01 1.666666666666665e-01
1.666666666666667e-01 3.333333333333333e-01 1.666666666666665e-01
1.666666666666667e-01 3.333333333333333e-01 1.666666666666665e-01
1.666666666666667e-01 3.333333333333333e-01 1.666666666666665e-01
1.666666666666667e-01 3.333333333333333e-01 1.666666666666665e-01
1.666666666666667e-01 3.333333333333333e-01 1.666666666666665e-01
1.666666666666667e-01 3.333333333333333e-01 1.666666666666665e-01
1.666666666666667e-01 3.333333333333333e-01 1.666666666666665e-01
1.666666666666667e-01 3.333333333333333e-01 1.666666666666665e-01
1.666666666666667e-01 3.333333333333333e-01 1.666666666666665e-01
1.666666666666667e-01 3.333333333333333e-01 1.666666666666665e-01
1.666666666666667e-01 3.333333333333333e-01 1.666666666666665e-01
1.666666666666667e-01 3.333333333333333e-01 1.666666666666665e-01
1.666666666666667e-01 3.333333333333333e-01 1.666666666666665e-01
1.666666666666667e-01 3.333333333333333e-01 1.666666666666665e-01
1.666666666666667e-01 3.333333333333333e-01 1.666666666666665e-01
1.666666666666667e-01 3.333333333333333e-01 1.666666666666665e-01
1.666666666666667e-01 3.333333333333333e-01 1.666666666666665e-01
1.666666666666667e-01 3.333333333333333e-01 1.666666666666665e-01
1.666666666666667e-01 3.333333333333333e-01 1.666666666666665e-01
1.666666666666667e-01 3.333333333333333e-01 1.666666666666665e-01
1.666666666666667e-01 3.333333333333333e-01 1.666666666666665e-01
1.666666666666667e-01 3.333333333333333e-01 1.666666666666665e-01
1.666666666666667e-01 3.333333333333333e-01 1.666666666666665e-01
1.666666666666667e-01 3.333333333333333e-01 1.666666666666665e-01
1.666666666666667e-01 3.333333333333333e-01 1.666666666666665e-01
1.666666666666667e-01 3.333333333333333e-01 1.666666666666665e-01
1.666666666666667e-01 3.333333333333333e-01 1.666666666666665e-01
1.666666666666667e-01 3.333333333333333e-01 1.666666666666665e-01
1.666666666666667e-01 3.333333333333333e-01 1.666666666666665e-01
1.666666666666667e-01 3.333333333333333e-01 1.666666666666665e-01
1.666666666666667e-01 3.333333333333333e-01 1.666666666666665e-01
1.666666666666667e-01 3.333333333333333e-01 1.666666666666665e-01
1.666666666666667e-01 3.333333333333333e-01 1.666666666666665e-01
1.666666666666667e-01 3.333333333333333e-01 1.666666666666665e-01
1.666666666666667e-01 3.333333333333333e-01 1.666666666666665e-01
1.666666666666667e-01 3.333333333333333e-01 1.666666666666665e-01
1.666666666666667e-01 3.333333333333333e-01 1.666666666666665e-01
1.666666666666667e-01 3.333333333333333e-01 1.666666666666665e-01
1.666666666666667e-01 3.333333333333333e-01 1.666666666666665e-01
1.666666666666667e-01 3.333333333333333e-01 1.666666666666665e-01
1.666666666666667e-01 3.333333333333333e-01 1.666666666666665e-01
1.666666666666667e-01 3.333333333333333e-01 1.666666666666665e-01
1.666666666666667e-01 3.333333333333333e-01 1.666666666666665e-01
1.666666666666667e-01 3.333333333333333e-01 1.666666666666665e-01
1.666666666666667e-01 3.333333333333333e-01 1.666666666666665e-01
1.666666666666667e-01 3.333333333333333e-01 1.666666666666665e-01
1.666666666666667e-01 3.333333333333333e-01 1.666666666666665e-01
1.666666666666667e-01 3.333333333333333e-01 1.666666666666665e-01
1.666666666666667e-01 3.333333333333333e-01 1.666666666666665e-01
1.666666666666667e-01 3.333333333333333e-01 1.666666666666665e-01
1.666666666666667e-01 3.333333333333333e-01 1.666666666666665e-01
 1.666666666666667e-01 -1.666666666666665e-01 -3.333333333333333e-01
-1.666666666666667e-01  1.666666666666665e-01  3.333333333333333e-01
 1.666666666666667e-01 -1.666666666666665e-01 -3.333333333333333e-01
 1.666666666666667e-01 -1.666666666666665e-01 -3.333333333333333e-01
 1.666666666666667e-01 -1.666666666666665e-01 -3.333333333333333e-01
 1.666666666666667e-01 -1.666666666666665e-01 -3.333333333333333e-01
 1.666666666666667e-01 -1.666666666666665e-01 -3.333333333333333e-01
 1.666666666666667e-01 -1.666666666666665e-01 -3.333333333333333e-01
 1.666666666666667e-01 -1.666666666666665e-01 -3.333333333333333e-01
 1.666666666666667e-01 -1.666666666666665e-01 -3.333333333333333e-01
 1.666666666666667e-01 -1.666666666666665e-01 -3.333333333333333e-01
 1.666666666666667e-01 -1.666666666666665e-01 -3.333333333333333e-01
 1.666666666666667e-01 -1.666666666666665e-01 -3.333333333333333e-01
 1.666666666666667e-01 -1.666666666666665e-01 -3.333333333333333e-01
 1.666666666666667e-01 -1.666666666666665e-01 -3.333333333333333e-01
 1.666666666666667e-01 -1.666666666666665e-01 -3.333333333333333e-01
 1.666666666666667e-01 -1.666666666666665e-01 -3.333333333333333e-01
 1.666666666666667e-01 -1.666666666666665e-01 -3.333333333333333e-01
 1.666666666666667e-01 -1.666666666666665e-01 -3.333333333333333e-01
 1.666666666666667e-01 -1.666666666666665e-01 -3.333333333333333e-01
 1.666666666666667e-01 -1.666666666666665e-01 -3.333333333333333e-01
 1.666666666666667e-01 -1.666666666666665e-01 -3.333333333333333e-01
 1.666666666666667e-01 -1.666666666666665e-01 -3.333333333333333e-01
 1.666666666666667e-01 -1.666666666666665e-01 -3.333333333333333e-01
 1.666666666666667e-01 -1.666666666666665e-01 -3.333333333333333e-01
 1.666666666666667e-01 -1.666666666666665e-01 -3.333333333333333e-01
 1.666666666666667e-01 -1.666666666666665e-01 -3.333333333333333e-01
 1.666666666666667e-01 -1.666666666666665e-01 -3.333333333333333e-01
 1.666666666666667e-01 -1.666666666666665e-01 -3.333333333333333e-01
 1.666666666666667e-01 -1.666666666666665e-01 -3.333333333333333e-01
 1.666666666666667e-01 -1.666666666666665e-01 -3.333333333333333e-01
 1.666666666666667e-01 -1.666666666666665e-01 -3.333333333333333e-01
 1.666666666666667e-01 -1.666666666666665e-01 -3.333333333333333e-01
 1.666666666666667e-01 -1.666666666666665e-01 -3.333333333333333e-01
 1.666666666666667e-01 -1.666666666666665e-01 -3.333333333333333e-01
 1.666666666666667e-01 -1.666666666666665e-01 -3.333333333333333e-01
 1.666666666666667e-01 -1.666666666666665e-01 -3.333333333333333e-01
 1.666666666666667e-01 -1.666666666666665e-01 -3.333333333333333e-01
 1.666666666666667e-01 -1.666666666666665e-01 -3.333333333333333e-01
 1.666666666666667e-01 -1.666666666666665e-01 -3.333333333333333e-01
 1.666666666666667e-01 -1.666666666666665e-01 -3.333333333333333e-01
 1.666666666666667e-01 -1.666666666666665e-01 -3.333333333333333e-01
 1.666666666666667e-01 -1.666666666666665e-01 -3.333333333333333e-01
 1.666666666666667e-01 -1.666666666666665e-01 -3.333333333333333e-01
 1.666666666666667e-01 -1.666666666666665e-01 -3.333333333333333e-01
 1.666666666666667e-01 -1.666666666666665e-01 -3.333333333333333e-01
 1.666666666666667e-01 -1.666666666666665e-01 -3.333333333333333e-01
 1.666666666666667e-01 -1.666666666666665e-01 -3.333333333333333e-01
 1.666666666666667e-01 -1.666666666666665e-01 -3.333333333333333e-01
 1.666666666666667e-01 -1.666666666666665e-01 -3.333333333333333e-01
 1.666666666666667e-01 -1.666666666666665e-01 -3.333333333333333e-01
 1.666666666666667e-01 -1.666666666666665e-01 -3.333333333333333e-01
 1.666666666666667e-01 -1.666666666666665e-01 -3.333333333333333e-01
 1.666666666666667e-01 -1.666666666666665e-01 -3.333333333333333e-01
 1.666666666666667e-01 -1.666666666666665e-01 -3.333333333333333e-01
 1.666666666666667e-01 -1.666666666666665e-01 -3.333333333333333e-01
 1.666666666666667e-01 -1.666666666666665e-01 -3.333333333333333e-01
 1.666666666666667e-01 -1.666666666666665e-01 -3.333333333333333e-01
 1.666666666666667e-01 -1.666666666666665e-01 -3.333333333333333e-01
 1.666666666666667e-01 -1.666666666666665e-01 -3.333333333333333e-01
 1.666666666666667e-01 -1.666666666666665e-01 -3.333333333333333e-01
 1.666666666666667e-01 -1.666666666666665e-01 -3.333333333333333e-01
 1.666666666666667e-01 -1.666666666666665e-01 -3.333333333333333e-01
 1.666666666666667e-01 -1.666666666666665e-01 -3.333333333333333e-01
 1.666666666666667e-01 -1.666666666666665e-01 -3.333333333333333e-01
 1.666666666666667e-01 -1.666666666666665e-01 -3.333333333333333e-01
 1.666666666666667e-01 -1.666666666666665e-01 -3.333333333333333e-01
 1.666666666666667e-01 -1.666666666666665e-01 -3.333333333333333e-01
 1.666666666666667e-01 -1.666666666666665e-01 -3.333333333333333e-01
 1.666666666666667e-01 -1.666666666666665e-01 -3.333333333333333e-01
 1.666666666666667e-01 -1.666666666666665e-01 -3.333333333333333e-01
 1.666666666666667e-01 -1.666666666666665e-01 -3.333333333333333e-01
 1.666666666666667e-01 -1.666666666666665e-01 -3.333333333333333e-01
 1.666666666666667e-01 -1.666666666666665e-01 -3.333333333333333e-01
 1.666666666666667e-01 -1.666666666666665e-01 -3.333333333333333e-01
 1.666666666666667e-01 -1.666666666666665e-01 -3.333333333333333e-01
 1.666666666666667e-01 -1.666666666666665e-01 -3.333333333333333e-01
 1.666666666666667e-01 -1.666666666666665e-01 -3.333333333333333e-01
 1.666666666666667e-01 -1.666666666666665e-01 -3.333333333333333e-01
 1.666666666666667e-01 -1.666666666666665e-01 -3.333333333333333e-01
 1.666666666666667e-01 -1.666666666666665e-01 -3.333333333333333e-01
 1.666666666666667e-01 -1.666666666666665e-01 -3.333333333333333e-01
 1.666666666666667e-01 -1.666666666666665e-01 -3.333333333333333e-01
 1.666666666666667e-01 -1.666666666666665e-01 -3.333333333333333e-01
 1.666666666666667e-01 -1.666666666666665e-01 -3.333333333333333e-01
 1.666666666666667e-01 -1.666666666666665e-01 -3.333333333333333e-01
 1.666666666666667e-01 -1.666666666666665e-01 -3.333333333333333e-01
 1.666666666666667e-01 -1.666666666666665e-01 -3.333333333333333e-01
 1.666666666666667e-01 -1.666666666666665e-01 -3.333333333333333e-01
 1.666666666666667e-01 -1.666666666666665e-01 -3.333333333333333e-01
 1.666666666666667e-01 -1.666666666666665e-01 -3.333333333333333e-01
 1.666666666666667e-01 -1.666666666666665e-01 -3.333333333333333e-01
 1.666666666666667e-01 -1.666666666666665e-01 -3.333333333333333e-01
 1.666666666666667e-01 -1.666666666666665e-01 -3.333333333333333e-01
 1.666666666666667e-01 -1.666666666666665e-01 -3.333333333333333e-01
 1.666666666666667e-01 -1.666666666666665e-01 -3.333333333333333e-01
 1.666666666666667e-01 -1.666666666666665e-01 -3.333333333333333e-01
 1.666666666666667e-01 -1.666666666666665e-01 -3.333333333333333e-01
 1.666666666666667e-01 -1.666666666666665e-01 -3.333333333333333e-01
 1.666666666666667e-01 -1.666666666666665e-01 -3.333333333333333e-01
 1.666666666666667e-01 -1.666666666666665e-01 -3.333333333333333e-01
 1.666666666666667e-01 -1.666666666666665e-01 -3.333333333333333e-01
 1.666666666666667e-01 -1.666666666666665e-01 -3.333333333333333e-01
 1.666666666666667e-01 -1.666666666666665e-01 -3.333333333333333e-01
 1.666666666666667e-01 -1.666666666666665e-01 -3.333333333333333e-01
 1.666666666666667e-01 -1.666666666666665e-01 -3.333333333333333e-01
 1.666666666666667e-01 -1.666666666666665e-01 -3.333333333333333e-01
 1.666666666666667e-01 -1.666666666666665e-01 -3.333333333333333e-01
 1.666666666666667e-01 -1.666666666666665e-01 -3.333333333333333e-01
 1.666666666666667e-01 -1.666666666666665e-01 -3.333333333333333e-01
 1.666666666666667e-01 -1.666666666666665e-01 -3.333333333333333e-01
 1.666666666666667e-01 -1.666666666666665e-01 -3.333333333333333e-01
 1.666666666666667e-01 -1.666666666666665e-01 -3.333333333333333e-01
 1.666666666666667e-01 -1.666666666666665e-01 -3.333333333333333e-01
 1.666666666666667e-01 -1.666666666666665e-01 -3.333333333333333e-01
 1.666666666666667e-01 -1.666666666666665e-01 -3.333333333333333e-01
 1.666666666666667e-01 -1.666666666666665e-01 -3.333333333333333e-01
 1.666666666666667e-01 -1.666666666666665e-01 -3.333333333333333e-01
 1.666666666666667e-01 -1.666666666666665e-01 -3.333333333333333e-01
 1.666666666666667e-01 -1.666666666666665e-01 -3.333333333333333e-01
 1.666666666666667e-01 -1.666666666666665e-01 -3.333333333333333e-01
 1.666666666666667e-01 -1.666666666666665e-01 -3.333333333333333e-01
 1.666666666666667e-01 -1.666666666666665e-01 -3.333333333333333e-01
 1.666666666666667e-01 -1.666666666666665e-01 -3.333333333333333e-01
 1.666666666666667e-01 -1.666666666666665e-01 -3.333333333333333e-01
 1.666666666666667e-01 -1.666666666666665e-01 -3.333333333333333e-01
 1.666666666666667e-01 -1.666666666666665e-01 -3.333333333333333e-01
 1.666666666666667e-01 -1.666666666666665e-01 -3.333333333333333e-01
 1.666666666666667e-01 -1.666666666666665e-01 -3.333333333333333e-01
 1.666666666666667e-01 -1.666666666666665e-01 -3.333333333333333e-01
 1.666666666666667e-01 -1.666666666666665e-01 -3.333333333333333e-01
 1.666666666666667e-01 -1.666666666666665e-01 -3.333333333333333e-01
 1.666666666666667e-01 -1.666666666666665e-01 -3.333333333333333e-01
 1.666666666666667e-01 -1.666666666666665e-01 -3.333333333333333e-01
 1.666666666666667e-01 -1.666666666666665e-01 -3.333333333333333e-01
 1.666666666666667e-01 -1.666666666666665e-01 -3.333333333333333e-01
 1.666666666666667e-01 -1.666666666666665e-01 -3.333333333333333e-01
 1.666666666666667e-01 -1.666666666666665e-01 -3.333333333333333e-01
 1.666666666666667e-01 -1.666666666666665e-01 -3.333333333333333e-01
 1.666666666666667e-01 -1.666666666666665e-01 -3.333333333333333e-01
 1.666666666666667e-01 -1.666666666666665e-01 -3.333333333333333e-01
 1.666666666666667e-01 -1.666666666666665e-01 -3.333333333333333e-01
 1.666666666666667e-01 -1.666666666666665e-01 -3.333333333333333e-01
 1.666666666666667e-01 -1.666666666666665e-01 -3.333333333333333e-01
 1.666666666666667e-01 -1.666666666666665e-01 -3.333333333333333e-01
 1.666666666666667e-01 -1.666666666666665e-01 -3.333333333333333e-01
 1.666666666666667e-01 -1.666666666666665e-01 -3.333333333333333e-01
 1.666666666666667e-01 -1.666666666666665e-01 -3.333333333333333e-01
 1.666666666666667e-01 -1.666666666666665e-01 -3.333333333333333e-01
 1.666666666666667e-01 -1.666666666666665e-01 -3.333333333333333e-01
 1.666666666666667e-01 -1.666666666666665e-01 -3.333333333333333e-01
 1.666666666666667e-01 -1.666666666666665e-01 -3.333333333333333e-01
 1.666666666666667e-01 -1.666666666666665e-01 -3.333333333333333e-01
 1.666666666666667e-01 -1.666666666666665e-01 -3.333333333333333e-01
 1.666666666666667e-01 -1.666666666666665e-01 -3.333333333333333e-01
 1.666666666666667e-01 -1.666666666666665e-01 -3.333333333333333e-01
 1.666666666666667e-01 -1.666666666666665e-01 -3.333333333333333e-01
 1.666666666666667e-01 -1.666666666666665e-01 -3.333333333333333e-01
 1.666666666666667e-01 -1.666666666666665e-01 -3.333333333333333e-01
 1.666666666666667e-01 -1.666666666666665e-01 -3.333333333333333e-01
 1.666666666666667e-01 -1.666666666666665e-01 -3.333333333333333e-01
 1.666666666666667e-01 -1.666666666666665e-01 -3.333333333333333e-01
 1.666666666666667e-01 -1.666666666666665e-01 -3.333333333333333e-01
 1.666666666666667e-01 -1.666666666666665e-01 -3.333333333333333e-01
 1.666666666666667e-01 -1.666666666666665e-01 -3.333333333333333e-01
 1.666666666666667e-01 -1.666666666666665e-01 -3.333333333333333e-01
 1.666666666666667e-01 -1.666666666666665e-01 -3.333333333333333e-01
 1.666666666666667e-01 -1.666666666666665e-01 -3.333333333333333e-01
 1.666666666666667e-01 -1.666666666666665e-01 -3.333333333333333e-01
 1.666666666666667e-01 -1.666666666666665e-01 -3.333333333333333e-01
 1.666666666666667e-01 -1.666666666666665e-01 -3.333333333333333e-01
 1.666666666666667e-01 -1.666666666666665e-01 -3.333333333333333e-01
 1.666666666666667e-01 -1.666666666666665e-01 -3.333333333333333e-01
 1.666666666666667e-01 -1.666666666666665e-01 -3.333333333333333e-01
 1.666666666666667e-01 -1.666666666666665e-01 -3.333333333333333e-01
 1.666666666666667e-01 -1.666666666666665e-01 -3.333333333333333e-01
 1.666666666666667e-01 -1.666666666666665e-01 -3.333333333333333e-01
 1.666666666666667e-01 -1.666666666666665e-01 -3.333333333333333e-01
 1.666666666666667e-01 -1.666666666666665e-01 -3.333333333333333e-01
 1.666666666666667e-01 -1.666666666666665e-01 -3.333333333333333e-01
 1.666666666666667e-01 -1.666666666666665e-01 -3.333333333333333e-01
 1.666666666666667e-01 -1.666666666666665e-01 -3.333333333333333e-01
 1.666666666666667e-01 -1.666666666666665e-01 -3.333333333333333e-01
 1.666666666666667e-01 -1.666666666666665e-01 -3.333333333333333e-01
 1.666666666666667e-01 -1.666666666666665e-01 -3.333333333333333e-01
 1.666666666666667e-01 -1.666666666666665e-01 -3.333333333333333e-01
 1.666666666666667e-01 -1.666666666666665e-01 -3.333333333333333e-01
 1.666666666666667e-01 -1.666666666666665e-01 -3.333333333333333e-01
 1.666666666666667e-01 -1.666666666666665e-01 -3.333333333333333e-01
 1.666666666666667e-01 -1.666666666666665e-01 -3.333333333333333e-01
 1.666666666666667e-01 -1.666666666666665e-01 -3.333333333333333e-01
 1.666666666666667e-01 -1.666666666666665e-01 -3.333333333333333e-01
 1.666666666666667e-01 -1.666666666666665e-01 -3.333333333333333e-01
 1.666666666666667e-01 -1.666666666666665e-01 -3.333333333333333e-01
 1.666666666666667e-01 -1.666666666666665e-01 -3.333333333333333e-01
 1.666666666666667e-01 -1.666666666666665e-01 -3.333333333333333e-01
 1.666666666666667e-01 -1.666666666666665e-01 -3.333333333333333e-01
 1.666666666666667e-01 -1.666666666666665e-01 -3.333333333333333e-01
 1.666666666666667e-01 -1.666666666666665e-01 -3.333333333333333e-01
 1.666666666666667e-01 -1.666666666666665e-01 -3.333333333333333e-01
 1.666666666666667e-01 -1.666666666666665e-01 -3.333333333333333e-01
 1.666666666666667e-01 -1.666666666666665e-01 -3.333333333333333e-01
 1.666666666666667e-01 -1.666666666666665e-01 -3.333333333333333e-01
 1.666666666666667e-01 -1.666666666666665e-01 -3.333333333333333e-01
 1.666666666666667e-01 -1.666666666666665e-01 -3.333333333333333e-01
 1.666666666666667e-01 -1.666666666666665e-01 -3.333333333333333e-01
 1.666666666666667e-01 -1.666666666666665e-01 -3.333333333333333e-01
 1.666666666666667e-01 -1.666666666666665e-01 -3.333333333333333e-01
 1.666666666666667e-01 -1.666666666666665e-01 -3.333333333333333e-01
 1.666666666666667e-01 -1.666666666666665e-01 -3.333333333333333e-01
 1.666666666666667e-01 -1.666666666666665e-01 -3.333333333333333e-01
 1.666666666666667e-01 -1.666666666666665e-01 -3.333333333333333e-01
 1.666666666666667e-01 -1.666666666666665e-01 -3.333333333333333e-01
 1.666666666666667e-01 -1.666666666666665e-01 -3.333333333333333e-01
 1.666666666666667e-01 -1.666666666666665e-01 -3.333333333333333e-01
 1.666666666666667e-01 -1.666666666666665e-01 -3.333333333333333e-01
 1.666666666666667e-01 -1.666666666666665e-01 -3.333333333333333e-01
 1.666666666666667e-01 -1.666666666666665e-01 -3.333333333333333e-01
 1.666666666666667e-01 -1.666666666666665e-01 -3.333333333333333e-01
 1.666666666666667e-01 -1.666666666666665e-01 -3.333333333333333e-01
 1.666666666666667e-01 -1.666666666666665e-01 -3.333333333333333e-01
 1.666666666666667e-01 -1.666666666666665e-01 -3.333333333333333e-01
 1.666666666666667e-01 -1.666666666666665e-01 -3.333333333333333e-01
 1.666666666666667e-01 -1.666666666666665e-01 -3.333333333333333e-01
 1.666666666666667e-01 -1.666666666666665e-01 -3.333333333333333e-01
 1.666666666666667e-01 -1.666666666666665e-01 -3.333333333333333e-01
 1.666666666666667e-01 -1.666666666666665e-01 -3.333333333333333e-01
 1.666666666666667e-01 -1.666666666666665e-01 -3.333333333333333e-01
 1.666666666666667e-01 -1.666666666666665e-01 -3.333333333333333e-01
 1.666666666666667e-01 -1.666666666666665e-01 -3.333333333333333e-01
 1.666666666666667e-01 -1.666666666666665e-01 -3.333333333333333e-01
 1.666666666666667e-01 -1.666666666666665e-01 -3.333333333333333e-01
 1.666666666666667e-01 -1.666666666666665e-01 -3.333333333333333e-01
 1.666666666666667e-01 -1.666666666666665e-01 -3.333333333333333e-01
 1.666666666666667e-01 -1.666666666666665e-01 -3.333333333333333e-01
 1.666666666666667e-01 -1.666666666666665e-01 -3.333333333333333e-01
 1.666666666666667e-01 -1.666666666666665e-01 -3.333333333333333e-01
 1.666666666666667e-01 -1.666666666666665e-01 -3.333333333333333e-01
 1.666666666666667e-01 -1.666666666666665e-01 -3.333333333333333e-01
 1.666666666666667e-01 -1.666666666666665e-01 -3.333333333333333e-01
 1.666666666666667e-01 -1.666666666666665e-01 -3.333333333333333e-01
 1.666666666666667e-01 -1.666666666666665e-01 -3.333333333333333e-01
 1.666666666666667e-01 -1.666666666666665e-01 -3.333333333333333e-01
 1.666666666666667e-01 -1.666666666666665e-01 -3.333333333333333e-01
 1.666666666666667e-01 -1.666666666666665e-01 -3.333333333333333e-01
 1.666666666666667e-01 -1.666666666666665e-01 -3.333333333333333e-01
 1.666666666666667e-01 -1.666666666666665e-01 -3.333333333333333e-01
 1.666666666666667e-01 -1.666666666666665e-01 -3.333333333333333e-01
 1.666666666666667e-01 -1.666666666666665e-01 -3.333333333333333e-01
 1.666666666666667e-01 -1.666666666666665e-01 -3.333333333333333e-01
 1.666666666666667e-01 -1.666666666666665e-01 -3.333333333333333e-01
 1.666666666666667e-01 -1.666666666666665e-01 -3.333333333333333e-01
 1.666666666666667e-01 -1.666666666666665e-01 -3.333333333333333e-01
 1.666666666666667e-01 -1.666666666666665e-01 -3.333333333333333e-01
 1.666666666666667e-01 -1.666666666666665e-01 -3.333333333333333e-01
 1.666666666666667e-01 -1.666666666666665e-01 -3.333333333333333e-01
 1.666666666666667e-01 -1.666666666666665e-01 -3.333333333333333e-01
 1.666666666666667e-01 -1.666666666666665e-01 -3.333333333333333e-01
 1.666666666666667e-01 -1.666666666666665e-01 -3.333333333333333e-01
 1.666666666666667e-01 -1.666666666666665e-01 -3.333333333333333e-01
 1.666666666666667e-01 -1.666666666666665e-01 -3.333333333333333e-01
 1.666666666666667e-01 -1.666666666666665e-01 -3.333333333333333e-01
 1.666666666666667e-01 -1.666666666666665e-01 -3.333333333333333e-01
 1.666666666666667e-01 -1.666666666666665e-01 -3.333333333333333e-01
 1.666666666666667e-01 -1.666666666666665e-01 -3.333333333333333e-01
 1.666666666666667e-01 -1.666666666666665e-01 -3.333333333333333e-01
 1.666666666666667e-01 -1.666666666666665e-01 -3.333333333333333e-01
 1.666666666666667e-01 -1.666666666666665e-01 -3.333333333333333e-01
 1.666666666666667e-01 -1.666666666666665e-01 -3.333333333333333e-01
 1.666666666666667e-01 -1.666666666666665e-01 -3.333333333333333e-01
 1.666666666666667e-01 -1.666666666666665e-01 -3.333333333333333e-01
 1.666666666666667e-01 -1.666666666666665e-01 -3.333333333333333e-01
 1.666666666666667e-01 -1.666666666666665e-01 -3.333333333333333e-01
 1.666666666666667e-01 -1.666666666666665e-01 -3.333333333333333e-01
 1.666666666666667e-01 -1.666666666666665e-01 -3.333333333333333e-01
 1.666666666666667e-01 -1.666666666666665e-01 -3.333333333333333e-01
 1.666666666666667e-01 -1.666666666666665e-01 -3.333333333333333e-01
 1.666666666666667e-01 -1.666666666666665e-01 -3.333333333333333e-01
 1.666666666666667e-01 -1.666666666666665e-01 -3.333333333333333e-01
 1.666666666666667e-01 -1.666666666666665e-01 -3.333333333333333e-01
 1.666666666666667e-01 -1.666666666666665e-01 -3.333333333333333e-01
 1.666666666666667e-01 -1.666666666666665e-01 -3.333333333333333e-01
 1.666666666666667e-01 -1.666666666666665e-01 -3.333333333333333e-01
 1.666666666666667e-01 -1.666666666666665e-01 -3.333333333333333e-01
 1.666666666666667e-01 -1.666666666666665e-01 -3.333333333333333e-01
 1.666666666666667e-01 -1.666666666666665e-01 -3.333333333333333e-01
 1.666666666666667e-01 -1.666666666666665e-01 -3.333333333333333e-01
 1.666666666666667e-01 -1.666666666666665e-01 -3.333333333333333e-01
 1.666666666666667e-01 -1.666666666666665e-01 -3.333333333333333e-01
 1.666666666666667e-01 -1.666666666666665e-01 -3.333333333333333e-01
 1.666666666666667e-01 -1.666666666666665e-01 -3.333333333333333e-01
 1.666666666666667e-01 -1.666666666666665e-01 -3.333333333333333e-01
 1.666666666666667e-01 -1.666666666666665e-01 -3.333333333333333e-01
 1.666666666666667e-01 -1.666666666666665e-01 -3.333333333333333e-01
 1.666666666666667e-01 -1.666666666666665e-01 -3.333333333333333e-01
 1.666666666666667e-01 -1.666666666666665e-01 -3.333333333333333e-01
 1.666666666666667e-01 -1.666666666666665e-01 -3.333333333333333e-01
 1.666666666666667e-01 -1.666666666666665e-01 -3.333333333333333e-01
 1.666666666666667e-01 -1.666666666666665e-01 -3.333333333333333e-01
 1.666666666666667e-01 -1.666666666666665e-01 -3.333333333333333e-01
 1.666666666666667e-01 -1.666666666666665e-01 -3.333333333333333e-01
 1.666666666666667e-01 -1.666666666666665e-01 -3.333333333333333e-01
 1.666666666666667e-01 -1.666666666666665e-01 -3.333333333333333e-01
 1.666666666666667e-01 -1.666666666666665e-01 -3.333333333333333e-01
 1.666666666666667e-01 -1.666666666666665e-01 -3.333333333333333e-01
 1.666666666666667e-01 -1.666666666666665e-01 -3.333333333333333e-01
 1.666666666666667e-01 -1.666666666666665e-01 -3.333333333333333e-01
 1.666666666666667e-01 -1.666666666666665e-01 -3.333333333333333e-01
 1.666666666666667e-01 -1.666666666666665e-01 -3.333333333333333e-01
 1.666666666666667e-01 -1.666666666666665e-01 -3.333333333333333e-01
 1.666666666666667e-01 -1.666666666666665e-01 -3.333333333333333e-01
 1.666666666666667e-01 -1.666666666666665e-01 -3.333333333333333e-01
 1.666666666666667e-01 -1.666666666666665e-01 -3.333333333333333e-01
 1.666666666666667e-01 -1.666666666666665e-01 -3.333333333333333e-01
 1.666666666666667e-01 -1.666666666666665e-01 -3.333333333333333e-01
 1.666666666666667e-01 -1.666666666666665e-01 -3.333333333333333e-01
 1.666666666666667e-01 -1.666666666666665e-01 -3.333333333333333e-01
 1.666666666666667e-01 -1.666666666666665e-01 -3.333333333333333e-01
 1.666666666666667e-01 -1.666666666666665e-01 -3.333333333333333e-01
 1.666666666666667e-01 -1.666666666666665e-01 -3.333333333333333e-01
 1.666666666666667e-01 -1.666666666666665e-01 -3.333333333333333e-01
 1.666666666666667e-01 -1.666666666666665e-01 -3.333333333333333e-01
 1.666666666666667e-01 -1.666666666666665e-01 -3.333333333333333e-01
 1.666666666666667e-01 -1.666666666666665e-01 -3.333333333333333e-01
 1.666666666666667e-01 -1.666666666666665e-01 -3.333333333333333e-01
 1.666666666666667e-01 -1.666666666666665e-01 -3.333333333333333e-01
 1.666666666666667e-01 -1.666666666666665e-01 -3.333333333333333e-01
 1.666666666666667e-01 -1.666666666666665e-01 -3.333333333333333e-01
 1.666666666666667e-01 -1.666666666666665e-01 -3.333333333333333e-01
 1.666666666666667e-01 -1.666666666666665e-01 -3.333333333333333e-01
 1.666666666666667e-01 -1.666666666666665e-01 -3.333333333333333e-01
 1.666666666666667e-01 -1.666666666666665e-01 -3.333333333333333e-01
 1.666666666666667e-01 -1.666666666666665e-01 -3.333333333333333e-01
 1.666666666666667e-01 -1.666666666666665e-01 -3.333333333333333e-01
 1.666666666666667e-01 -1.666666666666665e-01 -3.333333333333333e-01
 1.666666666666667e-01 -1.666666666666665e-01 -3.333333333333333e-01
 1.666666666666667e-01 -1.666666666666665e-01 -3.333333333333333e-01
 1.666666666666667e-01 -1.666666666666665e-01 -3.333333333333333e-01
 1.666666666666667e-01 -1.666666666666665e-01 -3.333333333333333e-01
 1.666666666666667e-01 -1.666666666666665e-01 -3.333333333333333e-01
 1.666666666666667e-01 -1.666666666666665e-01 -3.333333333333333e-01
 1.666666666666667e-01 -1.666666666666665e-01 -3.333333333333333e-01
 1.666666666666667e-01 -1.666666666666665e-01 -3.333333333333333e-01
 1.666666666666667e-01 -1.666666666666665e-01 -3.333333333333333e-01
 1.666666666666667e-01 -1.666666666666665e-01 -3.333333333333333e-01
 1.666666666666667e-01 -1.666666666666665e-01 -3.333333333333333e-01
 1.666666666666667e-01 -1.666666666666665e-01 -3.333333333333333e-01
 1.666666666666667e-01 -1.666666666666665e-01 -3.333333333333333e-01
 1.666666666666667e-01 -1.666666666666665e-01 -3.333333333333333e-01
 1.666666666666667e-01 -1.666666666666665e-01 -3.333333333333333e-01
 1.666666666666667e-01 -1.666666666666665e-01 -3.333333333333333e-01
 1.666666666666667e-01 -1.666666666666665e-01 -3.333333333333333e-01
 1.666666666666667e-01 -1.666666666666665e-01 -3.333333333333333e-01
 1.666666666666667e-01 -1.666666666666665e-01 -3.333333333333333e-01
 1.666666666666667e-01 -1.666666666666665e-01 -3.333333333333333e-01
 1.666666666666667e-01 -1.666666666666665e-01 -3.333333333333333e-01
 1.666666666666667e-01 -1.666666666666665e-01 -3.333333333333333e-01
 1.666666666666667e-01 -1.666666666666665e-01 -3.333333333333333e-01
 1.666666666666667e-01 -1.666666666666665e-01 -3.333333333333333e-01
 1.666666666666667e-01 -1.666666666666665e-01 -3.333333333333333e-01
 1.666666666666667e-01 -1.666666666666665e-01 -3.333333333333333e-01
 1.666666666666667e-01 -1.666666666666665e-01 -3.333333333333333e-01
 1.666666666666667e-01 -1.666666666666665e-01 -3.333333333333333e-01
 1.666666666666667e-01 -1.666666666666665e-01 -3.333333333333333e-01
 1.666666666666667e-01 -1.666666666666665e-01 -3.333333333333333e-01
 1.666666666666667e-01 -1.666666666666665e-01 -3.333333333333333e-01
 1.666666666666667e-01 -1.666666666666665e-01 -3.333333333333333e-01
 1.666666666666667e-01 -1.666666666666665e-01 -3.333333333333333e-01
 1.666666666666667e-01 -1.666666666666665e-01 -3.333333333333333e-01
 1.666666666666667e-01 -1.666666666666665e-01 -3.333333333333333e-01
 1.666666666666667e-01 -1.666666666666665e-01 -3.333333333333333e-01
 1.666666666666667e-01 -1.666666666666665e-01 -3.333333333333333e-01
 1.666666666666667e-01 -1.666666666666665e-01 -3.333333333333333e-01
 1.666666666666667e-01 -1.666666666666665e-01 -3.333333333333333e-01
 1.666666666666667e-01 -1.666666666666665e-01 -3.333333333333333e-01
 1.666666666666667e-01 -1.666666666666665e-01 -3.333333333333333e-01
 1.666666666666667e-01 -1.666666666666665e-01 -3.333333333333333e-01
 1.666666666666667e-01 -1.666666666666665e-01 -3.333333333333333e-01
 1.666666666666667e-01 -1.666666666666665e-01 -3.333333333333333e-01
 1.666666666666667e-01 -1.666666666666665e-01 -3.333333333333333e-01
 1.666666666666667e-01 -1.666666666666665e-01 -3.333333333333333e-01
 1.666666666666667e-01 -1.666666666666665e-01 -3.333333333333333e-01
 1.666666666666667e-01 -1.666666666666665e-01 -3.333333333333333e-01
 1.666666666666667e-01 -1.666666666666665e-01 -3.333333333333333e-01
 1.666666666666667e-01 -1.666666666666665e-01 -3.333333333333333e-01
 1.666666666666667e-01 -1.666666666666665e-01 -3.333333333333333e-01
 1.666666666666667e-01 -1.666666666666665e-01 -3.333333333333333e-01
 1.666666666666667e-01 -1.666666666666665e-01 -3.333333333333333e-01
 1.666666666666667e-01 -1.666666666666665e-01 -3.333333333333333e-01
-1.666666666666667e-01  1.666666666666665e-01  3.333333333333333e-01
 1.666666666666667e-01 -1.666666666666665e-01 -3.333333333333333e-01
 1.666666666666667e-01 -1.666666666666665e-01 -3.333333333333333e-01
 1.666666666666667e-01 -1.666666666666665e-01 -3.333333333333333e-01
 1.666666666666667e-01 -1.666666666666665e-01 -3.333333333333333e-01
 1.666666666666667e-01 -1.666666666666665e-01 -3.333333333333333e-01
 1.666666666666667e-01 -1.666666666666665e-01 -3.333333333333333e-01
 1.666666666666667e-01 -1.666666666666665e-01 -3.333333333333333e-01
 1.666666666666667e-01 -1.666666666666665e-01 -3.333333333333333e-01
 1.666666666666667e-01 -1.666666666666665e-01 -3.333333333333333e-01
 1.666666666666667e-01 -1.666666666666665e-01 -3.333333333333333e-01
 1.666666666666667e-01 -1.666666666666665e-01 -3.333333333333333e-01
 1.666666666666667e-01 -1.666666666666665e-01 -3.333333333333333e-01
 1.666666666666667e-01 -1.666666666666665e-01 -3.333333333333333e-01
 1.666666666666667e-01 -1.666666666666665e-01 -3.333333333333333e-01
 1.666666666666667e-01 -1.666666666666665e-01 -3.333333333333333e-01
 1.666666666666667e-01 -1.666666666666665e-01 -3.333333333333333e-01
 1.666666666666667e-01 -1.666666666666665e-01 -3.333333333333333e-01
 1.666666666666667e-01 -1.666666666666665e-01 -3.333333333333333e-01
 1.666666666666667e-01 -1.666666666666665e-01 -3.333333333333333e-01
 1.666666666666667e-01 -1.666666666666665e-01 -3.333333333333333e-01
 1.666666666666667e-01 -1.666666666666665e-01 -3.333333333333333e-01
 1.666666666666667e-01 -1.666666666666665e-01 -3.333333333333333e-01
 1.666666666666667e-01 -1.666666666666665e-01 -3.333333333333333e-01
 1.666666666666667e-01 -1.666666666666665e-01 -3.333333333333333e-01
 1.666666666666667e-01 -1.666666666666665e-01 -3.333333333333333e-01
 1.666666666666667e-01 -1.666666666666665e-01 -3.333333333333333e-01
 1.666666666666667e-01 -1.666666666666665e-01 -3.333333333333333e-01
 1.666666666666667e-01 -1.666666666666665e-01 -3.333333333333333e-01
 1.666666666666667e-01 -1.666666666666665e-01 -3.333333333333333e-01
 1.666666666666667e-01 -1.666666666666665e-01 -3.333333333333333e-01
 1.666666666666667e-01 -1.666666666666665e-01 -3.333333333333333e-01
 1.666666666666667e-01 -1.666666666666665e-01 -3.333333333333333e-01
 1.666666666666667e-01 -1.666666666666665e-01 -3.333333333333333e-01
 1.666666666666667e-01 -1.666666666666665e-01 -3.333333333333333e-01
 1.666666666666667e-01 -1.666666666666665e-01 -3.333333333333333e-01
 1.666666666666667e-01 -1.666666666666665e-01 -3.333333333333333e-01
 1.666666666666667e-01 -1.666666666666665e-01 -3.333333333333333e-01
 1.666666666666667e-01 -1.666666666666665e-01 -3.333333333333333e-01
 1.666666666666667e-01 -1.666666666666665e-01 -3.333333333333333e-01
 1.666666666666667e-01 -1.666666666666665e-01 -3.333333333333333e-01
 1.666666666666667e-01 -1.666666666666665e-01 -3.333333333333333e-01
 1.666666666666667e-01 -1.666666666666665e-01 -3.333333333333333e-01
 1.666666666666667e-01 -1.666666666666665e-01 -3.333333333333333e-01
 1.666666666666667e-01 -1.666666666666665e-01 -3.333333333333333e-01
 1.666666666666667e-01 -1.666666666666665e-01 -3.333333333333333e-01
 1.666666666666667e-01 -1.666666666666665e-01 -3.333333333333333e-01
 1.666666666666667e-01 -1.666666666666665e-01 -3.333333333333333e-01
 1.666666666666667e-01 -1.666666666666665e-01 -3.333333333333333e-01
 1.666666666666667e-01 -1.666666666666665e-01 -3.333333333333333e-01
 1.666666666666667e-01 -1.666666666666665e-01 -3.333333333333333e-01
 1.666666666666667e-01 -1.666666666666665e-01 -3.333333333333333e-01
 1.666666666666667e-01 -1.666666666666665e-01 -3.333333333333333e-01
 1.666666666666667e-01 -1.666666666666665e-01 -3.333333333333333e-01
 1.666666666666667e-01 -1.666666666666665e-01 -3.333333333333333e-01
 1.666666666666667e-01 -1.666666666666665e-01 -3.333333333333333e-01
 1.666666666666667e-01 -1.666666666666665e-01 -3.333333333333333e-01
 1.666666666666667e-01 -1.666666666666665e-01 -3.333333333333333e-01
 1.666666666666667e-01 -1.666666666666665e-01 -3.333333333333333e-01
 1.666666666666667e-01 -1.666666666666665e-01 -3.333333333333333e-01
 1.666666666666667e-01 -1.666666666666665e-01 -3.333333333333333e-01
 1.666666666666667e-01 -1.666666666666665e-01 -3.333333333333333e-01
 1.666666666666667e-01 -1.666666666666665e-01 -3.333333333333333e-01
 1.666666666666667e-01 -1.666666666666665e-01 -3.333333333333333e-01
 1.666666666666667e-01 -1.666666666666665e-01 -3.333333333333333e-01
 1.666666666666667e-01 -1.666666666666665e-01 -3.333333333333333e-01
 1.666666666666667e-01 -1.666666666666665e-01 -3.333333333333333e-01
 1.666666666666667e-01 -1.666666666666665e-01 -3.333333333333333e-01
 1.666666666666667e-01 -1.666666666666665e-01 -3.333333333333333e-01
 1.666666666666667e-01 -1.666666666666665e-01 -3.333333333333333e-01
 1.666666666666667e-01 -1.666666666666665e-01 -3.333333333333333e-01
 1.666666666666667e-01 -1.666666666666665e-01 -3.333333333333333e-01
 1.666666666666667e-01 -1.666666666666665e-01 -3.333333333333333e-01
 1.666666666666667e-01 -1.666666666666665e-01 -3.333333333333333e-01
 1.666666666666667e-01 -1.666666666666665e-01 -3.333333333333333e-01
 1.666666666666667e-01 -1.666666666666665e-01 -3.333333333333333e-01
 1.666666666666667e-01 -1.666666666666665e-01 -3.333333333333333e-01
 1.666666666666667e-01 -1.666666666666665e-01 -3.333333333333333e-01
 1.666666666666667e-01 -1.666666666666665e-01 -3.333333333333333e-01
 1.666666666666667e-01 -1.666666666666665e-01 -3.333333333333333e-01
 1.666666666666667e-01 -1.666666666666665e-01 -3.333333333333333e-01
 1.666666666666667e-01 -1.666666666666665e-01 -3.333333333333333e-01
 1.666666666666667e-01 -1.666666666666665e-01 -3.333333333333333e-01
 1.666666666666667e-01 -1.666666666666665e-01 -3.333333333333333e-01
 1.666666666666667e-01 -1.666666666666665e-01 -3.333333333333333e-01
 1.666666666666667e-01 -1.666666666666665e-01 -3.333333333333333e-01
 1.666666666666667e-01 -1.666666666666665e-01 -3.333333333333333e-01
 1.666666666666667e-01 -1.666666666666665e-01 -3.333333333333333e-01
 1.666666666666667e-01 -1.666666666666665e-01 -3.333333333333333e-01
 1.666666666666667e-01 -1.666666666666665e-01 -3.333333333333333e-01
 1.666666666666667e-01 -1.666666666666665e-01 -3.333333333333333e-01
 1.666666666666667e-01 -1.666666666666665e-01 -3.333333333333333e-01
 1.666666666666667e-01 -1.666666666666665e-01 -3.333333333333333e-01
 1.666666666666667e-01 -1.666666666666665e-01 -3.333333333333333e-01
 1.666666666666667e-01 -1.666666666666665e-01 -3.333333333333333e-01
 1.666666666666667e-01 -1.666666666666665e-01 -3.333333333333333e-01
 1.666666666666667e-01 -1.666666666666665e-01 -3.333333333333333e-01
 1.666666666666667e-01 -1.666666666666665e-01 -3.333333333333333e-01
 1.666666666666667e-01 -1.666666666666665e-01 -3.333333333333333e-01
 1.666666666666667e-01 -1.666666666666665e-01 -3.333333333333333e-01
 1.666666666666667e-01 -1.666666666666665e-01 -3.333333333333333e-01
 1.666666666666667e-01 -1.666666666666665e-01 -3.333333333333333e-01
 1.666666666666667e-01 -1.666666666666665e-01 -3.333333333333333e-01
 1.666666666666667e-01 -1.666666666666665e-01 -3.333333333333333e-01
 1.666666666666667e-01 -1.666666666666665e-01 -3.333333333333333e-01
 1.666666666666667e-01 -1.666666666666665e-01 -3.333333333333333e-01
 1.666666666666667e-01 -1.666666666666665e-01 -3.333333333333333e-01
 1.666666666666667e-01 -1.666666666666665e-01 -3.333333333333333e-01
 1.666666666666667e-01 -1.666666666666665e-01 -3.333333333333333e-01
 1.666666666666667e-01 -1.666666666666665e-01 -3.333333333333333e-01
 1.666666666666667e-01 -1.666666666666665e-01 -3.333333333333333e-01
 1.666666666666667e-01 -1.666666666666665e-01 -3.333333333333333e-01
 1.666666666666667e-01 -1.666666666666665e-01 -3.333333333333333e-01
 1.666666666666667e-01 -1.666666666666665e-01 -3.333333333333333e-01
 1.666666666666667e-01 -1.666666666666665e-01 -3.333333333333333e-01
 1.666666666666667e-01 -1.666666666666665e-01 -3.333333333333333e-01
 1.666666666666667e-01 -1.666666666666665e-01 -3.333333333333333e-01
 1.666666666666667e-01 -1.666666666666665e-01 -3.333333333333333e-01
 1.666666666666667e-01 -1.666666666666665e-01 -3.333333333333333e-01
 1.666666666666667e-01 -1.666666666666665e-01 -3.333333333333333e-01
 1.666666666666667e-01 -1.666666666666665e-01 -3.333333333333333e-01
 1.666666666666667e-01 -1.666666666666665e-01 -3.333333333333333e-01
 1.666666666666667e-01 -1.666666666666665e-01 -3.333333333333333e-01
 1.666666666666667e-01 -1.666666666666665e-01 -3.333333333333333e-01
 1.666666666666667e-01 -1.666666666666665e-01 -3.333333333333333e-01
 1.666666666666667e-01 -1.666666666666665e-01 -3.333333333333333e-01
 1.666666666666667e-01 -1.666666666666665e-01 -3.333333333333333e-01
 1.666666666666667e-01 -1.666666666666665e-01 -3.333333333333333e-01
 1.666666666666667e-01 -1.666666666666665e-01 -3.333333333333333e-01
 1.666666666666667e-01 -1.666666666666665e-01 -3.333333333333333e-01
 1.666666666666667e-01 -1.666666666666665e-01 -3.333333333333333e-01
 1.666666666666667e-01 -1.666666666666665e-01 -3.333333333333333e-01
 1.666666666666667e-01 -1.666666666666665e-01 -3.333333333333333e-01
 1.666666666666667e-01 -1.666666666666665e-01 -3.333333333333333e-01
 1.666666666666667e-01 -1.666666666666665e-01 -3.333333333333333e-01
 1.666666666666667e-01 -1.666666666666665e-01 -3.333333333333333e-01
 1.666666666666667e-01 -1.666666666666665e-01 -3.333333333333333e-01
 1.666666666666667e-01 -1.666666666666665e-01 -3.333333333333333e-01
 1.666666666666667e-01 -1.666666666666665e-01 -3.333333333333333e-01
 1.666666666666667e-01 -1.666666666666665e-01 -3.333333333333333e-01
 1.666666666666667e-01 -1.666666666666665e-01 -3.333333333333333e-01
 1.666666666666667e-01 -1.666666666666665e-01 -3.333333333333333e-01
 1.666666666666667e-01 -1.666666666666665e-01 -3.333333333333333e-01
 1.666666666666667e-01 -1.666666666666665e-01 -3.333333333333333e-01
 1.666666666666667e-01 -1.666666666666665e-01 -3.333333333333333e-01
 1.666666666666667e-01 -1.666666666666665e-01 -3.333333333333333e-01
 1.666666666666667e-01 -1.666666666666665e-01 -3.333333333333333e-01
 1.666666666666667e-01 -1.666666666666665e-01 -3.333333333333333e-01
 1.666666666666667e-01 -1.666666666666665e-01 -3.333333333333333e-01
 1.666666666666667e-01 -1.666666666666665e-01 -3.333333333333333e-01
 1.666666666666667e-01 -1.666666666666665e-01 -3.333333333333333e-01
 1.666666666666667e-01 -1.666666666666665e-01 -3.333333333333333e-01
 1.666666666666667e-01 -1.666666666666665e-01 -3.333333333333333e-01
 1.666666666666667e-01 -1.666666666666665e-01 -3.333333333333333e-01
 1.666666666666667e-01 -1.666666666666665e-01 -3.333333333333333e-01
 1.666666666666667e-01 -1.666666666666665e-01 -3.333333333333333e-01
 1.666666666666667e-01 -1.666666666666665e-01 -3.333333333333333e-01
 1.666666666666667e-01 -1.666666666666665e-01 -3.333333333333333e-01
 1.666666666666667e-01 -1.666666666666665e-01 -3.333333333333333e-01
 1.666666666666667e-01 -1.666666666666665e-01 -3.333333333333333e-01
 1.666666666666667e-01 -1.666666666666665e-01 -3.333333333333333e-01
 1.666666666666667e-01 -1.666666666666665e-01 -3.333333333333333e-01
 1.666666666666667e-01 -1.666666666666665e-01 -3.333333333333333e-01
 1.666666666666667e-01 -1.666666666666665e-01 -3.333333333333333e-01
 1.666666666666667e-01 -1.666666666666665e-01 -3.333333333333333e-01
 1.666666666666667e-01 -1.666666666666665e-01 -3.333333333333333e-01
 1.666666666666667e-01 -1.666666666666665e-01 -3.333333333333333e-01
 1.666666666666667e-01 -1.666666666666665e-01 -3.333333333333333e-01
 1.666666666666667e-01 -1.666666666666665e-01 -3.333333333333333e-01
 1.666666666666667e-01 -1.666666666666665e-01 -3.333333333333333e-01
 1.666666666666667e-01 -1.666666666666665e-01 -3.333333333333333e-01
 1.666666666666667e-01 -1.666666666666665e-01 -3.333333333333333e-01
 1.666666666666667e-01 -1.666666666666665e-01 -3.333333333333333e-01
 1.666666666666667e-01 -1.666666666666665e-01 -3.333333333333333e-01
 1.666666666666667e-01 -1.666666666666665e-01 -3.333333333333333e-01
 1.666666666666667e-01 -1.666666666666665e-01 -3.333333333333333e-01
 1.666666666666667e-01 -1.666666666666665e-01 -3.333333333333333e-01
 1.666666666666667e-01 -1.666666666666665e-01 -3.333333333333333e-01
 1.666666666666667e-01 -1.666666666666665e-01 -3.333333333333333e-01
 1.666666666666667e-01 -1.666666666666665e-01 -3.333333333333333e-01
 1.666666666666667e-01 -1.666666666666665e-01 -3.333333333333333e-01
 1.666666666666667e-01 -1.666666666666665e-01 -3.333333333333333e-01
 1.666666666666667e-01 -1.666666666666665e-01 -3.333333333333333e-01
 1.666666666666667e-01 -1.666666666666665e-01 -3.333333333333333e-01
 1.666666666666667e-01 -1.666666666666665e-01 -3.333333333333333e-01
 1.666666666666667e-01 -1.666666666666665e-01 -3.333333333333333e-01
 1.666666666666667e-01 -1.666666666666665e-01 -3.333333333333333e-01
 1.666666666666667e-01 -1.666666666666665e-01 -3.333333333333333e-01
 1.666666666666667e-01 -1.666666666666665e-01 -3.333333333333333e-01
 1.666666666666667e-01 -1.666666666666665e-01 -3.333333333333333e-01
 1.666666666666667e-01 -1.666666666666665e-01 -3.333333333333333e-01
 1.666666666666667e-01 -1.666666666666665e-01 -3.333333333333333e-01
 1.666666666666667e-01 -1.666666666666665e-01 -3.333333333333333e-01
 1.666666666666667e-01 -1.666666666666665e-01 -3.333333333333333e-01
 1.666666666666667e-01 -1.666666666666665e-01 -3.333333333333333e-01
 1.666666666666667e-01 -1.666666666666665e-01 -3.333333333333333e-01
 1.666666666666667e-01 -1.666666666666665e-01 -3.333333333333333e-01
 1.666666666666667e-01 -1.666666666666665e-01 -3.333333333333333e-01
 1.666666666666667e-01 -1.666666666666665e-01 -3.333333333333333e-01
 1.666666666666667e-01 -1.666666666666665e-01 -3.333333333333333e-01
 1.666666666666667e-01 -1.666666666666665e-01 -3.333333333333333e-01
 1.666666666666667e-01 -1.666666666666665e-01 -3.333333333333333e-01
 1.666666666666667e-01 -1.666666666666665e-01 -3.333333333333333e-01
 1.666666666666667e-01 -1.666666666666665e-01 -3.333333333333333e-01
 1.666666666666667e-01 -1.666666666666665e-01 -3.333333333333333e-01
 1.666666666666667e-01 -1.666666666666665e-01 -3.333333333333333e-01
 1.666666666666667e-01 -1.666666666666665e-01 -3.333333333333333e-01
 1.666666666666667e-01 -1.666666666666665e-01 -3.333333333333333e-01
 1.666666666666667e-01 -1.666666666666665e-01 -3.333333333333333e-01
 1.666666666666667e-01 -1.666666666666665e-01 -3.333333333333333e-01
 1.666666666666667e-01 -1.666666666666665e-01 -3.333333333333333e-01
 1.666666666666667e-01 -1.666666666666665e-01 -3.333333333333333e-01
 1.666666666666667e-01 -1.666666666666665e-01 -3.333333333333333e-01
 1.666666666666667e-01 -1.666666666666665e-01 -3.333333333333333e-01
 1.666666666666667e-01 -1.666666666666665e-01 -3.333333333333333e-01
 1.666666666666667e-01 -1.666666666666665e-01 -3.333333333333333e-01
 1.666666666666667e-01 -1.666666666666665e-01 -3.333333333333333e-01
 1.666666666666667e-01 -1.666666666666665e-01 -3.333333333333333e-01
 1.666666666666667e-01 -1.666666666666665e-01 -3.333333333333333e-01
 1.666666666666667e-01 -1.666666666666665e-01 -3.333333333333333e-01
 1.666666666666667e-01 -1.666666666666665e-01 -3.333333333333333e-01
 1.666666666666667e-01 -1.666666666666665e-01 -3.333333333333333e-01
 1.666666666666667e-01 -1.666666666666665e-01 -3.333333333333333e-01
 1.666666666666667e-01 -1.666666666666665e-01 -3.333333333333333e-01
 1.666666666666667e-01 -1.666666666666665e-01 -3.333333333333333e-01
 1.666666666666667e-01 -1.666666666666665e-01 -3.333333333333333e-01
 1.666666666666667e-01 -1.666666666666665e-01 -3.333333333333333e-01
 1.666666666666667e-01 -1.666666666666665e-01 -3.333333333333333e-01
 1.666666666666667e-01 -1.666666666666665e-01 -3.333333333333333e-01
 1.666666666666667e-01 -1.666666666666665e-01 -3.333333333333333e-01
 1.666666666666667e-01 -1.666666666666665e-01 -3.333333333333333e-01
 1.666666666666667e-01 -1.666666666666665e-01 -3.333333333333333e-01
 1.666666666666667e-01 -1.666666666666665e-01 -3.333333333333333e-01
 1.666666666666667e-01 -1.666666666666665e-01 -3.333333333333333e-01
 1.666666666666667e-01 -1.666666666666665e-01 -3.333333333333333e-01
 1.666666666666667e-01 -1.666666666666665e-01 -3.333333333333333e-01
 1.666666666666667e-01 -1.666666666666665e-01 -3.333333333333333e-01
 1.666666666666667e-01 -1.666666666666665e-01 -3.333333333333333e-01
 1.666666666666667e-01 -1.666666666666665e-01 -3.333333333333333e-01
 1.666666666666667e-01 -1.666666666666665e-01 -3.333333333333333e-01
 1.666666666666667e-01 -1.666666666666665e-01 -3.333333333333333e-01
 1.666666666666667e-01 -1.666666666666665e-01 -3.333333333333333e-01
 1.666666666666667e-01 -1.666666666666665e-01 -3.333333333333333e-01
 1.666666666666667e-01 -1.666666666666665e-01 -3.333333333333333e-01
 1.666666666666667e-01 -1.666666666666665e-01 -3.333333333333333e-01
 1.666666666666667e-01 -1.666666666666665e-01 -3.333333333333333e-01
 1.666666666666667e-01 -1.666666666666665e-01 -3.333333333333333e-01
 1.666666666666667e-01 -1.666666666666665e-01 -3.333333333333333e-01
 1.666666666666667e-01 -1.666666666666665e-01 -3.333333333333333e-01
 1.666666666666667e-01 -1.666666666666665e-01 -3.333333333333333e-01
 1.666666666666667e-01 -1.666666666666665e-01 -3.333333333333333e-01
 1.666666666666667e-01 -1.666666666666665e-01 -3.333333333333333e-01
 1.666666666666667e-01 -1.666666666666665e-01 -3.333333333333333e-01
 1.666666666666667e-01 -1.666666666666665e-01 -3.333333333333333e-01
 1.666666666666667e-01 -1.666666666666665e-01 -3.333333333333333e-01
 1.666666666666667e-01 -1.666666666666665e-01 -3.333333333333333e-01
 1.666666666666667e-01 -1.666666666666665e-01 -3.333333333333333e-01
 1.666666666666667e-01 -1.666666666666665e-01 -3.333333333333333e-01
 1.666666666666667e-01 -1.666666666666665e-01 -3.333333333333333e-01
 1.666666666666667e-01 -1.666666666666665e-01 -3.333333333333333e-01
 1.666666666666667e-01 -1.666666666666665e-01 -3.333333333333333e-01
 1.666666666666667e-01 -1.666666666666665e-01 -3.333333333333333e-01
 1.666666666666667e-01 -1.666666666666665e-01 -3.333333333333333e-01
 1.666666666666667e-01 -1.666666666666665e-01 -3.333333333333333e-01
 1.666666666666667e-01 -1.666666666666665e-01 -3.333333333333333e-01
 1.666666666666667e-01 -1.666666666666665e-01 -3.333333333333333e-01
 1.666666666666667e-01 -1.666666666666665e-01 -3.333333333333333e-01
 1.666666666666667e-01 -1.666666666666665e-01 -3.333333333333333e-01
 1.666666666666667e-01 -1.666666666666665e-01 -3.333333333333333e-01
 1.666666666666667e-01 -1.666666666666665e-01 -3.333333333333333e-01
 1.666666666666667e-01 -1.666666666666665e-01 -3.333333333333333e-01
 1.666666666666667e-01 -1.666666666666665e-01 -3.333333333333333e-01
 1.666666666666667e-01 -1.666666666666665e-01 -3.333333333333333e-01
 1.666666666666667e-01 -1.666666666666665e-01 -3.333333333333333e-01
 1.666666666666667e-01 -1.666666666666665e-01 -3.333333333333333e-01
 1.666666666666667e-01 -1.666666666666665e-01 -3.333333333333333e-01
 1.666666666666667e-01 -1.666666666666665e-01 -3.333333333333333e-01
 1.666666666666667e-01 -1.666666666666665e-01 -3.333333333333333e-01
 1.666666666666667e-01 -1.666666666666665e-01 -3.333333333333333e-01
 1.666666666666667e-01 -1.666666666666665e-01 -3.333333333333333e-01
 1.666666666666667e-01 -1.666666666666665e-01 -3.333333333333333e-01
 1.666666666666667e-01 -1.666666666666665e-01 -3.333333333333333e-01
 1.666666666666667e-01 -1.666666666666665e-01 -3.333333333333333e-01
 1.666666666666667e-01 -1.666666666666665e-01 -3.333333333333333e-01
 1.666666666666667e-01 -1.666666666666665e-01 -3.333333333333333e-01
 1.666666666666667e-01 -1.666666666666665e-01 -3.333333333333333e-01
 1.666666666666667e-01 -1.666666666666665e-01 -3.333333333333333e-01
 1.666666666666667e-01 -1.666666666666665e-01 -3.333333333333333e-01
 1.666666666666667e-01 -1.666666666666665e-01 -3.333333333333333e-01
 1.666666666666667e-01 -1.666666666666665e-01 -3.333333333333333e-01
 1.666666666666667e-01 -1.666666666666665e-01 -3.333333333333333e-01
 1.666666666666667e-01 -1.666666666666665e-01 -3.333333333333333e-01
 1.666666666666667e-01 -1.666666666666665e-01 -3.333333333333333e-01
 1.666666666666667e-01 -1.666666666666665e-01 -3.333333333333333e-01
 1.666666666666667e-01 -1.666666666666665e-01 -3.333333333333333e-01
 1.666666666666667e-01 -1.666666666666665e-01 -3.333333333333333e-01
 1.666666666666667e-01 -1.666666666666665e-01 -3.333333333333333e-01
 1.666666666666667e-01 -1.666666666666665e-01 -3.333333333333333e-01
 1.666666666666667e-01 -1.666666666666665e-01 -3.333333333333333e-01
 1.666666666666667e-01 -1.666666666666665e-01 -3.333333333333333e-01
 1.666666666666667e-01 -1.666666666666665e-01 -3.333333333333333e-01
 1.666666666666667e-01 -1.666666666666665e-01 -3.333333333333333e-01
 1.666666666666667e-01 -1.666666666666665e-01 -3.333333333333333e-01
 1.666666666666667e-01 -1.666666666666665e-01 -3.333333333333333e-01
 1.666666666666667e-01 -1.666666666666665e-01 -3.333333333333333e-01
 1.666666666666667e-01 -1.666666666666665e-01 -3.333333333333333e-01
 1.666666666666667e-01 -1.666666666666665e-01 -3.333333333333333e-01
 1.666666666666667e-01 -1.666666666666665e-01 -3.333333333333333e-01
 1.666666666666667e-01 -1.666666666666665e-01 -3.333333333333333e-01
 1.666666666666667e-01 -1.666666666666665e-01 -3.333333333333333e-01
 1.666666666666667e-01 -1.666666666666665e-01 -3.333333333333333e-01
 1.666666666666667e-01 -1.666666666666665e-01 -3.333333333333333e-01
 1.666666666666667e-01 -1.666666666666665e-01 -3.333333333333333e-01
 1.666666666666667e-01 -1.666666666666665e-01 -3.333333333333333e-01
 1.666666666666667e-01 -1.666666666666665e-01 -3.333333333333333e-01
 1.666666666666667e-01 -1.666666666666665e-01 -3.333333333333333e-01
 1.666666666666667e-01 -1.666666666666665e-01 -3.333333333333333e-01
 1.666666666666667e-01 -1.666666666666665e-01 -3.333333333333333e-01
 1.666666666666667e-01 -1.666666666666665e-01 -3.333333333333333e-01
 1.666666666666667e-01 -1.666666666666665e-01 -3.333333333333333e-01
 1.666666666666667e-01 -1.666666666666665e-01 -3.333333333333333e-01
 1.666666666666667e-01 -1.666666666666665e-01 -3.333333333333333e-01
 1.666666666666667e-01 -1.666666666666665e-01 -3.333333333333333e-01
 1.666666666666667e-01 -1.666666666666665e-01 -3.333333333333333e-01
 1.666666666666667e-01 -1.666666666666665e-01 -3.333333333333333e-01
 1.666666666666667e-01 -1.666666666666665e-01 -3.333333333333333e-01
 1.666666666666667e-01 -1.666666666666665e-01 -3.333333333333333e-01
 1.666666666666667e-01 -1.666666666666665e-01 -3.333333333333333e-01
 1.666666666666667e-01 -1.666666666666665e-01 -3.333333333333333e-01
 1.666666666666667e-01 -1.666666666666665e-01 -3.333333333333333e-01
 1.666666666666667e-01 -1.666666666666665e-01 -3.333333333333333e-01
 1.666666666666667e-01 -1.666666666666665e-01 -3.333333333333333e-01
 1.666666666666667e-01 -1.666666666666665e-01 -3.333333333333333e-01
 1.666666666666667e-01 -1.666666666666665e-01 -3.333333333333333e-01
 1.666666666666667e-01 -1.666666666666665e-01 -3.333333333333333e-01
 1.666666666666667e-01 -1.666666666666665e-01 -3.333333333333333e-01
 1.666666666666667e-01 -1.666666666666665e-01 -3.333333333333333e-01
 1.666666666666667e-01 -1.666666666666665e-01 -3.333333333333333e-01
 1.666666666666667e-01 -1.666666666666665e-01 -3.333333333333333e-01
 1.666666666666667e-01 -1.666666666666665e-01 -3.333333333333333e-01
 1.666666666666667e-01 -1.666666666666665e-01 -3.333333333333333e-01
 1.666666666666667e-01 -1.666666666666665e-01 -3.333333333333333e-01
 1.666666666666667e-01 -1.666666666666665e-01 -3.333333333333333e-01
 1.666666666666667e-01 -1.666666666666665e-01 -3.333333333333333e-01
 1.666666666666667e-01 -1.666666666666665e-01 -3.333333333333333e-01
 1.666666666666667e-01 -1.666666666666665e-01 -3.333333333333333e-01
 1.666666666666667e-01 -1.666666666666665e-01 -3.333333333333333e-01
 1.666666666666667e-01 -1.666666666666665e-01 -3.333333333333333e-01
 1.666666666666667e-01 -1.666666666666665e-01 -3.333333333333333e-01
 1.666666666666667e-01 -1.666666666666665e-01 -3.333333333333333e-01
 1.666666666666667e-01 -1.666666666666665e-01 -3.333333333333333e-01
 1.666666666666667e-01 -1.666666666666665e-01 -3.333333333333333e-01
 1.666666666666667e-01 -1.666666666666665e-01 -3.333333333333333e-01
 1.666666666666667e-01 -1.666666666666665e-01 -3.333333333333333e-01
 1.666666666666667e-01 -1.666666666666665e-01 -3.333333333333333e-01
 1.666666666666667e-01 -1.666666666666665e-01 -3.333333333333333e-01
 1.666666666666667e-01 -1.666666666666665e-01 -3.333333333333333e-01
 1.666666666666667e-01 -1.666666666666665e-01 -3.333333333333333e-01
 1.666666666666667e-01 -1.666666666666665e-01 -3.333333333333333e-01
 1.666666666666667e-01 -1.666666666666665e-01 -3.333333333333333e-01
 1.666666666666667e-01 -1.666666666666665e-01 -3.333333333333333e-01
 1.666666666666667e-01 -1.666666666666665e-01 -3.333333333333333e-01
 1.666666666666667e-01 -1.666666666666665e-01 -3.333333333333333e-01
 1.666666666666667e-01 -1.666666666666665e-01 -3.333333333333333e-01
 1.666666666666667e-01 -1.666666666666665e-01 -3.333333333333333e-01
 1.666666666666667e-01 -1.666666666666665e-01 -3.333333333333333e-01
 1.666666666666667e-01 -1.666666666666665e-01 -3.333333333333333e-01
 1.666666666666667e-01 -1.666666666666665e-01 -3.333333333333333e-01
 1.666666666666667e-01 -1.666666666666665e-01 -3.333333333333333e-01
 1.666666666666667e-01 -1.666666666666665e-01 -3.333333333333333e-01
 1.666666666666667e-01 -1.666666666666665e-01 -3.333333333333333e-01
 1.666666666666667e-01 -1.666666666666665e-01 -3.333333333333333e-01
 1.666666666666667e-01 -1.666666666666665e-01 -3.333333333333333e-01
 1.666666666666667e-01 -1.666666666666665e-01 -3.333333333333333e-01
 1.666666666666667e-01 -1.666666666666665e-01 -3.333333333333333e-01
 1.666666666666667e-01 -1.666666666666665e-01 -3.333333333333333e-01
 1.666666666666667e-01 -1.666666666666665e-01 -3.333333333333333e-01
 1.666666666666667e-01 -1.666666666666665e-01 -3.333333333333333e-01
 1.666666666666667e-01 -1.666666666666665e-01 -3.333333333333333e-01
 1.666666666666667e-01 -1.666666666666665e-01 -3.333333333333333e-01
 1.666666666666667e-01 -1.666666666666665e-01 -3.333333333333333e-01
 1.666666666666667e-01 -1.666666666666665e-01 -3.333333333333333e-01
 1.666666666666667e-01 -1.666666666666665e-01 -3.333333333333333e-01
 1.666666666666667e-01 -1.666666666666665e-01 -3.333333333333333e-01
 1.666666666666667e-01 -1.666666666666665e-01 -3.333333333333333e-01
-1.666666666666667e-01  1.666666666666665e-01  3.333333333333333e-01
 1.666666666666667e-01 -1.666666666666665e-01 -3.333333333333333e-01
-1.666666666666667e-01  1.666666666666665e-01  3.333333333333333e-01
-1.666666666666667e-01  1.666666666666665e-01  3.333333333333333e-01
-1.666666666666667e-01  1.666666666666665e-01  3.333333333333333e-01
-1.666666666666667e-01  1.666666666666665e-01  3.333333333333333e-01
-1.666666666666667e-01  1.666666666666665e-01  3.333333333333333e-01
-1.666666666666667e-01  1.666666666666665e-01  3.333333333333333e-01
-1.666666666666667e-01  1.666666666666665e-01  3.333333333333333e-01
-1.666666666666667e-01  1.666666666666665e-01  3.333333333333333e-01
-1.666666666666667e-01  1.666666666666665e-01  3.333333333333333e-01
-1.666666666666667e-01  1.666666666666665e-01  3.333333333333333e-01
-1.666666666666667e-01  1.666666666666665e-01  3.333333333333333e-01
-1.666666666666667e-01  1.666666666666665e-01  3.333333333333333e-01
-1.666666666666667e-01  1.666666666666665e-01  3.333333333333333e-01
-1.666666666666667e-01  1.666666666666665e-01  3.333333333333333e-01
-1.666666666666667e-01  1.666666666666665e-01  3.333333333333333e-01
-1.666666666666667e-01  1.666666666666665e-01  3.333333333333333e-01
-1.666666666666667e-01  1.666666666666665e-01  3.333333333333333e-01
-1.666666666666667e-01  1.666666666666665e-01  3.333333333333333e-01
-1.666666666666667e-01  1.666666666666665e-01  3.333333333333333e-01
-1.666666666666667e-01  1.666666666666665e-01  3.333333333333333e-01
-1.666666666666667e-01  1.666666666666665e-01  3.333333333333333e-01
-1.666666666666667e-01  1.666666666666665e-01  3.333333333333333e-01
-1.666666666666667e-01  1.666666666666665e-01  3.333333333333333e-01
-1.666666666666667e-01  1.666666666666665e-01  3.333333333333333e-01
-1.666666666666667e-01  1.666666666666665e-01  3.333333333333333e-01
-1.666666666666667e-01  1.666666666666665e-01  3.333333333333333e-01
-1.666666666666667e-01  1.666666666666665e-01  3.333333333333333e-01
-1.666666666666667e-01  1.666666666666665e-01  3.333333333333333e-01
-1.666666666666667e-01  1.666666666666665e-01  3.333333333333333e-01
-1.666666666666667e-01  1.666666666666665e-01  3.333333333333333e-01
-1.666666666666667e-01  1.666666666666665e-01  3.333333333333333e-01
-1.666666666666667e-01  1.666666666666665e-01  3.333333333333333e-01
-1.666666666666667e-01  1.666666666666665e-01  3.333333333333333e-01
-1.666666666666667e-01  1.666666666666665e-01  3.333333333333333e-01
-1.666666666666667e-01  1.666666666666665e-01  3.333333333333333e-01
-1.666666666666667e-01  1.666666666666665e-01  3.333333333333333e-01
-1.666666666666667e-01  1.666666666666665e-01  3.333333333333333e-01
-1.666666666666667e-01  1.666666666666665e-01  3.333333333333333e-01
-1.666666666666667e-01  1.666666666666665e-01  3.333333333333333e-01
-1.666666666666667e-01  1.666666666666665e-01  3.333333333333333e-01
-1.666666666666667e-01  1.666666666666665e-01  3.333333333333333e-01
-1.666666666666667e-01  1.666666666666665e-01  3.333333333333333e-01
-1.666666666666667e-01  1.666666666666665e-01  3.333333333333333e-01
-1.666666666666667e-01  1.666666666666665e-01  3.333333333333333e-01
-1.666666666666667e-01  1.666666666666665e-01  3.333333333333333e-01
-1.666666666666667e-01  1.666666666666665e-01  3.333333333333333e-01
-1.666666666666667e-01  1.666666666666665e-01  3.333333333333333e-01
-1.666666666666667e-01  1.666666666666665e-01  3.333333333333333e-01
-1.666666666666667e-01  1.666666666666665e-01  3.333333333333333e-01
-1.666666666666667e-01  1.666666666666665e-01  3.333333333333333e-01
-1.666666666666667e-01  1.666666666666665e-01  3.333333333333333e-01
-1.666666666666667e-01  1.666666666666665e-01  3.333333333333333e-01
-1.666666666666667e-01  1.666666666666665e-01  3.333333333333333e-01
-1.666666666666667e-01  1.666666666666665e-01  3.333333333333333e-01
-1.666666666666667e-01  1.666666666666665e-01  3.333333333333333e-01
-1.666666666666667e-01  1.666666666666665e-01  3.333333333333333e-01
-1.666666666666667e-01  1.666666666666665e-01  3.333333333333333e-01
-1.666666666666667e-01  1.666666666666665e-01  3.333333333333333e-01
-1.666666666666667e-01  1.666666666666665e-01  3.333333333333333e-01
-1.666666666666667e-01  1.666666666666665e-01  3.333333333333333e-01
-1.666666666666667e-01  1.666666666666665e-01  3.333333333333333e-01
-1.666666666666667e-01  1.666666666666665e-01  3.333333333333333e-01
-1.666666666666667e-01  1.666666666666665e-01  3.333333333333333e-01
-1.666666666666667e-01  1.666666666666665e-01  3.333333333333333e-01
-1.666666666666667e-01  1.666666666666665e-01  3.333333333333333e-01
-1.666666666666667e-01  1.666666666666665e-01  3.333333333333333e-01
-1.666666666666667e-01  1.666666666666665e-01  3.333333333333333e-01
-1.666666666666667e-01  1.666666666666665e-01  3.333333333333333e-01
-1.666666666666667e-01  1.666666666666665e-01  3.333333333333333e-01
-1.666666666666667e-01  1.666666666666665e-01  3.333333333333333e-01
-1.666666666666667e-01  1.666666666666665e-01  3.333333333333333e-01
-1.666666666666667e-01  1.666666666666665e-01  3.333333333333333e-01
-1.666666666666667e-01  1.666666666666665e-01  3.333333333333333e-01
-1.666666666666667e-01  1.666666666666665e-01  3.333333333333333e-01
-1.666666666666667e-01  1.666666666666665e-01  3.333333333333333e-01
-1.666666666666667e-01  1.666666666666665e-01  3.333333333333333e-01
-1.666666666666667e-01  1.666666666666665e-01  3.333333333333333e-01
-1.666666666666667e-01  1.666666666666665e-01  3.333333333333333e-01
-1.666666666666667e-01  1.666666666666665e-01  3.333333333333333e-01
-1.666666666666667e-01  1.666666666666665e-01  3.333333333333333e-01
-1.666666666666667e-01  1.666666666666665e-01  3.333333333333333e-01
-1.666666666666667e-01  1.666666666666665e-01  3.333333333333333e-01
-1.666666666666667e-01  1.666666666666665e-01  3.333333333333333e-01
-1.666666666666667e-01  1.666666666666665e-01  3.333333333333333e-01
-1.666666666666667e-01  1.666666666666665e-01  3.333333333333333e-01
-1.666666666666667e-01  1.666666666666665e-01  3.333333333333333e-01
-1.666666666666667e-01  1.666666666666665e-01  3.333333333333333e-01
-1.666666666666667e-01  1.666666666666665e-01  3.333333333333333e-01
-1.666666666666667e-01  1.666666666666665e-01  3.333333333333333e-01
-1.666666666666667e-01  1.666666666666665e-01  3.333333333333333e-01
-1.666666666666667e-01  1.666666666666665e-01  3.333333333333333e-01
-1.666666666666667e-01  1.666666666666665e-01  3.333333333333333e-01
-1.666666666666667e-01  1.666666666666665e-01  3.333333333333333e-01
-1.666666666666667e-01  1.666666666666665e-01  3.333333333333333e-01
-1.666666666666667e-01  1.666666666666665e-01  3.333333333333333e-01
-1.666666666666667e-01  1.666666666666665e-01  3.333333333333333e-01
-1.666666666666667e-01  1.666666666666665e-01  3.333333333333333e-01
-1.666666666666667e-01  1.666666666666665e-01  3.333333333333333e-01
-1.666666666666667e-01  1.666666666666665e-01  3.333333333333333e-01
-1.666666666666667e-01  1.666666666666665e-01  3.333333333333333e-01
-1.666666666666667e-01  1.666666666666665e-01  3.333333333333333e-01
-1.666666666666667e-01  1.666666666666665e-01  3.333333333333333e-01
-1.666666666666667e-01  1.666666666666665e-01  3.333333333333333e-01
-1.666666666666667e-01  1.666666666666665e-01  3.333333333333333e-01
-1.666666666666667e-01  1.666666666666665e-01  3.333333333333333e-01
-1.666666666666667e-01  1.666666666666665e-01  3.333333333333333e-01
-1.666666666666667e-01  1.666666666666665e-01  3.333333333333333e-01
-1.666666666666667e-01  1.666666666666665e-01  3.333333333333333e-01
-1.666666666666667e-01  1.666666666666665e-01  3.333333333333333e-01
-1.666666666666667e-01  1.666666666666665e-01  3.333333333333333e-01
-1.666666666666667e-01  1.666666666666665e-01  3.333333333333333e-01
-1.666666666666667e-01  1.666666666666665e-01  3.333333333333333e-01
-1.666666666666667e-01  1.666666666666665e-01  3.333333333333333e-01
-1.666666666666667e-01  1.666666666666665e-01  3.333333333333333e-01
-1.666666666666667e-01  1.666666666666665e-01  3.333333333333333e-01
-1.666666666666667e-01  1.666666666666665e-01  3.333333333333333e-01
-1.666666666666667e-01  1.666666666666665e-01  3.333333333333333e-01
-1.666666666666667e-01  1.666666666666665e-01  3.333333333333333e-01
-1.666666666666667e-01  1.666666666666665e-01  3.333333333333333e-01
-1.666666666666667e-01  1.666666666666665e-01  3.333333333333333e-01
-1.666666666666667e-01  1.666666666666665e-01  3.333333333333333e-01
-1.666666666666667e-01  1.666666666666665e-01  3.333333333333333e-01
-1.666666666666667e-01  1.666666666666665e-01  3.333333333333333e-01
-1.666666666666667e-01  1.666666666666665e-01  3.333333333333333e-01
-1.666666666666667e-01  1.666666666666665e-01  3.333333333333333e-01
-1.666666666666667e-01  1.666666666666665e-01  3.333333333333333e-01
-1.666666666666667e-01  1.666666666666665e-01  3.333333333333333e-01
-1.666666666666667e-01  1.666666666666665e-01  3.333333333333333e-01
-1.666666666666667e-01  1.666666666666665e-01  3.333333333333333e-01
-1.666666666666667e-01  1.666666666666665e-01  3.333333333333333e-01
-1.666666666666667e-01  1.666666666666665e-01  3.333333333333333e-01
-1.666666666666667e-01  1.666666666666665e-01  3.333333333333333e-01
-1.666666666666667e-01  1.666666666666665e-01  3.333333333333333e-01
-1.666666666666667e-01  1.666666666666665e-01  3.333333333333333e-01
-1.666666666666667e-01  1.666666666666665e-01  3.333333333333333e-01
-1.666666666666667e-01  1.666666666666665e-01  3.333333333333333e-01
-1.666666666666667e-01  1.666666666666665e-01  3.333333333333333e-01
-1.666666666666667e-01  1.666666666666665e-01  3.333333333333333e-01
-1.666666666666667e-01  1.666666666666665e-01  3.333333333333333e-01
-1.666666666666667e-01  1.666666666666665e-01  3.333333333333333e-01
-1.666666666666667e-01  1.666666666666665e-01  3.333333333333333e-01
-1.666666666666667e-01  1.666666666666665e-01  3.333333333333333e-01
-1.666666666666667e-01  1.666666666666665e-01  3.333333333333333e-01
-1.666666666666667e-01  1.666666666666665e-01  3.333333333333333e-01
-1.666666666666667e-01  1.666666666666665e-01  3.333333333333333e-01
-1.666666666666667e-01  1.666666666666665e-01  3.333333333333333e-01
-1.666666666666667e-01  1.666666666666665e-01  3.333333333333333e-01
-1.666666666666667e-01  1.666666666666665e-01  3.333333333333333e-01
-1.666666666666667e-01  1.666666666666665e-01  3.333333333333333e-01
-1.666666666666667e-01  1.666666666666665e-01  3.333333333333333e-01
-1.666666666666667e-01  1.666666666666665e-01  3.333333333333333e-01
-1.666666666666667e-01  1.666666666666665e-01  3.333333333333333e-01
-1.666666666666667e-01  1.666666666666665e-01  3.333333333333333e-01
-1.666666666666667e-01  1.666666666666665e-01  3.333333333333333e-01
-1.666666666666667e-01  1.666666666666665e-01  3.333333333333333e-01
-1.666666666666667e-01  1.666666666666665e-01  3.333333333333333e-01
-1.666666666666667e-01  1.666666666666665e-01  3.333333333333333e-01
-1.666666666666667e-01  1.666666666666665e-01  3.333333333333333e-01
-1.666666666666667e-01  1.666666666666665e-01  3.333333333333333e-01
-1.666666666666667e-01  1.666666666666665e-01  3.333333333333333e-01
-1.666666666666667e-01  1.666666666666665e-01  3.333333333333333e-01
-1.666666666666667e-01  1.666666666666665e-01  3.333333333333333e-01
-1.666666666666667e-01  1.666666666666665e-01  3.333333333333333e-01
-1.666666666666667e-01  1.666666666666665e-01  3.333333333333333e-01
-1.666666666666667e-01  1.666666666666665e-01  3.333333333333333e-01
-1.666666666666667e-01  1.666666666666665e-01  3.333333333333333e-01
-1.666666666666667e-01  1.666666666666665e-01  3.333333333333333e-01
-1.666666666666667e-01  1.666666666666665e-01  3.333333333333333e-01
-1.666666666666667e-01  1.666666666666665e-01  3.333333333333333e-01
-1.666666666666667e-01  1.666666666666665e-01  3.333333333333333e-01
-1.666666666666667e-01  1.666666666666665e-01  3.333333333333333e-01
-1.666666666666667e-01  1.666666666666665e-01  3.333333333333333e-01
-1.666666666666667e-01  1.666666666666665e-01  3.333333333333333e-01
-1.666666666666667e-01  1.666666666666665e-01  3.333333333333333e-01
-1.666666666666667e-01  1.666666666666665e-01  3.333333333333333e-01
-1.666666666666667e-01  1.666666666666665e-01  3.333333333333333e-01
-1.666666666666667e-01  1.666666666666665e-01  3.333333333333333e-01
-1.666666666666667e-01  1.666666666666665e-01  3.333333333333333e-01
-1.666666666666667e-01  1.666666666666665e-01  3.333333333333333e-01
-1.666666666666667e-01  1.666666666666665e-01  3.333333333333333e-01
-1.666666666666667e-01  1.666666666666665e-01  3.333333333333333e-01
-1.666666666666667e-01  1.666666666666665e-01  3.333333333333333e-01
-1.666666666666667e-01  1.666666666666665e-01  3.333333333333333e-01
-1.666666666666667e-01  1.666666666666665e-01  3.333333333333333e-01
-1.666666666666667e-01  1.666666666666665e-01  3.333333333333333e-01
-1.666666666666667e-01  1.666666666666665e-01  3.333333333333333e-01
-1.666666666666667e-01  1.666666666666665e-01  3.333333333333333e-01
-1.666666666666667e-01  1.666666666666665e-01  3.333333333333333e-01
-1.666666666666667e-01  1.666666666666665e-01  3.333333333333333e-01
-1.666666666666667e-01  1.666666666666665e-01  3.333333333333333e-01
-1.666666666666667e-01  1.666666666666665e-01  3.333333333333333e-01
-1.666666666666667e-01  1.666666666666665e-01  3.333333333333333e-01
-1.666666666666667e-01  1.666666666666665e-01  3.333333333333333e-01
-1.666666666666667e-01  1.666666666666665e-01  3.333333333333333e-01
-1.666666666666667e-01  1.666666666666665e-01  3.333333333333333e-01
-1.666666666666667e-01  1.666666666666665e-01  3.333333333333333e-01
-1.666666666666667e-01  1.666666666666665e-01  3.333333333333333e-01
-1.666666666666667e-01  1.666666666666665e-01  3.333333333333333e-01
-1.666666666666667e-01  1.666666666666665e-01  3.333333333333333e-01
-1.666666666666667e-01  1.666666666666665e-01  3.333333333333333e-01
-1.666666666666667e-01  1.666666666666665e-01  3.333333333333333e-01
-1.666666666666667e-01  1.666666666666665e-01  3.333333333333333e-01
-1.666666666666667e-01  1.666666666666665e-01  3.333333333333333e-01
-1.666666666666667e-01  1.666666666666665e-01  3.333333333333333e-01
-1.666666666666667e-01  1.666666666666665e-01  3.333333333333333e-01
-1.666666666666667e-01  1.666666666666665e-01  3.333333333333333e-01
-1.666666666666667e-01  1.666666666666665e-01  3.333333333333333e-01
-1.666666666666667e-01  1.666666666666665e-01  3.333333333333333e-01
-1.666666666666667e-01  1.666666666666665e-01  3.333333333333333e-01
-1.666666666666667e-01  1.666666666666665e-01  3.333333333333333e-01
-1.666666666666667e-01  1.666666666666665e-01  3.333333333333333e-01
-1.666666666666667e-01  1.666666666666665e-01  3.333333333333333e-01
-1.666666666666667e-01  1.666666666666665e-01  3.333333333333333e-01
-1.666666666666667e-01  1.666666666666665e-01  3.333333333333333e-01
-1.666666666666667e-01  1.666666666666665e-01  3.333333333333333e-01
-1.666666666666667e-01  1.666666666666665e-01  3.333333333333333e-01
-1.666666666666667e-01  1.666666666666665e-01  3.333333333333333e-01
-1.666666666666667e-01  1.666666666666665e-01  3.333333333333333e-01
-1.666666666666667e-01  1.666666666666665e-01  3.333333333333333e-01
-1.666666666666667e-01  1.666666666666665e-01  3.333333333333333e-01
-1.666666666666667e-01  1.666666666666665e-01  3.333333333333333e-01
-1.666666666666667e-01  1.666666666666665e-01  3.333333333333333e-01
-1.666666666666667e-01  1.666666666666665e-01  3.333333333333333e-01
-1.666666666666667e-01  1.666666666666665e-01  3.333333333333333e-01
-1.666666666666667e-01  1.666666666666665e-01  3.333333333333333e-01
-1.666666666666667e-01  1.666666666666665e-01  3.333333333333333e-01
-1.666666666666667e-01  1.666666666666665e-01  3.333333333333333e-01
-1.666666666666667e-01  1.666666666666665e-01  3.333333333333333e-01
-1.666666666666667e-01  1.666666666666665e-01  3.333333333333333e-01
-1.666666666666667e-01  1.666666666666665e-01  3.333333333333333e-01
-1.666666666666667e-01  1.666666666666665e-01  3.333333333333333e-01
-1.666666666666667e-01  1.666666666666665e-01  3.333333333333333e-01
-1.666666666666667e-01  1.666666666666665e-01  3.333333333333333e-01
-1.666666666666667e-01  1.666666666666665e-01  3.333333333333333e-01
-1.666666666666667e-01  1.666666666666665e-01  3.333333333333333e-01
-1.666666666666667e-01  1.666666666666665e-01  3.333333333333333e-01
-1.666666666666667e-01  1.666666666666665e-01  3.333333333333333e-01
-1.666666666666667e-01  1.666666666666665e-01  3.333333333333333e-01
-1.666666666666667e-01  1.666666666666665e-01  3.333333333333333e-01
-1.666666666666667e-01  1.666666666666665e-01  3.333333333333333e-01
-1.666666666666667e-01  1.666666666666665e-01  3.333333333333333e-01
-1.666666666666667e-01  1.666666666666665e-01  3.333333333333333e-01
-1.666666666666667e-01  1.666666666666665e-01  3.333333333333333e-01
-1.666666666666667e-01  1.666666666666665e-01  3.333333333333333e-01
-1.666666666666667e-01  1.666666666666665e-01  3.333333333333333e-01
-1.666666666666667e-01  1.666666666666665e-01  3.333333333333333e-01
-1.666666666666667e-01  1.666666666666665e-01  3.333333333333333e-01
-1.666666666666667e-01  1.666666666666665e-01  3.333333333333333e-01
-1.666666666666667e-01  1.666666666666665e-01  3.333333333333333e-01
-1.666666666666667e-01  1.666666666666665e-01  3.333333333333333e-01
-1.666666666666667e-01  1.666666666666665e-01  3.333333333333333e-01
-1.666666666666667e-01  1.666666666666665e-01  3.333333333333333e-01
-1.666666666666667e-01  1.666666666666665e-01  3.333333333333333e-01
-1.666666666666667e-01  1.666666666666665e-01  3.333333333333333e-01
-1.666666666666667e-01  1.666666666666665e-01  3.333333333333333e-01
-1.666666666666667e-01  1.666666666666665e-01  3.333333333333333e-01
-1.666666666666667e-01  1.666666666666665e-01  3.333333333333333e-01
-1.666666666666667e-01  1.666666666666665e-01  3.333333333333333e-01
-1.666666666666667e-01  1.666666666666665e-01  3.333333333333333e-01
-1.666666666666667e-01  1.666666666666665e-01  3.333333333333333e-01
-1.666666666666667e-01  1.666666666666665e-01  3.333333333333333e-01
-1.666666666666667e-01  1.666666666666665e-01  3.333333333333333e-01
-1.666666666666667e-01  1.666666666666665e-01  3.333333333333333e-01
-1.666666666666667e-01  1.666666666666665e-01  3.333333333333333e-01
-1.666666666666667e-01  1.666666666666665e-01  3.333333333333333e-01
-1.666666666666667e-01  1.666666666666665e-01  3.333333333333333e-01
-1.666666666666667e-01  1.666666666666665e-01  3.333333333333333e-01
-1.666666666666667e-01  1.666666666666665e-01  3.333333333333333e-01
-1.666666666666667e-01  1.666666666666665e-01  3.333333333333333e-01
-1.666666666666667e-01  1.666666666666665e-01  3.333333333333333e-01
-1.666666666666667e-01  1.666666666666665e-01  3.333333333333333e-01
-1.666666666666667e-01  1.666666666666665e-01  3.333333333333333e-01
-1.666666666666667e-01  1.666666666666665e-01  3.333333333333333e-01
-1.666666666666667e-01  1.666666666666665e-01  3.333333333333333e-01
-1.666666666666667e-01  1.666666666666665e-01  3.333333333333333e-01
-1.666666666666667e-01  1.666666666666665e-01  3.333333333333333e-01
-1.666666666666667e-01  1.666666666666665e-01  3.333333333333333e-01
-1.666666666666667e-01  1.666666666666665e-01  3.333333333333333e-01
-1.666666666666667e-01  1.666666666666665e-01  3.333333333333333e-01
-1.666666666666667e-01  1.666666666666665e-01  3.333333333333333e-01
-1.666666666666667e-01  1.666666666666665e-01  3.333333333333333e-01
-1.666666666666667e-01  1.666666666666665e-01  3.333333333333333e-01
-1.666666666666667e-01  1.666666666666665e-01  3.333333333333333e-01
-1.666666666666667e-01  1.666666666666665e-01  3.333333333333333e-01
-1.666666666666667e-01  1.666666666666665e-01  3.333333333333333e-01
-1.666666666666667e-01  1.666666666666665e-01  3.333333333333333e-01
-1.666666666666667e-01  1.666666666666665e-01  3.333333333333333e-01
-1.666666666666667e-01  1.666666666666665e-01  3.333333333333333e-01
-1.666666666666667e-01  1.666666666666665e-01  3.333333333333333e-01
-1.666666666666667e-01  1.666666666666665e-01  3.333333333333333e-01
-1.666666666666667e-01  1.666666666666665e-01  3.333333333333333e-01
-1.666666666666667e-01  1.666666666666665e-01  3.333333333333333e-01
-1.666666666666667e-01  1.666666666666665e-01  3.333333333333333e-01
-1.666666666666667e-01  1.666666666666665e-01  3.333333333333333e-01
-1.666666666666667e-01  1.666666666666665e-01  3.333333333333333e-01
-1.666666666666667e-01  1.666666666666665e-01  3.333333333333333e-01
-1.666666666666667e-01  1.666666666666665e-01  3.333333333333333e-01
-1.666666666666667e-01  1.666666666666665e-01  3.333333333333333e-01
-1.666666666666667e-01  1.666666666666665e-01  3.333333333333333e-01
-1.666666666666667e-01  1.666666666666665e-01  3.333333333333333e-01
-1.666666666666667e-01  1.666666666666665e-01  3.333333333333333e-01
-1.666666666666667e-01  1.666666666666665e-01  3.333333333333333e-01
-1.666666666666667e-01  1.666666666666665e-01  3.333333333333333e-01
-1.666666666666667e-01  1.666666666666665e-01  3.333333333333333e-01
-1.666666666666667e-01  1.666666666666665e-01  3.333333333333333e-01
-1.666666666666667e-01  1.666666666666665e-01  3.333333333333333e-01
-1.666666666666667e-01  1.666666666666665e-01  3.333333333333333e-01
-1.666666666666667e-01  1.666666666666665e-01  3.333333333333333e-01
-1.666666666666667e-01  1.666666666666665e-01  3.333333333333333e-01
-1.666666666666667e-01  1.666666666666665e-01  3.333333333333333e-01
-1.666666666666667e-01  1.666666666666665e-01  3.333333333333333e-01
-1.666666666666667e-01  1.666666666666665e-01  3.333333333333333e-01
-1.666666666666667e-01  1.666666666666665e-01  3.333333333333333e-01
-1.666666666666667e-01  1.666666666666665e-01  3.333333333333333e-01
-1.666666666666667e-01  1.666666666666665e-01  3.333333333333333e-01
-1.666666666666667e-01  1.666666666666665e-01  3.333333333333333e-01
-1.666666666666667e-01  1.666666666666665e-01  3.333333333333333e-01
-1.666666666666667e-01  1.666666666666665e-01  3.333333333333333e-01
-1.666666666666667e-01  1.666666666666665e-01  3.333333333333333e-01
-1.666666666666667e-01  1.666666666666665e-01  3.333333333333333e-01
-1.666666666666667e-01  1.666666666666665e-01  3.333333333333333e-01
-1.666666666666667e-01  1.666666666666665e-01  3.333333333333333e-01
-1.666666666666667e-01  1.666666666666665e-01  3.333333333333333e-01
-1.666666666666667e-01  1.666666666666665e-01  3.333333333333333e-01
-1.666666666666667e-01  1.666666666666665e-01  3.333333333333333e-01
-1.666666666666667e-01  1.666666666666665e-01  3.333333333333333e-01
-1.666666666666667e-01  1.666666666666665e-01  3.333333333333333e-01
-1.666666666666667e-01  1.666666666666665e-01  3.333333333333333e-01
-1.666666666666667e-01  1.666666666666665e-01  3.333333333333333e-01
-1.666666666666667e-01  1.666666666666665e-01  3.333333333333333e-01
-1.666666666666667e-01  1.666666666666665e-01  3.333333333333333e-01
-1.666666666666667e-01  1.666666666666665e-01  3.333333333333333e-01
-1.666666666666667e-01  1.666666666666665e-01  3.333333333333333e-01
-1.666666666666667e-01  1.666666666666665e-01  3.333333333333333e-01
-1.666666666666667e-01  1.666666666666665e-01  3.333333333333333e-01
-1.666666666666667e-01  1.666666666666665e-01  3.333333333333333e-01
-1.666666666666667e-01  1.666666666666665e-01  3.333333333333333e-01
-1.666666666666667e-01  1.666666666666665e-01  3.333333333333333e-01
-1.666666666666667e-01  1.666666666666665e-01  3.333333333333333e-01
-1.666666666666667e-01  1.666666666666665e-01  3.333333333333333e-01
-1.666666666666667e-01  1.666666666666665e-01  3.333333333333333e-01
-1.666666666666667e-01  1.666666666666665e-01  3.333333333333333e-01
-1.666666666666667e-01  1.666666666666665e-01  3.333333333333333e-01
-1.666666666666667e-01  1.666666666666665e-01  3.333333333333333e-01
-1.666666666666667e-01  1.666666666666665e-01  3.333333333333333e-01
-1.666666666666667e-01  1.666666666666665e-01  3.333333333333333e-01
-1.666666666666667e-01  1.666666666666665e-01  3.333333333333333e-01
-1.666666666666667e-01  1.666666666666665e-01  3.333333333333333e-01
-1.666666666666667e-01  1.666666666666665e-01  3.333333333333333e-01
-1.666666666666667e-01  1.666666666666665e-01  3.333333333333333e-01
-1.666666666666667e-01  1.666666666666665e-01  3.333333333333333e-01
-1.666666666666667e-01  1.666666666666665e-01  3.333333333333333e-01
-1.666666666666667e-01  1.666666666666665e-01  3.333333333333333e-01
-1.666666666666667e-01  1.666666666666665e-01  3.333333333333333e-01
-1.666666666666667e-01  1.666666666666665e-01  3.333333333333333e-01
-1.666666666666667e-01  1.666666666666665e-01  3.333333333333333e-01
-1.666666666666667e-01  1.666666666666665e-01  3.333333333333333e-01
-1.666666666666667e-01  1.666666666666665e-01  3.333333333333333e-01
-1.666666666666667e-01  1.666666666666665e-01  3.333333333333333e-01
-1.666666666666667e-01  1.666666666666665e-01  3.333333333333333e-01
-1.666666666666667e-01  1.666666666666665e-01  3.333333333333333e-01
-1.666666666666667e-01  1.666666666666665e-01  3.333333333333333e-01
-1.666666666666667e-01  1.666666666666665e-01  3.333333333333333e-01
-1.666666666666667e-01  1.666666666666665e-01  3.333333333333333e-01
-1.666666666666667e-01  1.666666666666665e-01  3.333333333333333e-01
-1.666666666666667e-01  1.666666666666665e-01  3.333333333333333e-01
-1.666666666666667e-01  1.666666666666665e-01  3.333333333333333e-01
-1.666666666666667e-01  1.666666666666665e-01  3.333333333333333e-01
-1.666666666666667e-01  1.666666666666665e-01  3.333333333333333e-01
-1.666666666666667e-01  1.666666666666665e-01  3.333333333333333e-01
-1.666666666666667e-01  1.666666666666665e-01  3.333333333333333e-01
-1.666666666666667e-01  1.666666666666665e-01  3.333333333333333e-01
-1.666666666666667e-01  1.666666666666665e-01  3.333333333333333e-01
-1.666666666666667e-01  1.666666666666665e-01  3.333333333333333e-01
-1.666666666666667e-01  1.666666666666665e-01  3.333333333333333e-01
-1.666666666666667e-01  1.666666666666665e-01  3.333333333333333e-01
-1.666666666666667e-01  1.666666666666665e-01  3.333333333333333e-01
-1.666666666666667e-01  1.666666666666665e-01  3.333333333333333e-01
-1.666666666666667e-01  1.666666666666665e-01  3.333333333333333e-01
-1.666666666666667e-01  1.666666666666665e-01  3.333333333333333e-01
-1.666666666666667e-01  1.666666666666665e-01  3.333333333333333e-01
-1.666666666666667e-01  1.666666666666665e-01  3.333333333333333e-01
-1.666666666666667e-01  1.666666666666665e-01  3.333333333333333e-01
-1.666666666666667e-01  1.666666666666665e-01  3.333333333333333e-01
-1.666666666666667e-01  1.666666666666665e-01  3.333333333333333e-01
-1.666666666666667e-01  1.666666666666665e-01  3.333333333333333e-01
-1.666666666666667e-01  1.666666666666665e-01  3.333333333333333e-01
 1.666666666666667e-01 -1.666666666666665e-01 -3.333333333333333e-01
-1.666666666666667e-01  1.666666666666665e-01  3.333333333333333e-01
-1.666666666666667e-01  1.666666666666665e-01  3.333333333333333e-01
-1.666666666666667e-01  1.666666666666665e-01  3.333333333333333e-01
-1.666666666666667e-01  1.666666666666665e-01  3.333333333333333e-01
-1.666666666666667e-01  1.666666666666665e-01  3.333333333333333e-01
-1.666666666666667e-01  1.666666666666665e-01  3.333333333333333e-01
-1.666666666666667e-01  1.666666666666665e-01  3.333333333333333e-01
-1.666666666666667e-01  1.666666666666665e-01  3.333333333333333e-01
-1.666666666666667e-01  1.666666666666665e-01  3.333333333333333e-01
-1.666666666666667e-01  1.666666666666665e-01  3.333333333333333e-01
-1.666666666666667e-01  1.666666666666665e-01  3.333333333333333e-01
-1.666666666666667e-01  1.666666666666665e-01  3.333333333333333e-01
-1.666666666666667e-01  1.666666666666665e-01  3.333333333333333e-01
-1.666666666666667e-01  1.666666666666665e-01  3.333333333333333e-01
-1.666666666666667e-01  1.666666666666665e-01  3.333333333333333e-01
-1.666666666666667e-01  1.666666666666665e-01  3.333333333333333e-01
-1.666666666666667e-01  1.666666666666665e-01  3.333333333333333e-01
-1.666666666666667e-01  1.666666666666665e-01  3.333333333333333e-01
-1.666666666666667e-01  1.666666666666665e-01  3.333333333333333e-01
-1.666666666666667e-01  1.666666666666665e-01  3.333333333333333e-01
-1.666666666666667e-01  1.666666666666665e-01  3.333333333333333e-01
-1.666666666666667e-01  1.666666666666665e-01  3.333333333333333e-01
-1.666666666666667e-01  1.666666666666665e-01  3.333333333333333e-01
-1.666666666666667e-01  1.666666666666665e-01  3.333333333333333e-01
-1.666666666666667e-01  1.666666666666665e-01  3.333333333333333e-01
-1.666666666666667e-01  1.666666666666665e-01  3.333333333333333e-01
-1.666666666666667e-01  1.666666666666665e-01  3.333333333333333e-01
-1.666666666666667e-01  1.666666666666665e-01  3.333333333333333e-01
-1.666666666666667e-01  1.666666666666665e-01  3.333333333333333e-01
-1.666666666666667e-01  1.666666666666665e-01  3.333333333333333e-01
-1.666666666666667e-01  1.666666666666665e-01  3.333333333333333e-01
-1.666666666666667e-01  1.666666666666665e-01  3.333333333333333e-01
-1.666666666666667e-01  1.666666666666665e-01  3.333333333333333e-01
-1.666666666666667e-01  1.666666666666665e-01  3.333333333333333e-01
-1.666666666666667e-01  1.666666666666665e-01  3.333333333333333e-01
-1.666666666666667e-01  1.666666666666665e-01  3.333333333333333e-01
-1.666666666666667e-01  1.666666666666665e-01  3.333333333333333e-01
-1.666666666666667e-01  1.666666666666665e-01  3.333333333333333e-01
-1.666666666666667e-01  1.666666666666665e-01  3.333333333333333e-01
-1.666666666666667e-01  1.666666666666665e-01  3.333333333333333e-01
-1.666666666666667e-01  1.666666666666665e-01  3.333333333333333e-01
-1.666666666666667e-01  1.666666666666665e-01  3.333333333333333e-01
-1.666666666666667e-01  1.666666666666665e-01  3.333333333333333e-01
-1.666666666666667e-01  1.666666666666665e-01  3.333333333333333e-01
-1.666666666666667e-01  1.666666666666665e-01  3.333333333333333e-01
-1.666666666666667e-01  1.666666666666665e-01  3.333333333333333e-01
-1.666666666666667e-01  1.666666666666665e-01  3.333333333333333e-01
-1.666666666666667e-01  1.666666666666665e-01  3.333333333333333e-01
-1.666666666666667e-01  1.666666666666665e-01  3.333333333333333e-01
-1.666666666666667e-01  1.666666666666665e-01  3.333333333333333e-01
-1.666666666666667e-01  1.666666666666665e-01  3.333333333333333e-01
-1.666666666666667e-01  1.666666666666665e-01  3.333333333333333e-01
-1.666666666666667e-01  1.666666666666665e-01  3.333333333333333e-01
-1.666666666666667e-01  1.666666666666665e-01  3.333333333333333e-01
-1.666666666666667e-01  1.666666666666665e-01  3.333333333333333e-01
-1.666666666666667e-01  1.666666666666665e-01  3.333333333333333e-01
-1.666666666666667e-01  1.666666666666665e-01  3.333333333333333e-01
-1.666666666666667e-01  1.666666666666665e-01  3.333333333333333e-01
-1.666666666666667e-01  1.666666666666665e-01  3.333333333333333e-01
-1.666666666666667e-01  1.666666666666665e-01  3.333333333333333e-01
-1.666666666666667e-01  1.666666666666665e-01  3.333333333333333e-01
-1.666666666666667e-01  1.666666666666665e-01  3.333333333333333e-01
-1.666666666666667e-01  1.666666666666665e-01  3.333333333333333e-01
-1.666666666666667e-01  1.666666666666665e-01  3.333333333333333e-01
-1.666666666666667e-01  1.666666666666665e-01  3.333333333333333e-01
-1.666666666666667e-01  1.666666666666665e-01  3.333333333333333e-01
-1.666666666666667e-01  1.666666666666665e-01  3.333333333333333e-01
-1.666666666666667e-01  1.666666666666665e-01  3.333333333333333e-01
-1.666666666666667e-01  1.666666666666665e-01  3.333333333333333e-01
-1.666666666666667e-01  1.666666666666665e-01  3.333333333333333e-01
-1.666666666666667e-01  1.666666666666665e-01  3.333333333333333e-01
-1.666666666666667e-01  1.666666666666665e-01  3.333333333333333e-01
-1.666666666666667e-01  1.666666666666665e-01  3.333333333333333e-01
-1.666666666666667e-01  1.666666666666665e-01  3.333333333333333e-01
-1.666666666666667e-01  1.666666666666665e-01  3.333333333333333e-01
-1.666666666666667e-01  1.666666666666665e-01  3.333333333333333e-01
-1.666666666666667e-01  1.666666666666665e-01  3.333333333333333e-01
-1.666666666666667e-01  1.666666666666665e-01  3.333333333333333e-01
-1.666666666666667e-01  1.666666666666665e-01  3.333333333333333e-01
-1.666666666666667e-01  1.666666666666665e-01  3.333333333333333e-01
-1.666666666666667e-01  1.666666666666665e-01  3.333333333333333e-01
-1.666666666666667e-01  1.666666666666665e-01  3.333333333333333e-01
-1.666666666666667e-01  1.666666666666665e-01  3.333333333333333e-01
-1.666666666666667e-01  1.666666666666665e-01  3.333333333333333e-01
-1.666666666666667e-01  1.666666666666665e-01  3.333333333333333e-01
-1.666666666666667e-01  1.666666666666665e-01  3.333333333333333e-01
-1.666666666666667e-01  1.666666666666665e-01  3.333333333333333e-01
-1.666666666666667e-01  1.666666666666665e-01  3.333333333333333e-01
-1.666666666666667e-01  1.666666666666665e-01  3.333333333333333e-01
-1.666666666666667e-01  1.666666666666665e-01  3.333333333333333e-01
-1.666666666666667e-01  1.666666666666665e-01  3.333333333333333e-01
-1.666666666666667e-01  1.666666666666665e-01  3.333333333333333e-01
-1.666666666666667e-01  1.666666666666665e-01  3.333333333333333e-01
-1.666666666666667e-01  1.666666666666665e-01  3.333333333333333e-01
-1.666666666666667e-01  1.666666666666665e-01  3.333333333333333e-01
-1.666666666666667e-01  1.666666666666665e-01  3.333333333333333e-01
-1.666666666666667e-01  1.666666666666665e-01  3.333333333333333e-01
-1.666666666666667e-01  1.666666666666665e-01  3.333333333333333e-01
-1.666666666666667e-01  1.666666666666665e-01  3.333333333333333e-01
-1.666666666666667e-01  1.666666666666665e-01  3.333333333333333e-01
-1.666666666666667e-01  1.666666666666665e-01  3.333333333333333e-01
-1.666666666666667e-01  1.666666666666665e-01  3.333333333333333e-01
-1.666666666666667e-01  1.666666666666665e-01  3.333333333333333e-01
-1.666666666666667e-01  1.666666666666665e-01  3.333333333333333e-01
-1.666666666666667e-01  1.666666666666665e-01  3.333333333333333e-01
-1.666666666666667e-01  1.666666666666665e-01  3.333333333333333e-01
-1.666666666666667e-01  1.666666666666665e-01  3.333333333333333e-01
-1.666666666666667e-01  1.666666666666665e-01  3.333333333333333e-01
-1.666666666666667e-01  1.666666666666665e-01  3.333333333333333e-01
-1.666666666666667e-01  1.666666666666665e-01  3.333333333333333e-01
-1.666666666666667e-01  1.666666666666665e-01  3.333333333333333e-01
-1.666666666666667e-01  1.666666666666665e-01  3.333333333333333e-01
-1.666666666666667e-01  1.666666666666665e-01  3.333333333333333e-01
-1.666666666666667e-01  1.666666666666665e-01  3.333333333333333e-01
-1.666666666666667e-01  1.666666666666665e-01  3.333333333333333e-01
-1.666666666666667e-01  1.666666666666665e-01  3.333333333333333e-01
-1.666666666666667e-01  1.666666666666665e-01  3.333333333333333e-01
-1.666666666666667e-01  1.666666666666665e-01  3.333333333333333e-01
-1.666666666666667e-01  1.666666666666665e-01  3.333333333333333e-01
-1.666666666666667e-01  1.666666666666665e-01  3.333333333333333e-01
-1.666666666666667e-01  1.666666666666665e-01  3.333333333333333e-01
-1.666666666666667e-01  1.666666666666665e-01  3.333333333333333e-01
-1.666666666666667e-01  1.666666666666665e-01  3.333333333333333e-01
-1.666666666666667e-01  1.666666666666665e-01  3.333333333333333e-01
-1.666666666666667e-01  1.666666666666665e-01  3.333333333333333e-01
-1.666666666666667e-01  1.666666666666665e-01  3.333333333333333e-01
-1.666666666666667e-01  1.666666666666665e-01  3.333333333333333e-01
-1.666666666666667e-01  1.666666666666665e-01  3.333333333333333e-01
-1.666666666666667e-01  1.666666666666665e-01  3.333333333333333e-01
-1.666666666666667e-01  1.666666666666665e-01  3.333333333333333e-01
-1.666666666666667e-01  1.666666666666665e-01  3.333333333333333e-01
-1.666666666666667e-01  1.666666666666665e-01  3.333333333333333e-01
-1.666666666666667e-01  1.666666666666665e-01  3.333333333333333e-01
-1.666666666666667e-01  1.666666666666665e-01  3.333333333333333e-01
-1.666666666666667e-01  1.666666666666665e-01  3.333333333333333e-01
-1.666666666666667e-01  1.666666666666665e-01  3.333333333333333e-01
-1.666666666666667e-01  1.666666666666665e-01  3.333333333333333e-01
-1.666666666666667e-01  1.666666666666665e-01  3.333333333333333e-01
-1.666666666666667e-01  1.666666666666665e-01  3.333333333333333e-01
-1.666666666666667e-01  1.666666666666665e-01  3.333333333333333e-01
-1.666666666666667e-01  1.666666666666665e-01  3.333333333333333e-01
-1.666666666666667e-01  1.666666666666665e-01  3.333333333333333e-01
-1.666666666666667e-01  1.666666666666665e-01  3.333333333333333e-01
-1.666666666666667e-01  1.666666666666665e-01  3.333333333333333e-01
-1.666666666666667e-01  1.666666666666665e-01  3.333333333333333e-01
-1.666666666666667e-01  1.666666666666665e-01  3.333333333333333e-01
-1.666666666666667e-01  1.666666666666665e-01  3.333333333333333e-01
-1.666666666666667e-01  1.666666666666665e-01  3.333333333333333e-01
-1.666666666666667e-01  1.666666666666665e-01  3.333333333333333e-01
-1.666666666666667e-01  1.666666666666665e-01  3.333333333333333e-01
-1.666666666666667e-01  1.666666666666665e-01  3.333333333333333e-01
-1.666666666666667e-01  1.666666666666665e-01  3.333333333333333e-01
-1.666666666666667e-01  1.666666666666665e-01  3.333333333333333e-01
-1.666666666666667e-01  1.666666666666665e-01  3.333333333333333e-01
-1.666666666666667e-01  1.666666666666665e-01  3.333333333333333e-01
-1.666666666666667e-01  1.666666666666665e-01  3.333333333333333e-01
-1.666666666666667e-01  1.666666666666665e-01  3.333333333333333e-01
-1.666666666666667e-01  1.666666666666665e-01  3.333333333333333e-01
-1.666666666666667e-01  1.666666666666665e-01  3.333333333333333e-01
-1.666666666666667e-01  1.666666666666665e-01  3.333333333333333e-01
-1.666666666666667e-01  1.666666666666665e-01  3.333333333333333e-01
-1.666666666666667e-01  1.666666666666665e-01  3.333333333333333e-01
-1.666666666666667e-01  1.666666666666665e-01  3.333333333333333e-01
-1.666666666666667e-01  1.666666666666665e-01  3.333333333333333e-01
-1.666666666666667e-01  1.666666666666665e-01  3.333333333333333e-01
-1.666666666666667e-01  1.666666666666665e-01  3.333333333333333e-01
-1.666666666666667e-01  1.666666666666665e-01  3.333333333333333e-01
-1.666666666666667e-01  1.666666666666665e-01  3.333333333333333e-01
-1.666666666666667e-01  1.666666666666665e-01  3.333333333333333e-01
-1.666666666666667e-01  1.666666666666665e-01  3.333333333333333e-01
-1.666666666666667e-01  1.666666666666665e-01  3.333333333333333e-01
-1.666666666666667e-01  1.666666666666665e-01  3.333333333333333e-01
-1.666666666666667e-01  1.666666666666665e-01  3.333333333333333e-01
-1.666666666666667e-01  1.666666666666665e-01  3.333333333333333e-01
-1.666666666666667e-01  1.666666666666665e-01  3.333333333333333e-01
-1.666666666666667e-01  1.666666666666665e-01  3.333333333333333e-01
-1.666666666666667e-01  1.666666666666665e-01  3.333333333333333e-01
-1.666666666666667e-01  1.666666666666665e-01  3.333333333333333e-01
-1.666666666666667e-01  1.666666666666665e-01  3.333333333333333e-01
-1.666666666666667e-01  1.666666666666665e-01  3.333333333333333e-01
-1.666666666666667e-01  1.666666666666665e-01  3.333333333333333e-01
-1.666666666666667e-01  1.666666666666665e-01  3.333333333333333e-01
-1.666666666666667e-01  1.666666666666665e-01  3.333333333333333e-01
-1.666666666666667e-01  1.666666666666665e-01  3.333333333333333e-01
-1.666666666666667e-01  1.666666666666665e-01  3.333333333333333e-01
-1.666666666666667e-01  1.666666666666665e-01  3.333333333333333e-01
-1.666666666666667e-01  1.666666666666665e-01  3.333333333333333e-01
-1.666666666666667e-01  1.666666666666665e-01  3.333333333333333e-01
-1.666666666666667e-01  1.666666666666665e-01  3.333333333333333e-01
-1.666666666666667e-01  1.666666666666665e-01  3.333333333333333e-01
-1.666666666666667e-01  1.666666666666665e-01  3.333333333333333e-01
-1.666666666666667e-01  1.666666666666665e-01  3.333333333333333e-01
-1.666666666666667e-01  1.666666666666665e-01  3.333333333333333e-01
-1.666666666666667e-01  1.666666666666665e-01  3.333333333333333e-01
-1.666666666666667e-01  1.666666666666665e-01  3.333333333333333e-01
-1.666666666666667e-01  1.666666666666665e-01  3.333333333333333e-01
-1.666666666666667e-01  1.666666666666665e-01  3.333333333333333e-01
-1.666666666666667e-01  1.666666666666665e-01  3.333333333333333e-01
-1.666666666666667e-01  1.666666666666665e-01  3.333333333333333e-01
-1.666666666666667e-01  1.666666666666665e-01  3.333333333333333e-01
-1.666666666666667e-01  1.666666666666665e-01  3.333333333333333e-01
-1.666666666666667e-01  1.666666666666665e-01  3.333333333333333e-01
-1.666666666666667e-01  1.666666666666665e-01  3.333333333333333e-01
-1.666666666666667e-01  1.666666666666665e-01  3.333333333333333e-01
-1.666666666666667e-01  1.666666666666665e-01  3.333333333333333e-01
-1.666666666666667e-01  1.666666666666665e-01  3.333333333333333e-01
-1.666666666666667e-01  1.666666666666665e-01  3.333333333333333e-01
-1.666666666666667e-01  1.666666666666665e-01  3.333333333333333e-01
-1.666666666666667e-01  1.666666666666665e-01  3.333333333333333e-01
-1.666666666666667e-01  1.666666666666665e-01  3.333333333333333e-01
-1.666666666666667e-01  1.666666666666665e-01  3.333333333333333e-01
-1.666666666666667e-01  1.666666666666665e-01  3.333333333333333e-01
-1.666666666666667e-01  1.666666666666665e-01  3.333333333333333e-01
-1.666666666666667e-01  1.666666666666665e-01  3.333333333333333e-01
-1.666666666666667e-01  1.666666666666665e-01  3.333333333333333e-01
-1.666666666666667e-01  1.666666666666665e-01  3.333333333333333e-01
-1.666666666666667e-01  1.666666666666665e-01  3.333333333333333e-01
-1.666666666666667e-01  1.666666666666665e-01  3.333333333333333e-01
-1.666666666666667e-01  1.666666666666665e-01  3.333333333333333e-01
-1.666666666666667e-01  1.666666666666665e-01  3.333333333333333e-01
-1.666666666666667e-01  1.666666666666665e-01  3.333333333333333e-01
-1.666666666666667e-01  1.666666666666665e-01  3.333333333333333e-01
-1.666666666666667e-01  1.666666666666665e-01  3.333333333333333e-01
-1.666666666666667e-01  1.666666666666665e-01  3.333333333333333e-01
-1.666666666666667e-01  1.666666666666665e-01  3.333333333333333e-01
-1.666666666666667e-01  1.666666666666665e-01  3.333333333333333e-01
-1.666666666666667e-01  1.666666666666665e-01  3.333333333333333e-01
-1.666666666666667e-01  1.666666666666665e-01  3.333333333333333e-01
-1.666666666666667e-01  1.666666666666665e-01  3.333333333333333e-01
-1.666666666666667e-01  1.666666666666665e-01  3.333333333333333e-01
-1.666666666666667e-01  1.666666666666665e-01  3.333333333333333e-01
-1.666666666666667e-01  1.666666666666665e-01  3.333333333333333e-01
-1.666666666666667e-01  1.666666666666665e-01  3.333333333333333e-01
-1.666666666666667e-01  1.666666666666665e-01  3.333333333333333e-01
-1.666666666666667e-01  1.666666666666665e-01  3.333333333333333e-01
-1.666666666666667e-01  1.666666666666665e-01  3.333333333333333e-01
-1.666666666666667e-01  1.666666666666665e-01  3.333333333333333e-01
-1.666666666666667e-01  1.666666666666665e-01  3.333333333333333e-01
-1.666666666666667e-01  1.666666666666665e-01  3.333333333333333e-01
-1.666666666666667e-01  1.666666666666665e-01  3.333333333333333e-01
-1.666666666666667e-01  1.666666666666665e-01  3.333333333333333e-01
-1.666666666666667e-01  1.666666666666665e-01  3.333333333333333e-01
-1.666666666666667e-01  1.666666666666665e-01  3.333333333333333e-01
-1.666666666666667e-01  1.666666666666665e-01  3.333333333333333e-01
-1.666666666666667e-01  1.666666666666665e-01  3.333333333333333e-01
-1.666666666666667e-01  1.666666666666665e-01  3.333333333333333e-01
-1.666666666666667e-01  1.666666666666665e-01  3.333333333333333e-01
-1.666666666666667e-01  1.666666666666665e-01  3.333333333333333e-01
-1.666666666666667e-01  1.666666666666665e-01  3.333333333333333e-01
-1.666666666666667e-01  1.666666666666665e-01  3.333333333333333e-01
-1.666666666666667e-01  1.666666666666665e-01  3.333333333333333e-01
-1.666666666666667e-01  1.666666666666665e-01  3.333333333333333e-01
-1.666666666666667e-01  1.666666666666665e-01  3.333333333333333e-01
-1.666666666666667e-01  1.666666666666665e-01  3.333333333333333e-01
-1.666666666666667e-01  1.666666666666665e-01  3.333333333333333e-01
-1.666666666666667e-01  1.666666666666665e-01  3.333333333333333e-01
-1.666666666666667e-01  1.666666666666665e-01  3.333333333333333e-01
-1.666666666666667e-01  1.666666666666665e-01  3.333333333333333e-01
-1.666666666666667e-01  1.666666666666665e-01  3.333333333333333e-01
-1.666666666666667e-01  1.666666666666665e-01  3.333333333333333e-01
-1.666666666666667e-01  1.666666666666665e-01  3.333333333333333e-01
-1.666666666666667e-01  1.666666666666665e-01  3.333333333333333e-01
-1.666666666666667e-01  1.666666666666665e-01  3.333333333333333e-01
-1.666666666666667e-01  1.666666666666665e-01  3.333333333333333e-01
-1.666666666666667e-01  1.666666666666665e-01  3.333333333333333e-01
-1.666666666666667e-01  1.666666666666665e-01  3.333333333333333e-01
-1.666666666666667e-01  1.666666666666665e-01  3.333333333333333e-01
-1.666666666666667e-01  1.666666666666665e-01  3.333333333333333e-01
-1.666666666666667e-01  1.666666666666665e-01  3.333333333333333e-01
-1.666666666666667e-01  1.666666666666665e-01  3.333333333333333e-01
-1.666666666666667e-01  1.666666666666665e-01  3.333333333333333e-01
-1.666666666666667e-01  1.666666666666665e-01  3.333333333333333e-01
-1.666666666666667e-01  1.666666666666665e-01  3.333333333333333e-01
-1.666666666666667e-01  1.666666666666665e-01  3.333333333333333e-01
-1.666666666666667e-01  1.666666666666665e-01  3.333333333333333e-01
-1.666666666666667e-01  1.666666666666665e-01  3.333333333333333e-01
-1.666666666666667e-01  1.666666666666665e-01  3.333333333333333e-01
-1.666666666666667e-01  1.666666666666665e-01  3.333333333333333e-01
-1.666666666666667e-01  1.666666666666665e-01  3.333333333333333e-01
-1.666666666666667e-01  1.666666666666665e-01  3.333333333333333e-01
-1.666666666666667e-01  1.666666666666665e-01  3.333333333333333e-01
-1.666666666666667e-01  1.666666666666665e-01  3.333333333333333e-01
-1.666666666666667e-01  1.666666666666665e-01  3.333333333333333e-01
-1.666666666666667e-01  1.666666666666665e-01  3.333333333333333e-01
-1.666666666666667e-01  1.666666666666665e-01  3.333333333333333e-01
-1.666666666666667e-01  1.666666666666665e-01  3.333333333333333e-01
-1.666666666666667e-01  1.666666666666665e-01  3.333333333333333e-01
-1.666666666666667e-01  1.666666666666665e-01  3.333333333333333e-01
-1.666666666666667e-01  1.666666666666665e-01  3.333333333333333e-01
-1.666666666666667e-01  1.666666666666665e-01  3.333333333333333e-01
-1.666666666666667e-01  1.666666666666665e-01  3.333333333333333e-01
-1.666666666666667e-01  1.666666666666665e-01  3.333333333333333e-01
-1.666666666666667e-01  1.666666666666665e-01  3.333333333333333e-01
-1.666666666666667e-01  1.666666666666665e-01  3.333333333333333e-01
-1.666666666666667e-01  1.666666666666665e-01  3.333333333333333e-01
-1.666666666666667e-01  1.666666666666665e-01  3.333333333333333e-01
-1.666666666666667e-01  1.666666666666665e-01  3.333333333333333e-01
-1.666666666666667e-01  1.666666666666665e-01  3.333333333333333e-01
-1.666666666666667e-01  1.666666666666665e-01  3.333333333333333e-01
-1.666666666666667e-01  1.666666666666665e-01  3.333333333333333e-01
-1.666666666666667e-01  1.666666666666665e-01  3.333333333333333e-01
-1.666666666666667e-01  1.666666666666665e-01  3.333333333333333e-01
-1.666666666666667e-01  1.666666666666665e-01  3.333333333333333e-01
-1.666666666666667e-01  1.666666666666665e-01  3.333333333333333e-01
-1.666666666666667e-01  1.666666666666665e-01  3.333333333333333e-01
-1.666666666666667e-01  1.666666666666665e-01  3.333333333333333e-01
-1.666666666666667e-01  1.666666666666665e-01  3.333333333333333e-01
-1.666666666666667e-01  1.666666666666665e-01  3.333333333333333e-01
-1.666666666666667e-01  1.666666666666665e-01  3.333333333333333e-01
-1.666666666666667e-01  1.666666666666665e-01  3.333333333333333e-01
-1.666666666666667e-01  1.666666666666665e-01  3.333333333333333e-01
-1.666666666666667e-01  1.666666666666665e-01  3.333333333333333e-01
-1.666666666666667e-01  1.666666666666665e-01  3.333333333333333e-01
-1.666666666666667e-01  1.666666666666665e-01  3.333333333333333e-01
-1.666666666666667e-01  1.666666666666665e-01  3.333333333333333e-01
-1.666666666666667e-01  1.666666666666665e-01  3.333333333333333e-01
-1.666666666666667e-01  1.666666666666665e-01  3.333333333333333e-01
-1.666666666666667e-01  1.666666666666665e-01  3.333333333333333e-01
-1.666666666666667e-01  1.666666666666665e-01  3.333333333333333e-01
-1.666666666666667e-01  1.666666666666665e-01  3.333333333333333e-01
-1.666666666666667e-01  1.666666666666665e-01  3.333333333333333e-01
-1.666666666666667e-01  1.666666666666665e-01  3.333333333333333e-01
-1.666666666666667e-01  1.666666666666665e-01  3.333333333333333e-01
-1.666666666666667e-01  1.666666666666665e-01  3.333333333333333e-01
-1.666666666666667e-01  1.666666666666665e-01  3.333333333333333e-01
-1.666666666666667e-01  1.666666666666665e-01  3.333333333333333e-01
-1.666666666666667e-01  1.666666666666665e-01  3.333333333333333e-01
-1.666666666666667e-01  1.666666666666665e-01  3.333333333333333e-01
-1.666666666666667e-01  1.666666666666665e-01  3.333333333333333e-01
-1.666666666666667e-01  1.666666666666665e-01  3.333333333333333e-01
-1.666666666666667e-01  1.666666666666665e-01  3.333333333333333e-01
-1.666666666666667e-01  1.666666666666665e-01  3.333333333333333e-01
-1.666666666666667e-01  1.666666666666665e-01  3.333333333333333e-01
-1.666666666666667e-01  1.666666666666665e-01  3.333333333333333e-01
-1.666666666666667e-01  1.666666666666665e-01  3.333333333333333e-01
-1.666666666666667e-01  1.666666666666665e-01  3.333333333333333e-01
-1.666666666666667e-01  1.666666666666665e-01  3.333333333333333e-01
-1.666666666666667e-01  1.666666666666665e-01  3.333333333333333e-01
-1.666666666666667e-01  1.666666666666665e-01  3.333333333333333e-01
-1.666666666666667e-01  1.666666666666665e-01  3.333333333333333e-01
-1.666666666666667e-01  1.666666666666665e-01  3.333333333333333e-01
-1.666666666666667e-01  1.666666666666665e-01  3.333333333333333e-01
-1.666666666666667e-01  1.666666666666665e-01  3.333333333333333e-01
-1.666666666666667e-01  1.666666666666665e-01  3.333333333333333e-01
-1.666666666666667e-01  1.666666666666665e-01  3.333333333333333e-01
-1.666666666666667e-01  1.666666666666665e-01  3.333333333333333e-01
-1.666666666666667e-01  1.666666666666665e-01  3.333333333333333e-01
-1.666666666666667e-01  1.666666666666665e-01  3.333333333333333e-01
-1.666666666666667e-01  1.666666666666665e-01  3.333333333333333e-01
-1.666666666666667e-01  1.666666666666665e-01  3.333333333333333e-01
-1.666666666666667e-01  1.666666666666665e-01  3.333333333333333e-01
-1.666666666666667e-01  1.666666666666665e-01  3.333333333333333e-01
-1.666666666666667e-01  1.666666666666665e-01  3.333333333333333e-01
-1.666666666666667e-01  1.666666666666665e-01  3.333333333333333e-01
-1.666666666666667e-01  1.666666666666665e-01  3.333333333333333e-01
-1.666666666666667e-01  1.666666666666665e-01  3.333333333333333e-01
-1.666666666666667e-01  1.666666666666665e-01  3.333333333333333e-01
-1.666666666666667e-01  1.666666666666665e-01  3.333333333333333e-01
-1.666666666666667e-01  1.666666666666665e-01  3.333333333333333e-01
-1.666666666666667e-01  1.666666666666665e-01  3.333333333333333e-01
-1.666666666666667e-01  1.666666666666665e-01  3.333333333333333e-01
-1.666666666666667e-01  1.666666666666665e-01  3.333333333333333e-01
-1.666666666666667e-01  1.666666666666665e-01  3.333333333333333e-01
-1.666666666666667e-01  1.666666666666665e-01  3.333333333333333e-01
-1.666666666666667e-01  1.666666666666665e-01  3.333333333333333e-01
-1.666666666666667e-01  1.666666666666665e-01  3.333333333333333e-01
-1.666666666666667e-01  1.666666666666665e-01  3.333333333333333e-01
-1.666666666666667e-01  1.666666666666665e-01  3.333333333333333e-01
-1.666666666666667e-01  1.666666666666665e-01  3.333333333333333e-01
-1.666666666666667e-01  1.666666666666665e-01  3.333333333333333e-01
-1.666666666666667e-01  1.666666666666665e-01  3.333333333333333e-01
-1.666666666666667e-01  1.666666666666665e-01  3.333333333333333e-01
-1.666666666666667e-01  1.666666666666665e-01  3.333333333333333e-01
-1.666666666666667e-01  1.666666666666665e-01  3.333333333333333e-01
-1.666666666666667e-01  1.666666666666665e-01  3.333333333333333e-01
-1.666666666666667e-01  1.666666666666665e-01  3.333333333333333e-01
-1.666666666666667e-01  1.666666666666665e-01  3.333333333333333e-01
-1.666666666666667e-01  1.666666666666665e-01  3.333333333333333e-01
-1.666666666666667e-01  1.666666666666665e-01  3.333333333333333e-01
-1.666666666666667e-01  1.666666666666665e-01  3.333333333333333e-01
-1.666666666666667e-01  1.666666666666665e-01  3.333333333333333e-01
-1.666666666666667e-01  1.666666666666665e-01  3.333333333333333e-01
-1.666666666666667e-01  1.666666666666665e-01  3.333333333333333e-01
-1.666666666666667e-01  1.666666666666665e-01  3.333333333333333e-01
