# vtk DataFile Version 3.0
# Dislocation lines converted from MoDELib file
ASCII
DATASET UNSTRUCTURED_GRID
POINTS 4108 double
-1.429999999999877e+00  3.863858941524650e+02 -2.918975276816622e+03
-1.429999999999897e+00 -3.863858941524674e+02 -2.918975276816622e+03
-1.429999999999897e+00  0.000000000000000e+00 -2.918975276816622e+03
-1.430000000000221e+00  0.000000000000000e+00  2.918975276816619e+03
-1.430000000000221e+00 -3.863858941524674e+02  2.918975276816619e+03
-1.430000000000201e+00  3.863858941524653e+02  2.918975276816619e+03
-1.148195710335089e+03  1.176984447373056e+00 -2.918975276816622e+03
-1.148194195852652e+03 -9.080568351394415e-01 -2.918975276816622e+03
-1.148543806110805e+03 -1.706825558865689e+00 -2.918975276816622e+03
-1.148567896152370e+03 -3.888772598026879e+00 -2.918975276816622e+03
-1.148515890342535e+03 -4.739550081325085e+00 -2.918975276816622e+03
-1.148014946488741e+03 -6.685078779097879e+00 -2.918975276816622e+03
-1.148357911308517e+03 -8.246181511711770e+00 -2.918975276816622e+03
-1.147460753138911e+03 -1.100574982329908e+01 -2.918975276816622e+03
-1.148238491651185e+03 -1.083408485563583e+01 -2.918975276816622e+03
-1.147928536804921e+03 -1.334325335051915e+01 -2.918975276816622e+03
-1.149096629094537e+03 -1.455005298340917e+01 -2.918975276816622e+03
-1.148278769384704e+03 -1.690322633316216e+01 -2.918975276816622e+03
-1.148531843346068e+03 -2.021641143472885e+01 -2.918975276816622e+03
-1.148445884071987e+03 -2.301107205851942e+01 -2.918975276816622e+03
-1.148785217852703e+03 -2.679779159110573e+01 -2.918975276816622e+03
-1.148982123946124e+03 -2.743673865955112e+01 -2.918975276816622e+03
-1.148158159659524e+03 -3.033488878503815e+01 -2.918975276816622e+03
-1.149287964809231e+03 -3.122874151432718e+01 -2.918975276816622e+03
-1.148481858224156e+03 -3.304716303692978e+01 -2.918975276816622e+03
-1.148715137481338e+03 -3.405341338597326e+01 -2.918975276816622e+03
-1.148371961214224e+03 -3.515162335429645e+01 -2.918975276816622e+03
-1.148682421791818e+03 -3.599884170627593e+01 -2.918975276816622e+03
-1.148265466697376e+03 -3.860203151622979e+01 -2.918975276816622e+03
-1.148381678034402e+03 -4.031990435202727e+01 -2.918975276816622e+03
-1.148025319826317e+03 -4.140372167957226e+01 -2.918975276816622e+03
-1.148124316895055e+03 -4.338596947459754e+01 -2.918975276816622e+03
-1.147723378571149e+03 -4.491988784177617e+01 -2.918975276816622e+03
-1.147355637457106e+03 -4.729327207785884e+01 -2.918975276816622e+03
-1.147947331195734e+03 -4.731882167000531e+01 -2.918975276816622e+03
-1.148020608389611e+03 -4.984126156992119e+01 -2.918975276816622e+03
-1.147462802652217e+03 -5.050029763458694e+01 -2.918975276816622e+03
-1.147617051550031e+03 -5.213366701237349e+01 -2.918975276816622e+03
-1.147741686638203e+03 -5.395496196643284e+01 -2.918975276816622e+03
-1.147276353032225e+03 -5.437496114816732e+01 -2.918975276816622e+03
-1.147683539454535e+03 -5.593229698273930e+01 -2.918975276816622e+03
-1.147375225846059e+03 -5.861826135369106e+01 -2.918975276816622e+03
-1.147888916405764e+03 -6.038553833079331e+01 -2.918975276816622e+03
-1.147943441580842e+03 -6.143692051473830e+01 -2.918975276816622e+03
-1.148024001217733e+03 -6.336292771800231e+01 -2.918975276816622e+03
-1.147678788285252e+03 -6.431629241135769e+01 -2.918975276816622e+03
-1.147337499803783e+03 -6.614830002707400e+01 -2.918975276816622e+03
-1.147936849865511e+03 -6.728778815701057e+01 -2.918975276816622e+03
-1.147815891535509e+03 -6.985942566508913e+01 -2.918975276816622e+03
-1.147642597695037e+03 -7.051128220040802e+01 -2.918975276816622e+03
-1.147593904301132e+03 -7.197384557374946e+01 -2.918975276816622e+03
-1.148153780278574e+03 -7.425518818565416e+01 -2.918975276816622e+03
-1.147277171838108e+03 -7.558913762767462e+01 -2.918975276816622e+03
-1.147008369889019e+03 -7.601448907758127e+01 -2.918975276816622e+03
-1.146289351041403e+03 -7.773388299663127e+01 -2.918975276816622e+03
-1.147483427659426e+03 -7.741133622966092e+01 -2.918975276816622e+03
-1.147441405366018e+03 -7.842462813432559e+01 -2.918975276816622e+03
-1.147675188954929e+03 -8.038403315671511e+01 -2.918975276816622e+03
-1.147895161994865e+03 -8.143415055829742e+01 -2.918975276816622e+03
-1.147958747408492e+03 -8.334506951627634e+01 -2.918975276816622e+03
-1.148507163427114e+03 -8.487509337969222e+01 -2.918975276816622e+03
-1.149021794461848e+03 -8.714604247100274e+01 -2.918975276816622e+03
-1.148098896098321e+03 -8.722274943932453e+01 -2.918975276816622e+03
-1.147865567555129e+03 -8.956849946077104e+01 -2.918975276816622e+03
-1.148156696367233e+03 -9.066015686534108e+01 -2.918975276816622e+03
-1.147993592976104e+03 -9.207005991030969e+01 -2.918975276816622e+03
-1.148196466949006e+03 -9.489451968050561e+01 -2.918975276816622e+03
-1.148179332143973e+03 -9.580190584443608e+01 -2.918975276816622e+03
-1.148690711160901e+03 -9.746004454390510e+01 -2.918975276816622e+03
-1.148017953039964e+03 -9.722262566127158e+01 -2.918975276816622e+03
-1.147911623992687e+03 -9.850123244846749e+01 -2.918975276816622e+03
-1.147854398392809e+03 -1.003310163966442e+02 -2.918975276816622e+03
-1.147944873243703e+03 -1.013790422629799e+02 -2.918975276816622e+03
-1.148044027265538e+03 -1.032940011847246e+02 -2.918975276816622e+03
-1.147698425153161e+03 -1.042822616056536e+02 -2.918975276816622e+03
-1.147548055738611e+03 -1.061513822494810e+02 -2.918975276816622e+03
-1.147999544505426e+03 -1.072127063587840e+02 -2.918975276816622e+03
-1.147969800948954e+03 -1.097324192485164e+02 -2.918975276816622e+03
-1.147648653438881e+03 -1.104448440109357e+02 -2.918975276816622e+03
-1.147585080421750e+03 -1.120527353077797e+02 -2.918975276816622e+03
-1.147818825656372e+03 -1.139167058860935e+02 -2.918975276816622e+03
-1.147182023557960e+03 -1.144351904347690e+02 -2.918975276816622e+03
-1.147618171072341e+03 -1.158181498118800e+02 -2.918975276816622e+03
-1.147412162551392e+03 -1.183744012107347e+02 -2.918975276816622e+03
-1.147617848912402e+03 -1.203236123868043e+02 -2.918975276816622e+03
-1.147875204463444e+03 -1.213744167143407e+02 -2.918975276816622e+03
-1.147982002319178e+03 -1.232749024487591e+02 -2.918975276816622e+03
-1.147707912589814e+03 -1.247688407971229e+02 -2.918975276816622e+03
-1.147339094557105e+03 -1.271650709172443e+02 -2.918975276816622e+03
-1.148003952825859e+03 -1.272145219101414e+02 -2.918975276816622e+03
-1.148031684391022e+03 -1.296724830487106e+02 -2.918975276816622e+03
-1.147599843907994e+03 -1.304117288268722e+02 -2.918975276816622e+03
-1.147672769206682e+03 -1.320467560450982e+02 -2.918975276816622e+03
-1.147768946466932e+03 -1.339684797913729e+02 -2.918975276816622e+03
-1.147192445495655e+03 -1.344374263611409e+02 -2.918975276816622e+03
-1.147614512261047e+03 -1.357886029203615e+02 -2.918975276816622e+03
-1.147368449043741e+03 -1.384953620700763e+02 -2.918975276816622e+03
-1.147858565485552e+03 -1.402570072065313e+02 -2.918975276816622e+03
-1.147946294882559e+03 -1.413129785909656e+02 -2.918975276816622e+03
-1.148025591813534e+03 -1.432356597782714e+02 -2.918975276816622e+03
-1.147685023104992e+03 -1.441962210738570e+02 -2.918975276816622e+03
-1.147535626460821e+03 -1.460794833974625e+02 -2.918975276816622e+03
-1.147994539117104e+03 -1.471540604739808e+02 -2.918975276816622e+03
-1.147963268598801e+03 -1.496699011470929e+02 -2.918975276816622e+03
-1.147739024530298e+03 -1.503915514661941e+02 -2.918975276816622e+03
-1.147657456656248e+03 -1.519268416506480e+02 -2.918975276816622e+03
-1.147897875840538e+03 -1.541406483105597e+02 -2.918975276816622e+03
-1.147266365378675e+03 -1.548001162017335e+02 -2.918975276816622e+03
-1.147227575089446e+03 -1.558351138894294e+02 -2.918975276816622e+03
-1.146781246450619e+03 -1.577422049126011e+02 -2.918975276816622e+03
-1.147437209954390e+03 -1.582971063636018e+02 -2.918975276816622e+03
-1.147657120019808e+03 -1.602571351919070e+02 -2.918975276816622e+03
-1.147887797959003e+03 -1.613094565442577e+02 -2.918975276816622e+03
-1.147988735947074e+03 -1.632132419271838e+02 -2.918975276816622e+03
-1.147729482742565e+03 -1.647132733003026e+02 -2.918975276816622e+03
-1.147367874713358e+03 -1.671073374434184e+02 -2.918975276816622e+03
-1.148053520542259e+03 -1.671491636050150e+02 -2.918975276816622e+03
-1.148081695901469e+03 -1.696324044569907e+02 -2.918975276816622e+03
-1.147732581485314e+03 -1.704235067487331e+02 -2.918975276816622e+03
-1.147917895578498e+03 -1.720408979902423e+02 -2.918975276816622e+03
-1.148472058710882e+03 -1.737696528637067e+02 -2.918975276816622e+03
-1.147626423370630e+03 -1.742023417302775e+02 -2.918975276816622e+03
-1.147784974323937e+03 -1.757297700391479e+02 -2.918975276816622e+03
-1.147477408142808e+03 -1.782990580056273e+02 -2.918975276816622e+03
-1.147647053311167e+03 -1.802284549436673e+02 -2.918975276816622e+03
-1.147896435310777e+03 -1.812757430111993e+02 -2.918975276816622e+03
-1.147994157355808e+03 -1.831821942593508e+02 -2.918975276816622e+03
-1.147716762898601e+03 -1.846763638134695e+02 -2.918975276816622e+03
-1.147300860152448e+03 -1.870150663060438e+02 -2.918975276816622e+03
-1.148014020424482e+03 -1.871166039818926e+02 -2.918975276816622e+03
-1.147947530888746e+03 -1.895547147836290e+02 -2.918975276816622e+03
-1.147595255021361e+03 -1.902763246544201e+02 -2.918975276816622e+03
-1.147665625331819e+03 -1.918558483443431e+02 -2.918975276816622e+03
-1.147873850642163e+03 -1.941086133891886e+02 -2.918975276816622e+03
-1.147343546424512e+03 -1.948173933860119e+02 -2.918975276816622e+03
-1.147113518636472e+03 -1.957449826167639e+02 -2.918975276816622e+03
-1.146503821325950e+03 -1.979244794701515e+02 -2.918975276816622e+03
-1.147355893043540e+03 -1.983848840749859e+02 -2.918975276816622e+03
-1.147805089423596e+03 -2.001416548014695e+02 -2.918975276816622e+03
-1.147934794158928e+03 -2.012108665801917e+02 -2.918975276816622e+03
-1.148033179645009e+03 -2.031416036832414e+02 -2.918975276816622e+03
-1.147704252685969e+03 -2.040918587616069e+02 -2.918975276816622e+03
-1.147661400134473e+03 -2.059887114827307e+02 -2.918975276816622e+03
-1.148080133723033e+03 -2.070736077454781e+02 -2.918975276816622e+03
-1.148055396850292e+03 -2.095922727565985e+02 -2.918975276816622e+03
-1.147866984821852e+03 -2.103927354620275e+02 -2.918975276816622e+03
-1.147913256662065e+03 -2.120233605480386e+02 -2.918975276816622e+03
-1.148652675635923e+03 -2.137140653201133e+02 -2.918975276816622e+03
-1.147585530854362e+03 -2.142109150415434e+02 -2.918975276816622e+03
-1.147774796071009e+03 -2.156626960957629e+02 -2.918975276816622e+03
-1.147472035623398e+03 -2.182325947371488e+02 -2.918975276816622e+03
-1.147660517466991e+03 -2.201619402960605e+02 -2.918975276816622e+03
-1.147903778512518e+03 -2.212093227572908e+02 -2.918975276816622e+03
-1.148011875652685e+03 -2.231175021037604e+02 -2.918975276816622e+03
-1.147724193406676e+03 -2.246138494573077e+02 -2.918975276816622e+03
-1.147362533967628e+03 -2.270044764405476e+02 -2.918975276816622e+03
-1.148008391158249e+03 -2.270553281554174e+02 -2.918975276816622e+03
-1.148031435102771e+03 -2.295140315283956e+02 -2.918975276816622e+03
-1.147607389370057e+03 -2.302486647924095e+02 -2.918975276816622e+03
-1.147673238635729e+03 -2.318787659178991e+02 -2.918975276816622e+03
-1.147786238908065e+03 -2.338621369389739e+02 -2.918975276816622e+03
-1.147183017459555e+03 -2.343389488026227e+02 -2.918975276816622e+03
-1.147513054225739e+03 -2.355791228656219e+02 -2.918975276816622e+03
-1.147634935516958e+03 -2.381230421234639e+02 -2.918975276816622e+03
-1.147888895730264e+03 -2.401502207315551e+02 -2.918975276816622e+03
-1.147739326542297e+03 -2.411997584857325e+02 -2.918975276816622e+03
-1.147836661825069e+03 -2.431629583172887e+02 -2.918975276816622e+03
-1.147829639580980e+03 -2.444504076195224e+02 -2.918975276816622e+03
-1.148021167728035e+03 -2.468827681439367e+02 -2.918975276816622e+03
-1.147719262219162e+03 -2.470588614045523e+02 -2.918975276816622e+03
-1.147802542880304e+03 -2.498073585453083e+02 -2.918975276816622e+03
-1.147598193402949e+03 -2.507722052718857e+02 -2.918975276816622e+03
-1.147928389934816e+03 -2.516203072285355e+02 -2.918975276816622e+03
-1.147770770415262e+03 -2.540063411727850e+02 -2.918975276816622e+03
-1.147690979401545e+03 -2.552155125093690e+02 -2.918975276816622e+03
-1.147502083581503e+03 -2.573898036456316e+02 -2.918975276816622e+03
-1.147876437327536e+03 -2.578403807775876e+02 -2.918975276816622e+03
-1.147887355555516e+03 -2.602466592490857e+02 -2.918975276816622e+03
-1.147590159935026e+03 -2.609730657265999e+02 -2.918975276816622e+03
-1.147541898031550e+03 -2.630759669721393e+02 -2.918975276816622e+03
-1.147243050465665e+03 -2.645737467974236e+02 -2.918975276816622e+03
-1.147953652416050e+03 -2.645139159481557e+02 -2.918975276816622e+03
-1.148032404513421e+03 -2.659065262766721e+02 -2.918975276816622e+03
-1.148371535006774e+03 -2.673896406184534e+02 -2.918975276816622e+03
-1.148610525435982e+03 -2.681064005771561e+02 -2.918975276816622e+03
-1.147565111260539e+03 -2.691564248843360e+02 -2.918975276816622e+03
-1.148051881880718e+03 -2.702126870634900e+02 -2.918975276816622e+03
-1.148184371743521e+03 -2.713430271744558e+02 -2.918975276816622e+03
-1.148476198596328e+03 -2.740999169199300e+02 -2.918975276816622e+03
-1.148082081030657e+03 -2.756366635766272e+02 -2.918975276816622e+03
-1.147866494903565e+03 -2.771722219761104e+02 -2.918975276816622e+03
-1.147675948956471e+03 -2.802849816121717e+02 -2.918975276816622e+03
-1.147961525428918e+03 -2.818744592110932e+02 -2.918975276816622e+03
-1.148654006925112e+03 -2.831403564341047e+02 -2.918975276816622e+03
-1.147648647910746e+03 -2.837696913600099e+02 -2.918975276816622e+03
-1.148190636716089e+03 -2.844468087876203e+02 -2.918975276816622e+03
-1.147738611699476e+03 -2.856869972792940e+02 -2.918975276816622e+03
-1.147917603871205e+03 -2.863559906290890e+02 -2.918975276816622e+03
-1.147738723762579e+03 -2.878935446431570e+02 -2.918975276816622e+03
-1.148506935315539e+03 -2.891386007269357e+02 -2.918975276816622e+03
-1.148069663952896e+03 -2.898639816322350e+02 -2.918975276816622e+03
-1.148129736030261e+03 -2.950177113122788e+02 -2.918975276816622e+03
-1.148591300528672e+03 -2.969305360374327e+02 -2.918975276816622e+03
-1.148951298617204e+03 -2.971292633837479e+02 -2.918975276816622e+03
-1.148424035570031e+03 -2.986535235693913e+02 -2.918975276816622e+03
-1.147954409840807e+03 -3.000831798905235e+02 -2.918975276816622e+03
-1.147807366488367e+03 -3.037040058030347e+02 -2.918975276816622e+03
-1.148383158438749e+03 -3.045413619667079e+02 -2.918975276816622e+03
-1.148100300218024e+03 -3.073639166921080e+02 -2.918975276816622e+03
-1.147954023807621e+03 -3.105910168771047e+02 -2.918975276816622e+03
-1.148638530001565e+03 -3.140488613259046e+02 -2.918975276816622e+03
-1.148642257621045e+03 -3.170972094859334e+02 -2.918975276816622e+03
-1.148913248807469e+03 -3.172933835674306e+02 -2.918975276816622e+03
-1.148247508456064e+03 -3.197406722355257e+02 -2.918975276816622e+03
-1.148718432464564e+03 -3.212457543898091e+02 -2.918975276816622e+03
-1.148326179746756e+03 -3.218139497796066e+02 -2.918975276816622e+03
-1.148401234317629e+03 -3.242451817262198e+02 -2.918975276816622e+03
-1.148141485257507e+03 -3.249129313993958e+02 -2.918975276816622e+03
-1.148758141560695e+03 -3.285485156493611e+02 -2.918975276816622e+03
-1.148895699738622e+03 -3.295987319374538e+02 -2.918975276816622e+03
-1.149881059773662e+03 -3.304766227609552e+02 -2.918975276816622e+03
-1.147571868958427e+03 -3.319254300107792e+02 -2.918975276816622e+03
-1.148226626246505e+03 -3.327483474397508e+02 -2.918975276816622e+03
-1.147874488981914e+03 -3.352498603907493e+02 -2.918975276816622e+03
-1.148181364128811e+03 -3.366466280126984e+02 -2.918975276816622e+03
-1.147986683375017e+03 -3.371242299526187e+02 -2.918975276816622e+03
-1.147932773595788e+03 -3.388795328667703e+02 -2.918975276816622e+03
-1.147620420165993e+03 -3.429615275172492e+02 -2.918975276816622e+03
-1.148272600653046e+03 -3.442735368719758e+02 -2.918975276816622e+03
-1.147520159846162e+03 -3.458669913399074e+02 -2.918975276816622e+03
-1.148214540238324e+03 -3.471128592926412e+02 -2.918975276816622e+03
-1.147546143589483e+03 -3.492797171900322e+02 -2.918975276816622e+03
-1.147948454783903e+03 -3.521251403759838e+02 -2.918975276816622e+03
-1.147422156855554e+03 -3.537093151619662e+02 -2.918975276816622e+03
-1.149278095449011e+03 -3.553764695461910e+02 -2.918975276816622e+03
-1.148412981811285e+03 -3.562856758017048e+02 -2.918975276816622e+03
-1.148473856105290e+03 -3.567564924389835e+02 -2.918975276816622e+03
-1.147823611054754e+03 -3.576905137754065e+02 -2.918975276816622e+03
-1.148150706886222e+03 -3.581326232184472e+02 -2.918975276816622e+03
-1.147300678323876e+03 -3.590850734105085e+02 -2.918975276816622e+03
-1.147734217174344e+03 -3.606283240653777e+02 -2.918975276816622e+03
-1.147729713777218e+03 -3.608405937304628e+02 -2.918975276816622e+03
-1.148332970636334e+03 -3.622657089317383e+02 -2.918975276816622e+03
-1.148553186734705e+03 -3.635594328907976e+02 -2.918975276816622e+03
-1.148708698214512e+03 -3.644663057755248e+02 -2.918975276816622e+03
-1.148571509125527e+03 -3.696101835400377e+02 -2.918975276816622e+03
-1.148506225376831e+03 -3.713762224717308e+02 -2.918975276816622e+03
-1.148248026111146e+03 -3.731865447223090e+02 -2.918975276816622e+03
-1.148233874834007e+03 -3.742565794244888e+02 -2.918975276816622e+03
-1.148083924329777e+03 -3.765252688251649e+02 -2.918975276816622e+03
-1.148318231597403e+03 -3.778076986102219e+02 -2.918975276816622e+03
-1.147828271761713e+03 -3.798153388059860e+02 -2.918975276816622e+03
-1.147849085897443e+03 -3.802129398003654e+02 -2.918975276816622e+03
-1.148120075793347e+03 -3.824158840060067e+02 -2.918975276816622e+03
-1.148337015254252e+03 -3.860427370104880e+02 -2.918975276816622e+03
-1.147920616413327e+03  3.833677320782146e+02 -2.918975276816622e+03
-1.148390480004473e+03  3.786081237616318e+02 -2.918975276816622e+03
-1.148626029132450e+03  3.773243195458433e+02 -2.918975276816622e+03
-1.148191052731796e+03  3.764846361658236e+02 -2.918975276816622e+03
-1.148105979791268e+03  3.736464590312972e+02 -2.918975276816622e+03
-1.147430269539329e+03  3.686701588397668e+02 -2.918975276816622e+03
-1.147231372434218e+03  3.666523935114197e+02 -2.918975276816622e+03
-1.147992091474965e+03  3.659319762109691e+02 -2.918975276816622e+03
-1.148040369627407e+03  3.620126290225751e+02 -2.918975276816622e+03
-1.148830241059926e+03  3.614513379357097e+02 -2.918975276816622e+03
-1.148925718687322e+03  3.597968326911262e+02 -2.918975276816622e+03
-1.148433768229854e+03  3.578149260212707e+02 -2.918975276816622e+03
-1.148222859316863e+03  3.549617160613060e+02 -2.918975276816622e+03
-1.147729014704310e+03  3.533113315284290e+02 -2.918975276816622e+03
-1.148333246670343e+03  3.515122632334536e+02 -2.918975276816622e+03
-1.147784734056431e+03  3.487745144052581e+02 -2.918975276816622e+03
-1.148834433331268e+03  3.452131626332592e+02 -2.918975276816622e+03
-1.148831177512397e+03  3.438283554649781e+02 -2.918975276816622e+03
-1.149865992085369e+03  3.420058453132973e+02 -2.918975276816622e+03
-1.149974797418839e+03  3.416750430748063e+02 -2.918975276816622e+03
-1.149055472060488e+03  3.383871186995957e+02 -2.918975276816622e+03
-1.150327762498256e+03  3.350239272164802e+02 -2.918975276816622e+03
-1.149150968360413e+03  3.349114037417021e+02 -2.918975276816622e+03
-1.148687615825727e+03  3.298289119238331e+02 -2.918975276816622e+03
-1.148861817765973e+03  3.277117146634874e+02 -2.918975276816622e+03
-1.148073788587986e+03  3.261596223636045e+02 -2.918975276816622e+03
-1.147823873711804e+03  3.242175973738759e+02 -2.918975276816622e+03
-1.147660595202785e+03  3.239121722207056e+02 -2.918975276816622e+03
-1.147643125709069e+03  3.213618660772125e+02 -2.918975276816622e+03
-1.147194528300627e+03  3.202032468717456e+02 -2.918975276816622e+03
-1.147470985217346e+03  3.173874159218486e+02 -2.918975276816622e+03
-1.146368695173166e+03  3.149647927553819e+02 -2.918975276816622e+03
-1.145920444802819e+03  3.151175089996597e+02 -2.918975276816622e+03
-1.146466072682139e+03  3.131968146483662e+02 -2.918975276816622e+03
-1.146949789695021e+03  3.122057828510991e+02 -2.918975276816622e+03
-1.147831121551895e+03  3.100182745856193e+02 -2.918975276816622e+03
-1.148258516176169e+03  3.078568641715964e+02 -2.918975276816622e+03
-1.147752247287095e+03  3.078445114128527e+02 -2.918975276816622e+03
-1.147219928601379e+03  3.053265766797572e+02 -2.918975276816622e+03
-1.148170849167261e+03  3.039505202385761e+02 -2.918975276816622e+03
-1.145901514504464e+03  3.019649650790998e+02 -2.918975276816622e+03
-1.146797940035679e+03  3.008345598193187e+02 -2.918975276816622e+03
-1.147396222888078e+03  2.996263779366798e+02 -2.918975276816622e+03
-1.147720774828603e+03  2.960139866955669e+02 -2.918975276816622e+03
-1.148335891162905e+03  2.952652622839205e+02 -2.918975276816622e+03
-1.148344742453191e+03  2.934931618765054e+02 -2.918975276816622e+03
-1.147886040195290e+03  2.889653377799551e+02 -2.918975276816622e+03
-1.148115532260254e+03  2.884360543697776e+02 -2.918975276816622e+03
-1.148379971784205e+03  2.862561535072488e+02 -2.918975276816622e+03
-1.148291447695747e+03  2.831674533221722e+02 -2.918975276816622e+03
-1.148288910426197e+03  2.820853198062482e+02 -2.918975276816622e+03
-1.147936500735004e+03  2.803019470292939e+02 -2.918975276816622e+03
-1.148460924845617e+03  2.798560389350307e+02 -2.918975276816622e+03
-1.148114837542242e+03  2.778276125829683e+02 -2.918975276816622e+03
-1.147900022865385e+03  2.761887198459998e+02 -2.918975276816622e+03
-1.148042027865452e+03  2.756282818008966e+02 -2.918975276816622e+03
-1.148083225555676e+03  2.742139094910822e+02 -2.918975276816622e+03
-1.147947794873287e+03  2.718004533681435e+02 -2.918975276816622e+03
-1.147836003752140e+03  2.709150106153165e+02 -2.918975276816622e+03
-1.147859075695635e+03  2.692748011640556e+02 -2.918975276816622e+03
-1.147393605394146e+03  2.665602318385961e+02 -2.918975276816622e+03
-1.147285010462665e+03  2.655749579677579e+02 -2.918975276816622e+03
-1.146783328283163e+03  2.643673662500035e+02 -2.918975276816622e+03
-1.147389468690958e+03  2.641720405353095e+02 -2.918975276816622e+03
-1.147558832718088e+03  2.630629012679300e+02 -2.918975276816622e+03
-1.147887738137590e+03  2.610608594917001e+02 -2.918975276816622e+03
-1.147732763241233e+03  2.600064670877232e+02 -2.918975276816622e+03
-1.147873804646700e+03  2.580367168190589e+02 -2.918975276816622e+03
-1.147923920063376e+03  2.567471695687327e+02 -2.918975276816622e+03
-1.148180408280981e+03  2.543335450825013e+02 -2.918975276816622e+03
-1.147706695671033e+03  2.541539147267832e+02 -2.918975276816622e+03
-1.147803096883577e+03  2.513994277689672e+02 -2.918975276816622e+03
-1.147731410765301e+03  2.503974035844070e+02 -2.918975276816622e+03
-1.148026543391849e+03  2.495759901356250e+02 -2.918975276816622e+03
-1.147691732971814e+03  2.471412593778278e+02 -2.918975276816622e+03
-1.147546424654371e+03  2.459157382570520e+02 -2.918975276816622e+03
-1.146976553792703e+03  2.437933309968070e+02 -2.918975276816622e+03
-1.147730082618179e+03  2.433026476134891e+02 -2.918975276816622e+03
-1.147642243040254e+03  2.407351034247204e+02 -2.918975276816622e+03
-1.147392347752721e+03  2.400145395940787e+02 -2.918975276816622e+03
-1.147695115501307e+03  2.385563964936946e+02 -2.918975276816622e+03
-1.147998856117167e+03  2.362427467374713e+02 -2.918975276816622e+03
-1.147374543140751e+03  2.351675967972962e+02 -2.918975276816622e+03
-1.147295495080265e+03  2.341184036627398e+02 -2.918975276816622e+03
-1.147123425784001e+03  2.330036363401428e+02 -2.918975276816622e+03
-1.147380053306807e+03  2.331471283156826e+02 -2.918975276816622e+03
-1.147317791429950e+03  2.319518565616243e+02 -2.918975276816622e+03
-1.147745709456480e+03  2.301643999432459e+02 -2.918975276816622e+03
-1.147889423336276e+03  2.291021142467360e+02 -2.918975276816622e+03
-1.147979275716069e+03  2.271740843276945e+02 -2.918975276816622e+03
-1.147639690120822e+03  2.261793828048143e+02 -2.918975276816622e+03
-1.147406287282517e+03  2.243562079975883e+02 -2.918975276816622e+03
-1.147842732730392e+03  2.232793344824398e+02 -2.918975276816622e+03
-1.147796987298497e+03  2.207639904106544e+02 -2.918975276816622e+03
-1.146944780408513e+03  2.202033452560131e+02 -2.918975276816622e+03
-1.147264761593383e+03  2.183886227545934e+02 -2.918975276816622e+03
-1.147138388863100e+03  2.164762181154725e+02 -2.918975276816622e+03
-1.146581018120624e+03  2.160983419509263e+02 -2.918975276816622e+03
-1.147050414449279e+03  2.143494704638370e+02 -2.918975276816622e+03
-1.147021892914468e+03  2.131060668153395e+02 -2.918975276816622e+03
-1.147364794529147e+03  2.131439623603266e+02 -2.918975276816622e+03
-1.147331168369440e+03  2.119655993321530e+02 -2.918975276816622e+03
-1.147799480381106e+03  2.101780289708296e+02 -2.918975276816622e+03
-1.147911220428656e+03  2.091283694144622e+02 -2.918975276816622e+03
-1.147983959006740e+03  2.072065938444509e+02 -2.918975276816622e+03
-1.147642928669585e+03  2.062144390844974e+02 -2.918975276816622e+03
-1.147335915968076e+03  2.044107811082608e+02 -2.918975276816622e+03
-1.147798822482968e+03  2.033102195344183e+02 -2.918975276816622e+03
-1.147691789593459e+03  2.007808749972030e+02 -2.918975276816622e+03
-1.147608809252347e+03  2.000939408759116e+02 -2.918975276816622e+03
-1.147784299686894e+03  1.986220970897311e+02 -2.918975276816622e+03
-1.148014919940984e+03  1.962622476033652e+02 -2.918975276816622e+03
-1.147508184543801e+03  1.949157449676665e+02 -2.918975276816622e+03
-1.146951551754795e+03  1.945063235054752e+02 -2.918975276816622e+03
-1.146013491911446e+03  1.929366761052107e+02 -2.918975276816622e+03
-1.147410433021200e+03  1.931370277771402e+02 -2.918975276816622e+03
-1.147323167222468e+03  1.920193690270630e+02 -2.918975276816622e+03
-1.147752990564547e+03  1.902295124308841e+02 -2.918975276816622e+03
-1.147895817465576e+03  1.891638774991243e+02 -2.918975276816622e+03
-1.147987218486661e+03  1.872392870434182e+02 -2.918975276816622e+03
-1.147653432724472e+03  1.862427598232536e+02 -2.918975276816622e+03
-1.147437644778105e+03  1.844169344384074e+02 -2.918975276816622e+03
-1.147884217905858e+03  1.833478611738249e+02 -2.918975276816622e+03
-1.147828585861404e+03  1.808142960568971e+02 -2.918975276816622e+03
-1.147193632648324e+03  1.801063218381597e+02 -2.918975276816622e+03
-1.147570021709588e+03  1.784599484213035e+02 -2.918975276816622e+03
-1.147851016879968e+03  1.768060129029431e+02 -2.918975276816622e+03
-1.147109960510068e+03  1.764761273156682e+02 -2.918975276816622e+03
-1.147651661445243e+03  1.747302540244074e+02 -2.918975276816622e+03
-1.147053314882813e+03  1.731522750214490e+02 -2.918975276816622e+03
-1.147347392671457e+03  1.731754930504350e+02 -2.918975276816622e+03
-1.147353512784344e+03  1.720249909898808e+02 -2.918975276816622e+03
-1.147854377387942e+03  1.702432801379130e+02 -2.918975276816622e+03
-1.147921242280907e+03  1.691950559221785e+02 -2.918975276816622e+03
-1.147995042673404e+03  1.672691235073362e+02 -2.918975276816622e+03
-1.147658309679717e+03  1.662744464615169e+02 -2.918975276816622e+03
-1.147434869729906e+03  1.644547901275237e+02 -2.918975276816622e+03
-1.147886704123876e+03  1.633742221969742e+02 -2.918975276816622e+03
-1.147829750565385e+03  1.608458775955212e+02 -2.918975276816622e+03
-1.147223054143391e+03  1.601104964826570e+02 -2.918975276816622e+03
-1.147626138816214e+03  1.584649192334838e+02 -2.918975276816622e+03
-1.148026821638319e+03  1.568872022971861e+02 -2.918975276816622e+03
-1.147331750320646e+03  1.564088558810092e+02 -2.918975276816622e+03
-1.147652831980357e+03  1.547737623121439e+02 -2.918975276816622e+03
-1.146884714629953e+03  1.531805467255055e+02 -2.918975276816622e+03
-1.147347365631961e+03  1.531963267236475e+02 -2.918975276816622e+03
-1.147349613119046e+03  1.520603612392991e+02 -2.918975276816622e+03
-1.147849567970274e+03  1.502715878390087e+02 -2.918975276816622e+03
-1.147920486000986e+03  1.492244192759102e+02 -2.918975276816622e+03
-1.147993429411130e+03  1.473023220095223e+02 -2.918975276816622e+03
-1.147656048930417e+03  1.463078830098955e+02 -2.918975276816622e+03
-1.147420819318965e+03  1.444862111748872e+02 -2.918975276816622e+03
-1.147861201700882e+03  1.434059073406208e+02 -2.918975276816622e+03
-1.147813624830916e+03  1.408945379675189e+02 -2.918975276816622e+03
-1.147029449646636e+03  1.403236635421597e+02 -2.918975276816622e+03
-1.147359366493206e+03  1.385792265272190e+02 -2.918975276816622e+03
-1.147600853760877e+03  1.366764455433100e+02 -2.918975276816622e+03
-1.146629810727492e+03  1.361347808757218e+02 -2.918975276816622e+03
-1.147227410586604e+03  1.345870935295184e+02 -2.918975276816622e+03
-1.147000846193048e+03  1.334052565928098e+02 -2.918975276816622e+03
-1.147411703220988e+03  1.333797526523115e+02 -2.918975276816622e+03
-1.147374304271787e+03  1.322295026433742e+02 -2.918975276816622e+03
-1.147590799194627e+03  1.302761586936152e+02 -2.918975276816622e+03
-1.147875080707781e+03  1.292337837745019e+02 -2.918975276816622e+03
-1.147989840241864e+03  1.273227157973441e+02 -2.918975276816622e+03
-1.147684861399337e+03  1.258078767763494e+02 -2.918975276816622e+03
-1.147360242460700e+03  1.234876803747305e+02 -2.918975276816622e+03
-1.147943996481861e+03  1.234280445601834e+02 -2.918975276816622e+03
-1.148023093839782e+03  1.209084759180357e+02 -2.918975276816622e+03
-1.147652213757492e+03  1.200868789165467e+02 -2.918975276816622e+03
-1.147229925614839e+03  1.183249166657847e+02 -2.918975276816622e+03
-1.146966064247329e+03  1.168345817927535e+02 -2.918975276816622e+03
-1.147596575183806e+03  1.163553017440732e+02 -2.918975276816622e+03
-1.147865812669604e+03  1.148073337471777e+02 -2.918975276816622e+03
-1.147723448808873e+03  1.129271980235307e+02 -2.918975276816622e+03
-1.147416312222545e+03  1.120984588682547e+02 -2.918975276816622e+03
-1.147968926303296e+03  1.103457448183796e+02 -2.918975276816622e+03
-1.147967638873022e+03  1.092983360308398e+02 -2.918975276816622e+03
-1.147992455108527e+03  1.073433260218822e+02 -2.918975276816622e+03
-1.148124348394080e+03  1.063596033800636e+02 -2.918975276816622e+03
-1.147687341962811e+03  1.044921965639252e+02 -2.918975276816622e+03
-1.148047102842546e+03  1.034335821079481e+02 -2.918975276816622e+03
-1.148010282440879e+03  1.010180546549598e+02 -2.918975276816622e+03
-1.147958670422105e+03  1.001612585409995e+02 -2.918975276816622e+03
-1.147690288319227e+03  9.868578558882922e+01 -2.918975276816622e+03
-1.148157855838973e+03  9.710836390551097e+01 -2.918975276816622e+03
-1.148294209537266e+03  9.530258246573442e+01 -2.918975276816622e+03
-1.148315340568533e+03  9.137377990819088e+01 -2.918975276816622e+03
-1.148250594212288e+03  8.905119985691664e+01 -2.918975276816622e+03
-1.147944083998516e+03  8.663041145697930e+01 -2.918975276816622e+03
-1.148089769400241e+03  8.569335687931857e+01 -2.918975276816622e+03
-1.146340904191514e+03  8.454409297939125e+01 -2.918975276816622e+03
-1.148011976439333e+03  8.398118795123654e+01 -2.918975276816622e+03
-1.148144955556859e+03  8.324249375946161e+01 -2.918975276816622e+03
-1.148801724466552e+03  8.069445187577035e+01 -2.918975276816622e+03
-1.149219445452684e+03  7.881561613451323e+01 -2.918975276816622e+03
-1.149560150306335e+03  7.735449904220020e+01 -2.918975276816622e+03
-1.148232505278568e+03  7.774982457776949e+01 -2.918975276816622e+03
-1.148331360775037e+03  7.600722090917395e+01 -2.918975276816622e+03
-1.149030622916962e+03  7.600300983840017e+01 -2.918975276816622e+03
-1.148143382809089e+03  7.356307555563764e+01 -2.918975276816622e+03
-1.148124386754063e+03  7.167009033016707e+01 -2.918975276816622e+03
-1.148137247254458e+03  7.073748968747698e+01 -2.918975276816622e+03
-1.148038345337922e+03  6.799615132480754e+01 -2.918975276816622e+03
-1.147987893874417e+03  6.741274339209336e+01 -2.918975276816622e+03
-1.147697545942823e+03  6.562841816508262e+01 -2.918975276816622e+03
-1.147535388814566e+03  6.223978042677248e+01 -2.918975276816622e+03
-1.146962753636097e+03  6.093804636310858e+01 -2.918975276816622e+03
-1.147278686675344e+03  5.993676832657700e+01 -2.918975276816622e+03
-1.147755064815003e+03  5.501895566853609e+01 -2.918975276816622e+03
-1.147641778515007e+03  5.326420477720834e+01 -2.918975276816622e+03
-1.147462260593827e+03  5.128266030760976e+01 -2.918975276816622e+03
-1.147714495941720e+03  4.948390460742560e+01 -2.918975276816622e+03
-1.148180628192757e+03  4.796387903148324e+01 -2.918975276816622e+03
-1.148017308751818e+03  4.656204444109533e+01 -2.918975276816622e+03
-1.147959269138669e+03  4.637576478988282e+01 -2.918975276816622e+03
-1.147844650441700e+03  4.482946976845800e+01 -2.918975276816622e+03
-1.147212467851553e+03  4.386288230018355e+01 -2.918975276816622e+03
-1.147335209783457e+03  4.187303978801103e+01 -2.918975276816622e+03
-1.147894485445442e+03  4.056107945264701e+01 -2.918975276816622e+03
-1.148047067024313e+03  3.813511507101010e+01 -2.918975276816622e+03
-1.148782105025522e+03  3.480661351773460e+01 -2.918975276816622e+03
-1.148360318857387e+03  3.391578560423496e+01 -2.918975276816622e+03
-1.148945537146124e+03  3.295429998499439e+01 -2.918975276816622e+03
-1.148169299056400e+03  3.197965438942208e+01 -2.918975276816622e+03
-1.148834996006395e+03  2.876261861182395e+01 -2.918975276816622e+03
-1.148400359895097e+03  2.671195373699646e+01 -2.918975276816622e+03
-1.149698727420437e+03  2.633822504661892e+01 -2.918975276816622e+03
-1.148500532516631e+03  2.483003511298003e+01 -2.918975276816622e+03
-1.148798289946997e+03  2.350264910536312e+01 -2.918975276816622e+03
-1.148008925463001e+03  2.221880545080077e+01 -2.918975276816622e+03
-1.148478802233443e+03  2.195199144669581e+01 -2.918975276816622e+03
-1.148451457302725e+03  2.051343452503987e+01 -2.918975276816622e+03
-1.149829865426815e+03  1.908189056086206e+01 -2.918975276816622e+03
-1.148883580404690e+03  1.771846839941280e+01 -2.918975276816622e+03
-1.147777526080208e+03  1.703365890730705e+01 -2.918975276816622e+03
-1.148049889743780e+03  1.564915936625087e+01 -2.918975276816622e+03
-1.147907843922417e+03  1.479835691015002e+01 -2.918975276816622e+03
-1.147638351733785e+03  1.316872098470761e+01 -2.918975276816622e+03
-1.147757506618020e+03  1.188480089762557e+01 -2.918975276816622e+03
-1.147994290318929e+03  7.605145666807221e+00 -2.918975276816622e+03
-1.148075904901292e+03  6.488767202470476e+00 -2.918975276816622e+03
-1.148165329170618e+03  5.217726779508157e+00 -2.918975276816622e+03
1.145762025595707e+03 5.235608233268954e-01 2.918975276816622e+03
 1.145147000858856e+03 -9.304897939539521e-01  2.918975276816622e+03
 1.145164125000693e+03 -2.197361430686726e+00  2.918975276816622e+03
 1.146198087632639e+03 -3.670113661953776e+00  2.918975276816622e+03
 1.145540757081667e+03 -4.551784028434815e+00  2.918975276816622e+03
 1.146081954640865e+03 -6.838916902450570e+00  2.918975276816622e+03
 1.145880976255635e+03 -6.735697942649364e+00  2.918975276816622e+03
 1.145916521146076e+03 -9.088269689673968e+00  2.918975276816622e+03
 1.145590058583480e+03 -9.990863863118378e+00  2.918975276816622e+03
 1.145454472361202e+03 -1.178096667219589e+01  2.918975276816622e+03
 1.145729399894490e+03 -1.333870735856404e+01  2.918975276816622e+03
 1.146104946730125e+03 -1.523080255970330e+01  2.918975276816622e+03
 1.144984570258958e+03 -1.516759968487015e+01  2.918975276816622e+03
 1.144872192960337e+03 -1.706306305638973e+01  2.918975276816622e+03
 1.145750721993467e+03 -1.729548899989348e+01  2.918975276816622e+03
 1.145538358310810e+03 -1.975208816965995e+01  2.918975276816622e+03
 1.145476776269294e+03 -2.161308499841170e+01  2.918975276816622e+03
 1.145457179649366e+03 -2.385587604458236e+01  2.918975276816622e+03
 1.145580894787292e+03 -2.606522482640703e+01  2.918975276816622e+03
 1.145258296327149e+03 -2.774793437284492e+01  2.918975276816622e+03
 1.145410745171530e+03 -2.973208602465244e+01  2.918975276816622e+03
 1.145110085401982e+03 -3.042630902421610e+01  2.918975276816622e+03
 1.145579036673342e+03 -3.193355998336315e+01  2.918975276816622e+03
 1.145208161792009e+03 -3.333451409806738e+01  2.918975276816622e+03
 1.145341116147425e+03 -3.816137344323884e+01  2.918975276816622e+03
 1.145730689241270e+03 -3.933253719928884e+01  2.918975276816622e+03
 1.145997258723462e+03 -4.178984694496706e+01  2.918975276816622e+03
 1.146968688212685e+03 -4.203188164672326e+01  2.918975276816622e+03
 1.146176321233411e+03 -4.373555827069663e+01  2.918975276816622e+03
 1.145592807772080e+03 -4.477069388578126e+01  2.918975276816622e+03
 1.145563150702640e+03 -4.589047927842704e+01  2.918975276816622e+03
 1.145809229070852e+03 -4.576807967561835e+01  2.918975276816622e+03
 1.145526170713654e+03 -4.729692348568811e+01  2.918975276816622e+03
 1.145359719294827e+03 -4.903511670898524e+01  2.918975276816622e+03
 1.145608319428844e+03 -5.021818123160362e+01  2.918975276816622e+03
 1.145809148934688e+03 -5.347885714798678e+01  2.918975276816622e+03
 1.145620184659510e+03 -5.487286315487491e+01  2.918975276816622e+03
 1.145285400627950e+03 -5.637741705633649e+01  2.918975276816622e+03
 1.145566771442241e+03 -5.862171371799886e+01  2.918975276816622e+03
 1.145427288183299e+03 -6.048283580807136e+01  2.918975276816622e+03
 1.145921528096720e+03 -6.206639798254821e+01  2.918975276816622e+03
 1.146208771746212e+03 -6.316008521116360e+01  2.918975276816622e+03
 1.146887836987573e+03 -6.342152041059937e+01  2.918975276816622e+03
 1.146323053808043e+03 -6.443479463668842e+01  2.918975276816622e+03
 1.146418716752073e+03 -6.595898725241926e+01  2.918975276816622e+03
 1.145795360043209e+03 -6.679576918001642e+01  2.918975276816622e+03
 1.145805230011857e+03 -6.765917880884281e+01  2.918975276816622e+03
 1.145814229920780e+03 -6.882403789232322e+01  2.918975276816622e+03
 1.145758683054151e+03 -7.035309971246816e+01  2.918975276816622e+03
 1.146019084688468e+03 -7.483496413224182e+01  2.918975276816622e+03
 1.146470935949840e+03 -7.707599924159696e+01  2.918975276816622e+03
 1.146009489767312e+03 -7.737586515618689e+01  2.918975276816622e+03
 1.146205899646415e+03 -7.867312956838458e+01  2.918975276816622e+03
 1.145810396734816e+03 -8.043344968383518e+01  2.918975276816622e+03
 1.146194773810968e+03 -8.192117309934544e+01  2.918975276816622e+03
 1.146286450375113e+03 -8.311068731646407e+01  2.918975276816622e+03
 1.147032511030867e+03 -8.400047183502218e+01  2.918975276816622e+03
 1.146353731018343e+03 -8.453614318280908e+01  2.918975276816622e+03
 1.146357906889881e+03 -8.592091543224937e+01  2.918975276816622e+03
 1.145540861754137e+03 -8.678787506296659e+01  2.918975276816622e+03
 1.145864586385234e+03 -8.775167845825106e+01  2.918975276816622e+03
 1.145896693977129e+03 -8.878205949501269e+01  2.918975276816622e+03
 1.145929235499825e+03 -9.025301831238771e+01  2.918975276816622e+03
 1.147145207224532e+03 -9.453583859837313e+01  2.918975276816622e+03
 1.147837704397552e+03 -9.639516595126548e+01  2.918975276816622e+03
 1.144957953619443e+03 -9.609376190064624e+01  2.918975276816622e+03
 1.145457900260656e+03 -9.827657362012468e+01  2.918975276816622e+03
 1.145687806735340e+03 -9.929209174019689e+01  2.918975276816622e+03
 1.145898856509576e+03 -1.017702122709218e+02  2.918975276816622e+03
 1.145572261461519e+03 -1.027392466871995e+02  2.918975276816622e+03
 1.145486433960423e+03 -1.041526883036501e+02  2.918975276816622e+03
 1.145820414136403e+03 -1.045765732380723e+02  2.918975276816622e+03
 1.146089472619302e+03 -1.056408034784702e+02  2.918975276816622e+03
 1.145262108876566e+03 -1.066387181962366e+02  2.918975276816622e+03
 1.145676149653320e+03 -1.076369449550310e+02  2.918975276816622e+03
 1.145749392055606e+03 -1.087470768922008e+02  2.918975276816622e+03
 1.145752251614344e+03 -1.102863278057242e+02  2.918975276816622e+03
 1.145985410015980e+03 -1.147692639145882e+02  2.918975276816622e+03
 1.146257901516938e+03 -1.170225117283462e+02  2.918975276816622e+03
 1.145908821237763e+03 -1.173660956051424e+02  2.918975276816622e+03
 1.146177744389853e+03 -1.186137255944936e+02  2.918975276816622e+03
 1.145781608489231e+03 -1.203860809343230e+02  2.918975276816622e+03
 1.146149525512133e+03 -1.218549428249054e+02  2.918975276816622e+03
 1.146203432877261e+03 -1.230931702798884e+02  2.918975276816622e+03
 1.147061312755748e+03 -1.238676071607903e+02  2.918975276816622e+03
 1.146336938914181e+03 -1.244465147537792e+02  2.918975276816622e+03
 1.146331237156410e+03 -1.258888226656041e+02  2.918975276816622e+03
 1.145499217061236e+03 -1.267270091186602e+02  2.918975276816622e+03
 1.145829200948990e+03 -1.276836643511392e+02  2.918975276816622e+03
 1.145865761159669e+03 -1.287407890686021e+02  2.918975276816622e+03
 1.145888908256430e+03 -1.302103192459128e+02  2.918975276816622e+03
 1.147077112254462e+03 -1.344593283440328e+02  2.918975276816622e+03
 1.147560747520433e+03 -1.363376656214528e+02  2.918975276816622e+03
 1.144853752077223e+03 -1.359473401916911e+02  2.918975276816622e+03
 1.145439468428947e+03 -1.382365041298905e+02  2.918975276816622e+03
 1.145712892452107e+03 -1.392364218645268e+02  2.918975276816622e+03
 1.145974666683667e+03 -1.417076890769330e+02  2.918975276816622e+03
 1.146297663820948e+03 -1.424867935902070e+02  2.918975276816622e+03
 1.145924876501131e+03 -1.438385258501025e+02  2.918975276816622e+03
 1.145779286952336e+03 -1.444969183784834e+02  2.918975276816622e+03
 1.146078014340519e+03 -1.455488198032074e+02  2.918975276816622e+03
 1.145204861264969e+03 -1.465148789106446e+02  2.918975276816622e+03
 1.145711620497219e+03 -1.475645475117106e+02  2.918975276816622e+03
 1.145773247962155e+03 -1.486732833271479e+02  2.918975276816622e+03
 1.145765955191982e+03 -1.502248852781549e+02  2.918975276816622e+03
 1.146006319352847e+03 -1.547060762253730e+02  2.918975276816622e+03
 1.146322294782861e+03 -1.569339824375408e+02  2.918975276816622e+03
 1.145927458777024e+03 -1.572853885855818e+02  2.918975276816622e+03
 1.146197379330373e+03 -1.585673065323191e+02  2.918975276816622e+03
 1.145847399596084e+03 -1.602924201780454e+02  2.918975276816622e+03
 1.146330134623930e+03 -1.617906013070722e+02  2.918975276816622e+03
 1.146384928840740e+03 -1.629115296945859e+02  2.918975276816622e+03
 1.147289237577768e+03 -1.639293017886656e+02  2.918975276816622e+03
 1.146249002515908e+03 -1.646399825019651e+02  2.918975276816622e+03
 1.146475537150215e+03 -1.657086737102067e+02  2.918975276816622e+03
 1.145830757994453e+03 -1.666020153052779e+02  2.918975276816622e+03
 1.145795554972723e+03 -1.675132667402181e+02  2.918975276816622e+03
 1.145823622617812e+03 -1.686938703141608e+02  2.918975276816622e+03
 1.145784710919754e+03 -1.702040166633107e+02  2.918975276816622e+03
 1.146031645862806e+03 -1.746744472616045e+02  2.918975276816622e+03
 1.146441525131407e+03 -1.768908006040211e+02  2.918975276816622e+03
 1.145990920844931e+03 -1.772223423061122e+02  2.918975276816622e+03
 1.146211123758854e+03 -1.785334555448467e+02  2.918975276816622e+03
 1.145841462469509e+03 -1.802682464802973e+02  2.918975276816622e+03
 1.146303107029489e+03 -1.817568148180085e+02  2.918975276816622e+03
 1.146409156924117e+03 -1.828051448767002e+02  2.918975276816622e+03
 1.147296067853296e+03 -1.837912541432690e+02  2.918975276816622e+03
 1.146303178271067e+03 -1.844572994734430e+02  2.918975276816622e+03
 1.146508674810204e+03 -1.856914124112774e+02  2.918975276816622e+03
 1.145879829848562e+03 -1.865670735063736e+02  2.918975276816622e+03
 1.145795098446028e+03 -1.874809691133598e+02  2.918975276816622e+03
 1.145823675865970e+03 -1.886645277235570e+02  2.918975276816622e+03
 1.145783302198283e+03 -1.901722035108625e+02  2.918975276816622e+03
 1.146021424693331e+03 -1.946413702273544e+02  2.918975276816622e+03
 1.146362882855190e+03 -1.968874807967563e+02  2.918975276816622e+03
 1.145948109884730e+03 -1.972227350373654e+02  2.918975276816622e+03
 1.146188195729318e+03 -1.984904712535969e+02  2.918975276816622e+03
 1.145813653471318e+03 -2.002388781755653e+02  2.918975276816622e+03
 1.146227655917631e+03 -2.017304346724172e+02  2.918975276816622e+03
 1.146318497172644e+03 -2.028971748226772e+02  2.918975276816622e+03
 1.147054496854277e+03 -2.038534746495403e+02  2.918975276816622e+03
 1.146331887810828e+03 -2.043673764215681e+02  2.918975276816622e+03
 1.146457697106611e+03 -2.057024705671906e+02  2.918975276816622e+03
 1.145773379144982e+03 -2.065702102593361e+02  2.918975276816622e+03
 1.145792955898678e+03 -2.074404989823701e+02  2.918975276816622e+03
 1.145819894856465e+03 -2.086375455443404e+02  2.918975276816622e+03
 1.145766627613948e+03 -2.101446081577778e+02  2.918975276816622e+03
 1.145988274467733e+03 -2.146123114623785e+02  2.918975276816622e+03
 1.146321802714244e+03 -2.168758133126753e+02  2.918975276816622e+03
 1.145926507890555e+03 -2.171977601048845e+02  2.918975276816622e+03
 1.146142179128330e+03 -2.184174149214896e+02  2.918975276816622e+03
 1.145746182782631e+03 -2.201978254692064e+02  2.918975276816622e+03
 1.146117587550877e+03 -2.217381739841531e+02  2.918975276816622e+03
 1.145942358270056e+03 -2.229190563329690e+02  2.918975276816622e+03
 1.147074006657775e+03 -2.239442746320819e+02  2.918975276816622e+03
 1.146042540063898e+03 -2.246251478346222e+02  2.918975276816622e+03
 1.145957293619093e+03 -2.257221813937287e+02  2.918975276816622e+03
 1.145878195312322e+03 -2.257817483813888e+02  2.918975276816622e+03
 1.145385045631963e+03 -2.270504396225197e+02  2.918975276816622e+03
 1.145183645125726e+03 -2.288351643520389e+02  2.918975276816622e+03
 1.144887779057203e+03 -2.299590519584381e+02  2.918975276816622e+03
 1.144780437207437e+03 -2.330575711290355e+02  2.918975276816622e+03
 1.145313376822230e+03 -2.344658631521350e+02  2.918975276816622e+03
 1.145446061835107e+03 -2.362024600246765e+02  2.918975276816622e+03
 1.145233125888225e+03 -2.382163373974504e+02  2.918975276816622e+03
 1.145648424964638e+03 -2.415565628894280e+02  2.918975276816622e+03
 1.146531381208237e+03 -2.419499905782204e+02  2.918975276816622e+03
 1.146060342024799e+03 -2.434763329190171e+02  2.918975276816622e+03
 1.145460239618038e+03 -2.445569531527333e+02  2.918975276816622e+03
 1.145373857560597e+03 -2.458396448964444e+02  2.918975276816622e+03
 1.145912698618005e+03 -2.458104989838681e+02  2.918975276816622e+03
 1.146181254609904e+03 -2.477293566934796e+02  2.918975276816622e+03
 1.144752648084346e+03 -2.489956474555368e+02  2.918975276816622e+03
 1.144978491455105e+03 -2.514125491509013e+02  2.918975276816622e+03
 1.144434711632562e+03 -2.521818638101468e+02  2.918975276816622e+03
 1.145096655852587e+03 -2.533704359114313e+02  2.918975276816622e+03
 1.144886589438225e+03 -2.554075221991461e+02  2.918975276816622e+03
 1.145516089344140e+03 -2.551231942395848e+02  2.918975276816622e+03
 1.145623460264956e+03 -2.564795949740062e+02  2.918975276816622e+03
 1.145648727989684e+03 -2.572959359694193e+02  2.918975276816622e+03
 1.145491033957458e+03 -2.584599370236841e+02  2.918975276816622e+03
 1.145690222948808e+03 -2.594766368932401e+02  2.918975276816622e+03
 1.145711606954241e+03 -2.610384791081631e+02  2.918975276816622e+03
 1.146359972136809e+03 -2.655439988091564e+02  2.918975276816622e+03
 1.146678491756768e+03 -2.675404805867263e+02  2.918975276816622e+03
 1.144705510558143e+03 -2.666579210076818e+02  2.918975276816622e+03
 1.145335944535800e+03 -2.691806471713933e+02  2.918975276816622e+03
 1.145630883239965e+03 -2.700593964199703e+02  2.918975276816622e+03
 1.145884815595689e+03 -2.725719436044693e+02  2.918975276816622e+03
 1.145287671372421e+03 -2.732940601131032e+02  2.918975276816622e+03
 1.145654578537726e+03 -2.755063037338834e+02  2.918975276816622e+03
 1.145374223631830e+03 -2.767663512583489e+02  2.918975276816622e+03
 1.146596371743678e+03 -2.779850465084408e+02  2.918975276816622e+03
 1.146085148445370e+03 -2.791034246088355e+02  2.918975276816622e+03
 1.146453716620111e+03 -2.831893247465877e+02  2.918975276816622e+03
 1.146194873221100e+03 -2.861245519545982e+02  2.918975276816622e+03
 1.146889007812967e+03 -2.885253188068460e+02  2.918975276816622e+03
 1.145349236755722e+03 -2.882814205057184e+02  2.918975276816622e+03
 1.145976117213418e+03 -2.909323200890973e+02  2.918975276816622e+03
 1.145655342689430e+03 -2.930203972588573e+02  2.918975276816622e+03
 1.146080930270153e+03 -2.945573750213274e+02  2.918975276816622e+03
 1.145091959281254e+03 -2.964935910414315e+02  2.918975276816622e+03
 1.146492814954082e+03 -2.973524743880413e+02  2.918975276816622e+03
 1.145318434118565e+03 -2.988270888128297e+02  2.918975276816622e+03
 1.145748045317690e+03 -2.996067732810984e+02  2.918975276816622e+03
 1.145531301290670e+03 -3.027258643822788e+02  2.918975276816622e+03
 1.145562599264784e+03 -3.035922861758473e+02  2.918975276816622e+03
 1.145234840910362e+03 -3.058983120655139e+02  2.918975276816622e+03
 1.145588758144169e+03 -3.058142385672783e+02  2.918975276816622e+03
 1.145590637489077e+03 -3.080967986877973e+02  2.918975276816622e+03
 1.145134263366914e+03 -3.098945984911111e+02  2.918975276816622e+03
 1.144343820609939e+03 -3.099292896517197e+02  2.918975276816622e+03
 1.144380287810092e+03 -3.118717873594435e+02  2.918975276816622e+03
 1.145112477638523e+03 -3.125380403693528e+02  2.918975276816622e+03
 1.145607766447343e+03 -3.134613000718716e+02  2.918975276816622e+03
 1.145027632398413e+03 -3.148356229409749e+02  2.918975276816622e+03
 1.144913819782388e+03 -3.176425399515076e+02  2.918975276816622e+03
 1.143401658347838e+03 -3.178623151670464e+02  2.918975276816622e+03
 1.145228152338434e+03 -3.198212033734861e+02  2.918975276816622e+03
 1.144407638109143e+03 -3.206287453554528e+02  2.918975276816622e+03
 1.145250106145018e+03 -3.222772597663250e+02  2.918975276816622e+03
 1.144003984355837e+03 -3.236371774423814e+02  2.918975276816622e+03
 1.144887421097251e+03 -3.266581684394974e+02  2.918975276816622e+03
 1.144670781260142e+03 -3.277734232488582e+02  2.918975276816622e+03
 1.144785789446652e+03 -3.293793323463840e+02  2.918975276816622e+03
 1.144492858217554e+03 -3.317837263143763e+02  2.918975276816622e+03
 1.144703717957376e+03 -3.343263640733250e+02  2.918975276816622e+03
 1.145001881454519e+03 -3.379428003176720e+02  2.918975276816622e+03
 1.144289110226561e+03 -3.390963881237147e+02  2.918975276816622e+03
 1.144474193538284e+03 -3.405150839537215e+02  2.918975276816622e+03
 1.144146826059385e+03 -3.411567126702647e+02  2.918975276816622e+03
 1.145402914638126e+03 -3.416945444828707e+02  2.918975276816622e+03
 1.145159053694362e+03 -3.429594016982118e+02  2.918975276816622e+03
 1.145472301958853e+03 -3.446516731356871e+02  2.918975276816622e+03
 1.145047467095478e+03 -3.463950886757945e+02  2.918975276816622e+03
 1.146654607514985e+03 -3.459086568481695e+02  2.918975276816622e+03
 1.146267801803709e+03 -3.481929661855839e+02  2.918975276816622e+03
 1.145812900567710e+03 -3.506319907969485e+02  2.918975276816622e+03
 1.145745609680639e+03 -3.524271597923774e+02  2.918975276816622e+03
 1.145067640211738e+03 -3.521829783228637e+02  2.918975276816622e+03
 1.144785101732248e+03 -3.539683586566181e+02  2.918975276816622e+03
 1.144264100751123e+03 -3.547744155782172e+02  2.918975276816622e+03
 1.145188838579484e+03 -3.556549669473978e+02  2.918975276816622e+03
 1.144745365945143e+03 -3.570048710805231e+02  2.918975276816622e+03
 1.145367602322692e+03 -3.595584829038673e+02  2.918975276816622e+03
 1.145722369039255e+03 -3.623802652231376e+02  2.918975276816622e+03
 1.146234231345807e+03 -3.635739615350140e+02  2.918975276816622e+03
 1.145603061432404e+03 -3.646516456498816e+02  2.918975276816622e+03
 1.145826095144824e+03 -3.660996018074312e+02  2.918975276816622e+03
 1.145339515993495e+03 -3.670864328379662e+02  2.918975276816622e+03
 1.145563052348444e+03 -3.687487516560067e+02  2.918975276816622e+03
 1.145258970909546e+03 -3.714669339146826e+02  2.918975276816622e+03
 1.145411043931770e+03 -3.717871406619033e+02  2.918975276816622e+03
 1.145112625289899e+03 -3.753121929572029e+02  2.918975276816622e+03
 1.145119090200425e+03 -3.778687007268410e+02  2.918975276816622e+03
 1.144904516662456e+03 -3.829305858944282e+02  2.918975276816622e+03
 1.145110334694434e+03 -3.835313845569750e+02  2.918975276816622e+03
1.145674901560076e+03 3.849374203876870e+02 2.918975276816622e+03
1.145594469661387e+03 3.814644684858384e+02 2.918975276816622e+03
1.145750839666943e+03 3.791702296585760e+02 2.918975276816622e+03
1.144956830868993e+03 3.781281114033764e+02 2.918975276816622e+03
1.145405137222639e+03 3.762493566780866e+02 2.918975276816622e+03
1.145751538444046e+03 3.750416391567792e+02 2.918975276816622e+03
1.145848111159389e+03 3.749614546563923e+02 2.918975276816622e+03
1.145372397454673e+03 3.736165782024441e+02 2.918975276816622e+03
1.145792131842663e+03 3.724435544805661e+02 2.918975276816622e+03
1.145472223778958e+03 3.711725064979751e+02 2.918975276816622e+03
1.146034614647916e+03 3.682382907681959e+02 2.918975276816622e+03
1.145367888090219e+03 3.686218177916937e+02 2.918975276816622e+03
1.145143400267735e+03 3.681848360427946e+02 2.918975276816622e+03
1.144144449086803e+03 3.672567965714065e+02 2.918975276816622e+03
1.144355223523970e+03 3.668873736491055e+02 2.918975276816622e+03
1.144492987375364e+03 3.653020005223952e+02 2.918975276816622e+03
1.145126428824188e+03 3.626016209654021e+02 2.918975276816622e+03
1.144924981902837e+03 3.597780113716294e+02 2.918975276816622e+03
1.145163029481090e+03 3.580744366642363e+02 2.918975276816622e+03
1.144416170049886e+03 3.565315666891441e+02 2.918975276816622e+03
1.145371810315642e+03 3.565504772218140e+02 2.918975276816622e+03
1.145180015440517e+03 3.553926660291863e+02 2.918975276816622e+03
1.145329278472355e+03 3.554177056068084e+02 2.918975276816622e+03
1.145439161807692e+03 3.542102091791667e+02 2.918975276816622e+03
1.145582737024067e+03 3.527446074439018e+02 2.918975276816622e+03
1.145538855420023e+03 3.512341804944853e+02 2.918975276816622e+03
1.145313609436899e+03 3.483578252460014e+02 2.918975276816622e+03
1.144987874445826e+03 3.476492713854211e+02 2.918975276816622e+03
1.144871660031589e+03 3.451290255029697e+02 2.918975276816622e+03
1.145483980791393e+03 3.440510973408541e+02 2.918975276816622e+03
1.145048056431336e+03 3.417373339167576e+02 2.918975276816622e+03
1.144698071878905e+03 3.410455019249678e+02 2.918975276816622e+03
1.144658075514628e+03 3.385473294269386e+02 2.918975276816622e+03
1.145463272218510e+03 3.376189567171584e+02 2.918975276816622e+03
1.145446055069047e+03 3.366445809802329e+02 2.918975276816622e+03
1.144890752993189e+03 3.357432861597517e+02 2.918975276816622e+03
1.145287065166033e+03 3.345418341466747e+02 2.918975276816622e+03
1.145157924334787e+03 3.317626017074480e+02 2.918975276816622e+03
1.146709690977788e+03 3.310484864403082e+02 2.918975276816622e+03
1.145725215178501e+03 3.288345510198203e+02 2.918975276816622e+03
1.146176785074030e+03 3.283390084329490e+02 2.918975276816622e+03
1.145366680284996e+03 3.263285323114142e+02 2.918975276816622e+03
1.145890000774877e+03 3.249742957623608e+02 2.918975276816622e+03
1.145158741264989e+03 3.231620022377879e+02 2.918975276816622e+03
1.145933194179250e+03 3.226994738664751e+02 2.918975276816622e+03
1.146064074223088e+03 3.215020394902413e+02 2.918975276816622e+03
1.146187433060502e+03 3.192326356492470e+02 2.918975276816622e+03
1.146583591838854e+03 3.182223472870107e+02 2.918975276816622e+03
1.146596602561225e+03 3.156760433216756e+02 2.918975276816622e+03
1.145772650240207e+03 3.126446805349464e+02 2.918975276816622e+03
1.145373514354661e+03 3.114257652039906e+02 2.918975276816622e+03
1.145046135338484e+03 3.110129682171049e+02 2.918975276816622e+03
1.145348676219463e+03 3.095014727043099e+02 2.918975276816622e+03
1.144937965899333e+03 3.076415228688218e+02 2.918975276816622e+03
1.145312413145796e+03 3.065543856080646e+02 2.918975276816622e+03
1.144851217389119e+03 3.043988084771476e+02 2.918975276816622e+03
1.144944536898891e+03 3.035155546868911e+02 2.918975276816622e+03
1.145921335023761e+03 3.018313030631913e+02 2.918975276816622e+03
1.145988180620837e+03 3.012642137098134e+02 2.918975276816622e+03
1.145505872203013e+03 2.989739991236564e+02 2.918975276816622e+03
1.145219824878993e+03 2.977957618105149e+02 2.918975276816622e+03
1.145333422598399e+03 2.958023484981239e+02 2.918975276816622e+03
1.146265421951821e+03 2.944560657238414e+02 2.918975276816622e+03
1.146487028412507e+03 2.926589744766356e+02 2.918975276816622e+03
1.146187233719969e+03 2.921482753117966e+02 2.918975276816622e+03
1.145710419468440e+03 2.909004614475928e+02 2.918975276816622e+03
1.148360985257209e+03 2.898760577431744e+02 2.918975276816622e+03
1.145714742702969e+03 2.879864306552490e+02 2.918975276816622e+03
1.146503199197712e+03 2.855546054772761e+02 2.918975276816622e+03
1.145919691676276e+03 2.844864526755116e+02 2.918975276816622e+03
1.146393135986602e+03 2.822496675612822e+02 2.918975276816622e+03
1.145083635332953e+03 2.805216739149876e+02 2.918975276816622e+03
1.144865289415322e+03 2.787369947467090e+02 2.918975276816622e+03
1.146161417780270e+03 2.790028827784502e+02 2.918975276816622e+03
1.145624470389468e+03 2.769258163792069e+02 2.918975276816622e+03
1.144855377061180e+03 2.758832357574067e+02 2.918975276816622e+03
1.145893593098367e+03 2.753496174532972e+02 2.918975276816622e+03
1.145580241306394e+03 2.736718882913244e+02 2.918975276816622e+03
1.144959905770704e+03 2.738090389439457e+02 2.918975276816622e+03
1.145289853850518e+03 2.727408289371943e+02 2.918975276816622e+03
1.145495312532710e+03 2.711445793750484e+02 2.918975276816622e+03
1.145432277042553e+03 2.665835528356961e+02 2.918975276816622e+03
1.145428993146701e+03 2.649404320551457e+02 2.918975276816622e+03
1.145636516978842e+03 2.624600984681426e+02 2.918975276816622e+03
1.145290102184117e+03 2.596096025115240e+02 2.918975276816622e+03
1.145314917641446e+03 2.585868476571388e+02 2.918975276816622e+03
1.145493845971387e+03 2.573546724635752e+02 2.918975276816622e+03
1.145511049519678e+03 2.570515424209150e+02 2.918975276816622e+03
1.145413374186959e+03 2.555176809864568e+02 2.918975276816622e+03
1.146032074192295e+03 2.552434482913943e+02 2.918975276816622e+03
1.146058486199373e+03 2.533151818248660e+02 2.918975276816622e+03
1.144662454016726e+03 2.522667302916929e+02 2.918975276816622e+03
1.143731581729960e+03 2.521777182350309e+02 2.918975276816622e+03
1.144622476852769e+03 2.499244744376441e+02 2.918975276816622e+03
1.144546876927491e+03 2.488731198007528e+02 2.918975276816622e+03
1.145359350971994e+03 2.476851198488687e+02 2.918975276816622e+03
1.144935731569156e+03 2.456217210420051e+02 2.918975276816622e+03
1.145663474836792e+03 2.460759909708402e+02 2.918975276816622e+03
1.145632531211174e+03 2.447831180541266e+02 2.918975276816622e+03
1.145644812535429e+03 2.439781533562223e+02 2.918975276816622e+03
1.145594338129110e+03 2.426031932461523e+02 2.918975276816622e+03
1.145831250678140e+03 2.417305749887348e+02 2.918975276816622e+03
1.145757527883168e+03 2.402707039639351e+02 2.918975276816622e+03
1.146992688099760e+03 2.361511495806661e+02 2.918975276816622e+03
1.148033472317188e+03 2.345526123330391e+02 2.918975276816622e+03
1.145123631043622e+03 2.343615874794287e+02 2.918975276816622e+03
1.145659986560858e+03 2.322003651219089e+02 2.918975276816622e+03
1.145700457146048e+03 2.312018087387412e+02 2.918975276816622e+03
1.145953425857644e+03 2.286638050267364e+02 2.918975276816622e+03
1.145769418647709e+03 2.277455153435979e+02 2.918975276816622e+03
1.145795223055427e+03 2.266890301963952e+02 2.918975276816622e+03
1.145934892190658e+03 2.259144136143891e+02 2.918975276816622e+03
1.146044902535236e+03 2.248687682244559e+02 2.918975276816622e+03
1.145162223260250e+03 2.239423315511776e+02 2.918975276816622e+03
1.145675133285352e+03 2.228187086545675e+02 2.918975276816622e+03
1.145836609717712e+03 2.218421405900163e+02 2.918975276816622e+03
1.145900470074331e+03 2.202626437152087e+02 2.918975276816622e+03
1.147167955660962e+03 2.160346579517444e+02 2.918975276816622e+03
1.147867691192602e+03 2.141587369730197e+02 2.918975276816622e+03
1.144812197261466e+03 2.144656785047256e+02 2.918975276816622e+03
1.145378401925456e+03 2.122120379311797e+02 2.918975276816622e+03
1.145674472941071e+03 2.112302613341578e+02 2.918975276816622e+03
1.145918035847310e+03 2.087612568081338e+02 2.918975276816622e+03
1.145567376594164e+03 2.077661160374754e+02 2.918975276816622e+03
1.145484966462037e+03 2.064168567033238e+02 2.918975276816622e+03
1.145934985787199e+03 2.060393770524532e+02 2.918975276816622e+03
1.146014874548988e+03 2.048482154914295e+02 2.918975276816622e+03
1.145150685582331e+03 2.039549608557839e+02 2.918975276816622e+03
1.145648404683142e+03 2.025616536877537e+02 2.918975276816622e+03
1.145889112131488e+03 2.017440525254466e+02 2.918975276816622e+03
1.145848075794555e+03 2.003493814697252e+02 2.918975276816622e+03
1.147015560055224e+03 1.962116888948331e+02 2.918975276816622e+03
1.148055902151378e+03 1.946465947660496e+02 2.918975276816622e+03
1.145198625281694e+03 1.947204412549572e+02 2.918975276816622e+03
1.145678761067181e+03 1.923629103610141e+02 2.918975276816622e+03
1.145703002313102e+03 1.912561348318864e+02 2.918975276816622e+03
1.145923242001960e+03 1.887348141398230e+02 2.918975276816622e+03
1.145631050524982e+03 1.877656385295462e+02 2.918975276816622e+03
1.145674358394840e+03 1.865271869775789e+02 2.918975276816622e+03
1.145877883077246e+03 1.859379501626898e+02 2.918975276816622e+03
1.146031808424082e+03 1.849388596583464e+02 2.918975276816622e+03
1.145151541012972e+03 1.839917136584109e+02 2.918975276816622e+03
1.145676593107463e+03 1.828760149039535e+02 2.918975276816622e+03
1.145831643546345e+03 1.818997364456293e+02 2.918975276816622e+03
1.145893497624918e+03 1.803241529736066e+02 2.918975276816622e+03
1.147139961289614e+03 1.760813260089773e+02 2.918975276816622e+03
1.147794287471765e+03 1.742130714889038e+02 2.918975276816622e+03
1.144801249055578e+03 1.745423679804905e+02 2.918975276816622e+03
1.145384660023283e+03 1.722673296207503e+02 2.918975276816622e+03
1.145686973882165e+03 1.712828958191878e+02 2.918975276816622e+03
1.145901588633731e+03 1.687429374171504e+02 2.918975276816622e+03
1.145308817369704e+03 1.676617566735026e+02 2.918975276816622e+03
1.145713835444134e+03 1.667419319429975e+02 2.918975276816622e+03
1.145951994932863e+03 1.660268447034191e+02 2.918975276816622e+03
1.146032762759269e+03 1.649573401884873e+02 2.918975276816622e+03
1.145143568676476e+03 1.641173005730249e+02 2.918975276816622e+03
1.145573660567574e+03 1.627619975171165e+02 2.918975276816622e+03
1.145845388827737e+03 1.619137467624414e+02 2.918975276816622e+03
1.145913498364096e+03 1.604287671169026e+02 2.918975276816622e+03
1.147151680229994e+03 1.563734832378673e+02 2.918975276816622e+03
1.148169149457341e+03 1.550328403089162e+02 2.918975276816622e+03
1.145344007486556e+03 1.546291377298050e+02 2.918975276816622e+03
1.145818159569490e+03 1.527270271990161e+02 2.918975276816622e+03
1.145726373514630e+03 1.513124762819481e+02 2.918975276816622e+03
1.145957124397960e+03 1.487825517915369e+02 2.918975276816622e+03
1.145715566981022e+03 1.477964089367923e+02 2.918975276816622e+03
1.145798250500896e+03 1.467980291154151e+02 2.918975276816622e+03
1.145956801960251e+03 1.460506079629793e+02 2.918975276816622e+03
1.146060049931323e+03 1.449904310624678e+02 2.918975276816622e+03
1.145187268483184e+03 1.440590682386076e+02 2.918975276816622e+03
1.145701714390543e+03 1.429436120528407e+02 2.918975276816622e+03
1.145845853362599e+03 1.419669829361841e+02 2.918975276816622e+03
1.145924600164295e+03 1.403944949644404e+02 2.918975276816622e+03
1.147277077953471e+03 1.362000487111657e+02 2.918975276816622e+03
1.147897460172871e+03 1.342551729073070e+02 2.918975276816622e+03
1.144877812881763e+03 1.345655428085890e+02 2.918975276816622e+03
1.145435901369783e+03 1.323488379558643e+02 2.918975276816622e+03
1.145684231446808e+03 1.313509410638854e+02 2.918975276816622e+03
1.145890157750938e+03 1.288536372756348e+02 2.918975276816622e+03
1.145564837931854e+03 1.278736607185332e+02 2.918975276816622e+03
1.145520289384285e+03 1.264778587781568e+02 2.918975276816622e+03
1.145819179103096e+03 1.260242999753874e+02 2.918975276816622e+03
1.146012478681490e+03 1.250316348358720e+02 2.918975276816622e+03
1.145135601899198e+03 1.240698434423474e+02 2.918975276816622e+03
1.145652642587821e+03 1.229673528009882e+02 2.918975276816622e+03
1.145816861089015e+03 1.219835072682354e+02 2.918975276816622e+03
1.145886936216759e+03 1.204188445084673e+02 2.918975276816622e+03
1.147189380466062e+03 1.162044119960166e+02 2.918975276816622e+03
1.147831721067133e+03 1.143326966758298e+02 2.918975276816622e+03
1.144772450905063e+03 1.146352831103990e+02 2.918975276816622e+03
1.145356759671327e+03 1.123716601698788e+02 2.918975276816622e+03
1.145663263549730e+03 1.113817725409528e+02 2.918975276816622e+03
1.145902331846331e+03 1.089466445044940e+02 2.918975276816622e+03
1.145681144067118e+03 1.081874578035716e+02 2.918975276816622e+03
1.145467853152779e+03 1.067605956456749e+02 2.918975276816622e+03
1.145869131075084e+03 1.063696592864703e+02 2.918975276816622e+03
1.145833549975394e+03 1.049379094762698e+02 2.918975276816622e+03
1.144965377432210e+03 1.040877015354901e+02 2.918975276816622e+03
1.145521460814375e+03 1.026505049648089e+02 2.918975276816622e+03
1.145756058725643e+03 1.017666194023753e+02 2.918975276816622e+03
1.145542040795765e+03 1.004904497709210e+02 2.918975276816622e+03
1.145698816372212e+03 9.584226798309219e+01 2.918975276816622e+03
1.146214966822424e+03 9.346548974381422e+01 2.918975276816622e+03
1.146009257104477e+03 9.308569219898257e+01 2.918975276816622e+03
1.146245605127665e+03 9.203863597644056e+01 2.918975276816622e+03
1.144861263650916e+03 9.011970100844826e+01 2.918975276816622e+03
1.144970956005309e+03 8.917359494163675e+01 2.918975276816622e+03
1.142259943075062e+03 8.886479369490823e+01 2.918975276816622e+03
1.144272396637202e+03 8.668446666944337e+01 2.918975276816622e+03
1.144426140547492e+03 8.601644063160751e+01 2.918975276816622e+03
1.145663178103096e+03 8.567300933443018e+01 2.918975276816622e+03
1.145108593695134e+03 8.387097908246743e+01 2.918975276816622e+03
1.145211702586922e+03 8.025439638084561e+01 2.918975276816622e+03
1.145387356090180e+03 7.921125153619612e+01 2.918975276816622e+03
1.145212898860714e+03 7.751159364003426e+01 2.918975276816622e+03
1.145210702920409e+03 7.597890884781168e+01 2.918975276816622e+03
1.144519168682483e+03 7.442516804859498e+01 2.918975276816622e+03
1.145394676694672e+03 7.311904909784312e+01 2.918975276816622e+03
1.144548242388838e+03 7.135282337838792e+01 2.918975276816622e+03
1.144508503784230e+03 6.966019422367960e+01 2.918975276816622e+03
1.143503031718083e+03 6.917390964329903e+01 2.918975276816622e+03
1.145440528699310e+03 6.789522465063564e+01 2.918975276816622e+03
1.144437648028651e+03 6.658695895066421e+01 2.918975276816622e+03
1.145240709834952e+03 6.588335582514752e+01 2.918975276816622e+03
1.145055370517290e+03 6.439440839904698e+01 2.918975276816622e+03
1.146685533256428e+03 6.242508469033253e+01 2.918975276816622e+03
1.145814273465743e+03 6.222399098236982e+01 2.918975276816622e+03
1.145381956510658e+03 6.136007466622805e+01 2.918975276816622e+03
1.144592548629068e+03 6.127192185928771e+01 2.918975276816622e+03
1.144804191720244e+03 5.966725966827707e+01 2.918975276816622e+03
1.144033448524416e+03 5.858179765837382e+01 2.918975276816622e+03
1.144056367949530e+03 5.774137557937637e+01 2.918975276816622e+03
1.143116524028769e+03 5.677551110442131e+01 2.918975276816622e+03
1.144929901158559e+03 5.622074229126335e+01 2.918975276816622e+03
1.143948950985411e+03 5.490347576688320e+01 2.918975276816622e+03
1.145016897492402e+03 5.432711646535827e+01 2.918975276816622e+03
1.144924033154750e+03 5.203382154460914e+01 2.918975276816622e+03
1.145293691627917e+03 5.022030619024311e+01 2.918975276816622e+03
1.145205853699857e+03 4.917088214803099e+01 2.918975276816622e+03
1.145506398544096e+03 4.781075276490787e+01 2.918975276816622e+03
1.145340675088959e+03 4.688530823870024e+01 2.918975276816622e+03
1.145663129492486e+03 4.418501961344008e+01 2.918975276816622e+03
1.145583706621846e+03 4.245360349700967e+01 2.918975276816622e+03
1.145209109253075e+03 4.166850160143537e+01 2.918975276816622e+03
1.145435826482793e+03 4.020641010529492e+01 2.918975276816622e+03
1.145803378093118e+03 3.821694041494938e+01 2.918975276816622e+03
1.144765802443982e+03 3.622202027304861e+01 2.918975276816622e+03
1.144618050141712e+03 3.465857405249605e+01 2.918975276816622e+03
1.146751690553614e+03 3.469005271404962e+01 2.918975276816622e+03
1.146413928574744e+03 3.241276098155015e+01 2.918975276816622e+03
1.145728384571341e+03 2.932181066240317e+01 2.918975276816622e+03
1.146403373372483e+03 2.737192257792950e+01 2.918975276816622e+03
1.146328044001979e+03 2.392944962066734e+01 2.918975276816622e+03
1.146857597226895e+03 2.212182934545330e+01 2.918975276816622e+03
1.146093807919174e+03 2.061757278954923e+01 2.918975276816622e+03
1.147427921175736e+03 1.807506432232553e+01 2.918975276816622e+03
1.146588851921940e+03 1.821165166389246e+01 2.918975276816622e+03
1.146705412681291e+03 1.591436412204315e+01 2.918975276816622e+03
1.145953129221529e+03 1.434932377530767e+01 2.918975276816622e+03
1.146875005548288e+03 1.291509580745933e+01 2.918975276816622e+03
1.145155911586031e+03 1.094636443461919e+01 2.918975276816622e+03
1.145751039747203e+03 9.678251163135043e+00 2.918975276816622e+03
1.145606069442429e+03 6.965303729818888e+00 2.918975276816622e+03
1.145601160099837e+03 4.268627555384763e+00 2.918975276816622e+03
1.145052903583811e+03 2.779775594804107e+00 2.918975276816622e+03
-1.156940355482458e+03  1.127635364436567e+00 -2.918975276816622e+03
-1.157492468567593e+03 -8.562819769888596e-01 -2.918975276816622e+03
-1.158852017918301e+03 -2.410951059052288e+00 -2.918975276816622e+03
-1.158101264011605e+03 -2.941366175452182e+00 -2.918975276816622e+03
-1.158102093181318e+03 -4.875096862603518e+00 -2.918975276816622e+03
-1.158056410027976e+03 -6.065991825705680e+00 -2.918975276816622e+03
-1.159589586892862e+03 -6.972907335788190e+00 -2.918975276816622e+03
-1.158089974469628e+03 -8.407568427699479e+00 -2.918975276816622e+03
-1.158236361808157e+03 -1.058451903827712e+01 -2.918975276816622e+03
-1.157733095322413e+03 -1.084139159223196e+01 -2.918975276816622e+03
-1.157857831726081e+03 -1.353747972958254e+01 -2.918975276816622e+03
-1.157068967385065e+03 -1.456982546205864e+01 -2.918975276816622e+03
-1.157755050907695e+03 -1.717371555925460e+01 -2.918975276816622e+03
-1.156963018438840e+03 -2.030838783556779e+01 -2.918975276816622e+03
-1.157350619396037e+03 -2.294877335424897e+01 -2.918975276816622e+03
-1.156535987764858e+03 -2.351079933786270e+01 -2.918975276816622e+03
-1.158333332706494e+03 -2.626051062670702e+01 -2.918975276816622e+03
-1.157952682632611e+03 -2.652823531200965e+01 -2.918975276816622e+03
-1.158261578646789e+03 -2.874304820834358e+01 -2.918975276816622e+03
-1.156719184173517e+03 -2.845584650915892e+01 -2.918975276816622e+03
-1.157333161277629e+03 -3.067136399081266e+01 -2.918975276816622e+03
-1.157220731537371e+03 -3.201750073236998e+01 -2.918975276816622e+03
-1.157839373473026e+03 -3.243266438760070e+01 -2.918975276816622e+03
-1.156931603881009e+03 -3.389773528883224e+01 -2.918975276816622e+03
-1.157244228565924e+03 -3.492659741054993e+01 -2.918975276816622e+03
-1.157229524754346e+03 -3.607631745996647e+01 -2.918975276816622e+03
-1.157365641731466e+03 -3.743726142584428e+01 -2.918975276816622e+03
-1.157156209993636e+03 -4.066845251314179e+01 -2.918975276816622e+03
-1.156986844794180e+03 -4.135874451577840e+01 -2.918975276816622e+03
-1.156958583950096e+03 -4.354008820856964e+01 -2.918975276816622e+03
-1.156947886492149e+03 -4.482173100247383e+01 -2.918975276816622e+03
-1.156434302406279e+03 -4.599638393558940e+01 -2.918975276816622e+03
-1.157057416606443e+03 -4.748044407530530e+01 -2.918975276816622e+03
-1.157326532130292e+03 -4.973347039172852e+01 -2.918975276816622e+03
-1.156890967825771e+03 -5.067972113578899e+01 -2.918975276816622e+03
-1.156902630930371e+03 -5.211388843754110e+01 -2.918975276816622e+03
-1.157400383858219e+03 -5.523755375582507e+01 -2.918975276816622e+03
-1.157606448174178e+03 -5.629789459988140e+01 -2.918975276816622e+03
-1.157783613693879e+03 -5.755986199733876e+01 -2.918975276816622e+03
-1.155882124410393e+03 -5.755168086231518e+01 -2.918975276816622e+03
-1.156190194966803e+03 -5.888318329322870e+01 -2.918975276816622e+03
-1.156737966113734e+03 -6.041753553852942e+01 -2.918975276816622e+03
-1.156983817406195e+03 -6.134049714574024e+01 -2.918975276816622e+03
-1.156984741108266e+03 -6.351729488944829e+01 -2.918975276816622e+03
-1.157164394321094e+03 -6.475462762596128e+01 -2.918975276816622e+03
-1.157249684298487e+03 -6.599598948858247e+01 -2.918975276816622e+03
-1.157058460128022e+03 -6.743029814304333e+01 -2.918975276816622e+03
-1.157238285433874e+03 -6.977842462268433e+01 -2.918975276816622e+03
-1.157213015361898e+03 -7.096090449877931e+01 -2.918975276816622e+03
-1.156936492937176e+03 -7.239871975574738e+01 -2.918975276816622e+03
-1.157460633984872e+03 -7.329125139109148e+01 -2.918975276816622e+03
-1.157397175709144e+03 -7.520200239720251e+01 -2.918975276816622e+03
-1.157495660551798e+03 -7.625330979161087e+01 -2.918975276816622e+03
-1.157608359653135e+03 -7.758428723154172e+01 -2.918975276816622e+03
-1.155887761472488e+03 -7.751276336138200e+01 -2.918975276816622e+03
-1.156183145314243e+03 -7.886248455687505e+01 -2.918975276816622e+03
-1.156733373316596e+03 -8.038438375013340e+01 -2.918975276816622e+03
-1.156971059045305e+03 -8.130853879942123e+01 -2.918975276816622e+03
-1.156976549691114e+03 -8.348550477398528e+01 -2.918975276816622e+03
-1.156900002926400e+03 -8.473623185974387e+01 -2.918975276816622e+03
-1.157025435619075e+03 -8.600346074365453e+01 -2.918975276816622e+03
-1.156989052343410e+03 -8.742626714067809e+01 -2.918975276816622e+03
-1.157045377739177e+03 -8.976138594062952e+01 -2.918975276816622e+03
-1.157270536573650e+03 -9.046729586749251e+01 -2.918975276816622e+03
-1.157599703681631e+03 -9.188705184387921e+01 -2.918975276816622e+03
-1.157428441803386e+03 -9.518841190730033e+01 -2.918975276816622e+03
-1.157424849067030e+03 -9.644124982565586e+01 -2.918975276816622e+03
-1.157359475306058e+03 -9.731954745277412e+01 -2.918975276816622e+03
-1.155625587957387e+03 -9.744066174689110e+01 -2.918975276816622e+03
-1.156359916130721e+03 -9.890600284301797e+01 -2.918975276816622e+03
-1.156618494525238e+03 -1.004442028238759e+02 -2.918975276816622e+03
-1.156895142109948e+03 -1.012555910461467e+02 -2.918975276816622e+03
-1.156900030206072e+03 -1.034499528626258e+02 -2.918975276816622e+03
-1.157137847350657e+03 -1.046841332250125e+02 -2.918975276816622e+03
-1.157162082068880e+03 -1.058965422762410e+02 -2.918975276816622e+03
-1.157163728254414e+03 -1.073664628167223e+02 -2.918975276816622e+03
-1.157227551852987e+03 -1.097039088648354e+02 -2.918975276816622e+03
-1.157067961803987e+03 -1.108310345580233e+02 -2.918975276816622e+03
-1.156454463309385e+03 -1.131412769849724e+02 -2.918975276816622e+03
-1.156705636481407e+03 -1.135673834085120e+02 -2.918975276816622e+03
-1.157086565544265e+03 -1.160055446110101e+02 -2.918975276816622e+03
-1.156710307033989e+03 -1.167963706068416e+02 -2.918975276816622e+03
-1.156930240427954e+03 -1.183691421708262e+02 -2.918975276816622e+03
-1.156705017287729e+03 -1.204237998343537e+02 -2.918975276816622e+03
-1.156892950532327e+03 -1.212273349175375e+02 -2.918975276816622e+03
-1.156884161329142e+03 -1.234193530984442e+02 -2.918975276816622e+03
-1.157174288926316e+03 -1.246687489288621e+02 -2.918975276816622e+03
-1.157238975237512e+03 -1.259060525025054e+02 -2.918975276816622e+03
-1.157068800901038e+03 -1.273339440413504e+02 -2.918975276816622e+03
-1.157290071862889e+03 -1.296743235010991e+02 -2.918975276816622e+03
-1.157192239303414e+03 -1.309767373230518e+02 -2.918975276816622e+03
-1.156925165899305e+03 -1.322744600353287e+02 -2.918975276816622e+03
-1.157525234642926e+03 -1.331914310420176e+02 -2.918975276816622e+03
-1.157430412988472e+03 -1.351054431746187e+02 -2.918975276816622e+03
-1.157571492082234e+03 -1.361001490952663e+02 -2.918975276816622e+03
-1.157772575793364e+03 -1.374587606430266e+02 -2.918975276816622e+03
-1.155909048742488e+03 -1.374444055091224e+02 -2.918975276816622e+03
-1.156203519762564e+03 -1.387519527848769e+02 -2.918975276816622e+03
-1.156745919436380e+03 -1.402903685597259e+02 -2.918975276816622e+03
-1.156991889536413e+03 -1.412126128092739e+02 -2.918975276816622e+03
-1.156993463592805e+03 -1.433922208819961e+02 -2.918975276816622e+03
-1.157168496094299e+03 -1.446294421998877e+02 -2.918975276816622e+03
-1.157255744875149e+03 -1.458631530211720e+02 -2.918975276816622e+03
-1.157078011874189e+03 -1.473021399582494e+02 -2.918975276816622e+03
-1.157296071657941e+03 -1.496372864103123e+02 -2.918975276816622e+03
-1.157236924612612e+03 -1.509373673045358e+02 -2.918975276816622e+03
-1.156944538927067e+03 -1.522377309602427e+02 -2.918975276816622e+03
-1.157526991871438e+03 -1.531825748940425e+02 -2.918975276816622e+03
-1.157434408660425e+03 -1.550732426840339e+02 -2.918975276816622e+03
-1.157584704095927e+03 -1.560471252532771e+02 -2.918975276816622e+03
-1.157848896644150e+03 -1.574209784138605e+02 -2.918975276816622e+03
-1.155899251266748e+03 -1.574789771588395e+02 -2.918975276816622e+03
-1.156387877670706e+03 -1.587440553620034e+02 -2.918975276816622e+03
-1.156606871716085e+03 -1.603490511550539e+02 -2.918975276816622e+03
-1.156909042876612e+03 -1.611627433565630e+02 -2.918975276816622e+03
-1.156910550123609e+03 -1.633571136612759e+02 -2.918975276816622e+03
-1.157214101644076e+03 -1.646109648235002e+02 -2.918975276816622e+03
-1.157266622403793e+03 -1.658449226957140e+02 -2.918975276816622e+03
-1.157083815861916e+03 -1.672695887984788e+02 -2.918975276816622e+03
-1.157303565506510e+03 -1.696038989855148e+02 -2.918975276816622e+03
-1.157256524080238e+03 -1.709238691148543e+02 -2.918975276816622e+03
-1.156962723485406e+03 -1.722023063370619e+02 -2.918975276816622e+03
-1.157544558272754e+03 -1.731577357672504e+02 -2.918975276816622e+03
-1.157442208569236e+03 -1.750420621640808e+02 -2.918975276816622e+03
-1.157593090861231e+03 -1.760015644580390e+02 -2.918975276816622e+03
-1.157921951353441e+03 -1.774047300330505e+02 -2.918975276816622e+03
-1.155855083504466e+03 -1.775356850624028e+02 -2.918975276816622e+03
-1.156533537522874e+03 -1.788496988075090e+02 -2.918975276816622e+03
-1.156497303984697e+03 -1.803501693067449e+02 -2.918975276816622e+03
-1.156865743024963e+03 -1.810491198787095e+02 -2.918975276816622e+03
-1.156898258738735e+03 -1.833092851359995e+02 -2.918975276816622e+03
-1.157304805622844e+03 -1.845876214634046e+02 -2.918975276816622e+03
-1.157260714876914e+03 -1.858142230382601e+02 -2.918975276816622e+03
-1.157062095564509e+03 -1.872391486153214e+02 -2.918975276816622e+03
-1.157269241587938e+03 -1.895848149711897e+02 -2.918975276816622e+03
-1.157287240554277e+03 -1.908280980301004e+02 -2.918975276816622e+03
-1.156962049493474e+03 -1.921822435912724e+02 -2.918975276816622e+03
-1.157513389507953e+03 -1.931322349289379e+02 -2.918975276816622e+03
-1.157424380493631e+03 -1.950093006106941e+02 -2.918975276816622e+03
-1.157572988644637e+03 -1.959925040254843e+02 -2.918975276816622e+03
-1.157861031226019e+03 -1.973892770386668e+02 -2.918975276816622e+03
-1.155840159685832e+03 -1.974791456070252e+02 -2.918975276816622e+03
-1.156525442754493e+03 -1.988281514082760e+02 -2.918975276816622e+03
-1.156503180112204e+03 -2.003203607688812e+02 -2.918975276816622e+03
-1.156874791341614e+03 -2.010175733895261e+02 -2.918975276816622e+03
-1.156937323505928e+03 -2.032795587473799e+02 -2.918975276816622e+03
-1.157363601006682e+03 -2.045529615387364e+02 -2.918975276816622e+03
-1.157682944920017e+03 -2.057415814636915e+02 -2.918975276816622e+03
-1.157199835105409e+03 -2.072313885614208e+02 -2.918975276816622e+03
-1.157369363850128e+03 -2.095615790480481e+02 -2.918975276816622e+03
-1.157498701407763e+03 -2.105858875522433e+02 -2.918975276816622e+03
-1.158062576172812e+03 -2.118333951477058e+02 -2.918975276816622e+03
-1.157916701745331e+03 -2.130809943716642e+02 -2.918975276816622e+03
-1.157973616280326e+03 -2.130679040197082e+02 -2.918975276816622e+03
-1.157647209310303e+03 -2.150293176528620e+02 -2.918975276816622e+03
-1.157667237205771e+03 -2.159417778493394e+02 -2.918975276816622e+03
-1.158027593545240e+03 -2.171716150609166e+02 -2.918975276816622e+03
-1.155830304425511e+03 -2.174769051777528e+02 -2.918975276816622e+03
-1.156567795129007e+03 -2.187796800579836e+02 -2.918975276816622e+03
-1.156563956254438e+03 -2.202631281410478e+02 -2.918975276816622e+03
-1.156886202922850e+03 -2.209811074566628e+02 -2.918975276816622e+03
-1.156909544449299e+03 -2.232398508350216e+02 -2.918975276816622e+03
-1.157288568971074e+03 -2.245748049025985e+02 -2.918975276816622e+03
-1.157639545939443e+03 -2.257809749549918e+02 -2.918975276816622e+03
-1.157090400208228e+03 -2.271871514863367e+02 -2.918975276816622e+03
-1.157258244632787e+03 -2.295516971573359e+02 -2.918975276816622e+03
-1.157015865852023e+03 -2.307170244532054e+02 -2.918975276816622e+03
-1.157487746363627e+03 -2.317512826013049e+02 -2.918975276816622e+03
-1.157265102023051e+03 -2.349478038155979e+02 -2.918975276816622e+03
-1.157719457566006e+03 -2.357663852856896e+02 -2.918975276816622e+03
-1.157934776045047e+03 -2.370686789261309e+02 -2.918975276816622e+03
-1.155730154084431e+03 -2.373435208933286e+02 -2.918975276816622e+03
-1.156466225085602e+03 -2.387844736831464e+02 -2.918975276816622e+03
-1.156458581090246e+03 -2.402290276800919e+02 -2.918975276816622e+03
-1.156789281925874e+03 -2.409390721082426e+02 -2.918975276816622e+03
-1.156709661968355e+03 -2.430715628454462e+02 -2.918975276816622e+03
-1.156626965800487e+03 -2.452253857313879e+02 -2.918975276816622e+03
-1.157337896606241e+03 -2.459284619105458e+02 -2.918975276816622e+03
-1.156994018569195e+03 -2.470029926816131e+02 -2.918975276816622e+03
-1.156804260122022e+03 -2.492707176155695e+02 -2.918975276816622e+03
-1.157070257949007e+03 -2.502807220673203e+02 -2.918975276816622e+03
-1.156803889511815e+03 -2.517348582618185e+02 -2.918975276816622e+03
-1.156437020832472e+03 -2.545066018142635e+02 -2.918975276816622e+03
-1.156003545117360e+03 -2.563843824402884e+02 -2.918975276816622e+03
-1.155747644507021e+03 -2.565478152697166e+02 -2.918975276816622e+03
-1.156582226323203e+03 -2.579143904672421e+02 -2.918975276816622e+03
-1.156816997937114e+03 -2.602635808417250e+02 -2.918975276816622e+03
-1.157209023108264e+03 -2.610868897190579e+02 -2.918975276816622e+03
-1.157138601347981e+03 -2.628415463997958e+02 -2.918975276816622e+03
-1.157245070693547e+03 -2.642099166910717e+02 -2.918975276816622e+03
-1.157289899630137e+03 -2.658877624172688e+02 -2.918975276816622e+03
-1.157506121538493e+03 -2.668285756859274e+02 -2.918975276816622e+03
-1.157595403946805e+03 -2.673319905175717e+02 -2.918975276816622e+03
-1.154085489457502e+03 -2.681105226186847e+02 -2.918975276816622e+03
-1.156098544964680e+03 -2.698794160963561e+02 -2.918975276816622e+03
-1.155958526342054e+03 -2.712857435767592e+02 -2.918975276816622e+03
-1.156717466925373e+03 -2.719168084370729e+02 -2.918975276816622e+03
-1.156120523477013e+03 -2.740447022201789e+02 -2.918975276816622e+03
-1.156965014299891e+03 -2.754683048748603e+02 -2.918975276816622e+03
-1.156862687167237e+03 -2.772902369309986e+02 -2.918975276816622e+03
-1.156644108271950e+03 -2.784399183994875e+02 -2.918975276816622e+03
-1.156772073723777e+03 -2.803680361686806e+02 -2.918975276816622e+03
-1.156893107479466e+03 -2.819317323982130e+02 -2.918975276816622e+03
-1.155757740885728e+03 -2.849318917649611e+02 -2.918975276816622e+03
-1.156987928680883e+03 -2.856173371147549e+02 -2.918975276816622e+03
-1.156341788892621e+03 -2.868627794931633e+02 -2.918975276816622e+03
-1.156269430078372e+03 -2.885919681586670e+02 -2.918975276816622e+03
-1.156366443956973e+03 -2.895023189428438e+02 -2.918975276816622e+03
-1.156790422964706e+03 -2.936550838943971e+02 -2.918975276816622e+03
-1.156409347431827e+03 -2.950755036808654e+02 -2.918975276816622e+03
-1.155697508740256e+03 -2.971157216877344e+02 -2.918975276816622e+03
-1.156505333009013e+03 -2.969757810285664e+02 -2.918975276816622e+03
-1.157103492843259e+03 -2.989825157272828e+02 -2.918975276816622e+03
-1.156448404783181e+03 -2.999739296429175e+02 -2.918975276816622e+03
-1.156928840538591e+03 -3.016208266582616e+02 -2.918975276816622e+03
-1.156618127584845e+03 -3.020965553881023e+02 -2.918975276816622e+03
-1.156736306645359e+03 -3.035734324285500e+02 -2.918975276816622e+03
-1.156506401492685e+03 -3.044975649157773e+02 -2.918975276816622e+03
-1.156913060817114e+03 -3.056028885406025e+02 -2.918975276816622e+03
-1.158201361161798e+03 -3.070681237794153e+02 -2.918975276816622e+03
-1.156560678712477e+03 -3.087028526171950e+02 -2.918975276816622e+03
-1.156684806458294e+03 -3.104961379772881e+02 -2.918975276816622e+03
-1.155975205114589e+03 -3.133480280977478e+02 -2.918975276816622e+03
-1.159079759050893e+03 -3.134947318059542e+02 -2.918975276816622e+03
-1.157986039262332e+03 -3.154769416367197e+02 -2.918975276816622e+03
-1.157739976589490e+03 -3.172650797208507e+02 -2.918975276816622e+03
-1.157366903777516e+03 -3.189607896965745e+02 -2.918975276816622e+03
-1.158044215760923e+03 -3.202252662085506e+02 -2.918975276816622e+03
-1.157862507648246e+03 -3.223854944805171e+02 -2.918975276816622e+03
-1.157827935222948e+03 -3.238250653168994e+02 -2.918975276816622e+03
-1.157531022811871e+03 -3.247836767879504e+02 -2.918975276816622e+03
-1.157584136115005e+03 -3.267772091082141e+02 -2.918975276816622e+03
-1.157719281913767e+03 -3.271569098488877e+02 -2.918975276816622e+03
-1.157366751738128e+03 -3.288112393652461e+02 -2.918975276816622e+03
-1.157572109312944e+03 -3.294865975261312e+02 -2.918975276816622e+03
-1.156899208137159e+03 -3.306899093488542e+02 -2.918975276816622e+03
-1.157359918539360e+03 -3.321330407334628e+02 -2.918975276816622e+03
-1.156747218689889e+03 -3.325690777219777e+02 -2.918975276816622e+03
-1.158138982946054e+03 -3.349939320670631e+02 -2.918975276816622e+03
-1.156598296227798e+03 -3.365917848947279e+02 -2.918975276816622e+03
-1.156675806008222e+03 -3.369075563626030e+02 -2.918975276816622e+03
-1.156455587113524e+03 -3.387727298131911e+02 -2.918975276816622e+03
-1.156699743846984e+03 -3.412597220246199e+02 -2.918975276816622e+03
-1.156388946947114e+03 -3.428001890365796e+02 -2.918975276816622e+03
-1.156835949388857e+03 -3.441491356967301e+02 -2.918975276816622e+03
-1.156910058673255e+03 -3.481253593303958e+02 -2.918975276816622e+03
-1.156458604205511e+03 -3.487412774870579e+02 -2.918975276816622e+03
-1.155796918656213e+03 -3.507820622997782e+02 -2.918975276816622e+03
-1.156122139864123e+03 -3.511779861512005e+02 -2.918975276816622e+03
-1.156468149227758e+03 -3.533542877597510e+02 -2.918975276816622e+03
-1.156064801355311e+03 -3.578157951428086e+02 -2.918975276816622e+03
-1.156774026229501e+03 -3.589296690764439e+02 -2.918975276816622e+03
-1.156929907910436e+03 -3.621629854398407e+02 -2.918975276816622e+03
-1.157780483275937e+03 -3.637379991505503e+02 -2.918975276816622e+03
-1.157030413745652e+03 -3.648108996038329e+02 -2.918975276816622e+03
-1.156360012101492e+03 -3.672236288785475e+02 -2.918975276816622e+03
-1.157012728276304e+03 -3.711239419729015e+02 -2.918975276816622e+03
-1.157051751723533e+03 -3.725723141246964e+02 -2.918975276816622e+03
-1.156972741232625e+03 -3.741782249383550e+02 -2.918975276816622e+03
-1.157048364820225e+03 -3.767667047032028e+02 -2.918975276816622e+03
-1.156940368897837e+03 -3.776129707190295e+02 -2.918975276816622e+03
-1.157226265192914e+03 -3.799024268142806e+02 -2.918975276816622e+03
-1.156853852117907e+03 -3.803823533042301e+02 -2.918975276816622e+03
-1.156821266850104e+03 -3.825196370025262e+02 -2.918975276816622e+03
-1.156784696240279e+03 -3.860784926654433e+02 -2.918975276816622e+03
-1.157428010294686e+03  3.834479542614038e+02 -2.918975276816622e+03
-1.156393624258331e+03  3.821340051668187e+02 -2.918975276816622e+03
-1.156723788285095e+03  3.785924280559690e+02 -2.918975276816622e+03
-1.156725754757789e+03  3.776161910031116e+02 -2.918975276816622e+03
-1.157043466973274e+03  3.766284417414448e+02 -2.918975276816622e+03
-1.157013460214172e+03  3.736265479231036e+02 -2.918975276816622e+03
-1.157169749454211e+03  3.695963117600439e+02 -2.918975276816622e+03
-1.157163142524379e+03  3.676207264375328e+02 -2.918975276816622e+03
-1.156460293089287e+03  3.677753903582050e+02 -2.918975276816622e+03
-1.158186340283697e+03  3.632657569030021e+02 -2.918975276816622e+03
-1.155978181707433e+03  3.628808930599419e+02 -2.918975276816622e+03
-1.156743322871802e+03  3.615070143975224e+02 -2.918975276816622e+03
-1.156521917957721e+03  3.603541737276500e+02 -2.918975276816622e+03
-1.157814856150084e+03  3.596748246035673e+02 -2.918975276816622e+03
-1.157470815606959e+03  3.582424461165830e+02 -2.918975276816622e+03
-1.158282912002083e+03  3.562504938284278e+02 -2.918975276816622e+03
-1.158442216633414e+03  3.550343537954155e+02 -2.918975276816622e+03
-1.158218828778389e+03  3.532943808280984e+02 -2.918975276816622e+03
-1.158197223970693e+03  3.520562715383908e+02 -2.918975276816622e+03
-1.157851344607378e+03  3.511359342416832e+02 -2.918975276816622e+03
-1.158358705311912e+03  3.500950327835283e+02 -2.918975276816622e+03
-1.157546152941916e+03  3.490561516168384e+02 -2.918975276816622e+03
-1.158102569109283e+03  3.473267548303579e+02 -2.918975276816622e+03
-1.156437642055262e+03  3.477676582499016e+02 -2.918975276816622e+03
-1.155964902870156e+03  3.461779704994076e+02 -2.918975276816622e+03
-1.154516250000153e+03  3.461296930356748e+02 -2.918975276816622e+03
-1.155846805028574e+03  3.441647202309456e+02 -2.918975276816622e+03
-1.156149704014573e+03  3.430503938992705e+02 -2.918975276816622e+03
-1.156485177403003e+03  3.381082449474350e+02 -2.918975276816622e+03
-1.156694940398630e+03  3.358020421963985e+02 -2.918975276816622e+03
-1.156547953455017e+03  3.357514042877272e+02 -2.918975276816622e+03
-1.156662963589328e+03  3.298352689385102e+02 -2.918975276816622e+03
-1.157079955335313e+03  3.275809865476477e+02 -2.918975276816622e+03
-1.157235983954741e+03  3.263042812729703e+02 -2.918975276816622e+03
-1.156751329218574e+03  3.242320331325126e+02 -2.918975276816622e+03
-1.156494435316193e+03  3.216976907459472e+02 -2.918975276816622e+03
-1.156843991675455e+03  3.201582354327276e+02 -2.918975276816622e+03
-1.156638052106661e+03  3.177707439565604e+02 -2.918975276816622e+03
-1.156654336991250e+03  3.125905536318960e+02 -2.918975276816622e+03
-1.156685546751629e+03  3.106496927882714e+02 -2.918975276816622e+03
-1.157047477244668e+03  3.074457744567112e+02 -2.918975276816622e+03
-1.156608709350903e+03  3.036186983755148e+02 -2.918975276816622e+03
-1.156836084861570e+03  3.010366788647879e+02 -2.918975276816622e+03
-1.154698831790917e+03  3.000687614522532e+02 -2.918975276816622e+03
-1.157190282597773e+03  2.979822301164529e+02 -2.918975276816622e+03
-1.157429077954358e+03  2.971464193169866e+02 -2.918975276816622e+03
-1.157639442730561e+03  2.952054923439713e+02 -2.918975276816622e+03
-1.157449435577456e+03  2.938679543974137e+02 -2.918975276816622e+03
-1.157016581706002e+03  2.918124918240003e+02 -2.918975276816622e+03
-1.156471772094353e+03  2.904639113709290e+02 -2.918975276816622e+03
-1.156171370637605e+03  2.891816243446748e+02 -2.918975276816622e+03
-1.157153039436438e+03  2.887787560272417e+02 -2.918975276816622e+03
-1.157251525706763e+03  2.875314476000530e+02 -2.918975276816622e+03
-1.157336065785199e+03  2.867420104277815e+02 -2.918975276816622e+03
-1.158017454468487e+03  2.851469945649180e+02 -2.918975276816622e+03
-1.156957060783843e+03  2.842620274334193e+02 -2.918975276816622e+03
-1.157664369896785e+03  2.817312956110218e+02 -2.918975276816622e+03
-1.157701026389238e+03  2.779037483432642e+02 -2.918975276816622e+03
-1.157274477761133e+03  2.773072092983951e+02 -2.918975276816622e+03
-1.157741227527332e+03  2.751840181299407e+02 -2.918975276816622e+03
-1.157272841728871e+03  2.739672302151235e+02 -2.918975276816622e+03
-1.157369680279968e+03  2.716726581972335e+02 -2.918975276816622e+03
-1.157441208009380e+03  2.709160385867445e+02 -2.918975276816622e+03
-1.157448107518372e+03  2.696209487769984e+02 -2.918975276816622e+03
-1.157414173082766e+03  2.662897552162008e+02 -2.918975276816622e+03
-1.157546469413679e+03  2.651082199410480e+02 -2.918975276816622e+03
-1.157512959528774e+03  2.640716137562495e+02 -2.918975276816622e+03
-1.155764182758531e+03  2.640096459537928e+02 -2.918975276816622e+03
-1.156203374397843e+03  2.626188526177033e+02 -2.918975276816622e+03
-1.156764226125643e+03  2.610698123958466e+02 -2.918975276816622e+03
-1.157032057766936e+03  2.601353381693876e+02 -2.918975276816622e+03
-1.157020710147003e+03  2.579832530337443e+02 -2.918975276816622e+03
-1.156947414752480e+03  2.568888559301488e+02 -2.918975276816622e+03
-1.157056575419377e+03  2.551840841002461e+02 -2.918975276816622e+03
-1.157178680475798e+03  2.540472261727740e+02 -2.918975276816622e+03
-1.157072603819422e+03  2.512953303737993e+02 -2.918975276816622e+03
-1.157214659054153e+03  2.499934388218508e+02 -2.918975276816622e+03
-1.157118718901727e+03  2.494118194490107e+02 -2.918975276816622e+03
-1.157154364521184e+03  2.470811047914594e+02 -2.918975276816622e+03
-1.157036100977966e+03  2.459306931089174e+02 -2.918975276816622e+03
-1.157410445852158e+03  2.443168025583329e+02 -2.918975276816622e+03
-1.156969217101979e+03  2.430693793229368e+02 -2.918975276816622e+03
-1.156986042320932e+03  2.407115903685049e+02 -2.918975276816622e+03
-1.157277106123521e+03  2.399767537225658e+02 -2.918975276816622e+03
-1.157424579843888e+03  2.385763140563798e+02 -2.918975276816622e+03
-1.157387031830812e+03  2.353080417892244e+02 -2.918975276816622e+03
-1.157477059780241e+03  2.340878971355409e+02 -2.918975276816622e+03
-1.157459606470626e+03  2.331282140358789e+02 -2.918975276816622e+03
-1.155689892112229e+03  2.330691597429204e+02 -2.918975276816622e+03
-1.156345038552304e+03  2.315993670478989e+02 -2.918975276816622e+03
-1.156615664698358e+03  2.300389637804045e+02 -2.918975276816622e+03
-1.156885683272820e+03  2.292154481214477e+02 -2.918975276816622e+03
-1.156875912260526e+03  2.270231604666741e+02 -2.918975276816622e+03
-1.156902450674803e+03  2.257761703426682e+02 -2.918975276816622e+03
-1.157005822190467e+03  2.245076113027097e+02 -2.918975276816622e+03
-1.156969847925983e+03  2.230809918675821e+02 -2.918975276816622e+03
-1.157014102323907e+03  2.207620844717283e+02 -2.918975276816622e+03
-1.157229864369652e+03  2.200101946303876e+02 -2.918975276816622e+03
-1.157488234478445e+03  2.185865277117944e+02 -2.918975276816622e+03
-1.157352275769424e+03  2.152981715950482e+02 -2.918975276816622e+03
-1.157364439767520e+03  2.140356165496472e+02 -2.918975276816622e+03
-1.157378066308496e+03  2.131542910498885e+02 -2.918975276816622e+03
-1.155705163778470e+03  2.131859752880878e+02 -2.918975276816622e+03
-1.156154416272559e+03  2.116609078069513e+02 -2.918975276816622e+03
-1.156722937900946e+03  2.101622137383852e+02 -2.918975276816622e+03
-1.156939759202116e+03  2.092258677434113e+02 -2.918975276816622e+03
-1.156948363421409e+03  2.070504921082543e+02 -2.918975276816622e+03
-1.156877592554676e+03  2.058149300655560e+02 -2.918975276816622e+03
-1.156962801155371e+03  2.045382943340912e+02 -2.918975276816622e+03
-1.156963477570593e+03  2.031120785171908e+02 -2.918975276816622e+03
-1.157007072756233e+03  2.007926238951918e+02 -2.918975276816622e+03
-1.157220879175652e+03  2.000621650304141e+02 -2.918975276816622e+03
-1.157521700902240e+03  1.986260748610454e+02 -2.918975276816622e+03
-1.157373012715740e+03  1.953430537200051e+02 -2.918975276816622e+03
-1.157384485616004e+03  1.940803128073827e+02 -2.918975276816622e+03
-1.157367714600252e+03  1.931904013644613e+02 -2.918975276816622e+03
-1.155687881471754e+03  1.932030090344012e+02 -2.918975276816622e+03
-1.156154891890920e+03  1.916869932985210e+02 -2.918975276816622e+03
-1.156722837223710e+03  1.901941958493791e+02 -2.918975276816622e+03
-1.156945489585509e+03  1.892585169323823e+02 -2.918975276816622e+03
-1.156946691034595e+03  1.870834190915998e+02 -2.918975276816622e+03
-1.156932824680903e+03  1.858175788930274e+02 -2.918975276816622e+03
-1.157164454484751e+03  1.845727677729045e+02 -2.918975276816622e+03
-1.157005353433721e+03  1.831544676179894e+02 -2.918975276816622e+03
-1.157003736895645e+03  1.808564817302046e+02 -2.918975276816622e+03
-1.157272252278270e+03  1.802137539540587e+02 -2.918975276816622e+03
-1.157530690264448e+03  1.787708346670011e+02 -2.918975276816622e+03
-1.157346568247516e+03  1.753355955040810e+02 -2.918975276816622e+03
-1.157454994555431e+03  1.741186846127103e+02 -2.918975276816622e+03
-1.157430041551220e+03  1.732317633411054e+02 -2.918975276816622e+03
-1.155718052120191e+03  1.732418660849138e+02 -2.918975276816622e+03
-1.156165296584187e+03  1.717372631797161e+02 -2.918975276816622e+03
-1.156731848416841e+03  1.702245300998749e+02 -2.918975276816622e+03
-1.156951258704117e+03  1.692897483512660e+02 -2.918975276816622e+03
-1.156957820746136e+03  1.671137805068404e+02 -2.918975276816622e+03
-1.156884793306992e+03  1.658755789880612e+02 -2.918975276816622e+03
-1.156997758641102e+03  1.645996159252677e+02 -2.918975276816622e+03
-1.156982612109851e+03  1.631769185809689e+02 -2.918975276816622e+03
-1.157019598601537e+03  1.608619235242927e+02 -2.918975276816622e+03
-1.157226140623381e+03  1.601071489149861e+02 -2.918975276816622e+03
-1.157538213698418e+03  1.586783584563501e+02 -2.918975276816622e+03
-1.157339522948085e+03  1.553779406890235e+02 -2.918975276816622e+03
-1.157297735299048e+03  1.540960371792802e+02 -2.918975276816622e+03
-1.157329441652471e+03  1.532438040734756e+02 -2.918975276816622e+03
-1.155695069873547e+03  1.532920619314789e+02 -2.918975276816622e+03
-1.156146057830841e+03  1.517438443042800e+02 -2.918975276816622e+03
-1.156717895629578e+03  1.502580949647701e+02 -2.918975276816622e+03
-1.156932871574092e+03  1.493207118253667e+02 -2.918975276816622e+03
-1.156942572256290e+03  1.471445837750545e+02 -2.918975276816622e+03
-1.156882688355870e+03  1.459073483101069e+02 -2.918975276816622e+03
-1.157015219747408e+03  1.446349522780449e+02 -2.918975276816622e+03
-1.156974810261435e+03  1.432081313589624e+02 -2.918975276816622e+03
-1.157035315142608e+03  1.408860313773349e+02 -2.918975276816622e+03
-1.157249979837071e+03  1.401249852950297e+02 -2.918975276816622e+03
-1.157462730731717e+03  1.387147685130594e+02 -2.918975276816622e+03
-1.157371068931274e+03  1.354364408602843e+02 -2.918975276816622e+03
-1.157409773134036e+03  1.341919886634626e+02 -2.918975276816622e+03
-1.157407601762379e+03  1.332907356428058e+02 -2.918975276816622e+03
-1.155707943679900e+03  1.332984604309960e+02 -2.918975276816622e+03
-1.156161855819165e+03  1.317979386433590e+02 -2.918975276816622e+03
-1.156726025349053e+03  1.302875644006986e+02 -2.918975276816622e+03
-1.156942561999652e+03  1.293532746454761e+02 -2.918975276816622e+03
-1.156948660642187e+03  1.271785299991955e+02 -2.918975276816622e+03
-1.156884439619565e+03  1.259344892109530e+02 -2.918975276816622e+03
-1.157025676060772e+03  1.246638320859516e+02 -2.918975276816622e+03
-1.156992086992556e+03  1.232420857054367e+02 -2.918975276816622e+03
-1.157058824485224e+03  1.209144389671304e+02 -2.918975276816622e+03
-1.157274202166034e+03  1.201506615807886e+02 -2.918975276816622e+03
-1.157509357781074e+03  1.187478221272941e+02 -2.918975276816622e+03
-1.157377156554290e+03  1.154585762050347e+02 -2.918975276816622e+03
-1.157368520715227e+03  1.141960439395522e+02 -2.918975276816622e+03
-1.157368630626428e+03  1.133104013392606e+02 -2.918975276816622e+03
-1.155700722807022e+03  1.133262887327499e+02 -2.918975276816622e+03
-1.156155322179013e+03  1.118229485529212e+02 -2.918975276816622e+03
-1.156717554897040e+03  1.103215793216405e+02 -2.918975276816622e+03
-1.157015420922477e+03  1.093915432135684e+02 -2.918975276816622e+03
-1.157029971890082e+03  1.072240071920846e+02 -2.918975276816622e+03
-1.156901300399320e+03  1.060455082573189e+02 -2.918975276816622e+03
-1.156769529649176e+03  1.047237079201170e+02 -2.918975276816622e+03
-1.157174601675130e+03  1.032411172040069e+02 -2.918975276816622e+03
-1.157220513036109e+03  1.010891199466098e+02 -2.918975276816622e+03
-1.157129619176482e+03  1.003321920965541e+02 -2.918975276816622e+03
-1.157174945918047e+03  9.844335892111739e+01 -2.918975276816622e+03
-1.157250198213423e+03  9.710611403332871e+01 -2.918975276816622e+03
-1.157066914924592e+03  9.521144452933082e+01 -2.918975276816622e+03
-1.156771322885571e+03  9.136579483707018e+01 -2.918975276816622e+03
-1.156900707164134e+03  9.029160606521887e+01 -2.918975276816622e+03
-1.156684668988470e+03  8.830963808573520e+01 -2.918975276816622e+03
-1.157005667644489e+03  8.678443995113437e+01 -2.918975276816622e+03
-1.156597731482987e+03  8.623045236344527e+01 -2.918975276816622e+03
-1.157250700659816e+03  8.494131809725781e+01 -2.918975276816622e+03
-1.157323938235508e+03  8.245434917083374e+01 -2.918975276816622e+03
-1.157545227923358e+03  7.895217677535020e+01 -2.918975276816622e+03
-1.157163358695917e+03  7.619460998535959e+01 -2.918975276816622e+03
-1.156827037610647e+03  7.581419015631684e+01 -2.918975276816622e+03
-1.157048117859234e+03  7.352934350605346e+01 -2.918975276816622e+03
-1.157284691294812e+03  7.199567727247172e+01 -2.918975276816622e+03
-1.157036972704335e+03  7.056173645828882e+01 -2.918975276816622e+03
-1.156117216244353e+03  6.770216748553352e+01 -2.918975276816622e+03
-1.157405894966874e+03  6.772396013571760e+01 -2.918975276816622e+03
-1.157191366622155e+03  6.573450892090801e+01 -2.918975276816622e+03
-1.157478411051952e+03  6.235042607146890e+01 -2.918975276816622e+03
-1.157479096855614e+03  6.121126213078711e+01 -2.918975276816622e+03
-1.157420395210750e+03  5.997808207226959e+01 -2.918975276816622e+03
-1.157466558314341e+03  5.748060341194273e+01 -2.918975276816622e+03
-1.157253142200855e+03  5.676919416692247e+01 -2.918975276816622e+03
-1.158237149243650e+03  5.641177923302982e+01 -2.918975276816622e+03
-1.157937116762254e+03  5.463142860594294e+01 -2.918975276816622e+03
-1.157563059278152e+03  5.252362437507362e+01 -2.918975276816622e+03
-1.157870445751264e+03  5.137468465381306e+01 -2.918975276816622e+03
-1.157369838415461e+03  5.043170443177913e+01 -2.918975276816622e+03
-1.156298201462700e+03  5.037192443232964e+01 -2.918975276816622e+03
-1.156722985123810e+03  4.936545688506749e+01 -2.918975276816622e+03
-1.156667252058721e+03  4.794453859631782e+01 -2.918975276816622e+03
-1.157220052081747e+03  4.696000003799819e+01 -2.918975276816622e+03
-1.156678181369107e+03  4.652193439705452e+01 -2.918975276816622e+03
-1.156883125392432e+03  4.490546219311452e+01 -2.918975276816622e+03
-1.156726913404797e+03  4.421462567667811e+01 -2.918975276816622e+03
-1.156860504406427e+03  4.229743080382617e+01 -2.918975276816622e+03
-1.156346718445736e+03  4.170367458153745e+01 -2.918975276816622e+03
-1.156611064703407e+03  3.899913496562235e+01 -2.918975276816622e+03
-1.156598487119052e+03  3.659818021262106e+01 -2.918975276816622e+03
-1.156518479674911e+03  3.510113296367746e+01 -2.918975276816622e+03
-1.156177942733485e+03  3.368988882576895e+01 -2.918975276816622e+03
-1.155351487045548e+03  3.292538891720935e+01 -2.918975276816622e+03
-1.156732165533036e+03  3.209034334868817e+01 -2.918975276816622e+03
-1.156421371024521e+03  2.962142451682231e+01 -2.918975276816622e+03
-1.156539804066248e+03  2.884195317762058e+01 -2.918975276816622e+03
-1.156154380527154e+03  2.544771252549657e+01 -2.918975276816622e+03
-1.155779475010213e+03  2.526734884129083e+01 -2.918975276816622e+03
-1.157002467489867e+03  2.355667234232583e+01 -2.918975276816622e+03
-1.157328560204865e+03  2.199317898548577e+01 -2.918975276816622e+03
-1.158186794890626e+03  2.179618123513163e+01 -2.918975276816622e+03
-1.157640787902139e+03  2.035589894034208e+01 -2.918975276816622e+03
-1.157473210882704e+03  2.009774584733366e+01 -2.918975276816622e+03
-1.157547174584017e+03  1.846189385452518e+01 -2.918975276816622e+03
-1.157819814598486e+03  1.706637863505026e+01 -2.918975276816622e+03
-1.157551640940176e+03  1.557511094557655e+01 -2.918975276816622e+03
-1.157566699677270e+03  1.471652843895315e+01 -2.918975276816622e+03
-1.158058669698307e+03  1.341462388507823e+01 -2.918975276816622e+03
-1.157459167551903e+03  1.191624394400017e+01 -2.918975276816622e+03
-1.157260498280090e+03  7.634248172856216e+00 -2.918975276816622e+03
-1.157454549694059e+03  6.733567020573997e+00 -2.918975276816622e+03
-1.157252661012044e+03  5.118298806454093e+00 -2.918975276816622e+03
-1.157170431586772e+03  3.500557046626179e+00 -2.918975276816622e+03
-1.155569236154528e+03  3.820134402746802e+00 -2.918975276816622e+03
1.154291405676900e+03 5.926847561672343e-01 2.918975276816622e+03
 1.154419208284859e+03 -7.800813953549732e-01  2.918975276816622e+03
 1.154573302377206e+03 -2.023543348683431e+00  2.918975276816622e+03
 1.154096052914818e+03 -4.446778768650350e+00  2.918975276816622e+03
 1.154456303500929e+03 -4.990196467861733e+00  2.918975276816622e+03
 1.153338362433667e+03 -7.110350163114392e+00  2.918975276816622e+03
 1.155836866233540e+03 -7.287937629949797e+00  2.918975276816622e+03
 1.154373415305169e+03 -9.512469056144987e+00  2.918975276816622e+03
 1.154367165550905e+03 -1.118029590535259e+01  2.918975276816622e+03
 1.153694157820979e+03 -1.199369162317250e+01  2.918975276816622e+03
 1.153765431794056e+03 -1.306238194018140e+01  2.918975276816622e+03
 1.152785868112048e+03 -1.474553147964809e+01  2.918975276816622e+03
 1.155264131856134e+03 -1.482417907138620e+01  2.918975276816622e+03
 1.154566000794979e+03 -1.674959104634115e+01  2.918975276816622e+03
 1.154718815735256e+03 -2.044913104807445e+01  2.918975276816622e+03
 1.155268917216961e+03 -2.315272652949578e+01  2.918975276816622e+03
 1.154020229923542e+03 -2.379023202571251e+01  2.918975276816622e+03
 1.155224093082064e+03 -2.557910340937535e+01  2.918975276816622e+03
 1.154211949823766e+03 -2.606062054344123e+01  2.918975276816622e+03
 1.154401050305493e+03 -2.732587074367169e+01  2.918975276816622e+03
 1.154207124922389e+03 -2.809587776209942e+01  2.918975276816622e+03
 1.154353366439009e+03 -3.095699396808427e+01  2.918975276816622e+03
 1.152909663158461e+03 -3.464695105359242e+01  2.918975276816622e+03
 1.151686439391294e+03 -3.690426094690324e+01  2.918975276816622e+03
 1.150865968581878e+03 -3.861832352202433e+01  2.918975276816622e+03
 1.151746324866789e+03 -3.895287087477952e+01  2.918975276816622e+03
 1.152745770894928e+03 -4.081380944821102e+01  2.918975276816622e+03
 1.152693715299479e+03 -4.222428273362082e+01  2.918975276816622e+03
 1.152225589054295e+03 -4.223245509030995e+01  2.918975276816622e+03
 1.152892851719934e+03 -4.377389742732759e+01  2.918975276816622e+03
 1.152465013991302e+03 -4.509579329215158e+01  2.918975276816622e+03
 1.153418967010714e+03 -4.614538944225760e+01  2.918975276816622e+03
 1.153095797716021e+03 -4.905594714669746e+01  2.918975276816622e+03
 1.152922846083502e+03 -5.057542249316543e+01  2.918975276816622e+03
 1.151998949994861e+03 -5.227816915966530e+01  2.918975276816622e+03
 1.152528721677631e+03 -5.460169390054287e+01  2.918975276816622e+03
 1.152631213947407e+03 -5.620396075480212e+01  2.918975276816622e+03
 1.153720236790863e+03 -5.903105905670725e+01  2.918975276816622e+03
 1.152692795552395e+03 -6.079855726280435e+01  2.918975276816622e+03
 1.152450427494973e+03 -6.221821412849211e+01  2.918975276816622e+03
 1.151826738330447e+03 -6.248255093845982e+01  2.918975276816622e+03
 1.152591590805909e+03 -6.374097360821997e+01  2.918975276816622e+03
 1.152477640009715e+03 -6.506194204980832e+01  2.918975276816622e+03
 1.153387203643354e+03 -6.621216782106927e+01  2.918975276816622e+03
 1.153262658588057e+03 -6.902458905210280e+01  2.918975276816622e+03
 1.153098234359106e+03 -7.079797664942674e+01  2.918975276816622e+03
 1.152695218944810e+03 -7.212687827392827e+01  2.918975276816622e+03
 1.152809366933622e+03 -7.430126216153410e+01  2.918975276816622e+03
 1.152202015310404e+03 -7.703055795580451e+01  2.918975276816622e+03
 1.153137786657936e+03 -7.669839425480318e+01  2.918975276816622e+03
 1.152925896609566e+03 -7.838849893086841e+01  2.918975276816622e+03
 1.152997864537003e+03 -8.067566776424761e+01  2.918975276816622e+03
 1.152564639204064e+03 -8.218998102887544e+01  2.918975276816622e+03
 1.151990363694185e+03 -8.239300035574247e+01  2.918975276816622e+03
 1.152815444393391e+03 -8.370928412723096e+01  2.918975276816622e+03
 1.152510771938513e+03 -8.502443564883558e+01  2.918975276816622e+03
 1.153457840174361e+03 -8.614723797598512e+01  2.918975276816622e+03
 1.153241307532693e+03 -8.898798360565281e+01  2.918975276816622e+03
 1.153265774824386e+03 -9.064025215487834e+01  2.918975276816622e+03
 1.153306709311003e+03 -9.230912708374672e+01  2.918975276816622e+03
 1.153101452082145e+03 -9.458479169490823e+01  2.918975276816622e+03
 1.153273336024434e+03 -9.683115192954696e+01  2.918975276816622e+03
 1.153982468457143e+03 -9.805434720560189e+01  2.918975276816622e+03
 1.153347387988868e+03 -1.006347945377859e+02  2.918975276816622e+03
 1.152690062652447e+03 -1.022337517847917e+02  2.918975276816622e+03
 1.151642942469093e+03 -1.025381527363865e+02  2.918975276816622e+03
 1.152369575712806e+03 -1.036962579732236e+02  2.918975276816622e+03
 1.152433143496413e+03 -1.050035380832504e+02  2.918975276816622e+03
 1.153398217411422e+03 -1.061320079627980e+02  2.918975276816622e+03
 1.153263273325487e+03 -1.089666492419841e+02  2.918975276816622e+03
 1.153116643454067e+03 -1.106327524471490e+02  2.918975276816622e+03
 1.152946986209490e+03 -1.122099092231494e+02  2.918975276816622e+03
 1.153236512321080e+03 -1.142471627488764e+02  2.918975276816622e+03
 1.153400267266102e+03 -1.170677181546047e+02  2.918975276816622e+03
 1.153348045723216e+03 -1.206967861208934e+02  2.918975276816622e+03
 1.153087194503815e+03 -1.236122590409929e+02  2.918975276816622e+03
 1.152611595818277e+03 -1.249602534533378e+02  2.918975276816622e+03
 1.153446379271809e+03 -1.261099521339691e+02  2.918975276816622e+03
 1.153264189595063e+03 -1.289259685416426e+02  2.918975276816622e+03
 1.153159272879813e+03 -1.304960489929035e+02  2.918975276816622e+03
 1.152530504689226e+03 -1.320746482088515e+02  2.918975276816622e+03
 1.152955998474279e+03 -1.342610749842024e+02  2.918975276816622e+03
 1.152589913020002e+03 -1.363745044994178e+02  2.918975276816622e+03
 1.154414437457361e+03 -1.381298174908054e+02  2.918975276816622e+03
 1.152849391585961e+03 -1.383913205180980e+02  2.918975276816622e+03
 1.152958584390378e+03 -1.404773370865516e+02  2.918975276816622e+03
 1.152437560392150e+03 -1.420681915328597e+02  2.918975276816622e+03
 1.151873868530263e+03 -1.423290850078617e+02  2.918975276816622e+03
 1.152767696721832e+03 -1.436487536861284e+02  2.918975276816622e+03
 1.152488582815925e+03 -1.449446450683459e+02  2.918975276816622e+03
 1.153414420932224e+03 -1.460787360777034e+02  2.918975276816622e+03
 1.153258541026685e+03 -1.488924534175894e+02  2.918975276816622e+03
 1.153119654814140e+03 -1.504766607249490e+02  2.918975276816622e+03
 1.152658830895711e+03 -1.520217600374712e+02  2.918975276816622e+03
 1.152849870540313e+03 -1.541718518244497e+02  2.918975276816622e+03
 1.152213645680006e+03 -1.569191814502277e+02  2.918975276816622e+03
 1.153209335422114e+03 -1.565609813645133e+02  2.918975276816622e+03
 1.153016463211156e+03 -1.581668462255083e+02  2.918975276816622e+03
 1.153092191520447e+03 -1.605455114333024e+02  2.918975276816622e+03
 1.152665437639309e+03 -1.620787270824702e+02  2.918975276816622e+03
 1.152116257682874e+03 -1.622307520933305e+02  2.918975276816622e+03
 1.152875549556699e+03 -1.635626487552014e+02  2.918975276816622e+03
 1.152410380569061e+03 -1.648872384440439e+02  2.918975276816622e+03
 1.153478754693231e+03 -1.660588845229319e+02  2.918975276816622e+03
 1.153253280098538e+03 -1.688471402011353e+02  2.918975276816622e+03
 1.153217206280593e+03 -1.704023061337327e+02  2.918975276816622e+03
 1.152641196750765e+03 -1.719923199631719e+02  2.918975276816622e+03
 1.152882049011637e+03 -1.741618093996818e+02  2.918975276816622e+03
 1.152186429537042e+03 -1.768880410825007e+02  2.918975276816622e+03
 1.153173551627855e+03 -1.765083693807374e+02  2.918975276816622e+03
 1.153170780923903e+03 -1.781385507712216e+02  2.918975276816622e+03
 1.153268180042101e+03 -1.805277750512689e+02  2.918975276816622e+03
 1.153099142304487e+03 -1.835258927760633e+02  2.918975276816622e+03
 1.152658171033815e+03 -1.848667160900441e+02  2.918975276816622e+03
 1.153435238168226e+03 -1.860291413192057e+02  2.918975276816622e+03
 1.153274968962029e+03 -1.888370686845562e+02  2.918975276816622e+03
 1.153131804848827e+03 -1.906002961984262e+02  2.918975276816622e+03
 1.152721114846742e+03 -1.919536888754035e+02  2.918975276816622e+03
 1.152880197520300e+03 -1.941111140695685e+02  2.918975276816622e+03
 1.152267898589359e+03 -1.968717209397457e+02  2.918975276816622e+03
 1.153277289070033e+03 -1.965258335285165e+02  2.918975276816622e+03
 1.153048445662890e+03 -1.981105210245835e+02  2.918975276816622e+03
 1.153089129941044e+03 -2.004725163177592e+02  2.918975276816622e+03
 1.152649742716105e+03 -2.020065207986548e+02  2.918975276816622e+03
 1.152088887673505e+03 -2.021725278611475e+02  2.918975276816622e+03
 1.152872283693697e+03 -2.035041793449437e+02  2.918975276816622e+03
 1.152396483090874e+03 -2.048280802761861e+02  2.918975276816622e+03
 1.153480736954772e+03 -2.059933610972222e+02  2.918975276816622e+03
 1.153266924218313e+03 -2.087845326088187e+02  2.918975276816622e+03
 1.153237397591498e+03 -2.103378677415038e+02  2.918975276816622e+03
 1.152681569118434e+03 -2.119119466492583e+02  2.918975276816622e+03
 1.152862998495196e+03 -2.140909921588759e+02  2.918975276816622e+03
 1.152183924170996e+03 -2.168150616165354e+02  2.918975276816622e+03
 1.153144965905564e+03 -2.164657213091506e+02  2.918975276816622e+03
 1.153139904388722e+03 -2.180941255834947e+02  2.918975276816622e+03
 1.153249794529003e+03 -2.204685224556544e+02  2.918975276816622e+03
 1.153080064102468e+03 -2.234740870122097e+02  2.918975276816622e+03
 1.152731080239834e+03 -2.248800502838846e+02  2.918975276816622e+03
 1.153402182402765e+03 -2.258976492995704e+02  2.918975276816622e+03
 1.153174888082031e+03 -2.287485484190824e+02  2.918975276816622e+03
 1.152814989913378e+03 -2.304654786932560e+02  2.918975276816622e+03
 1.153114132124775e+03 -2.321052776981117e+02  2.918975276816622e+03
 1.153042235153467e+03 -2.343295775335118e+02  2.918975276816622e+03
 1.153169831081296e+03 -2.375933403824879e+02  2.918975276816622e+03
 1.153515320699833e+03 -2.384563569912175e+02  2.918975276816622e+03
 1.152864791339945e+03 -2.403563480361639e+02  2.918975276816622e+03
 1.152383063304533e+03 -2.420241100808464e+02  2.918975276816622e+03
 1.153326490667501e+03 -2.421506354493501e+02  2.918975276816622e+03
 1.152796716519915e+03 -2.437410861789423e+02  2.918975276816622e+03
 1.152576569049141e+03 -2.442566853521691e+02  2.918975276816622e+03
 1.150859321109573e+03 -2.458412649279310e+02  2.918975276816622e+03
 1.151541537619896e+03 -2.466797478958599e+02  2.918975276816622e+03
 1.152125130942612e+03 -2.480090352635318e+02  2.918975276816622e+03
 1.153342239753421e+03 -2.486996049943620e+02  2.918975276816622e+03
 1.153641116175490e+03 -2.495094411808367e+02  2.918975276816622e+03
 1.152370456937738e+03 -2.527840068718579e+02  2.918975276816622e+03
 1.152659444685978e+03 -2.530454012038170e+02  2.918975276816622e+03
 1.152112748752720e+03 -2.546918133807836e+02  2.918975276816622e+03
 1.152971502313864e+03 -2.555118857923839e+02  2.918975276816622e+03
 1.151398904676537e+03 -2.573311550665370e+02  2.918975276816622e+03
 1.153154608591016e+03 -2.579994345408826e+02  2.918975276816622e+03
 1.152350638067893e+03 -2.588725255324984e+02  2.918975276816622e+03
 1.153134914988227e+03 -2.595097050369052e+02  2.918975276816622e+03
 1.153275449460900e+03 -2.610025833485462e+02  2.918975276816622e+03
 1.152526007802894e+03 -2.632044303697437e+02  2.918975276816622e+03
 1.151537868187315e+03 -2.632810783582748e+02  2.918975276816622e+03
 1.152099460855737e+03 -2.649149257149044e+02  2.918975276816622e+03
 1.150510025133751e+03 -2.659197615259696e+02  2.918975276816622e+03
 1.151288240787967e+03 -2.666690091710552e+02  2.918975276816622e+03
 1.152838328339059e+03 -2.686243619979765e+02  2.918975276816622e+03
 1.152894896631471e+03 -2.698740420806565e+02  2.918975276816622e+03
 1.153869453601373e+03 -2.699889265110785e+02  2.918975276816622e+03
 1.153502614380160e+03 -2.712406039423950e+02  2.918975276816622e+03
 1.153952352674776e+03 -2.724717005081113e+02  2.918975276816622e+03
 1.152751959221547e+03 -2.731474660913312e+02  2.918975276816622e+03
 1.153812900045436e+03 -2.746283109419101e+02  2.918975276816622e+03
 1.154099046323087e+03 -2.773374567671065e+02  2.918975276816622e+03
 1.154800155941740e+03 -2.792275291627798e+02  2.918975276816622e+03
 1.154111920499291e+03 -2.803425797770549e+02  2.918975276816622e+03
 1.154496249061910e+03 -2.834774539853622e+02  2.918975276816622e+03
 1.154650680391142e+03 -2.861266246322581e+02  2.918975276816622e+03
 1.154293718406987e+03 -2.912624439679615e+02  2.918975276816622e+03
 1.154115582798606e+03 -2.930837649139697e+02  2.918975276816622e+03
 1.154203461946859e+03 -2.932354289310182e+02  2.918975276816622e+03
 1.154227254833742e+03 -2.952663345202894e+02  2.918975276816622e+03
 1.154793107848326e+03 -2.967401778300422e+02  2.918975276816622e+03
 1.155159135760261e+03 -2.973925927379347e+02  2.918975276816622e+03
 1.155822616534367e+03 -2.980639978280256e+02  2.918975276816622e+03
 1.155862712084545e+03 -2.990341867444046e+02  2.918975276816622e+03
 1.157121735765153e+03 -2.994202795013544e+02  2.918975276816622e+03
 1.155260013196102e+03 -3.014475535455527e+02  2.918975276816622e+03
 1.155017342982622e+03 -3.034525669552924e+02  2.918975276816622e+03
 1.154170802283053e+03 -3.037239506645990e+02  2.918975276816622e+03
 1.154736563192174e+03 -3.074242593937669e+02  2.918975276816622e+03
 1.154337983790815e+03 -3.096034965618669e+02  2.918975276816622e+03
 1.154429505434345e+03 -3.099610624032428e+02  2.918975276816622e+03
 1.154050457640475e+03 -3.113026859946340e+02  2.918975276816622e+03
 1.154575230921430e+03 -3.121082128418125e+02  2.918975276816622e+03
 1.154275732320816e+03 -3.136007923177003e+02  2.918975276816622e+03
 1.154391215290544e+03 -3.149022156478558e+02  2.918975276816622e+03
 1.156516098974326e+03 -3.150762829307494e+02  2.918975276816622e+03
 1.154408765970390e+03 -3.170814264077071e+02  2.918975276816622e+03
 1.154180331115555e+03 -3.177999292180155e+02  2.918975276816622e+03
 1.154036679093454e+03 -3.214647705364169e+02  2.918975276816622e+03
 1.153807520427300e+03 -3.260423620274283e+02  2.918975276816622e+03
 1.153912018293662e+03 -3.285765673622595e+02  2.918975276816622e+03
 1.153689101061963e+03 -3.312753688151096e+02  2.918975276816622e+03
 1.153874293507612e+03 -3.322961371256724e+02  2.918975276816622e+03
 1.153551324338179e+03 -3.348319860722359e+02  2.918975276816622e+03
 1.153420295539963e+03 -3.385530858711301e+02  2.918975276816622e+03
 1.153970566075385e+03 -3.395416288943916e+02  2.918975276816622e+03
 1.154525859679722e+03 -3.410993418894282e+02  2.918975276816622e+03
 1.153611836733500e+03 -3.412931449084786e+02  2.918975276816622e+03
 1.153572713472103e+03 -3.430101158653166e+02  2.918975276816622e+03
 1.152926135118995e+03 -3.457152799215447e+02  2.918975276816622e+03
 1.154202172230282e+03 -3.450136038062059e+02  2.918975276816622e+03
 1.153682164442907e+03 -3.484256482158260e+02  2.918975276816622e+03
 1.154054642147530e+03 -3.507747501560270e+02  2.918975276816622e+03
 1.153603666849340e+03 -3.519576015033087e+02  2.918975276816622e+03
 1.154791471620493e+03 -3.538910496158526e+02  2.918975276816622e+03
 1.154625938331275e+03 -3.547247900717410e+02  2.918975276816622e+03
 1.154953470887545e+03 -3.570818122481413e+02  2.918975276816622e+03
 1.154501729803024e+03 -3.600952271711986e+02  2.918975276816622e+03
 1.154805528086453e+03 -3.629148744710069e+02  2.918975276816622e+03
 1.155337585427212e+03 -3.640120763849810e+02  2.918975276816622e+03
 1.153753234271060e+03 -3.658402204471943e+02  2.918975276816622e+03
 1.154667780479837e+03 -3.665741320275614e+02  2.918975276816622e+03
 1.154791307814896e+03 -3.681424087177926e+02  2.918975276816622e+03
 1.155589278002332e+03 -3.686383660653205e+02  2.918975276816622e+03
 1.153473617644922e+03 -3.706911743331351e+02  2.918975276816622e+03
 1.153699557153660e+03 -3.713289403218552e+02  2.918975276816622e+03
 1.153855293360178e+03 -3.743524351792699e+02  2.918975276816622e+03
 1.154065406771606e+03 -3.761173717203070e+02  2.918975276816622e+03
 1.154317430483989e+03 -3.815063627718838e+02  2.918975276816622e+03
 1.154460088392087e+03 -3.832993507383372e+02  2.918975276816622e+03
 1.154240989722157e+03 -3.837345216759111e+02  2.918975276816622e+03
1.153646277673128e+03 3.857059234972347e+02 2.918975276816622e+03
1.154690523309009e+03 3.843820002241227e+02 2.918975276816622e+03
1.152193385236500e+03 3.814263890669801e+02 2.918975276816622e+03
1.152347823119813e+03 3.809733867421757e+02 2.918975276816622e+03
1.153740721451063e+03 3.763257646304556e+02 2.918975276816622e+03
1.153749777920294e+03 3.754737302740352e+02 2.918975276816622e+03
1.153591459894662e+03 3.748296121989936e+02 2.918975276816622e+03
1.153895909038436e+03 3.735528703362401e+02 2.918975276816622e+03
1.153410548731723e+03 3.723615744743712e+02 2.918975276816622e+03
1.153568835883362e+03 3.710341924245582e+02 2.918975276816622e+03
1.152999778917741e+03 3.680986277135356e+02 2.918975276816622e+03
1.154088391587486e+03 3.684930404771390e+02 2.918975276816622e+03
1.154318923970522e+03 3.682098728941221e+02 2.918975276816622e+03
1.155323570409439e+03 3.673337217084414e+02 2.918975276816622e+03
1.155161971431457e+03 3.669106570578532e+02 2.918975276816622e+03
1.154916326726640e+03 3.651888555313372e+02 2.918975276816622e+03
1.154192286190482e+03 3.627419656018301e+02 2.918975276816622e+03
1.154408406436921e+03 3.598477704921387e+02 2.918975276816622e+03
1.154185248103179e+03 3.582543611335412e+02 2.918975276816622e+03
1.154534375810880e+03 3.569977044223725e+02 2.918975276816622e+03
1.154192714138489e+03 3.569922749993403e+02 2.918975276816622e+03
1.154752584748524e+03 3.552664805404689e+02 2.918975276816622e+03
1.154706437746747e+03 3.535994459805550e+02 2.918975276816622e+03
1.155407526882908e+03 3.525650820724801e+02 2.918975276816622e+03
1.155821872686205e+03 3.508892624522805e+02 2.918975276816622e+03
1.156640008696469e+03 3.501143837694526e+02 2.918975276816622e+03
1.155100861438285e+03 3.485934092939870e+02 2.918975276816622e+03
1.154554457625110e+03 3.472320502560910e+02 2.918975276816622e+03
1.153868236156370e+03 3.452019845824121e+02 2.918975276816622e+03
1.154331317530519e+03 3.448434609701530e+02 2.918975276816622e+03
1.153933191258656e+03 3.431940858683984e+02 2.918975276816622e+03
1.153889146013821e+03 3.419418994670396e+02 2.918975276816622e+03
1.153705025430679e+03 3.405558507641739e+02 2.918975276816622e+03
1.154579768669236e+03 3.398381490187043e+02 2.918975276816622e+03
1.154755201262598e+03 3.400947605653186e+02 2.918975276816622e+03
1.156813140934410e+03 3.399189507554372e+02 2.918975276816622e+03
1.154277666790928e+03 3.360148043719189e+02 2.918975276816622e+03
1.155583499486372e+03 3.351280666900286e+02 2.918975276816622e+03
1.154740107500972e+03 3.343473702056108e+02 2.918975276816622e+03
1.155970795703270e+03 3.330483734046763e+02 2.918975276816622e+03
1.154325893803059e+03 3.324332437047179e+02 2.918975276816622e+03
1.154663892108419e+03 3.315768624867104e+02 2.918975276816622e+03
1.152367020212106e+03 3.313752906316651e+02 2.918975276816622e+03
1.153279812280685e+03 3.298925114683747e+02 2.918975276816622e+03
1.152997516930124e+03 3.290293156073032e+02 2.918975276816622e+03
1.153867303876176e+03 3.272984845025055e+02 2.918975276816622e+03
1.153270310320731e+03 3.267966081623260e+02 2.918975276816622e+03
1.154208930040176e+03 3.257459232522767e+02 2.918975276816622e+03
1.153490827524079e+03 3.248635560295668e+02 2.918975276816622e+03
1.153493219502960e+03 3.236130063990649e+02 2.918975276816622e+03
1.152115617584913e+03 3.217951380255137e+02 2.918975276816622e+03
1.152111941268391e+03 3.204312229213137e+02 2.918975276816622e+03
1.153315112495634e+03 3.208131737081611e+02 2.918975276816622e+03
1.153938744430312e+03 3.189520737761061e+02 2.918975276816622e+03
1.154337630073517e+03 3.184205603337504e+02 2.918975276816622e+03
1.154893704420206e+03 3.172450683316678e+02 2.918975276816622e+03
1.154238280833746e+03 3.150887996682700e+02 2.918975276816622e+03
1.154183467340494e+03 3.128032968473811e+02 2.918975276816622e+03
1.153242900314072e+03 3.120819703835002e+02 2.918975276816622e+03
1.154142030222314e+03 3.112861898352809e+02 2.918975276816622e+03
1.153408196258838e+03 3.098385897423682e+02 2.918975276816622e+03
1.154323440060720e+03 3.081292486982507e+02 2.918975276816622e+03
1.154591694887887e+03 3.061058889072330e+02 2.918975276816622e+03
1.153642707394080e+03 3.063044112467539e+02 2.918975276816622e+03
1.154399767921777e+03 3.046060990007387e+02 2.918975276816622e+03
1.156277131269128e+03 3.021257333667779e+02 2.918975276816622e+03
1.155852259109630e+03 3.016407865297616e+02 2.918975276816622e+03
1.155577584400119e+03 3.009770735165575e+02 2.918975276816622e+03
1.155842051495896e+03 3.007503435077876e+02 2.918975276816622e+03
1.155039747689188e+03 2.996060596622962e+02 2.918975276816622e+03
1.154589841922366e+03 2.980313189268898e+02 2.918975276816622e+03
1.154194046929023e+03 2.974376933108406e+02 2.918975276816622e+03
1.154636363315934e+03 2.948074207177079e+02 2.918975276816622e+03
1.154961068554588e+03 2.935621030267102e+02 2.918975276816622e+03
1.155760171030170e+03 2.880652519610620e+02 2.918975276816622e+03
1.154588107424862e+03 2.878372706855277e+02 2.918975276816622e+03
1.154628613619120e+03 2.822775803139720e+02 2.918975276816622e+03
1.153844295362708e+03 2.806028281862436e+02 2.918975276816622e+03
1.155235720095110e+03 2.794828474568959e+02 2.918975276816622e+03
1.154894040620765e+03 2.777022016529166e+02 2.918975276816622e+03
1.154842001266843e+03 2.766448603255945e+02 2.918975276816622e+03
1.155663306179243e+03 2.758891152199881e+02 2.918975276816622e+03
1.154648118485956e+03 2.747588617732162e+02 2.918975276816622e+03
1.154357545927650e+03 2.740527768439696e+02 2.918975276816622e+03
1.154256626906535e+03 2.728450976492304e+02 2.918975276816622e+03
1.154198596170351e+03 2.709652337219691e+02 2.918975276816622e+03
1.153722603553875e+03 2.686525680887975e+02 2.918975276816622e+03
1.152647392816749e+03 2.681859943020952e+02 2.918975276816622e+03
1.152965309420337e+03 2.666271232893239e+02 2.918975276816622e+03
1.151972117844635e+03 2.636673321461694e+02 2.918975276816622e+03
1.152491908885623e+03 2.631373423346495e+02 2.918975276816622e+03
1.151524572895836e+03 2.629967728119548e+02 2.918975276816622e+03
1.152564784252862e+03 2.606689700562653e+02 2.918975276816622e+03
1.152309683081798e+03 2.591864337378305e+02 2.918975276816622e+03
1.153224042618211e+03 2.589624746863071e+02 2.918975276816622e+03
1.152581755579972e+03 2.578129892176172e+02 2.918975276816622e+03
1.153036631630526e+03 2.570449279068657e+02 2.918975276816622e+03
1.151765459974446e+03 2.555532511875747e+02 2.918975276816622e+03
1.152454336834913e+03 2.550951430276384e+02 2.918975276816622e+03
1.153241488386847e+03 2.543520992410715e+02 2.918975276816622e+03
1.152464328548989e+03 2.527005062576122e+02 2.918975276816622e+03
1.152190846160850e+03 2.516203214961960e+02 2.918975276816622e+03
1.151378923851331e+03 2.509009678652311e+02 2.918975276816622e+03
1.152191691923916e+03 2.497277077782490e+02 2.918975276816622e+03
1.152712501595440e+03 2.483083484947761e+02 2.918975276816622e+03
1.153432534590780e+03 2.481332713068879e+02 2.918975276816622e+03
1.153440657194802e+03 2.463129020746858e+02 2.918975276816622e+03
1.153107261809118e+03 2.454713822191171e+02 2.918975276816622e+03
1.152828504840322e+03 2.433569913084812e+02 2.918975276816622e+03
1.152976112789931e+03 2.415028484654422e+02 2.918975276816622e+03
1.153373548769394e+03 2.401268099466430e+02 2.918975276816622e+03
1.154156771387923e+03 2.385379102153864e+02 2.918975276816622e+03
1.153064869411462e+03 2.358580990771206e+02 2.918975276816622e+03
1.153071925471842e+03 2.333131670126448e+02 2.918975276816622e+03
1.153884939654426e+03 2.325180881696182e+02 2.918975276816622e+03
1.153342739539617e+03 2.298803929303605e+02 2.918975276816622e+03
1.152666650319268e+03 2.282534220285005e+02 2.918975276816622e+03
1.151920365305072e+03 2.280562393593704e+02 2.918975276816622e+03
1.152789444518159e+03 2.267540286101892e+02 2.918975276816622e+03
1.152480652727662e+03 2.254594459376292e+02 2.918975276816622e+03
1.153185342801222e+03 2.243956755922466e+02 2.918975276816622e+03
1.153208316138222e+03 2.214693092204172e+02 2.918975276816622e+03
1.153351251313682e+03 2.200562458102881e+02 2.918975276816622e+03
1.152827827206456e+03 2.186318453363804e+02 2.918975276816622e+03
1.152124772135388e+03 2.162130001970624e+02 2.918975276816622e+03
1.151463154036335e+03 2.141362979883601e+02 2.918975276816622e+03
1.149526173558650e+03 2.144262551915679e+02 2.918975276816622e+03
1.149939139783332e+03 2.107055598599010e+02 2.918975276816622e+03
1.151530270635905e+03 2.108480030629874e+02 2.918975276816622e+03
1.151827251742495e+03 2.113944246868514e+02 2.918975276816622e+03
1.152697581379950e+03 2.097923174188219e+02 2.918975276816622e+03
1.152388885040760e+03 2.083401991036100e+02 2.918975276816622e+03
1.151678317695025e+03 2.079347776070668e+02 2.918975276816622e+03
1.152568520528695e+03 2.067780880391170e+02 2.918975276816622e+03
1.152368622868413e+03 2.055117931655444e+02 2.918975276816622e+03
1.153249305718881e+03 2.044106767945264e+02 2.918975276816622e+03
1.153231502284553e+03 2.015105105372836e+02 2.918975276816622e+03
1.153432335773775e+03 2.001196306794311e+02 2.918975276816622e+03
1.153386786582473e+03 1.985946000212971e+02 2.918975276816622e+03
1.152779345745577e+03 1.960374882777798e+02 2.918975276816622e+03
1.153501934145352e+03 1.926177197589044e+02 2.918975276816622e+03
1.152048829384086e+03 1.915783143711812e+02 2.918975276816622e+03
1.152657944052813e+03 1.898047446594901e+02 2.918975276816622e+03
1.152413085984289e+03 1.883640421964732e+02 2.918975276816622e+03
1.151741903901776e+03 1.880016405241423e+02 2.918975276816622e+03
1.152726804035671e+03 1.867918904590506e+02 2.918975276816622e+03
1.152456883836843e+03 1.855127432434505e+02 2.918975276816622e+03
1.153120873361124e+03 1.844544405697046e+02 2.918975276816622e+03
1.153188631418291e+03 1.815266213324921e+02 2.918975276816622e+03
1.153290258804847e+03 1.801082253781138e+02 2.918975276816622e+03
1.152829722924117e+03 1.786972122023437e+02 2.918975276816622e+03
1.152120939948798e+03 1.762906937650483e+02 2.918975276816622e+03
1.151512164158520e+03 1.742111478809871e+02 2.918975276816622e+03
1.149430388889306e+03 1.745536929354600e+02 2.918975276816622e+03
1.149777083728006e+03 1.706920627517045e+02 2.918975276816622e+03
1.151462407435957e+03 1.704744757792396e+02 2.918975276816622e+03
1.151962209160858e+03 1.715552275302771e+02 2.918975276816622e+03
1.152759707902736e+03 1.698603327910216e+02 2.918975276816622e+03
1.152440393299105e+03 1.684005952426975e+02 2.918975276816622e+03
1.151855600214008e+03 1.680325169216123e+02 2.918975276816622e+03
1.152867991717172e+03 1.668949926978659e+02 2.918975276816622e+03
1.153274664786349e+03 1.654981263570068e+02 2.918975276816622e+03
1.153030532592134e+03 1.648216477398244e+02 2.918975276816622e+03
1.152283067349539e+03 1.652313479637528e+02 2.918975276816622e+03
1.152417723630779e+03 1.628725266624185e+02 2.918975276816622e+03
1.152999659181140e+03 1.613989202671898e+02 2.918975276816622e+03
1.152908491161166e+03 1.600178017281874e+02 2.918975276816622e+03
1.152788647564333e+03 1.588715893747050e+02 2.918975276816622e+03
1.152641977540265e+03 1.562741348281514e+02 2.918975276816622e+03
1.152613185440505e+03 1.538773148648955e+02 2.918975276816622e+03
1.154094594464378e+03 1.524782155405478e+02 2.918975276816622e+03
1.152010622902514e+03 1.516529455342465e+02 2.918975276816622e+03
1.152657369690188e+03 1.498732124096372e+02 2.918975276816622e+03
1.152414749265720e+03 1.484462510068077e+02 2.918975276816622e+03
1.151762860954566e+03 1.480744890794862e+02 2.918975276816622e+03
1.152759139956051e+03 1.468558527145880e+02 2.918975276816622e+03
1.152522556275973e+03 1.455481934625669e+02 2.918975276816622e+03
1.152923790328283e+03 1.446078482177933e+02 2.918975276816622e+03
1.153159009408106e+03 1.415652581979666e+02 2.918975276816622e+03
1.153442858871298e+03 1.403057728277798e+02 2.918975276816622e+03
1.153300821545276e+03 1.389986325535521e+02 2.918975276816622e+03
1.153347344721605e+03 1.362525821376138e+02 2.918975276816622e+03
1.153814519748468e+03 1.332690302045995e+02 2.918975276816622e+03
1.153361805865566e+03 1.316574574062440e+02 2.918975276816622e+03
1.152967720248681e+03 1.316285432154134e+02 2.918975276816622e+03
1.153042904965574e+03 1.301716745063147e+02 2.918975276816622e+03
1.152410767793603e+03 1.284654115159612e+02 2.918975276816622e+03
1.151689787520201e+03 1.280731708094452e+02 2.918975276816622e+03
1.152570220128785e+03 1.268923040635682e+02 2.918975276816622e+03
1.152472049800217e+03 1.256013386469723e+02 2.918975276816622e+03
1.153188483971684e+03 1.245353782039596e+02 2.918975276816622e+03
1.153215502738089e+03 1.216318108400861e+02 2.918975276816622e+03
1.153307884329633e+03 1.201414069525863e+02 2.918975276816622e+03
1.152832669674515e+03 1.187378771649100e+02 2.918975276816622e+03
1.152755252107470e+03 1.163317188828621e+02 2.918975276816622e+03
1.154076094536759e+03 1.131822719008879e+02 2.918975276816622e+03
1.153381928587186e+03 1.120769858571824e+02 2.918975276816622e+03
1.151890190989472e+03 1.116423096889679e+02 2.918975276816622e+03
1.152620947378249e+03 1.099329487319977e+02 2.918975276816622e+03
1.152392354568847e+03 1.085075126674229e+02 2.918975276816622e+03
1.151670118239754e+03 1.081085895632450e+02 2.918975276816622e+03
1.152582624935461e+03 1.069006357756428e+02 2.918975276816622e+03
1.152421912963589e+03 1.056189187464502e+02 2.918975276816622e+03
1.153334026557575e+03 1.045226079667399e+02 2.918975276816622e+03
1.153535068481263e+03 1.016874686300961e+02 2.918975276816622e+03
1.154180421246876e+03 9.982633552913384e+01 2.918975276816622e+03
1.154586634891537e+03 9.718257194228896e+01 2.918975276816622e+03
1.153193005428798e+03 9.642016402480394e+01 2.918975276816622e+03
1.153587858799818e+03 9.358273932848830e+01 2.918975276816622e+03
1.153453525972537e+03 9.048979210977146e+01 2.918975276816622e+03
1.154016112903912e+03 8.903930658383315e+01 2.918975276816622e+03
1.155237147880933e+03 8.834164113156180e+01 2.918975276816622e+03
1.153828235738382e+03 8.688212389972925e+01 2.918975276816622e+03
1.153419058498781e+03 8.578879292818036e+01 2.918975276816622e+03
1.152720226644551e+03 8.547564260674388e+01 2.918975276816622e+03
1.152020601721835e+03 8.452214635215979e+01 2.918975276816622e+03
1.152552130942889e+03 8.205025688369486e+01 2.918975276816622e+03
1.152537999082653e+03 8.000791016860514e+01 2.918975276816622e+03
1.153564658821695e+03 7.885734577092310e+01 2.918975276816622e+03
1.153058234313544e+03 7.828339230083851e+01 2.918975276816622e+03
1.153513518083364e+03 7.614919178158387e+01 2.918975276816622e+03
1.153248309592069e+03 7.428925292119303e+01 2.918975276816622e+03
1.154301786818515e+03 7.182708054305853e+01 2.918975276816622e+03
1.152469146132330e+03 7.147283609269441e+01 2.918975276816622e+03
1.152601838562061e+03 6.972784722594156e+01 2.918975276816622e+03
1.153128897671173e+03 6.767730963468672e+01 2.918975276816622e+03
1.152923944482795e+03 6.559338261044586e+01 2.918975276816622e+03
1.153997191615161e+03 6.379830560637663e+01 2.918975276816622e+03
1.152573436172154e+03 6.289819765866503e+01 2.918975276816622e+03
1.152968685966364e+03 6.216755792427484e+01 2.918975276816622e+03
1.153025243692572e+03 6.079732585262239e+01 2.918975276816622e+03
1.154815907747426e+03 6.123059316211120e+01 2.918975276816622e+03
1.154660057758549e+03 5.963202137640708e+01 2.918975276816622e+03
1.155282248726468e+03 5.851102018961210e+01 2.918975276816622e+03
1.155290599294005e+03 5.767524174609709e+01 2.918975276816622e+03
1.156119609735088e+03 5.657670353495975e+01 2.918975276816622e+03
1.154589862288803e+03 5.613283691132171e+01 2.918975276816622e+03
1.155374220508823e+03 5.475418331458927e+01 2.918975276816622e+03
1.153969590261270e+03 5.421429758052706e+01 2.918975276816622e+03
1.154426233787519e+03 5.208314797463397e+01 2.918975276816622e+03
1.154340382390728e+03 5.018738391775860e+01 2.918975276816622e+03
1.154210618706633e+03 4.790483569708906e+01 2.918975276816622e+03
1.154583437716253e+03 4.705008491069358e+01 2.918975276816622e+03
1.154057931125542e+03 4.412435776733799e+01 2.918975276816622e+03
1.154051028148382e+03 4.241256112000731e+01 2.918975276816622e+03
1.154033248797055e+03 4.191112623507790e+01 2.918975276816622e+03
1.154232268606536e+03 4.051498110301982e+01 2.918975276816622e+03
1.154630474612427e+03 3.875039325188920e+01 2.918975276816622e+03
1.154915594388383e+03 3.544176135090196e+01 2.918975276816622e+03
1.154614917193180e+03 3.403468151734248e+01 2.918975276816622e+03
1.154817715857404e+03 3.205837375668570e+01 2.918975276816622e+03
1.154715392730220e+03 3.001486295129685e+01 2.918975276816622e+03
1.155173890681878e+03 2.817935274487995e+01 2.918975276816622e+03
1.154887365495588e+03 2.540691144605649e+01 2.918975276816622e+03
1.155163205706904e+03 1.937597459918877e+01 2.918975276816622e+03
1.155589557014657e+03 1.929234581792559e+01 2.918975276816622e+03
1.154963318742957e+03 1.591272328600476e+01 2.918975276816622e+03
1.155071653371356e+03 1.423364647749830e+01 2.918975276816622e+03
1.154463165858264e+03 1.304787830343859e+01 2.918975276816622e+03
1.154624411433677e+03 1.141069935400404e+01 2.918975276816622e+03
1.154202555686539e+03 1.019165972117986e+01 2.918975276816622e+03
1.154754661440402e+03 5.453848430428204e+00 2.918975276816622e+03
1.154864161450895e+03 4.604855390317891e+00 2.918975276816622e+03
1.154632867653110e+03 2.654805121150223e+00 2.918975276816622e+03
1.154641109986500e+03 1.567855584228669e+00 2.918975276816622e+03
-1.148294505088754e+03 -3.863858941524650e+02 -2.918975276816622e+03
-1.148294505088754e+03  3.863858941524653e+02 -2.918975276816622e+03
 1.145484856601758e+03 -3.863858941524653e+02  2.918975276816622e+03
1.145484856601758e+03 3.863858941524650e+02 2.918975276816622e+03
-1.156845631492972e+03 -3.863858941524650e+02 -2.918975276816622e+03
-1.156845631492972e+03  3.863858941524653e+02 -2.918975276816622e+03
 1.153767666171897e+03 -3.863858941524653e+02  2.918975276816622e+03
1.153767666171897e+03 3.863858941524650e+02 2.918975276816622e+03
-1.148194953093870e+03  1.344638061168075e-01 -2.918975276816622e+03
-1.148180519752853e+03  3.197355613440606e+00 -2.918975276816622e+03
-1.148369000981728e+03 -1.307441197002565e+00 -2.918975276816622e+03
-1.148555851131587e+03 -2.797799078446285e+00 -2.918975276816622e+03
-1.148541893247453e+03 -4.314161339675982e+00 -2.918975276816622e+03
-1.148265418415638e+03 -5.712314430211481e+00 -2.918975276816622e+03
-1.148186428898629e+03 -7.465630145404823e+00 -2.918975276816622e+03
-1.147909332223714e+03 -9.625965667505428e+00 -2.918975276816622e+03
-1.147849622395048e+03 -1.091991733946746e+01 -2.918975276816622e+03
-1.148083514228053e+03 -1.208866910307749e+01 -2.918975276816622e+03
-1.148512582949729e+03 -1.394665316696416e+01 -2.918975276816622e+03
-1.148687699239620e+03 -1.572663965828567e+01 -2.918975276816622e+03
-1.148405306365386e+03 -1.855981888394551e+01 -2.918975276816622e+03
-1.148488863709028e+03 -2.161374174662414e+01 -2.918975276816622e+03
-1.148615550962345e+03 -2.490443182481257e+01 -2.918975276816622e+03
-1.148883670899414e+03 -2.711726512532842e+01 -2.918975276816622e+03
-1.148570141802824e+03 -2.888581372229464e+01 -2.918975276816622e+03
-1.148723062234377e+03 -3.078181514968265e+01 -2.918975276816622e+03
-1.148884911516693e+03 -3.213795227562849e+01 -2.918975276816622e+03
-1.148598497852747e+03 -3.355028821145152e+01 -2.918975276816622e+03
-1.148543549347781e+03 -3.460251837013486e+01 -2.918975276816622e+03
-1.148527191503021e+03 -3.557523253028619e+01 -2.918975276816622e+03
-1.148473944244597e+03 -3.730043661125287e+01 -2.918975276816622e+03
-1.148323572365889e+03 -3.946096793412855e+01 -2.918975276816622e+03
-1.148203498930359e+03 -4.086181301579975e+01 -2.918975276816622e+03
-1.148074818360686e+03 -4.239484557708489e+01 -2.918975276816622e+03
-1.147923847733102e+03 -4.415292865818686e+01 -2.918975276816622e+03
-1.147539508014127e+03 -4.610657995981749e+01 -2.918975276816622e+03
-1.147651484326420e+03 -4.730604687393208e+01 -2.918975276816622e+03
-1.147983969792672e+03 -4.858004161996325e+01 -2.918975276816622e+03
-1.147741705520914e+03 -5.017077960225408e+01 -2.918975276816622e+03
-1.147539927101124e+03 -5.131698232348022e+01 -2.918975276816622e+03
-1.147679369094117e+03 -5.304431448940315e+01 -2.918975276816622e+03
-1.147509019835214e+03 -5.416496155730008e+01 -2.918975276816622e+03
-1.147479946243380e+03 -5.515362906545329e+01 -2.918975276816622e+03
-1.147529382650297e+03 -5.727527916821519e+01 -2.918975276816622e+03
-1.147632071125911e+03 -5.950189984224220e+01 -2.918975276816622e+03
-1.147916178993303e+03 -6.091122942276580e+01 -2.918975276816622e+03
-1.147983721399288e+03 -6.239992411637030e+01 -2.918975276816622e+03
-1.147851394751492e+03 -6.383961006468000e+01 -2.918975276816622e+03
-1.147508144044517e+03 -6.523229621921584e+01 -2.918975276816622e+03
-1.147637174834647e+03 -6.671804409204229e+01 -2.918975276816622e+03
-1.147876370700510e+03 -6.857360691104984e+01 -2.918975276816622e+03
-1.147729244615273e+03 -7.018535393274860e+01 -2.918975276816622e+03
-1.147618250998084e+03 -7.124256388707876e+01 -2.918975276816622e+03
-1.147873842289853e+03 -7.311451687970182e+01 -2.918975276816622e+03
-1.147715476058341e+03 -7.492216290666438e+01 -2.918975276816622e+03
-1.147142770863564e+03 -7.580181335262796e+01 -2.918975276816622e+03
-1.146648860465211e+03 -7.687418603710628e+01 -2.918975276816622e+03
-1.146886389350415e+03 -7.757260961314611e+01 -2.918975276816622e+03
-1.147462416512722e+03 -7.791798218199327e+01 -2.918975276816622e+03
-1.147558297160474e+03 -7.940433064552035e+01 -2.918975276816622e+03
-1.147785175474897e+03 -8.090909185750628e+01 -2.918975276816622e+03
-1.147926954701679e+03 -8.238961003728686e+01 -2.918975276816622e+03
-1.148232955417803e+03 -8.411008144798429e+01 -2.918975276816622e+03
-1.148764478944481e+03 -8.601056792534750e+01 -2.918975276816622e+03
-1.148560345280085e+03 -8.718439595516364e+01 -2.918975276816622e+03
-1.147982231826725e+03 -8.839562445004778e+01 -2.918975276816622e+03
-1.148011131961181e+03 -9.011432816305606e+01 -2.918975276816622e+03
-1.148075144671669e+03 -9.136510838782539e+01 -2.918975276816622e+03
-1.148095029962555e+03 -9.348228979540765e+01 -2.918975276816622e+03
-1.148187899546490e+03 -9.534821276247084e+01 -2.918975276816622e+03
-1.148435021652437e+03 -9.663097519417057e+01 -2.918975276816622e+03
-1.148354332100433e+03 -9.734133510258830e+01 -2.918975276816622e+03
-1.147964788516326e+03 -9.786192905486953e+01 -2.918975276816622e+03
-1.147883011192748e+03 -9.941612442255580e+01 -2.918975276816622e+03
-1.147899635818256e+03 -1.008550293298120e+02 -2.918975276816622e+03
-1.147994450254620e+03 -1.023365217238522e+02 -2.918975276816622e+03
-1.147871226209349e+03 -1.037881313951891e+02 -2.918975276816622e+03
-1.147623240445886e+03 -1.052168219275673e+02 -2.918975276816622e+03
-1.147773800122019e+03 -1.066820443041325e+02 -2.918975276816622e+03
-1.147984672727190e+03 -1.084725628036502e+02 -2.918975276816622e+03
-1.147809227193918e+03 -1.100886316297261e+02 -2.918975276816622e+03
-1.147616866930315e+03 -1.112487896593577e+02 -2.918975276816622e+03
-1.147701953039061e+03 -1.129847205969367e+02 -2.918975276816622e+03
-1.147500424607166e+03 -1.141759481604312e+02 -2.918975276816622e+03
-1.147400097315151e+03 -1.151266701233245e+02 -2.918975276816622e+03
-1.147515166811867e+03 -1.170962755113073e+02 -2.918975276816622e+03
-1.147515005731897e+03 -1.193490067987695e+02 -2.918975276816622e+03
-1.147746526687923e+03 -1.208490145505725e+02 -2.918975276816622e+03
-1.147928603391311e+03 -1.223246595815499e+02 -2.918975276816622e+03
-1.147844957454496e+03 -1.240218716229410e+02 -2.918975276816622e+03
-1.147523503573459e+03 -1.259669558571836e+02 -2.918975276816622e+03
-1.147671523691481e+03 -1.271897964136928e+02 -2.918975276816622e+03
-1.148017818608440e+03 -1.284435024794260e+02 -2.918975276816622e+03
-1.147815764149508e+03 -1.300421059377914e+02 -2.918975276816622e+03
-1.147636306557338e+03 -1.312292424359852e+02 -2.918975276816622e+03
-1.147720857836807e+03 -1.330076179182356e+02 -2.918975276816622e+03
-1.147480695981294e+03 -1.342029530762570e+02 -2.918975276816622e+03
-1.147403478878351e+03 -1.351130146407512e+02 -2.918975276816622e+03
-1.147491480652394e+03 -1.371419824952189e+02 -2.918975276816622e+03
-1.147613507264646e+03 -1.393761846383038e+02 -2.918975276816622e+03
-1.147902430184055e+03 -1.407849928987484e+02 -2.918975276816622e+03
-1.147985943348046e+03 -1.422743191846185e+02 -2.918975276816622e+03
-1.147855307459262e+03 -1.437159404260642e+02 -2.918975276816622e+03
-1.147610324782906e+03 -1.451378522356598e+02 -2.918975276816622e+03
-1.147765082788963e+03 -1.466167719357216e+02 -2.918975276816622e+03
-1.147978903857952e+03 -1.484119808105368e+02 -2.918975276816622e+03
-1.147851146564549e+03 -1.500307263066435e+02 -2.918975276816622e+03
-1.147698240593273e+03 -1.511591965584211e+02 -2.918975276816622e+03
-1.147777666248393e+03 -1.530337449806039e+02 -2.918975276816622e+03
-1.147582120609606e+03 -1.544703822561466e+02 -2.918975276816622e+03
-1.147246970234060e+03 -1.553176150455815e+02 -2.918975276816622e+03
-1.147004410770033e+03 -1.567886594010152e+02 -2.918975276816622e+03
-1.147109228202505e+03 -1.580196556381014e+02 -2.918975276816622e+03
-1.147547164987099e+03 -1.592771207777544e+02 -2.918975276816622e+03
-1.147772458989405e+03 -1.607832958680823e+02 -2.918975276816622e+03
-1.147938266953039e+03 -1.622613492357208e+02 -2.918975276816622e+03
-1.147859109344819e+03 -1.639632576137432e+02 -2.918975276816622e+03
-1.147548678727962e+03 -1.659103053718605e+02 -2.918975276816622e+03
-1.147710697627808e+03 -1.671282505242167e+02 -2.918975276816622e+03
-1.148067608221864e+03 -1.683907840310029e+02 -2.918975276816622e+03
-1.147907138693392e+03 -1.700279556028619e+02 -2.918975276816622e+03
-1.147825238531906e+03 -1.712322023694877e+02 -2.918975276816622e+03
-1.148194977144690e+03 -1.729052754269744e+02 -2.918975276816622e+03
-1.148049241040756e+03 -1.739859972969921e+02 -2.918975276816622e+03
-1.147705698847284e+03 -1.749660558847127e+02 -2.918975276816622e+03
-1.147631191233372e+03 -1.770144140223876e+02 -2.918975276816622e+03
-1.147562230726988e+03 -1.792637564746473e+02 -2.918975276816622e+03
-1.147771744310972e+03 -1.807520989774333e+02 -2.918975276816622e+03
-1.147945296333292e+03 -1.822289686352750e+02 -2.918975276816622e+03
-1.147855460127204e+03 -1.839292790364102e+02 -2.918975276816622e+03
-1.147508811525524e+03 -1.858457150597566e+02 -2.918975276816622e+03
-1.147657440288465e+03 -1.870658351439682e+02 -2.918975276816622e+03
-1.147980775656614e+03 -1.883356593827608e+02 -2.918975276816622e+03
-1.147771392955054e+03 -1.899155197190245e+02 -2.918975276816622e+03
-1.147630440176590e+03 -1.910660864993816e+02 -2.918975276816622e+03
-1.147769737986991e+03 -1.929822308667659e+02 -2.918975276816622e+03
-1.147608698533337e+03 -1.944630033876003e+02 -2.918975276816622e+03
-1.147228532530492e+03 -1.952811880013879e+02 -2.918975276816622e+03
-1.146808669981211e+03 -1.968347310434577e+02 -2.918975276816622e+03
-1.146929857184745e+03 -1.981546817725687e+02 -2.918975276816622e+03
-1.147580491233568e+03 -1.992632694382277e+02 -2.918975276816622e+03
-1.147869941791262e+03 -2.006762606908306e+02 -2.918975276816622e+03
-1.147983986901969e+03 -2.021762351317166e+02 -2.918975276816622e+03
-1.147868716165489e+03 -2.036167312224241e+02 -2.918975276816622e+03
-1.147682826410221e+03 -2.050402851221688e+02 -2.918975276816622e+03
-1.147870766928753e+03 -2.065311596141044e+02 -2.918975276816622e+03
-1.148067765286663e+03 -2.083329402510383e+02 -2.918975276816622e+03
-1.147961190836072e+03 -2.099925041093130e+02 -2.918975276816622e+03
-1.147890120741959e+03 -2.112080480050330e+02 -2.918975276816622e+03
-1.148282966148994e+03 -2.128687129340760e+02 -2.918975276816622e+03
-1.148119103245143e+03 -2.139624901808284e+02 -2.918975276816622e+03
-1.147680163462686e+03 -2.149368055686532e+02 -2.918975276816622e+03
-1.147623415847204e+03 -2.169476454164559e+02 -2.918975276816622e+03
-1.147566276545195e+03 -2.191972675166047e+02 -2.918975276816622e+03
-1.147782147989755e+03 -2.206856315266756e+02 -2.918975276816622e+03
-1.147957827082602e+03 -2.221634124305256e+02 -2.918975276816622e+03
-1.147868034529681e+03 -2.238656757805340e+02 -2.918975276816622e+03
-1.147543363687152e+03 -2.258091629489276e+02 -2.918975276816622e+03
-1.147685462562938e+03 -2.270299022979825e+02 -2.918975276816622e+03
-1.148019913130510e+03 -2.282846798419065e+02 -2.918975276816622e+03
-1.147819412236414e+03 -2.298813481604025e+02 -2.918975276816622e+03
-1.147640314002893e+03 -2.310637153551543e+02 -2.918975276816622e+03
-1.147729738771897e+03 -2.328704514284365e+02 -2.918975276816622e+03
-1.147484628183810e+03 -2.341005428707983e+02 -2.918975276816622e+03
-1.147348035842647e+03 -2.349590358341223e+02 -2.918975276816622e+03
-1.147573994871348e+03 -2.368510824945429e+02 -2.918975276816622e+03
-1.147761915623611e+03 -2.391366314275095e+02 -2.918975276816622e+03
-1.147814111136281e+03 -2.406749896086438e+02 -2.918975276816622e+03
-1.147787994183683e+03 -2.421813584015106e+02 -2.918975276816622e+03
-1.147833150703024e+03 -2.438066829684055e+02 -2.918975276816622e+03
-1.147925403654507e+03 -2.456665878817296e+02 -2.918975276816622e+03
-1.147870214973598e+03 -2.469708147742445e+02 -2.918975276816622e+03
-1.147760902549733e+03 -2.484331099749303e+02 -2.918975276816622e+03
-1.147700368141627e+03 -2.502897819085970e+02 -2.918975276816622e+03
-1.147763291668883e+03 -2.511962562502106e+02 -2.918975276816622e+03
-1.147849580175039e+03 -2.528133242006602e+02 -2.918975276816622e+03
-1.147730874908403e+03 -2.546109268410770e+02 -2.918975276816622e+03
-1.147596531491524e+03 -2.563026580775003e+02 -2.918975276816622e+03
-1.147689260454520e+03 -2.576150922116096e+02 -2.918975276816622e+03
-1.147881896441527e+03 -2.590435200133367e+02 -2.918975276816622e+03
-1.147738757745271e+03 -2.606098624878428e+02 -2.918975276816622e+03
-1.147566028983288e+03 -2.620245163493696e+02 -2.918975276816622e+03
-1.147392474248608e+03 -2.638248568847815e+02 -2.918975276816622e+03
-1.147598351440858e+03 -2.645438313727896e+02 -2.918975276816622e+03
-1.147993028464736e+03 -2.652102211124139e+02 -2.918975276816622e+03
-1.148201969760098e+03 -2.666480834475627e+02 -2.918975276816622e+03
-1.148491030221378e+03 -2.677480205978047e+02 -2.918975276816622e+03
-1.148087818348261e+03 -2.686314127307460e+02 -2.918975276816622e+03
-1.147808496570629e+03 -2.696845559739130e+02 -2.918975276816622e+03
-1.148118126812120e+03 -2.707778571189729e+02 -2.918975276816622e+03
-1.148330285169925e+03 -2.727214720471929e+02 -2.918975276816622e+03
-1.148279139813493e+03 -2.748682902482786e+02 -2.918975276816622e+03
-1.147974287967111e+03 -2.764044427763688e+02 -2.918975276816622e+03
-1.147771221930018e+03 -2.787286017941411e+02 -2.918975276816622e+03
-1.147818737192694e+03 -2.810797204116324e+02 -2.918975276816622e+03
-1.148307766177015e+03 -2.825074078225989e+02 -2.918975276816622e+03
-1.148151327417929e+03 -2.834550238970573e+02 -2.918975276816622e+03
-1.147919642313417e+03 -2.841082500738151e+02 -2.918975276816622e+03
-1.147964624207782e+03 -2.850669030334572e+02 -2.918975276816622e+03
-1.147828107785341e+03 -2.860214939541914e+02 -2.918975276816622e+03
-1.147828163816892e+03 -2.871247676361230e+02 -2.918975276816622e+03
-1.148122829539059e+03 -2.885160726850462e+02 -2.918975276816622e+03
-1.148288299634217e+03 -2.895012911795853e+02 -2.918975276816622e+03
-1.148084681972237e+03 -2.911524140522461e+02 -2.918975276816622e+03
-1.148114718010920e+03 -2.937292788922678e+02 -2.918975276816622e+03
-1.148360518279466e+03 -2.959741236748556e+02 -2.918975276816622e+03
-1.148771299572938e+03 -2.970298997105903e+02 -2.918975276816622e+03
-1.148687667093618e+03 -2.978913934765697e+02 -2.918975276816622e+03
-1.148189222705420e+03 -2.993683517299572e+02 -2.918975276816622e+03
-1.147880888164587e+03 -3.018935928467790e+02 -2.918975276816622e+03
-1.148095262463558e+03 -3.041226838848713e+02 -2.918975276816622e+03
-1.148241729328387e+03 -3.059526393294079e+02 -2.918975276816622e+03
-1.148027162012823e+03 -3.089774667846063e+02 -2.918975276816622e+03
-1.148296276904593e+03 -3.123199391015046e+02 -2.918975276816622e+03
-1.148640393811305e+03 -3.155730354059191e+02 -2.918975276816622e+03
-1.148777753214257e+03 -3.171952965266819e+02 -2.918975276816622e+03
-1.148580378631766e+03 -3.185170279014781e+02 -2.918975276816622e+03
-1.148482970460314e+03 -3.204932133126672e+02 -2.918975276816622e+03
-1.148522306105660e+03 -3.215298520847078e+02 -2.918975276816622e+03
-1.148363707032192e+03 -3.230295657529132e+02 -2.918975276816622e+03
-1.148271359787569e+03 -3.245790565628079e+02 -2.918975276816622e+03
-1.148449813409101e+03 -3.267307235243783e+02 -2.918975276816622e+03
-1.148826920649659e+03 -3.290736237934074e+02 -2.918975276816622e+03
-1.149388379756142e+03 -3.300376773492044e+02 -2.918975276816622e+03
-1.148726464366044e+03 -3.312010263858671e+02 -2.918975276816622e+03
-1.147899247602466e+03 -3.323368887252651e+02 -2.918975276816622e+03
-1.148050557614210e+03 -3.339991039152503e+02 -2.918975276816622e+03
-1.148027926555363e+03 -3.359482442017239e+02 -2.918975276816622e+03
-1.148084023751914e+03 -3.368854289826585e+02 -2.918975276816622e+03
-1.147959728485403e+03 -3.380018814096945e+02 -2.918975276816622e+03
-1.147776596880890e+03 -3.409205301920097e+02 -2.918975276816622e+03
-1.147946510409519e+03 -3.436175321946124e+02 -2.918975276816622e+03
-1.147896380249604e+03 -3.450702641059416e+02 -2.918975276816622e+03
-1.147867350042243e+03 -3.464899253162742e+02 -2.918975276816622e+03
-1.147880341913904e+03 -3.481962882413367e+02 -2.918975276816622e+03
-1.147747299186693e+03 -3.507024287830080e+02 -2.918975276816622e+03
-1.147685305819728e+03 -3.529172277689750e+02 -2.918975276816622e+03
-1.148350126152282e+03 -3.545428923540787e+02 -2.918975276816622e+03
-1.148845538630148e+03 -3.558310726739477e+02 -2.918975276816622e+03
-1.148443418958287e+03 -3.565210841203440e+02 -2.918975276816622e+03
-1.148148733580022e+03 -3.572235031071950e+02 -2.918975276816622e+03
-1.147987158970488e+03 -3.579115684969267e+02 -2.918975276816622e+03
-1.147725692605049e+03 -3.586088483144779e+02 -2.918975276816622e+03
-1.147517447749110e+03 -3.598566987379430e+02 -2.918975276816622e+03
-1.147731965475781e+03 -3.607344588979203e+02 -2.918975276816622e+03
-1.148031342206776e+03 -3.615531513311005e+02 -2.918975276816622e+03
-1.148443078685519e+03 -3.629125709112681e+02 -2.918975276816622e+03
-1.148630942474609e+03 -3.640128693331613e+02 -2.918975276816622e+03
-1.148674400942266e+03 -3.657522752166529e+02 -2.918975276816622e+03
-1.148605806397773e+03 -3.683242140989094e+02 -2.918975276816622e+03
-1.148538867251179e+03 -3.704932030058843e+02 -2.918975276816622e+03
-1.148377125743988e+03 -3.722813835970200e+02 -2.918975276816622e+03
-1.148240950472577e+03 -3.737215620733990e+02 -2.918975276816622e+03
-1.148158899581892e+03 -3.753909241248269e+02 -2.918975276816622e+03
-1.148201077963590e+03 -3.771664837176934e+02 -2.918975276816622e+03
-1.148073251679558e+03 -3.788115187081039e+02 -2.918975276816622e+03
-1.147838678829578e+03 -3.800141393031756e+02 -2.918975276816622e+03
-1.147984580845395e+03 -3.813144119031859e+02 -2.918975276816622e+03
-1.148228545523800e+03 -3.842293105082475e+02 -2.918975276816622e+03
-1.148315760171503e+03 -3.862143155814767e+02 -2.918975276816622e+03
-1.148038082311114e+03  3.821778299990688e+02 -2.918975276816622e+03
-1.148273014106686e+03  3.797980258407775e+02 -2.918975276816622e+03
-1.148107560751041e+03  3.848768131153399e+02 -2.918975276816622e+03
-1.148508254568461e+03  3.779662216537376e+02 -2.918975276816622e+03
-1.148408540932123e+03  3.769044778558333e+02 -2.918975276816622e+03
-1.148148516261532e+03  3.750655475985604e+02 -2.918975276816622e+03
-1.147937052228284e+03  3.724023839834146e+02 -2.918975276816622e+03
-1.147599197102314e+03  3.699142338876493e+02 -2.918975276816622e+03
-1.147330820986774e+03  3.676612761755931e+02 -2.918975276816622e+03
-1.147611731954592e+03  3.662921848611943e+02 -2.918975276816622e+03
-1.148016230551186e+03  3.639723026167720e+02 -2.918975276816622e+03
-1.148435305343666e+03  3.617319834791423e+02 -2.918975276816622e+03
-1.148877979873624e+03  3.606240853134179e+02 -2.918975276816622e+03
-1.148679743458588e+03  3.588058793561983e+02 -2.918975276816622e+03
-1.148328313773359e+03  3.563883210412882e+02 -2.918975276816622e+03
-1.147975937010586e+03  3.541365237948675e+02 -2.918975276816622e+03
-1.148031130687327e+03  3.524117973809413e+02 -2.918975276816622e+03
-1.148058990363387e+03  3.501433888193558e+02 -2.918975276816622e+03
-1.148309583693850e+03  3.469938385192585e+02 -2.918975276816622e+03
-1.148832805421832e+03  3.445207590491186e+02 -2.918975276816622e+03
-1.149348584798883e+03  3.429171003891379e+02 -2.918975276816622e+03
-1.149920394752104e+03  3.418404441940520e+02 -2.918975276816622e+03
-1.149515134739663e+03  3.400310808872011e+02 -2.918975276816622e+03
-1.149691617279372e+03  3.367055229580379e+02 -2.918975276816622e+03
-1.149739365429334e+03  3.349676654790912e+02 -2.918975276816622e+03
-1.149035130226741e+03  3.336407807872348e+02 -2.918975276816622e+03
-1.148803453959399e+03  3.310995348783002e+02 -2.918975276816622e+03
-1.148774716795850e+03  3.287703132936602e+02 -2.918975276816622e+03
-1.148467803176979e+03  3.269356685135461e+02 -2.918975276816622e+03
-1.147948831149895e+03  3.251886098687403e+02 -2.918975276816622e+03
-1.147742234457295e+03  3.240648847972907e+02 -2.918975276816622e+03
-1.147651860455927e+03  3.226370191489591e+02 -2.918975276816622e+03
-1.147418827004848e+03  3.207825564744790e+02 -2.918975276816622e+03
-1.147332756758987e+03  3.187953313967971e+02 -2.918975276816622e+03
-1.146919840195256e+03  3.161761043386154e+02 -2.918975276816622e+03
-1.146144569987992e+03  3.150411508775208e+02 -2.918975276816622e+03
-1.146193258742479e+03  3.141571618240130e+02 -2.918975276816622e+03
-1.146707931188580e+03  3.127012987497325e+02 -2.918975276816622e+03
-1.147390455623458e+03  3.111120287183592e+02 -2.918975276816622e+03
-1.148044818864032e+03  3.089375693786079e+02 -2.918975276816622e+03
-1.148005381731632e+03  3.078506877922247e+02 -2.918975276816622e+03
-1.147486087944237e+03  3.065855440463049e+02 -2.918975276816622e+03
-1.147695388884320e+03  3.046385484591667e+02 -2.918975276816622e+03
-1.147036181835862e+03  3.029577426588381e+02 -2.918975276816622e+03
-1.146349727270072e+03  3.013997624492094e+02 -2.918975276816622e+03
-1.147097081461878e+03  3.002304688779990e+02 -2.918975276816622e+03
-1.147558498858340e+03  2.978201823161234e+02 -2.918975276816622e+03
-1.148028332995754e+03  2.956396244897438e+02 -2.918975276816622e+03
-1.148340316808048e+03  2.943792120802129e+02 -2.918975276816622e+03
-1.148230066888716e+03  2.923612058523677e+02 -2.918975276816622e+03
-1.148000715759765e+03  2.900972938040927e+02 -2.918975276816622e+03
-1.148000786227772e+03  2.887006960748665e+02 -2.918975276816622e+03
-1.148247752022230e+03  2.873461039385131e+02 -2.918975276816622e+03
-1.148335709739976e+03  2.847118034147104e+02 -2.918975276816622e+03
-1.148290179060972e+03  2.826263865642102e+02 -2.918975276816622e+03
-1.148112705580601e+03  2.811936334177710e+02 -2.918975276816622e+03
-1.148198712790310e+03  2.800789929821623e+02 -2.918975276816622e+03
-1.148287881193929e+03  2.788418257589995e+02 -2.918975276816622e+03
-1.148007430203814e+03  2.770081662144840e+02 -2.918975276816622e+03
-1.147971025365419e+03  2.759085008234482e+02 -2.918975276816622e+03
-1.148062626710564e+03  2.749210956459894e+02 -2.918975276816622e+03
-1.148015510214481e+03  2.730071814296128e+02 -2.918975276816622e+03
-1.147891899312713e+03  2.713577319917300e+02 -2.918975276816622e+03
-1.147847539723887e+03  2.700949058896861e+02 -2.918975276816622e+03
-1.147626340544891e+03  2.679175165013258e+02 -2.918975276816622e+03
-1.147339307928406e+03  2.660675949031770e+02 -2.918975276816622e+03
-1.147034169372914e+03  2.649711621088807e+02 -2.918975276816622e+03
-1.147086398487060e+03  2.642697033926565e+02 -2.918975276816622e+03
-1.147474150704523e+03  2.636174709016198e+02 -2.918975276816622e+03
-1.147723285427839e+03  2.620618803798151e+02 -2.918975276816622e+03
-1.147810250689412e+03  2.605336632897116e+02 -2.918975276816622e+03
-1.147803283943966e+03  2.590215919533911e+02 -2.918975276816622e+03
-1.147898862355038e+03  2.573919431938958e+02 -2.918975276816622e+03
-1.148052164172178e+03  2.555403573256170e+02 -2.918975276816622e+03
-1.147943551976007e+03  2.542437299046422e+02 -2.918975276816622e+03
-1.147754896277305e+03  2.527766712478752e+02 -2.918975276816622e+03
-1.147767253824439e+03  2.508984156766871e+02 -2.918975276816622e+03
-1.147878977078575e+03  2.499866968600160e+02 -2.918975276816622e+03
-1.147859138181831e+03  2.483586247567264e+02 -2.918975276816622e+03
-1.147619078813092e+03  2.465284988174400e+02 -2.918975276816622e+03
-1.147261489223537e+03  2.448545346269295e+02 -2.918975276816622e+03
-1.147353318205441e+03  2.435479893051480e+02 -2.918975276816622e+03
-1.147686162829217e+03  2.420188755191047e+02 -2.918975276816622e+03
-1.147517295396487e+03  2.403748215093996e+02 -2.918975276816622e+03
-1.147543731627014e+03  2.392854680438867e+02 -2.918975276816622e+03
-1.147846985809237e+03  2.373995716155829e+02 -2.918975276816622e+03
-1.147686699628959e+03  2.357051717673837e+02 -2.918975276816622e+03
-1.147335019110508e+03  2.346430002300180e+02 -2.918975276816622e+03
-1.147209460432133e+03  2.335610200014413e+02 -2.918975276816622e+03
-1.147251739545404e+03  2.330753823279127e+02 -2.918975276816622e+03
-1.147348922368379e+03  2.325494924386535e+02 -2.918975276816622e+03
-1.147531750443215e+03  2.310581282524351e+02 -2.918975276816622e+03
-1.147817566396378e+03  2.296332570949910e+02 -2.918975276816622e+03
-1.147934349526172e+03  2.281380992872153e+02 -2.918975276816622e+03
-1.147809482918446e+03  2.266767335662544e+02 -2.918975276816622e+03
-1.147522988701670e+03  2.252677954012013e+02 -2.918975276816622e+03
-1.147624510006455e+03  2.238177712400141e+02 -2.918975276816622e+03
-1.147819860014444e+03  2.220216624465471e+02 -2.918975276816622e+03
-1.147370883853505e+03  2.204836678333337e+02 -2.918975276816622e+03
-1.147104771000948e+03  2.192959840053032e+02 -2.918975276816622e+03
-1.147201575228241e+03  2.174324204350329e+02 -2.918975276816622e+03
-1.146859703491862e+03  2.162872800331994e+02 -2.918975276816622e+03
-1.146815716284952e+03  2.152239062073817e+02 -2.918975276816622e+03
-1.147036153681873e+03  2.137277686395883e+02 -2.918975276816622e+03
-1.147193343721808e+03  2.131250145878330e+02 -2.918975276816622e+03
-1.147347981449294e+03  2.125547808462398e+02 -2.918975276816622e+03
-1.147565324375273e+03  2.110718141514913e+02 -2.918975276816622e+03
-1.147855350404881e+03  2.096531991926459e+02 -2.918975276816622e+03
-1.147947589717698e+03  2.081674816294565e+02 -2.918975276816622e+03
-1.147813443838162e+03  2.067105164644741e+02 -2.918975276816622e+03
-1.147489422318831e+03  2.053126100963791e+02 -2.918975276816622e+03
-1.147567369225522e+03  2.038605003213395e+02 -2.918975276816622e+03
-1.147745306038213e+03  2.020455472658106e+02 -2.918975276816622e+03
-1.147650299422903e+03  2.004374079365572e+02 -2.918975276816622e+03
-1.147696554469620e+03  1.993580189828213e+02 -2.918975276816622e+03
-1.147899609813939e+03  1.974421723465481e+02 -2.918975276816622e+03
-1.147761552242392e+03  1.955889962855159e+02 -2.918975276816622e+03
-1.147229868149298e+03  1.947110342365708e+02 -2.918975276816622e+03
-1.146482521833120e+03  1.937214998053429e+02 -2.918975276816622e+03
-1.146711962466323e+03  1.930368519411754e+02 -2.918975276816622e+03
-1.147366800121834e+03  1.925781984021015e+02 -2.918975276816622e+03
-1.147538078893507e+03  1.911244407289735e+02 -2.918975276816622e+03
-1.147824404015061e+03  1.896966949650042e+02 -2.918975276816622e+03
-1.147941517976119e+03  1.882015822712712e+02 -2.918975276816622e+03
-1.147820325605566e+03  1.867410234333359e+02 -2.918975276816622e+03
-1.147545538751288e+03  1.853298471308305e+02 -2.918975276816622e+03
-1.147660931341982e+03  1.838823978061161e+02 -2.918975276816622e+03
-1.147856401883631e+03  1.820810786153610e+02 -2.918975276816622e+03
-1.147511109254864e+03  1.804603089475284e+02 -2.918975276816622e+03
-1.147381827178956e+03  1.792831351297316e+02 -2.918975276816622e+03
-1.147710519294778e+03  1.776329806621233e+02 -2.918975276816622e+03
-1.147480488695018e+03  1.766410701093056e+02 -2.918975276816622e+03
-1.147380810977655e+03  1.756031906700378e+02 -2.918975276816622e+03
-1.147352488164028e+03  1.739412645229282e+02 -2.918975276816622e+03
-1.147200353777135e+03  1.731638840359420e+02 -2.918975276816622e+03
-1.147350452727901e+03  1.726002420201579e+02 -2.918975276816622e+03
-1.147603945086143e+03  1.711341355638969e+02 -2.918975276816622e+03
-1.147887809834424e+03  1.697191680300458e+02 -2.918975276816622e+03
-1.147958142477155e+03  1.682320897147574e+02 -2.918975276816622e+03
-1.147826676176560e+03  1.667717849844266e+02 -2.918975276816622e+03
-1.147546589704812e+03  1.653646182945203e+02 -2.918975276816622e+03
-1.147660786926891e+03  1.639145061622490e+02 -2.918975276816622e+03
-1.147858227344630e+03  1.621100498962477e+02 -2.918975276816622e+03
-1.147526402354388e+03  1.604781870390891e+02 -2.918975276816622e+03
-1.147424596479803e+03  1.592877078580704e+02 -2.918975276816622e+03
-1.147826480227267e+03  1.576760607653349e+02 -2.918975276816622e+03
-1.147679285979482e+03  1.566480290890976e+02 -2.918975276816622e+03
-1.147492291150502e+03  1.555913090965766e+02 -2.918975276816622e+03
-1.147268773305155e+03  1.539771545188247e+02 -2.918975276816622e+03
-1.147116040130957e+03  1.531884367245765e+02 -2.918975276816622e+03
-1.147348489375504e+03  1.526283439814733e+02 -2.918975276816622e+03
-1.147599590544660e+03  1.511659745391539e+02 -2.918975276816622e+03
-1.147885026985630e+03  1.497480035574594e+02 -2.918975276816622e+03
-1.147956957706058e+03  1.482633706427163e+02 -2.918975276816622e+03
-1.147824739170773e+03  1.468051025097089e+02 -2.918975276816622e+03
-1.147538434124691e+03  1.453970470923914e+02 -2.918975276816622e+03
-1.147641010509923e+03  1.439460592577540e+02 -2.918975276816622e+03
-1.147837413265899e+03  1.421502226540698e+02 -2.918975276816622e+03
-1.147421537238776e+03  1.406091007548393e+02 -2.918975276816622e+03
-1.147194408069921e+03  1.394514450346894e+02 -2.918975276816622e+03
-1.147480110127042e+03  1.376278360352645e+02 -2.918975276816622e+03
-1.147115332244184e+03  1.364056132095159e+02 -2.918975276816622e+03
-1.146928610657048e+03  1.353609372026201e+02 -2.918975276816622e+03
-1.147114128389826e+03  1.339961750611641e+02 -2.918975276816622e+03
-1.147206274707018e+03  1.333925046225606e+02 -2.918975276816622e+03
-1.147393003746387e+03  1.328046276478428e+02 -2.918975276816622e+03
-1.147482551733206e+03  1.312528306684947e+02 -2.918975276816622e+03
-1.147732939951204e+03  1.297549712340586e+02 -2.918975276816622e+03
-1.147932460474823e+03  1.282782497859230e+02 -2.918975276816622e+03
-1.147837350820601e+03  1.265652962868468e+02 -2.918975276816622e+03
-1.147522551930019e+03  1.246477785755400e+02 -2.918975276816622e+03
-1.147652119471281e+03  1.234578624674570e+02 -2.918975276816622e+03
-1.147983545160822e+03  1.221682602391096e+02 -2.918975276816622e+03
-1.147837653798637e+03  1.204976774172912e+02 -2.918975276816622e+03
-1.147441069686165e+03  1.192058977911657e+02 -2.918975276816622e+03
-1.147097994931084e+03  1.175797492292691e+02 -2.918975276816622e+03
-1.147281319715567e+03  1.165949417684133e+02 -2.918975276816622e+03
-1.147731193926705e+03  1.155813177456254e+02 -2.918975276816622e+03
-1.147794630739238e+03  1.138672658853542e+02 -2.918975276816622e+03
-1.147569880515709e+03  1.125128284458927e+02 -2.918975276816622e+03
-1.147692619262920e+03  1.112221018433172e+02 -2.918975276816622e+03
-1.147968282588159e+03  1.098220404246097e+02 -2.918975276816622e+03
-1.147980046990775e+03  1.083208310263610e+02 -2.918975276816622e+03
-1.148058401751304e+03  1.068514647009730e+02 -2.918975276816622e+03
-1.147905845178446e+03  1.054258999719944e+02 -2.918975276816622e+03
-1.147867222402679e+03  1.039628893359366e+02 -2.918975276816622e+03
-1.148028692641712e+03  1.022258183814539e+02 -2.918975276816622e+03
-1.147984476431491e+03  1.005896565979796e+02 -2.918975276816622e+03
-1.147824479370665e+03  9.942352206491434e+01 -2.918975276816622e+03
-1.147924072079100e+03  9.789707474717009e+01 -2.918975276816622e+03
-1.148226032688120e+03  9.620547318562269e+01 -2.918975276816622e+03
-1.148304775052899e+03  9.333818118696266e+01 -2.918975276816622e+03
-1.148282967390410e+03  9.021248988255378e+01 -2.918975276816622e+03
-1.148097339105402e+03  8.784080565694796e+01 -2.918975276816622e+03
-1.148016926699378e+03  8.616188416814893e+01 -2.918975276816622e+03
-1.147215336795878e+03  8.511872492935488e+01 -2.918975276816622e+03
-1.147176440315424e+03  8.426264046531388e+01 -2.918975276816622e+03
-1.148078465998096e+03  8.361184085534906e+01 -2.918975276816622e+03
-1.148473340011705e+03  8.196847281761599e+01 -2.918975276816622e+03
-1.149010584959618e+03  7.975503400514179e+01 -2.918975276816622e+03
-1.149389797879509e+03  7.808505758835673e+01 -2.918975276816622e+03
-1.148896327792451e+03  7.755216180998484e+01 -2.918975276816622e+03
-1.148281933026803e+03  7.687852274347171e+01 -2.918975276816622e+03
-1.148680991846000e+03  7.600511537378705e+01 -2.918975276816622e+03
-1.148587002863025e+03  7.478304269701891e+01 -2.918975276816622e+03
-1.148133884781576e+03  7.261658294290237e+01 -2.918975276816622e+03
-1.148130817004261e+03  7.120379000882204e+01 -2.918975276816622e+03
-1.148087796296190e+03  6.936682050614228e+01 -2.918975276816622e+03
-1.148013119606169e+03  6.770444735845045e+01 -2.918975276816622e+03
-1.147842719908620e+03  6.652058077858798e+01 -2.918975276816622e+03
-1.147616467378695e+03  6.393409929592757e+01 -2.918975276816622e+03
-1.147249071225331e+03  6.158891339494053e+01 -2.918975276816622e+03
-1.147120720155721e+03  6.043740734484278e+01 -2.918975276816622e+03
-1.147397781210259e+03  5.870731516206677e+01 -2.918975276816622e+03
-1.147635970280088e+03  5.624840883304632e+01 -2.918975276816622e+03
-1.147698421665005e+03  5.414158022287220e+01 -2.918975276816622e+03
-1.147552019554417e+03  5.227343254240905e+01 -2.918975276816622e+03
-1.147588378267774e+03  5.038328245751767e+01 -2.918975276816622e+03
-1.147947562067239e+03  4.872389181945443e+01 -2.918975276816622e+03
-1.148098968472288e+03  4.726296173628930e+01 -2.918975276816622e+03
-1.147988288945244e+03  4.646890461548907e+01 -2.918975276816622e+03
-1.147901959790184e+03  4.560261727917041e+01 -2.918975276816622e+03
-1.147528559146627e+03  4.434617603432078e+01 -2.918975276816622e+03
-1.147273838817505e+03  4.286796104409730e+01 -2.918975276816622e+03
-1.147614847614450e+03  4.121705962032902e+01 -2.918975276816622e+03
-1.147970776234878e+03  3.934809726182856e+01 -2.918975276816622e+03
-1.148414586024918e+03  3.647086429437236e+01 -2.918975276816622e+03
-1.148571211941454e+03  3.436119956098478e+01 -2.918975276816622e+03
-1.148652928001755e+03  3.343504279461466e+01 -2.918975276816622e+03
-1.148557418101262e+03  3.246697718720822e+01 -2.918975276816622e+03
-1.148502147531398e+03  3.037113650062303e+01 -2.918975276816622e+03
-1.148617677950746e+03  2.773728617441021e+01 -2.918975276816622e+03
-1.149049543657767e+03  2.652508939180769e+01 -2.918975276816622e+03
-1.149099629968533e+03  2.558413007979948e+01 -2.918975276816622e+03
-1.148649411231813e+03  2.416634210917158e+01 -2.918975276816622e+03
-1.148403607704998e+03  2.286072727808195e+01 -2.918975276816622e+03
-1.148243863848222e+03  2.208539844874830e+01 -2.918975276816622e+03
-1.148465129768084e+03  2.123271298586785e+01 -2.918975276816622e+03
-1.149140661364769e+03  1.979766254295097e+01 -2.918975276816622e+03
-1.149356722915752e+03  1.840017948013743e+01 -2.918975276816622e+03
-1.148330553242449e+03  1.737606365335992e+01 -2.918975276816622e+03
-1.147913707911994e+03  1.634140913677895e+01 -2.918975276816622e+03
-1.147978866833098e+03  1.522375813820044e+01 -2.918975276816622e+03
-1.147773097828101e+03  1.398353894742881e+01 -2.918975276816622e+03
-1.147697929175902e+03  1.252676094116659e+01 -2.918975276816622e+03
-1.147875898468474e+03  9.744973282216394e+00 -2.918975276816622e+03
-1.148035097610111e+03  7.046956434638850e+00 -2.918975276816622e+03
-1.148120617035955e+03  5.853246990989318e+00 -2.918975276816622e+03
 1.145155562929774e+03 -1.563925612320339e+00  2.918975276816622e+03
1.145099952221333e+03 9.246429004250776e-01 2.918975276816622e+03
 1.145681106316666e+03 -2.933737546320252e+00  2.918975276816622e+03
 1.145869422357153e+03 -4.110948845194297e+00  2.918975276816622e+03
 1.145811355861266e+03 -5.695350465442692e+00  2.918975276816622e+03
 1.145981465448250e+03 -6.787307422549966e+00  2.918975276816622e+03
 1.145898748700856e+03 -7.911983816161668e+00  2.918975276816622e+03
 1.145753289864778e+03 -9.539566776396173e+00  2.918975276816622e+03
 1.145522265472341e+03 -1.088591526765713e+01  2.918975276816622e+03
 1.145591936127845e+03 -1.255983701537996e+01  2.918975276816622e+03
 1.145917173312308e+03 -1.428475495913366e+01  2.918975276816622e+03
 1.145544758494542e+03 -1.519920112228673e+01  2.918975276816622e+03
 1.144928381609647e+03 -1.611533137062994e+01  2.918975276816622e+03
 1.145311457476902e+03 -1.717927602814161e+01  2.918975276816622e+03
 1.145644540152139e+03 -1.852378858477671e+01  2.918975276816622e+03
 1.145507567290052e+03 -2.068258658403582e+01  2.918975276816622e+03
 1.145466977959330e+03 -2.273448052149703e+01  2.918975276816622e+03
 1.145519037218329e+03 -2.496055043549469e+01  2.918975276816622e+03
 1.145419595557221e+03 -2.690657959962598e+01  2.918975276816622e+03
 1.145334520749339e+03 -2.874001019874868e+01  2.918975276816622e+03
 1.145260415286756e+03 -3.007919752443429e+01  2.918975276816622e+03
 1.145344561037663e+03 -3.117993450378961e+01  2.918975276816622e+03
 1.145393599232676e+03 -3.263403704071526e+01  2.918975276816622e+03
 1.145241400380863e+03 -3.454122893436026e+01  2.918975276816622e+03
 1.145307877558571e+03 -3.695465860694599e+01  2.918975276816622e+03
 1.145535902694347e+03 -3.874695532126385e+01  2.918975276816622e+03
 1.145863973982366e+03 -4.056119207212796e+01  2.918975276816622e+03
 1.146482973468074e+03 -4.191086429584514e+01  2.918975276816622e+03
 1.146572504723048e+03 -4.288371995870995e+01  2.918975276816622e+03
 1.145884564502746e+03 -4.425312607823896e+01  2.918975276816622e+03
 1.145577979237360e+03 -4.533058658210417e+01  2.918975276816622e+03
 1.145686189886746e+03 -4.582927947702270e+01  2.918975276816622e+03
 1.145667699892253e+03 -4.653250158065322e+01  2.918975276816622e+03
 1.145442945004241e+03 -4.816602009733668e+01  2.918975276816622e+03
 1.145484019361835e+03 -4.962664897029443e+01  2.918975276816622e+03
 1.145708734181766e+03 -5.184851918979520e+01  2.918975276816622e+03
 1.145714666797099e+03 -5.417586015143084e+01  2.918975276816622e+03
 1.145452792643730e+03 -5.562514010560569e+01  2.918975276816622e+03
 1.145426086035095e+03 -5.749956538716767e+01  2.918975276816622e+03
 1.145497029812770e+03 -5.955227476303511e+01  2.918975276816622e+03
 1.145674408140010e+03 -6.127461689530979e+01  2.918975276816622e+03
 1.146065149921466e+03 -6.261324159685589e+01  2.918975276816622e+03
 1.146548304366893e+03 -6.329080281088147e+01  2.918975276816622e+03
 1.146605445397808e+03 -6.392815752364390e+01  2.918975276816622e+03
 1.146370885280058e+03 -6.519689094455386e+01  2.918975276816622e+03
 1.146107038397641e+03 -6.637737821621785e+01  2.918975276816622e+03
 1.145800295027533e+03 -6.722747399442963e+01  2.918975276816622e+03
 1.145809729966319e+03 -6.824160835058301e+01  2.918975276816622e+03
 1.145786456487466e+03 -6.958856880239570e+01  2.918975276816622e+03
 1.145823783462730e+03 -7.147356581741160e+01  2.918975276816622e+03
 1.145953984279889e+03 -7.371449802729840e+01  2.918975276816622e+03
 1.146245010319154e+03 -7.595548168691937e+01  2.918975276816622e+03
 1.146240212858576e+03 -7.722593219889191e+01  2.918975276816622e+03
 1.146107694706863e+03 -7.802449736228573e+01  2.918975276816622e+03
 1.146008148190616e+03 -7.955328962610987e+01  2.918975276816622e+03
 1.146002585272892e+03 -8.117731139159032e+01  2.918975276816622e+03
 1.146240612093041e+03 -8.251593020790473e+01  2.918975276816622e+03
 1.146659480702990e+03 -8.355557957574311e+01  2.918975276816622e+03
 1.146693121024605e+03 -8.426830750891561e+01  2.918975276816622e+03
 1.146355818954112e+03 -8.522852930752923e+01  2.918975276816622e+03
 1.145949384322009e+03 -8.635439524760800e+01  2.918975276816622e+03
 1.145702724069685e+03 -8.726977676060881e+01  2.918975276816622e+03
 1.145880640181181e+03 -8.826686897663188e+01  2.918975276816622e+03
 1.145912964738477e+03 -8.951753890370018e+01  2.918975276816622e+03
 1.146233228431002e+03 -9.132372338388404e+01  2.918975276816622e+03
 1.146841214293355e+03 -9.346513352687677e+01  2.918975276816622e+03
 1.147491455811042e+03 -9.546550227481931e+01  2.918975276816622e+03
 1.146397829008497e+03 -9.624446392595590e+01  2.918975276816622e+03
 1.145207926940049e+03 -9.718516776038548e+01  2.918975276816622e+03
 1.145572853497998e+03 -9.878433268016077e+01  2.918975276816622e+03
 1.145793331622458e+03 -1.005311520055594e+02  2.918975276816622e+03
 1.145735558985547e+03 -1.022547294790607e+02  2.918975276816622e+03
 1.145529347710971e+03 -1.034459674954248e+02  2.918975276816622e+03
 1.145653424048413e+03 -1.043646307708612e+02  2.918975276816622e+03
 1.145954943377853e+03 -1.051086883582713e+02  2.918975276816622e+03
 1.145675790747935e+03 -1.061397608373534e+02  2.918975276816622e+03
 1.145469129264944e+03 -1.071378315756338e+02  2.918975276816622e+03
 1.145712770854463e+03 -1.081920109236159e+02  2.918975276816622e+03
 1.145750821834975e+03 -1.095167023489625e+02  2.918975276816622e+03
 1.145810541214753e+03 -1.114070618329402e+02  2.918975276816622e+03
 1.145927120415571e+03 -1.136485298873721e+02  2.918975276816622e+03
 1.146121655766459e+03 -1.158958878214672e+02  2.918975276816622e+03
 1.146083361377350e+03 -1.171943036667443e+02  2.918975276816622e+03
 1.146043282813808e+03 -1.179899105998180e+02  2.918975276816622e+03
 1.145979676439543e+03 -1.194999032644083e+02  2.918975276816622e+03
 1.145965567000682e+03 -1.211205118796142e+02  2.918975276816622e+03
 1.146176479194697e+03 -1.224740565523969e+02  2.918975276816622e+03
 1.146632372816505e+03 -1.234803887203393e+02  2.918975276816622e+03
 1.146699125834965e+03 -1.241570609572847e+02  2.918975276816622e+03
 1.146334088035296e+03 -1.251676687096916e+02  2.918975276816622e+03
 1.145915227108823e+03 -1.263079158921321e+02  2.918975276816622e+03
 1.145664209005113e+03 -1.272053367348997e+02  2.918975276816622e+03
 1.145847481054329e+03 -1.282122267098706e+02  2.918975276816622e+03
 1.145877334708050e+03 -1.294755541572574e+02  2.918975276816622e+03
 1.146185959255938e+03 -1.312725715204428e+02  2.918975276816622e+03
 1.146780061254954e+03 -1.333970760695028e+02  2.918975276816622e+03
 1.147318929887448e+03 -1.353984969827428e+02  2.918975276816622e+03
 1.146207249798828e+03 -1.361425029065719e+02  2.918975276816622e+03
 1.145146610253085e+03 -1.370919221607908e+02  2.918975276816622e+03
 1.145576180440527e+03 -1.387364629972086e+02  2.918975276816622e+03
 1.145843779567887e+03 -1.404720554707299e+02  2.918975276816622e+03
 1.146136165252307e+03 -1.420972413335700e+02  2.918975276816622e+03
 1.146111270161039e+03 -1.431626597201547e+02  2.918975276816622e+03
 1.145852081726734e+03 -1.441677221142930e+02  2.918975276816622e+03
 1.145928650646427e+03 -1.450228690908454e+02  2.918975276816622e+03
 1.145641437802744e+03 -1.460318493569260e+02  2.918975276816622e+03
 1.145458240881094e+03 -1.470397132111776e+02  2.918975276816622e+03
 1.145742434229687e+03 -1.481189154194292e+02  2.918975276816622e+03
 1.145769601577068e+03 -1.494490843026514e+02  2.918975276816622e+03
 1.145826046232198e+03 -1.513451830149594e+02  2.918975276816622e+03
 1.145946228312631e+03 -1.535857784885685e+02  2.918975276816622e+03
 1.146164307067854e+03 -1.558200293314569e+02  2.918975276816622e+03
 1.146124876779942e+03 -1.571096855115613e+02  2.918975276816622e+03
 1.146062419053698e+03 -1.579263475589504e+02  2.918975276816622e+03
 1.146022389463229e+03 -1.594298633551822e+02  2.918975276816622e+03
 1.146088767110007e+03 -1.610415107425588e+02  2.918975276816622e+03
 1.146357531732335e+03 -1.623510655008291e+02  2.918975276816622e+03
 1.146837083209254e+03 -1.634204157416258e+02  2.918975276816622e+03
 1.146769120046838e+03 -1.642846421453153e+02  2.918975276816622e+03
 1.146362269833061e+03 -1.651743281060859e+02  2.918975276816622e+03
 1.146153147572334e+03 -1.661553445077423e+02  2.918975276816622e+03
 1.145813156483588e+03 -1.670576410227480e+02  2.918975276816622e+03
 1.145809588795267e+03 -1.681035685271895e+02  2.918975276816622e+03
 1.145804166768783e+03 -1.694489434887358e+02  2.918975276816622e+03
 1.145846444655517e+03 -1.713216243128841e+02  2.918975276816622e+03
 1.145969912127043e+03 -1.735568396120310e+02  2.918975276816622e+03
 1.146236585497107e+03 -1.757826239328128e+02  2.918975276816622e+03
 1.146216222988169e+03 -1.770565714550666e+02  2.918975276816622e+03
 1.146101022301892e+03 -1.778778989254794e+02  2.918975276816622e+03
 1.146026293114181e+03 -1.794008510125720e+02  2.918975276816622e+03
 1.146072284749499e+03 -1.810125306491529e+02  2.918975276816622e+03
 1.146356131976803e+03 -1.822809798473543e+02  2.918975276816622e+03
 1.146852612388707e+03 -1.832981995099846e+02  2.918975276816622e+03
 1.146799623062181e+03 -1.841242768083560e+02  2.918975276816622e+03
 1.146405926540635e+03 -1.850743559423602e+02  2.918975276816622e+03
 1.146194252329383e+03 -1.861292429588255e+02  2.918975276816622e+03
 1.145837464147295e+03 -1.870240213098667e+02  2.918975276816622e+03
 1.145809387155999e+03 -1.880727484184584e+02  2.918975276816622e+03
 1.145803489032126e+03 -1.894183656172097e+02  2.918975276816622e+03
 1.145842832822045e+03 -1.912894951899855e+02  2.918975276816622e+03
 1.145961894069569e+03 -1.935240785482314e+02  2.918975276816622e+03
 1.146192153774260e+03 -1.957644255120553e+02  2.918975276816622e+03
 1.146155496369960e+03 -1.970551079170609e+02  2.918975276816622e+03
 1.146068152807024e+03 -1.978566031454812e+02  2.918975276816622e+03
 1.146000924600318e+03 -1.993646747145811e+02  2.918975276816622e+03
 1.146020654694474e+03 -2.009846564239912e+02  2.918975276816622e+03
 1.146273076545138e+03 -2.023138047475472e+02  2.918975276816622e+03
 1.146686497013460e+03 -2.033753247361088e+02  2.918975276816622e+03
 1.146693192332552e+03 -2.041104255355542e+02  2.918975276816622e+03
 1.146394792458719e+03 -2.050349234943793e+02  2.918975276816622e+03
 1.146115538125796e+03 -2.061363404132634e+02  2.918975276816622e+03
 1.145783167521830e+03 -2.070053546208531e+02  2.918975276816622e+03
 1.145806425377571e+03 -2.080390222633552e+02  2.918975276816622e+03
 1.145793261235206e+03 -2.093910768510591e+02  2.918975276816622e+03
 1.145822039327394e+03 -2.112615339839279e+02  2.918975276816622e+03
 1.145932862754287e+03 -2.134953856362283e+02  2.918975276816622e+03
 1.146155038590989e+03 -2.157440623875269e+02  2.918975276816622e+03
 1.146124155302400e+03 -2.170367867087799e+02  2.918975276816622e+03
 1.146034343509443e+03 -2.178075875131870e+02  2.918975276816622e+03
 1.145944180955480e+03 -2.193076201953480e+02  2.918975276816622e+03
 1.145931885166754e+03 -2.209679997266797e+02  2.918975276816622e+03
 1.146029972910466e+03 -2.223286151585610e+02  2.918975276816622e+03
 1.146508182463916e+03 -2.234316654825254e+02  2.918975276816622e+03
 1.146558273360837e+03 -2.242847112333520e+02  2.918975276816622e+03
 1.145999916841495e+03 -2.251736646141755e+02  2.918975276816622e+03
 1.145917744465707e+03 -2.257519648875588e+02  2.918975276816622e+03
 1.145631620472143e+03 -2.264160940019543e+02  2.918975276816622e+03
 1.145284345378844e+03 -2.279428019872793e+02  2.918975276816622e+03
 1.145035712091464e+03 -2.293971081552385e+02  2.918975276816622e+03
 1.144834108132320e+03 -2.315083115437368e+02  2.918975276816622e+03
 1.145046907014834e+03 -2.337617171405852e+02  2.918975276816622e+03
 1.145379719328669e+03 -2.353341615884057e+02  2.918975276816622e+03
 1.145339593861666e+03 -2.372093987110635e+02  2.918975276816622e+03
 1.145440775426431e+03 -2.398864501434392e+02  2.918975276816622e+03
 1.146089903086437e+03 -2.417532767338242e+02  2.918975276816622e+03
 1.146295861616518e+03 -2.427131617486188e+02  2.918975276816622e+03
 1.145760290821418e+03 -2.440166430358752e+02  2.918975276816622e+03
 1.145417048589317e+03 -2.451982990245889e+02  2.918975276816622e+03
 1.145643278089301e+03 -2.458250719401563e+02  2.918975276816622e+03
 1.146046976613955e+03 -2.467699278386739e+02  2.918975276816622e+03
 1.145466951347125e+03 -2.483625020745082e+02  2.918975276816622e+03
 1.144865569769726e+03 -2.502040983032190e+02  2.918975276816622e+03
 1.144706601543834e+03 -2.517972064805240e+02  2.918975276816622e+03
 1.144765683742575e+03 -2.527761498607890e+02  2.918975276816622e+03
 1.144991622645406e+03 -2.543889790552887e+02  2.918975276816622e+03
 1.145201339391183e+03 -2.552653582193655e+02  2.918975276816622e+03
 1.145569774804548e+03 -2.558013946067955e+02  2.918975276816622e+03
 1.145636094127320e+03 -2.568877654717127e+02  2.918975276816622e+03
 1.145569880973571e+03 -2.578779364965517e+02  2.918975276816622e+03
 1.145590628453133e+03 -2.589682869584620e+02  2.918975276816622e+03
 1.145700914951524e+03 -2.602575580007016e+02  2.918975276816622e+03
 1.145873698249882e+03 -2.621648590334115e+02  2.918975276816622e+03
 1.146197880841167e+03 -2.644176188839081e+02  2.918975276816622e+03
 1.146519231946788e+03 -2.665422396979414e+02  2.918975276816622e+03
 1.145692001157456e+03 -2.670992007972040e+02  2.918975276816622e+03
 1.145020727546971e+03 -2.679192840895375e+02  2.918975276816622e+03
 1.145483413887882e+03 -2.696200217956819e+02  2.918975276816622e+03
 1.145757849417827e+03 -2.713156700122198e+02  2.918975276816622e+03
 1.145586243484055e+03 -2.729330018587863e+02  2.918975276816622e+03
 1.145471124955073e+03 -2.744001819234933e+02  2.918975276816622e+03
 1.145514401084778e+03 -2.761363274961162e+02  2.918975276816622e+03
 1.145985297687754e+03 -2.773756988833948e+02  2.918975276816622e+03
 1.146340760094524e+03 -2.785442355586382e+02  2.918975276816622e+03
 1.146269432532740e+03 -2.811463746777116e+02  2.918975276816622e+03
 1.146324294920605e+03 -2.846569383505928e+02  2.918975276816622e+03
 1.146541940517033e+03 -2.873249353807221e+02  2.918975276816622e+03
 1.146119122284344e+03 -2.884033696562822e+02  2.918975276816622e+03
 1.145662676984570e+03 -2.896068702974078e+02  2.918975276816622e+03
 1.145815729951425e+03 -2.919763586739774e+02  2.918975276816622e+03
 1.145868136479791e+03 -2.937888861400922e+02  2.918975276816622e+03
 1.145586444775703e+03 -2.955254830313795e+02  2.918975276816622e+03
 1.145792387117668e+03 -2.969230327147364e+02  2.918975276816622e+03
 1.145905624536323e+03 -2.980897816004357e+02  2.918975276816622e+03
 1.145533239718128e+03 -2.992169310469640e+02  2.918975276816622e+03
 1.145639673304180e+03 -3.011663188316886e+02  2.918975276816622e+03
 1.145546950277727e+03 -3.031590752790631e+02  2.918975276816622e+03
 1.145398720087573e+03 -3.047452991206807e+02  2.918975276816622e+03
 1.145411799527265e+03 -3.058562753163960e+02  2.918975276816622e+03
 1.145589697816622e+03 -3.069555186275378e+02  2.918975276816622e+03
 1.145362450427996e+03 -3.089956985894542e+02  2.918975276816622e+03
 1.144739041988427e+03 -3.099119440714154e+02  2.918975276816622e+03
 1.144362054210016e+03 -3.109005385055816e+02  2.918975276816622e+03
 1.144746382724307e+03 -3.122049138643981e+02  2.918975276816622e+03
 1.145360122042933e+03 -3.129996702206122e+02  2.918975276816622e+03
 1.145317699422878e+03 -3.141484615064232e+02  2.918975276816622e+03
 1.144970726090400e+03 -3.162390814462414e+02  2.918975276816622e+03
 1.144157739065113e+03 -3.177524275592770e+02  2.918975276816622e+03
 1.144314905343136e+03 -3.188417592702662e+02  2.918975276816622e+03
 1.144817895223788e+03 -3.202249743644695e+02  2.918975276816622e+03
 1.144828872127080e+03 -3.214530025608888e+02  2.918975276816622e+03
 1.144627045250427e+03 -3.229572186043532e+02  2.918975276816622e+03
 1.144445702726544e+03 -3.251476729409394e+02  2.918975276816622e+03
 1.144779101178697e+03 -3.272157958441778e+02  2.918975276816622e+03
 1.144728285353397e+03 -3.285763777976211e+02  2.918975276816622e+03
 1.144639323832103e+03 -3.305815293303803e+02  2.918975276816622e+03
 1.144598288087465e+03 -3.330550451938507e+02  2.918975276816622e+03
 1.144852799705948e+03 -3.361345821954986e+02  2.918975276816622e+03
 1.144645495840540e+03 -3.385195942206933e+02  2.918975276816622e+03
 1.144381651882422e+03 -3.398057360387181e+02  2.918975276816622e+03
 1.144310509798835e+03 -3.408358983119931e+02  2.918975276816622e+03
 1.144774870348755e+03 -3.414256285765677e+02  2.918975276816622e+03
 1.145280984166244e+03 -3.423269730905412e+02  2.918975276816622e+03
 1.145315677826608e+03 -3.438055374169496e+02  2.918975276816622e+03
 1.145259884527166e+03 -3.455233809057407e+02  2.918975276816622e+03
 1.145851037305231e+03 -3.461518727619818e+02  2.918975276816622e+03
 1.146461204659347e+03 -3.470508115168769e+02  2.918975276816622e+03
 1.146040351185709e+03 -3.494124784912662e+02  2.918975276816622e+03
 1.145779255124174e+03 -3.515295752946629e+02  2.918975276816622e+03
 1.145406624946188e+03 -3.523050690576205e+02  2.918975276816622e+03
 1.144926370971993e+03 -3.530756684897410e+02  2.918975276816622e+03
 1.144524601241685e+03 -3.543713871174177e+02  2.918975276816622e+03
 1.144726469665303e+03 -3.552146912628077e+02  2.918975276816622e+03
 1.144967102262314e+03 -3.563299190139606e+02  2.918975276816622e+03
 1.145056484133917e+03 -3.582816769921952e+02  2.918975276816622e+03
 1.145544985680974e+03 -3.609693740635025e+02  2.918975276816622e+03
 1.145978300192531e+03 -3.629771133790755e+02  2.918975276816622e+03
 1.145918646389105e+03 -3.641128035924476e+02  2.918975276816622e+03
 1.145714578288614e+03 -3.653756237286564e+02  2.918975276816622e+03
 1.145582805569160e+03 -3.665930173226988e+02  2.918975276816622e+03
 1.145451284170970e+03 -3.679175922469865e+02  2.918975276816622e+03
 1.145411011628995e+03 -3.701078427853446e+02  2.918975276816622e+03
 1.145335007420658e+03 -3.716270372882927e+02  2.918975276816622e+03
 1.145261834610835e+03 -3.735496668095532e+02  2.918975276816622e+03
 1.145115857745162e+03 -3.765904468420220e+02  2.918975276816622e+03
 1.145065446815933e+03 -3.791341720187378e+02  2.918975276816622e+03
 1.144958160046949e+03 -3.816651146025314e+02  2.918975276816622e+03
 1.145007425678445e+03 -3.832309852257014e+02  2.918975276816622e+03
 1.145297595648096e+03 -3.849586393547200e+02  2.918975276816622e+03
1.145634685610732e+03 3.832009444367627e+02 2.918975276816622e+03
1.145579879080917e+03 3.856616572700760e+02 2.918975276816622e+03
1.145672654664165e+03 3.803173490722072e+02 2.918975276816622e+03
1.145353835267968e+03 3.786491705309762e+02 2.918975276816622e+03
1.145180984045816e+03 3.771887340407315e+02 2.918975276816622e+03
1.145578337833343e+03 3.756454979174329e+02 2.918975276816622e+03
1.145799824801718e+03 3.750015469065857e+02 2.918975276816622e+03
1.145610254307031e+03 3.742890164294184e+02 2.918975276816622e+03
1.145582264648668e+03 3.730300663415051e+02 2.918975276816622e+03
1.145632177810811e+03 3.718080304892705e+02 2.918975276816622e+03
1.145753419213437e+03 3.697053986330857e+02 2.918975276816622e+03
1.145701251369067e+03 3.684300542799448e+02 2.918975276816622e+03
1.145255644178977e+03 3.684033269172442e+02 2.918975276816622e+03
1.144643924677269e+03 3.677208163071005e+02 2.918975276816622e+03
1.144249836305386e+03 3.670720851102560e+02 2.918975276816622e+03
1.144424105449667e+03 3.660946870857505e+02 2.918975276816622e+03
1.144809708099776e+03 3.639518107438988e+02 2.918975276816622e+03
1.145025705363512e+03 3.611898161685159e+02 2.918975276816622e+03
1.145044005691963e+03 3.589262240179327e+02 2.918975276816622e+03
1.144789599765488e+03 3.573030016766902e+02 2.918975276816622e+03
1.144893990182764e+03 3.565410219554792e+02 2.918975276816622e+03
1.145275912878079e+03 3.559715716255001e+02 2.918975276816622e+03
1.145254646956436e+03 3.554051858179971e+02 2.918975276816622e+03
1.145384220140023e+03 3.548139573929873e+02 2.918975276816622e+03
1.145510949415879e+03 3.534774083115341e+02 2.918975276816622e+03
1.145560796222045e+03 3.519893939691935e+02 2.918975276816622e+03
1.145426232428461e+03 3.497960028702434e+02 2.918975276816622e+03
1.145150741941363e+03 3.480035483157113e+02 2.918975276816622e+03
1.144929767238708e+03 3.463891484441954e+02 2.918975276816622e+03
1.145177820411491e+03 3.445900614219117e+02 2.918975276816622e+03
1.145266018611365e+03 3.428942156288057e+02 2.918975276816622e+03
1.144873064155120e+03 3.413914179208628e+02 2.918975276816622e+03
1.144678073696766e+03 3.397964156759532e+02 2.918975276816622e+03
1.145060673866569e+03 3.380831430720486e+02 2.918975276816622e+03
1.145454663643779e+03 3.371317688486957e+02 2.918975276816622e+03
1.145168404031118e+03 3.361939335699922e+02 2.918975276816622e+03
1.145088909079611e+03 3.351425601532134e+02 2.918975276816622e+03
1.145222494750410e+03 3.331522179270614e+02 2.918975276816622e+03
1.145933807656288e+03 3.314055440738783e+02 2.918975276816622e+03
1.146217453078144e+03 3.299415187300644e+02 2.918975276816622e+03
1.145951000126266e+03 3.285867797263846e+02 2.918975276816622e+03
1.145771732679513e+03 3.273337703721817e+02 2.918975276816622e+03
1.145628340529937e+03 3.256514140368875e+02 2.918975276816622e+03
1.145524371019933e+03 3.240681490000744e+02 2.918975276816622e+03
1.145545967722119e+03 3.229307380521316e+02 2.918975276816622e+03
1.145998634201169e+03 3.221007566783584e+02 2.918975276816622e+03
1.146125753641795e+03 3.203673375697443e+02 2.918975276816622e+03
1.146385512449678e+03 3.187274914681288e+02 2.918975276816622e+03
1.146590097200040e+03 3.169491953043430e+02 2.918975276816622e+03
1.146184626400716e+03 3.141603619283109e+02 2.918975276816622e+03
1.145573082297434e+03 3.120352228694687e+02 2.918975276816622e+03
1.145209824846573e+03 3.112193667105477e+02 2.918975276816622e+03
1.145197405778974e+03 3.102572204607072e+02 2.918975276816622e+03
1.145143321059398e+03 3.085714977865661e+02 2.918975276816622e+03
1.145125189522565e+03 3.070979542384433e+02 2.918975276816622e+03
1.145081815267457e+03 3.054765970426062e+02 2.918975276816622e+03
1.144897877144005e+03 3.039571815820194e+02 2.918975276816622e+03
1.145432935961326e+03 3.026734288750412e+02 2.918975276816622e+03
1.145954757822299e+03 3.015477583865023e+02 2.918975276816622e+03
1.145747026411925e+03 3.001191064167351e+02 2.918975276816622e+03
1.145362848541004e+03 2.983848804670857e+02 2.918975276816622e+03
1.145276623738697e+03 2.967990551543194e+02 2.918975276816622e+03
1.145799422275110e+03 2.951292071109825e+02 2.918975276816622e+03
1.146376225182164e+03 2.935575201002387e+02 2.918975276816622e+03
1.146337131066238e+03 2.924036248942163e+02 2.918975276816622e+03
1.145948826594205e+03 2.915243683796947e+02 2.918975276816622e+03
1.147035702362825e+03 2.903882595953837e+02 2.918975276816622e+03
1.147037863980089e+03 2.889312441992116e+02 2.918975276816622e+03
1.146108970950340e+03 2.867705180662625e+02 2.918975276816622e+03
1.146211445436994e+03 2.850205290763939e+02 2.918975276816622e+03
1.146156413831439e+03 2.833680601183969e+02 2.918975276816622e+03
1.145738385659777e+03 2.813856707381349e+02 2.918975276816622e+03
1.144974462374138e+03 2.796293343308483e+02 2.918975276816622e+03
1.145513353597796e+03 2.788699387625796e+02 2.918975276816622e+03
1.145892944084869e+03 2.779643495788286e+02 2.918975276816622e+03
1.145239923725324e+03 2.764045260683068e+02 2.918975276816622e+03
1.145374485079773e+03 2.756164266053519e+02 2.918975276816622e+03
1.145736917202380e+03 2.745107528723108e+02 2.918975276816622e+03
1.145270073538549e+03 2.737404636176350e+02 2.918975276816622e+03
1.145124879810611e+03 2.732749339405700e+02 2.918975276816622e+03
1.145392583191614e+03 2.719427041561214e+02 2.918975276816622e+03
1.145479553660171e+03 2.700043227402103e+02 2.918975276816622e+03
1.145448035915092e+03 2.677238094705342e+02 2.918975276816622e+03
1.145430635094627e+03 2.657619924454209e+02 2.918975276816622e+03
1.145532755062771e+03 2.637002652616442e+02 2.918975276816622e+03
1.145463309581480e+03 2.610348504898333e+02 2.918975276816622e+03
1.145302509912781e+03 2.590982250843314e+02 2.918975276816622e+03
1.145404381806416e+03 2.579707600603570e+02 2.918975276816622e+03
1.145502447745533e+03 2.572031074422451e+02 2.918975276816622e+03
1.145462211853318e+03 2.562846117036859e+02 2.918975276816622e+03
1.145722724189627e+03 2.553805646389256e+02 2.918975276816622e+03
1.146045280195834e+03 2.542793150581302e+02 2.918975276816622e+03
1.145360470108050e+03 2.527909560582794e+02 2.918975276816622e+03
1.144197017873343e+03 2.522222242633619e+02 2.918975276816622e+03
1.144177029291365e+03 2.510510963363375e+02 2.918975276816622e+03
1.144584676890130e+03 2.493987971191984e+02 2.918975276816622e+03
1.144953113949742e+03 2.482791198248108e+02 2.918975276816622e+03
1.145147541270575e+03 2.466534204454369e+02 2.918975276816622e+03
1.145299603202974e+03 2.458488560064227e+02 2.918975276816622e+03
1.145648003023983e+03 2.454295545124834e+02 2.918975276816622e+03
1.145638671873301e+03 2.443806357051745e+02 2.918975276816622e+03
1.145619575332270e+03 2.432906733011873e+02 2.918975276816622e+03
1.145712794403625e+03 2.421668841174436e+02 2.918975276816622e+03
1.145794389280654e+03 2.410006394763349e+02 2.918975276816622e+03
1.146066317937316e+03 2.392408153681178e+02 2.918975276816622e+03
1.146683898045612e+03 2.371810381764834e+02 2.918975276816622e+03
1.147513080208474e+03 2.353518809568526e+02 2.918975276816622e+03
1.146578551680405e+03 2.344570999062339e+02 2.918975276816622e+03
1.145391808802240e+03 2.332809763006688e+02 2.918975276816622e+03
1.145680221853453e+03 2.317010869303251e+02 2.918975276816622e+03
1.145826941501846e+03 2.299328068827388e+02 2.918975276816622e+03
1.145861422252677e+03 2.282046601851671e+02 2.918975276816622e+03
1.145782320851568e+03 2.272172727699966e+02 2.918975276816622e+03
1.145865057623042e+03 2.263017219053922e+02 2.918975276816622e+03
1.145989897362947e+03 2.253915909194225e+02 2.918975276816622e+03
1.145603562897743e+03 2.244055498878168e+02 2.918975276816622e+03
1.145418678272801e+03 2.233805201028726e+02 2.918975276816622e+03
1.145755871501532e+03 2.223304246222919e+02 2.918975276816622e+03
1.145868539896022e+03 2.210523921526125e+02 2.918975276816622e+03
1.146217341470989e+03 2.192056472743426e+02 2.918975276816622e+03
1.146851084264304e+03 2.170916543926105e+02 2.918975276816622e+03
1.147517823426782e+03 2.150966974623820e+02 2.918975276816622e+03
1.146339944227034e+03 2.143122077388726e+02 2.918975276816622e+03
1.145095299593461e+03 2.133388582179527e+02 2.918975276816622e+03
1.145526437433263e+03 2.117211496326688e+02 2.918975276816622e+03
1.145796254394190e+03 2.099957590711458e+02 2.918975276816622e+03
1.145742706220737e+03 2.082636864228046e+02 2.918975276816622e+03
1.145526171528100e+03 2.070914863703996e+02 2.918975276816622e+03
1.145709976124617e+03 2.062281168778885e+02 2.918975276816622e+03
1.145974930168093e+03 2.054437962719414e+02 2.918975276816622e+03
1.145582780065660e+03 2.044015881736067e+02 2.918975276816622e+03
1.145399545132736e+03 2.032583072717688e+02 2.918975276816622e+03
1.145768758407315e+03 2.021528531066002e+02 2.918975276816622e+03
1.145868593963022e+03 2.010467169975859e+02 2.918975276816622e+03
1.146139946859723e+03 1.993149583260022e+02 2.918975276816622e+03
1.146723688990057e+03 1.972461120385561e+02 2.918975276816622e+03
1.147535731103301e+03 1.954291418304414e+02 2.918975276816622e+03
1.146627263716536e+03 1.946835180105034e+02 2.918975276816622e+03
1.145438693174438e+03 1.935416758079856e+02 2.918975276816622e+03
1.145690881690142e+03 1.918095225964502e+02 2.918975276816622e+03
1.145813122157531e+03 1.899954744858547e+02 2.918975276816622e+03
1.145777146263471e+03 1.882502263346846e+02 2.918975276816622e+03
1.145652704459911e+03 1.871464127535626e+02 2.918975276816622e+03
1.145776120736043e+03 1.862325685701344e+02 2.918975276816622e+03
1.145954845750664e+03 1.854384049105181e+02 2.918975276816622e+03
1.145591674718527e+03 1.844652866583787e+02 2.918975276816622e+03
1.145414067060217e+03 1.834338642811822e+02 2.918975276816622e+03
1.145754118326904e+03 1.823878756747914e+02 2.918975276816622e+03
1.145862570585632e+03 1.811119447096180e+02 2.918975276816622e+03
1.146205113541092e+03 1.792634462324493e+02 2.918975276816622e+03
1.146828345373440e+03 1.771420327501347e+02 2.918975276816622e+03
1.147467124380689e+03 1.751471987489406e+02 2.918975276816622e+03
1.146297768263671e+03 1.743777197346972e+02 2.918975276816622e+03
1.145092954539430e+03 1.734048488006204e+02 2.918975276816622e+03
1.145535816952724e+03 1.717751127199690e+02 2.918975276816622e+03
1.145794281257948e+03 1.700129166181691e+02 2.918975276816622e+03
1.145605203001718e+03 1.682023470453264e+02 2.918975276816622e+03
1.145511326406919e+03 1.672018443082500e+02 2.918975276816622e+03
1.145832915188499e+03 1.663843883232083e+02 2.918975276816622e+03
1.145992378846066e+03 1.654920924459532e+02 2.918975276816622e+03
1.145588165717872e+03 1.645373203807561e+02 2.918975276816622e+03
1.145358614622024e+03 1.634396490450707e+02 2.918975276816622e+03
1.145709524697655e+03 1.623378721397789e+02 2.918975276816622e+03
1.145879443595917e+03 1.611712569396720e+02 2.918975276816622e+03
1.146532589297045e+03 1.584011251773849e+02 2.918975276816622e+03
1.147660414843667e+03 1.557031617733917e+02 2.918975276816622e+03
1.146756578471949e+03 1.548309890193606e+02 2.918975276816622e+03
1.145581083528023e+03 1.536780824644106e+02 2.918975276816622e+03
1.145772266542060e+03 1.520197517404821e+02 2.918975276816622e+03
1.145841748956296e+03 1.500475140367425e+02 2.918975276816622e+03
1.145836345689491e+03 1.482894803641645e+02 2.918975276816622e+03
1.145756908740959e+03 1.472972190261037e+02 2.918975276816622e+03
1.145877526230573e+03 1.464243185391972e+02 2.918975276816622e+03
1.146008425945786e+03 1.455205195127236e+02 2.918975276816622e+03
1.145623659207253e+03 1.445247496505377e+02 2.918975276816622e+03
1.145444491436863e+03 1.435013401457242e+02 2.918975276816622e+03
1.145773783876571e+03 1.424552974945124e+02 2.918975276816622e+03
1.145885226763447e+03 1.411807389503122e+02 2.918975276816622e+03
1.146262719611589e+03 1.393458834011218e+02 2.918975276816622e+03
1.146938958506177e+03 1.372486602744844e+02 2.918975276816622e+03
1.147587269063171e+03 1.352276108092364e+02 2.918975276816622e+03
1.146387636527317e+03 1.344103578579480e+02 2.918975276816622e+03
1.145156857125773e+03 1.334571903822266e+02 2.918975276816622e+03
1.145560066408296e+03 1.318498895098748e+02 2.918975276816622e+03
1.145787194598873e+03 1.301022891697601e+02 2.918975276816622e+03
1.145727497841396e+03 1.283636489970840e+02 2.918975276816622e+03
1.145542563658069e+03 1.271757597483450e+02 2.918975276816622e+03
1.145669734243690e+03 1.262510793767721e+02 2.918975276816622e+03
1.145915828892293e+03 1.255279674056297e+02 2.918975276816622e+03
1.145574040290344e+03 1.245507391391097e+02 2.918975276816622e+03
1.145394122243509e+03 1.235185981216678e+02 2.918975276816622e+03
1.145734751838418e+03 1.224754300346118e+02 2.918975276816622e+03
1.145851898652887e+03 1.212011758883514e+02 2.918975276816622e+03
1.146212547279084e+03 1.193652363803546e+02 2.918975276816622e+03
1.146863769403736e+03 1.172580201241293e+02 2.918975276816622e+03
1.147510550766597e+03 1.152685543359232e+02 2.918975276816622e+03
1.146302085986098e+03 1.144839898931144e+02 2.918975276816622e+03
1.145064605288195e+03 1.135034716401389e+02 2.918975276816622e+03
1.145510011610529e+03 1.118767163554158e+02 2.918975276816622e+03
1.145782797698030e+03 1.101642085227234e+02 2.918975276816622e+03
1.145791737956725e+03 1.085670511540328e+02 2.918975276816622e+03
1.145574498609949e+03 1.074740267246232e+02 2.918975276816622e+03
1.145668492113932e+03 1.065651274660726e+02 2.918975276816622e+03
1.145851340525239e+03 1.056537843813701e+02 2.918975276816622e+03
1.145399463703802e+03 1.045128055058800e+02 2.918975276816622e+03
1.145243419123292e+03 1.033691032501495e+02 2.918975276816622e+03
1.145638759770009e+03 1.022085621835922e+02 2.918975276816622e+03
1.145649049760704e+03 1.011285345866482e+02 2.918975276816622e+03
1.145581234689877e+03 9.932840432396382e+01 2.918975276816622e+03
1.145659622478100e+03 9.700431343004941e+01 2.918975276816622e+03
1.145956891597318e+03 9.465387886345317e+01 2.918975276816622e+03
1.146112111963450e+03 9.327559097139842e+01 2.918975276816622e+03
1.146127431116071e+03 9.256216408771157e+01 2.918975276816622e+03
1.145553434389291e+03 9.107916849244442e+01 2.918975276816622e+03
1.144916109828113e+03 8.964664797504248e+01 2.918975276816622e+03
1.143615449540185e+03 8.901919431827250e+01 2.918975276816622e+03
1.143266169856132e+03 8.777463018217580e+01 2.918975276816622e+03
1.144349268592347e+03 8.635045365052544e+01 2.918975276816622e+03
1.145044659325294e+03 8.584472498301882e+01 2.918975276816622e+03
1.145385885899115e+03 8.477199420844880e+01 2.918975276816622e+03
1.145160148141028e+03 8.206268773165651e+01 2.918975276816622e+03
1.145299529338551e+03 7.973282395852085e+01 2.918975276816622e+03
1.145300127475447e+03 7.836142258811518e+01 2.918975276816622e+03
1.145211800890562e+03 7.674525124392298e+01 2.918975276816622e+03
1.144864935801446e+03 7.520203844820335e+01 2.918975276816622e+03
1.144956922688577e+03 7.377210857321904e+01 2.918975276816622e+03
1.144971459541755e+03 7.223593623811550e+01 2.918975276816622e+03
1.144528373086534e+03 7.050650880103376e+01 2.918975276816622e+03
1.144005767751156e+03 6.941705193348932e+01 2.918975276816622e+03
1.144471780208696e+03 6.853456714696732e+01 2.918975276816622e+03
1.144939088363980e+03 6.724109180064994e+01 2.918975276816622e+03
1.144839178931802e+03 6.623515738790587e+01 2.918975276816622e+03
1.145148040176121e+03 6.513888211209725e+01 2.918975276816622e+03
1.145870451886859e+03 6.340974654468975e+01 2.918975276816622e+03
1.146249903361085e+03 6.232453783635117e+01 2.918975276816622e+03
1.145598114988200e+03 6.179203282429892e+01 2.918975276816622e+03
1.144987252569863e+03 6.131599826275787e+01 2.918975276816622e+03
1.144698370174656e+03 6.046959076378240e+01 2.918975276816622e+03
1.144418820122330e+03 5.912452866332544e+01 2.918975276816622e+03
1.144044908236973e+03 5.816158661887508e+01 2.918975276816622e+03
1.143586445989149e+03 5.725844334189885e+01 2.918975276816622e+03
1.144023212593664e+03 5.649812669784234e+01 2.918975276816622e+03
1.144439426071985e+03 5.556210902907328e+01 2.918975276816622e+03
1.144482924238907e+03 5.461529611612074e+01 2.918975276816622e+03
1.144970465323576e+03 5.318046900498372e+01 2.918975276816622e+03
1.145108862391334e+03 5.112706386742612e+01 2.918975276816622e+03
1.145249772663887e+03 4.969559416913703e+01 2.918975276816622e+03
1.145356126121976e+03 4.849081745646941e+01 2.918975276816622e+03
1.145423536816527e+03 4.734803050180406e+01 2.918975276816622e+03
1.145501902290722e+03 4.553516392607015e+01 2.918975276816622e+03
1.145623418057166e+03 4.331931155522488e+01 2.918975276816622e+03
1.145396407937460e+03 4.206105254922253e+01 2.918975276816622e+03
1.145322467867934e+03 4.093745585336516e+01 2.918975276816622e+03
1.145619602287955e+03 3.921167526012214e+01 2.918975276816622e+03
1.145284590268550e+03 3.721948034399901e+01 2.918975276816622e+03
1.144691926292847e+03 3.544029716277233e+01 2.918975276816622e+03
1.145684870347663e+03 3.467431338327285e+01 2.918975276816622e+03
1.146582809564179e+03 3.355140684779990e+01 2.918975276816622e+03
1.146071156573042e+03 3.086728582197666e+01 2.918975276816622e+03
1.146065878971912e+03 2.834686662016634e+01 2.918975276816622e+03
1.146365708687232e+03 2.565068609929842e+01 2.918975276816622e+03
1.146592820614437e+03 2.302563948306032e+01 2.918975276816622e+03
1.146475702573034e+03 2.136970106750127e+01 2.918975276816622e+03
1.146760864547455e+03 1.934631855593738e+01 2.918975276816622e+03
1.147008386548838e+03 1.814335799310900e+01 2.918975276816622e+03
1.146647132301616e+03 1.706300789296780e+01 2.918975276816622e+03
1.146329270951410e+03 1.513184394867541e+01 2.918975276816622e+03
1.146414067384908e+03 1.363220979138350e+01 2.918975276816622e+03
1.146015458567160e+03 1.193073012103926e+01 2.918975276816622e+03
1.145453475666617e+03 1.031230779887712e+01 2.918975276816622e+03
1.145678554594816e+03 8.321777446476966e+00 2.918975276816622e+03
1.145603614771133e+03 5.616965642601827e+00 2.918975276816622e+03
1.145327031841824e+03 3.524201575094434e+00 2.918975276816622e+03
-1.157216412025025e+03  1.356766937238535e-01 -2.918975276816622e+03
-1.156254795818493e+03  2.473884883591685e+00 -2.918975276816622e+03
-1.158172243242946e+03 -1.633616518020574e+00 -2.918975276816622e+03
-1.158476640964952e+03 -2.676158617252234e+00 -2.918975276816622e+03
-1.158101678596461e+03 -3.908231519027850e+00 -2.918975276816622e+03
-1.158079251604647e+03 -5.470544344154599e+00 -2.918975276816622e+03
-1.158822998460419e+03 -6.519449580746934e+00 -2.918975276816622e+03
-1.158839780681244e+03 -7.690237881743833e+00 -2.918975276816622e+03
-1.158163168138892e+03 -9.496043732988300e+00 -2.918975276816622e+03
-1.157984728565285e+03 -1.071295531525454e+01 -2.918975276816622e+03
-1.157795463524247e+03 -1.218943566090725e+01 -2.918975276816622e+03
-1.157463399555573e+03 -1.405365259582059e+01 -2.918975276816622e+03
-1.157412009146380e+03 -1.587177051065662e+01 -2.918975276816622e+03
-1.157359034673268e+03 -1.874105169741119e+01 -2.918975276816622e+03
-1.157156818917439e+03 -2.162858059490838e+01 -2.918975276816622e+03
-1.156943303580448e+03 -2.322978634605584e+01 -2.918975276816622e+03
-1.157434660235676e+03 -2.488565498228486e+01 -2.918975276816622e+03
-1.158143007669552e+03 -2.639437296935833e+01 -2.918975276816622e+03
-1.158107130639700e+03 -2.763564176017662e+01 -2.918975276816622e+03
-1.157490381410153e+03 -2.859944735875125e+01 -2.918975276816622e+03
-1.157026172725573e+03 -2.956360524998581e+01 -2.918975276816622e+03
-1.157276946407500e+03 -3.134443236159132e+01 -2.918975276816622e+03
-1.157530052505198e+03 -3.222508255998535e+01 -2.918975276816622e+03
-1.157385488677018e+03 -3.316519983821647e+01 -2.918975276816622e+03
-1.157087916223467e+03 -3.441216634969107e+01 -2.918975276816622e+03
-1.157236876660136e+03 -3.550145743525819e+01 -2.918975276816622e+03
-1.157297583242906e+03 -3.675678944290539e+01 -2.918975276816622e+03
-1.157260925862551e+03 -3.905285696949305e+01 -2.918975276816622e+03
-1.157071527393909e+03 -4.101359851446009e+01 -2.918975276816622e+03
-1.156972714372138e+03 -4.244941636217402e+01 -2.918975276816622e+03
-1.156953235221123e+03 -4.418090960552175e+01 -2.918975276816622e+03
-1.156691094449214e+03 -4.540905746903160e+01 -2.918975276816622e+03
-1.156745859506361e+03 -4.673841400544736e+01 -2.918975276816622e+03
-1.157191974368368e+03 -4.860695723351691e+01 -2.918975276816622e+03
-1.157108749978032e+03 -5.020659576375876e+01 -2.918975276816622e+03
-1.156896799378071e+03 -5.139680478666505e+01 -2.918975276816622e+03
-1.157151507394295e+03 -5.367572109668308e+01 -2.918975276816622e+03
-1.157503416016198e+03 -5.576772417785323e+01 -2.918975276816622e+03
-1.157695030934028e+03 -5.692887829861008e+01 -2.918975276816622e+03
-1.156832869052135e+03 -5.755577142982695e+01 -2.918975276816622e+03
-1.156036159688598e+03 -5.821743207777193e+01 -2.918975276816622e+03
-1.156464080540268e+03 -5.965035941587905e+01 -2.918975276816622e+03
-1.156860891759964e+03 -6.087901634213485e+01 -2.918975276816622e+03
-1.156984279257230e+03 -6.242889601759424e+01 -2.918975276816622e+03
-1.157074567714680e+03 -6.413596125770479e+01 -2.918975276816622e+03
-1.157207039309791e+03 -6.537530855727188e+01 -2.918975276816622e+03
-1.157154072213254e+03 -6.671314381581290e+01 -2.918975276816622e+03
-1.157148372780948e+03 -6.860436138286383e+01 -2.918975276816622e+03
-1.157225650397886e+03 -7.036966456073182e+01 -2.918975276816622e+03
-1.157074754149538e+03 -7.167981212726333e+01 -2.918975276816622e+03
-1.157198563461024e+03 -7.284498557341942e+01 -2.918975276816622e+03
-1.157428904847008e+03 -7.424662689414700e+01 -2.918975276816622e+03
-1.157446418130471e+03 -7.572765609440670e+01 -2.918975276816622e+03
-1.157552010102466e+03 -7.691879851157627e+01 -2.918975276816622e+03
-1.156748060562811e+03 -7.754852529646188e+01 -2.918975276816622e+03
-1.156035453393365e+03 -7.818762395912853e+01 -2.918975276816622e+03
-1.156458259315419e+03 -7.962343415350422e+01 -2.918975276816622e+03
-1.156852216180950e+03 -8.084646127477731e+01 -2.918975276816622e+03
-1.156973804368209e+03 -8.239702178670325e+01 -2.918975276816622e+03
-1.156938276308757e+03 -8.411086831686457e+01 -2.918975276816622e+03
-1.156962719272737e+03 -8.536984630169920e+01 -2.918975276816622e+03
-1.157007243981242e+03 -8.671486394216630e+01 -2.918975276816622e+03
-1.157017215041293e+03 -8.859382654065379e+01 -2.918975276816622e+03
-1.157157957156414e+03 -9.011434090406101e+01 -2.918975276816622e+03
-1.157435120127641e+03 -9.117717385568585e+01 -2.918975276816622e+03
-1.157514072742509e+03 -9.353773187558977e+01 -2.918975276816622e+03
-1.157426645435208e+03 -9.581483086647809e+01 -2.918975276816622e+03
-1.157392162186544e+03 -9.688039863921499e+01 -2.918975276816622e+03
-1.156492531631722e+03 -9.738010459983259e+01 -2.918975276816622e+03
-1.155992752044054e+03 -9.817333229495452e+01 -2.918975276816622e+03
-1.156489205327979e+03 -9.967510283344694e+01 -2.918975276816622e+03
-1.156756818317593e+03 -1.008498969350113e+02 -2.918975276816622e+03
-1.156897586158010e+03 -1.023527719543862e+02 -2.918975276816622e+03
-1.157018938778364e+03 -1.040670430438192e+02 -2.918975276816622e+03
-1.157149964709768e+03 -1.052903377506268e+02 -2.918975276816622e+03
-1.157162905161647e+03 -1.066315025464817e+02 -2.918975276816622e+03
-1.157195640053700e+03 -1.085351858407789e+02 -2.918975276816622e+03
-1.157147756828487e+03 -1.102674717114293e+02 -2.918975276816622e+03
-1.156761212556686e+03 -1.119861557714978e+02 -2.918975276816622e+03
-1.156580049895396e+03 -1.133543301967422e+02 -2.918975276816622e+03
-1.156896101012836e+03 -1.147864640097610e+02 -2.918975276816622e+03
-1.156898436289127e+03 -1.164009576089259e+02 -2.918975276816622e+03
-1.156820273730972e+03 -1.175827563888339e+02 -2.918975276816622e+03
-1.156817628857842e+03 -1.193964710025899e+02 -2.918975276816622e+03
-1.156798983910028e+03 -1.208255673759457e+02 -2.918975276816622e+03
-1.156888555930735e+03 -1.223233440079909e+02 -2.918975276816622e+03
-1.157029225127729e+03 -1.240440510136531e+02 -2.918975276816622e+03
-1.157206632081914e+03 -1.252874007156838e+02 -2.918975276816622e+03
-1.157153888069276e+03 -1.266199982719279e+02 -2.918975276816622e+03
-1.157179436381964e+03 -1.285041337712248e+02 -2.918975276816622e+03
-1.157241155583151e+03 -1.303255304120755e+02 -2.918975276816622e+03
-1.157058702601359e+03 -1.316255986791903e+02 -2.918975276816622e+03
-1.157225200271115e+03 -1.327329455386731e+02 -2.918975276816622e+03
-1.157477823815699e+03 -1.341484371083181e+02 -2.918975276816622e+03
-1.157500952535353e+03 -1.356027961349425e+02 -2.918975276816622e+03
-1.157672033937799e+03 -1.367794548691464e+02 -2.918975276816622e+03
-1.156840812267926e+03 -1.374515830760745e+02 -2.918975276816622e+03
-1.156056284252526e+03 -1.380981791469997e+02 -2.918975276816622e+03
-1.156474719599472e+03 -1.395211606723014e+02 -2.918975276816622e+03
-1.156868904486396e+03 -1.407514906844999e+02 -2.918975276816622e+03
-1.156992676564608e+03 -1.423024168456350e+02 -2.918975276816622e+03
-1.157080979843552e+03 -1.440108315409419e+02 -2.918975276816622e+03
-1.157212120484724e+03 -1.452462976105298e+02 -2.918975276816622e+03
-1.157166878374669e+03 -1.465826464897107e+02 -2.918975276816622e+03
-1.157187041766065e+03 -1.484697131842808e+02 -2.918975276816622e+03
-1.157266498135277e+03 -1.502873268574241e+02 -2.918975276816622e+03
-1.157090731769840e+03 -1.515875491323892e+02 -2.918975276816622e+03
-1.157235765399252e+03 -1.527101529271426e+02 -2.918975276816622e+03
-1.157480700265931e+03 -1.541279087890381e+02 -2.918975276816622e+03
-1.157509556378176e+03 -1.555601839686555e+02 -2.918975276816622e+03
-1.157716800370039e+03 -1.567340518335688e+02 -2.918975276816622e+03
-1.156874073955449e+03 -1.574499777863500e+02 -2.918975276816622e+03
-1.156143564468727e+03 -1.581115162604214e+02 -2.918975276816622e+03
-1.156497374693395e+03 -1.595465532585286e+02 -2.918975276816622e+03
-1.156757957296349e+03 -1.607558972558085e+02 -2.918975276816622e+03
-1.156909796500111e+03 -1.622599285089195e+02 -2.918975276816622e+03
-1.157062325883842e+03 -1.639840392423880e+02 -2.918975276816622e+03
-1.157240362023934e+03 -1.652279437596071e+02 -2.918975276816622e+03
-1.157175219132854e+03 -1.665572557470964e+02 -2.918975276816622e+03
-1.157193690684213e+03 -1.684367438919968e+02 -2.918975276816622e+03
-1.157280044793374e+03 -1.702638840501846e+02 -2.918975276816622e+03
-1.157109623782822e+03 -1.715630877259581e+02 -2.918975276816622e+03
-1.157253640879080e+03 -1.726800210521561e+02 -2.918975276816622e+03
-1.157493383420995e+03 -1.740998989656655e+02 -2.918975276816622e+03
-1.157517649715234e+03 -1.755218133110598e+02 -2.918975276816622e+03
-1.157757521107336e+03 -1.767031472455447e+02 -2.918975276816622e+03
-1.156888517428953e+03 -1.774702075477267e+02 -2.918975276816622e+03
-1.156194310513670e+03 -1.781926919349559e+02 -2.918975276816622e+03
-1.156515420753785e+03 -1.795999340571269e+02 -2.918975276816622e+03
-1.156681523504830e+03 -1.806996445927272e+02 -2.918975276816622e+03
-1.156882000881849e+03 -1.821792025073545e+02 -2.918975276816622e+03
-1.157101532180789e+03 -1.839484532997020e+02 -2.918975276816622e+03
-1.157282760249879e+03 -1.852009222508323e+02 -2.918975276816622e+03
-1.157161405220711e+03 -1.865266858267908e+02 -2.918975276816622e+03
-1.157165668576223e+03 -1.884119817932555e+02 -2.918975276816622e+03
-1.157278241071107e+03 -1.902064565006450e+02 -2.918975276816622e+03
-1.157124645023875e+03 -1.915051708106864e+02 -2.918975276816622e+03
-1.157237719500714e+03 -1.926572392601051e+02 -2.918975276816622e+03
-1.157468885000792e+03 -1.940707677698160e+02 -2.918975276816622e+03
-1.157498684569134e+03 -1.955009023180891e+02 -2.918975276816622e+03
-1.157717009935328e+03 -1.966908905320755e+02 -2.918975276816622e+03
-1.156850595455926e+03 -1.974342113228460e+02 -2.918975276816622e+03
-1.156182801220162e+03 -1.981536485076506e+02 -2.918975276816622e+03
-1.156514311433348e+03 -1.995742560885786e+02 -2.918975276816622e+03
-1.156688985726909e+03 -2.006689670792037e+02 -2.918975276816622e+03
-1.156906057423771e+03 -2.021485660684530e+02 -2.918975276816622e+03
-1.157150462256305e+03 -2.039162601430581e+02 -2.918975276816622e+03
-1.157523272963350e+03 -2.051472715012139e+02 -2.918975276816622e+03
-1.157441390012713e+03 -2.064864850125561e+02 -2.918975276816622e+03
-1.157284599477768e+03 -2.083964838047344e+02 -2.918975276816622e+03
-1.157434032628945e+03 -2.100737333001457e+02 -2.918975276816622e+03
-1.157780638790288e+03 -2.112096413499746e+02 -2.918975276816622e+03
-1.157989638959072e+03 -2.124571947596850e+02 -2.918975276816622e+03
-1.157945159012828e+03 -2.130744491956862e+02 -2.918975276816622e+03
-1.157810412795315e+03 -2.140486108362851e+02 -2.918975276816622e+03
-1.157657223258037e+03 -2.154855477511007e+02 -2.918975276816622e+03
-1.157847415375506e+03 -2.165566964551280e+02 -2.918975276816622e+03
-1.156928948985376e+03 -2.173242601193347e+02 -2.918975276816622e+03
-1.156199049777259e+03 -2.181282926178682e+02 -2.918975276816622e+03
-1.156565875691723e+03 -2.195214040995157e+02 -2.918975276816622e+03
-1.156725079588644e+03 -2.206221177988553e+02 -2.918975276816622e+03
-1.156897873686074e+03 -2.221104791458422e+02 -2.918975276816622e+03
-1.157099056710186e+03 -2.239073278688100e+02 -2.918975276816622e+03
-1.157464057455258e+03 -2.251778899287951e+02 -2.918975276816622e+03
-1.157364973073835e+03 -2.264840632206642e+02 -2.918975276816622e+03
-1.157174322420507e+03 -2.283694243218363e+02 -2.918975276816622e+03
-1.157137055242405e+03 -2.301343608052707e+02 -2.918975276816622e+03
-1.157251806107825e+03 -2.312341535272551e+02 -2.918975276816622e+03
-1.157376424193339e+03 -2.333495432084514e+02 -2.918975276816622e+03
-1.157492279794529e+03 -2.353570945506438e+02 -2.918975276816622e+03
-1.157827116805527e+03 -2.364175321059103e+02 -2.918975276816622e+03
-1.156832465064739e+03 -2.372060999097298e+02 -2.918975276816622e+03
-1.156098189585017e+03 -2.380639972882375e+02 -2.918975276816622e+03
-1.156462403087924e+03 -2.395067506816192e+02 -2.918975276816622e+03
-1.156623931508060e+03 -2.405840498941673e+02 -2.918975276816622e+03
-1.156749471947115e+03 -2.420053174768444e+02 -2.918975276816622e+03
-1.156668313884421e+03 -2.441484742884170e+02 -2.918975276816622e+03
-1.156982431203364e+03 -2.455769238209668e+02 -2.918975276816622e+03
-1.157165957587717e+03 -2.464657272960794e+02 -2.918975276816622e+03
-1.156899139345609e+03 -2.481368551485913e+02 -2.918975276816622e+03
-1.156937259035515e+03 -2.497757198414449e+02 -2.918975276816622e+03
-1.156937073730411e+03 -2.510077901645694e+02 -2.918975276816622e+03
-1.156620455172143e+03 -2.531207300380410e+02 -2.918975276816622e+03
-1.156220282974916e+03 -2.554454921272759e+02 -2.918975276816622e+03
-1.155875594812190e+03 -2.564660988550025e+02 -2.918975276816622e+03
-1.156164935415112e+03 -2.572311028684794e+02 -2.918975276816622e+03
-1.156699612130159e+03 -2.590889856544836e+02 -2.918975276816622e+03
-1.157013010522689e+03 -2.606752352803915e+02 -2.918975276816622e+03
-1.157173812228122e+03 -2.619642180594269e+02 -2.918975276816622e+03
-1.157191836020764e+03 -2.635257315454338e+02 -2.918975276816622e+03
-1.157267485161842e+03 -2.650488395541703e+02 -2.918975276816622e+03
-1.157398010584315e+03 -2.663581690515982e+02 -2.918975276816622e+03
-1.157550762742649e+03 -2.670802831017496e+02 -2.918975276816622e+03
-1.155840446702154e+03 -2.677212565681282e+02 -2.918975276816622e+03
-1.155092017211091e+03 -2.689949693575204e+02 -2.918975276816622e+03
-1.156028535653367e+03 -2.705825798365576e+02 -2.918975276816622e+03
-1.156337996633714e+03 -2.716012760069161e+02 -2.918975276816622e+03
-1.156418995201193e+03 -2.729807553286259e+02 -2.918975276816622e+03
-1.156542768888452e+03 -2.747565035475196e+02 -2.918975276816622e+03
-1.156913850733564e+03 -2.763792709029294e+02 -2.918975276816622e+03
-1.156753397719594e+03 -2.778650776652430e+02 -2.918975276816622e+03
-1.156708090997863e+03 -2.794039772840841e+02 -2.918975276816622e+03
-1.156832590601621e+03 -2.811498842834469e+02 -2.918975276816622e+03
-1.156325424182597e+03 -2.834318120815871e+02 -2.918975276816622e+03
-1.156372834783306e+03 -2.852746144398581e+02 -2.918975276816622e+03
-1.156664858786752e+03 -2.862400583039592e+02 -2.918975276816622e+03
-1.156305609485497e+03 -2.877273738259152e+02 -2.918975276816622e+03
-1.156317937017673e+03 -2.890471435507556e+02 -2.918975276816622e+03
-1.156578433460840e+03 -2.915787014186204e+02 -2.918975276816622e+03
-1.156599885198267e+03 -2.943652937876313e+02 -2.918975276816622e+03
-1.156053428086041e+03 -2.960956126843000e+02 -2.918975276816622e+03
-1.156101420874634e+03 -2.970457513581504e+02 -2.918975276816622e+03
-1.156804412926136e+03 -2.979791483779247e+02 -2.918975276816622e+03
-1.156775948813220e+03 -2.994782226851003e+02 -2.918975276816622e+03
-1.156688622660886e+03 -3.007973781505896e+02 -2.918975276816622e+03
-1.156773484061718e+03 -3.018586910231822e+02 -2.918975276816622e+03
-1.156677217115102e+03 -3.028349939083263e+02 -2.918975276816622e+03
-1.156621354069022e+03 -3.040354986721636e+02 -2.918975276816622e+03
-1.156709731154900e+03 -3.050502267281900e+02 -2.918975276816622e+03
-1.157557210989456e+03 -3.063355061600088e+02 -2.918975276816622e+03
-1.157381019937137e+03 -3.078854881983052e+02 -2.918975276816622e+03
-1.156622742585386e+03 -3.095994952972416e+02 -2.918975276816622e+03
-1.156330005786442e+03 -3.119220830375178e+02 -2.918975276816622e+03
-1.157527482082741e+03 -3.134213799518510e+02 -2.918975276816622e+03
-1.158532899156612e+03 -3.144858367213371e+02 -2.918975276816622e+03
-1.157863007925911e+03 -3.163710106787853e+02 -2.918975276816622e+03
-1.157553440183503e+03 -3.181129347087125e+02 -2.918975276816622e+03
-1.157705559769220e+03 -3.195930279525624e+02 -2.918975276816622e+03
-1.157953361704585e+03 -3.213053803445340e+02 -2.918975276816622e+03
-1.157845221435597e+03 -3.231052798987084e+02 -2.918975276816622e+03
-1.157679479017410e+03 -3.243043710524249e+02 -2.918975276816622e+03
-1.157557579463438e+03 -3.257804429480821e+02 -2.918975276816622e+03
-1.157651709014386e+03 -3.269670594785509e+02 -2.918975276816622e+03
-1.157543016825948e+03 -3.279840746070669e+02 -2.918975276816622e+03
-1.157469430525536e+03 -3.291489184456888e+02 -2.918975276816622e+03
-1.157235658725052e+03 -3.300882534374925e+02 -2.918975276816622e+03
-1.157129563338259e+03 -3.314114750411585e+02 -2.918975276816622e+03
-1.157053568614625e+03 -3.323510592277204e+02 -2.918975276816622e+03
-1.157443100817971e+03 -3.337815048945203e+02 -2.918975276816622e+03
-1.157368639586926e+03 -3.357928584808956e+02 -2.918975276816622e+03
-1.156637051118010e+03 -3.367496706286653e+02 -2.918975276816622e+03
-1.156565696560873e+03 -3.378401430878972e+02 -2.918975276816622e+03
-1.156577665480254e+03 -3.400162259189055e+02 -2.918975276816622e+03
-1.156544345397049e+03 -3.420299555305996e+02 -2.918975276816622e+03
-1.156612448167986e+03 -3.434746623666549e+02 -2.918975276816622e+03
-1.156873004031056e+03 -3.461372475135630e+02 -2.918975276816622e+03
-1.156684331439383e+03 -3.484333184087270e+02 -2.918975276816622e+03
-1.156127761430862e+03 -3.497616698934181e+02 -2.918975276816622e+03
-1.155959529260168e+03 -3.509800242254895e+02 -2.918975276816622e+03
-1.156295144545940e+03 -3.522661369554759e+02 -2.918975276816622e+03
-1.156367312259646e+03 -3.544696646055153e+02 -2.918975276816622e+03
-1.156165638323423e+03 -3.567004182970442e+02 -2.918975276816622e+03
-1.156419413792406e+03 -3.583727321096263e+02 -2.918975276816622e+03
-1.156851967069969e+03 -3.605463272581422e+02 -2.918975276816622e+03
-1.157355195593186e+03 -3.629504922951954e+02 -2.918975276816622e+03
-1.157405448510794e+03 -3.642744493771917e+02 -2.918975276816622e+03
-1.156695212923572e+03 -3.660172642411903e+02 -2.918975276816622e+03
-1.156686370188898e+03 -3.691737854257244e+02 -2.918975276816622e+03
-1.157032239999919e+03 -3.718481280487988e+02 -2.918975276816622e+03
-1.157012246478080e+03 -3.733752695315257e+02 -2.918975276816622e+03
-1.157010553026425e+03 -3.754724648207787e+02 -2.918975276816622e+03
-1.156994366859031e+03 -3.771898377111161e+02 -2.918975276816622e+03
-1.157083317045375e+03 -3.787576987666552e+02 -2.918975276816622e+03
-1.157040058655411e+03 -3.801423900592555e+02 -2.918975276816622e+03
-1.156837559484005e+03 -3.814509951533781e+02 -2.918975276816622e+03
-1.156802981545191e+03 -3.842990648339846e+02 -2.918975276816622e+03
-1.156815163866625e+03 -3.862321934089542e+02 -2.918975276816622e+03
-1.156910817276509e+03  3.827909797141113e+02 -2.918975276816622e+03
-1.157136820893829e+03  3.849169242069346e+02 -2.918975276816622e+03
-1.156558706271713e+03  3.803632166113940e+02 -2.918975276816622e+03
-1.156724771521442e+03  3.781043095295403e+02 -2.918975276816622e+03
-1.156884610865531e+03  3.771223163722780e+02 -2.918975276816622e+03
-1.157028463593723e+03  3.751274948322742e+02 -2.918975276816622e+03
-1.157091604834192e+03  3.716114298415736e+02 -2.918975276816622e+03
-1.157166445989295e+03  3.686085190987885e+02 -2.918975276816622e+03
-1.156811717806833e+03  3.676980583978691e+02 -2.918975276816622e+03
-1.156891804887889e+03  3.666479819944045e+02 -2.918975276816622e+03
-1.157754828485094e+03  3.643931652668030e+02 -2.918975276816622e+03
-1.157082260995565e+03  3.630733249814720e+02 -2.918975276816622e+03
-1.156360752289617e+03  3.621939537287320e+02 -2.918975276816622e+03
-1.156632620414762e+03  3.609305940625863e+02 -2.918975276816622e+03
-1.157168387053903e+03  3.600144991656086e+02 -2.918975276816622e+03
-1.157642835878522e+03  3.589586353600753e+02 -2.918975276816622e+03
-1.157876863804521e+03  3.572464699725052e+02 -2.918975276816622e+03
-1.158362564317749e+03  3.556424238119216e+02 -2.918975276816622e+03
-1.158330522705901e+03  3.541643673117570e+02 -2.918975276816622e+03
-1.158208026374541e+03  3.526753261832446e+02 -2.918975276816622e+03
-1.158024284289035e+03  3.515961028900368e+02 -2.918975276816622e+03
-1.158105024959645e+03  3.506154835126057e+02 -2.918975276816622e+03
-1.157952429126914e+03  3.495755922001835e+02 -2.918975276816622e+03
-1.157824361025600e+03  3.481914532235983e+02 -2.918975276816622e+03
-1.157270105582273e+03  3.475472065401298e+02 -2.918975276816622e+03
-1.156201272462709e+03  3.469728143746548e+02 -2.918975276816622e+03
-1.155240576435154e+03  3.461538317675412e+02 -2.918975276816622e+03
-1.155181527514363e+03  3.451472066333102e+02 -2.918975276816622e+03
-1.155998254521574e+03  3.436075570651080e+02 -2.918975276816622e+03
-1.156233572361681e+03  3.418148566613115e+02 -2.918975276816622e+03
-1.156401309055895e+03  3.393437821853937e+02 -2.918975276816622e+03
-1.156590058900816e+03  3.369551435719166e+02 -2.918975276816622e+03
-1.156621446926824e+03  3.357767232420626e+02 -2.918975276816622e+03
-1.156576705988595e+03  3.342723704504230e+02 -2.918975276816622e+03
-1.156634211055751e+03  3.313143027758146e+02 -2.918975276816622e+03
-1.156871459462321e+03  3.287081277430788e+02 -2.918975276816622e+03
-1.157157969645027e+03  3.269426339103090e+02 -2.918975276816622e+03
-1.156993656586658e+03  3.252681572027413e+02 -2.918975276816622e+03
-1.156622882267384e+03  3.229648619392298e+02 -2.918975276816622e+03
-1.156669213495824e+03  3.209279630893376e+02 -2.918975276816622e+03
-1.156741021891058e+03  3.189644896946442e+02 -2.918975276816622e+03
-1.156642123327808e+03  3.164756963753943e+02 -2.918975276816622e+03
-1.156650265770103e+03  3.138856012130621e+02 -2.918975276816622e+03
-1.156669941871440e+03  3.116201232100837e+02 -2.918975276816622e+03
-1.156866511998149e+03  3.090477336224913e+02 -2.918975276816622e+03
-1.156828093297786e+03  3.055322364161129e+02 -2.918975276816622e+03
-1.156722397106236e+03  3.023276886201512e+02 -2.918975276816622e+03
-1.155767458326243e+03  3.005527201585206e+02 -2.918975276816622e+03
-1.155944557194345e+03  2.990254957843530e+02 -2.918975276816622e+03
-1.157309680276066e+03  2.975643247167196e+02 -2.918975276816622e+03
-1.157534260342460e+03  2.961759558304790e+02 -2.918975276816622e+03
-1.157544439154009e+03  2.945367233706924e+02 -2.918975276816622e+03
-1.157233008641729e+03  2.928402231107070e+02 -2.918975276816622e+03
-1.156744176900178e+03  2.911382015974646e+02 -2.918975276816622e+03
-1.156321571365979e+03  2.898227678578020e+02 -2.918975276816622e+03
-1.156662205037022e+03  2.889801901859581e+02 -2.918975276816622e+03
-1.157202282571600e+03  2.881551018136474e+02 -2.918975276816622e+03
-1.157293795745980e+03  2.871367290139171e+02 -2.918975276816622e+03
-1.157676760126843e+03  2.859445024963497e+02 -2.918975276816622e+03
-1.157487257626166e+03  2.847045109991686e+02 -2.918975276816622e+03
-1.157310715340314e+03  2.829966615222206e+02 -2.918975276816622e+03
-1.157682698143012e+03  2.798175219771430e+02 -2.918975276816622e+03
-1.157487752075186e+03  2.776054788208296e+02 -2.918975276816622e+03
-1.157507852644233e+03  2.762456137141679e+02 -2.918975276816622e+03
-1.157507034628102e+03  2.745756241725321e+02 -2.918975276816622e+03
-1.157321261004420e+03  2.728199442061785e+02 -2.918975276816622e+03
-1.157405444144674e+03  2.712943483919890e+02 -2.918975276816622e+03
-1.157444657763876e+03  2.702684936818715e+02 -2.918975276816622e+03
-1.157431140300569e+03  2.679553519965996e+02 -2.918975276816622e+03
-1.157480321248223e+03  2.656989875786244e+02 -2.918975276816622e+03
-1.157529714471226e+03  2.645899168486488e+02 -2.918975276816622e+03
-1.156638571143652e+03  2.640406298550212e+02 -2.918975276816622e+03
-1.155983778578187e+03  2.633142492857481e+02 -2.918975276816622e+03
-1.156483800261743e+03  2.618443325067750e+02 -2.918975276816622e+03
-1.156898141946290e+03  2.606025752826171e+02 -2.918975276816622e+03
-1.157026383956970e+03  2.590592956015660e+02 -2.918975276816622e+03
-1.156984062449741e+03  2.574360544819466e+02 -2.918975276816622e+03
-1.157001995085928e+03  2.560364700151975e+02 -2.918975276816622e+03
-1.157117627947588e+03  2.546156551365101e+02 -2.918975276816622e+03
-1.157125642147610e+03  2.526712782732866e+02 -2.918975276816622e+03
-1.157143631436788e+03  2.506443845978251e+02 -2.918975276816622e+03
-1.157166688977939e+03  2.497026291354308e+02 -2.918975276816622e+03
-1.157136541711455e+03  2.482464621202351e+02 -2.918975276816622e+03
-1.157095232749575e+03  2.465058989501884e+02 -2.918975276816622e+03
-1.157223273415062e+03  2.451237478336251e+02 -2.918975276816622e+03
-1.157189831477069e+03  2.436930909406348e+02 -2.918975276816622e+03
-1.156977629711455e+03  2.418904848457209e+02 -2.918975276816622e+03
-1.157131574222226e+03  2.403441720455354e+02 -2.918975276816622e+03
-1.157350842983705e+03  2.392765338894728e+02 -2.918975276816622e+03
-1.157405805837350e+03  2.369421779228021e+02 -2.918975276816622e+03
-1.157432045805527e+03  2.346979694623826e+02 -2.918975276816622e+03
-1.157468333125433e+03  2.336080555857098e+02 -2.918975276816622e+03
-1.156574749291427e+03  2.330986868893996e+02 -2.918975276816622e+03
-1.156017465332266e+03  2.323342633954097e+02 -2.918975276816622e+03
-1.156480351625331e+03  2.308191654141517e+02 -2.918975276816622e+03
-1.156750673985589e+03  2.296272059509261e+02 -2.918975276816622e+03
-1.156880797766673e+03  2.281193042940609e+02 -2.918975276816622e+03
-1.156889181467664e+03  2.263996654046711e+02 -2.918975276816622e+03
-1.156954136432635e+03  2.251418908226889e+02 -2.918975276816622e+03
-1.156987835058225e+03  2.237943015851459e+02 -2.918975276816622e+03
-1.156991975124945e+03  2.219215381696552e+02 -2.918975276816622e+03
-1.157121983346779e+03  2.203861395510580e+02 -2.918975276816622e+03
-1.157359049424048e+03  2.192983611710910e+02 -2.918975276816622e+03
-1.157420255123934e+03  2.169423496534213e+02 -2.918975276816622e+03
-1.157358357768472e+03  2.146668940723478e+02 -2.918975276816622e+03
-1.157371253038008e+03  2.135949537997679e+02 -2.918975276816622e+03
-1.156541615043483e+03  2.131701331689881e+02 -2.918975276816622e+03
-1.155929790025515e+03  2.124234415475196e+02 -2.918975276816622e+03
-1.156438677086752e+03  2.109115607726683e+02 -2.918975276816622e+03
-1.156831348551531e+03  2.096940407408983e+02 -2.918975276816622e+03
-1.156944061311762e+03  2.081381799258328e+02 -2.918975276816622e+03
-1.156912977988043e+03  2.064327110869051e+02 -2.918975276816622e+03
-1.156920196855024e+03  2.051766121998236e+02 -2.918975276816622e+03
-1.156963139362982e+03  2.038251864256410e+02 -2.918975276816622e+03
-1.156985275163413e+03  2.019523512061913e+02 -2.918975276816622e+03
-1.157113975965942e+03  2.004273944628030e+02 -2.918975276816622e+03
-1.157371290038946e+03  1.993441199457297e+02 -2.918975276816622e+03
-1.157447356808990e+03  1.969845642905252e+02 -2.918975276816622e+03
-1.157378749165872e+03  1.947116832636939e+02 -2.918975276816622e+03
-1.157376100108128e+03  1.936353570859220e+02 -2.918975276816622e+03
-1.156527798036003e+03  1.931967051994312e+02 -2.918975276816622e+03
-1.155921386681337e+03  1.924450011664611e+02 -2.918975276816622e+03
-1.156438864557315e+03  1.909405945739500e+02 -2.918975276816622e+03
-1.156834163404610e+03  1.897263563908807e+02 -2.918975276816622e+03
-1.156946090310053e+03  1.881709680119911e+02 -2.918975276816622e+03
-1.156939757857749e+03  1.864504989923136e+02 -2.918975276816622e+03
-1.157048639582827e+03  1.851951733329659e+02 -2.918975276816622e+03
-1.157084903959236e+03  1.838636176954469e+02 -2.918975276816622e+03
-1.157004545164683e+03  1.820054746740970e+02 -2.918975276816622e+03
-1.157137994586958e+03  1.805351178421316e+02 -2.918975276816622e+03
-1.157401471271359e+03  1.794922943105299e+02 -2.918975276816622e+03
-1.157438629255982e+03  1.770532150855411e+02 -2.918975276816622e+03
-1.157400781401474e+03  1.747271400583957e+02 -2.918975276816622e+03
-1.157442518053325e+03  1.736752239769079e+02 -2.918975276816622e+03
-1.156574046835706e+03  1.732368147130096e+02 -2.918975276816622e+03
-1.155941674352189e+03  1.724895646323149e+02 -2.918975276816622e+03
-1.156448572500514e+03  1.709808966397955e+02 -2.918975276816622e+03
-1.156841553560479e+03  1.697571392255704e+02 -2.918975276816622e+03
-1.156954539725126e+03  1.682017644290532e+02 -2.918975276816622e+03
-1.156921307026564e+03  1.664946797474508e+02 -2.918975276816622e+03
-1.156941275974047e+03  1.652375974566644e+02 -2.918975276816622e+03
-1.156990185375477e+03  1.638882672531183e+02 -2.918975276816622e+03
-1.157001105355694e+03  1.620194210526308e+02 -2.918975276816622e+03
-1.157122869612459e+03  1.604845362196394e+02 -2.918975276816622e+03
-1.157382177160899e+03  1.593927536856681e+02 -2.918975276816622e+03
-1.157438868323251e+03  1.570281495726868e+02 -2.918975276816622e+03
-1.157318629123567e+03  1.547369889341518e+02 -2.918975276816622e+03
-1.157313588475760e+03  1.536699206263779e+02 -2.918975276816622e+03
-1.156512255763009e+03  1.532679330024772e+02 -2.918975276816622e+03
-1.155920563852194e+03  1.525179531178794e+02 -2.918975276816622e+03
-1.156431976730209e+03  1.510009696345251e+02 -2.918975276816622e+03
-1.156825383601835e+03  1.497894033950684e+02 -2.918975276816622e+03
-1.156937721915191e+03  1.482326478002106e+02 -2.918975276816622e+03
-1.156912630306080e+03  1.465259660425807e+02 -2.918975276816622e+03
-1.156948954051639e+03  1.452711502940759e+02 -2.918975276816622e+03
-1.156995015004421e+03  1.439215418185036e+02 -2.918975276816622e+03
-1.157005062702021e+03  1.420470813681487e+02 -2.918975276816622e+03
-1.157142647489839e+03  1.405055083361823e+02 -2.918975276816622e+03
-1.157356355284394e+03  1.394198769040445e+02 -2.918975276816622e+03
-1.157416899831496e+03  1.370756046866718e+02 -2.918975276816622e+03
-1.157390421032655e+03  1.348142147618734e+02 -2.918975276816622e+03
-1.157408687448208e+03  1.337413621531342e+02 -2.918975276816622e+03
-1.156557772721140e+03  1.332945980369009e+02 -2.918975276816622e+03
-1.155934899749533e+03  1.325481995371775e+02 -2.918975276816622e+03
-1.156443940584109e+03  1.310427515220288e+02 -2.918975276816622e+03
-1.156834293674353e+03  1.298204195230873e+02 -2.918975276816622e+03
-1.156945611320920e+03  1.282659023223358e+02 -2.918975276816622e+03
-1.156916550130876e+03  1.265565096050742e+02 -2.918975276816622e+03
-1.156955057840169e+03  1.252991606484523e+02 -2.918975276816622e+03
-1.157008881526664e+03  1.239529588956941e+02 -2.918975276816622e+03
-1.157025455738890e+03  1.220782623362835e+02 -2.918975276816622e+03
-1.157166513325629e+03  1.205325502739595e+02 -2.918975276816622e+03
-1.157391779973554e+03  1.194492418540413e+02 -2.918975276816622e+03
-1.157443257167682e+03  1.171031991661644e+02 -2.918975276816622e+03
-1.157372838634758e+03  1.148273100722934e+02 -2.918975276816622e+03
-1.157368575670827e+03  1.137532226394064e+02 -2.918975276816622e+03
-1.156534676716725e+03  1.133183450360052e+02 -2.918975276816622e+03
-1.155928022493018e+03  1.125746186428355e+02 -2.918975276816622e+03
-1.156436438538027e+03  1.110722639372808e+02 -2.918975276816622e+03
-1.156866487909759e+03  1.098565612676044e+02 -2.918975276816622e+03
-1.157022696406280e+03  1.083077752028264e+02 -2.918975276816622e+03
-1.156965636144701e+03  1.066347577247017e+02 -2.918975276816622e+03
-1.156835415024248e+03  1.053846080887180e+02 -2.918975276816622e+03
-1.156972065662153e+03  1.039824125620620e+02 -2.918975276816622e+03
-1.157197557355620e+03  1.021651185753084e+02 -2.918975276816622e+03
-1.157175066106296e+03  1.007106560215819e+02 -2.918975276816622e+03
-1.157152282547265e+03  9.938777550883574e+01 -2.918975276816622e+03
-1.157212572065735e+03  9.777473647722303e+01 -2.918975276816622e+03
-1.157158556569008e+03  9.615877928132976e+01 -2.918975276816622e+03
-1.156919118905081e+03  9.328861968320048e+01 -2.918975276816622e+03
-1.156836015024852e+03  9.082870045114451e+01 -2.918975276816622e+03
-1.156792688076302e+03  8.930062207547705e+01 -2.918975276816622e+03
-1.156845168316480e+03  8.754703901843479e+01 -2.918975276816622e+03
-1.156801699563738e+03  8.650744615728982e+01 -2.918975276816622e+03
-1.156924216071401e+03  8.558588523035154e+01 -2.918975276816622e+03
-1.157287319447662e+03  8.369783363404576e+01 -2.918975276816622e+03
-1.157434583079433e+03  8.070326297309197e+01 -2.918975276816622e+03
-1.157354293309638e+03  7.757339338035490e+01 -2.918975276816622e+03
-1.156995198153282e+03  7.600440007083820e+01 -2.918975276816622e+03
-1.156937577734941e+03  7.467176683118514e+01 -2.918975276816622e+03
-1.157166404577023e+03  7.276251038926262e+01 -2.918975276816622e+03
-1.157160831999573e+03  7.127870686538027e+01 -2.918975276816622e+03
-1.156577094474344e+03  6.913195197191116e+01 -2.918975276816622e+03
-1.156761555605613e+03  6.771306381062556e+01 -2.918975276816622e+03
-1.157298630794514e+03  6.672923452831282e+01 -2.918975276816622e+03
-1.157334888837053e+03  6.404246749618846e+01 -2.918975276816622e+03
-1.157478753953783e+03  6.178084410112801e+01 -2.918975276816622e+03
-1.157449746033182e+03  6.059467210152834e+01 -2.918975276816622e+03
-1.157443476762546e+03  5.872934274210615e+01 -2.918975276816622e+03
-1.157359850257598e+03  5.712489878943261e+01 -2.918975276816622e+03
-1.157745145722253e+03  5.659048669997614e+01 -2.918975276816622e+03
-1.158087133002952e+03  5.552160391948639e+01 -2.918975276816622e+03
-1.157750088020203e+03  5.357752649050827e+01 -2.918975276816622e+03
-1.157716752514708e+03  5.194915451444332e+01 -2.918975276816622e+03
-1.157620142083363e+03  5.090319454279608e+01 -2.918975276816622e+03
-1.156834019939081e+03  5.040181443205439e+01 -2.918975276816622e+03
-1.156510593293255e+03  4.986869065869857e+01 -2.918975276816622e+03
-1.156695118591266e+03  4.865499774069266e+01 -2.918975276816622e+03
-1.156943652070235e+03  4.745226931715800e+01 -2.918975276816622e+03
-1.156949116725427e+03  4.674096721752635e+01 -2.918975276816622e+03
-1.156780653380770e+03  4.571369829508451e+01 -2.918975276816622e+03
-1.156805019398615e+03  4.456004393489632e+01 -2.918975276816622e+03
-1.156793708905612e+03  4.325602824025214e+01 -2.918975276816622e+03
-1.156603611426082e+03  4.200055269268181e+01 -2.918975276816622e+03
-1.156478891574572e+03  4.035140477357990e+01 -2.918975276816622e+03
-1.156604775911230e+03  3.779865758912171e+01 -2.918975276816622e+03
-1.156558483396982e+03  3.584965658814926e+01 -2.918975276816622e+03
-1.156348211204198e+03  3.439551089472321e+01 -2.918975276816622e+03
-1.155764714889517e+03  3.330763887148915e+01 -2.918975276816622e+03
-1.156041826289292e+03  3.250786613294878e+01 -2.918975276816622e+03
-1.156576768278779e+03  3.085588393275523e+01 -2.918975276816622e+03
-1.156480587545385e+03  2.923168884722143e+01 -2.918975276816622e+03
-1.156347092296701e+03  2.714483285155857e+01 -2.918975276816622e+03
-1.155966927768683e+03  2.535753068339370e+01 -2.918975276816622e+03
-1.156390971250040e+03  2.441201059180833e+01 -2.918975276816622e+03
-1.157165513847366e+03  2.277492566390579e+01 -2.918975276816622e+03
-1.157757677547746e+03  2.189468011030870e+01 -2.918975276816622e+03
-1.157913791396383e+03  2.107604008773686e+01 -2.918975276816622e+03
-1.157556999392422e+03  2.022682239383787e+01 -2.918975276816622e+03
-1.157510192733361e+03  1.927981985092942e+01 -2.918975276816622e+03
-1.157683494591252e+03  1.776413624478772e+01 -2.918975276816622e+03
-1.157685727769331e+03  1.632074479031341e+01 -2.918975276816622e+03
-1.157559170308723e+03  1.514581969226485e+01 -2.918975276816622e+03
-1.157812684687789e+03  1.406557616201569e+01 -2.918975276816622e+03
-1.157758918625105e+03  1.266543391453920e+01 -2.918975276816622e+03
-1.157359832915997e+03  9.775246058428193e+00 -2.918975276816622e+03
-1.157357523987074e+03  7.183907596715106e+00 -2.918975276816622e+03
-1.157353605353051e+03  5.925932913514044e+00 -2.918975276816622e+03
-1.157211546299408e+03  4.309427926540137e+00 -2.918975276816622e+03
-1.156369833870650e+03  3.660345724686490e+00 -2.918975276816622e+03
 1.154496255331033e+03 -1.401812372019202e+00  2.918975276816622e+03
1.154530159135679e+03 3.938870944368478e-01 2.918975276816622e+03
 1.154334677646012e+03 -3.235161058666892e+00  2.918975276816622e+03
 1.154276178207873e+03 -4.718487618256040e+00  2.918975276816622e+03
 1.153897332967298e+03 -6.050273315488062e+00  2.918975276816622e+03
 1.154587614333604e+03 -7.199143896532096e+00  2.918975276816622e+03
 1.155105140769354e+03 -8.400203343047393e+00  2.918975276816622e+03
 1.154370290428037e+03 -1.034638248074879e+01  2.918975276816622e+03
 1.154030661685942e+03 -1.158699376426255e+01  2.918975276816622e+03
 1.153729794807518e+03 -1.252803678167695e+01  2.918975276816622e+03
 1.153275649953052e+03 -1.390395670991474e+01  2.918975276816622e+03
 1.154024999984091e+03 -1.478485527551714e+01  2.918975276816622e+03
 1.154915066325557e+03 -1.578688505886367e+01  2.918975276816622e+03
 1.154642408265118e+03 -1.859936104720780e+01  2.918975276816622e+03
 1.154993866476108e+03 -2.180092878878511e+01  2.918975276816622e+03
 1.154644573570252e+03 -2.347147927760414e+01  2.918975276816622e+03
 1.154622161502803e+03 -2.468466771754393e+01  2.918975276816622e+03
 1.154718021452915e+03 -2.581986197640829e+01  2.918975276816622e+03
 1.154306500064629e+03 -2.669324564355646e+01  2.918975276816622e+03
 1.154304087613941e+03 -2.771087425288555e+01  2.918975276816622e+03
 1.154280245680699e+03 -2.952643586509185e+01  2.918975276816622e+03
 1.153631514798735e+03 -3.280197251083836e+01  2.918975276816622e+03
 1.152298051274878e+03 -3.577560600024783e+01  2.918975276816622e+03
 1.151276203986586e+03 -3.776129223446377e+01  2.918975276816622e+03
 1.151306146724334e+03 -3.878559719840194e+01  2.918975276816622e+03
 1.152246047880859e+03 -3.988334016149529e+01  2.918975276816622e+03
 1.152719743097204e+03 -4.151904609091594e+01  2.918975276816622e+03
 1.152459652176887e+03 -4.222836891196538e+01  2.918975276816622e+03
 1.152559220387114e+03 -4.300317625881875e+01  2.918975276816622e+03
 1.152678932855618e+03 -4.443484535973958e+01  2.918975276816622e+03
 1.152941990501008e+03 -4.562059136720460e+01  2.918975276816622e+03
 1.153257382363367e+03 -4.760066829447753e+01  2.918975276816622e+03
 1.153009321899761e+03 -4.981568481993146e+01  2.918975276816622e+03
 1.152460898039182e+03 -5.142679582641538e+01  2.918975276816622e+03
 1.152263835836246e+03 -5.343993153010409e+01  2.918975276816622e+03
 1.152579967812519e+03 -5.540282732767250e+01  2.918975276816622e+03
 1.153175725369135e+03 -5.761750990575469e+01  2.918975276816622e+03
 1.153206516171629e+03 -5.991480815975581e+01  2.918975276816622e+03
 1.152571611523684e+03 -6.150838569564824e+01  2.918975276816622e+03
 1.152138582912710e+03 -6.235038253347598e+01  2.918975276816622e+03
 1.152209164568179e+03 -6.311176227333989e+01  2.918975276816622e+03
 1.152534615407812e+03 -6.440145782901416e+01  2.918975276816622e+03
 1.152932421826535e+03 -6.563705493543881e+01  2.918975276816622e+03
 1.153324931115706e+03 -6.761837843658603e+01  2.918975276816622e+03
 1.153180446473582e+03 -6.991128285076475e+01  2.918975276816622e+03
 1.152896726651958e+03 -7.146242746167751e+01  2.918975276816622e+03
 1.152752292939216e+03 -7.321407021773118e+01  2.918975276816622e+03
 1.152505691122012e+03 -7.566591005866930e+01  2.918975276816622e+03
 1.152669900984170e+03 -7.686447610530384e+01  2.918975276816622e+03
 1.153031841633751e+03 -7.754344659283579e+01  2.918975276816622e+03
 1.152961880573284e+03 -7.953208334755800e+01  2.918975276816622e+03
 1.152781251870534e+03 -8.143282439656153e+01  2.918975276816622e+03
 1.152277501449125e+03 -8.229149069230897e+01  2.918975276816622e+03
 1.152402904043788e+03 -8.305114224148673e+01  2.918975276816622e+03
 1.152663108165952e+03 -8.436685988803326e+01  2.918975276816622e+03
 1.152984306056437e+03 -8.558583681241036e+01  2.918975276816622e+03
 1.153349573853527e+03 -8.756761079081899e+01  2.918975276816622e+03
 1.153253541178539e+03 -8.981411788026557e+01  2.918975276816622e+03
 1.153286242067695e+03 -9.147468961931251e+01  2.918975276816622e+03
 1.153204080696574e+03 -9.344695938932749e+01  2.918975276816622e+03
 1.153187394053289e+03 -9.570797181222760e+01  2.918975276816622e+03
 1.153627902240788e+03 -9.744274956757442e+01  2.918975276816622e+03
 1.153664928223005e+03 -9.934457087169390e+01  2.918975276816622e+03
 1.153018725320657e+03 -1.014342731612888e+02  2.918975276816622e+03
 1.152166502560770e+03 -1.023859522605891e+02  2.918975276816622e+03
 1.152006259090949e+03 -1.031172053548051e+02  2.918975276816622e+03
 1.152401359604610e+03 -1.043498980282370e+02  2.918975276816622e+03
 1.152915680453918e+03 -1.055677730230242e+02  2.918975276816622e+03
 1.153330745368455e+03 -1.075493286023910e+02  2.918975276816622e+03
 1.153189958389777e+03 -1.097997008445666e+02  2.918975276816622e+03
 1.153031814831778e+03 -1.114213308351492e+02  2.918975276816622e+03
 1.153091749265285e+03 -1.132285359860129e+02  2.918975276816622e+03
 1.153318389793591e+03 -1.156574404517405e+02  2.918975276816622e+03
 1.153374156494659e+03 -1.188822521377490e+02  2.918975276816622e+03
 1.153217620113515e+03 -1.221545225809432e+02  2.918975276816622e+03
 1.152849395161046e+03 -1.242862562471653e+02  2.918975276816622e+03
 1.153028987545043e+03 -1.255351027936534e+02  2.918975276816622e+03
 1.153355284433436e+03 -1.275179603378058e+02  2.918975276816622e+03
 1.153211731237438e+03 -1.297110087672730e+02  2.918975276816622e+03
 1.152844888784520e+03 -1.312853486008775e+02  2.918975276816622e+03
 1.152743251581752e+03 -1.331678615965270e+02  2.918975276816622e+03
 1.152772955747140e+03 -1.353177897418101e+02  2.918975276816622e+03
 1.153502175238682e+03 -1.372521609951116e+02  2.918975276816622e+03
 1.153631914521661e+03 -1.382605690044517e+02  2.918975276816622e+03
 1.152903987988170e+03 -1.394343288023248e+02  2.918975276816622e+03
 1.152698072391264e+03 -1.412727643097057e+02  2.918975276816622e+03
 1.152155714461206e+03 -1.421986382703607e+02  2.918975276816622e+03
 1.152320782626047e+03 -1.429889193469950e+02  2.918975276816622e+03
 1.152628139768879e+03 -1.442966993772372e+02  2.918975276816622e+03
 1.152951501874075e+03 -1.455116905730246e+02  2.918975276816622e+03
 1.153336480979454e+03 -1.474855947476464e+02  2.918975276816622e+03
 1.153189097920412e+03 -1.496845570712692e+02  2.918975276816622e+03
 1.152889242854926e+03 -1.512492103812101e+02  2.918975276816622e+03
 1.152754350718012e+03 -1.530968059309605e+02  2.918975276816622e+03
 1.152531758110159e+03 -1.555455166373387e+02  2.918975276816622e+03
 1.152711490551060e+03 -1.567400814073705e+02  2.918975276816622e+03
 1.153112899316635e+03 -1.573639137950108e+02  2.918975276816622e+03
 1.153054327365802e+03 -1.593561788294054e+02  2.918975276816622e+03
 1.152878814579878e+03 -1.613121192578863e+02  2.918975276816622e+03
 1.152390847661092e+03 -1.621547395879003e+02  2.918975276816622e+03
 1.152495903619786e+03 -1.628967004242660e+02  2.918975276816622e+03
 1.152642965062880e+03 -1.642249435996227e+02  2.918975276816622e+03
 1.152944567631147e+03 -1.654730614834879e+02  2.918975276816622e+03
 1.153366017395885e+03 -1.674530123620336e+02  2.918975276816622e+03
 1.153235243189566e+03 -1.696247231674341e+02  2.918975276816622e+03
 1.152929201515679e+03 -1.711973130484523e+02  2.918975276816622e+03
 1.152761622881201e+03 -1.730770646814269e+02  2.918975276816622e+03
 1.152534239274339e+03 -1.755249252410912e+02  2.918975276816622e+03
 1.152679990582448e+03 -1.766982052316190e+02  2.918975276816622e+03
 1.153172166275879e+03 -1.773234600759795e+02  2.918975276816622e+03
 1.153219480483002e+03 -1.793331629112453e+02  2.918975276816622e+03
 1.153183661173294e+03 -1.820268339136661e+02  2.918975276816622e+03
 1.152878656669151e+03 -1.841963044330537e+02  2.918975276816622e+03
 1.153046704601020e+03 -1.854479287046249e+02  2.918975276816622e+03
 1.153355103565127e+03 -1.874331050018809e+02  2.918975276816622e+03
 1.153203386905428e+03 -1.897186824414912e+02  2.918975276816622e+03
 1.152926459847784e+03 -1.912769925369149e+02  2.918975276816622e+03
 1.152800656183521e+03 -1.930324014724860e+02  2.918975276816622e+03
 1.152574048054830e+03 -1.954914175046571e+02  2.918975276816622e+03
 1.152772593829696e+03 -1.966987772341311e+02  2.918975276816622e+03
 1.153162867366461e+03 -1.973181772765500e+02  2.918975276816622e+03
 1.153068787801967e+03 -1.992915186711714e+02  2.918975276816622e+03
 1.152869436328574e+03 -2.012395185582070e+02  2.918975276816622e+03
 1.152369315194805e+03 -2.020895243299011e+02  2.918975276816622e+03
 1.152480585683601e+03 -2.028383536030456e+02  2.918975276816622e+03
 1.152634383392285e+03 -2.041661298105649e+02  2.918975276816622e+03
 1.152938610022823e+03 -2.054107206867041e+02  2.918975276816622e+03
 1.153373830586542e+03 -2.073889468530204e+02  2.918975276816622e+03
 1.153252160904906e+03 -2.095612001751612e+02  2.918975276816622e+03
 1.152959483354966e+03 -2.111249071953811e+02  2.918975276816622e+03
 1.152772283806815e+03 -2.130014694040671e+02  2.918975276816622e+03
 1.152523461333096e+03 -2.154530268877056e+02  2.918975276816622e+03
 1.152664445038280e+03 -2.166403914628430e+02  2.918975276816622e+03
 1.153142435147143e+03 -2.172799234463227e+02  2.918975276816622e+03
 1.153194849458863e+03 -2.192813240195746e+02  2.918975276816622e+03
 1.153164929315736e+03 -2.219713047339321e+02  2.918975276816622e+03
 1.152905572171151e+03 -2.241770686480472e+02  2.918975276816622e+03
 1.153066631321299e+03 -2.253888497917275e+02  2.918975276816622e+03
 1.153288535242398e+03 -2.273230988593263e+02  2.918975276816622e+03
 1.152994938997704e+03 -2.296070135561692e+02  2.918975276816622e+03
 1.152964561019077e+03 -2.312853781956838e+02  2.918975276816622e+03
 1.153078183639122e+03 -2.332174276158117e+02  2.918975276816622e+03
 1.153106033117382e+03 -2.359614589579998e+02  2.918975276816622e+03
 1.153342575890564e+03 -2.380248486868527e+02  2.918975276816622e+03
 1.153190056019889e+03 -2.394063525136907e+02  2.918975276816622e+03
 1.152623927322239e+03 -2.411902290585051e+02  2.918975276816622e+03
 1.152854776986017e+03 -2.420873727650982e+02  2.918975276816622e+03
 1.153061603593708e+03 -2.429458608141462e+02  2.918975276816622e+03
 1.152686642784528e+03 -2.439988857655557e+02  2.918975276816622e+03
 1.151717945079357e+03 -2.450489751400500e+02  2.918975276816622e+03
 1.151200429364734e+03 -2.462605064118954e+02  2.918975276816622e+03
 1.151833334281254e+03 -2.473443915796959e+02  2.918975276816622e+03
 1.152733685348017e+03 -2.483543201289469e+02  2.918975276816622e+03
 1.153491677964455e+03 -2.491045230875993e+02  2.918975276816622e+03
 1.153005786556614e+03 -2.511467240263473e+02  2.918975276816622e+03
 1.152514950811858e+03 -2.529147040378375e+02  2.918975276816622e+03
 1.152386096719349e+03 -2.538686072923003e+02  2.918975276816622e+03
 1.152542125533291e+03 -2.551018495865837e+02  2.918975276816622e+03
 1.152185203495200e+03 -2.564215204294604e+02  2.918975276816622e+03
 1.152276756633776e+03 -2.576652948037097e+02  2.918975276816622e+03
 1.152752623329454e+03 -2.584359800366905e+02  2.918975276816622e+03
 1.152742776528059e+03 -2.591911152847018e+02  2.918975276816622e+03
 1.153205182224563e+03 -2.602561441927257e+02  2.918975276816622e+03
 1.152900728631897e+03 -2.621035068591449e+02  2.918975276816622e+03
 1.152031937995104e+03 -2.632427543640093e+02  2.918975276816622e+03
 1.151818664521526e+03 -2.640980020365896e+02  2.918975276816622e+03
 1.151304742994744e+03 -2.654173436204370e+02  2.918975276816622e+03
 1.150899132960859e+03 -2.662943853485124e+02  2.918975276816622e+03
 1.152063284563513e+03 -2.676466855845158e+02  2.918975276816622e+03
 1.152866612485265e+03 -2.692492020393165e+02  2.918975276816622e+03
 1.153382175116422e+03 -2.699314842958675e+02  2.918975276816622e+03
 1.153686033990767e+03 -2.706147652267368e+02  2.918975276816622e+03
 1.153727483527468e+03 -2.718561522252531e+02  2.918975276816622e+03
 1.153352155948162e+03 -2.728095832997213e+02  2.918975276816622e+03
 1.153282429633491e+03 -2.738878885166207e+02  2.918975276816622e+03
 1.153955973184261e+03 -2.759828838545083e+02  2.918975276816622e+03
 1.154449601132414e+03 -2.782824929649431e+02  2.918975276816622e+03
 1.154456038220515e+03 -2.797850544699174e+02  2.918975276816622e+03
 1.154304084780601e+03 -2.819100168812085e+02  2.918975276816622e+03
 1.154573464726526e+03 -2.848020393088102e+02  2.918975276816622e+03
 1.154561439895103e+03 -2.874105794661839e+02  2.918975276816622e+03
 1.154382958903026e+03 -2.899784891340354e+02  2.918975276816622e+03
 1.154204650602796e+03 -2.921731044409655e+02  2.918975276816622e+03
 1.154159522372733e+03 -2.931595969224940e+02  2.918975276816622e+03
 1.154215358390301e+03 -2.942508817256540e+02  2.918975276816622e+03
 1.154510181341034e+03 -2.960032561751660e+02  2.918975276816622e+03
 1.154976121804294e+03 -2.970663852839886e+02  2.918975276816622e+03
 1.155490876147314e+03 -2.977282952829802e+02  2.918975276816622e+03
 1.155842664309456e+03 -2.985490922862151e+02  2.918975276816622e+03
 1.156492223924849e+03 -2.992272331228795e+02  2.918975276816622e+03
 1.156190874480627e+03 -3.004339165234536e+02  2.918975276816622e+03
 1.155138678089362e+03 -3.024500602504224e+02  2.918975276816622e+03
 1.154594072632837e+03 -3.035882588099458e+02  2.918975276816622e+03
 1.154453682737613e+03 -3.055741050291830e+02  2.918975276816622e+03
 1.154537273491495e+03 -3.085138779778169e+02  2.918975276816622e+03
 1.154383744612580e+03 -3.097822794825547e+02  2.918975276816622e+03
 1.154239981537410e+03 -3.106318741989385e+02  2.918975276816622e+03
 1.154312844280952e+03 -3.117054494182234e+02  2.918975276816622e+03
 1.154425481621123e+03 -3.128545025797565e+02  2.918975276816622e+03
 1.154333473805680e+03 -3.142515039827781e+02  2.918975276816622e+03
 1.155453657132435e+03 -3.149892492893026e+02  2.918975276816622e+03
 1.155462432472358e+03 -3.160788546692282e+02  2.918975276816622e+03
 1.154294548542973e+03 -3.174406778128615e+02  2.918975276816622e+03
 1.154108505104505e+03 -3.196323498772164e+02  2.918975276816622e+03
 1.153979389426916e+03 -3.226091684091699e+02  2.918975276816622e+03
 1.153864810093839e+03 -3.248979641546753e+02  2.918975276816622e+03
 1.153859769360481e+03 -3.273094646948438e+02  2.918975276816622e+03
 1.153800559677813e+03 -3.299259680886847e+02  2.918975276816622e+03
 1.153781697284787e+03 -3.317857529703911e+02  2.918975276816622e+03
 1.153712808922895e+03 -3.335640615989541e+02  2.918975276816622e+03
 1.153485809939071e+03 -3.366925359716831e+02  2.918975276816622e+03
 1.153695430807674e+03 -3.390473573827609e+02  2.918975276816622e+03
 1.154248212877553e+03 -3.403204853919099e+02  2.918975276816622e+03
 1.154068848206610e+03 -3.411962433989535e+02  2.918975276816622e+03
 1.153592275102801e+03 -3.421516303868978e+02  2.918975276816622e+03
 1.153249424295549e+03 -3.443626978934305e+02  2.918975276816622e+03
 1.153564153674638e+03 -3.453644418638751e+02  2.918975276816622e+03
 1.153942168336595e+03 -3.467196260110160e+02  2.918975276816622e+03
 1.153868403295219e+03 -3.496001991859265e+02  2.918975276816622e+03
 1.153829154498436e+03 -3.513661758296678e+02  2.918975276816622e+03
 1.154197569234917e+03 -3.529243255595806e+02  2.918975276816622e+03
 1.154708704975884e+03 -3.543079198437968e+02  2.918975276816622e+03
 1.154789704609410e+03 -3.559033011599411e+02  2.918975276816622e+03
 1.154727600345285e+03 -3.585885197096700e+02  2.918975276816622e+03
 1.154653628944738e+03 -3.615050508211028e+02  2.918975276816622e+03
 1.155071556756832e+03 -3.634634754279941e+02  2.918975276816622e+03
 1.154545409849136e+03 -3.649261484160878e+02  2.918975276816622e+03
 1.154210507375448e+03 -3.662071762373779e+02  2.918975276816622e+03
 1.154729544147367e+03 -3.673582703726771e+02  2.918975276816622e+03
 1.155190292908614e+03 -3.683903873915565e+02  2.918975276816622e+03
 1.154531447823627e+03 -3.696647701992280e+02  2.918975276816622e+03
 1.153586587399291e+03 -3.710100573274950e+02  2.918975276816622e+03
 1.153777425256919e+03 -3.728406877505624e+02  2.918975276816622e+03
 1.153960350065892e+03 -3.752349034497886e+02  2.918975276816622e+03
 1.154128412699702e+03 -3.774646194832013e+02  2.918975276816622e+03
 1.154254424555893e+03 -3.801591150089896e+02  2.918975276816622e+03
 1.154388759438038e+03 -3.824028567551103e+02  2.918975276816622e+03
 1.154350539057122e+03 -3.835169362071242e+02  2.918975276816622e+03
 1.154004327947027e+03 -3.850602079141880e+02  2.918975276816622e+03
1.154168400491069e+03 3.850439618606787e+02 2.918975276816622e+03
1.153706971922512e+03 3.860459088248500e+02 2.918975276816622e+03
1.153441954272754e+03 3.829041946455515e+02 2.918975276816622e+03
1.152270604178157e+03 3.811998879045780e+02 2.918975276816622e+03
1.152696047702626e+03 3.798114812142456e+02 2.918975276816622e+03
1.153392496868250e+03 3.774876701583856e+02 2.918975276816622e+03
1.153745249685678e+03 3.758997474522453e+02 2.918975276816622e+03
1.153670618907478e+03 3.751516712365145e+02 2.918975276816622e+03
1.153743684466549e+03 3.741912412676169e+02 2.918975276816622e+03
1.153653228885079e+03 3.729572224053055e+02 2.918975276816622e+03
1.153489692307543e+03 3.716978834494645e+02 2.918975276816622e+03
1.153284307400552e+03 3.695664100690471e+02 2.918975276816622e+03
1.153544085252614e+03 3.682958340953375e+02 2.918975276816622e+03
1.154203657779004e+03 3.683514566856308e+02 2.918975276816622e+03
1.154821247189980e+03 3.677717973012818e+02 2.918975276816622e+03
1.155242770920448e+03 3.671221893831473e+02 2.918975276816622e+03
1.155039149079048e+03 3.660497562945952e+02 2.918975276816622e+03
1.154554306458561e+03 3.639654105665838e+02 2.918975276816622e+03
1.154300346313702e+03 3.612948680469843e+02 2.918975276816622e+03
1.154296827270050e+03 3.590510658128399e+02 2.918975276816622e+03
1.154359811957030e+03 3.576260327779568e+02 2.918975276816622e+03
1.154363544974685e+03 3.569949897108564e+02 2.918975276816622e+03
1.154472649443507e+03 3.561293777699046e+02 2.918975276816622e+03
1.154729511247635e+03 3.544329632605122e+02 2.918975276816622e+03
1.155056982314827e+03 3.530822640265177e+02 2.918975276816622e+03
1.155614699784556e+03 3.517271722623805e+02 2.918975276816622e+03
1.156230940691337e+03 3.505018231108665e+02 2.918975276816622e+03
1.155870435067377e+03 3.493538965317198e+02 2.918975276816622e+03
1.154827659531697e+03 3.479127297750390e+02 2.918975276816622e+03
1.154211346890740e+03 3.462170174192515e+02 2.918975276816622e+03
1.154099776843444e+03 3.450227227762827e+02 2.918975276816622e+03
1.154132254394587e+03 3.440187734192758e+02 2.918975276816622e+03
1.153911168636238e+03 3.425679926677191e+02 2.918975276816622e+03
1.153797085722250e+03 3.412488751156067e+02 2.918975276816622e+03
1.154142397049957e+03 3.401969998914392e+02 2.918975276816622e+03
1.154667484965917e+03 3.399664547920115e+02 2.918975276816622e+03
1.155784171098504e+03 3.400068556603779e+02 2.918975276816622e+03
1.156179272398539e+03 3.389429141595577e+02 2.918975276816622e+03
1.154911535326798e+03 3.369908409677984e+02 2.918975276816622e+03
1.154930583138650e+03 3.355714355309739e+02 2.918975276816622e+03
1.155161803493673e+03 3.347377184478198e+02 2.918975276816622e+03
1.155355451602121e+03 3.336978718051436e+02 2.918975276816622e+03
1.155148344753164e+03 3.327408085546971e+02 2.918975276816622e+03
1.154494892955739e+03 3.320050530957143e+02 2.918975276816622e+03
1.153515456160263e+03 3.314760765591878e+02 2.918975276816622e+03
1.152823416246395e+03 3.306339010500197e+02 2.918975276816622e+03
1.153138664605405e+03 3.294609135378389e+02 2.918975276816622e+03
1.153432410403150e+03 3.281639000549043e+02 2.918975276816622e+03
1.153568807098454e+03 3.270475463324158e+02 2.918975276816622e+03
1.153739620180453e+03 3.262712657073012e+02 2.918975276816622e+03
1.153849878782127e+03 3.253047396409216e+02 2.918975276816622e+03
1.153492023513520e+03 3.242382812143157e+02 2.918975276816622e+03
1.152804418543936e+03 3.227040722122892e+02 2.918975276816622e+03
1.152113779426652e+03 3.211131804734139e+02 2.918975276816622e+03
1.152713526882013e+03 3.206221983147374e+02 2.918975276816622e+03
1.153626928462973e+03 3.198826237421334e+02 2.918975276816622e+03
1.154138187251914e+03 3.186863170549281e+02 2.918975276816622e+03
1.154615667246861e+03 3.178328143327091e+02 2.918975276816622e+03
1.154565992626976e+03 3.161669339999687e+02 2.918975276816622e+03
1.154210874087120e+03 3.139460482578257e+02 2.918975276816622e+03
1.153713183827283e+03 3.124426336154406e+02 2.918975276816622e+03
1.153692465268193e+03 3.116840801093905e+02 2.918975276816622e+03
1.153775113240575e+03 3.105623897888246e+02 2.918975276816622e+03
1.153865818159779e+03 3.089839192203095e+02 2.918975276816622e+03
1.154457567474303e+03 3.071175688027419e+02 2.918975276816622e+03
1.154117201140983e+03 3.062051500769933e+02 2.918975276816622e+03
1.154021237657928e+03 3.054552551237462e+02 2.918975276816622e+03
1.155338449595453e+03 3.033659161837581e+02 2.918975276816622e+03
1.156064695189379e+03 3.018832599482697e+02 2.918975276816622e+03
1.155714921754875e+03 3.013089300231596e+02 2.918975276816622e+03
1.155709817948007e+03 3.008637085121725e+02 2.918975276816622e+03
1.155440899592542e+03 3.001782015850418e+02 2.918975276816622e+03
1.154814794805777e+03 2.988186892945929e+02 2.918975276816622e+03
1.154391944425694e+03 2.977345061188652e+02 2.918975276816622e+03
1.154415205122478e+03 2.961225570142743e+02 2.918975276816622e+03
1.154798715935261e+03 2.941847618722089e+02 2.918975276816622e+03
1.155160844173483e+03 2.921878902602980e+02 2.918975276816622e+03
1.155560395411274e+03 2.894394647274739e+02 2.918975276816622e+03
1.155174139227516e+03 2.879512613232947e+02 2.918975276816622e+03
1.154598233973426e+03 2.864473480926389e+02 2.918975276816622e+03
1.154618487070556e+03 2.836675029068609e+02 2.918975276816622e+03
1.154236454490914e+03 2.814402042501078e+02 2.918975276816622e+03
1.154540007728909e+03 2.800428378215697e+02 2.918975276816622e+03
1.155064880357937e+03 2.785925245549062e+02 2.918975276816622e+03
1.154868020943804e+03 2.771735309892555e+02 2.918975276816622e+03
1.155252653723043e+03 2.762669877727913e+02 2.918975276816622e+03
1.155155712332600e+03 2.753239884966022e+02 2.918975276816622e+03
1.154502832206803e+03 2.744058193085929e+02 2.918975276816622e+03
1.154307086417092e+03 2.734489372465999e+02 2.918975276816622e+03
1.154227611538443e+03 2.719051656855997e+02 2.918975276816622e+03
1.153960599862113e+03 2.698089009053833e+02 2.918975276816622e+03
1.153184998185312e+03 2.684192811954463e+02 2.918975276816622e+03
1.152806351118543e+03 2.674065587957095e+02 2.918975276816622e+03
1.152468713632486e+03 2.651472277177467e+02 2.918975276816622e+03
1.152232013365129e+03 2.634023372404095e+02 2.918975276816622e+03
1.152008240890729e+03 2.630670575733021e+02 2.918975276816622e+03
1.152044678574349e+03 2.618328714341101e+02 2.918975276816622e+03
1.152437233667330e+03 2.599277018970479e+02 2.918975276816622e+03
1.152766862850005e+03 2.590744542120688e+02 2.918975276816622e+03
1.152902899099091e+03 2.583877319519622e+02 2.918975276816622e+03
1.152809193605249e+03 2.574289585622415e+02 2.918975276816622e+03
1.152401045802486e+03 2.562990895472202e+02 2.918975276816622e+03
1.152109898404679e+03 2.553241971076065e+02 2.918975276816622e+03
1.152847912610880e+03 2.547236211343549e+02 2.918975276816622e+03
1.152852908467918e+03 2.535263027493419e+02 2.918975276816622e+03
1.152327587354920e+03 2.521604138769041e+02 2.918975276816622e+03
1.151784885006090e+03 2.512606446807135e+02 2.918975276816622e+03
1.151785307887624e+03 2.503143378217400e+02 2.918975276816622e+03
1.152452096759678e+03 2.490180281365125e+02 2.918975276816622e+03
1.153072518093110e+03 2.482208099008320e+02 2.918975276816622e+03
1.153436595892791e+03 2.472230866907869e+02 2.918975276816622e+03
1.153273959501960e+03 2.458921421469015e+02 2.918975276816622e+03
1.152967883324720e+03 2.444141867637992e+02 2.918975276816622e+03
1.152902308815126e+03 2.424299198869617e+02 2.918975276816622e+03
1.153174830779662e+03 2.408148292060426e+02 2.918975276816622e+03
1.153765160078658e+03 2.393323600810147e+02 2.918975276816622e+03
1.153610820399692e+03 2.371980046462535e+02 2.918975276816622e+03
1.153068397441652e+03 2.345856330448827e+02 2.918975276816622e+03
1.153478432563134e+03 2.329156275911315e+02 2.918975276816622e+03
1.153613839597022e+03 2.311992405499894e+02 2.918975276816622e+03
1.153004694929442e+03 2.290669074794305e+02 2.918975276816622e+03
1.152293507812170e+03 2.281548306939355e+02 2.918975276816622e+03
1.152354904911616e+03 2.274051339847798e+02 2.918975276816622e+03
1.152635048622911e+03 2.261067372739092e+02 2.918975276816622e+03
1.152832997764442e+03 2.249275607649379e+02 2.918975276816622e+03
1.153196829469723e+03 2.229324924063319e+02 2.918975276816622e+03
1.153279783725952e+03 2.207627775153526e+02 2.918975276816622e+03
1.153089539260069e+03 2.193440455733343e+02 2.918975276816622e+03
1.152476299670922e+03 2.174224227667214e+02 2.918975276816622e+03
1.151793963085861e+03 2.151746490927112e+02 2.918975276816622e+03
1.150494663797493e+03 2.142812765899640e+02 2.918975276816622e+03
1.149732656670991e+03 2.125659075257344e+02 2.918975276816622e+03
1.150734705209618e+03 2.107767814614442e+02 2.918975276816622e+03
1.151678761189199e+03 2.111212138749194e+02 2.918975276816622e+03
1.152262416561222e+03 2.105933710528366e+02 2.918975276816622e+03
1.152543233210355e+03 2.090662582612159e+02 2.918975276816622e+03
1.152033601367892e+03 2.081374883553384e+02 2.918975276816622e+03
1.152123419111859e+03 2.073564328230919e+02 2.918975276816622e+03
1.152468571698554e+03 2.061449406023307e+02 2.918975276816622e+03
1.152808964293648e+03 2.049612349800354e+02 2.918975276816622e+03
1.153240404001717e+03 2.029605936659050e+02 2.918975276816622e+03
1.153331919029164e+03 2.008150706083573e+02 2.918975276816622e+03
1.153409561178124e+03 1.993571153503641e+02 2.918975276816622e+03
1.153083066164025e+03 1.973160441495384e+02 2.918975276816622e+03
1.153140639945465e+03 1.943276040183421e+02 2.918975276816622e+03
1.152775381764719e+03 1.920980170650428e+02 2.918975276816622e+03
1.152353386718449e+03 1.906915295153357e+02 2.918975276816622e+03
1.152535515018551e+03 1.890843934279817e+02 2.918975276816622e+03
1.152077494943032e+03 1.881828413603078e+02 2.918975276816622e+03
1.152234353968724e+03 1.873967654915965e+02 2.918975276816622e+03
1.152591843936257e+03 1.861523168512506e+02 2.918975276816622e+03
1.152788878598984e+03 1.849835919065776e+02 2.918975276816622e+03
1.153154752389708e+03 1.829905309510983e+02 2.918975276816622e+03
1.153239445111569e+03 1.808174233553029e+02 2.918975276816622e+03
1.153059990864482e+03 1.794027187902287e+02 2.918975276816622e+03
1.152475331436458e+03 1.774939529836960e+02 2.918975276816622e+03
1.151816552053659e+03 1.752509208230177e+02 2.918975276816622e+03
1.150471276523913e+03 1.743824204082236e+02 2.918975276816622e+03
1.149603736308655e+03 1.726228778435822e+02 2.918975276816622e+03
1.150619745581982e+03 1.705832692654721e+02 2.918975276816622e+03
1.151712308298408e+03 1.710148516547584e+02 2.918975276816622e+03
1.152360958531797e+03 1.707077801606494e+02 2.918975276816622e+03
1.152600050600921e+03 1.691304640168595e+02 2.918975276816622e+03
1.152147996756556e+03 1.682165560821549e+02 2.918975276816622e+03
1.152361795965590e+03 1.674637548097391e+02 2.918975276816622e+03
1.153071328251761e+03 1.661965595274363e+02 2.918975276816622e+03
1.153152598689242e+03 1.651598870484156e+02 2.918975276816622e+03
1.152656799970837e+03 1.650264978517886e+02 2.918975276816622e+03
1.152350395490159e+03 1.640519373130857e+02 2.918975276816622e+03
1.152708691405959e+03 1.621357234648041e+02 2.918975276816622e+03
1.152954075171153e+03 1.607083609976886e+02 2.918975276816622e+03
1.152848569362749e+03 1.594446955514462e+02 2.918975276816622e+03
1.152715312552299e+03 1.575728621014282e+02 2.918975276816622e+03
1.152627581490385e+03 1.550757248465235e+02 2.918975276816622e+03
1.153353889952441e+03 1.531777652027217e+02 2.918975276816622e+03
1.153052608683446e+03 1.520655805373972e+02 2.918975276816622e+03
1.152333996296351e+03 1.507630789719419e+02 2.918975276816622e+03
1.152536059477954e+03 1.491597317082225e+02 2.918975276816622e+03
1.152088805110144e+03 1.482603700431469e+02 2.918975276816622e+03
1.152261000455309e+03 1.474651708970371e+02 2.918975276816622e+03
1.152640848116012e+03 1.462020230885774e+02 2.918975276816622e+03
1.152723173302128e+03 1.450780208401801e+02 2.918975276816622e+03
1.153041399868194e+03 1.430865532078799e+02 2.918975276816622e+03
1.153300934139702e+03 1.409355155128732e+02 2.918975276816622e+03
1.153371840208287e+03 1.396522026906660e+02 2.918975276816622e+03
1.153324083133441e+03 1.376256073455830e+02 2.918975276816622e+03
1.153580932235037e+03 1.347608061711067e+02 2.918975276816622e+03
1.153588162807017e+03 1.324632438054218e+02 2.918975276816622e+03
1.153164763057123e+03 1.316430003108287e+02 2.918975276816622e+03
1.153005312607128e+03 1.309001088608641e+02 2.918975276816622e+03
1.152726836379589e+03 1.293185430111380e+02 2.918975276816622e+03
1.152050277656902e+03 1.282692911627032e+02 2.918975276816622e+03
1.152130003824493e+03 1.274827374365067e+02 2.918975276816622e+03
1.152521134964501e+03 1.262468213552702e+02 2.918975276816622e+03
1.152830266885950e+03 1.250683584254659e+02 2.918975276816622e+03
1.153201993354887e+03 1.230835945220228e+02 2.918975276816622e+03
1.153261693533861e+03 1.208866088963362e+02 2.918975276816622e+03
1.153070277002074e+03 1.194396420587482e+02 2.918975276816622e+03
1.152793960890992e+03 1.175347980238861e+02 2.918975276816622e+03
1.153415673322114e+03 1.147569953918750e+02 2.918975276816622e+03
1.153729011561972e+03 1.126296288790352e+02 2.918975276816622e+03
1.152636059788329e+03 1.118596477730752e+02 2.918975276816622e+03
1.152255569183860e+03 1.107876292104828e+02 2.918975276816622e+03
1.152506650973548e+03 1.092202306997103e+02 2.918975276816622e+03
1.152031236404300e+03 1.083080511153340e+02 2.918975276816622e+03
1.152126371587608e+03 1.075046126694439e+02 2.918975276816622e+03
1.152502268949525e+03 1.062597772610465e+02 2.918975276816622e+03
1.152877969760582e+03 1.050707633565951e+02 2.918975276816622e+03
1.153434547519419e+03 1.031050382984180e+02 2.918975276816622e+03
1.153857744864070e+03 1.007569020796150e+02 2.918975276816622e+03
1.154383528069207e+03 9.850445373571138e+01 2.918975276816622e+03
1.153889820160167e+03 9.680136798354643e+01 2.918975276816622e+03
1.153390432114308e+03 9.500145167664613e+01 2.918975276816622e+03
1.153520692386178e+03 9.203626571912987e+01 2.918975276816622e+03
1.153734819438224e+03 8.976454934680230e+01 2.918975276816622e+03
1.154626630392422e+03 8.869047385769748e+01 2.918975276816622e+03
1.154532691809657e+03 8.761188251564552e+01 2.918975276816622e+03
1.153623647118582e+03 8.633545841395480e+01 2.918975276816622e+03
1.153069642571666e+03 8.563221776746214e+01 2.918975276816622e+03
1.152370414183193e+03 8.499889447945183e+01 2.918975276816622e+03
1.152286366332362e+03 8.328620161792733e+01 2.918975276816622e+03
1.152545065012771e+03 8.102908352614999e+01 2.918975276816622e+03
1.153051328952174e+03 7.943262796976410e+01 2.918975276816622e+03
1.153311446567620e+03 7.857036903588080e+01 2.918975276816622e+03
1.153285876198454e+03 7.721629204121119e+01 2.918975276816622e+03
1.153380913837716e+03 7.521922235138844e+01 2.918975276816622e+03
1.153775048205292e+03 7.305816673212578e+01 2.918975276816622e+03
1.153385466475422e+03 7.164995831787648e+01 2.918975276816622e+03
1.152535492347195e+03 7.060034165931798e+01 2.918975276816622e+03
1.152865368116617e+03 6.870257843031415e+01 2.918975276816622e+03
1.153026421076984e+03 6.663534612256630e+01 2.918975276816622e+03
1.153460568048978e+03 6.469584410841125e+01 2.918975276816622e+03
1.153285313893658e+03 6.334825163252083e+01 2.918975276816622e+03
1.152771061069259e+03 6.253287779146991e+01 2.918975276816622e+03
1.152996964829468e+03 6.148244188844861e+01 2.918975276816622e+03
1.153920575719999e+03 6.101395950736681e+01 2.918975276816622e+03
1.154737982752988e+03 6.043130726925915e+01 2.918975276816622e+03
1.154971153242509e+03 5.907152078300959e+01 2.918975276816622e+03
1.155286424010236e+03 5.809313096785458e+01 2.918975276816622e+03
1.155705104514546e+03 5.712597264052842e+01 2.918975276816622e+03
1.155354736011945e+03 5.635477022314073e+01 2.918975276816622e+03
1.154982041398812e+03 5.544351011295550e+01 2.918975276816622e+03
1.154671905385046e+03 5.448424044755815e+01 2.918975276816622e+03
1.154197912024394e+03 5.314872277758051e+01 2.918975276816622e+03
1.154383308089124e+03 5.113526594619628e+01 2.918975276816622e+03
1.154275500548680e+03 4.904610980742384e+01 2.918975276816622e+03
1.154397028211442e+03 4.747746030389133e+01 2.918975276816622e+03
1.154320684420897e+03 4.558722133901578e+01 2.918975276816622e+03
1.154054479636962e+03 4.326845944367267e+01 2.918975276816622e+03
1.154042138472718e+03 4.216184367754258e+01 2.918975276816622e+03
1.154132758701795e+03 4.121305366904887e+01 2.918975276816622e+03
1.154431371609481e+03 3.963268717745451e+01 2.918975276816622e+03
1.154773034500405e+03 3.709607730139557e+01 2.918975276816622e+03
1.154765255790781e+03 3.473822143412220e+01 2.918975276816622e+03
1.154716316525292e+03 3.304652763701409e+01 2.918975276816622e+03
1.154766554293812e+03 3.103661835399128e+01 2.918975276816622e+03
1.154944641706049e+03 2.909710784808840e+01 2.918975276816622e+03
1.155030628088733e+03 2.679313209546822e+01 2.918975276816622e+03
1.154956325548417e+03 2.389917723433956e+01 2.918975276816622e+03
1.155094245654075e+03 2.088370881090569e+01 2.918975276816622e+03
1.155376381360780e+03 1.933416020855718e+01 2.918975276816622e+03
1.155276437878807e+03 1.760253455196517e+01 2.918975276816622e+03
1.155017486057157e+03 1.507318488175152e+01 2.918975276816622e+03
1.154767409614810e+03 1.364076239046844e+01 2.918975276816622e+03
1.154543788645971e+03 1.222928882872132e+01 2.918975276816622e+03
1.154413483560108e+03 1.080117953759195e+01 2.918975276816622e+03
1.154340582125005e+03 9.007206898491942e+00 2.918975276816622e+03
1.154616635001936e+03 6.638301253116119e+00 2.918975276816622e+03
1.154809411445648e+03 5.029351910373047e+00 2.918975276816622e+03
1.154748514552003e+03 3.629830255734056e+00 2.918975276816622e+03
1.154636988819805e+03 2.111330352689446e+00 2.918975276816622e+03

CELLS 2028 8152
3 6 2040 7
3 6 2041 497
3 7 2042 8
3 8 2043 9
3 9 2044 10
3 10 2045 11
3 11 2046 12
3 12 2047 13
3 13 2048 14
3 14 2049 15
3 15 2050 16
3 16 2051 17
3 17 2052 18
3 18 2053 19
3 19 2054 20
3 20 2055 21
3 21 2056 22
3 22 2057 23
3 23 2058 24
3 24 2059 25
3 25 2060 26
3 26 2061 27
3 27 2062 28
3 28 2063 29
3 29 2064 30
3 30 2065 31
3 31 2066 32
3 32 2067 33
3 33 2068 34
3 34 2069 35
3 35 2070 36
3 36 2071 37
3 37 2072 38
3 38 2073 39
3 39 2074 40
3 40 2075 41
3 41 2076 42
3 42 2077 43
3 43 2078 44
3 44 2079 45
3 45 2080 46
3 46 2081 47
3 47 2082 48
3 48 2083 49
3 49 2084 50
3 50 2085 51
3 51 2086 52
3 52 2087 53
3 53 2088 54
3 54 2089 55
3 55 2090 56
3 56 2091 57
3 57 2092 58
3 58 2093 59
3 59 2094 60
3 60 2095 61
3 61 2096 62
3 62 2097 63
3 63 2098 64
3 64 2099 65
3 65 2100 66
3 66 2101 67
3 67 2102 68
3 68 2103 69
3 69 2104 70
3 70 2105 71
3 71 2106 72
3 72 2107 73
3 73 2108 74
3 74 2109 75
3 75 2110 76
3 76 2111 77
3 77 2112 78
3 78 2113 79
3 79 2114 80
3 80 2115 81
3 81 2116 82
3 82 2117 83
3 83 2118 84
3 84 2119 85
3 85 2120 86
3 86 2121 87
3 87 2122 88
3 88 2123 89
3 89 2124 90
3 90 2125 91
3 91 2126 92
3 92 2127 93
3 93 2128 94
3 94 2129 95
3 95 2130 96
3 96 2131 97
3 97 2132 98
3 98 2133 99
3 99 2134 100
3 100 2135 101
3 101 2136 102
3 102 2137 103
3 103 2138 104
3 104 2139 105
3 105 2140 106
3 106 2141 107
3 107 2142 108
3 108 2143 109
3 109 2144 110
3 110 2145 111
3 111 2146 112
3 112 2147 113
3 113 2148 114
3 114 2149 115
3 115 2150 116
3 116 2151 117
3 117 2152 118
3 118 2153 119
3 119 2154 120
3 120 2155 121
3 121 2156 122
3 122 2157 123
3 123 2158 124
3 124 2159 125
3 125 2160 126
3 126 2161 127
3 127 2162 128
3 128 2163 129
3 129 2164 130
3 130 2165 131
3 131 2166 132
3 132 2167 133
3 133 2168 134
3 134 2169 135
3 135 2170 136
3 136 2171 137
3 137 2172 138
3 138 2173 139
3 139 2174 140
3 140 2175 141
3 141 2176 142
3 142 2177 143
3 143 2178 144
3 144 2179 145
3 145 2180 146
3 146 2181 147
3 147 2182 148
3 148 2183 149
3 149 2184 150
3 150 2185 151
3 151 2186 152
3 152 2187 153
3 153 2188 154
3 154 2189 155
3 155 2190 156
3 156 2191 157
3 157 2192 158
3 158 2193 159
3 159 2194 160
3 160 2195 161
3 161 2196 162
3 162 2197 163
3 163 2198 164
3 164 2199 165
3 165 2200 166
3 166 2201 167
3 167 2202 168
3 168 2203 169
3 169 2204 170
3 170 2205 171
3 171 2206 172
3 172 2207 173
3 173 2208 174
3 174 2209 175
3 175 2210 176
3 176 2211 177
3 177 2212 178
3 178 2213 179
3 179 2214 180
3 180 2215 181
3 181 2216 182
3 182 2217 183
3 183 2218 184
3 184 2219 185
3 185 2220 186
3 186 2221 187
3 187 2222 188
3 188 2223 189
3 189 2224 190
3 190 2225 191
3 191 2226 192
3 192 2227 193
3 193 2228 194
3 194 2229 195
3 195 2230 196
3 196 2231 197
3 197 2232 198
3 198 2233 199
3 199 2234 200
4 200 2235 2236 201
3 201 2237 202
3 202 2238 203
3 203 2239 204
3 204 2240 205
3 205 2241 206
3 206 2242 207
3 207 2243 208
3 208 2244 209
3 209 2245 210
3 210 2246 211
3 211 2247 212
3 212 2248 213
3 213 2249 214
3 214 2250 215
3 215 2251 216
3 216 2252 217
3 217 2253 218
3 218 2254 219
3 219 2255 220
3 220 2256 221
3 221 2257 222
3 222 2258 223
3 223 2259 224
3 224 2260 225
3 225 2261 226
3 226 2262 227
3 227 2263 228
3 228 2264 229
3 229 2265 230
3 230 2266 231
3 231 2267 232
3 232 2268 233
3 233 2269 234
3 234 2270 235
3 235 2271 236
3 236 2272 237
3 237 2273 238
3 238 2274 239
3 239 2275 240
3 240 2276 241
3 241 2277 242
3 242 2278 243
3 243 2279 244
4 244 2280 2281 245
3 245 2282 246
3 246 2283 247
3 247 2284 248
3 248 2285 249
3 249 2286 250
3 250 2287 251
3 251 2288 252
3 252 2289 253
3 253 2290 254
3 254 2291 2032
4 255 2292 2293 256
3 255 2294 2033
3 256 2295 257
3 257 2296 258
3 258 2297 259
4 259 2298 2299 260
3 260 2300 261
3 261 2301 262
3 262 2302 263
3 263 2303 264
3 264 2304 265
3 265 2305 266
3 266 2306 267
3 267 2307 268
3 268 2308 269
3 269 2309 270
3 270 2310 271
3 271 2311 272
3 272 2312 273
3 273 2313 274
3 274 2314 275
3 275 2315 276
3 276 2316 277
4 277 2317 2318 278
3 278 2319 279
3 279 2320 280
3 280 2321 281
3 281 2322 282
3 282 2323 283
3 283 2324 284
3 284 2325 285
3 285 2326 286
3 286 2327 287
3 287 2328 288
3 288 2329 289
3 289 2330 290
3 290 2331 291
3 291 2332 292
3 292 2333 293
3 293 2334 294
3 294 2335 295
3 295 2336 296
3 296 2337 297
3 297 2338 298
3 298 2339 299
3 299 2340 300
4 300 2341 2342 301
3 301 2343 302
3 302 2344 303
3 303 2345 304
3 304 2346 305
3 305 2347 306
3 306 2348 307
3 307 2349 308
3 308 2350 309
3 309 2351 310
3 310 2352 311
3 311 2353 312
3 312 2354 313
3 313 2355 314
3 314 2356 315
3 315 2357 316
3 316 2358 317
3 317 2359 318
3 318 2360 319
3 319 2361 320
3 320 2362 321
3 321 2363 322
3 322 2364 323
3 323 2365 324
3 324 2366 325
3 325 2367 326
3 326 2368 327
3 327 2369 328
3 328 2370 329
3 329 2371 330
3 330 2372 331
3 331 2373 332
3 332 2374 333
3 333 2375 334
3 334 2376 335
3 335 2377 336
3 336 2378 337
3 337 2379 338
3 338 2380 339
3 339 2381 340
3 340 2382 341
3 341 2383 342
3 342 2384 343
3 343 2385 344
3 344 2386 345
3 345 2387 346
3 346 2388 347
3 347 2389 348
3 348 2390 349
3 349 2391 350
3 350 2392 351
3 351 2393 352
3 352 2394 353
3 353 2395 354
3 354 2396 355
3 355 2397 356
3 356 2398 357
3 357 2399 358
3 358 2400 359
3 359 2401 360
3 360 2402 361
3 361 2403 362
3 362 2404 363
3 363 2405 364
3 364 2406 365
3 365 2407 366
3 366 2408 367
3 367 2409 368
3 368 2410 369
3 369 2411 370
3 370 2412 371
3 371 2413 372
3 372 2414 373
3 373 2415 374
3 374 2416 375
3 375 2417 376
3 376 2418 377
3 377 2419 378
3 378 2420 379
3 379 2421 380
3 380 2422 381
3 381 2423 382
3 382 2424 383
3 383 2425 384
3 384 2426 385
3 385 2427 386
3 386 2428 387
3 387 2429 388
3 388 2430 389
3 389 2431 390
3 390 2432 391
3 391 2433 392
3 392 2434 393
3 393 2435 394
3 394 2436 395
3 395 2437 396
3 396 2438 397
3 397 2439 398
3 398 2440 399
3 399 2441 400
3 400 2442 401
3 401 2443 402
3 402 2444 403
3 403 2445 404
3 404 2446 405
3 405 2447 406
3 406 2448 407
3 407 2449 408
3 408 2450 409
3 409 2451 410
3 410 2452 411
3 411 2453 412
3 412 2454 413
3 413 2455 414
3 414 2456 415
3 415 2457 416
3 416 2458 417
3 417 2459 418
3 418 2460 419
3 419 2461 420
3 420 2462 421
3 421 2463 422
3 422 2464 423
3 423 2465 424
3 424 2466 425
3 425 2467 426
3 426 2468 427
3 427 2469 428
3 428 2470 429
3 429 2471 430
3 430 2472 431
3 431 2473 432
3 432 2474 433
3 433 2475 434
3 434 2476 435
3 435 2477 436
3 436 2478 437
3 437 2479 438
3 438 2480 439
3 439 2481 440
3 440 2482 441
3 441 2483 442
3 442 2484 443
3 443 2485 444
3 444 2486 445
3 445 2487 446
3 446 2488 447
3 447 2489 448
3 448 2490 449
3 449 2491 450
3 450 2492 451
3 451 2493 452
3 452 2494 453
3 453 2495 454
3 454 2496 455
3 455 2497 456
3 456 2498 457
3 457 2499 458
3 458 2500 459
3 459 2501 460
3 460 2502 461
3 461 2503 462
3 462 2504 463
4 463 2505 2506 464
3 464 2507 465
3 465 2508 466
3 466 2509 467
3 467 2510 468
3 468 2511 469
3 469 2512 470
3 470 2513 471
3 471 2514 472
3 472 2515 473
3 473 2516 474
3 474 2517 475
3 475 2518 476
3 476 2519 477
3 477 2520 478
3 478 2521 479
3 479 2522 480
3 480 2523 481
3 481 2524 482
3 482 2525 483
3 483 2526 484
3 484 2527 485
3 485 2528 486
3 486 2529 487
3 487 2530 488
3 488 2531 489
3 489 2532 490
3 490 2533 491
3 491 2534 492
3 492 2535 493
3 493 2536 494
3 494 2537 495
3 495 2538 496
3 496 2539 497
3 499 2540 500
3 499 2541 1019
3 500 2542 501
3 501 2543 502
3 502 2544 503
3 503 2545 504
3 504 2546 505
3 505 2547 506
3 506 2548 507
3 507 2549 508
3 508 2550 509
3 509 2551 510
3 510 2552 511
3 511 2553 512
3 512 2554 513
3 513 2555 514
3 514 2556 515
3 515 2557 516
3 516 2558 517
3 517 2559 518
3 518 2560 519
3 519 2561 520
3 520 2562 521
4 521 2563 2564 522
3 522 2565 523
3 523 2566 524
3 524 2567 525
3 525 2568 526
3 526 2569 527
3 527 2570 528
3 528 2571 529
3 529 2572 530
3 530 2573 531
3 531 2574 532
3 532 2575 533
3 533 2576 534
3 534 2577 535
3 535 2578 536
3 536 2579 537
3 537 2580 538
3 538 2581 539
3 539 2582 540
3 540 2583 541
3 541 2584 542
3 542 2585 543
3 543 2586 544
3 544 2587 545
3 545 2588 546
4 546 2589 2590 547
3 547 2591 548
3 548 2592 549
3 549 2593 550
3 550 2594 551
3 551 2595 552
3 552 2596 553
3 553 2597 554
3 554 2598 555
3 555 2599 556
3 556 2600 557
3 557 2601 558
3 558 2602 559
3 559 2603 560
4 560 2604 2605 561
3 561 2606 562
3 562 2607 563
3 563 2608 564
3 564 2609 565
3 565 2610 566
3 566 2611 567
3 567 2612 568
3 568 2613 569
3 569 2614 570
3 570 2615 571
3 571 2616 572
3 572 2617 573
3 573 2618 574
4 574 2619 2620 575
3 575 2621 576
3 576 2622 577
3 577 2623 578
3 578 2624 579
3 579 2625 580
3 580 2626 581
3 581 2627 582
3 582 2628 583
3 583 2629 584
3 584 2630 585
3 585 2631 586
3 586 2632 587
3 587 2633 588
4 588 2634 2635 589
3 589 2636 590
3 590 2637 591
3 591 2638 592
3 592 2639 593
3 593 2640 594
3 594 2641 595
3 595 2642 596
3 596 2643 597
3 597 2644 598
3 598 2645 599
3 599 2646 600
3 600 2647 601
3 601 2648 602
4 602 2649 2650 603
3 603 2651 604
3 604 2652 605
3 605 2653 606
3 606 2654 607
3 607 2655 608
3 608 2656 609
3 609 2657 610
3 610 2658 611
3 611 2659 612
3 612 2660 613
3 613 2661 614
3 614 2662 615
3 615 2663 616
4 616 2664 2665 617
3 617 2666 618
3 618 2667 619
3 619 2668 620
3 620 2669 621
3 621 2670 622
3 622 2671 623
3 623 2672 624
3 624 2673 625
3 625 2674 626
3 626 2675 627
3 627 2676 628
3 628 2677 629
3 629 2678 630
4 630 2679 2680 631
3 631 2681 632
3 632 2682 633
3 633 2683 634
3 634 2684 635
3 635 2685 636
3 636 2686 637
3 637 2687 638
3 638 2688 639
3 639 2689 640
3 640 2690 641
3 641 2691 642
3 642 2692 643
3 643 2693 644
4 644 2694 2695 645
3 645 2696 646
3 646 2697 647
3 647 2698 648
3 648 2699 649
3 649 2700 650
3 650 2701 651
3 651 2702 652
3 652 2703 653
3 653 2704 654
3 654 2705 655
3 655 2706 656
3 656 2707 657
3 657 2708 658
3 658 2709 659
3 659 2710 660
3 660 2711 661
3 661 2712 662
3 662 2713 663
3 663 2714 664
3 664 2715 665
3 665 2716 666
3 666 2717 667
3 667 2718 668
3 668 2719 669
3 669 2720 670
3 670 2721 671
3 671 2722 672
3 672 2723 673
3 673 2724 674
3 674 2725 675
3 675 2726 676
3 676 2727 677
3 677 2728 678
3 678 2729 679
3 679 2730 680
4 680 2731 2732 681
3 681 2733 682
3 682 2734 683
3 683 2735 684
3 684 2736 685
3 685 2737 686
3 686 2738 687
3 687 2739 688
3 688 2740 689
3 689 2741 690
3 690 2742 691
3 691 2743 692
3 692 2744 693
3 693 2745 694
3 694 2746 695
3 695 2747 696
3 696 2748 697
3 697 2749 698
3 698 2750 699
3 699 2751 700
3 700 2752 701
3 701 2753 702
3 702 2754 703
3 703 2755 704
3 704 2756 705
3 705 2757 706
3 706 2758 707
3 707 2759 708
3 708 2760 709
3 709 2761 710
3 710 2762 711
3 711 2763 712
3 712 2764 713
3 713 2765 714
3 714 2766 715
3 715 2767 716
3 716 2768 717
3 717 2769 718
3 718 2770 719
3 719 2771 720
3 720 2772 721
3 721 2773 722
3 722 2774 723
3 723 2775 724
3 724 2776 725
3 725 2777 726
3 726 2778 727
3 727 2779 728
3 728 2780 729
3 729 2781 730
3 730 2782 731
3 731 2783 732
3 732 2784 733
3 733 2785 734
3 734 2786 735
3 735 2787 736
3 736 2788 737
3 737 2789 738
3 738 2790 739
3 739 2791 740
3 740 2792 741
3 741 2793 742
3 742 2794 743
3 743 2795 744
3 744 2796 745
3 745 2797 746
3 746 2798 747
3 747 2799 748
3 748 2800 749
3 749 2801 750
3 750 2802 751
3 751 2803 752
4 752 2804 2805 753
3 753 2806 754
3 754 2807 2034
3 755 2808 756
3 755 2809 2035
3 756 2810 757
3 757 2811 758
3 758 2812 759
3 759 2813 760
3 760 2814 761
3 761 2815 762
3 762 2816 763
3 763 2817 764
3 764 2818 765
3 765 2819 766
3 766 2820 767
3 767 2821 768
3 768 2822 769
3 769 2823 770
3 770 2824 771
3 771 2825 772
3 772 2826 773
3 773 2827 774
3 774 2828 775
3 775 2829 776
3 776 2830 777
3 777 2831 778
3 778 2832 779
3 779 2833 780
3 780 2834 781
3 781 2835 782
3 782 2836 783
3 783 2837 784
3 784 2838 785
3 785 2839 786
3 786 2840 787
3 787 2841 788
3 788 2842 789
3 789 2843 790
3 790 2844 791
3 791 2845 792
3 792 2846 793
3 793 2847 794
3 794 2848 795
3 795 2849 796
3 796 2850 797
3 797 2851 798
3 798 2852 799
3 799 2853 800
3 800 2854 801
3 801 2855 802
3 802 2856 803
3 803 2857 804
3 804 2858 805
3 805 2859 806
3 806 2860 807
3 807 2861 808
3 808 2862 809
3 809 2863 810
3 810 2864 811
3 811 2865 812
3 812 2866 813
3 813 2867 814
3 814 2868 815
3 815 2869 816
3 816 2870 817
3 817 2871 818
3 818 2872 819
3 819 2873 820
3 820 2874 821
3 821 2875 822
3 822 2876 823
3 823 2877 824
3 824 2878 825
3 825 2879 826
3 826 2880 827
3 827 2881 828
3 828 2882 829
3 829 2883 830
3 830 2884 831
3 831 2885 832
3 832 2886 833
3 833 2887 834
3 834 2888 835
4 835 2889 2890 836
3 836 2891 837
3 837 2892 838
3 838 2893 839
3 839 2894 840
3 840 2895 841
3 841 2896 842
3 842 2897 843
3 843 2898 844
3 844 2899 845
3 845 2900 846
3 846 2901 847
3 847 2902 848
3 848 2903 849
3 849 2904 850
3 850 2905 851
3 851 2906 852
3 852 2907 853
3 853 2908 854
3 854 2909 855
3 855 2910 856
3 856 2911 857
4 857 2912 2913 858
3 858 2914 859
3 859 2915 860
3 860 2916 861
3 861 2917 862
3 862 2918 863
3 863 2919 864
3 864 2920 865
3 865 2921 866
3 866 2922 867
3 867 2923 868
3 868 2924 869
3 869 2925 870
3 870 2926 871
4 871 2927 2928 872
3 872 2929 873
3 873 2930 874
3 874 2931 875
3 875 2932 876
3 876 2933 877
3 877 2934 878
3 878 2935 879
3 879 2936 880
3 880 2937 881
3 881 2938 882
3 882 2939 883
3 883 2940 884
3 884 2941 885
4 885 2942 2943 886
3 886 2944 887
3 887 2945 888
3 888 2946 889
3 889 2947 890
3 890 2948 891
3 891 2949 892
3 892 2950 893
3 893 2951 894
3 894 2952 895
3 895 2953 896
3 896 2954 897
3 897 2955 898
3 898 2956 899
4 899 2957 2958 900
3 900 2959 901
3 901 2960 902
3 902 2961 903
3 903 2962 904
3 904 2963 905
3 905 2964 906
3 906 2965 907
3 907 2966 908
3 908 2967 909
3 909 2968 910
3 910 2969 911
3 911 2970 912
3 912 2971 913
3 913 2972 914
3 914 2973 915
3 915 2974 916
3 916 2975 917
3 917 2976 918
3 918 2977 919
3 919 2978 920
3 920 2979 921
3 921 2980 922
3 922 2981 923
3 923 2982 924
3 924 2983 925
3 925 2984 926
3 926 2985 927
4 927 2986 2987 928
3 928 2988 929
3 929 2989 930
3 930 2990 931
3 931 2991 932
3 932 2992 933
3 933 2993 934
3 934 2994 935
3 935 2995 936
3 936 2996 937
3 937 2997 938
3 938 2998 939
3 939 2999 940
3 940 3000 941
4 941 3001 3002 942
3 942 3003 943
3 943 3004 944
3 944 3005 945
3 945 3006 946
3 946 3007 947
3 947 3008 948
3 948 3009 949
3 949 3010 950
3 950 3011 951
3 951 3012 952
3 952 3013 953
3 953 3014 954
3 954 3015 955
4 955 3016 3017 956
3 956 3018 957
3 957 3019 958
3 958 3020 959
3 959 3021 960
3 960 3022 961
3 961 3023 962
3 962 3024 963
3 963 3025 964
3 964 3026 965
3 965 3027 966
3 966 3028 967
3 967 3029 968
3 968 3030 969
3 969 3031 970
3 970 3032 971
3 971 3033 972
3 972 3034 973
3 973 3035 974
3 974 3036 975
3 975 3037 976
3 976 3038 977
3 977 3039 978
3 978 3040 979
3 979 3041 980
3 980 3042 981
3 981 3043 982
3 982 3044 983
3 983 3045 984
3 984 3046 985
3 985 3047 986
3 986 3048 987
3 987 3049 988
3 988 3050 989
3 989 3051 990
3 990 3052 991
3 991 3053 992
3 992 3054 993
3 993 3055 994
3 994 3056 995
3 995 3057 996
3 996 3058 997
3 997 3059 998
3 998 3060 999
3 999 3061 1000
3 1000 3062 1001
3 1001 3063 1002
3 1002 3064 1003
3 1003 3065 1004
3 1004 3066 1005
3 1005 3067 1006
3 1006 3068 1007
3 1007 3069 1008
3 1008 3070 1009
3 1009 3071 1010
3 1010 3072 1011
3 1011 3073 1012
3 1012 3074 1013
3 1013 3075 1014
3 1014 3076 1015
3 1015 3077 1016
3 1016 3078 1017
3 1017 3079 1018
3 1018 3080 1019
3 1020 3081 1021
3 1020 3082 1530
3 1021 3083 1022
3 1022 3084 1023
3 1023 3085 1024
3 1024 3086 1025
3 1025 3087 1026
3 1026 3088 1027
3 1027 3089 1028
3 1028 3090 1029
3 1029 3091 1030
3 1030 3092 1031
3 1031 3093 1032
3 1032 3094 1033
3 1033 3095 1034
3 1034 3096 1035
3 1035 3097 1036
3 1036 3098 1037
3 1037 3099 1038
3 1038 3100 1039
3 1039 3101 1040
3 1040 3102 1041
3 1041 3103 1042
3 1042 3104 1043
3 1043 3105 1044
3 1044 3106 1045
3 1045 3107 1046
3 1046 3108 1047
3 1047 3109 1048
3 1048 3110 1049
3 1049 3111 1050
3 1050 3112 1051
3 1051 3113 1052
3 1052 3114 1053
3 1053 3115 1054
3 1054 3116 1055
3 1055 3117 1056
3 1056 3118 1057
3 1057 3119 1058
3 1058 3120 1059
3 1059 3121 1060
3 1060 3122 1061
3 1061 3123 1062
3 1062 3124 1063
3 1063 3125 1064
3 1064 3126 1065
3 1065 3127 1066
3 1066 3128 1067
3 1067 3129 1068
3 1068 3130 1069
3 1069 3131 1070
3 1070 3132 1071
3 1071 3133 1072
3 1072 3134 1073
3 1073 3135 1074
3 1074 3136 1075
3 1075 3137 1076
3 1076 3138 1077
3 1077 3139 1078
3 1078 3140 1079
3 1079 3141 1080
3 1080 3142 1081
3 1081 3143 1082
3 1082 3144 1083
3 1083 3145 1084
3 1084 3146 1085
3 1085 3147 1086
3 1086 3148 1087
3 1087 3149 1088
3 1088 3150 1089
3 1089 3151 1090
3 1090 3152 1091
3 1091 3153 1092
3 1092 3154 1093
3 1093 3155 1094
3 1094 3156 1095
3 1095 3157 1096
3 1096 3158 1097
3 1097 3159 1098
3 1098 3160 1099
3 1099 3161 1100
3 1100 3162 1101
3 1101 3163 1102
3 1102 3164 1103
3 1103 3165 1104
3 1104 3166 1105
3 1105 3167 1106
3 1106 3168 1107
3 1107 3169 1108
3 1108 3170 1109
3 1109 3171 1110
3 1110 3172 1111
3 1111 3173 1112
3 1112 3174 1113
3 1113 3175 1114
3 1114 3176 1115
3 1115 3177 1116
3 1116 3178 1117
3 1117 3179 1118
3 1118 3180 1119
3 1119 3181 1120
3 1120 3182 1121
3 1121 3183 1122
3 1122 3184 1123
3 1123 3185 1124
3 1124 3186 1125
3 1125 3187 1126
3 1126 3188 1127
3 1127 3189 1128
3 1128 3190 1129
3 1129 3191 1130
3 1130 3192 1131
3 1131 3193 1132
3 1132 3194 1133
3 1133 3195 1134
3 1134 3196 1135
3 1135 3197 1136
3 1136 3198 1137
3 1137 3199 1138
3 1138 3200 1139
3 1139 3201 1140
3 1140 3202 1141
3 1141 3203 1142
3 1142 3204 1143
3 1143 3205 1144
3 1144 3206 1145
3 1145 3207 1146
3 1146 3208 1147
3 1147 3209 1148
3 1148 3210 1149
3 1149 3211 1150
3 1150 3212 1151
3 1151 3213 1152
3 1152 3214 1153
3 1153 3215 1154
3 1154 3216 1155
3 1155 3217 1156
3 1156 3218 1157
3 1157 3219 1158
3 1158 3220 1159
3 1159 3221 1160
3 1160 3222 1161
3 1161 3223 1162
3 1162 3224 1163
3 1163 3225 1164
3 1164 3226 1165
3 1165 3227 1166
3 1166 3228 1167
3 1167 3229 1168
3 1168 3230 1169
3 1169 3231 1170
3 1170 3232 1171
3 1171 3233 1172
3 1172 3234 1173
3 1173 3235 1174
3 1174 3236 1175
3 1175 3237 1176
3 1176 3238 1177
3 1177 3239 1178
3 1178 3240 1179
3 1179 3241 1180
3 1180 3242 1181
3 1181 3243 1182
3 1182 3244 1183
3 1183 3245 1184
3 1184 3246 1185
3 1185 3247 1186
3 1186 3248 1187
3 1187 3249 1188
3 1188 3250 1189
3 1189 3251 1190
3 1190 3252 1191
3 1191 3253 1192
3 1192 3254 1193
3 1193 3255 1194
3 1194 3256 1195
3 1195 3257 1196
3 1196 3258 1197
3 1197 3259 1198
3 1198 3260 1199
3 1199 3261 1200
3 1200 3262 1201
3 1201 3263 1202
3 1202 3264 1203
3 1203 3265 1204
3 1204 3266 1205
3 1205 3267 1206
3 1206 3268 1207
3 1207 3269 1208
3 1208 3270 1209
3 1209 3271 1210
3 1210 3272 1211
3 1211 3273 1212
3 1212 3274 1213
3 1213 3275 1214
3 1214 3276 1215
3 1215 3277 1216
3 1216 3278 1217
3 1217 3279 1218
3 1218 3280 1219
3 1219 3281 1220
3 1220 3282 1221
3 1221 3283 1222
3 1222 3284 1223
3 1223 3285 1224
3 1224 3286 1225
3 1225 3287 1226
3 1226 3288 1227
3 1227 3289 1228
3 1228 3290 1229
3 1229 3291 1230
3 1230 3292 1231
3 1231 3293 1232
3 1232 3294 1233
3 1233 3295 1234
3 1234 3296 1235
3 1235 3297 1236
3 1236 3298 1237
3 1237 3299 1238
3 1238 3300 1239
3 1239 3301 1240
3 1240 3302 1241
3 1241 3303 1242
3 1242 3304 1243
3 1243 3305 1244
3 1244 3306 1245
3 1245 3307 1246
3 1246 3308 1247
3 1247 3309 1248
3 1248 3310 1249
3 1249 3311 1250
3 1250 3312 1251
3 1251 3313 1252
3 1252 3314 1253
3 1253 3315 1254
3 1254 3316 1255
3 1255 3317 1256
3 1256 3318 1257
3 1257 3319 1258
3 1258 3320 1259
3 1259 3321 1260
3 1260 3322 1261
3 1261 3323 1262
3 1262 3324 1263
3 1263 3325 1264
3 1264 3326 1265
3 1265 3327 1266
3 1266 3328 1267
3 1267 3329 1268
3 1268 3330 1269
4 1269 3331 3332 1270
3 1270 3333 1271
3 1271 3334 1272
3 1272 3335 1273
3 1273 3336 1274
3 1274 3337 1275
3 1275 3338 1276
3 1276 3339 1277
3 1277 3340 1278
3 1278 3341 1279
3 1279 3342 1280
3 1280 3343 1281
3 1281 3344 1282
3 1282 3345 1283
3 1283 3346 1284
3 1284 3347 2036
3 1285 3348 1286
3 1285 3349 2037
3 1286 3350 1287
3 1287 3351 1288
3 1288 3352 1289
3 1289 3353 1290
3 1290 3354 1291
3 1291 3355 1292
3 1292 3356 1293
4 1293 3357 3358 1294
3 1294 3359 1295
3 1295 3360 1296
3 1296 3361 1297
3 1297 3362 1298
3 1298 3363 1299
3 1299 3364 1300
3 1300 3365 1301
3 1301 3366 1302
3 1302 3367 1303
3 1303 3368 1304
3 1304 3369 1305
3 1305 3370 1306
3 1306 3371 1307
3 1307 3372 1308
3 1308 3373 1309
3 1309 3374 1310
3 1310 3375 1311
3 1311 3376 1312
4 1312 3377 3378 1313
3 1313 3379 1314
3 1314 3380 1315
4 1315 3381 3382 1316
3 1316 3383 1317
3 1317 3384 1318
3 1318 3385 1319
3 1319 3386 1320
3 1320 3387 1321
3 1321 3388 1322
4 1322 3389 3390 1323
3 1323 3391 1324
3 1324 3392 1325
3 1325 3393 1326
3 1326 3394 1327
3 1327 3395 1328
3 1328 3396 1329
3 1329 3397 1330
3 1330 3398 1331
3 1331 3399 1332
3 1332 3400 1333
3 1333 3401 1334
3 1334 3402 1335
3 1335 3403 1336
3 1336 3404 1337
3 1337 3405 1338
3 1338 3406 1339
3 1339 3407 1340
3 1340 3408 1341
3 1341 3409 1342
3 1342 3410 1343
3 1343 3411 1344
3 1344 3412 1345
3 1345 3413 1346
3 1346 3414 1347
3 1347 3415 1348
3 1348 3416 1349
3 1349 3417 1350
3 1350 3418 1351
3 1351 3419 1352
3 1352 3420 1353
3 1353 3421 1354
3 1354 3422 1355
3 1355 3423 1356
3 1356 3424 1357
3 1357 3425 1358
3 1358 3426 1359
3 1359 3427 1360
3 1360 3428 1361
3 1361 3429 1362
3 1362 3430 1363
3 1363 3431 1364
3 1364 3432 1365
3 1365 3433 1366
3 1366 3434 1367
3 1367 3435 1368
3 1368 3436 1369
3 1369 3437 1370
3 1370 3438 1371
3 1371 3439 1372
3 1372 3440 1373
3 1373 3441 1374
3 1374 3442 1375
3 1375 3443 1376
3 1376 3444 1377
3 1377 3445 1378
3 1378 3446 1379
3 1379 3447 1380
3 1380 3448 1381
3 1381 3449 1382
3 1382 3450 1383
3 1383 3451 1384
3 1384 3452 1385
3 1385 3453 1386
3 1386 3454 1387
3 1387 3455 1388
3 1388 3456 1389
3 1389 3457 1390
3 1390 3458 1391
3 1391 3459 1392
3 1392 3460 1393
3 1393 3461 1394
3 1394 3462 1395
3 1395 3463 1396
3 1396 3464 1397
3 1397 3465 1398
3 1398 3466 1399
3 1399 3467 1400
3 1400 3468 1401
3 1401 3469 1402
3 1402 3470 1403
3 1403 3471 1404
3 1404 3472 1405
3 1405 3473 1406
3 1406 3474 1407
3 1407 3475 1408
3 1408 3476 1409
3 1409 3477 1410
3 1410 3478 1411
3 1411 3479 1412
3 1412 3480 1413
3 1413 3481 1414
3 1414 3482 1415
3 1415 3483 1416
3 1416 3484 1417
3 1417 3485 1418
3 1418 3486 1419
3 1419 3487 1420
3 1420 3488 1421
3 1421 3489 1422
3 1422 3490 1423
3 1423 3491 1424
3 1424 3492 1425
3 1425 3493 1426
3 1426 3494 1427
3 1427 3495 1428
3 1428 3496 1429
3 1429 3497 1430
3 1430 3498 1431
3 1431 3499 1432
3 1432 3500 1433
3 1433 3501 1434
3 1434 3502 1435
3 1435 3503 1436
3 1436 3504 1437
3 1437 3505 1438
3 1438 3506 1439
3 1439 3507 1440
3 1440 3508 1441
3 1441 3509 1442
3 1442 3510 1443
3 1443 3511 1444
3 1444 3512 1445
3 1445 3513 1446
3 1446 3514 1447
3 1447 3515 1448
3 1448 3516 1449
3 1449 3517 1450
3 1450 3518 1451
3 1451 3519 1452
3 1452 3520 1453
3 1453 3521 1454
3 1454 3522 1455
3 1455 3523 1456
3 1456 3524 1457
3 1457 3525 1458
3 1458 3526 1459
3 1459 3527 1460
3 1460 3528 1461
3 1461 3529 1462
3 1462 3530 1463
3 1463 3531 1464
3 1464 3532 1465
3 1465 3533 1466
3 1466 3534 1467
3 1467 3535 1468
3 1468 3536 1469
3 1469 3537 1470
3 1470 3538 1471
3 1471 3539 1472
3 1472 3540 1473
3 1473 3541 1474
3 1474 3542 1475
3 1475 3543 1476
3 1476 3544 1477
3 1477 3545 1478
3 1478 3546 1479
3 1479 3547 1480
3 1480 3548 1481
3 1481 3549 1482
3 1482 3550 1483
3 1483 3551 1484
3 1484 3552 1485
3 1485 3553 1486
3 1486 3554 1487
3 1487 3555 1488
3 1488 3556 1489
3 1489 3557 1490
3 1490 3558 1491
3 1491 3559 1492
3 1492 3560 1493
3 1493 3561 1494
3 1494 3562 1495
3 1495 3563 1496
3 1496 3564 1497
3 1497 3565 1498
3 1498 3566 1499
3 1499 3567 1500
3 1500 3568 1501
3 1501 3569 1502
3 1502 3570 1503
3 1503 3571 1504
3 1504 3572 1505
3 1505 3573 1506
3 1506 3574 1507
3 1507 3575 1508
3 1508 3576 1509
3 1509 3577 1510
3 1510 3578 1511
3 1511 3579 1512
3 1512 3580 1513
3 1513 3581 1514
3 1514 3582 1515
3 1515 3583 1516
3 1516 3584 1517
3 1517 3585 1518
3 1518 3586 1519
3 1519 3587 1520
3 1520 3588 1521
3 1521 3589 1522
3 1522 3590 1523
3 1523 3591 1524
3 1524 3592 1525
3 1525 3593 1526
3 1526 3594 1527
3 1527 3595 1528
3 1528 3596 1529
3 1529 3597 1530
3 1532 3598 1533
3 1532 3599 2031
3 1533 3600 1534
3 1534 3601 1535
3 1535 3602 1536
3 1536 3603 1537
3 1537 3604 1538
3 1538 3605 1539
3 1539 3606 1540
3 1540 3607 1541
3 1541 3608 1542
3 1542 3609 1543
3 1543 3610 1544
3 1544 3611 1545
3 1545 3612 1546
3 1546 3613 1547
3 1547 3614 1548
3 1548 3615 1549
3 1549 3616 1550
3 1550 3617 1551
3 1551 3618 1552
3 1552 3619 1553
3 1553 3620 1554
3 1554 3621 1555
3 1555 3622 1556
3 1556 3623 1557
3 1557 3624 1558
3 1558 3625 1559
3 1559 3626 1560
3 1560 3627 1561
3 1561 3628 1562
3 1562 3629 1563
3 1563 3630 1564
3 1564 3631 1565
3 1565 3632 1566
3 1566 3633 1567
3 1567 3634 1568
3 1568 3635 1569
3 1569 3636 1570
3 1570 3637 1571
3 1571 3638 1572
3 1572 3639 1573
3 1573 3640 1574
3 1574 3641 1575
3 1575 3642 1576
3 1576 3643 1577
3 1577 3644 1578
3 1578 3645 1579
3 1579 3646 1580
3 1580 3647 1581
3 1581 3648 1582
3 1582 3649 1583
3 1583 3650 1584
3 1584 3651 1585
3 1585 3652 1586
3 1586 3653 1587
3 1587 3654 1588
3 1588 3655 1589
3 1589 3656 1590
3 1590 3657 1591
3 1591 3658 1592
3 1592 3659 1593
3 1593 3660 1594
3 1594 3661 1595
3 1595 3662 1596
3 1596 3663 1597
3 1597 3664 1598
3 1598 3665 1599
3 1599 3666 1600
3 1600 3667 1601
3 1601 3668 1602
3 1602 3669 1603
3 1603 3670 1604
3 1604 3671 1605
3 1605 3672 1606
3 1606 3673 1607
3 1607 3674 1608
3 1608 3675 1609
3 1609 3676 1610
3 1610 3677 1611
3 1611 3678 1612
3 1612 3679 1613
3 1613 3680 1614
3 1614 3681 1615
3 1615 3682 1616
3 1616 3683 1617
3 1617 3684 1618
3 1618 3685 1619
3 1619 3686 1620
3 1620 3687 1621
3 1621 3688 1622
3 1622 3689 1623
3 1623 3690 1624
3 1624 3691 1625
3 1625 3692 1626
3 1626 3693 1627
3 1627 3694 1628
3 1628 3695 1629
3 1629 3696 1630
3 1630 3697 1631
3 1631 3698 1632
3 1632 3699 1633
3 1633 3700 1634
3 1634 3701 1635
3 1635 3702 1636
3 1636 3703 1637
3 1637 3704 1638
3 1638 3705 1639
3 1639 3706 1640
3 1640 3707 1641
3 1641 3708 1642
3 1642 3709 1643
3 1643 3710 1644
3 1644 3711 1645
3 1645 3712 1646
3 1646 3713 1647
3 1647 3714 1648
3 1648 3715 1649
3 1649 3716 1650
3 1650 3717 1651
3 1651 3718 1652
3 1652 3719 1653
3 1653 3720 1654
3 1654 3721 1655
3 1655 3722 1656
3 1656 3723 1657
3 1657 3724 1658
3 1658 3725 1659
3 1659 3726 1660
3 1660 3727 1661
3 1661 3728 1662
3 1662 3729 1663
3 1663 3730 1664
3 1664 3731 1665
3 1665 3732 1666
3 1666 3733 1667
3 1667 3734 1668
3 1668 3735 1669
3 1669 3736 1670
3 1670 3737 1671
3 1671 3738 1672
3 1672 3739 1673
3 1673 3740 1674
3 1674 3741 1675
3 1675 3742 1676
3 1676 3743 1677
3 1677 3744 1678
3 1678 3745 1679
3 1679 3746 1680
3 1680 3747 1681
3 1681 3748 1682
3 1682 3749 1683
3 1683 3750 1684
3 1684 3751 1685
3 1685 3752 1686
3 1686 3753 1687
3 1687 3754 1688
3 1688 3755 1689
3 1689 3756 1690
3 1690 3757 1691
3 1691 3758 1692
3 1692 3759 1693
3 1693 3760 1694
3 1694 3761 1695
3 1695 3762 1696
3 1696 3763 1697
3 1697 3764 1698
3 1698 3765 1699
3 1699 3766 1700
3 1700 3767 1701
3 1701 3768 1702
3 1702 3769 1703
3 1703 3770 1704
3 1704 3771 1705
3 1705 3772 1706
3 1706 3773 1707
3 1707 3774 1708
3 1708 3775 1709
3 1709 3776 1710
3 1710 3777 1711
4 1711 3778 3779 1712
3 1712 3780 1713
3 1713 3781 1714
3 1714 3782 1715
3 1715 3783 1716
3 1716 3784 1717
3 1717 3785 1718
3 1718 3786 1719
3 1719 3787 1720
3 1720 3788 1721
3 1721 3789 1722
3 1722 3790 1723
3 1723 3791 1724
3 1724 3792 1725
3 1725 3793 1726
3 1726 3794 1727
3 1727 3795 1728
3 1728 3796 1729
3 1729 3797 1730
3 1730 3798 1731
3 1731 3799 1732
3 1732 3800 1733
3 1733 3801 1734
4 1734 3802 3803 1735
3 1735 3804 1736
3 1736 3805 1737
3 1737 3806 1738
3 1738 3807 1739
3 1739 3808 1740
3 1740 3809 1741
3 1741 3810 1742
3 1742 3811 1743
3 1743 3812 1744
3 1744 3813 1745
3 1745 3814 1746
3 1746 3815 1747
3 1747 3816 1748
3 1748 3817 1749
3 1749 3818 1750
3 1750 3819 1751
3 1751 3820 1752
3 1752 3821 1753
3 1753 3822 1754
3 1754 3823 1755
3 1755 3824 1756
3 1756 3825 1757
3 1757 3826 1758
3 1758 3827 1759
3 1759 3828 1760
3 1760 3829 1761
3 1761 3830 1762
3 1762 3831 1763
4 1763 3832 3833 1764
3 1764 3834 1765
3 1765 3835 1766
3 1766 3836 2038
3 1767 3837 1768
3 1767 3838 2039
3 1768 3839 1769
3 1769 3840 1770
4 1770 3841 3842 1771
3 1771 3843 1772
3 1772 3844 1773
3 1773 3845 1774
3 1774 3846 1775
3 1775 3847 1776
3 1776 3848 1777
3 1777 3849 1778
3 1778 3850 1779
3 1779 3851 1780
3 1780 3852 1781
3 1781 3853 1782
3 1782 3854 1783
3 1783 3855 1784
3 1784 3856 1785
3 1785 3857 1786
3 1786 3858 1787
3 1787 3859 1788
3 1788 3860 1789
3 1789 3861 1790
3 1790 3862 1791
3 1791 3863 1792
3 1792 3864 1793
3 1793 3865 1794
3 1794 3866 1795
3 1795 3867 1796
3 1796 3868 1797
3 1797 3869 1798
3 1798 3870 1799
3 1799 3871 1800
3 1800 3872 1801
3 1801 3873 1802
4 1802 3874 3875 1803
3 1803 3876 1804
3 1804 3877 1805
3 1805 3878 1806
3 1806 3879 1807
3 1807 3880 1808
3 1808 3881 1809
3 1809 3882 1810
3 1810 3883 1811
3 1811 3884 1812
3 1812 3885 1813
3 1813 3886 1814
3 1814 3887 1815
3 1815 3888 1816
3 1816 3889 1817
3 1817 3890 1818
3 1818 3891 1819
3 1819 3892 1820
3 1820 3893 1821
3 1821 3894 1822
3 1822 3895 1823
3 1823 3896 1824
3 1824 3897 1825
3 1825 3898 1826
3 1826 3899 1827
3 1827 3900 1828
3 1828 3901 1829
3 1829 3902 1830
3 1830 3903 1831
3 1831 3904 1832
3 1832 3905 1833
3 1833 3906 1834
3 1834 3907 1835
3 1835 3908 1836
3 1836 3909 1837
3 1837 3910 1838
3 1838 3911 1839
3 1839 3912 1840
4 1840 3913 3914 1841
3 1841 3915 1842
4 1842 3916 3917 1843
3 1843 3918 1844
3 1844 3919 1845
3 1845 3920 1846
3 1846 3921 1847
3 1847 3922 1848
3 1848 3923 1849
3 1849 3924 1850
3 1850 3925 1851
3 1851 3926 1852
3 1852 3927 1853
3 1853 3928 1854
3 1854 3929 1855
3 1855 3930 1856
3 1856 3931 1857
3 1857 3932 1858
3 1858 3933 1859
3 1859 3934 1860
3 1860 3935 1861
3 1861 3936 1862
3 1862 3937 1863
3 1863 3938 1864
3 1864 3939 1865
3 1865 3940 1866
3 1866 3941 1867
3 1867 3942 1868
3 1868 3943 1869
3 1869 3944 1870
3 1870 3945 1871
3 1871 3946 1872
3 1872 3947 1873
3 1873 3948 1874
3 1874 3949 1875
3 1875 3950 1876
3 1876 3951 1877
3 1877 3952 1878
3 1878 3953 1879
3 1879 3954 1880
3 1880 3955 1881
3 1881 3956 1882
3 1882 3957 1883
3 1883 3958 1884
3 1884 3959 1885
3 1885 3960 1886
3 1886 3961 1887
3 1887 3962 1888
3 1888 3963 1889
3 1889 3964 1890
3 1890 3965 1891
3 1891 3966 1892
3 1892 3967 1893
3 1893 3968 1894
3 1894 3969 1895
3 1895 3970 1896
3 1896 3971 1897
3 1897 3972 1898
3 1898 3973 1899
3 1899 3974 1900
3 1900 3975 1901
3 1901 3976 1902
3 1902 3977 1903
3 1903 3978 1904
3 1904 3979 1905
3 1905 3980 1906
3 1906 3981 1907
3 1907 3982 1908
3 1908 3983 1909
3 1909 3984 1910
3 1910 3985 1911
3 1911 3986 1912
3 1912 3987 1913
3 1913 3988 1914
3 1914 3989 1915
3 1915 3990 1916
3 1916 3991 1917
3 1917 3992 1918
3 1918 3993 1919
3 1919 3994 1920
3 1920 3995 1921
3 1921 3996 1922
3 1922 3997 1923
3 1923 3998 1924
3 1924 3999 1925
3 1925 4000 1926
3 1926 4001 1927
3 1927 4002 1928
3 1928 4003 1929
3 1929 4004 1930
3 1930 4005 1931
3 1931 4006 1932
3 1932 4007 1933
3 1933 4008 1934
3 1934 4009 1935
3 1935 4010 1936
3 1936 4011 1937
3 1937 4012 1938
3 1938 4013 1939
3 1939 4014 1940
3 1940 4015 1941
3 1941 4016 1942
3 1942 4017 1943
3 1943 4018 1944
3 1944 4019 1945
3 1945 4020 1946
3 1946 4021 1947
3 1947 4022 1948
3 1948 4023 1949
3 1949 4024 1950
3 1950 4025 1951
3 1951 4026 1952
3 1952 4027 1953
3 1953 4028 1954
3 1954 4029 1955
3 1955 4030 1956
3 1956 4031 1957
3 1957 4032 1958
3 1958 4033 1959
3 1959 4034 1960
3 1960 4035 1961
3 1961 4036 1962
3 1962 4037 1963
3 1963 4038 1964
3 1964 4039 1965
3 1965 4040 1966
3 1966 4041 1967
3 1967 4042 1968
3 1968 4043 1969
3 1969 4044 1970
3 1970 4045 1971
3 1971 4046 1972
3 1972 4047 1973
3 1973 4048 1974
3 1974 4049 1975
3 1975 4050 1976
3 1976 4051 1977
3 1977 4052 1978
3 1978 4053 1979
3 1979 4054 1980
3 1980 4055 1981
3 1981 4056 1982
3 1982 4057 1983
3 1983 4058 1984
3 1984 4059 1985
3 1985 4060 1986
3 1986 4061 1987
3 1987 4062 1988
3 1988 4063 1989
3 1989 4064 1990
3 1990 4065 1991
3 1991 4066 1992
3 1992 4067 1993
3 1993 4068 1994
3 1994 4069 1995
3 1995 4070 1996
3 1996 4071 1997
3 1997 4072 1998
3 1998 4073 1999
3 1999 4074 2000
3 2000 4075 2001
3 2001 4076 2002
3 2002 4077 2003
3 2003 4078 2004
3 2004 4079 2005
3 2005 4080 2006
3 2006 4081 2007
3 2007 4082 2008
3 2008 4083 2009
3 2009 4084 2010
3 2010 4085 2011
3 2011 4086 2012
3 2012 4087 2013
3 2013 4088 2014
3 2014 4089 2015
3 2015 4090 2016
3 2016 4091 2017
3 2017 4092 2018
3 2018 4093 2019
3 2019 4094 2020
4 2020 4095 4096 2021
3 2021 4097 2022
3 2022 4098 2023
3 2023 4099 2024
3 2024 4100 2025
3 2025 4101 2026
3 2026 4102 2027
4 2027 4103 4104 2028
3 2028 4105 2029
3 2029 4106 2030
3 2030 4107 2031

CELL_TYPES 2028
4
4
4
4
4
4
4
4
4
4
4
4
4
4
4
4
4
4
4
4
4
4
4
4
4
4
4
4
4
4
4
4
4
4
4
4
4
4
4
4
4
4
4
4
4
4
4
4
4
4
4
4
4
4
4
4
4
4
4
4
4
4
4
4
4
4
4
4
4
4
4
4
4
4
4
4
4
4
4
4
4
4
4
4
4
4
4
4
4
4
4
4
4
4
4
4
4
4
4
4
4
4
4
4
4
4
4
4
4
4
4
4
4
4
4
4
4
4
4
4
4
4
4
4
4
4
4
4
4
4
4
4
4
4
4
4
4
4
4
4
4
4
4
4
4
4
4
4
4
4
4
4
4
4
4
4
4
4
4
4
4
4
4
4
4
4
4
4
4
4
4
4
4
4
4
4
4
4
4
4
4
4
4
4
4
4
4
4
4
4
4
4
4
4
4
4
4
4
4
4
4
4
4
4
4
4
4
4
4
4
4
4
4
4
4
4
4
4
4
4
4
4
4
4
4
4
4
4
4
4
4
4
4
4
4
4
4
4
4
4
4
4
4
4
4
4
4
4
4
4
4
4
4
4
4
4
4
4
4
4
4
4
4
4
4
4
4
4
4
4
4
4
4
4
4
4
4
4
4
4
4
4
4
4
4
4
4
4
4
4
4
4
4
4
4
4
4
4
4
4
4
4
4
4
4
4
4
4
4
4
4
4
4
4
4
4
4
4
4
4
4
4
4
4
4
4
4
4
4
4
4
4
4
4
4
4
4
4
4
4
4
4
4
4
4
4
4
4
4
4
4
4
4
4
4
4
4
4
4
4
4
4
4
4
4
4
4
4
4
4
4
4
4
4
4
4
4
4
4
4
4
4
4
4
4
4
4
4
4
4
4
4
4
4
4
4
4
4
4
4
4
4
4
4
4
4
4
4
4
4
4
4
4
4
4
4
4
4
4
4
4
4
4
4
4
4
4
4
4
4
4
4
4
4
4
4
4
4
4
4
4
4
4
4
4
4
4
4
4
4
4
4
4
4
4
4
4
4
4
4
4
4
4
4
4
4
4
4
4
4
4
4
4
4
4
4
4
4
4
4
4
4
4
4
4
4
4
4
4
4
4
4
4
4
4
4
4
4
4
4
4
4
4
4
4
4
4
4
4
4
4
4
4
4
4
4
4
4
4
4
4
4
4
4
4
4
4
4
4
4
4
4
4
4
4
4
4
4
4
4
4
4
4
4
4
4
4
4
4
4
4
4
4
4
4
4
4
4
4
4
4
4
4
4
4
4
4
4
4
4
4
4
4
4
4
4
4
4
4
4
4
4
4
4
4
4
4
4
4
4
4
4
4
4
4
4
4
4
4
4
4
4
4
4
4
4
4
4
4
4
4
4
4
4
4
4
4
4
4
4
4
4
4
4
4
4
4
4
4
4
4
4
4
4
4
4
4
4
4
4
4
4
4
4
4
4
4
4
4
4
4
4
4
4
4
4
4
4
4
4
4
4
4
4
4
4
4
4
4
4
4
4
4
4
4
4
4
4
4
4
4
4
4
4
4
4
4
4
4
4
4
4
4
4
4
4
4
4
4
4
4
4
4
4
4
4
4
4
4
4
4
4
4
4
4
4
4
4
4
4
4
4
4
4
4
4
4
4
4
4
4
4
4
4
4
4
4
4
4
4
4
4
4
4
4
4
4
4
4
4
4
4
4
4
4
4
4
4
4
4
4
4
4
4
4
4
4
4
4
4
4
4
4
4
4
4
4
4
4
4
4
4
4
4
4
4
4
4
4
4
4
4
4
4
4
4
4
4
4
4
4
4
4
4
4
4
4
4
4
4
4
4
4
4
4
4
4
4
4
4
4
4
4
4
4
4
4
4
4
4
4
4
4
4
4
4
4
4
4
4
4
4
4
4
4
4
4
4
4
4
4
4
4
4
4
4
4
4
4
4
4
4
4
4
4
4
4
4
4
4
4
4
4
4
4
4
4
4
4
4
4
4
4
4
4
4
4
4
4
4
4
4
4
4
4
4
4
4
4
4
4
4
4
4
4
4
4
4
4
4
4
4
4
4
4
4
4
4
4
4
4
4
4
4
4
4
4
4
4
4
4
4
4
4
4
4
4
4
4
4
4
4
4
4
4
4
4
4
4
4
4
4
4
4
4
4
4
4
4
4
4
4
4
4
4
4
4
4
4
4
4
4
4
4
4
4
4
4
4
4
4
4
4
4
4
4
4
4
4
4
4
4
4
4
4
4
4
4
4
4
4
4
4
4
4
4
4
4
4
4
4
4
4
4
4
4
4
4
4
4
4
4
4
4
4
4
4
4
4
4
4
4
4
4
4
4
4
4
4
4
4
4
4
4
4
4
4
4
4
4
4
4
4
4
4
4
4
4
4
4
4
4
4
4
4
4
4
4
4
4
4
4
4
4
4
4
4
4
4
4
4
4
4
4
4
4
4
4
4
4
4
4
4
4
4
4
4
4
4
4
4
4
4
4
4
4
4
4
4
4
4
4
4
4
4
4
4
4
4
4
4
4
4
4
4
4
4
4
4
4
4
4
4
4
4
4
4
4
4
4
4
4
4
4
4
4
4
4
4
4
4
4
4
4
4
4
4
4
4
4
4
4
4
4
4
4
4
4
4
4
4
4
4
4
4
4
4
4
4
4
4
4
4
4
4
4
4
4
4
4
4
4
4
4
4
4
4
4
4
4
4
4
4
4
4
4
4
4
4
4
4
4
4
4
4
4
4
4
4
4
4
4
4
4
4
4
4
4
4
4
4
4
4
4
4
4
4
4
4
4
4
4
4
4
4
4
4
4
4
4
4
4
4
4
4
4
4
4
4
4
4
4
4
4
4
4
4
4
4
4
4
4
4
4
4
4
4
4
4
4
4
4
4
4
4
4
4
4
4
4
4
4
4
4
4
4
4
4
4
4
4
4
4
4
4
4
4
4
4
4
4
4
4
4
4
4
4
4
4
4
4
4
4
4
4
4
4
4
4
4
4
4
4
4
4
4
4
4
4
4
4
4
4
4
4
4
4
4
4
4
4
4
4
4
4
4
4
4
4
4
4
4
4
4
4
4
4
4
4
4
4
4
4
4
4
4
4
4
4
4
4
4
4
4
4
4
4
4
4
4
4
4
4
4
4
4
4
4
4
4
4
4
4
4
4
4
4
4
4
4
4
4
4
4
4
4
4
4
4
4
4
4
4
4
4
4
4
4
4
4
4
4
4
4
4
4
4
4
4
4
4
4
4
4
4
4
4
4
4
4
4
4
4
4
4
4
4
4
4
4
4
4
4
4
4
4
4
4
4
4
4
4
4
4
4
4
4
4
4
4
4
4
4
4
4
4
4
4
4
4
4
4
4
4
4
4
4
4
4
4
4
4
4
4
4
4
4
4
4
4
4
4
4
4
4
4
4
4
4
4
4
4
4
4
4
4
4
4
4
4
4
4
4
4
4
4
4
4
4
4
4
4
4
4
4
4
4
4
4
4
4
4
4
4
4
4
4
4
4
4
4
4
4
4
4
4
4
4
4
4
4
4
4
4
4
4
4
4
4
4
4
4
4
4
4
4
4
4
4
4
4
4
4
4
4
4
4
4
4
4
4
4
4
4
4
4
4
4
4
4
4
4
4
4
4
4
4
4
4
4
4
4
4
4
4
4
4
4
4
4
4
4
4
4
4
4
4
4
4
4
4
4
4
4
4
4
4
4
4
4
4
4
4
4
4
4
4
4
4
4
4
4
4
4
4
4
4
4
4
4
4
4
4
4
4
4
4
4
4
4
4
4
4
4
4
4
4
4
4
4
4
4
4
4
4
4
4
4
4
4
4
4
4
4
4
4
4
4
4
4
4
4
4
4
4
4
4
4
4
4
4
4
4
4
4
4
4
4
4
4
4
4
4
4
4
4
4
4
4
4
4
4
4
4
4
4
4
4
4
4
4
4
4
4
4
4
4
4
4
4
4
4
4
4
4
4
4
4
4
4
4
4
4
4
4
4
4
4
4
4
4
4
4
4
4
4
4
4
4
4
4
4
4
4
4
4
4
4
4
4
4
4
4
4
4
4
4
4
4
4
4
4
4
4
4
4
4
4
4
4
4
4
4
4
4
4
4
4
4
4
4
4
4
4
4
4
4
4
4
4
4
4
4
4
4
4
4
4
4
4
4
4
4
4
4
4
4
4
4
4
4
4
4
4
4
4
4
4
4
4
4
4
4
4
4
4
4
4
4
4
4
4
4
4
4
4
4
4
4
4
4
4
4
4
4
4
4
4
4
4
4
4
4
4
4
4
4
4
4
4
4
4
4
4
4
4
4
4
4
4
4
4
4
4
4
4
4
4
4
4
4
4
4
4
4
4
4
4
4
4
4
4
4
4
4
4
4
4
4
4
4
4
4
4
4
4
4
4
4
4
4
4
4
4
4
4
4
4
4
4
4
4
4
4
4
4
4
4
4
4
4
4
4
4
4
4
4
4
4
4
4
4
4
4
4
4
4
4
4
4
4
4
4
4
4
4
4
4
4
4
4
4
4
4
4
4
4
4
4
4
4
4
4
4
4
4
4
4

POINT_DATA 4108
VECTORS PK_force double
0.000000000000000e+00 0.000000000000000e+00 0.000000000000000e+00
0.000000000000000e+00 0.000000000000000e+00 0.000000000000000e+00
0.000000000000000e+00 0.000000000000000e+00 0.000000000000000e+00
0.000000000000000e+00 0.000000000000000e+00 0.000000000000000e+00
0.000000000000000e+00 0.000000000000000e+00 0.000000000000000e+00
0.000000000000000e+00 0.000000000000000e+00 0.000000000000000e+00
0.000000000000000e+00 0.000000000000000e+00 0.000000000000000e+00
0.000000000000000e+00 0.000000000000000e+00 0.000000000000000e+00
0.000000000000000e+00 0.000000000000000e+00 0.000000000000000e+00
0.000000000000000e+00 0.000000000000000e+00 0.000000000000000e+00
0.000000000000000e+00 0.000000000000000e+00 0.000000000000000e+00
0.000000000000000e+00 0.000000000000000e+00 0.000000000000000e+00
0.000000000000000e+00 0.000000000000000e+00 0.000000000000000e+00
0.000000000000000e+00 0.000000000000000e+00 0.000000000000000e+00
0.000000000000000e+00 0.000000000000000e+00 0.000000000000000e+00
0.000000000000000e+00 0.000000000000000e+00 0.000000000000000e+00
0.000000000000000e+00 0.000000000000000e+00 0.000000000000000e+00
0.000000000000000e+00 0.000000000000000e+00 0.000000000000000e+00
0.000000000000000e+00 0.000000000000000e+00 0.000000000000000e+00
0.000000000000000e+00 0.000000000000000e+00 0.000000000000000e+00
0.000000000000000e+00 0.000000000000000e+00 0.000000000000000e+00
0.000000000000000e+00 0.000000000000000e+00 0.000000000000000e+00
0.000000000000000e+00 0.000000000000000e+00 0.000000000000000e+00
0.000000000000000e+00 0.000000000000000e+00 0.000000000000000e+00
0.000000000000000e+00 0.000000000000000e+00 0.000000000000000e+00
0.000000000000000e+00 0.000000000000000e+00 0.000000000000000e+00
0.000000000000000e+00 0.000000000000000e+00 0.000000000000000e+00
0.000000000000000e+00 0.000000000000000e+00 0.000000000000000e+00
0.000000000000000e+00 0.000000000000000e+00 0.000000000000000e+00
0.000000000000000e+00 0.000000000000000e+00 0.000000000000000e+00
0.000000000000000e+00 0.000000000000000e+00 0.000000000000000e+00
0.000000000000000e+00 0.000000000000000e+00 0.000000000000000e+00
0.000000000000000e+00 0.000000000000000e+00 0.000000000000000e+00
0.000000000000000e+00 0.000000000000000e+00 0.000000000000000e+00
0.000000000000000e+00 0.000000000000000e+00 0.000000000000000e+00
0.000000000000000e+00 0.000000000000000e+00 0.000000000000000e+00
0.000000000000000e+00 0.000000000000000e+00 0.000000000000000e+00
0.000000000000000e+00 0.000000000000000e+00 0.000000000000000e+00
0.000000000000000e+00 0.000000000000000e+00 0.000000000000000e+00
0.000000000000000e+00 0.000000000000000e+00 0.000000000000000e+00
0.000000000000000e+00 0.000000000000000e+00 0.000000000000000e+00
0.000000000000000e+00 0.000000000000000e+00 0.000000000000000e+00
0.000000000000000e+00 0.000000000000000e+00 0.000000000000000e+00
0.000000000000000e+00 0.000000000000000e+00 0.000000000000000e+00
0.000000000000000e+00 0.000000000000000e+00 0.000000000000000e+00
0.000000000000000e+00 0.000000000000000e+00 0.000000000000000e+00
0.000000000000000e+00 0.000000000000000e+00 0.000000000000000e+00
0.000000000000000e+00 0.000000000000000e+00 0.000000000000000e+00
0.000000000000000e+00 0.000000000000000e+00 0.000000000000000e+00
0.000000000000000e+00 0.000000000000000e+00 0.000000000000000e+00
0.000000000000000e+00 0.000000000000000e+00 0.000000000000000e+00
0.000000000000000e+00 0.000000000000000e+00 0.000000000000000e+00
0.000000000000000e+00 0.000000000000000e+00 0.000000000000000e+00
0.000000000000000e+00 0.000000000000000e+00 0.000000000000000e+00
0.000000000000000e+00 0.000000000000000e+00 0.000000000000000e+00
0.000000000000000e+00 0.000000000000000e+00 0.000000000000000e+00
0.000000000000000e+00 0.000000000000000e+00 0.000000000000000e+00
0.000000000000000e+00 0.000000000000000e+00 0.000000000000000e+00
0.000000000000000e+00 0.000000000000000e+00 0.000000000000000e+00
0.000000000000000e+00 0.000000000000000e+00 0.000000000000000e+00
0.000000000000000e+00 0.000000000000000e+00 0.000000000000000e+00
0.000000000000000e+00 0.000000000000000e+00 0.000000000000000e+00
0.000000000000000e+00 0.000000000000000e+00 0.000000000000000e+00
0.000000000000000e+00 0.000000000000000e+00 0.000000000000000e+00
0.000000000000000e+00 0.000000000000000e+00 0.000000000000000e+00
0.000000000000000e+00 0.000000000000000e+00 0.000000000000000e+00
0.000000000000000e+00 0.000000000000000e+00 0.000000000000000e+00
0.000000000000000e+00 0.000000000000000e+00 0.000000000000000e+00
0.000000000000000e+00 0.000000000000000e+00 0.000000000000000e+00
0.000000000000000e+00 0.000000000000000e+00 0.000000000000000e+00
0.000000000000000e+00 0.000000000000000e+00 0.000000000000000e+00
0.000000000000000e+00 0.000000000000000e+00 0.000000000000000e+00
0.000000000000000e+00 0.000000000000000e+00 0.000000000000000e+00
0.000000000000000e+00 0.000000000000000e+00 0.000000000000000e+00
0.000000000000000e+00 0.000000000000000e+00 0.000000000000000e+00
0.000000000000000e+00 0.000000000000000e+00 0.000000000000000e+00
0.000000000000000e+00 0.000000000000000e+00 0.000000000000000e+00
0.000000000000000e+00 0.000000000000000e+00 0.000000000000000e+00
0.000000000000000e+00 0.000000000000000e+00 0.000000000000000e+00
0.000000000000000e+00 0.000000000000000e+00 0.000000000000000e+00
0.000000000000000e+00 0.000000000000000e+00 0.000000000000000e+00
0.000000000000000e+00 0.000000000000000e+00 0.000000000000000e+00
0.000000000000000e+00 0.000000000000000e+00 0.000000000000000e+00
0.000000000000000e+00 0.000000000000000e+00 0.000000000000000e+00
0.000000000000000e+00 0.000000000000000e+00 0.000000000000000e+00
0.000000000000000e+00 0.000000000000000e+00 0.000000000000000e+00
0.000000000000000e+00 0.000000000000000e+00 0.000000000000000e+00
0.000000000000000e+00 0.000000000000000e+00 0.000000000000000e+00
0.000000000000000e+00 0.000000000000000e+00 0.000000000000000e+00
0.000000000000000e+00 0.000000000000000e+00 0.000000000000000e+00
0.000000000000000e+00 0.000000000000000e+00 0.000000000000000e+00
0.000000000000000e+00 0.000000000000000e+00 0.000000000000000e+00
0.000000000000000e+00 0.000000000000000e+00 0.000000000000000e+00
0.000000000000000e+00 0.000000000000000e+00 0.000000000000000e+00
0.000000000000000e+00 0.000000000000000e+00 0.000000000000000e+00
0.000000000000000e+00 0.000000000000000e+00 0.000000000000000e+00
0.000000000000000e+00 0.000000000000000e+00 0.000000000000000e+00
0.000000000000000e+00 0.000000000000000e+00 0.000000000000000e+00
0.000000000000000e+00 0.000000000000000e+00 0.000000000000000e+00
0.000000000000000e+00 0.000000000000000e+00 0.000000000000000e+00
0.000000000000000e+00 0.000000000000000e+00 0.000000000000000e+00
0.000000000000000e+00 0.000000000000000e+00 0.000000000000000e+00
0.000000000000000e+00 0.000000000000000e+00 0.000000000000000e+00
0.000000000000000e+00 0.000000000000000e+00 0.000000000000000e+00
0.000000000000000e+00 0.000000000000000e+00 0.000000000000000e+00
0.000000000000000e+00 0.000000000000000e+00 0.000000000000000e+00
0.000000000000000e+00 0.000000000000000e+00 0.000000000000000e+00
0.000000000000000e+00 0.000000000000000e+00 0.000000000000000e+00
0.000000000000000e+00 0.000000000000000e+00 0.000000000000000e+00
0.000000000000000e+00 0.000000000000000e+00 0.000000000000000e+00
0.000000000000000e+00 0.000000000000000e+00 0.000000000000000e+00
0.000000000000000e+00 0.000000000000000e+00 0.000000000000000e+00
0.000000000000000e+00 0.000000000000000e+00 0.000000000000000e+00
0.000000000000000e+00 0.000000000000000e+00 0.000000000000000e+00
0.000000000000000e+00 0.000000000000000e+00 0.000000000000000e+00
0.000000000000000e+00 0.000000000000000e+00 0.000000000000000e+00
0.000000000000000e+00 0.000000000000000e+00 0.000000000000000e+00
0.000000000000000e+00 0.000000000000000e+00 0.000000000000000e+00
0.000000000000000e+00 0.000000000000000e+00 0.000000000000000e+00
0.000000000000000e+00 0.000000000000000e+00 0.000000000000000e+00
0.000000000000000e+00 0.000000000000000e+00 0.000000000000000e+00
0.000000000000000e+00 0.000000000000000e+00 0.000000000000000e+00
0.000000000000000e+00 0.000000000000000e+00 0.000000000000000e+00
0.000000000000000e+00 0.000000000000000e+00 0.000000000000000e+00
0.000000000000000e+00 0.000000000000000e+00 0.000000000000000e+00
0.000000000000000e+00 0.000000000000000e+00 0.000000000000000e+00
0.000000000000000e+00 0.000000000000000e+00 0.000000000000000e+00
0.000000000000000e+00 0.000000000000000e+00 0.000000000000000e+00
0.000000000000000e+00 0.000000000000000e+00 0.000000000000000e+00
0.000000000000000e+00 0.000000000000000e+00 0.000000000000000e+00
0.000000000000000e+00 0.000000000000000e+00 0.000000000000000e+00
0.000000000000000e+00 0.000000000000000e+00 0.000000000000000e+00
0.000000000000000e+00 0.000000000000000e+00 0.000000000000000e+00
0.000000000000000e+00 0.000000000000000e+00 0.000000000000000e+00
0.000000000000000e+00 0.000000000000000e+00 0.000000000000000e+00
0.000000000000000e+00 0.000000000000000e+00 0.000000000000000e+00
0.000000000000000e+00 0.000000000000000e+00 0.000000000000000e+00
0.000000000000000e+00 0.000000000000000e+00 0.000000000000000e+00
0.000000000000000e+00 0.000000000000000e+00 0.000000000000000e+00
0.000000000000000e+00 0.000000000000000e+00 0.000000000000000e+00
0.000000000000000e+00 0.000000000000000e+00 0.000000000000000e+00
0.000000000000000e+00 0.000000000000000e+00 0.000000000000000e+00
0.000000000000000e+00 0.000000000000000e+00 0.000000000000000e+00
0.000000000000000e+00 0.000000000000000e+00 0.000000000000000e+00
0.000000000000000e+00 0.000000000000000e+00 0.000000000000000e+00
0.000000000000000e+00 0.000000000000000e+00 0.000000000000000e+00
0.000000000000000e+00 0.000000000000000e+00 0.000000000000000e+00
0.000000000000000e+00 0.000000000000000e+00 0.000000000000000e+00
0.000000000000000e+00 0.000000000000000e+00 0.000000000000000e+00
0.000000000000000e+00 0.000000000000000e+00 0.000000000000000e+00
0.000000000000000e+00 0.000000000000000e+00 0.000000000000000e+00
0.000000000000000e+00 0.000000000000000e+00 0.000000000000000e+00
0.000000000000000e+00 0.000000000000000e+00 0.000000000000000e+00
0.000000000000000e+00 0.000000000000000e+00 0.000000000000000e+00
0.000000000000000e+00 0.000000000000000e+00 0.000000000000000e+00
0.000000000000000e+00 0.000000000000000e+00 0.000000000000000e+00
0.000000000000000e+00 0.000000000000000e+00 0.000000000000000e+00
0.000000000000000e+00 0.000000000000000e+00 0.000000000000000e+00
0.000000000000000e+00 0.000000000000000e+00 0.000000000000000e+00
0.000000000000000e+00 0.000000000000000e+00 0.000000000000000e+00
0.000000000000000e+00 0.000000000000000e+00 0.000000000000000e+00
0.000000000000000e+00 0.000000000000000e+00 0.000000000000000e+00
0.000000000000000e+00 0.000000000000000e+00 0.000000000000000e+00
0.000000000000000e+00 0.000000000000000e+00 0.000000000000000e+00
0.000000000000000e+00 0.000000000000000e+00 0.000000000000000e+00
0.000000000000000e+00 0.000000000000000e+00 0.000000000000000e+00
0.000000000000000e+00 0.000000000000000e+00 0.000000000000000e+00
0.000000000000000e+00 0.000000000000000e+00 0.000000000000000e+00
0.000000000000000e+00 0.000000000000000e+00 0.000000000000000e+00
0.000000000000000e+00 0.000000000000000e+00 0.000000000000000e+00
0.000000000000000e+00 0.000000000000000e+00 0.000000000000000e+00
0.000000000000000e+00 0.000000000000000e+00 0.000000000000000e+00
0.000000000000000e+00 0.000000000000000e+00 0.000000000000000e+00
0.000000000000000e+00 0.000000000000000e+00 0.000000000000000e+00
0.000000000000000e+00 0.000000000000000e+00 0.000000000000000e+00
0.000000000000000e+00 0.000000000000000e+00 0.000000000000000e+00
0.000000000000000e+00 0.000000000000000e+00 0.000000000000000e+00
0.000000000000000e+00 0.000000000000000e+00 0.000000000000000e+00
0.000000000000000e+00 0.000000000000000e+00 0.000000000000000e+00
0.000000000000000e+00 0.000000000000000e+00 0.000000000000000e+00
0.000000000000000e+00 0.000000000000000e+00 0.000000000000000e+00
0.000000000000000e+00 0.000000000000000e+00 0.000000000000000e+00
0.000000000000000e+00 0.000000000000000e+00 0.000000000000000e+00
0.000000000000000e+00 0.000000000000000e+00 0.000000000000000e+00
0.000000000000000e+00 0.000000000000000e+00 0.000000000000000e+00
0.000000000000000e+00 0.000000000000000e+00 0.000000000000000e+00
0.000000000000000e+00 0.000000000000000e+00 0.000000000000000e+00
0.000000000000000e+00 0.000000000000000e+00 0.000000000000000e+00
0.000000000000000e+00 0.000000000000000e+00 0.000000000000000e+00
0.000000000000000e+00 0.000000000000000e+00 0.000000000000000e+00
0.000000000000000e+00 0.000000000000000e+00 0.000000000000000e+00
0.000000000000000e+00 0.000000000000000e+00 0.000000000000000e+00
0.000000000000000e+00 0.000000000000000e+00 0.000000000000000e+00
0.000000000000000e+00 0.000000000000000e+00 0.000000000000000e+00
0.000000000000000e+00 0.000000000000000e+00 0.000000000000000e+00
0.000000000000000e+00 0.000000000000000e+00 0.000000000000000e+00
0.000000000000000e+00 0.000000000000000e+00 0.000000000000000e+00
0.000000000000000e+00 0.000000000000000e+00 0.000000000000000e+00
0.000000000000000e+00 0.000000000000000e+00 0.000000000000000e+00
0.000000000000000e+00 0.000000000000000e+00 0.000000000000000e+00
0.000000000000000e+00 0.000000000000000e+00 0.000000000000000e+00
0.000000000000000e+00 0.000000000000000e+00 0.000000000000000e+00
0.000000000000000e+00 0.000000000000000e+00 0.000000000000000e+00
0.000000000000000e+00 0.000000000000000e+00 0.000000000000000e+00
0.000000000000000e+00 0.000000000000000e+00 0.000000000000000e+00
0.000000000000000e+00 0.000000000000000e+00 0.000000000000000e+00
0.000000000000000e+00 0.000000000000000e+00 0.000000000000000e+00
0.000000000000000e+00 0.000000000000000e+00 0.000000000000000e+00
0.000000000000000e+00 0.000000000000000e+00 0.000000000000000e+00
0.000000000000000e+00 0.000000000000000e+00 0.000000000000000e+00
0.000000000000000e+00 0.000000000000000e+00 0.000000000000000e+00
0.000000000000000e+00 0.000000000000000e+00 0.000000000000000e+00
0.000000000000000e+00 0.000000000000000e+00 0.000000000000000e+00
0.000000000000000e+00 0.000000000000000e+00 0.000000000000000e+00
0.000000000000000e+00 0.000000000000000e+00 0.000000000000000e+00
0.000000000000000e+00 0.000000000000000e+00 0.000000000000000e+00
0.000000000000000e+00 0.000000000000000e+00 0.000000000000000e+00
0.000000000000000e+00 0.000000000000000e+00 0.000000000000000e+00
0.000000000000000e+00 0.000000000000000e+00 0.000000000000000e+00
0.000000000000000e+00 0.000000000000000e+00 0.000000000000000e+00
0.000000000000000e+00 0.000000000000000e+00 0.000000000000000e+00
0.000000000000000e+00 0.000000000000000e+00 0.000000000000000e+00
0.000000000000000e+00 0.000000000000000e+00 0.000000000000000e+00
0.000000000000000e+00 0.000000000000000e+00 0.000000000000000e+00
0.000000000000000e+00 0.000000000000000e+00 0.000000000000000e+00
0.000000000000000e+00 0.000000000000000e+00 0.000000000000000e+00
0.000000000000000e+00 0.000000000000000e+00 0.000000000000000e+00
0.000000000000000e+00 0.000000000000000e+00 0.000000000000000e+00
0.000000000000000e+00 0.000000000000000e+00 0.000000000000000e+00
0.000000000000000e+00 0.000000000000000e+00 0.000000000000000e+00
0.000000000000000e+00 0.000000000000000e+00 0.000000000000000e+00
0.000000000000000e+00 0.000000000000000e+00 0.000000000000000e+00
0.000000000000000e+00 0.000000000000000e+00 0.000000000000000e+00
0.000000000000000e+00 0.000000000000000e+00 0.000000000000000e+00
0.000000000000000e+00 0.000000000000000e+00 0.000000000000000e+00
0.000000000000000e+00 0.000000000000000e+00 0.000000000000000e+00
0.000000000000000e+00 0.000000000000000e+00 0.000000000000000e+00
0.000000000000000e+00 0.000000000000000e+00 0.000000000000000e+00
0.000000000000000e+00 0.000000000000000e+00 0.000000000000000e+00
0.000000000000000e+00 0.000000000000000e+00 0.000000000000000e+00
0.000000000000000e+00 0.000000000000000e+00 0.000000000000000e+00
0.000000000000000e+00 0.000000000000000e+00 0.000000000000000e+00
0.000000000000000e+00 0.000000000000000e+00 0.000000000000000e+00
0.000000000000000e+00 0.000000000000000e+00 0.000000000000000e+00
0.000000000000000e+00 0.000000000000000e+00 0.000000000000000e+00
0.000000000000000e+00 0.000000000000000e+00 0.000000000000000e+00
0.000000000000000e+00 0.000000000000000e+00 0.000000000000000e+00
0.000000000000000e+00 0.000000000000000e+00 0.000000000000000e+00
0.000000000000000e+00 0.000000000000000e+00 0.000000000000000e+00
0.000000000000000e+00 0.000000000000000e+00 0.000000000000000e+00
0.000000000000000e+00 0.000000000000000e+00 0.000000000000000e+00
0.000000000000000e+00 0.000000000000000e+00 0.000000000000000e+00
0.000000000000000e+00 0.000000000000000e+00 0.000000000000000e+00
0.000000000000000e+00 0.000000000000000e+00 0.000000000000000e+00
0.000000000000000e+00 0.000000000000000e+00 0.000000000000000e+00
0.000000000000000e+00 0.000000000000000e+00 0.000000000000000e+00
0.000000000000000e+00 0.000000000000000e+00 0.000000000000000e+00
0.000000000000000e+00 0.000000000000000e+00 0.000000000000000e+00
0.000000000000000e+00 0.000000000000000e+00 0.000000000000000e+00
0.000000000000000e+00 0.000000000000000e+00 0.000000000000000e+00
0.000000000000000e+00 0.000000000000000e+00 0.000000000000000e+00
0.000000000000000e+00 0.000000000000000e+00 0.000000000000000e+00
0.000000000000000e+00 0.000000000000000e+00 0.000000000000000e+00
0.000000000000000e+00 0.000000000000000e+00 0.000000000000000e+00
0.000000000000000e+00 0.000000000000000e+00 0.000000000000000e+00
0.000000000000000e+00 0.000000000000000e+00 0.000000000000000e+00
0.000000000000000e+00 0.000000000000000e+00 0.000000000000000e+00
0.000000000000000e+00 0.000000000000000e+00 0.000000000000000e+00
0.000000000000000e+00 0.000000000000000e+00 0.000000000000000e+00
0.000000000000000e+00 0.000000000000000e+00 0.000000000000000e+00
0.000000000000000e+00 0.000000000000000e+00 0.000000000000000e+00
0.000000000000000e+00 0.000000000000000e+00 0.000000000000000e+00
0.000000000000000e+00 0.000000000000000e+00 0.000000000000000e+00
0.000000000000000e+00 0.000000000000000e+00 0.000000000000000e+00
0.000000000000000e+00 0.000000000000000e+00 0.000000000000000e+00
0.000000000000000e+00 0.000000000000000e+00 0.000000000000000e+00
0.000000000000000e+00 0.000000000000000e+00 0.000000000000000e+00
0.000000000000000e+00 0.000000000000000e+00 0.000000000000000e+00
0.000000000000000e+00 0.000000000000000e+00 0.000000000000000e+00
0.000000000000000e+00 0.000000000000000e+00 0.000000000000000e+00
0.000000000000000e+00 0.000000000000000e+00 0.000000000000000e+00
0.000000000000000e+00 0.000000000000000e+00 0.000000000000000e+00
0.000000000000000e+00 0.000000000000000e+00 0.000000000000000e+00
0.000000000000000e+00 0.000000000000000e+00 0.000000000000000e+00
0.000000000000000e+00 0.000000000000000e+00 0.000000000000000e+00
0.000000000000000e+00 0.000000000000000e+00 0.000000000000000e+00
0.000000000000000e+00 0.000000000000000e+00 0.000000000000000e+00
0.000000000000000e+00 0.000000000000000e+00 0.000000000000000e+00
0.000000000000000e+00 0.000000000000000e+00 0.000000000000000e+00
0.000000000000000e+00 0.000000000000000e+00 0.000000000000000e+00
0.000000000000000e+00 0.000000000000000e+00 0.000000000000000e+00
0.000000000000000e+00 0.000000000000000e+00 0.000000000000000e+00
0.000000000000000e+00 0.000000000000000e+00 0.000000000000000e+00
0.000000000000000e+00 0.000000000000000e+00 0.000000000000000e+00
0.000000000000000e+00 0.000000000000000e+00 0.000000000000000e+00
0.000000000000000e+00 0.000000000000000e+00 0.000000000000000e+00
0.000000000000000e+00 0.000000000000000e+00 0.000000000000000e+00
0.000000000000000e+00 0.000000000000000e+00 0.000000000000000e+00
0.000000000000000e+00 0.000000000000000e+00 0.000000000000000e+00
0.000000000000000e+00 0.000000000000000e+00 0.000000000000000e+00
0.000000000000000e+00 0.000000000000000e+00 0.000000000000000e+00
0.000000000000000e+00 0.000000000000000e+00 0.000000000000000e+00
0.000000000000000e+00 0.000000000000000e+00 0.000000000000000e+00
0.000000000000000e+00 0.000000000000000e+00 0.000000000000000e+00
0.000000000000000e+00 0.000000000000000e+00 0.000000000000000e+00
0.000000000000000e+00 0.000000000000000e+00 0.000000000000000e+00
0.000000000000000e+00 0.000000000000000e+00 0.000000000000000e+00
0.000000000000000e+00 0.000000000000000e+00 0.000000000000000e+00
0.000000000000000e+00 0.000000000000000e+00 0.000000000000000e+00
0.000000000000000e+00 0.000000000000000e+00 0.000000000000000e+00
0.000000000000000e+00 0.000000000000000e+00 0.000000000000000e+00
0.000000000000000e+00 0.000000000000000e+00 0.000000000000000e+00
0.000000000000000e+00 0.000000000000000e+00 0.000000000000000e+00
0.000000000000000e+00 0.000000000000000e+00 0.000000000000000e+00
0.000000000000000e+00 0.000000000000000e+00 0.000000000000000e+00
0.000000000000000e+00 0.000000000000000e+00 0.000000000000000e+00
0.000000000000000e+00 0.000000000000000e+00 0.000000000000000e+00
0.000000000000000e+00 0.000000000000000e+00 0.000000000000000e+00
0.000000000000000e+00 0.000000000000000e+00 0.000000000000000e+00
0.000000000000000e+00 0.000000000000000e+00 0.000000000000000e+00
0.000000000000000e+00 0.000000000000000e+00 0.000000000000000e+00
0.000000000000000e+00 0.000000000000000e+00 0.000000000000000e+00
0.000000000000000e+00 0.000000000000000e+00 0.000000000000000e+00
0.000000000000000e+00 0.000000000000000e+00 0.000000000000000e+00
0.000000000000000e+00 0.000000000000000e+00 0.000000000000000e+00
0.000000000000000e+00 0.000000000000000e+00 0.000000000000000e+00
0.000000000000000e+00 0.000000000000000e+00 0.000000000000000e+00
0.000000000000000e+00 0.000000000000000e+00 0.000000000000000e+00
0.000000000000000e+00 0.000000000000000e+00 0.000000000000000e+00
0.000000000000000e+00 0.000000000000000e+00 0.000000000000000e+00
0.000000000000000e+00 0.000000000000000e+00 0.000000000000000e+00
0.000000000000000e+00 0.000000000000000e+00 0.000000000000000e+00
0.000000000000000e+00 0.000000000000000e+00 0.000000000000000e+00
0.000000000000000e+00 0.000000000000000e+00 0.000000000000000e+00
0.000000000000000e+00 0.000000000000000e+00 0.000000000000000e+00
0.000000000000000e+00 0.000000000000000e+00 0.000000000000000e+00
0.000000000000000e+00 0.000000000000000e+00 0.000000000000000e+00
0.000000000000000e+00 0.000000000000000e+00 0.000000000000000e+00
0.000000000000000e+00 0.000000000000000e+00 0.000000000000000e+00
0.000000000000000e+00 0.000000000000000e+00 0.000000000000000e+00
0.000000000000000e+00 0.000000000000000e+00 0.000000000000000e+00
0.000000000000000e+00 0.000000000000000e+00 0.000000000000000e+00
0.000000000000000e+00 0.000000000000000e+00 0.000000000000000e+00
0.000000000000000e+00 0.000000000000000e+00 0.000000000000000e+00
0.000000000000000e+00 0.000000000000000e+00 0.000000000000000e+00
0.000000000000000e+00 0.000000000000000e+00 0.000000000000000e+00
0.000000000000000e+00 0.000000000000000e+00 0.000000000000000e+00
0.000000000000000e+00 0.000000000000000e+00 0.000000000000000e+00
0.000000000000000e+00 0.000000000000000e+00 0.000000000000000e+00
0.000000000000000e+00 0.000000000000000e+00 0.000000000000000e+00
0.000000000000000e+00 0.000000000000000e+00 0.000000000000000e+00
0.000000000000000e+00 0.000000000000000e+00 0.000000000000000e+00
0.000000000000000e+00 0.000000000000000e+00 0.000000000000000e+00
0.000000000000000e+00 0.000000000000000e+00 0.000000000000000e+00
0.000000000000000e+00 0.000000000000000e+00 0.000000000000000e+00
0.000000000000000e+00 0.000000000000000e+00 0.000000000000000e+00
0.000000000000000e+00 0.000000000000000e+00 0.000000000000000e+00
0.000000000000000e+00 0.000000000000000e+00 0.000000000000000e+00
0.000000000000000e+00 0.000000000000000e+00 0.000000000000000e+00
0.000000000000000e+00 0.000000000000000e+00 0.000000000000000e+00
0.000000000000000e+00 0.000000000000000e+00 0.000000000000000e+00
0.000000000000000e+00 0.000000000000000e+00 0.000000000000000e+00
0.000000000000000e+00 0.000000000000000e+00 0.000000000000000e+00
0.000000000000000e+00 0.000000000000000e+00 0.000000000000000e+00
0.000000000000000e+00 0.000000000000000e+00 0.000000000000000e+00
0.000000000000000e+00 0.000000000000000e+00 0.000000000000000e+00
0.000000000000000e+00 0.000000000000000e+00 0.000000000000000e+00
0.000000000000000e+00 0.000000000000000e+00 0.000000000000000e+00
0.000000000000000e+00 0.000000000000000e+00 0.000000000000000e+00
0.000000000000000e+00 0.000000000000000e+00 0.000000000000000e+00
0.000000000000000e+00 0.000000000000000e+00 0.000000000000000e+00
0.000000000000000e+00 0.000000000000000e+00 0.000000000000000e+00
0.000000000000000e+00 0.000000000000000e+00 0.000000000000000e+00
0.000000000000000e+00 0.000000000000000e+00 0.000000000000000e+00
0.000000000000000e+00 0.000000000000000e+00 0.000000000000000e+00
0.000000000000000e+00 0.000000000000000e+00 0.000000000000000e+00
0.000000000000000e+00 0.000000000000000e+00 0.000000000000000e+00
0.000000000000000e+00 0.000000000000000e+00 0.000000000000000e+00
0.000000000000000e+00 0.000000000000000e+00 0.000000000000000e+00
0.000000000000000e+00 0.000000000000000e+00 0.000000000000000e+00
0.000000000000000e+00 0.000000000000000e+00 0.000000000000000e+00
0.000000000000000e+00 0.000000000000000e+00 0.000000000000000e+00
0.000000000000000e+00 0.000000000000000e+00 0.000000000000000e+00
0.000000000000000e+00 0.000000000000000e+00 0.000000000000000e+00
0.000000000000000e+00 0.000000000000000e+00 0.000000000000000e+00
0.000000000000000e+00 0.000000000000000e+00 0.000000000000000e+00
0.000000000000000e+00 0.000000000000000e+00 0.000000000000000e+00
0.000000000000000e+00 0.000000000000000e+00 0.000000000000000e+00
0.000000000000000e+00 0.000000000000000e+00 0.000000000000000e+00
0.000000000000000e+00 0.000000000000000e+00 0.000000000000000e+00
0.000000000000000e+00 0.000000000000000e+00 0.000000000000000e+00
0.000000000000000e+00 0.000000000000000e+00 0.000000000000000e+00
0.000000000000000e+00 0.000000000000000e+00 0.000000000000000e+00
0.000000000000000e+00 0.000000000000000e+00 0.000000000000000e+00
0.000000000000000e+00 0.000000000000000e+00 0.000000000000000e+00
0.000000000000000e+00 0.000000000000000e+00 0.000000000000000e+00
0.000000000000000e+00 0.000000000000000e+00 0.000000000000000e+00
0.000000000000000e+00 0.000000000000000e+00 0.000000000000000e+00
0.000000000000000e+00 0.000000000000000e+00 0.000000000000000e+00
0.000000000000000e+00 0.000000000000000e+00 0.000000000000000e+00
0.000000000000000e+00 0.000000000000000e+00 0.000000000000000e+00
0.000000000000000e+00 0.000000000000000e+00 0.000000000000000e+00
0.000000000000000e+00 0.000000000000000e+00 0.000000000000000e+00
0.000000000000000e+00 0.000000000000000e+00 0.000000000000000e+00
0.000000000000000e+00 0.000000000000000e+00 0.000000000000000e+00
0.000000000000000e+00 0.000000000000000e+00 0.000000000000000e+00
0.000000000000000e+00 0.000000000000000e+00 0.000000000000000e+00
0.000000000000000e+00 0.000000000000000e+00 0.000000000000000e+00
0.000000000000000e+00 0.000000000000000e+00 0.000000000000000e+00
0.000000000000000e+00 0.000000000000000e+00 0.000000000000000e+00
0.000000000000000e+00 0.000000000000000e+00 0.000000000000000e+00
0.000000000000000e+00 0.000000000000000e+00 0.000000000000000e+00
0.000000000000000e+00 0.000000000000000e+00 0.000000000000000e+00
0.000000000000000e+00 0.000000000000000e+00 0.000000000000000e+00
0.000000000000000e+00 0.000000000000000e+00 0.000000000000000e+00
0.000000000000000e+00 0.000000000000000e+00 0.000000000000000e+00
0.000000000000000e+00 0.000000000000000e+00 0.000000000000000e+00
0.000000000000000e+00 0.000000000000000e+00 0.000000000000000e+00
0.000000000000000e+00 0.000000000000000e+00 0.000000000000000e+00
0.000000000000000e+00 0.000000000000000e+00 0.000000000000000e+00
0.000000000000000e+00 0.000000000000000e+00 0.000000000000000e+00
0.000000000000000e+00 0.000000000000000e+00 0.000000000000000e+00
0.000000000000000e+00 0.000000000000000e+00 0.000000000000000e+00
0.000000000000000e+00 0.000000000000000e+00 0.000000000000000e+00
0.000000000000000e+00 0.000000000000000e+00 0.000000000000000e+00
0.000000000000000e+00 0.000000000000000e+00 0.000000000000000e+00
0.000000000000000e+00 0.000000000000000e+00 0.000000000000000e+00
0.000000000000000e+00 0.000000000000000e+00 0.000000000000000e+00
0.000000000000000e+00 0.000000000000000e+00 0.000000000000000e+00
0.000000000000000e+00 0.000000000000000e+00 0.000000000000000e+00
0.000000000000000e+00 0.000000000000000e+00 0.000000000000000e+00
0.000000000000000e+00 0.000000000000000e+00 0.000000000000000e+00
0.000000000000000e+00 0.000000000000000e+00 0.000000000000000e+00
0.000000000000000e+00 0.000000000000000e+00 0.000000000000000e+00
0.000000000000000e+00 0.000000000000000e+00 0.000000000000000e+00
0.000000000000000e+00 0.000000000000000e+00 0.000000000000000e+00
0.000000000000000e+00 0.000000000000000e+00 0.000000000000000e+00
0.000000000000000e+00 0.000000000000000e+00 0.000000000000000e+00
0.000000000000000e+00 0.000000000000000e+00 0.000000000000000e+00
0.000000000000000e+00 0.000000000000000e+00 0.000000000000000e+00
0.000000000000000e+00 0.000000000000000e+00 0.000000000000000e+00
0.000000000000000e+00 0.000000000000000e+00 0.000000000000000e+00
0.000000000000000e+00 0.000000000000000e+00 0.000000000000000e+00
0.000000000000000e+00 0.000000000000000e+00 0.000000000000000e+00
0.000000000000000e+00 0.000000000000000e+00 0.000000000000000e+00
0.000000000000000e+00 0.000000000000000e+00 0.000000000000000e+00
0.000000000000000e+00 0.000000000000000e+00 0.000000000000000e+00
0.000000000000000e+00 0.000000000000000e+00 0.000000000000000e+00
0.000000000000000e+00 0.000000000000000e+00 0.000000000000000e+00
0.000000000000000e+00 0.000000000000000e+00 0.000000000000000e+00
0.000000000000000e+00 0.000000000000000e+00 0.000000000000000e+00
0.000000000000000e+00 0.000000000000000e+00 0.000000000000000e+00
0.000000000000000e+00 0.000000000000000e+00 0.000000000000000e+00
0.000000000000000e+00 0.000000000000000e+00 0.000000000000000e+00
0.000000000000000e+00 0.000000000000000e+00 0.000000000000000e+00
0.000000000000000e+00 0.000000000000000e+00 0.000000000000000e+00
0.000000000000000e+00 0.000000000000000e+00 0.000000000000000e+00
0.000000000000000e+00 0.000000000000000e+00 0.000000000000000e+00
0.000000000000000e+00 0.000000000000000e+00 0.000000000000000e+00
0.000000000000000e+00 0.000000000000000e+00 0.000000000000000e+00
0.000000000000000e+00 0.000000000000000e+00 0.000000000000000e+00
0.000000000000000e+00 0.000000000000000e+00 0.000000000000000e+00
0.000000000000000e+00 0.000000000000000e+00 0.000000000000000e+00
0.000000000000000e+00 0.000000000000000e+00 0.000000000000000e+00
0.000000000000000e+00 0.000000000000000e+00 0.000000000000000e+00
0.000000000000000e+00 0.000000000000000e+00 0.000000000000000e+00
0.000000000000000e+00 0.000000000000000e+00 0.000000000000000e+00
0.000000000000000e+00 0.000000000000000e+00 0.000000000000000e+00
0.000000000000000e+00 0.000000000000000e+00 0.000000000000000e+00
0.000000000000000e+00 0.000000000000000e+00 0.000000000000000e+00
0.000000000000000e+00 0.000000000000000e+00 0.000000000000000e+00
0.000000000000000e+00 0.000000000000000e+00 0.000000000000000e+00
0.000000000000000e+00 0.000000000000000e+00 0.000000000000000e+00
0.000000000000000e+00 0.000000000000000e+00 0.000000000000000e+00
0.000000000000000e+00 0.000000000000000e+00 0.000000000000000e+00
0.000000000000000e+00 0.000000000000000e+00 0.000000000000000e+00
0.000000000000000e+00 0.000000000000000e+00 0.000000000000000e+00
0.000000000000000e+00 0.000000000000000e+00 0.000000000000000e+00
0.000000000000000e+00 0.000000000000000e+00 0.000000000000000e+00
0.000000000000000e+00 0.000000000000000e+00 0.000000000000000e+00
0.000000000000000e+00 0.000000000000000e+00 0.000000000000000e+00
0.000000000000000e+00 0.000000000000000e+00 0.000000000000000e+00
0.000000000000000e+00 0.000000000000000e+00 0.000000000000000e+00
0.000000000000000e+00 0.000000000000000e+00 0.000000000000000e+00
0.000000000000000e+00 0.000000000000000e+00 0.000000000000000e+00
0.000000000000000e+00 0.000000000000000e+00 0.000000000000000e+00
0.000000000000000e+00 0.000000000000000e+00 0.000000000000000e+00
0.000000000000000e+00 0.000000000000000e+00 0.000000000000000e+00
0.000000000000000e+00 0.000000000000000e+00 0.000000000000000e+00
0.000000000000000e+00 0.000000000000000e+00 0.000000000000000e+00
0.000000000000000e+00 0.000000000000000e+00 0.000000000000000e+00
0.000000000000000e+00 0.000000000000000e+00 0.000000000000000e+00
0.000000000000000e+00 0.000000000000000e+00 0.000000000000000e+00
0.000000000000000e+00 0.000000000000000e+00 0.000000000000000e+00
0.000000000000000e+00 0.000000000000000e+00 0.000000000000000e+00
0.000000000000000e+00 0.000000000000000e+00 0.000000000000000e+00
0.000000000000000e+00 0.000000000000000e+00 0.000000000000000e+00
0.000000000000000e+00 0.000000000000000e+00 0.000000000000000e+00
0.000000000000000e+00 0.000000000000000e+00 0.000000000000000e+00
0.000000000000000e+00 0.000000000000000e+00 0.000000000000000e+00
0.000000000000000e+00 0.000000000000000e+00 0.000000000000000e+00
0.000000000000000e+00 0.000000000000000e+00 0.000000000000000e+00
0.000000000000000e+00 0.000000000000000e+00 0.000000000000000e+00
0.000000000000000e+00 0.000000000000000e+00 0.000000000000000e+00
0.000000000000000e+00 0.000000000000000e+00 0.000000000000000e+00
0.000000000000000e+00 0.000000000000000e+00 0.000000000000000e+00
0.000000000000000e+00 0.000000000000000e+00 0.000000000000000e+00
0.000000000000000e+00 0.000000000000000e+00 0.000000000000000e+00
0.000000000000000e+00 0.000000000000000e+00 0.000000000000000e+00
0.000000000000000e+00 0.000000000000000e+00 0.000000000000000e+00
0.000000000000000e+00 0.000000000000000e+00 0.000000000000000e+00
0.000000000000000e+00 0.000000000000000e+00 0.000000000000000e+00
0.000000000000000e+00 0.000000000000000e+00 0.000000000000000e+00
0.000000000000000e+00 0.000000000000000e+00 0.000000000000000e+00
0.000000000000000e+00 0.000000000000000e+00 0.000000000000000e+00
0.000000000000000e+00 0.000000000000000e+00 0.000000000000000e+00
0.000000000000000e+00 0.000000000000000e+00 0.000000000000000e+00
0.000000000000000e+00 0.000000000000000e+00 0.000000000000000e+00
0.000000000000000e+00 0.000000000000000e+00 0.000000000000000e+00
0.000000000000000e+00 0.000000000000000e+00 0.000000000000000e+00
0.000000000000000e+00 0.000000000000000e+00 0.000000000000000e+00
0.000000000000000e+00 0.000000000000000e+00 0.000000000000000e+00
0.000000000000000e+00 0.000000000000000e+00 0.000000000000000e+00
0.000000000000000e+00 0.000000000000000e+00 0.000000000000000e+00
0.000000000000000e+00 0.000000000000000e+00 0.000000000000000e+00
0.000000000000000e+00 0.000000000000000e+00 0.000000000000000e+00
0.000000000000000e+00 0.000000000000000e+00 0.000000000000000e+00
0.000000000000000e+00 0.000000000000000e+00 0.000000000000000e+00
0.000000000000000e+00 0.000000000000000e+00 0.000000000000000e+00
0.000000000000000e+00 0.000000000000000e+00 0.000000000000000e+00
0.000000000000000e+00 0.000000000000000e+00 0.000000000000000e+00
0.000000000000000e+00 0.000000000000000e+00 0.000000000000000e+00
0.000000000000000e+00 0.000000000000000e+00 0.000000000000000e+00
0.000000000000000e+00 0.000000000000000e+00 0.000000000000000e+00
0.000000000000000e+00 0.000000000000000e+00 0.000000000000000e+00
0.000000000000000e+00 0.000000000000000e+00 0.000000000000000e+00
0.000000000000000e+00 0.000000000000000e+00 0.000000000000000e+00
0.000000000000000e+00 0.000000000000000e+00 0.000000000000000e+00
0.000000000000000e+00 0.000000000000000e+00 0.000000000000000e+00
0.000000000000000e+00 0.000000000000000e+00 0.000000000000000e+00
0.000000000000000e+00 0.000000000000000e+00 0.000000000000000e+00
0.000000000000000e+00 0.000000000000000e+00 0.000000000000000e+00
0.000000000000000e+00 0.000000000000000e+00 0.000000000000000e+00
0.000000000000000e+00 0.000000000000000e+00 0.000000000000000e+00
0.000000000000000e+00 0.000000000000000e+00 0.000000000000000e+00
0.000000000000000e+00 0.000000000000000e+00 0.000000000000000e+00
0.000000000000000e+00 0.000000000000000e+00 0.000000000000000e+00
0.000000000000000e+00 0.000000000000000e+00 0.000000000000000e+00
0.000000000000000e+00 0.000000000000000e+00 0.000000000000000e+00
0.000000000000000e+00 0.000000000000000e+00 0.000000000000000e+00
0.000000000000000e+00 0.000000000000000e+00 0.000000000000000e+00
0.000000000000000e+00 0.000000000000000e+00 0.000000000000000e+00
0.000000000000000e+00 0.000000000000000e+00 0.000000000000000e+00
0.000000000000000e+00 0.000000000000000e+00 0.000000000000000e+00
0.000000000000000e+00 0.000000000000000e+00 0.000000000000000e+00
0.000000000000000e+00 0.000000000000000e+00 0.000000000000000e+00
0.000000000000000e+00 0.000000000000000e+00 0.000000000000000e+00
0.000000000000000e+00 0.000000000000000e+00 0.000000000000000e+00
0.000000000000000e+00 0.000000000000000e+00 0.000000000000000e+00
0.000000000000000e+00 0.000000000000000e+00 0.000000000000000e+00
0.000000000000000e+00 0.000000000000000e+00 0.000000000000000e+00
0.000000000000000e+00 0.000000000000000e+00 0.000000000000000e+00
0.000000000000000e+00 0.000000000000000e+00 0.000000000000000e+00
0.000000000000000e+00 0.000000000000000e+00 0.000000000000000e+00
0.000000000000000e+00 0.000000000000000e+00 0.000000000000000e+00
0.000000000000000e+00 0.000000000000000e+00 0.000000000000000e+00
0.000000000000000e+00 0.000000000000000e+00 0.000000000000000e+00
0.000000000000000e+00 0.000000000000000e+00 0.000000000000000e+00
0.000000000000000e+00 0.000000000000000e+00 0.000000000000000e+00
0.000000000000000e+00 0.000000000000000e+00 0.000000000000000e+00
0.000000000000000e+00 0.000000000000000e+00 0.000000000000000e+00
0.000000000000000e+00 0.000000000000000e+00 0.000000000000000e+00
0.000000000000000e+00 0.000000000000000e+00 0.000000000000000e+00
0.000000000000000e+00 0.000000000000000e+00 0.000000000000000e+00
0.000000000000000e+00 0.000000000000000e+00 0.000000000000000e+00
0.000000000000000e+00 0.000000000000000e+00 0.000000000000000e+00
0.000000000000000e+00 0.000000000000000e+00 0.000000000000000e+00
0.000000000000000e+00 0.000000000000000e+00 0.000000000000000e+00
0.000000000000000e+00 0.000000000000000e+00 0.000000000000000e+00
0.000000000000000e+00 0.000000000000000e+00 0.000000000000000e+00
0.000000000000000e+00 0.000000000000000e+00 0.000000000000000e+00
0.000000000000000e+00 0.000000000000000e+00 0.000000000000000e+00
0.000000000000000e+00 0.000000000000000e+00 0.000000000000000e+00
0.000000000000000e+00 0.000000000000000e+00 0.000000000000000e+00
0.000000000000000e+00 0.000000000000000e+00 0.000000000000000e+00
0.000000000000000e+00 0.000000000000000e+00 0.000000000000000e+00
0.000000000000000e+00 0.000000000000000e+00 0.000000000000000e+00
0.000000000000000e+00 0.000000000000000e+00 0.000000000000000e+00
0.000000000000000e+00 0.000000000000000e+00 0.000000000000000e+00
0.000000000000000e+00 0.000000000000000e+00 0.000000000000000e+00
0.000000000000000e+00 0.000000000000000e+00 0.000000000000000e+00
0.000000000000000e+00 0.000000000000000e+00 0.000000000000000e+00
0.000000000000000e+00 0.000000000000000e+00 0.000000000000000e+00
0.000000000000000e+00 0.000000000000000e+00 0.000000000000000e+00
0.000000000000000e+00 0.000000000000000e+00 0.000000000000000e+00
0.000000000000000e+00 0.000000000000000e+00 0.000000000000000e+00
0.000000000000000e+00 0.000000000000000e+00 0.000000000000000e+00
0.000000000000000e+00 0.000000000000000e+00 0.000000000000000e+00
0.000000000000000e+00 0.000000000000000e+00 0.000000000000000e+00
0.000000000000000e+00 0.000000000000000e+00 0.000000000000000e+00
0.000000000000000e+00 0.000000000000000e+00 0.000000000000000e+00
0.000000000000000e+00 0.000000000000000e+00 0.000000000000000e+00
0.000000000000000e+00 0.000000000000000e+00 0.000000000000000e+00
0.000000000000000e+00 0.000000000000000e+00 0.000000000000000e+00
0.000000000000000e+00 0.000000000000000e+00 0.000000000000000e+00
0.000000000000000e+00 0.000000000000000e+00 0.000000000000000e+00
0.000000000000000e+00 0.000000000000000e+00 0.000000000000000e+00
0.000000000000000e+00 0.000000000000000e+00 0.000000000000000e+00
0.000000000000000e+00 0.000000000000000e+00 0.000000000000000e+00
0.000000000000000e+00 0.000000000000000e+00 0.000000000000000e+00
0.000000000000000e+00 0.000000000000000e+00 0.000000000000000e+00
0.000000000000000e+00 0.000000000000000e+00 0.000000000000000e+00
0.000000000000000e+00 0.000000000000000e+00 0.000000000000000e+00
0.000000000000000e+00 0.000000000000000e+00 0.000000000000000e+00
0.000000000000000e+00 0.000000000000000e+00 0.000000000000000e+00
0.000000000000000e+00 0.000000000000000e+00 0.000000000000000e+00
0.000000000000000e+00 0.000000000000000e+00 0.000000000000000e+00
0.000000000000000e+00 0.000000000000000e+00 0.000000000000000e+00
0.000000000000000e+00 0.000000000000000e+00 0.000000000000000e+00
0.000000000000000e+00 0.000000000000000e+00 0.000000000000000e+00
0.000000000000000e+00 0.000000000000000e+00 0.000000000000000e+00
0.000000000000000e+00 0.000000000000000e+00 0.000000000000000e+00
0.000000000000000e+00 0.000000000000000e+00 0.000000000000000e+00
0.000000000000000e+00 0.000000000000000e+00 0.000000000000000e+00
0.000000000000000e+00 0.000000000000000e+00 0.000000000000000e+00
0.000000000000000e+00 0.000000000000000e+00 0.000000000000000e+00
0.000000000000000e+00 0.000000000000000e+00 0.000000000000000e+00
0.000000000000000e+00 0.000000000000000e+00 0.000000000000000e+00
0.000000000000000e+00 0.000000000000000e+00 0.000000000000000e+00
0.000000000000000e+00 0.000000000000000e+00 0.000000000000000e+00
0.000000000000000e+00 0.000000000000000e+00 0.000000000000000e+00
0.000000000000000e+00 0.000000000000000e+00 0.000000000000000e+00
0.000000000000000e+00 0.000000000000000e+00 0.000000000000000e+00
0.000000000000000e+00 0.000000000000000e+00 0.000000000000000e+00
0.000000000000000e+00 0.000000000000000e+00 0.000000000000000e+00
0.000000000000000e+00 0.000000000000000e+00 0.000000000000000e+00
0.000000000000000e+00 0.000000000000000e+00 0.000000000000000e+00
0.000000000000000e+00 0.000000000000000e+00 0.000000000000000e+00
0.000000000000000e+00 0.000000000000000e+00 0.000000000000000e+00
0.000000000000000e+00 0.000000000000000e+00 0.000000000000000e+00
0.000000000000000e+00 0.000000000000000e+00 0.000000000000000e+00
0.000000000000000e+00 0.000000000000000e+00 0.000000000000000e+00
0.000000000000000e+00 0.000000000000000e+00 0.000000000000000e+00
0.000000000000000e+00 0.000000000000000e+00 0.000000000000000e+00
0.000000000000000e+00 0.000000000000000e+00 0.000000000000000e+00
0.000000000000000e+00 0.000000000000000e+00 0.000000000000000e+00
0.000000000000000e+00 0.000000000000000e+00 0.000000000000000e+00
0.000000000000000e+00 0.000000000000000e+00 0.000000000000000e+00
0.000000000000000e+00 0.000000000000000e+00 0.000000000000000e+00
0.000000000000000e+00 0.000000000000000e+00 0.000000000000000e+00
0.000000000000000e+00 0.000000000000000e+00 0.000000000000000e+00
0.000000000000000e+00 0.000000000000000e+00 0.000000000000000e+00
0.000000000000000e+00 0.000000000000000e+00 0.000000000000000e+00
0.000000000000000e+00 0.000000000000000e+00 0.000000000000000e+00
0.000000000000000e+00 0.000000000000000e+00 0.000000000000000e+00
0.000000000000000e+00 0.000000000000000e+00 0.000000000000000e+00
0.000000000000000e+00 0.000000000000000e+00 0.000000000000000e+00
0.000000000000000e+00 0.000000000000000e+00 0.000000000000000e+00
0.000000000000000e+00 0.000000000000000e+00 0.000000000000000e+00
0.000000000000000e+00 0.000000000000000e+00 0.000000000000000e+00
0.000000000000000e+00 0.000000000000000e+00 0.000000000000000e+00
0.000000000000000e+00 0.000000000000000e+00 0.000000000000000e+00
0.000000000000000e+00 0.000000000000000e+00 0.000000000000000e+00
0.000000000000000e+00 0.000000000000000e+00 0.000000000000000e+00
0.000000000000000e+00 0.000000000000000e+00 0.000000000000000e+00
0.000000000000000e+00 0.000000000000000e+00 0.000000000000000e+00
0.000000000000000e+00 0.000000000000000e+00 0.000000000000000e+00
0.000000000000000e+00 0.000000000000000e+00 0.000000000000000e+00
0.000000000000000e+00 0.000000000000000e+00 0.000000000000000e+00
0.000000000000000e+00 0.000000000000000e+00 0.000000000000000e+00
0.000000000000000e+00 0.000000000000000e+00 0.000000000000000e+00
0.000000000000000e+00 0.000000000000000e+00 0.000000000000000e+00
0.000000000000000e+00 0.000000000000000e+00 0.000000000000000e+00
0.000000000000000e+00 0.000000000000000e+00 0.000000000000000e+00
0.000000000000000e+00 0.000000000000000e+00 0.000000000000000e+00
0.000000000000000e+00 0.000000000000000e+00 0.000000000000000e+00
0.000000000000000e+00 0.000000000000000e+00 0.000000000000000e+00
0.000000000000000e+00 0.000000000000000e+00 0.000000000000000e+00
0.000000000000000e+00 0.000000000000000e+00 0.000000000000000e+00
0.000000000000000e+00 0.000000000000000e+00 0.000000000000000e+00
0.000000000000000e+00 0.000000000000000e+00 0.000000000000000e+00
0.000000000000000e+00 0.000000000000000e+00 0.000000000000000e+00
0.000000000000000e+00 0.000000000000000e+00 0.000000000000000e+00
0.000000000000000e+00 0.000000000000000e+00 0.000000000000000e+00
0.000000000000000e+00 0.000000000000000e+00 0.000000000000000e+00
0.000000000000000e+00 0.000000000000000e+00 0.000000000000000e+00
0.000000000000000e+00 0.000000000000000e+00 0.000000000000000e+00
0.000000000000000e+00 0.000000000000000e+00 0.000000000000000e+00
0.000000000000000e+00 0.000000000000000e+00 0.000000000000000e+00
0.000000000000000e+00 0.000000000000000e+00 0.000000000000000e+00
0.000000000000000e+00 0.000000000000000e+00 0.000000000000000e+00
0.000000000000000e+00 0.000000000000000e+00 0.000000000000000e+00
0.000000000000000e+00 0.000000000000000e+00 0.000000000000000e+00
0.000000000000000e+00 0.000000000000000e+00 0.000000000000000e+00
0.000000000000000e+00 0.000000000000000e+00 0.000000000000000e+00
0.000000000000000e+00 0.000000000000000e+00 0.000000000000000e+00
0.000000000000000e+00 0.000000000000000e+00 0.000000000000000e+00
0.000000000000000e+00 0.000000000000000e+00 0.000000000000000e+00
0.000000000000000e+00 0.000000000000000e+00 0.000000000000000e+00
0.000000000000000e+00 0.000000000000000e+00 0.000000000000000e+00
0.000000000000000e+00 0.000000000000000e+00 0.000000000000000e+00
0.000000000000000e+00 0.000000000000000e+00 0.000000000000000e+00
0.000000000000000e+00 0.000000000000000e+00 0.000000000000000e+00
0.000000000000000e+00 0.000000000000000e+00 0.000000000000000e+00
0.000000000000000e+00 0.000000000000000e+00 0.000000000000000e+00
0.000000000000000e+00 0.000000000000000e+00 0.000000000000000e+00
0.000000000000000e+00 0.000000000000000e+00 0.000000000000000e+00
0.000000000000000e+00 0.000000000000000e+00 0.000000000000000e+00
0.000000000000000e+00 0.000000000000000e+00 0.000000000000000e+00
0.000000000000000e+00 0.000000000000000e+00 0.000000000000000e+00
0.000000000000000e+00 0.000000000000000e+00 0.000000000000000e+00
0.000000000000000e+00 0.000000000000000e+00 0.000000000000000e+00
0.000000000000000e+00 0.000000000000000e+00 0.000000000000000e+00
0.000000000000000e+00 0.000000000000000e+00 0.000000000000000e+00
0.000000000000000e+00 0.000000000000000e+00 0.000000000000000e+00
0.000000000000000e+00 0.000000000000000e+00 0.000000000000000e+00
0.000000000000000e+00 0.000000000000000e+00 0.000000000000000e+00
0.000000000000000e+00 0.000000000000000e+00 0.000000000000000e+00
0.000000000000000e+00 0.000000000000000e+00 0.000000000000000e+00
0.000000000000000e+00 0.000000000000000e+00 0.000000000000000e+00
0.000000000000000e+00 0.000000000000000e+00 0.000000000000000e+00
0.000000000000000e+00 0.000000000000000e+00 0.000000000000000e+00
0.000000000000000e+00 0.000000000000000e+00 0.000000000000000e+00
0.000000000000000e+00 0.000000000000000e+00 0.000000000000000e+00
0.000000000000000e+00 0.000000000000000e+00 0.000000000000000e+00
0.000000000000000e+00 0.000000000000000e+00 0.000000000000000e+00
0.000000000000000e+00 0.000000000000000e+00 0.000000000000000e+00
0.000000000000000e+00 0.000000000000000e+00 0.000000000000000e+00
0.000000000000000e+00 0.000000000000000e+00 0.000000000000000e+00
0.000000000000000e+00 0.000000000000000e+00 0.000000000000000e+00
0.000000000000000e+00 0.000000000000000e+00 0.000000000000000e+00
0.000000000000000e+00 0.000000000000000e+00 0.000000000000000e+00
0.000000000000000e+00 0.000000000000000e+00 0.000000000000000e+00
0.000000000000000e+00 0.000000000000000e+00 0.000000000000000e+00
0.000000000000000e+00 0.000000000000000e+00 0.000000000000000e+00
0.000000000000000e+00 0.000000000000000e+00 0.000000000000000e+00
0.000000000000000e+00 0.000000000000000e+00 0.000000000000000e+00
0.000000000000000e+00 0.000000000000000e+00 0.000000000000000e+00
0.000000000000000e+00 0.000000000000000e+00 0.000000000000000e+00
0.000000000000000e+00 0.000000000000000e+00 0.000000000000000e+00
0.000000000000000e+00 0.000000000000000e+00 0.000000000000000e+00
0.000000000000000e+00 0.000000000000000e+00 0.000000000000000e+00
0.000000000000000e+00 0.000000000000000e+00 0.000000000000000e+00
0.000000000000000e+00 0.000000000000000e+00 0.000000000000000e+00
0.000000000000000e+00 0.000000000000000e+00 0.000000000000000e+00
0.000000000000000e+00 0.000000000000000e+00 0.000000000000000e+00
0.000000000000000e+00 0.000000000000000e+00 0.000000000000000e+00
0.000000000000000e+00 0.000000000000000e+00 0.000000000000000e+00
0.000000000000000e+00 0.000000000000000e+00 0.000000000000000e+00
0.000000000000000e+00 0.000000000000000e+00 0.000000000000000e+00
0.000000000000000e+00 0.000000000000000e+00 0.000000000000000e+00
0.000000000000000e+00 0.000000000000000e+00 0.000000000000000e+00
0.000000000000000e+00 0.000000000000000e+00 0.000000000000000e+00
0.000000000000000e+00 0.000000000000000e+00 0.000000000000000e+00
0.000000000000000e+00 0.000000000000000e+00 0.000000000000000e+00
0.000000000000000e+00 0.000000000000000e+00 0.000000000000000e+00
0.000000000000000e+00 0.000000000000000e+00 0.000000000000000e+00
0.000000000000000e+00 0.000000000000000e+00 0.000000000000000e+00
0.000000000000000e+00 0.000000000000000e+00 0.000000000000000e+00
0.000000000000000e+00 0.000000000000000e+00 0.000000000000000e+00
0.000000000000000e+00 0.000000000000000e+00 0.000000000000000e+00
0.000000000000000e+00 0.000000000000000e+00 0.000000000000000e+00
0.000000000000000e+00 0.000000000000000e+00 0.000000000000000e+00
0.000000000000000e+00 0.000000000000000e+00 0.000000000000000e+00
0.000000000000000e+00 0.000000000000000e+00 0.000000000000000e+00
0.000000000000000e+00 0.000000000000000e+00 0.000000000000000e+00
0.000000000000000e+00 0.000000000000000e+00 0.000000000000000e+00
0.000000000000000e+00 0.000000000000000e+00 0.000000000000000e+00
0.000000000000000e+00 0.000000000000000e+00 0.000000000000000e+00
0.000000000000000e+00 0.000000000000000e+00 0.000000000000000e+00
0.000000000000000e+00 0.000000000000000e+00 0.000000000000000e+00
0.000000000000000e+00 0.000000000000000e+00 0.000000000000000e+00
0.000000000000000e+00 0.000000000000000e+00 0.000000000000000e+00
0.000000000000000e+00 0.000000000000000e+00 0.000000000000000e+00
0.000000000000000e+00 0.000000000000000e+00 0.000000000000000e+00
0.000000000000000e+00 0.000000000000000e+00 0.000000000000000e+00
0.000000000000000e+00 0.000000000000000e+00 0.000000000000000e+00
0.000000000000000e+00 0.000000000000000e+00 0.000000000000000e+00
0.000000000000000e+00 0.000000000000000e+00 0.000000000000000e+00
0.000000000000000e+00 0.000000000000000e+00 0.000000000000000e+00
0.000000000000000e+00 0.000000000000000e+00 0.000000000000000e+00
0.000000000000000e+00 0.000000000000000e+00 0.000000000000000e+00
0.000000000000000e+00 0.000000000000000e+00 0.000000000000000e+00
0.000000000000000e+00 0.000000000000000e+00 0.000000000000000e+00
0.000000000000000e+00 0.000000000000000e+00 0.000000000000000e+00
0.000000000000000e+00 0.000000000000000e+00 0.000000000000000e+00
0.000000000000000e+00 0.000000000000000e+00 0.000000000000000e+00
0.000000000000000e+00 0.000000000000000e+00 0.000000000000000e+00
0.000000000000000e+00 0.000000000000000e+00 0.000000000000000e+00
0.000000000000000e+00 0.000000000000000e+00 0.000000000000000e+00
0.000000000000000e+00 0.000000000000000e+00 0.000000000000000e+00
0.000000000000000e+00 0.000000000000000e+00 0.000000000000000e+00
0.000000000000000e+00 0.000000000000000e+00 0.000000000000000e+00
0.000000000000000e+00 0.000000000000000e+00 0.000000000000000e+00
0.000000000000000e+00 0.000000000000000e+00 0.000000000000000e+00
0.000000000000000e+00 0.000000000000000e+00 0.000000000000000e+00
0.000000000000000e+00 0.000000000000000e+00 0.000000000000000e+00
0.000000000000000e+00 0.000000000000000e+00 0.000000000000000e+00
0.000000000000000e+00 0.000000000000000e+00 0.000000000000000e+00
0.000000000000000e+00 0.000000000000000e+00 0.000000000000000e+00
0.000000000000000e+00 0.000000000000000e+00 0.000000000000000e+00
0.000000000000000e+00 0.000000000000000e+00 0.000000000000000e+00
0.000000000000000e+00 0.000000000000000e+00 0.000000000000000e+00
0.000000000000000e+00 0.000000000000000e+00 0.000000000000000e+00
0.000000000000000e+00 0.000000000000000e+00 0.000000000000000e+00
0.000000000000000e+00 0.000000000000000e+00 0.000000000000000e+00
0.000000000000000e+00 0.000000000000000e+00 0.000000000000000e+00
0.000000000000000e+00 0.000000000000000e+00 0.000000000000000e+00
0.000000000000000e+00 0.000000000000000e+00 0.000000000000000e+00
0.000000000000000e+00 0.000000000000000e+00 0.000000000000000e+00
0.000000000000000e+00 0.000000000000000e+00 0.000000000000000e+00
0.000000000000000e+00 0.000000000000000e+00 0.000000000000000e+00
0.000000000000000e+00 0.000000000000000e+00 0.000000000000000e+00
0.000000000000000e+00 0.000000000000000e+00 0.000000000000000e+00
0.000000000000000e+00 0.000000000000000e+00 0.000000000000000e+00
0.000000000000000e+00 0.000000000000000e+00 0.000000000000000e+00
0.000000000000000e+00 0.000000000000000e+00 0.000000000000000e+00
0.000000000000000e+00 0.000000000000000e+00 0.000000000000000e+00
0.000000000000000e+00 0.000000000000000e+00 0.000000000000000e+00
0.000000000000000e+00 0.000000000000000e+00 0.000000000000000e+00
0.000000000000000e+00 0.000000000000000e+00 0.000000000000000e+00
0.000000000000000e+00 0.000000000000000e+00 0.000000000000000e+00
0.000000000000000e+00 0.000000000000000e+00 0.000000000000000e+00
0.000000000000000e+00 0.000000000000000e+00 0.000000000000000e+00
0.000000000000000e+00 0.000000000000000e+00 0.000000000000000e+00
0.000000000000000e+00 0.000000000000000e+00 0.000000000000000e+00
0.000000000000000e+00 0.000000000000000e+00 0.000000000000000e+00
0.000000000000000e+00 0.000000000000000e+00 0.000000000000000e+00
0.000000000000000e+00 0.000000000000000e+00 0.000000000000000e+00
0.000000000000000e+00 0.000000000000000e+00 0.000000000000000e+00
0.000000000000000e+00 0.000000000000000e+00 0.000000000000000e+00
0.000000000000000e+00 0.000000000000000e+00 0.000000000000000e+00
0.000000000000000e+00 0.000000000000000e+00 0.000000000000000e+00
0.000000000000000e+00 0.000000000000000e+00 0.000000000000000e+00
0.000000000000000e+00 0.000000000000000e+00 0.000000000000000e+00
0.000000000000000e+00 0.000000000000000e+00 0.000000000000000e+00
0.000000000000000e+00 0.000000000000000e+00 0.000000000000000e+00
0.000000000000000e+00 0.000000000000000e+00 0.000000000000000e+00
0.000000000000000e+00 0.000000000000000e+00 0.000000000000000e+00
0.000000000000000e+00 0.000000000000000e+00 0.000000000000000e+00
0.000000000000000e+00 0.000000000000000e+00 0.000000000000000e+00
0.000000000000000e+00 0.000000000000000e+00 0.000000000000000e+00
0.000000000000000e+00 0.000000000000000e+00 0.000000000000000e+00
0.000000000000000e+00 0.000000000000000e+00 0.000000000000000e+00
0.000000000000000e+00 0.000000000000000e+00 0.000000000000000e+00
0.000000000000000e+00 0.000000000000000e+00 0.000000000000000e+00
0.000000000000000e+00 0.000000000000000e+00 0.000000000000000e+00
0.000000000000000e+00 0.000000000000000e+00 0.000000000000000e+00
0.000000000000000e+00 0.000000000000000e+00 0.000000000000000e+00
0.000000000000000e+00 0.000000000000000e+00 0.000000000000000e+00
0.000000000000000e+00 0.000000000000000e+00 0.000000000000000e+00
0.000000000000000e+00 0.000000000000000e+00 0.000000000000000e+00
0.000000000000000e+00 0.000000000000000e+00 0.000000000000000e+00
0.000000000000000e+00 0.000000000000000e+00 0.000000000000000e+00
0.000000000000000e+00 0.000000000000000e+00 0.000000000000000e+00
0.000000000000000e+00 0.000000000000000e+00 0.000000000000000e+00
0.000000000000000e+00 0.000000000000000e+00 0.000000000000000e+00
0.000000000000000e+00 0.000000000000000e+00 0.000000000000000e+00
0.000000000000000e+00 0.000000000000000e+00 0.000000000000000e+00
0.000000000000000e+00 0.000000000000000e+00 0.000000000000000e+00
0.000000000000000e+00 0.000000000000000e+00 0.000000000000000e+00
0.000000000000000e+00 0.000000000000000e+00 0.000000000000000e+00
0.000000000000000e+00 0.000000000000000e+00 0.000000000000000e+00
0.000000000000000e+00 0.000000000000000e+00 0.000000000000000e+00
0.000000000000000e+00 0.000000000000000e+00 0.000000000000000e+00
0.000000000000000e+00 0.000000000000000e+00 0.000000000000000e+00
0.000000000000000e+00 0.000000000000000e+00 0.000000000000000e+00
0.000000000000000e+00 0.000000000000000e+00 0.000000000000000e+00
0.000000000000000e+00 0.000000000000000e+00 0.000000000000000e+00
0.000000000000000e+00 0.000000000000000e+00 0.000000000000000e+00
0.000000000000000e+00 0.000000000000000e+00 0.000000000000000e+00
0.000000000000000e+00 0.000000000000000e+00 0.000000000000000e+00
0.000000000000000e+00 0.000000000000000e+00 0.000000000000000e+00
0.000000000000000e+00 0.000000000000000e+00 0.000000000000000e+00
0.000000000000000e+00 0.000000000000000e+00 0.000000000000000e+00
0.000000000000000e+00 0.000000000000000e+00 0.000000000000000e+00
0.000000000000000e+00 0.000000000000000e+00 0.000000000000000e+00
0.000000000000000e+00 0.000000000000000e+00 0.000000000000000e+00
0.000000000000000e+00 0.000000000000000e+00 0.000000000000000e+00
0.000000000000000e+00 0.000000000000000e+00 0.000000000000000e+00
0.000000000000000e+00 0.000000000000000e+00 0.000000000000000e+00
0.000000000000000e+00 0.000000000000000e+00 0.000000000000000e+00
0.000000000000000e+00 0.000000000000000e+00 0.000000000000000e+00
0.000000000000000e+00 0.000000000000000e+00 0.000000000000000e+00
0.000000000000000e+00 0.000000000000000e+00 0.000000000000000e+00
0.000000000000000e+00 0.000000000000000e+00 0.000000000000000e+00
0.000000000000000e+00 0.000000000000000e+00 0.000000000000000e+00
0.000000000000000e+00 0.000000000000000e+00 0.000000000000000e+00
0.000000000000000e+00 0.000000000000000e+00 0.000000000000000e+00
0.000000000000000e+00 0.000000000000000e+00 0.000000000000000e+00
0.000000000000000e+00 0.000000000000000e+00 0.000000000000000e+00
0.000000000000000e+00 0.000000000000000e+00 0.000000000000000e+00
0.000000000000000e+00 0.000000000000000e+00 0.000000000000000e+00
0.000000000000000e+00 0.000000000000000e+00 0.000000000000000e+00
0.000000000000000e+00 0.000000000000000e+00 0.000000000000000e+00
0.000000000000000e+00 0.000000000000000e+00 0.000000000000000e+00
0.000000000000000e+00 0.000000000000000e+00 0.000000000000000e+00
0.000000000000000e+00 0.000000000000000e+00 0.000000000000000e+00
0.000000000000000e+00 0.000000000000000e+00 0.000000000000000e+00
0.000000000000000e+00 0.000000000000000e+00 0.000000000000000e+00
0.000000000000000e+00 0.000000000000000e+00 0.000000000000000e+00
0.000000000000000e+00 0.000000000000000e+00 0.000000000000000e+00
0.000000000000000e+00 0.000000000000000e+00 0.000000000000000e+00
0.000000000000000e+00 0.000000000000000e+00 0.000000000000000e+00
0.000000000000000e+00 0.000000000000000e+00 0.000000000000000e+00
0.000000000000000e+00 0.000000000000000e+00 0.000000000000000e+00
0.000000000000000e+00 0.000000000000000e+00 0.000000000000000e+00
0.000000000000000e+00 0.000000000000000e+00 0.000000000000000e+00
0.000000000000000e+00 0.000000000000000e+00 0.000000000000000e+00
0.000000000000000e+00 0.000000000000000e+00 0.000000000000000e+00
0.000000000000000e+00 0.000000000000000e+00 0.000000000000000e+00
0.000000000000000e+00 0.000000000000000e+00 0.000000000000000e+00
0.000000000000000e+00 0.000000000000000e+00 0.000000000000000e+00
0.000000000000000e+00 0.000000000000000e+00 0.000000000000000e+00
0.000000000000000e+00 0.000000000000000e+00 0.000000000000000e+00
0.000000000000000e+00 0.000000000000000e+00 0.000000000000000e+00
0.000000000000000e+00 0.000000000000000e+00 0.000000000000000e+00
0.000000000000000e+00 0.000000000000000e+00 0.000000000000000e+00
0.000000000000000e+00 0.000000000000000e+00 0.000000000000000e+00
0.000000000000000e+00 0.000000000000000e+00 0.000000000000000e+00
0.000000000000000e+00 0.000000000000000e+00 0.000000000000000e+00
0.000000000000000e+00 0.000000000000000e+00 0.000000000000000e+00
0.000000000000000e+00 0.000000000000000e+00 0.000000000000000e+00
0.000000000000000e+00 0.000000000000000e+00 0.000000000000000e+00
0.000000000000000e+00 0.000000000000000e+00 0.000000000000000e+00
0.000000000000000e+00 0.000000000000000e+00 0.000000000000000e+00
0.000000000000000e+00 0.000000000000000e+00 0.000000000000000e+00
0.000000000000000e+00 0.000000000000000e+00 0.000000000000000e+00
0.000000000000000e+00 0.000000000000000e+00 0.000000000000000e+00
0.000000000000000e+00 0.000000000000000e+00 0.000000000000000e+00
0.000000000000000e+00 0.000000000000000e+00 0.000000000000000e+00
0.000000000000000e+00 0.000000000000000e+00 0.000000000000000e+00
0.000000000000000e+00 0.000000000000000e+00 0.000000000000000e+00
0.000000000000000e+00 0.000000000000000e+00 0.000000000000000e+00
0.000000000000000e+00 0.000000000000000e+00 0.000000000000000e+00
0.000000000000000e+00 0.000000000000000e+00 0.000000000000000e+00
0.000000000000000e+00 0.000000000000000e+00 0.000000000000000e+00
0.000000000000000e+00 0.000000000000000e+00 0.000000000000000e+00
0.000000000000000e+00 0.000000000000000e+00 0.000000000000000e+00
0.000000000000000e+00 0.000000000000000e+00 0.000000000000000e+00
0.000000000000000e+00 0.000000000000000e+00 0.000000000000000e+00
0.000000000000000e+00 0.000000000000000e+00 0.000000000000000e+00
0.000000000000000e+00 0.000000000000000e+00 0.000000000000000e+00
0.000000000000000e+00 0.000000000000000e+00 0.000000000000000e+00
0.000000000000000e+00 0.000000000000000e+00 0.000000000000000e+00
0.000000000000000e+00 0.000000000000000e+00 0.000000000000000e+00
0.000000000000000e+00 0.000000000000000e+00 0.000000000000000e+00
0.000000000000000e+00 0.000000000000000e+00 0.000000000000000e+00
0.000000000000000e+00 0.000000000000000e+00 0.000000000000000e+00
0.000000000000000e+00 0.000000000000000e+00 0.000000000000000e+00
0.000000000000000e+00 0.000000000000000e+00 0.000000000000000e+00
0.000000000000000e+00 0.000000000000000e+00 0.000000000000000e+00
0.000000000000000e+00 0.000000000000000e+00 0.000000000000000e+00
0.000000000000000e+00 0.000000000000000e+00 0.000000000000000e+00
0.000000000000000e+00 0.000000000000000e+00 0.000000000000000e+00
0.000000000000000e+00 0.000000000000000e+00 0.000000000000000e+00
0.000000000000000e+00 0.000000000000000e+00 0.000000000000000e+00
0.000000000000000e+00 0.000000000000000e+00 0.000000000000000e+00
0.000000000000000e+00 0.000000000000000e+00 0.000000000000000e+00
0.000000000000000e+00 0.000000000000000e+00 0.000000000000000e+00
0.000000000000000e+00 0.000000000000000e+00 0.000000000000000e+00
0.000000000000000e+00 0.000000000000000e+00 0.000000000000000e+00
0.000000000000000e+00 0.000000000000000e+00 0.000000000000000e+00
0.000000000000000e+00 0.000000000000000e+00 0.000000000000000e+00
0.000000000000000e+00 0.000000000000000e+00 0.000000000000000e+00
0.000000000000000e+00 0.000000000000000e+00 0.000000000000000e+00
0.000000000000000e+00 0.000000000000000e+00 0.000000000000000e+00
0.000000000000000e+00 0.000000000000000e+00 0.000000000000000e+00
0.000000000000000e+00 0.000000000000000e+00 0.000000000000000e+00
0.000000000000000e+00 0.000000000000000e+00 0.000000000000000e+00
0.000000000000000e+00 0.000000000000000e+00 0.000000000000000e+00
0.000000000000000e+00 0.000000000000000e+00 0.000000000000000e+00
0.000000000000000e+00 0.000000000000000e+00 0.000000000000000e+00
0.000000000000000e+00 0.000000000000000e+00 0.000000000000000e+00
0.000000000000000e+00 0.000000000000000e+00 0.000000000000000e+00
0.000000000000000e+00 0.000000000000000e+00 0.000000000000000e+00
0.000000000000000e+00 0.000000000000000e+00 0.000000000000000e+00
0.000000000000000e+00 0.000000000000000e+00 0.000000000000000e+00
0.000000000000000e+00 0.000000000000000e+00 0.000000000000000e+00
0.000000000000000e+00 0.000000000000000e+00 0.000000000000000e+00
0.000000000000000e+00 0.000000000000000e+00 0.000000000000000e+00
0.000000000000000e+00 0.000000000000000e+00 0.000000000000000e+00
0.000000000000000e+00 0.000000000000000e+00 0.000000000000000e+00
0.000000000000000e+00 0.000000000000000e+00 0.000000000000000e+00
0.000000000000000e+00 0.000000000000000e+00 0.000000000000000e+00
0.000000000000000e+00 0.000000000000000e+00 0.000000000000000e+00
0.000000000000000e+00 0.000000000000000e+00 0.000000000000000e+00
0.000000000000000e+00 0.000000000000000e+00 0.000000000000000e+00
0.000000000000000e+00 0.000000000000000e+00 0.000000000000000e+00
0.000000000000000e+00 0.000000000000000e+00 0.000000000000000e+00
0.000000000000000e+00 0.000000000000000e+00 0.000000000000000e+00
0.000000000000000e+00 0.000000000000000e+00 0.000000000000000e+00
0.000000000000000e+00 0.000000000000000e+00 0.000000000000000e+00
0.000000000000000e+00 0.000000000000000e+00 0.000000000000000e+00
0.000000000000000e+00 0.000000000000000e+00 0.000000000000000e+00
0.000000000000000e+00 0.000000000000000e+00 0.000000000000000e+00
0.000000000000000e+00 0.000000000000000e+00 0.000000000000000e+00
0.000000000000000e+00 0.000000000000000e+00 0.000000000000000e+00
0.000000000000000e+00 0.000000000000000e+00 0.000000000000000e+00
0.000000000000000e+00 0.000000000000000e+00 0.000000000000000e+00
0.000000000000000e+00 0.000000000000000e+00 0.000000000000000e+00
0.000000000000000e+00 0.000000000000000e+00 0.000000000000000e+00
0.000000000000000e+00 0.000000000000000e+00 0.000000000000000e+00
0.000000000000000e+00 0.000000000000000e+00 0.000000000000000e+00
0.000000000000000e+00 0.000000000000000e+00 0.000000000000000e+00
0.000000000000000e+00 0.000000000000000e+00 0.000000000000000e+00
0.000000000000000e+00 0.000000000000000e+00 0.000000000000000e+00
0.000000000000000e+00 0.000000000000000e+00 0.000000000000000e+00
0.000000000000000e+00 0.000000000000000e+00 0.000000000000000e+00
0.000000000000000e+00 0.000000000000000e+00 0.000000000000000e+00
0.000000000000000e+00 0.000000000000000e+00 0.000000000000000e+00
0.000000000000000e+00 0.000000000000000e+00 0.000000000000000e+00
0.000000000000000e+00 0.000000000000000e+00 0.000000000000000e+00
0.000000000000000e+00 0.000000000000000e+00 0.000000000000000e+00
0.000000000000000e+00 0.000000000000000e+00 0.000000000000000e+00
0.000000000000000e+00 0.000000000000000e+00 0.000000000000000e+00
0.000000000000000e+00 0.000000000000000e+00 0.000000000000000e+00
0.000000000000000e+00 0.000000000000000e+00 0.000000000000000e+00
0.000000000000000e+00 0.000000000000000e+00 0.000000000000000e+00
0.000000000000000e+00 0.000000000000000e+00 0.000000000000000e+00
0.000000000000000e+00 0.000000000000000e+00 0.000000000000000e+00
0.000000000000000e+00 0.000000000000000e+00 0.000000000000000e+00
0.000000000000000e+00 0.000000000000000e+00 0.000000000000000e+00
0.000000000000000e+00 0.000000000000000e+00 0.000000000000000e+00
0.000000000000000e+00 0.000000000000000e+00 0.000000000000000e+00
0.000000000000000e+00 0.000000000000000e+00 0.000000000000000e+00
0.000000000000000e+00 0.000000000000000e+00 0.000000000000000e+00
0.000000000000000e+00 0.000000000000000e+00 0.000000000000000e+00
0.000000000000000e+00 0.000000000000000e+00 0.000000000000000e+00
0.000000000000000e+00 0.000000000000000e+00 0.000000000000000e+00
0.000000000000000e+00 0.000000000000000e+00 0.000000000000000e+00
0.000000000000000e+00 0.000000000000000e+00 0.000000000000000e+00
0.000000000000000e+00 0.000000000000000e+00 0.000000000000000e+00
0.000000000000000e+00 0.000000000000000e+00 0.000000000000000e+00
0.000000000000000e+00 0.000000000000000e+00 0.000000000000000e+00
0.000000000000000e+00 0.000000000000000e+00 0.000000000000000e+00
0.000000000000000e+00 0.000000000000000e+00 0.000000000000000e+00
0.000000000000000e+00 0.000000000000000e+00 0.000000000000000e+00
0.000000000000000e+00 0.000000000000000e+00 0.000000000000000e+00
0.000000000000000e+00 0.000000000000000e+00 0.000000000000000e+00
0.000000000000000e+00 0.000000000000000e+00 0.000000000000000e+00
0.000000000000000e+00 0.000000000000000e+00 0.000000000000000e+00
0.000000000000000e+00 0.000000000000000e+00 0.000000000000000e+00
0.000000000000000e+00 0.000000000000000e+00 0.000000000000000e+00
0.000000000000000e+00 0.000000000000000e+00 0.000000000000000e+00
0.000000000000000e+00 0.000000000000000e+00 0.000000000000000e+00
0.000000000000000e+00 0.000000000000000e+00 0.000000000000000e+00
0.000000000000000e+00 0.000000000000000e+00 0.000000000000000e+00
0.000000000000000e+00 0.000000000000000e+00 0.000000000000000e+00
0.000000000000000e+00 0.000000000000000e+00 0.000000000000000e+00
0.000000000000000e+00 0.000000000000000e+00 0.000000000000000e+00
0.000000000000000e+00 0.000000000000000e+00 0.000000000000000e+00
0.000000000000000e+00 0.000000000000000e+00 0.000000000000000e+00
0.000000000000000e+00 0.000000000000000e+00 0.000000000000000e+00
0.000000000000000e+00 0.000000000000000e+00 0.000000000000000e+00
0.000000000000000e+00 0.000000000000000e+00 0.000000000000000e+00
0.000000000000000e+00 0.000000000000000e+00 0.000000000000000e+00
0.000000000000000e+00 0.000000000000000e+00 0.000000000000000e+00
0.000000000000000e+00 0.000000000000000e+00 0.000000000000000e+00
0.000000000000000e+00 0.000000000000000e+00 0.000000000000000e+00
0.000000000000000e+00 0.000000000000000e+00 0.000000000000000e+00
0.000000000000000e+00 0.000000000000000e+00 0.000000000000000e+00
0.000000000000000e+00 0.000000000000000e+00 0.000000000000000e+00
0.000000000000000e+00 0.000000000000000e+00 0.000000000000000e+00
0.000000000000000e+00 0.000000000000000e+00 0.000000000000000e+00
0.000000000000000e+00 0.000000000000000e+00 0.000000000000000e+00
0.000000000000000e+00 0.000000000000000e+00 0.000000000000000e+00
0.000000000000000e+00 0.000000000000000e+00 0.000000000000000e+00
0.000000000000000e+00 0.000000000000000e+00 0.000000000000000e+00
0.000000000000000e+00 0.000000000000000e+00 0.000000000000000e+00
0.000000000000000e+00 0.000000000000000e+00 0.000000000000000e+00
0.000000000000000e+00 0.000000000000000e+00 0.000000000000000e+00
0.000000000000000e+00 0.000000000000000e+00 0.000000000000000e+00
0.000000000000000e+00 0.000000000000000e+00 0.000000000000000e+00
0.000000000000000e+00 0.000000000000000e+00 0.000000000000000e+00
0.000000000000000e+00 0.000000000000000e+00 0.000000000000000e+00
0.000000000000000e+00 0.000000000000000e+00 0.000000000000000e+00
0.000000000000000e+00 0.000000000000000e+00 0.000000000000000e+00
0.000000000000000e+00 0.000000000000000e+00 0.000000000000000e+00
0.000000000000000e+00 0.000000000000000e+00 0.000000000000000e+00
0.000000000000000e+00 0.000000000000000e+00 0.000000000000000e+00
0.000000000000000e+00 0.000000000000000e+00 0.000000000000000e+00
0.000000000000000e+00 0.000000000000000e+00 0.000000000000000e+00
0.000000000000000e+00 0.000000000000000e+00 0.000000000000000e+00
0.000000000000000e+00 0.000000000000000e+00 0.000000000000000e+00
0.000000000000000e+00 0.000000000000000e+00 0.000000000000000e+00
0.000000000000000e+00 0.000000000000000e+00 0.000000000000000e+00
0.000000000000000e+00 0.000000000000000e+00 0.000000000000000e+00
0.000000000000000e+00 0.000000000000000e+00 0.000000000000000e+00
0.000000000000000e+00 0.000000000000000e+00 0.000000000000000e+00
0.000000000000000e+00 0.000000000000000e+00 0.000000000000000e+00
0.000000000000000e+00 0.000000000000000e+00 0.000000000000000e+00
0.000000000000000e+00 0.000000000000000e+00 0.000000000000000e+00
0.000000000000000e+00 0.000000000000000e+00 0.000000000000000e+00
0.000000000000000e+00 0.000000000000000e+00 0.000000000000000e+00
0.000000000000000e+00 0.000000000000000e+00 0.000000000000000e+00
0.000000000000000e+00 0.000000000000000e+00 0.000000000000000e+00
0.000000000000000e+00 0.000000000000000e+00 0.000000000000000e+00
0.000000000000000e+00 0.000000000000000e+00 0.000000000000000e+00
0.000000000000000e+00 0.000000000000000e+00 0.000000000000000e+00
0.000000000000000e+00 0.000000000000000e+00 0.000000000000000e+00
0.000000000000000e+00 0.000000000000000e+00 0.000000000000000e+00
0.000000000000000e+00 0.000000000000000e+00 0.000000000000000e+00
0.000000000000000e+00 0.000000000000000e+00 0.000000000000000e+00
0.000000000000000e+00 0.000000000000000e+00 0.000000000000000e+00
0.000000000000000e+00 0.000000000000000e+00 0.000000000000000e+00
0.000000000000000e+00 0.000000000000000e+00 0.000000000000000e+00
0.000000000000000e+00 0.000000000000000e+00 0.000000000000000e+00
0.000000000000000e+00 0.000000000000000e+00 0.000000000000000e+00
0.000000000000000e+00 0.000000000000000e+00 0.000000000000000e+00
0.000000000000000e+00 0.000000000000000e+00 0.000000000000000e+00
0.000000000000000e+00 0.000000000000000e+00 0.000000000000000e+00
0.000000000000000e+00 0.000000000000000e+00 0.000000000000000e+00
0.000000000000000e+00 0.000000000000000e+00 0.000000000000000e+00
0.000000000000000e+00 0.000000000000000e+00 0.000000000000000e+00
0.000000000000000e+00 0.000000000000000e+00 0.000000000000000e+00
0.000000000000000e+00 0.000000000000000e+00 0.000000000000000e+00
0.000000000000000e+00 0.000000000000000e+00 0.000000000000000e+00
0.000000000000000e+00 0.000000000000000e+00 0.000000000000000e+00
0.000000000000000e+00 0.000000000000000e+00 0.000000000000000e+00
0.000000000000000e+00 0.000000000000000e+00 0.000000000000000e+00
0.000000000000000e+00 0.000000000000000e+00 0.000000000000000e+00
0.000000000000000e+00 0.000000000000000e+00 0.000000000000000e+00
0.000000000000000e+00 0.000000000000000e+00 0.000000000000000e+00
0.000000000000000e+00 0.000000000000000e+00 0.000000000000000e+00
0.000000000000000e+00 0.000000000000000e+00 0.000000000000000e+00
0.000000000000000e+00 0.000000000000000e+00 0.000000000000000e+00
0.000000000000000e+00 0.000000000000000e+00 0.000000000000000e+00
0.000000000000000e+00 0.000000000000000e+00 0.000000000000000e+00
0.000000000000000e+00 0.000000000000000e+00 0.000000000000000e+00
0.000000000000000e+00 0.000000000000000e+00 0.000000000000000e+00
0.000000000000000e+00 0.000000000000000e+00 0.000000000000000e+00
0.000000000000000e+00 0.000000000000000e+00 0.000000000000000e+00
0.000000000000000e+00 0.000000000000000e+00 0.000000000000000e+00
0.000000000000000e+00 0.000000000000000e+00 0.000000000000000e+00
0.000000000000000e+00 0.000000000000000e+00 0.000000000000000e+00
0.000000000000000e+00 0.000000000000000e+00 0.000000000000000e+00
0.000000000000000e+00 0.000000000000000e+00 0.000000000000000e+00
0.000000000000000e+00 0.000000000000000e+00 0.000000000000000e+00
0.000000000000000e+00 0.000000000000000e+00 0.000000000000000e+00
0.000000000000000e+00 0.000000000000000e+00 0.000000000000000e+00
0.000000000000000e+00 0.000000000000000e+00 0.000000000000000e+00
0.000000000000000e+00 0.000000000000000e+00 0.000000000000000e+00
0.000000000000000e+00 0.000000000000000e+00 0.000000000000000e+00
0.000000000000000e+00 0.000000000000000e+00 0.000000000000000e+00
0.000000000000000e+00 0.000000000000000e+00 0.000000000000000e+00
0.000000000000000e+00 0.000000000000000e+00 0.000000000000000e+00
0.000000000000000e+00 0.000000000000000e+00 0.000000000000000e+00
0.000000000000000e+00 0.000000000000000e+00 0.000000000000000e+00
0.000000000000000e+00 0.000000000000000e+00 0.000000000000000e+00
0.000000000000000e+00 0.000000000000000e+00 0.000000000000000e+00
0.000000000000000e+00 0.000000000000000e+00 0.000000000000000e+00
0.000000000000000e+00 0.000000000000000e+00 0.000000000000000e+00
0.000000000000000e+00 0.000000000000000e+00 0.000000000000000e+00
0.000000000000000e+00 0.000000000000000e+00 0.000000000000000e+00
0.000000000000000e+00 0.000000000000000e+00 0.000000000000000e+00
0.000000000000000e+00 0.000000000000000e+00 0.000000000000000e+00
0.000000000000000e+00 0.000000000000000e+00 0.000000000000000e+00
0.000000000000000e+00 0.000000000000000e+00 0.000000000000000e+00
0.000000000000000e+00 0.000000000000000e+00 0.000000000000000e+00
0.000000000000000e+00 0.000000000000000e+00 0.000000000000000e+00
0.000000000000000e+00 0.000000000000000e+00 0.000000000000000e+00
0.000000000000000e+00 0.000000000000000e+00 0.000000000000000e+00
0.000000000000000e+00 0.000000000000000e+00 0.000000000000000e+00
0.000000000000000e+00 0.000000000000000e+00 0.000000000000000e+00
0.000000000000000e+00 0.000000000000000e+00 0.000000000000000e+00
0.000000000000000e+00 0.000000000000000e+00 0.000000000000000e+00
0.000000000000000e+00 0.000000000000000e+00 0.000000000000000e+00
0.000000000000000e+00 0.000000000000000e+00 0.000000000000000e+00
0.000000000000000e+00 0.000000000000000e+00 0.000000000000000e+00
0.000000000000000e+00 0.000000000000000e+00 0.000000000000000e+00
0.000000000000000e+00 0.000000000000000e+00 0.000000000000000e+00
0.000000000000000e+00 0.000000000000000e+00 0.000000000000000e+00
0.000000000000000e+00 0.000000000000000e+00 0.000000000000000e+00
0.000000000000000e+00 0.000000000000000e+00 0.000000000000000e+00
0.000000000000000e+00 0.000000000000000e+00 0.000000000000000e+00
0.000000000000000e+00 0.000000000000000e+00 0.000000000000000e+00
0.000000000000000e+00 0.000000000000000e+00 0.000000000000000e+00
0.000000000000000e+00 0.000000000000000e+00 0.000000000000000e+00
0.000000000000000e+00 0.000000000000000e+00 0.000000000000000e+00
0.000000000000000e+00 0.000000000000000e+00 0.000000000000000e+00
0.000000000000000e+00 0.000000000000000e+00 0.000000000000000e+00
0.000000000000000e+00 0.000000000000000e+00 0.000000000000000e+00
0.000000000000000e+00 0.000000000000000e+00 0.000000000000000e+00
0.000000000000000e+00 0.000000000000000e+00 0.000000000000000e+00
0.000000000000000e+00 0.000000000000000e+00 0.000000000000000e+00
0.000000000000000e+00 0.000000000000000e+00 0.000000000000000e+00
0.000000000000000e+00 0.000000000000000e+00 0.000000000000000e+00
0.000000000000000e+00 0.000000000000000e+00 0.000000000000000e+00
0.000000000000000e+00 0.000000000000000e+00 0.000000000000000e+00
0.000000000000000e+00 0.000000000000000e+00 0.000000000000000e+00
0.000000000000000e+00 0.000000000000000e+00 0.000000000000000e+00
0.000000000000000e+00 0.000000000000000e+00 0.000000000000000e+00
0.000000000000000e+00 0.000000000000000e+00 0.000000000000000e+00
0.000000000000000e+00 0.000000000000000e+00 0.000000000000000e+00
0.000000000000000e+00 0.000000000000000e+00 0.000000000000000e+00
0.000000000000000e+00 0.000000000000000e+00 0.000000000000000e+00
0.000000000000000e+00 0.000000000000000e+00 0.000000000000000e+00
0.000000000000000e+00 0.000000000000000e+00 0.000000000000000e+00
0.000000000000000e+00 0.000000000000000e+00 0.000000000000000e+00
0.000000000000000e+00 0.000000000000000e+00 0.000000000000000e+00
0.000000000000000e+00 0.000000000000000e+00 0.000000000000000e+00
0.000000000000000e+00 0.000000000000000e+00 0.000000000000000e+00
0.000000000000000e+00 0.000000000000000e+00 0.000000000000000e+00
0.000000000000000e+00 0.000000000000000e+00 0.000000000000000e+00
0.000000000000000e+00 0.000000000000000e+00 0.000000000000000e+00
0.000000000000000e+00 0.000000000000000e+00 0.000000000000000e+00
0.000000000000000e+00 0.000000000000000e+00 0.000000000000000e+00
0.000000000000000e+00 0.000000000000000e+00 0.000000000000000e+00
0.000000000000000e+00 0.000000000000000e+00 0.000000000000000e+00
0.000000000000000e+00 0.000000000000000e+00 0.000000000000000e+00
0.000000000000000e+00 0.000000000000000e+00 0.000000000000000e+00
0.000000000000000e+00 0.000000000000000e+00 0.000000000000000e+00
0.000000000000000e+00 0.000000000000000e+00 0.000000000000000e+00
0.000000000000000e+00 0.000000000000000e+00 0.000000000000000e+00
0.000000000000000e+00 0.000000000000000e+00 0.000000000000000e+00
0.000000000000000e+00 0.000000000000000e+00 0.000000000000000e+00
0.000000000000000e+00 0.000000000000000e+00 0.000000000000000e+00
0.000000000000000e+00 0.000000000000000e+00 0.000000000000000e+00
0.000000000000000e+00 0.000000000000000e+00 0.000000000000000e+00
0.000000000000000e+00 0.000000000000000e+00 0.000000000000000e+00
0.000000000000000e+00 0.000000000000000e+00 0.000000000000000e+00
0.000000000000000e+00 0.000000000000000e+00 0.000000000000000e+00
0.000000000000000e+00 0.000000000000000e+00 0.000000000000000e+00
0.000000000000000e+00 0.000000000000000e+00 0.000000000000000e+00
0.000000000000000e+00 0.000000000000000e+00 0.000000000000000e+00
0.000000000000000e+00 0.000000000000000e+00 0.000000000000000e+00
0.000000000000000e+00 0.000000000000000e+00 0.000000000000000e+00
0.000000000000000e+00 0.000000000000000e+00 0.000000000000000e+00
0.000000000000000e+00 0.000000000000000e+00 0.000000000000000e+00
0.000000000000000e+00 0.000000000000000e+00 0.000000000000000e+00
0.000000000000000e+00 0.000000000000000e+00 0.000000000000000e+00
0.000000000000000e+00 0.000000000000000e+00 0.000000000000000e+00
0.000000000000000e+00 0.000000000000000e+00 0.000000000000000e+00
0.000000000000000e+00 0.000000000000000e+00 0.000000000000000e+00
0.000000000000000e+00 0.000000000000000e+00 0.000000000000000e+00
0.000000000000000e+00 0.000000000000000e+00 0.000000000000000e+00
0.000000000000000e+00 0.000000000000000e+00 0.000000000000000e+00
0.000000000000000e+00 0.000000000000000e+00 0.000000000000000e+00
0.000000000000000e+00 0.000000000000000e+00 0.000000000000000e+00
0.000000000000000e+00 0.000000000000000e+00 0.000000000000000e+00
0.000000000000000e+00 0.000000000000000e+00 0.000000000000000e+00
0.000000000000000e+00 0.000000000000000e+00 0.000000000000000e+00
0.000000000000000e+00 0.000000000000000e+00 0.000000000000000e+00
0.000000000000000e+00 0.000000000000000e+00 0.000000000000000e+00
0.000000000000000e+00 0.000000000000000e+00 0.000000000000000e+00
0.000000000000000e+00 0.000000000000000e+00 0.000000000000000e+00
0.000000000000000e+00 0.000000000000000e+00 0.000000000000000e+00
0.000000000000000e+00 0.000000000000000e+00 0.000000000000000e+00
0.000000000000000e+00 0.000000000000000e+00 0.000000000000000e+00
0.000000000000000e+00 0.000000000000000e+00 0.000000000000000e+00
0.000000000000000e+00 0.000000000000000e+00 0.000000000000000e+00
0.000000000000000e+00 0.000000000000000e+00 0.000000000000000e+00
0.000000000000000e+00 0.000000000000000e+00 0.000000000000000e+00
0.000000000000000e+00 0.000000000000000e+00 0.000000000000000e+00
0.000000000000000e+00 0.000000000000000e+00 0.000000000000000e+00
0.000000000000000e+00 0.000000000000000e+00 0.000000000000000e+00
0.000000000000000e+00 0.000000000000000e+00 0.000000000000000e+00
0.000000000000000e+00 0.000000000000000e+00 0.000000000000000e+00
0.000000000000000e+00 0.000000000000000e+00 0.000000000000000e+00
0.000000000000000e+00 0.000000000000000e+00 0.000000000000000e+00
0.000000000000000e+00 0.000000000000000e+00 0.000000000000000e+00
0.000000000000000e+00 0.000000000000000e+00 0.000000000000000e+00
0.000000000000000e+00 0.000000000000000e+00 0.000000000000000e+00
0.000000000000000e+00 0.000000000000000e+00 0.000000000000000e+00
0.000000000000000e+00 0.000000000000000e+00 0.000000000000000e+00
0.000000000000000e+00 0.000000000000000e+00 0.000000000000000e+00
0.000000000000000e+00 0.000000000000000e+00 0.000000000000000e+00
0.000000000000000e+00 0.000000000000000e+00 0.000000000000000e+00
0.000000000000000e+00 0.000000000000000e+00 0.000000000000000e+00
0.000000000000000e+00 0.000000000000000e+00 0.000000000000000e+00
0.000000000000000e+00 0.000000000000000e+00 0.000000000000000e+00
0.000000000000000e+00 0.000000000000000e+00 0.000000000000000e+00
0.000000000000000e+00 0.000000000000000e+00 0.000000000000000e+00
0.000000000000000e+00 0.000000000000000e+00 0.000000000000000e+00
0.000000000000000e+00 0.000000000000000e+00 0.000000000000000e+00
0.000000000000000e+00 0.000000000000000e+00 0.000000000000000e+00
0.000000000000000e+00 0.000000000000000e+00 0.000000000000000e+00
0.000000000000000e+00 0.000000000000000e+00 0.000000000000000e+00
0.000000000000000e+00 0.000000000000000e+00 0.000000000000000e+00
0.000000000000000e+00 0.000000000000000e+00 0.000000000000000e+00
0.000000000000000e+00 0.000000000000000e+00 0.000000000000000e+00
0.000000000000000e+00 0.000000000000000e+00 0.000000000000000e+00
0.000000000000000e+00 0.000000000000000e+00 0.000000000000000e+00
0.000000000000000e+00 0.000000000000000e+00 0.000000000000000e+00
0.000000000000000e+00 0.000000000000000e+00 0.000000000000000e+00
0.000000000000000e+00 0.000000000000000e+00 0.000000000000000e+00
0.000000000000000e+00 0.000000000000000e+00 0.000000000000000e+00
0.000000000000000e+00 0.000000000000000e+00 0.000000000000000e+00
0.000000000000000e+00 0.000000000000000e+00 0.000000000000000e+00
0.000000000000000e+00 0.000000000000000e+00 0.000000000000000e+00
0.000000000000000e+00 0.000000000000000e+00 0.000000000000000e+00
0.000000000000000e+00 0.000000000000000e+00 0.000000000000000e+00
0.000000000000000e+00 0.000000000000000e+00 0.000000000000000e+00
0.000000000000000e+00 0.000000000000000e+00 0.000000000000000e+00
0.000000000000000e+00 0.000000000000000e+00 0.000000000000000e+00
0.000000000000000e+00 0.000000000000000e+00 0.000000000000000e+00
0.000000000000000e+00 0.000000000000000e+00 0.000000000000000e+00
0.000000000000000e+00 0.000000000000000e+00 0.000000000000000e+00
0.000000000000000e+00 0.000000000000000e+00 0.000000000000000e+00
0.000000000000000e+00 0.000000000000000e+00 0.000000000000000e+00
0.000000000000000e+00 0.000000000000000e+00 0.000000000000000e+00
0.000000000000000e+00 0.000000000000000e+00 0.000000000000000e+00
0.000000000000000e+00 0.000000000000000e+00 0.000000000000000e+00
0.000000000000000e+00 0.000000000000000e+00 0.000000000000000e+00
0.000000000000000e+00 0.000000000000000e+00 0.000000000000000e+00
0.000000000000000e+00 0.000000000000000e+00 0.000000000000000e+00
0.000000000000000e+00 0.000000000000000e+00 0.000000000000000e+00
0.000000000000000e+00 0.000000000000000e+00 0.000000000000000e+00
0.000000000000000e+00 0.000000000000000e+00 0.000000000000000e+00
0.000000000000000e+00 0.000000000000000e+00 0.000000000000000e+00
0.000000000000000e+00 0.000000000000000e+00 0.000000000000000e+00
0.000000000000000e+00 0.000000000000000e+00 0.000000000000000e+00
0.000000000000000e+00 0.000000000000000e+00 0.000000000000000e+00
0.000000000000000e+00 0.000000000000000e+00 0.000000000000000e+00
0.000000000000000e+00 0.000000000000000e+00 0.000000000000000e+00
0.000000000000000e+00 0.000000000000000e+00 0.000000000000000e+00
0.000000000000000e+00 0.000000000000000e+00 0.000000000000000e+00
0.000000000000000e+00 0.000000000000000e+00 0.000000000000000e+00
0.000000000000000e+00 0.000000000000000e+00 0.000000000000000e+00
0.000000000000000e+00 0.000000000000000e+00 0.000000000000000e+00
0.000000000000000e+00 0.000000000000000e+00 0.000000000000000e+00
0.000000000000000e+00 0.000000000000000e+00 0.000000000000000e+00
0.000000000000000e+00 0.000000000000000e+00 0.000000000000000e+00
0.000000000000000e+00 0.000000000000000e+00 0.000000000000000e+00
0.000000000000000e+00 0.000000000000000e+00 0.000000000000000e+00
0.000000000000000e+00 0.000000000000000e+00 0.000000000000000e+00
0.000000000000000e+00 0.000000000000000e+00 0.000000000000000e+00
0.000000000000000e+00 0.000000000000000e+00 0.000000000000000e+00
0.000000000000000e+00 0.000000000000000e+00 0.000000000000000e+00
0.000000000000000e+00 0.000000000000000e+00 0.000000000000000e+00
0.000000000000000e+00 0.000000000000000e+00 0.000000000000000e+00
0.000000000000000e+00 0.000000000000000e+00 0.000000000000000e+00
0.000000000000000e+00 0.000000000000000e+00 0.000000000000000e+00
0.000000000000000e+00 0.000000000000000e+00 0.000000000000000e+00
0.000000000000000e+00 0.000000000000000e+00 0.000000000000000e+00
0.000000000000000e+00 0.000000000000000e+00 0.000000000000000e+00
0.000000000000000e+00 0.000000000000000e+00 0.000000000000000e+00
0.000000000000000e+00 0.000000000000000e+00 0.000000000000000e+00
0.000000000000000e+00 0.000000000000000e+00 0.000000000000000e+00
0.000000000000000e+00 0.000000000000000e+00 0.000000000000000e+00
0.000000000000000e+00 0.000000000000000e+00 0.000000000000000e+00
0.000000000000000e+00 0.000000000000000e+00 0.000000000000000e+00
0.000000000000000e+00 0.000000000000000e+00 0.000000000000000e+00
0.000000000000000e+00 0.000000000000000e+00 0.000000000000000e+00
0.000000000000000e+00 0.000000000000000e+00 0.000000000000000e+00
0.000000000000000e+00 0.000000000000000e+00 0.000000000000000e+00
0.000000000000000e+00 0.000000000000000e+00 0.000000000000000e+00
0.000000000000000e+00 0.000000000000000e+00 0.000000000000000e+00
0.000000000000000e+00 0.000000000000000e+00 0.000000000000000e+00
0.000000000000000e+00 0.000000000000000e+00 0.000000000000000e+00
0.000000000000000e+00 0.000000000000000e+00 0.000000000000000e+00
0.000000000000000e+00 0.000000000000000e+00 0.000000000000000e+00
0.000000000000000e+00 0.000000000000000e+00 0.000000000000000e+00
0.000000000000000e+00 0.000000000000000e+00 0.000000000000000e+00
0.000000000000000e+00 0.000000000000000e+00 0.000000000000000e+00
0.000000000000000e+00 0.000000000000000e+00 0.000000000000000e+00
0.000000000000000e+00 0.000000000000000e+00 0.000000000000000e+00
0.000000000000000e+00 0.000000000000000e+00 0.000000000000000e+00
0.000000000000000e+00 0.000000000000000e+00 0.000000000000000e+00
0.000000000000000e+00 0.000000000000000e+00 0.000000000000000e+00
0.000000000000000e+00 0.000000000000000e+00 0.000000000000000e+00
0.000000000000000e+00 0.000000000000000e+00 0.000000000000000e+00
0.000000000000000e+00 0.000000000000000e+00 0.000000000000000e+00
0.000000000000000e+00 0.000000000000000e+00 0.000000000000000e+00
0.000000000000000e+00 0.000000000000000e+00 0.000000000000000e+00
0.000000000000000e+00 0.000000000000000e+00 0.000000000000000e+00
0.000000000000000e+00 0.000000000000000e+00 0.000000000000000e+00
0.000000000000000e+00 0.000000000000000e+00 0.000000000000000e+00
0.000000000000000e+00 0.000000000000000e+00 0.000000000000000e+00
0.000000000000000e+00 0.000000000000000e+00 0.000000000000000e+00
0.000000000000000e+00 0.000000000000000e+00 0.000000000000000e+00
0.000000000000000e+00 0.000000000000000e+00 0.000000000000000e+00
0.000000000000000e+00 0.000000000000000e+00 0.000000000000000e+00
0.000000000000000e+00 0.000000000000000e+00 0.000000000000000e+00
0.000000000000000e+00 0.000000000000000e+00 0.000000000000000e+00
0.000000000000000e+00 0.000000000000000e+00 0.000000000000000e+00
0.000000000000000e+00 0.000000000000000e+00 0.000000000000000e+00
0.000000000000000e+00 0.000000000000000e+00 0.000000000000000e+00
0.000000000000000e+00 0.000000000000000e+00 0.000000000000000e+00
0.000000000000000e+00 0.000000000000000e+00 0.000000000000000e+00
0.000000000000000e+00 0.000000000000000e+00 0.000000000000000e+00
0.000000000000000e+00 0.000000000000000e+00 0.000000000000000e+00
0.000000000000000e+00 0.000000000000000e+00 0.000000000000000e+00
0.000000000000000e+00 0.000000000000000e+00 0.000000000000000e+00
0.000000000000000e+00 0.000000000000000e+00 0.000000000000000e+00
0.000000000000000e+00 0.000000000000000e+00 0.000000000000000e+00
0.000000000000000e+00 0.000000000000000e+00 0.000000000000000e+00
0.000000000000000e+00 0.000000000000000e+00 0.000000000000000e+00
0.000000000000000e+00 0.000000000000000e+00 0.000000000000000e+00
0.000000000000000e+00 0.000000000000000e+00 0.000000000000000e+00
0.000000000000000e+00 0.000000000000000e+00 0.000000000000000e+00
0.000000000000000e+00 0.000000000000000e+00 0.000000000000000e+00
0.000000000000000e+00 0.000000000000000e+00 0.000000000000000e+00
0.000000000000000e+00 0.000000000000000e+00 0.000000000000000e+00
0.000000000000000e+00 0.000000000000000e+00 0.000000000000000e+00
0.000000000000000e+00 0.000000000000000e+00 0.000000000000000e+00
0.000000000000000e+00 0.000000000000000e+00 0.000000000000000e+00
0.000000000000000e+00 0.000000000000000e+00 0.000000000000000e+00
0.000000000000000e+00 0.000000000000000e+00 0.000000000000000e+00
0.000000000000000e+00 0.000000000000000e+00 0.000000000000000e+00
0.000000000000000e+00 0.000000000000000e+00 0.000000000000000e+00
0.000000000000000e+00 0.000000000000000e+00 0.000000000000000e+00
0.000000000000000e+00 0.000000000000000e+00 0.000000000000000e+00
0.000000000000000e+00 0.000000000000000e+00 0.000000000000000e+00
0.000000000000000e+00 0.000000000000000e+00 0.000000000000000e+00
0.000000000000000e+00 0.000000000000000e+00 0.000000000000000e+00
0.000000000000000e+00 0.000000000000000e+00 0.000000000000000e+00
0.000000000000000e+00 0.000000000000000e+00 0.000000000000000e+00
0.000000000000000e+00 0.000000000000000e+00 0.000000000000000e+00
0.000000000000000e+00 0.000000000000000e+00 0.000000000000000e+00
0.000000000000000e+00 0.000000000000000e+00 0.000000000000000e+00
0.000000000000000e+00 0.000000000000000e+00 0.000000000000000e+00
0.000000000000000e+00 0.000000000000000e+00 0.000000000000000e+00
0.000000000000000e+00 0.000000000000000e+00 0.000000000000000e+00
0.000000000000000e+00 0.000000000000000e+00 0.000000000000000e+00
0.000000000000000e+00 0.000000000000000e+00 0.000000000000000e+00
0.000000000000000e+00 0.000000000000000e+00 0.000000000000000e+00
0.000000000000000e+00 0.000000000000000e+00 0.000000000000000e+00
0.000000000000000e+00 0.000000000000000e+00 0.000000000000000e+00
0.000000000000000e+00 0.000000000000000e+00 0.000000000000000e+00
0.000000000000000e+00 0.000000000000000e+00 0.000000000000000e+00
0.000000000000000e+00 0.000000000000000e+00 0.000000000000000e+00
0.000000000000000e+00 0.000000000000000e+00 0.000000000000000e+00
0.000000000000000e+00 0.000000000000000e+00 0.000000000000000e+00
0.000000000000000e+00 0.000000000000000e+00 0.000000000000000e+00
0.000000000000000e+00 0.000000000000000e+00 0.000000000000000e+00
0.000000000000000e+00 0.000000000000000e+00 0.000000000000000e+00
0.000000000000000e+00 0.000000000000000e+00 0.000000000000000e+00
0.000000000000000e+00 0.000000000000000e+00 0.000000000000000e+00
0.000000000000000e+00 0.000000000000000e+00 0.000000000000000e+00
0.000000000000000e+00 0.000000000000000e+00 0.000000000000000e+00
0.000000000000000e+00 0.000000000000000e+00 0.000000000000000e+00
0.000000000000000e+00 0.000000000000000e+00 0.000000000000000e+00
0.000000000000000e+00 0.000000000000000e+00 0.000000000000000e+00
0.000000000000000e+00 0.000000000000000e+00 0.000000000000000e+00
0.000000000000000e+00 0.000000000000000e+00 0.000000000000000e+00
0.000000000000000e+00 0.000000000000000e+00 0.000000000000000e+00
0.000000000000000e+00 0.000000000000000e+00 0.000000000000000e+00
0.000000000000000e+00 0.000000000000000e+00 0.000000000000000e+00
0.000000000000000e+00 0.000000000000000e+00 0.000000000000000e+00
0.000000000000000e+00 0.000000000000000e+00 0.000000000000000e+00
0.000000000000000e+00 0.000000000000000e+00 0.000000000000000e+00
0.000000000000000e+00 0.000000000000000e+00 0.000000000000000e+00
0.000000000000000e+00 0.000000000000000e+00 0.000000000000000e+00
0.000000000000000e+00 0.000000000000000e+00 0.000000000000000e+00
0.000000000000000e+00 0.000000000000000e+00 0.000000000000000e+00
0.000000000000000e+00 0.000000000000000e+00 0.000000000000000e+00
0.000000000000000e+00 0.000000000000000e+00 0.000000000000000e+00
0.000000000000000e+00 0.000000000000000e+00 0.000000000000000e+00
0.000000000000000e+00 0.000000000000000e+00 0.000000000000000e+00
0.000000000000000e+00 0.000000000000000e+00 0.000000000000000e+00
0.000000000000000e+00 0.000000000000000e+00 0.000000000000000e+00
0.000000000000000e+00 0.000000000000000e+00 0.000000000000000e+00
0.000000000000000e+00 0.000000000000000e+00 0.000000000000000e+00
0.000000000000000e+00 0.000000000000000e+00 0.000000000000000e+00
0.000000000000000e+00 0.000000000000000e+00 0.000000000000000e+00
0.000000000000000e+00 0.000000000000000e+00 0.000000000000000e+00
0.000000000000000e+00 0.000000000000000e+00 0.000000000000000e+00
0.000000000000000e+00 0.000000000000000e+00 0.000000000000000e+00
0.000000000000000e+00 0.000000000000000e+00 0.000000000000000e+00
0.000000000000000e+00 0.000000000000000e+00 0.000000000000000e+00
0.000000000000000e+00 0.000000000000000e+00 0.000000000000000e+00
0.000000000000000e+00 0.000000000000000e+00 0.000000000000000e+00
0.000000000000000e+00 0.000000000000000e+00 0.000000000000000e+00
0.000000000000000e+00 0.000000000000000e+00 0.000000000000000e+00
0.000000000000000e+00 0.000000000000000e+00 0.000000000000000e+00
0.000000000000000e+00 0.000000000000000e+00 0.000000000000000e+00
0.000000000000000e+00 0.000000000000000e+00 0.000000000000000e+00
0.000000000000000e+00 0.000000000000000e+00 0.000000000000000e+00
0.000000000000000e+00 0.000000000000000e+00 0.000000000000000e+00
0.000000000000000e+00 0.000000000000000e+00 0.000000000000000e+00
0.000000000000000e+00 0.000000000000000e+00 0.000000000000000e+00
0.000000000000000e+00 0.000000000000000e+00 0.000000000000000e+00
0.000000000000000e+00 0.000000000000000e+00 0.000000000000000e+00
0.000000000000000e+00 0.000000000000000e+00 0.000000000000000e+00
0.000000000000000e+00 0.000000000000000e+00 0.000000000000000e+00
0.000000000000000e+00 0.000000000000000e+00 0.000000000000000e+00
0.000000000000000e+00 0.000000000000000e+00 0.000000000000000e+00
0.000000000000000e+00 0.000000000000000e+00 0.000000000000000e+00
0.000000000000000e+00 0.000000000000000e+00 0.000000000000000e+00
0.000000000000000e+00 0.000000000000000e+00 0.000000000000000e+00
0.000000000000000e+00 0.000000000000000e+00 0.000000000000000e+00
0.000000000000000e+00 0.000000000000000e+00 0.000000000000000e+00
0.000000000000000e+00 0.000000000000000e+00 0.000000000000000e+00
0.000000000000000e+00 0.000000000000000e+00 0.000000000000000e+00
0.000000000000000e+00 0.000000000000000e+00 0.000000000000000e+00
0.000000000000000e+00 0.000000000000000e+00 0.000000000000000e+00
0.000000000000000e+00 0.000000000000000e+00 0.000000000000000e+00
0.000000000000000e+00 0.000000000000000e+00 0.000000000000000e+00
0.000000000000000e+00 0.000000000000000e+00 0.000000000000000e+00
0.000000000000000e+00 0.000000000000000e+00 0.000000000000000e+00
0.000000000000000e+00 0.000000000000000e+00 0.000000000000000e+00
0.000000000000000e+00 0.000000000000000e+00 0.000000000000000e+00
0.000000000000000e+00 0.000000000000000e+00 0.000000000000000e+00
0.000000000000000e+00 0.000000000000000e+00 0.000000000000000e+00
0.000000000000000e+00 0.000000000000000e+00 0.000000000000000e+00
0.000000000000000e+00 0.000000000000000e+00 0.000000000000000e+00
0.000000000000000e+00 0.000000000000000e+00 0.000000000000000e+00
0.000000000000000e+00 0.000000000000000e+00 0.000000000000000e+00
0.000000000000000e+00 0.000000000000000e+00 0.000000000000000e+00
0.000000000000000e+00 0.000000000000000e+00 0.000000000000000e+00
0.000000000000000e+00 0.000000000000000e+00 0.000000000000000e+00
0.000000000000000e+00 0.000000000000000e+00 0.000000000000000e+00
0.000000000000000e+00 0.000000000000000e+00 0.000000000000000e+00
0.000000000000000e+00 0.000000000000000e+00 0.000000000000000e+00
0.000000000000000e+00 0.000000000000000e+00 0.000000000000000e+00
0.000000000000000e+00 0.000000000000000e+00 0.000000000000000e+00
0.000000000000000e+00 0.000000000000000e+00 0.000000000000000e+00
0.000000000000000e+00 0.000000000000000e+00 0.000000000000000e+00
0.000000000000000e+00 0.000000000000000e+00 0.000000000000000e+00
0.000000000000000e+00 0.000000000000000e+00 0.000000000000000e+00
0.000000000000000e+00 0.000000000000000e+00 0.000000000000000e+00
0.000000000000000e+00 0.000000000000000e+00 0.000000000000000e+00
0.000000000000000e+00 0.000000000000000e+00 0.000000000000000e+00
0.000000000000000e+00 0.000000000000000e+00 0.000000000000000e+00
0.000000000000000e+00 0.000000000000000e+00 0.000000000000000e+00
0.000000000000000e+00 0.000000000000000e+00 0.000000000000000e+00
0.000000000000000e+00 0.000000000000000e+00 0.000000000000000e+00
0.000000000000000e+00 0.000000000000000e+00 0.000000000000000e+00
0.000000000000000e+00 0.000000000000000e+00 0.000000000000000e+00
0.000000000000000e+00 0.000000000000000e+00 0.000000000000000e+00
0.000000000000000e+00 0.000000000000000e+00 0.000000000000000e+00
0.000000000000000e+00 0.000000000000000e+00 0.000000000000000e+00
0.000000000000000e+00 0.000000000000000e+00 0.000000000000000e+00
0.000000000000000e+00 0.000000000000000e+00 0.000000000000000e+00
0.000000000000000e+00 0.000000000000000e+00 0.000000000000000e+00
0.000000000000000e+00 0.000000000000000e+00 0.000000000000000e+00
0.000000000000000e+00 0.000000000000000e+00 0.000000000000000e+00
0.000000000000000e+00 0.000000000000000e+00 0.000000000000000e+00
0.000000000000000e+00 0.000000000000000e+00 0.000000000000000e+00
0.000000000000000e+00 0.000000000000000e+00 0.000000000000000e+00
0.000000000000000e+00 0.000000000000000e+00 0.000000000000000e+00
0.000000000000000e+00 0.000000000000000e+00 0.000000000000000e+00
0.000000000000000e+00 0.000000000000000e+00 0.000000000000000e+00
0.000000000000000e+00 0.000000000000000e+00 0.000000000000000e+00
0.000000000000000e+00 0.000000000000000e+00 0.000000000000000e+00
0.000000000000000e+00 0.000000000000000e+00 0.000000000000000e+00
0.000000000000000e+00 0.000000000000000e+00 0.000000000000000e+00
0.000000000000000e+00 0.000000000000000e+00 0.000000000000000e+00
0.000000000000000e+00 0.000000000000000e+00 0.000000000000000e+00
0.000000000000000e+00 0.000000000000000e+00 0.000000000000000e+00
0.000000000000000e+00 0.000000000000000e+00 0.000000000000000e+00
0.000000000000000e+00 0.000000000000000e+00 0.000000000000000e+00
0.000000000000000e+00 0.000000000000000e+00 0.000000000000000e+00
0.000000000000000e+00 0.000000000000000e+00 0.000000000000000e+00
0.000000000000000e+00 0.000000000000000e+00 0.000000000000000e+00
0.000000000000000e+00 0.000000000000000e+00 0.000000000000000e+00
0.000000000000000e+00 0.000000000000000e+00 0.000000000000000e+00
0.000000000000000e+00 0.000000000000000e+00 0.000000000000000e+00
0.000000000000000e+00 0.000000000000000e+00 0.000000000000000e+00
0.000000000000000e+00 0.000000000000000e+00 0.000000000000000e+00
0.000000000000000e+00 0.000000000000000e+00 0.000000000000000e+00
0.000000000000000e+00 0.000000000000000e+00 0.000000000000000e+00
0.000000000000000e+00 0.000000000000000e+00 0.000000000000000e+00
0.000000000000000e+00 0.000000000000000e+00 0.000000000000000e+00
0.000000000000000e+00 0.000000000000000e+00 0.000000000000000e+00
0.000000000000000e+00 0.000000000000000e+00 0.000000000000000e+00
0.000000000000000e+00 0.000000000000000e+00 0.000000000000000e+00
0.000000000000000e+00 0.000000000000000e+00 0.000000000000000e+00
0.000000000000000e+00 0.000000000000000e+00 0.000000000000000e+00
0.000000000000000e+00 0.000000000000000e+00 0.000000000000000e+00
0.000000000000000e+00 0.000000000000000e+00 0.000000000000000e+00
0.000000000000000e+00 0.000000000000000e+00 0.000000000000000e+00
0.000000000000000e+00 0.000000000000000e+00 0.000000000000000e+00
0.000000000000000e+00 0.000000000000000e+00 0.000000000000000e+00
0.000000000000000e+00 0.000000000000000e+00 0.000000000000000e+00
0.000000000000000e+00 0.000000000000000e+00 0.000000000000000e+00
0.000000000000000e+00 0.000000000000000e+00 0.000000000000000e+00
0.000000000000000e+00 0.000000000000000e+00 0.000000000000000e+00
0.000000000000000e+00 0.000000000000000e+00 0.000000000000000e+00
0.000000000000000e+00 0.000000000000000e+00 0.000000000000000e+00
0.000000000000000e+00 0.000000000000000e+00 0.000000000000000e+00
0.000000000000000e+00 0.000000000000000e+00 0.000000000000000e+00
0.000000000000000e+00 0.000000000000000e+00 0.000000000000000e+00
0.000000000000000e+00 0.000000000000000e+00 0.000000000000000e+00
0.000000000000000e+00 0.000000000000000e+00 0.000000000000000e+00
0.000000000000000e+00 0.000000000000000e+00 0.000000000000000e+00
0.000000000000000e+00 0.000000000000000e+00 0.000000000000000e+00
0.000000000000000e+00 0.000000000000000e+00 0.000000000000000e+00
0.000000000000000e+00 0.000000000000000e+00 0.000000000000000e+00
0.000000000000000e+00 0.000000000000000e+00 0.000000000000000e+00
0.000000000000000e+00 0.000000000000000e+00 0.000000000000000e+00
0.000000000000000e+00 0.000000000000000e+00 0.000000000000000e+00
0.000000000000000e+00 0.000000000000000e+00 0.000000000000000e+00
0.000000000000000e+00 0.000000000000000e+00 0.000000000000000e+00
0.000000000000000e+00 0.000000000000000e+00 0.000000000000000e+00
0.000000000000000e+00 0.000000000000000e+00 0.000000000000000e+00
0.000000000000000e+00 0.000000000000000e+00 0.000000000000000e+00
0.000000000000000e+00 0.000000000000000e+00 0.000000000000000e+00
0.000000000000000e+00 0.000000000000000e+00 0.000000000000000e+00
0.000000000000000e+00 0.000000000000000e+00 0.000000000000000e+00
0.000000000000000e+00 0.000000000000000e+00 0.000000000000000e+00
0.000000000000000e+00 0.000000000000000e+00 0.000000000000000e+00
0.000000000000000e+00 0.000000000000000e+00 0.000000000000000e+00
0.000000000000000e+00 0.000000000000000e+00 0.000000000000000e+00
0.000000000000000e+00 0.000000000000000e+00 0.000000000000000e+00
0.000000000000000e+00 0.000000000000000e+00 0.000000000000000e+00
0.000000000000000e+00 0.000000000000000e+00 0.000000000000000e+00
0.000000000000000e+00 0.000000000000000e+00 0.000000000000000e+00
0.000000000000000e+00 0.000000000000000e+00 0.000000000000000e+00
0.000000000000000e+00 0.000000000000000e+00 0.000000000000000e+00
0.000000000000000e+00 0.000000000000000e+00 0.000000000000000e+00
0.000000000000000e+00 0.000000000000000e+00 0.000000000000000e+00
0.000000000000000e+00 0.000000000000000e+00 0.000000000000000e+00
0.000000000000000e+00 0.000000000000000e+00 0.000000000000000e+00
0.000000000000000e+00 0.000000000000000e+00 0.000000000000000e+00
0.000000000000000e+00 0.000000000000000e+00 0.000000000000000e+00
0.000000000000000e+00 0.000000000000000e+00 0.000000000000000e+00
0.000000000000000e+00 0.000000000000000e+00 0.000000000000000e+00
0.000000000000000e+00 0.000000000000000e+00 0.000000000000000e+00
0.000000000000000e+00 0.000000000000000e+00 0.000000000000000e+00
0.000000000000000e+00 0.000000000000000e+00 0.000000000000000e+00
0.000000000000000e+00 0.000000000000000e+00 0.000000000000000e+00
0.000000000000000e+00 0.000000000000000e+00 0.000000000000000e+00
0.000000000000000e+00 0.000000000000000e+00 0.000000000000000e+00
0.000000000000000e+00 0.000000000000000e+00 0.000000000000000e+00
0.000000000000000e+00 0.000000000000000e+00 0.000000000000000e+00
0.000000000000000e+00 0.000000000000000e+00 0.000000000000000e+00
0.000000000000000e+00 0.000000000000000e+00 0.000000000000000e+00
0.000000000000000e+00 0.000000000000000e+00 0.000000000000000e+00
0.000000000000000e+00 0.000000000000000e+00 0.000000000000000e+00
0.000000000000000e+00 0.000000000000000e+00 0.000000000000000e+00
0.000000000000000e+00 0.000000000000000e+00 0.000000000000000e+00
0.000000000000000e+00 0.000000000000000e+00 0.000000000000000e+00
0.000000000000000e+00 0.000000000000000e+00 0.000000000000000e+00
0.000000000000000e+00 0.000000000000000e+00 0.000000000000000e+00
0.000000000000000e+00 0.000000000000000e+00 0.000000000000000e+00
0.000000000000000e+00 0.000000000000000e+00 0.000000000000000e+00
0.000000000000000e+00 0.000000000000000e+00 0.000000000000000e+00
0.000000000000000e+00 0.000000000000000e+00 0.000000000000000e+00
0.000000000000000e+00 0.000000000000000e+00 0.000000000000000e+00
0.000000000000000e+00 0.000000000000000e+00 0.000000000000000e+00
0.000000000000000e+00 0.000000000000000e+00 0.000000000000000e+00
0.000000000000000e+00 0.000000000000000e+00 0.000000000000000e+00
0.000000000000000e+00 0.000000000000000e+00 0.000000000000000e+00
0.000000000000000e+00 0.000000000000000e+00 0.000000000000000e+00
0.000000000000000e+00 0.000000000000000e+00 0.000000000000000e+00
0.000000000000000e+00 0.000000000000000e+00 0.000000000000000e+00
0.000000000000000e+00 0.000000000000000e+00 0.000000000000000e+00
0.000000000000000e+00 0.000000000000000e+00 0.000000000000000e+00
0.000000000000000e+00 0.000000000000000e+00 0.000000000000000e+00
0.000000000000000e+00 0.000000000000000e+00 0.000000000000000e+00
0.000000000000000e+00 0.000000000000000e+00 0.000000000000000e+00
0.000000000000000e+00 0.000000000000000e+00 0.000000000000000e+00
0.000000000000000e+00 0.000000000000000e+00 0.000000000000000e+00
0.000000000000000e+00 0.000000000000000e+00 0.000000000000000e+00
0.000000000000000e+00 0.000000000000000e+00 0.000000000000000e+00
0.000000000000000e+00 0.000000000000000e+00 0.000000000000000e+00
0.000000000000000e+00 0.000000000000000e+00 0.000000000000000e+00
0.000000000000000e+00 0.000000000000000e+00 0.000000000000000e+00
0.000000000000000e+00 0.000000000000000e+00 0.000000000000000e+00
0.000000000000000e+00 0.000000000000000e+00 0.000000000000000e+00
0.000000000000000e+00 0.000000000000000e+00 0.000000000000000e+00
0.000000000000000e+00 0.000000000000000e+00 0.000000000000000e+00
0.000000000000000e+00 0.000000000000000e+00 0.000000000000000e+00
0.000000000000000e+00 0.000000000000000e+00 0.000000000000000e+00
0.000000000000000e+00 0.000000000000000e+00 0.000000000000000e+00
0.000000000000000e+00 0.000000000000000e+00 0.000000000000000e+00
0.000000000000000e+00 0.000000000000000e+00 0.000000000000000e+00
0.000000000000000e+00 0.000000000000000e+00 0.000000000000000e+00
0.000000000000000e+00 0.000000000000000e+00 0.000000000000000e+00
0.000000000000000e+00 0.000000000000000e+00 0.000000000000000e+00
0.000000000000000e+00 0.000000000000000e+00 0.000000000000000e+00
0.000000000000000e+00 0.000000000000000e+00 0.000000000000000e+00
0.000000000000000e+00 0.000000000000000e+00 0.000000000000000e+00
0.000000000000000e+00 0.000000000000000e+00 0.000000000000000e+00
0.000000000000000e+00 0.000000000000000e+00 0.000000000000000e+00
0.000000000000000e+00 0.000000000000000e+00 0.000000000000000e+00
0.000000000000000e+00 0.000000000000000e+00 0.000000000000000e+00
0.000000000000000e+00 0.000000000000000e+00 0.000000000000000e+00
0.000000000000000e+00 0.000000000000000e+00 0.000000000000000e+00
0.000000000000000e+00 0.000000000000000e+00 0.000000000000000e+00
0.000000000000000e+00 0.000000000000000e+00 0.000000000000000e+00
0.000000000000000e+00 0.000000000000000e+00 0.000000000000000e+00
0.000000000000000e+00 0.000000000000000e+00 0.000000000000000e+00
0.000000000000000e+00 0.000000000000000e+00 0.000000000000000e+00
0.000000000000000e+00 0.000000000000000e+00 0.000000000000000e+00
0.000000000000000e+00 0.000000000000000e+00 0.000000000000000e+00
0.000000000000000e+00 0.000000000000000e+00 0.000000000000000e+00
0.000000000000000e+00 0.000000000000000e+00 0.000000000000000e+00
0.000000000000000e+00 0.000000000000000e+00 0.000000000000000e+00
0.000000000000000e+00 0.000000000000000e+00 0.000000000000000e+00
0.000000000000000e+00 0.000000000000000e+00 0.000000000000000e+00
0.000000000000000e+00 0.000000000000000e+00 0.000000000000000e+00
0.000000000000000e+00 0.000000000000000e+00 0.000000000000000e+00
0.000000000000000e+00 0.000000000000000e+00 0.000000000000000e+00
0.000000000000000e+00 0.000000000000000e+00 0.000000000000000e+00
0.000000000000000e+00 0.000000000000000e+00 0.000000000000000e+00
0.000000000000000e+00 0.000000000000000e+00 0.000000000000000e+00
0.000000000000000e+00 0.000000000000000e+00 0.000000000000000e+00
0.000000000000000e+00 0.000000000000000e+00 0.000000000000000e+00
0.000000000000000e+00 0.000000000000000e+00 0.000000000000000e+00
0.000000000000000e+00 0.000000000000000e+00 0.000000000000000e+00
0.000000000000000e+00 0.000000000000000e+00 0.000000000000000e+00
0.000000000000000e+00 0.000000000000000e+00 0.000000000000000e+00
0.000000000000000e+00 0.000000000000000e+00 0.000000000000000e+00
0.000000000000000e+00 0.000000000000000e+00 0.000000000000000e+00
0.000000000000000e+00 0.000000000000000e+00 0.000000000000000e+00
0.000000000000000e+00 0.000000000000000e+00 0.000000000000000e+00
0.000000000000000e+00 0.000000000000000e+00 0.000000000000000e+00
0.000000000000000e+00 0.000000000000000e+00 0.000000000000000e+00
0.000000000000000e+00 0.000000000000000e+00 0.000000000000000e+00
0.000000000000000e+00 0.000000000000000e+00 0.000000000000000e+00
0.000000000000000e+00 0.000000000000000e+00 0.000000000000000e+00
0.000000000000000e+00 0.000000000000000e+00 0.000000000000000e+00
0.000000000000000e+00 0.000000000000000e+00 0.000000000000000e+00
0.000000000000000e+00 0.000000000000000e+00 0.000000000000000e+00
0.000000000000000e+00 0.000000000000000e+00 0.000000000000000e+00
0.000000000000000e+00 0.000000000000000e+00 0.000000000000000e+00
0.000000000000000e+00 0.000000000000000e+00 0.000000000000000e+00
0.000000000000000e+00 0.000000000000000e+00 0.000000000000000e+00
0.000000000000000e+00 0.000000000000000e+00 0.000000000000000e+00
0.000000000000000e+00 0.000000000000000e+00 0.000000000000000e+00
0.000000000000000e+00 0.000000000000000e+00 0.000000000000000e+00
0.000000000000000e+00 0.000000000000000e+00 0.000000000000000e+00
0.000000000000000e+00 0.000000000000000e+00 0.000000000000000e+00
0.000000000000000e+00 0.000000000000000e+00 0.000000000000000e+00
0.000000000000000e+00 0.000000000000000e+00 0.000000000000000e+00
0.000000000000000e+00 0.000000000000000e+00 0.000000000000000e+00
0.000000000000000e+00 0.000000000000000e+00 0.000000000000000e+00
0.000000000000000e+00 0.000000000000000e+00 0.000000000000000e+00
0.000000000000000e+00 0.000000000000000e+00 0.000000000000000e+00
0.000000000000000e+00 0.000000000000000e+00 0.000000000000000e+00
0.000000000000000e+00 0.000000000000000e+00 0.000000000000000e+00
0.000000000000000e+00 0.000000000000000e+00 0.000000000000000e+00
0.000000000000000e+00 0.000000000000000e+00 0.000000000000000e+00
0.000000000000000e+00 0.000000000000000e+00 0.000000000000000e+00
0.000000000000000e+00 0.000000000000000e+00 0.000000000000000e+00
0.000000000000000e+00 0.000000000000000e+00 0.000000000000000e+00
0.000000000000000e+00 0.000000000000000e+00 0.000000000000000e+00
0.000000000000000e+00 0.000000000000000e+00 0.000000000000000e+00
0.000000000000000e+00 0.000000000000000e+00 0.000000000000000e+00
0.000000000000000e+00 0.000000000000000e+00 0.000000000000000e+00
0.000000000000000e+00 0.000000000000000e+00 0.000000000000000e+00
0.000000000000000e+00 0.000000000000000e+00 0.000000000000000e+00
0.000000000000000e+00 0.000000000000000e+00 0.000000000000000e+00
0.000000000000000e+00 0.000000000000000e+00 0.000000000000000e+00
0.000000000000000e+00 0.000000000000000e+00 0.000000000000000e+00
0.000000000000000e+00 0.000000000000000e+00 0.000000000000000e+00
0.000000000000000e+00 0.000000000000000e+00 0.000000000000000e+00
0.000000000000000e+00 0.000000000000000e+00 0.000000000000000e+00
0.000000000000000e+00 0.000000000000000e+00 0.000000000000000e+00
0.000000000000000e+00 0.000000000000000e+00 0.000000000000000e+00
0.000000000000000e+00 0.000000000000000e+00 0.000000000000000e+00
0.000000000000000e+00 0.000000000000000e+00 0.000000000000000e+00
0.000000000000000e+00 0.000000000000000e+00 0.000000000000000e+00
0.000000000000000e+00 0.000000000000000e+00 0.000000000000000e+00
0.000000000000000e+00 0.000000000000000e+00 0.000000000000000e+00
0.000000000000000e+00 0.000000000000000e+00 0.000000000000000e+00
0.000000000000000e+00 0.000000000000000e+00 0.000000000000000e+00
0.000000000000000e+00 0.000000000000000e+00 0.000000000000000e+00
0.000000000000000e+00 0.000000000000000e+00 0.000000000000000e+00
0.000000000000000e+00 0.000000000000000e+00 0.000000000000000e+00
0.000000000000000e+00 0.000000000000000e+00 0.000000000000000e+00
0.000000000000000e+00 0.000000000000000e+00 0.000000000000000e+00
0.000000000000000e+00 0.000000000000000e+00 0.000000000000000e+00
0.000000000000000e+00 0.000000000000000e+00 0.000000000000000e+00
0.000000000000000e+00 0.000000000000000e+00 0.000000000000000e+00
0.000000000000000e+00 0.000000000000000e+00 0.000000000000000e+00
0.000000000000000e+00 0.000000000000000e+00 0.000000000000000e+00
0.000000000000000e+00 0.000000000000000e+00 0.000000000000000e+00
0.000000000000000e+00 0.000000000000000e+00 0.000000000000000e+00
0.000000000000000e+00 0.000000000000000e+00 0.000000000000000e+00
0.000000000000000e+00 0.000000000000000e+00 0.000000000000000e+00
0.000000000000000e+00 0.000000000000000e+00 0.000000000000000e+00
0.000000000000000e+00 0.000000000000000e+00 0.000000000000000e+00
0.000000000000000e+00 0.000000000000000e+00 0.000000000000000e+00
0.000000000000000e+00 0.000000000000000e+00 0.000000000000000e+00
0.000000000000000e+00 0.000000000000000e+00 0.000000000000000e+00
0.000000000000000e+00 0.000000000000000e+00 0.000000000000000e+00
0.000000000000000e+00 0.000000000000000e+00 0.000000000000000e+00
0.000000000000000e+00 0.000000000000000e+00 0.000000000000000e+00
0.000000000000000e+00 0.000000000000000e+00 0.000000000000000e+00
0.000000000000000e+00 0.000000000000000e+00 0.000000000000000e+00
0.000000000000000e+00 0.000000000000000e+00 0.000000000000000e+00
0.000000000000000e+00 0.000000000000000e+00 0.000000000000000e+00
0.000000000000000e+00 0.000000000000000e+00 0.000000000000000e+00
0.000000000000000e+00 0.000000000000000e+00 0.000000000000000e+00
0.000000000000000e+00 0.000000000000000e+00 0.000000000000000e+00
0.000000000000000e+00 0.000000000000000e+00 0.000000000000000e+00
0.000000000000000e+00 0.000000000000000e+00 0.000000000000000e+00
0.000000000000000e+00 0.000000000000000e+00 0.000000000000000e+00
0.000000000000000e+00 0.000000000000000e+00 0.000000000000000e+00
0.000000000000000e+00 0.000000000000000e+00 0.000000000000000e+00
0.000000000000000e+00 0.000000000000000e+00 0.000000000000000e+00
0.000000000000000e+00 0.000000000000000e+00 0.000000000000000e+00
0.000000000000000e+00 0.000000000000000e+00 0.000000000000000e+00
0.000000000000000e+00 0.000000000000000e+00 0.000000000000000e+00
0.000000000000000e+00 0.000000000000000e+00 0.000000000000000e+00
0.000000000000000e+00 0.000000000000000e+00 0.000000000000000e+00
0.000000000000000e+00 0.000000000000000e+00 0.000000000000000e+00
0.000000000000000e+00 0.000000000000000e+00 0.000000000000000e+00
0.000000000000000e+00 0.000000000000000e+00 0.000000000000000e+00
0.000000000000000e+00 0.000000000000000e+00 0.000000000000000e+00
0.000000000000000e+00 0.000000000000000e+00 0.000000000000000e+00
0.000000000000000e+00 0.000000000000000e+00 0.000000000000000e+00
0.000000000000000e+00 0.000000000000000e+00 0.000000000000000e+00
0.000000000000000e+00 0.000000000000000e+00 0.000000000000000e+00
0.000000000000000e+00 0.000000000000000e+00 0.000000000000000e+00
0.000000000000000e+00 0.000000000000000e+00 0.000000000000000e+00
0.000000000000000e+00 0.000000000000000e+00 0.000000000000000e+00
0.000000000000000e+00 0.000000000000000e+00 0.000000000000000e+00
0.000000000000000e+00 0.000000000000000e+00 0.000000000000000e+00
0.000000000000000e+00 0.000000000000000e+00 0.000000000000000e+00
0.000000000000000e+00 0.000000000000000e+00 0.000000000000000e+00
0.000000000000000e+00 0.000000000000000e+00 0.000000000000000e+00
0.000000000000000e+00 0.000000000000000e+00 0.000000000000000e+00
0.000000000000000e+00 0.000000000000000e+00 0.000000000000000e+00
0.000000000000000e+00 0.000000000000000e+00 0.000000000000000e+00
0.000000000000000e+00 0.000000000000000e+00 0.000000000000000e+00
0.000000000000000e+00 0.000000000000000e+00 0.000000000000000e+00
0.000000000000000e+00 0.000000000000000e+00 0.000000000000000e+00
0.000000000000000e+00 0.000000000000000e+00 0.000000000000000e+00
0.000000000000000e+00 0.000000000000000e+00 0.000000000000000e+00
0.000000000000000e+00 0.000000000000000e+00 0.000000000000000e+00
0.000000000000000e+00 0.000000000000000e+00 0.000000000000000e+00
0.000000000000000e+00 0.000000000000000e+00 0.000000000000000e+00
0.000000000000000e+00 0.000000000000000e+00 0.000000000000000e+00
0.000000000000000e+00 0.000000000000000e+00 0.000000000000000e+00
0.000000000000000e+00 0.000000000000000e+00 0.000000000000000e+00
0.000000000000000e+00 0.000000000000000e+00 0.000000000000000e+00
0.000000000000000e+00 0.000000000000000e+00 0.000000000000000e+00
0.000000000000000e+00 0.000000000000000e+00 0.000000000000000e+00
0.000000000000000e+00 0.000000000000000e+00 0.000000000000000e+00
0.000000000000000e+00 0.000000000000000e+00 0.000000000000000e+00
0.000000000000000e+00 0.000000000000000e+00 0.000000000000000e+00
0.000000000000000e+00 0.000000000000000e+00 0.000000000000000e+00
0.000000000000000e+00 0.000000000000000e+00 0.000000000000000e+00
0.000000000000000e+00 0.000000000000000e+00 0.000000000000000e+00
0.000000000000000e+00 0.000000000000000e+00 0.000000000000000e+00
0.000000000000000e+00 0.000000000000000e+00 0.000000000000000e+00
0.000000000000000e+00 0.000000000000000e+00 0.000000000000000e+00
0.000000000000000e+00 0.000000000000000e+00 0.000000000000000e+00
0.000000000000000e+00 0.000000000000000e+00 0.000000000000000e+00
0.000000000000000e+00 0.000000000000000e+00 0.000000000000000e+00
0.000000000000000e+00 0.000000000000000e+00 0.000000000000000e+00
0.000000000000000e+00 0.000000000000000e+00 0.000000000000000e+00
0.000000000000000e+00 0.000000000000000e+00 0.000000000000000e+00
0.000000000000000e+00 0.000000000000000e+00 0.000000000000000e+00
0.000000000000000e+00 0.000000000000000e+00 0.000000000000000e+00
0.000000000000000e+00 0.000000000000000e+00 0.000000000000000e+00
0.000000000000000e+00 0.000000000000000e+00 0.000000000000000e+00
0.000000000000000e+00 0.000000000000000e+00 0.000000000000000e+00
0.000000000000000e+00 0.000000000000000e+00 0.000000000000000e+00
0.000000000000000e+00 0.000000000000000e+00 0.000000000000000e+00
0.000000000000000e+00 0.000000000000000e+00 0.000000000000000e+00
0.000000000000000e+00 0.000000000000000e+00 0.000000000000000e+00
0.000000000000000e+00 0.000000000000000e+00 0.000000000000000e+00
0.000000000000000e+00 0.000000000000000e+00 0.000000000000000e+00
0.000000000000000e+00 0.000000000000000e+00 0.000000000000000e+00
0.000000000000000e+00 0.000000000000000e+00 0.000000000000000e+00
0.000000000000000e+00 0.000000000000000e+00 0.000000000000000e+00
0.000000000000000e+00 0.000000000000000e+00 0.000000000000000e+00
0.000000000000000e+00 0.000000000000000e+00 0.000000000000000e+00
0.000000000000000e+00 0.000000000000000e+00 0.000000000000000e+00
0.000000000000000e+00 0.000000000000000e+00 0.000000000000000e+00
0.000000000000000e+00 0.000000000000000e+00 0.000000000000000e+00
0.000000000000000e+00 0.000000000000000e+00 0.000000000000000e+00
0.000000000000000e+00 0.000000000000000e+00 0.000000000000000e+00
0.000000000000000e+00 0.000000000000000e+00 0.000000000000000e+00
0.000000000000000e+00 0.000000000000000e+00 0.000000000000000e+00
0.000000000000000e+00 0.000000000000000e+00 0.000000000000000e+00
0.000000000000000e+00 0.000000000000000e+00 0.000000000000000e+00
0.000000000000000e+00 0.000000000000000e+00 0.000000000000000e+00
0.000000000000000e+00 0.000000000000000e+00 0.000000000000000e+00
0.000000000000000e+00 0.000000000000000e+00 0.000000000000000e+00
0.000000000000000e+00 0.000000000000000e+00 0.000000000000000e+00
0.000000000000000e+00 0.000000000000000e+00 0.000000000000000e+00
0.000000000000000e+00 0.000000000000000e+00 0.000000000000000e+00
0.000000000000000e+00 0.000000000000000e+00 0.000000000000000e+00
0.000000000000000e+00 0.000000000000000e+00 0.000000000000000e+00
0.000000000000000e+00 0.000000000000000e+00 0.000000000000000e+00
0.000000000000000e+00 0.000000000000000e+00 0.000000000000000e+00
0.000000000000000e+00 0.000000000000000e+00 0.000000000000000e+00
0.000000000000000e+00 0.000000000000000e+00 0.000000000000000e+00
0.000000000000000e+00 0.000000000000000e+00 0.000000000000000e+00
0.000000000000000e+00 0.000000000000000e+00 0.000000000000000e+00
0.000000000000000e+00 0.000000000000000e+00 0.000000000000000e+00
0.000000000000000e+00 0.000000000000000e+00 0.000000000000000e+00
0.000000000000000e+00 0.000000000000000e+00 0.000000000000000e+00
0.000000000000000e+00 0.000000000000000e+00 0.000000000000000e+00
0.000000000000000e+00 0.000000000000000e+00 0.000000000000000e+00
0.000000000000000e+00 0.000000000000000e+00 0.000000000000000e+00
0.000000000000000e+00 0.000000000000000e+00 0.000000000000000e+00
0.000000000000000e+00 0.000000000000000e+00 0.000000000000000e+00
0.000000000000000e+00 0.000000000000000e+00 0.000000000000000e+00
0.000000000000000e+00 0.000000000000000e+00 0.000000000000000e+00
0.000000000000000e+00 0.000000000000000e+00 0.000000000000000e+00
0.000000000000000e+00 0.000000000000000e+00 0.000000000000000e+00
0.000000000000000e+00 0.000000000000000e+00 0.000000000000000e+00
0.000000000000000e+00 0.000000000000000e+00 0.000000000000000e+00
0.000000000000000e+00 0.000000000000000e+00 0.000000000000000e+00
0.000000000000000e+00 0.000000000000000e+00 0.000000000000000e+00
0.000000000000000e+00 0.000000000000000e+00 0.000000000000000e+00
0.000000000000000e+00 0.000000000000000e+00 0.000000000000000e+00
0.000000000000000e+00 0.000000000000000e+00 0.000000000000000e+00
0.000000000000000e+00 0.000000000000000e+00 0.000000000000000e+00
0.000000000000000e+00 0.000000000000000e+00 0.000000000000000e+00
0.000000000000000e+00 0.000000000000000e+00 0.000000000000000e+00
0.000000000000000e+00 0.000000000000000e+00 0.000000000000000e+00
0.000000000000000e+00 0.000000000000000e+00 0.000000000000000e+00
0.000000000000000e+00 0.000000000000000e+00 0.000000000000000e+00
0.000000000000000e+00 0.000000000000000e+00 0.000000000000000e+00
0.000000000000000e+00 0.000000000000000e+00 0.000000000000000e+00
0.000000000000000e+00 0.000000000000000e+00 0.000000000000000e+00
0.000000000000000e+00 0.000000000000000e+00 0.000000000000000e+00
0.000000000000000e+00 0.000000000000000e+00 0.000000000000000e+00
0.000000000000000e+00 0.000000000000000e+00 0.000000000000000e+00
0.000000000000000e+00 0.000000000000000e+00 0.000000000000000e+00
0.000000000000000e+00 0.000000000000000e+00 0.000000000000000e+00
0.000000000000000e+00 0.000000000000000e+00 0.000000000000000e+00
0.000000000000000e+00 0.000000000000000e+00 0.000000000000000e+00
0.000000000000000e+00 0.000000000000000e+00 0.000000000000000e+00
0.000000000000000e+00 0.000000000000000e+00 0.000000000000000e+00
0.000000000000000e+00 0.000000000000000e+00 0.000000000000000e+00
0.000000000000000e+00 0.000000000000000e+00 0.000000000000000e+00
0.000000000000000e+00 0.000000000000000e+00 0.000000000000000e+00
0.000000000000000e+00 0.000000000000000e+00 0.000000000000000e+00
0.000000000000000e+00 0.000000000000000e+00 0.000000000000000e+00
0.000000000000000e+00 0.000000000000000e+00 0.000000000000000e+00
0.000000000000000e+00 0.000000000000000e+00 0.000000000000000e+00
0.000000000000000e+00 0.000000000000000e+00 0.000000000000000e+00
0.000000000000000e+00 0.000000000000000e+00 0.000000000000000e+00
0.000000000000000e+00 0.000000000000000e+00 0.000000000000000e+00
0.000000000000000e+00 0.000000000000000e+00 0.000000000000000e+00
0.000000000000000e+00 0.000000000000000e+00 0.000000000000000e+00
0.000000000000000e+00 0.000000000000000e+00 0.000000000000000e+00
0.000000000000000e+00 0.000000000000000e+00 0.000000000000000e+00
0.000000000000000e+00 0.000000000000000e+00 0.000000000000000e+00
0.000000000000000e+00 0.000000000000000e+00 0.000000000000000e+00
0.000000000000000e+00 0.000000000000000e+00 0.000000000000000e+00
0.000000000000000e+00 0.000000000000000e+00 0.000000000000000e+00
0.000000000000000e+00 0.000000000000000e+00 0.000000000000000e+00
0.000000000000000e+00 0.000000000000000e+00 0.000000000000000e+00
0.000000000000000e+00 0.000000000000000e+00 0.000000000000000e+00
0.000000000000000e+00 0.000000000000000e+00 0.000000000000000e+00
0.000000000000000e+00 0.000000000000000e+00 0.000000000000000e+00
0.000000000000000e+00 0.000000000000000e+00 0.000000000000000e+00
0.000000000000000e+00 0.000000000000000e+00 0.000000000000000e+00
0.000000000000000e+00 0.000000000000000e+00 0.000000000000000e+00
0.000000000000000e+00 0.000000000000000e+00 0.000000000000000e+00
0.000000000000000e+00 0.000000000000000e+00 0.000000000000000e+00
0.000000000000000e+00 0.000000000000000e+00 0.000000000000000e+00
0.000000000000000e+00 0.000000000000000e+00 0.000000000000000e+00
0.000000000000000e+00 0.000000000000000e+00 0.000000000000000e+00
0.000000000000000e+00 0.000000000000000e+00 0.000000000000000e+00
0.000000000000000e+00 0.000000000000000e+00 0.000000000000000e+00
0.000000000000000e+00 0.000000000000000e+00 0.000000000000000e+00
0.000000000000000e+00 0.000000000000000e+00 0.000000000000000e+00
0.000000000000000e+00 0.000000000000000e+00 0.000000000000000e+00
0.000000000000000e+00 0.000000000000000e+00 0.000000000000000e+00
0.000000000000000e+00 0.000000000000000e+00 0.000000000000000e+00
0.000000000000000e+00 0.000000000000000e+00 0.000000000000000e+00
0.000000000000000e+00 0.000000000000000e+00 0.000000000000000e+00
0.000000000000000e+00 0.000000000000000e+00 0.000000000000000e+00
0.000000000000000e+00 0.000000000000000e+00 0.000000000000000e+00
0.000000000000000e+00 0.000000000000000e+00 0.000000000000000e+00
0.000000000000000e+00 0.000000000000000e+00 0.000000000000000e+00
0.000000000000000e+00 0.000000000000000e+00 0.000000000000000e+00
0.000000000000000e+00 0.000000000000000e+00 0.000000000000000e+00
0.000000000000000e+00 0.000000000000000e+00 0.000000000000000e+00
0.000000000000000e+00 0.000000000000000e+00 0.000000000000000e+00
0.000000000000000e+00 0.000000000000000e+00 0.000000000000000e+00
0.000000000000000e+00 0.000000000000000e+00 0.000000000000000e+00
0.000000000000000e+00 0.000000000000000e+00 0.000000000000000e+00
0.000000000000000e+00 0.000000000000000e+00 0.000000000000000e+00
0.000000000000000e+00 0.000000000000000e+00 0.000000000000000e+00
0.000000000000000e+00 0.000000000000000e+00 0.000000000000000e+00
0.000000000000000e+00 0.000000000000000e+00 0.000000000000000e+00
0.000000000000000e+00 0.000000000000000e+00 0.000000000000000e+00
0.000000000000000e+00 0.000000000000000e+00 0.000000000000000e+00
0.000000000000000e+00 0.000000000000000e+00 0.000000000000000e+00
0.000000000000000e+00 0.000000000000000e+00 0.000000000000000e+00
0.000000000000000e+00 0.000000000000000e+00 0.000000000000000e+00
0.000000000000000e+00 0.000000000000000e+00 0.000000000000000e+00
0.000000000000000e+00 0.000000000000000e+00 0.000000000000000e+00
0.000000000000000e+00 0.000000000000000e+00 0.000000000000000e+00
0.000000000000000e+00 0.000000000000000e+00 0.000000000000000e+00
0.000000000000000e+00 0.000000000000000e+00 0.000000000000000e+00
0.000000000000000e+00 0.000000000000000e+00 0.000000000000000e+00
0.000000000000000e+00 0.000000000000000e+00 0.000000000000000e+00
0.000000000000000e+00 0.000000000000000e+00 0.000000000000000e+00
0.000000000000000e+00 0.000000000000000e+00 0.000000000000000e+00
0.000000000000000e+00 0.000000000000000e+00 0.000000000000000e+00
0.000000000000000e+00 0.000000000000000e+00 0.000000000000000e+00
0.000000000000000e+00 0.000000000000000e+00 0.000000000000000e+00
0.000000000000000e+00 0.000000000000000e+00 0.000000000000000e+00
0.000000000000000e+00 0.000000000000000e+00 0.000000000000000e+00
0.000000000000000e+00 0.000000000000000e+00 0.000000000000000e+00
0.000000000000000e+00 0.000000000000000e+00 0.000000000000000e+00
0.000000000000000e+00 0.000000000000000e+00 0.000000000000000e+00
0.000000000000000e+00 0.000000000000000e+00 0.000000000000000e+00
0.000000000000000e+00 0.000000000000000e+00 0.000000000000000e+00
0.000000000000000e+00 0.000000000000000e+00 0.000000000000000e+00
0.000000000000000e+00 0.000000000000000e+00 0.000000000000000e+00
0.000000000000000e+00 0.000000000000000e+00 0.000000000000000e+00
0.000000000000000e+00 0.000000000000000e+00 0.000000000000000e+00
0.000000000000000e+00 0.000000000000000e+00 0.000000000000000e+00
0.000000000000000e+00 0.000000000000000e+00 0.000000000000000e+00
0.000000000000000e+00 0.000000000000000e+00 0.000000000000000e+00
0.000000000000000e+00 0.000000000000000e+00 0.000000000000000e+00
0.000000000000000e+00 0.000000000000000e+00 0.000000000000000e+00
0.000000000000000e+00 0.000000000000000e+00 0.000000000000000e+00
0.000000000000000e+00 0.000000000000000e+00 0.000000000000000e+00
0.000000000000000e+00 0.000000000000000e+00 0.000000000000000e+00
0.000000000000000e+00 0.000000000000000e+00 0.000000000000000e+00
0.000000000000000e+00 0.000000000000000e+00 0.000000000000000e+00
0.000000000000000e+00 0.000000000000000e+00 0.000000000000000e+00
0.000000000000000e+00 0.000000000000000e+00 0.000000000000000e+00
0.000000000000000e+00 0.000000000000000e+00 0.000000000000000e+00
0.000000000000000e+00 0.000000000000000e+00 0.000000000000000e+00
0.000000000000000e+00 0.000000000000000e+00 0.000000000000000e+00
0.000000000000000e+00 0.000000000000000e+00 0.000000000000000e+00
0.000000000000000e+00 0.000000000000000e+00 0.000000000000000e+00
0.000000000000000e+00 0.000000000000000e+00 0.000000000000000e+00
0.000000000000000e+00 0.000000000000000e+00 0.000000000000000e+00
0.000000000000000e+00 0.000000000000000e+00 0.000000000000000e+00
0.000000000000000e+00 0.000000000000000e+00 0.000000000000000e+00
0.000000000000000e+00 0.000000000000000e+00 0.000000000000000e+00
0.000000000000000e+00 0.000000000000000e+00 0.000000000000000e+00
0.000000000000000e+00 0.000000000000000e+00 0.000000000000000e+00
0.000000000000000e+00 0.000000000000000e+00 0.000000000000000e+00
0.000000000000000e+00 0.000000000000000e+00 0.000000000000000e+00
0.000000000000000e+00 0.000000000000000e+00 0.000000000000000e+00
0.000000000000000e+00 0.000000000000000e+00 0.000000000000000e+00
0.000000000000000e+00 0.000000000000000e+00 0.000000000000000e+00
0.000000000000000e+00 0.000000000000000e+00 0.000000000000000e+00
0.000000000000000e+00 0.000000000000000e+00 0.000000000000000e+00
0.000000000000000e+00 0.000000000000000e+00 0.000000000000000e+00
0.000000000000000e+00 0.000000000000000e+00 0.000000000000000e+00
0.000000000000000e+00 0.000000000000000e+00 0.000000000000000e+00
0.000000000000000e+00 0.000000000000000e+00 0.000000000000000e+00
0.000000000000000e+00 0.000000000000000e+00 0.000000000000000e+00
0.000000000000000e+00 0.000000000000000e+00 0.000000000000000e+00
0.000000000000000e+00 0.000000000000000e+00 0.000000000000000e+00
0.000000000000000e+00 0.000000000000000e+00 0.000000000000000e+00
0.000000000000000e+00 0.000000000000000e+00 0.000000000000000e+00
0.000000000000000e+00 0.000000000000000e+00 0.000000000000000e+00
0.000000000000000e+00 0.000000000000000e+00 0.000000000000000e+00
7.130852844422446e-03 5.179538404610422e-06 3.162468107209253e-19
 6.689359430271427e-03 -5.029534485329362e-05  3.083326741035532e-19
 6.407828882045694e-03 -2.804619964590264e-03  2.983898641099966e-19
 6.696279828053284e-03 -7.393106088164786e-05  3.191710609358548e-19
6.208231263492008e-03 3.794929941640510e-04 2.973505560320875e-19
6.711654998972883e-03 1.728148407356057e-03 3.013765810009979e-19
 5.864663210109014e-03 -1.288431003856381e-03  2.828600341440772e-19
6.196067937021246e-03 2.014392231491391e-03 2.754144210480397e-19
-1.495874738106094e-03 -6.777150919018505e-03 -8.147251143837866e-20
5.530126416486258e-03 6.831304819645292e-04 2.543440334712754e-19
 4.511615571676984e-03 -4.366908324593651e-03  2.482405679837198e-19
6.141431306431537e-03 2.134491803062915e-03 2.832754244761630e-19
 6.788456142142491e-03 -5.185286770202355e-04  3.069801104535000e-19
6.788377021471313e-03 2.087995787353709e-04 3.105724462084701e-19
 7.142574685237491e-03 -6.400571394665003e-04  3.252974767189242e-19
 5.679026972855943e-03 -1.750121521613654e-03  3.018693993195289e-19
7.288100174136479e-03 2.072057692196551e-03 3.222668354486598e-19
 4.212647381656126e-03 -5.324669881000489e-03  2.161678432926672e-19
5.630246062021175e-03 2.495889082797140e-03 2.554309979136794e-19
 7.657095468250011e-03 -1.775146259280035e-03  3.384278416248685e-19
7.254169892885958e-03 2.266833316631574e-03 3.233025756915375e-19
 7.051030191405040e-03 -2.583828479097659e-03  3.185677133018763e-19
6.926652228998935e-03 1.109447695003502e-03 3.154190955812200e-19
 6.791670595752824e-03 -4.594456027977479e-04  3.149291113429831e-19
6.536574773194298e-03 2.149220181290010e-03 2.940989573504415e-19
 6.804285015577351e-03 -3.398183986349839e-04  3.141516459041330e-19
5.818502702910559e-03 1.520850634077503e-03 2.661210949475978e-19
7.267766704182926e-03 1.126095211964216e-03 3.129608689684079e-19
 3.204659311997341e-04 -7.421554279511751e-03  6.487470531745912e-21
 5.359833682171072e-03 -1.557038373403092e-04  2.788672938730568e-19
5.214212607882924e-03 4.413290659815697e-03 2.264165167438636e-19
 7.483419782523022e-03 -7.067043554477883e-04  3.241822140612711e-19
 5.352966953480944e-03 -3.663149160678800e-04  2.668991725192673e-19
4.664098635733287e-03 5.167538250538881e-03 2.044661184725075e-19
 6.780043214915926e-03 -1.772733586750444e-03  3.031289269174372e-19
6.092723886746334e-03 6.993650799275926e-04 2.920513624617899e-19
 6.549936880745308e-03 -1.903855924055559e-03  8.127954197016132e-20
 6.260081588389148e-03 -3.246507785863489e-04  8.749374053740169e-19
 6.631040314896945e-03 -2.773583603792982e-04 -1.757923620897765e-19
5.811264283751545e-03 2.104256218840491e-03 4.961070651583662e-19
7.352363131766565e-03 1.369686909007379e-03 1.779346329226921e-19
 6.021796870301265e-03 -3.167355789945001e-03  3.145939896943106e-19
6.207565844060049e-03 2.919761418607806e-04 2.852250749995944e-19
6.592519797734892e-03 1.752598942004512e-03 2.969882538856442e-19
7.661821030065517e-03 2.550864299256380e-04 3.304255361846892e-19
 6.209847294401578e-03 -1.523990436849060e-03  3.137750344100585e-19
4.164044370646587e-03 2.736412885526996e-03 1.688089616499728e-19
5.612924414327788e-03 3.547102103416837e-03 3.086949227393304e-19
9.053315459164518e-03 3.785929667678458e-03 5.938951923999779e-19
-2.094067584120948e-03 -7.752293294538461e-03 -2.078746052862440e-19
 1.211872715429069e-03  5.025765091646744e-05 -3.435197250643360e-19
 5.514220077914329e-03 -6.579212287053698e-04 -7.871408946430010e-19
 6.078981777709869e-03 -1.273392955246688e-03  1.172624448263181e-18
 7.226080563652474e-03 -2.404462625801107e-04  4.120398085718653e-19
 7.686601947723284e-03 -2.755156790492906e-03  3.114144353073017e-19
 6.179485941329223e-03 -1.400363951917489e-03  3.388936128573982e-19
 5.175444252670124e-04  6.226825457734737e-03 -2.957317169971175e-20
8.186686959809690e-03 8.143185439344013e-04 3.492030033844619e-19
 6.224721039282186e-03 -1.660040626532375e-03  2.867408459313877e-19
6.144192497963595e-03 7.107854938972989e-04 2.829516573416322e-19
 6.947075956594382e-03 -4.989913165838277e-04  3.143560177260516e-19
7.780183123033056e-03 1.469186177101052e-04 3.478741821241941e-19
 4.677902129496907e-03 -1.442690525848225e-03  2.757215712304576e-19
-1.620381822273054e-03  4.591568361627966e-03 -1.640530110023792e-19
8.753430546897145e-03 7.279360158101833e-04 3.777626840741295e-19
7.049593526219153e-03 2.204725966873249e-04 3.106640796758735e-19
 6.915550642768122e-03 -5.970114224778740e-04  3.125040864499191e-19
 6.243146886356046e-03 -3.232618285744514e-04  2.997146386639451e-19
5.878901925051121e-03 2.055896280707556e-03 2.626341782119172e-19
7.357170551356434e-03 5.918790914855141e-04 3.161802704793851e-19
 6.300751099879206e-03 -2.680348367814128e-03  2.883295385918592e-19
6.419295855020728e-03 7.577557330274769e-05 3.067014636003002e-19
6.179071811956834e-03 2.785407851670428e-03 2.727767244345435e-19
7.403057271015406e-03 2.927030500394836e-04 3.230047380760711e-19
 5.461603676983058e-03 -6.848948410150432e-04  2.715017416773824e-19
4.374316500346607e-03 5.372530258916891e-03 1.869429520610687e-19
 7.155908561834002e-03 -2.256777591617176e-03  3.060632132640445e-19
5.930912259189092e-03 4.779727310610499e-04 2.728623099370951e-19
 6.740374647658772e-03 -7.112636897105554e-04  2.980660107167998e-19
 6.428223375566811e-03 -1.574354925736019e-03  3.023353366290891e-19
 6.465641154089118e-03 -3.633369083994572e-04  3.095658514108069e-19
6.348638519408285e-03 1.164771367921562e-03 2.881843048200701e-19
7.670435690308319e-03 1.180602387712481e-03 3.241855698389090e-19
 5.655731234991981e-04 -7.604012492233233e-03  1.357913027564590e-20
 5.574814716248256e-03 -6.289698203651672e-05  2.804710621026783e-19
6.038627894380226e-03 3.527546674961874e-03 2.633164929819166e-19
 7.484908814221792e-03 -3.338410546590920e-04  3.255038145687231e-19
 5.489280717195836e-03 -2.747241798662974e-04  2.769515231939069e-19
4.509993760680886e-03 5.544375310764980e-03 1.982321048459008e-19
 7.014104805334147e-03 -2.190994586980809e-03  3.164578439699749e-19
 5.950986486589240e-03  5.409860279548945e-04 -1.193099333481990e-20
 6.520552080692111e-03 -1.814116656243699e-03 -1.798236773417855e-18
 6.226609852622455e-03 -5.173025858633619e-04  1.017399915340426e-19
 6.571836909170423e-03 -2.710415544742008e-04  1.022597121148124e-18
6.137039237888940e-03 2.175898130733754e-03 6.335078251574008e-19
7.481597018931902e-03 5.935049374971400e-04 1.829742532609019e-19
 6.336341524315967e-03 -2.706020241431570e-03  3.293425787350149e-19
6.514615966570457e-03 8.097309976652382e-05 3.096137139547465e-19
6.542391768725789e-03 2.032968751101808e-03 2.878563394828398e-19
7.482926775959148e-03 3.975576962392734e-04 3.223824428371495e-19
 5.984140564660516e-03 -6.498770734083437e-04  2.904546366217202e-19
4.013655864428397e-03 3.843501257042276e-03 1.520160600984910e-19
6.666105794528061e-03 2.498364729441444e-04 2.853043026330967e-19
6.313303126973445e-03 1.477542475387069e-03 2.871518805736711e-19
 4.481060024270432e-03 -5.297178136459550e-03  2.696608131105955e-19
 5.300272680790654e-03 -5.946766165522985e-04  7.776137378750036e-19
 6.462775836947621e-03 -1.416696343010099e-03 -3.464544281937947e-20
 6.612516773780806e-03 -3.505931630850912e-04 -1.458037192687103e-19
6.381813996278497e-03 1.102980750113398e-03 4.853132779382294e-20
7.657970961312829e-03 1.156687382419973e-03 3.070623932997023e-19
 4.585215419012510e-04 -7.516429207573627e-03  9.907060027691032e-21
 5.546612715290546e-03 -6.293300367150614e-05  2.716352010306980e-19
6.714234089202810e-03 2.962999776952299e-03 2.896299164194491e-19
 8.167600384117875e-03 -9.358103468259884e-04  3.376248430264329e-19
 5.061021083566665e-03 -1.622341802056545e-03  2.785034320796562e-19
2.766821393453235e-03 5.407400400688813e-03 8.335508845171183e-20
 8.065835660743592e-03 -8.372543089570290e-04  3.391874347535703e-19
6.064079252961005e-03 7.259231826989344e-04 2.670931156819211e-19
 6.670230391165712e-03 -5.864901801150099e-04  2.877532269528826e-19
 6.368969553824976e-03 -1.516589763627233e-03  2.936606857391999e-19
 6.405856268792095e-03 -3.283553016963182e-04  3.008241887022707e-19
6.268365184565355e-03 1.163729881361252e-03 2.781130160940626e-19
7.646530101123435e-03 1.359819334735694e-03 3.166304421986812e-19
 1.048205870575260e-03 -7.362181353461106e-03  4.186506202692178e-20
5.514422787954300e-03 1.503834078274011e-04 2.675749786639011e-19
6.403088403283359e-03 3.125862896987954e-03 2.730149312743477e-19
 7.659160031661771e-03 -3.412278478055468e-04  3.221894073416223e-19
 6.093471962259727e-03 -5.632256649743927e-04  2.897244811980599e-19
4.070861406936492e-03 3.045789925289633e-03 1.537471348302793e-19
5.974704417599701e-03 1.481634322402667e-03 2.557571693262521e-19
6.175119075818617e-03 1.727441582135847e-03 2.503207637167225e-19
 3.640344874658534e-03 -6.737193497632080e-03  1.086987373582591e-19
 4.402547387238817e-03 -1.125706570332024e-03  2.414429663026386e-19
 6.104223997636595e-03 -7.404957313233463e-04  2.957410830435754e-19
 6.582132443414612e-03 -3.354088440478787e-04  3.049020092662421e-19
6.301256005846427e-03 2.181154327217719e-03 2.676932069466917e-19
7.468634062618208e-03 1.687268717322268e-04 3.073273059782788e-19
 6.250343580225711e-03 -2.412423092370950e-03  2.791620643634455e-19
6.447343894587727e-03 6.332208718903074e-05 2.910756214989768e-19
6.880641976002141e-03 1.619557916784731e-03 2.911191667831956e-19
 8.060411198439973e-03 -2.287282725054625e-04  3.299475234103048e-19
 4.614875747119333e-03 -2.018286542853286e-03  2.672089205738078e-19
2.414145123967178e-03 5.185154101639776e-03 5.424961631773155e-20
 8.259328907630542e-03 -1.076748915078254e-03  3.359876869397791e-19
5.883095964168895e-03 6.930891120638934e-04 2.517922632587486e-19
 6.547602453472810e-03 -6.396491161702911e-04  2.763504490631651e-19
 6.285200360469448e-03 -1.459776602748300e-03  2.844740209358002e-19
 6.335304030695776e-03 -3.588909234746266e-04  2.910459647600060e-19
6.242819922716695e-03 1.200221628047656e-03 2.678467502920216e-19
7.569239127883910e-03 1.145091558074646e-03 3.047210879503569e-19
 5.900961084768847e-04 -7.494689526077400e-03  2.482829108387800e-20
 5.531108429214219e-03 -5.183974496090430e-05  2.636935815993791e-19
5.989217669368105e-03 3.457102093522354e-03 2.459102871827227e-19
 7.435348853059312e-03 -3.003569866503256e-04  3.048775100528605e-19
 5.406202323798448e-03 -3.080121310652279e-04  2.410871586139618e-19
4.254261817103878e-03 5.382126937905156e-03 2.224338730808570e-19
 7.526672355300556e-03 -2.003008027977131e-03  5.096727133853775e-19
 6.102366636138414e-03 -2.923694699849792e-04 -7.333338290085619e-19
 6.422018244549769e-03 -8.045354843104448e-04  2.127463616050990e-19
6.570048460948020e-03 9.362948681904617e-04 2.345091208733502e-19
 7.030252833865023e-03 -3.485593450765720e-04  2.749987582969483e-19
7.030193867122951e-03 3.834538357699802e-05 2.987568298608085e-19
 6.584985059608384e-03 -5.185127674095713e-04  2.931454008014250e-19
3.360339054636758e-03 5.761179438267545e-03 1.060929508461037e-19
 6.941047564532285e-03 -2.103167660699764e-04  3.141372035566786e-19
7.394576561997733e-03 1.566132541141125e-03 2.693567620922148e-19
 6.687281848889996e-03 -2.603598844228163e-03  2.642473674564377e-19
6.557945721114614e-03 4.332127195078027e-04 2.556633216594974e-19
6.643349858159064e-03 4.383825547466000e-04 2.772027473772163e-19
7.173504911204750e-03 6.232123519159697e-04 2.823903941736925e-19
 5.480410826359444e-03 -4.553298818665293e-03  2.482867988652900e-19
 6.141600572375986e-03 -2.786684750153784e-05  2.699291221138208e-19
5.994000823183212e-03 2.452333299622682e-03 2.301966117048518e-19
6.345396213061517e-03 1.456278083408534e-04 2.547174466294340e-19
8.819339425409842e-03 1.759696635986309e-03 3.337658728713078e-19
-6.885411749640770e-04 -8.177699428250444e-03 -3.329605256655286e-20
 5.143411907837851e-03 -2.908598816860988e-04  2.310716104488907e-19
 7.090581993901612e-03 -1.621339974947532e-03  3.159966336864223e-19
 4.006137490052914e-03 -1.335772885457146e-03  2.460239081032640e-19
5.514757679239898e-03 5.490545135563811e-03 1.977043544267708e-19
 8.923562316846597e-03 -4.112357754446281e-03  3.108054539367404e-19
 6.828145974628240e-03 -8.003432901337845e-04  2.776478891830384e-19
 7.586884983342614e-03 -8.030994967898558e-04  3.162087676691245e-19
7.048311985826021e-03 1.807626227680756e-03 2.715462747007386e-19
7.243645818247996e-03 1.016978285231687e-03 2.752710441589206e-19
6.424843585792891e-03 3.932934274152384e-04 2.415113988888520e-19
 7.630308209231749e-03 -1.370913628197927e-03  2.897096731673675e-19
 4.053910611874272e-03 -2.217603479112068e-03  2.527850142620069e-19
3.683890103160310e-03 5.884993777869916e-03 7.686147354040586e-20
 7.056737070193904e-03 -5.648462642280641e-03  2.749412032380698e-19
6.244013597904731e-03 2.275823690729576e-03 2.121539238418841e-19
 7.209722764067672e-03 -1.928993667121410e-03  2.710462217471953e-19
7.569871604338829e-03 8.806841531935745e-04 2.661652145109137e-19
 5.242938989200718e-03 -3.234943674782631e-03  2.534346331528384e-19
4.443282880729402e-03 2.678482912453308e-03 1.097410724071235e-19
 7.399758708444861e-03 -8.625188071762243e-05  2.681389738098957e-19
 7.276969019234611e-03 -8.482063923470357e-05  2.539916161382998e-19
 8.059596638210972e-03 -1.944780214721149e-03  2.983853811726937e-19
 2.453655044166757e-03 -4.444839334878289e-03  2.452646542709143e-19
5.876983652343687e-03 2.032931344599489e-03 1.789164325823371e-19
7.352378145942597e-03 2.415172022311229e-03 2.273075067295423e-19
6.419896963690538e-03 2.607148740855270e-04 1.926036526176103e-19
 5.330191452127361e-03 -3.665204204945532e-03  2.306864505697811e-19
6.561598523777925e-03 6.575610622704239e-04 1.971818714957657e-19
6.418087351062204e-03 2.909159076397307e-04 1.702350403988323e-19
 6.650247309596654e-03 -1.316466238455322e-03  2.072123731964381e-19
 7.591039524176457e-03 -9.282570532378506e-06  4.187630475296362e-19
 3.526153462951430e-03 -4.870962071788395e-03 -2.686807221629445e-19
6.728242978467356e-03 1.830296075497947e-03 5.516264651717726e-20
 6.069781455433384e-03 -1.899169294897115e-03  7.832266009998966e-20
 4.580422801577467e-03  3.162087065280089e-03 -4.276225966274193e-20
 6.505483624398023e-03 -2.008308102549386e-04  9.320860475167665e-20
6.365246506078807e-03 2.476027864654891e-03 1.172306868073673e-20
 6.922934244586057e-03 -1.174246213250258e-03  9.299992709066472e-20
 9.463192100178302e-03 -1.239496546985639e-03  1.658490237204548e-19
 2.689763383418884e-03 -3.019037528108983e-03  2.398509333385447e-19
 3.860990273588560e-03  6.153864345008668e-03 -2.026493131211587e-19
 7.853107886773576e-03 -6.248354259986703e-03  1.664685294275168e-19
 5.843503380912558e-03  8.225883041539023e-04 -1.400818356656114e-19
 6.054922023246791e-03 -1.330289345293541e-03 -4.546132193149623e-20
 5.180997601913350e-03  2.111885304969561e-03 -3.011280579614602e-19
 6.751081704662251e-03  2.073427448480775e-04 -1.738718504009427e-19
 6.407484567757123e-03  4.902994620197199e-04 -3.225762178532809e-19
 5.226535402823447e-03 -2.598033613353705e-03 -8.944976301779688e-20
 6.298998084976931e-03  2.974432779226748e-03 -6.292993366199963e-19
 6.334762830409788e-03 -3.530659159170870e-03 -2.269286310219712e-19
 6.011367243900491e-03  1.854287595700595e-03 -2.510146243492279e-18
 6.264299538998032e-03 -8.857022892714511e-04 -9.744258617255595e-19
 8.251843059207353e-03  2.741444912240293e-03 -1.482547912438926e-18
 4.652894627997426e-03 -5.179776266135766e-03  2.115617192377072e-19
 3.307122348966607e-03  3.146741048436069e-03 -2.382883824747935e-18
 7.853989116422348e-03 -1.015482471800291e-03 -1.446336551888817e-18
 6.636630589290211e-03  4.620275816665255e-03 -2.659929760043088e-18
 5.132168394212731e-03 -3.797048252572949e-03 -5.278899837768294e-19
 4.838688117755589e-03  4.318360307617541e-03 -3.277890047210497e-18
 7.312174447492531e-03 -2.054178104113361e-03 -2.132352704996664e-18
 7.000687288252025e-03  1.485227529069119e-04 -3.268366063739050e-18
 5.907639234979991e-03 -2.500726879127074e-03 -2.045210326633142e-18
 6.484818282248947e-03 -1.103837778351376e-03 -3.442740231578905e-18
 6.962272746793656e-03 -1.193897574736056e-03 -3.953870400722259e-18
 7.909227524005844e-03  2.109419718484680e-04 -6.376553409131666e-18
 7.792280895707450e-03  2.078229627797040e-04 -9.725644129013249e-18
 7.355141799750584e-03  2.718916442113146e-04 -1.421367822969509e-17
 7.126255145145234e-03  1.016390228296500e-03 -2.113620198041624e-17
 7.095031530437202e-03  9.383224422230581e-05 -2.645161864014181e-17
 6.934501260782561e-03  4.583403793947685e-04 -3.742766385331477e-17
 6.242362917924344e-03 -1.140515462029809e-03 -4.918421848486952e-17
 6.242671747425630e-03  1.523509257329827e-03 -7.551535761664472e-17
 7.987760012982546e-03 -4.181536853295896e-04 -9.813479663801299e-17
 6.557162893039182e-03 -8.066136605990848e-04 -1.368131964058442e-16
 7.074049424935847e-03 -4.231328004668249e-04  2.919141272510053e-16
 6.279201765739695e-03  7.778649301085123e-04 -6.731449015305645e-15
 6.815392903740251e-03 -6.728085110833949e-04  1.831103437035134e-16
 7.357394171880798e-03 -7.263143135181786e-04 -1.141369434083654e-16
 6.821591035038189e-03  8.450558895272000e-04 -6.848784171498246e-15
 6.375528608245285e-03 -1.169765752124700e-03 -7.349561928919885e-17
 6.185299592413392e-03  3.204135532145427e-03 -8.222579802950696e-17
 7.342243552144640e-03  2.200800793776862e-04 -4.694207108062229e-17
 6.440615770149160e-03  8.745433227868065e-04 -2.940020889268689e-17
 5.582585412566876e-03  7.580350964383525e-04 -1.842782040646146e-17
 6.481803467738987e-03  6.389305671592296e-04 -1.242120153807878e-17
 4.161518893650678e-03 -4.394323482861794e-03 -5.711072689941179e-18
 6.553833287540755e-03 -8.072950604308086e-05 -7.335558933596497e-18
 4.450224532303326e-03 -6.262535266673294e-03 -3.278596950934458e-18
 5.841882835086185e-03 -3.371213929009239e-04 -4.724498105114055e-18
 7.499675476712589e-03  1.861575440328401e-03 -3.454538814531534e-18
 6.669465684506217e-03  4.930060449418193e-04 -2.566417362622604e-18
 6.310618977468425e-03  1.888326703149442e-03 -1.919951908873285e-18
 5.703711929004102e-03 -1.915638823815008e-03 -1.653756325239383e-18
 5.683845393861306e-03  1.138768049848395e-03 -1.283562592673034e-18
 6.201138020485155e-03 -1.827769481926918e-03 -8.008926683722959e-19
 8.649098312654518e-03  2.033488716179137e-05 -6.131172008787108e-19
 7.890431752464287e-03 -4.480158180169656e-03 -4.460123049999761e-19
 5.296560354254460e-03 -1.742110386606398e-03 -4.492355186259273e-19
 8.907016357340172e-03  2.490460567246592e-03 -2.723735603348409e-19
 8.154524046996722e-03 -3.084844565535775e-03 -1.567182490768344e-19
 6.757422468007791e-04  7.067054375066832e-03 -5.334218344679931e-20
 9.165885348360785e-03  8.356208649206217e-04 -4.432354243031694e-21
7.718821786459845e-03 7.036972744289472e-04 1.482124336066920e-21
 7.499102053559989e-03 -6.170223966823322e-04  7.104067002640978e-23
6.432241323151524e-03 3.265781192829499e-03 2.300919585176921e-21
6.837524188033000e-03 8.799057787018776e-04 1.653795976716631e-20
6.119718921858906e-03 3.271566113021148e-03 2.516520066158725e-20
6.256664177338740e-03 4.285789602461461e-05 3.382235527708310e-20
6.060926802927062e-03 2.346686507281640e-03 4.779770269600339e-20
 6.281970102329567e-03 -6.167607773014751e-04  8.597376009241343e-20
4.308967012715900e-03 1.960573771669952e-03 1.142520235523817e-20
-2.737135279882901e-03  8.033997357012074e-03  2.422432955370509e-21
 6.583464254972284e-03 -1.870220338599732e-03  8.654532005559836e-20
 4.961946488368234e-03 -2.421898005749384e-03  8.718878478130186e-20
 5.786106283789823e-03 -2.331181955119162e-03  1.524808329828427e-19
 6.145546890525782e-03 -1.215212847682477e-03  1.899202570605921e-19
 1.389205905077709e-04  5.693559996209238e-03 -8.091306240389184e-20
8.229491822012066e-03 1.739803742021330e-03 2.259391112011165e-19
 4.215005776745636e-03 -2.912769824309375e-03  1.718492198109266e-19
3.606091675454550e-03 4.121481489584675e-03 5.514913960500924e-20
 6.648146639709454e-03 -5.272063564394757e-03  1.292723080632249e-19
 3.315410186319715e-03 -1.641766932318957e-03  1.274563550390697e-19
 6.467288706221095e-03 -5.810475553291224e-04  2.065277648805291e-19
 5.456631313620594e-03 -4.482908529577135e-03  2.094887098706312e-19
 6.488225857327553e-03 -3.240740212419660e-05  2.327881958602632e-19
7.381295060535444e-03 7.477800900190449e-04 2.515581472709193e-19
7.138018955772389e-03 7.231344111744443e-04 2.354579777548806e-19
 7.063822482881249e-03 -3.062803739868452e-03  2.366326135363404e-19
 6.615591445960271e-03 -8.025245013168306e-04  2.423771157871292e-19
7.201270921493553e-03 2.063929503880494e-04 2.621206589956575e-19
6.603669368879430e-03 1.548356923044963e-05 2.431878100956885e-19
7.688959650824943e-03 1.519404092713852e-03 2.748372155236972e-19
 4.517299949795612e-03 -5.312711383842332e-03  1.877754176119970e-19
5.843697067547633e-03 9.970435247940790e-04 2.176793304783944e-19
7.171248563387004e-03 9.399574530130796e-04 2.615241660938641e-19
 7.026683165288932e-03 -1.780436128624238e-03  2.606645692284484e-19
 6.291755260197869e-03 -1.832655958944300e-04  2.432508482223016e-19
6.649249853676234e-03 3.731215316080961e-04 2.558992196953929e-19
6.877841775087687e-03 8.683583898060054e-04 2.616510545980032e-19
 6.548075136318483e-03 -9.210824838934672e-05  2.579345587267394e-19
5.969073280640462e-03 1.023523810384358e-03 2.300040980209558e-19
5.194141426646683e-03 5.724879640316854e-04 1.967829777715424e-19
7.518700994705693e-03 3.123570861406872e-03 2.852469952756458e-19
 2.574007997842620e-03 -7.987736074207590e-03  4.972424109730011e-20
 4.617930373938053e-03 -7.051515604382244e-04  2.004895735141491e-19
 5.847302668631160e-03 -9.606240788862933e-04  2.558873874197638e-19
6.468975702759186e-03 9.508118944091690e-04 2.592433805349676e-19
 7.124588545838566e-03 -5.101468941876422e-04  2.840583618924375e-19
 7.165066686331124e-03 -2.784545524797245e-04  2.888185149765217e-19
 6.441544940546071e-03 -6.845225468385902e-04  2.782419549467751e-19
2.343961492953650e-03 6.181383497274128e-03 6.152316453037505e-20
 7.121790088068720e-03 -2.492475769499011e-04  2.822478621115901e-19
7.412180746740922e-03 5.302770870032106e-04 2.965698176304754e-19
 6.226606997788963e-03 -2.237210603823794e-03  2.748552946942861e-19
6.494098314839410e-03 8.930317151404867e-04 2.709025924215974e-19
5.958245162452847e-03 7.064607576248147e-04 2.461453486637331e-19
6.787055259824174e-03 1.822338766715620e-03 2.650807909648813e-19
 3.805073011583109e-03 -5.843344801860486e-03  1.550925779355961e-19
5.377299346600276e-03 1.839655601840794e-04 2.411295891493045e-19
6.972813671743025e-03 2.418208080004210e-03 2.813859269663004e-19
 7.368518999588903e-03 -1.529993803304849e-03  2.946831566529416e-19
 6.231706284087410e-03 -8.181109951927685e-04  2.853996118261787e-19
5.262114554197367e-03 3.055579763171266e-03 2.060970549415261e-19
7.160271301641564e-03 5.394674634316901e-04 2.884641884172662e-19
7.179137978625531e-03 1.108131889694632e-03 2.847791715604948e-19
-3.273968183910714e-03 -5.855312407681014e-03 -1.302540393761929e-19
5.816986382157075e-03 3.030076537604085e-04 2.397828027430482e-19
 6.466416761000003e-03 -1.548063472216147e-03  2.761585765667299e-19
 6.414241162981857e-03 -8.677660694373975e-04  2.900844054968005e-19
 6.713354555958808e-03 -3.128638602999585e-04  3.007443951680622e-19
6.268179945729997e-03 2.139921945445369e-03 2.602133547792730e-19
7.673935160991343e-03 9.824171771386069e-04 3.095934980257421e-19
 6.692261640498015e-03 -2.712302872985581e-03  2.834318054321508e-19
6.075369087848436e-03 1.104900065011337e-04 2.797115748600313e-19
3.922280687903860e-03 5.962050325437514e-03 1.562413634169323e-19
 7.121664782134305e-03 -1.255728483807676e-03  2.901295185691012e-19
4.418355513061916e-03 2.919673159783488e-04 2.066394127865329e-19
3.733881386318146e-03 5.507508638729260e-03 1.505948434636372e-19
 6.283805114656347e-03 -1.686570495647578e-03  2.547547355160506e-19
6.363670855601762e-03 1.459716320228453e-04 2.678543081943451e-19
-6.367515519503655e-04 -5.761709862936070e-03  9.162017284085994e-21
5.267557236010758e-03 1.503167671188191e-04 2.379153027538829e-19
 6.687017433671272e-03 -1.751881019157094e-03  2.959973156329683e-19
 6.665086053288484e-03 -7.095224618351109e-04  3.055921507604443e-19
 6.913604793217138e-03 -2.616776849167250e-04  3.130887286675594e-19
6.168422111603172e-03 2.120252965912053e-03 2.618445810845871e-19
7.412970794499129e-03 1.261811396513469e-03 3.051880560250922e-19
 6.279920727586779e-03 -2.641393527538412e-03  2.711848336675042e-19
6.286149895799146e-03 2.660075673088128e-04 2.807829608590597e-19
7.351073906621557e-03 8.879958083448758e-04 3.103008631075318e-19
 7.344325727788319e-03 -8.756764308332375e-04  3.118876050792821e-19
 6.837441301538063e-03 -6.682004337127664e-04  3.152574859083464e-19
4.510704967644092e-03 1.697533902092720e-03 1.936240001925760e-19
3.356422725565312e-03 4.563255997404946e-03 1.256625242458282e-19
9.348676380131626e-03 5.586998646448210e-03 4.134176294823219e-19
-1.281799184896628e-03 -8.937274935556077e-03 -1.345667915753970e-19
1.820172575433512e-03 1.421174518735882e-04 1.064349678203366e-19
 5.840485568879730e-03 -1.402557630559819e-03  2.780582443571468e-19
 6.431669470522421e-03 -8.620357605996285e-04  3.036619194840184e-19
 6.742663762404398e-03 -3.202168808890712e-04  3.120196319049577e-19
6.266750287749173e-03 2.099041530343996e-03 2.703422795300235e-19
7.596355724627976e-03 8.977868394733635e-04 3.160153757825787e-19
 6.475462827065528e-03 -2.704929385227239e-03  2.840022434577782e-19
6.092407745593923e-03 1.337771412574833e-04 2.855074787571723e-19
5.491239391810065e-03 4.924868735816614e-03 2.356950722685816e-19
 7.551618659887246e-03 -1.726428906906130e-03  3.064252044031854e-19
 4.447513264102636e-03 -7.556097160629613e-04  2.382166766826504e-19
2.774307464390873e-03 6.232215949577330e-03 1.032369787051009e-19
 6.746253775967578e-03 -2.093194275701909e-03  3.037049753689816e-19
5.982500372377439e-03 2.268476656428447e-03 2.109526620681542e-19
-6.526559784133996e-04 -8.266490966695163e-03 -6.884812390759407e-20
 6.560235689709763e-03 -3.489727168821570e-05  2.404670105660708e-19
 6.363083446584550e-03 -1.788754479782285e-03  1.652349202544508e-19
 6.381803287364886e-03 -4.070871358706279e-04 -6.984535136759664e-20
 6.790638094195817e-03 -2.602125353894327e-04  3.892373021722665e-19
6.208062911081869e-03 2.101646577479663e-03 2.606683368023173e-19
7.528191729315352e-03 9.244046530889567e-04 3.064454414664436e-19
 6.417778329076184e-03 -2.683563800081962e-03  2.849787002901299e-19
6.058090979342325e-03 1.364647203307330e-04 2.873181252917985e-19
5.744553848807518e-03 4.739311637261606e-03 2.503210077446327e-19
 7.731967365091809e-03 -1.893947875859511e-03  3.123083594946116e-19
 4.590960097274431e-03 -1.165937187860247e-03  2.583229017959434e-19
3.525852735693047e-03 5.123314451703688e-03 1.291147291050623e-19
 6.739590617394885e-03 -1.323446549122792e-03  3.018047133591173e-19
6.358576249438830e-03 3.065581822083368e-03 2.733689839318474e-19
-2.995133124309370e-04 -8.781378353998273e-03 -7.455040297235836e-20
 6.018145705599415e-03 -1.190679200775508e-05  2.738308116005167e-19
 6.285736295490189e-03 -1.756837592709368e-03  8.571480651227015e-20
 6.403440148231338e-03 -4.336640547655086e-04 -8.312284453412857e-20
 6.838886669867969e-03 -2.595351047049292e-04  1.634099757269635e-19
6.269094664109014e-03 2.126897851155989e-03 3.008518742335833e-19
7.613524392204765e-03 9.831223989626063e-04 3.189265871727205e-19
 6.602873852312756e-03 -2.691640279652612e-03  2.982112636802402e-19
6.012279688068480e-03 1.139001900627420e-04 2.888390413052544e-19
4.245547649669476e-03 5.831848411243801e-03 1.849106838272188e-19
 7.580986862257568e-03 -1.433754992621229e-03  3.129928992515674e-19
 4.284294262560325e-03 -5.437317926314477e-04  2.378127092425623e-19
3.182152864586411e-03 5.704650044987627e-03 1.303183154912329e-19
 6.807844488287409e-03 -2.628674917478794e-03  2.753147306266137e-19
6.276639716984068e-03 1.203265041803420e-03 2.744283701986122e-19
 3.924730452480703e-04 -6.322564504396042e-03  3.640500754438434e-20
4.850177003972095e-03 1.576974761822027e-04 2.362175560467671e-19
 6.784159392960508e-03 -7.519085742657849e-04  3.030137452593922e-19
 6.644799229556881e-03 -1.812201679980421e-03  3.087692293346586e-19
 6.665270692906396e-03 -4.002491635022008e-04  3.159959295629090e-19
6.550468361728188e-03 1.318789806229746e-03 2.943568933533262e-19
7.813253158837144e-03 1.093153125293599e-03 3.292860524528313e-19
 7.956608195112191e-04 -7.788444014687456e-03  1.846366211326716e-20
 5.978597911488399e-03 -1.876874044866831e-04  2.967241427198151e-19
5.453400276724685e-03 2.461739197843777e-03 2.412482107290627e-19
6.103314842148925e-03 1.462776791956844e-03 2.693973923360341e-19
7.629925146869994e-03 1.350865848797015e-03 3.176743080131808e-19
 4.452101116346778e-03 -5.856906524454509e-03  1.725394308154851e-19
 4.566161623871185e-03 -7.941907570607027e-04  2.546490785763841e-19
5.947550369244499e-03 4.503484625120480e-04 2.826215926449360e-19
7.360219405951459e-03 2.727749314821071e-03 3.206354388021388e-19
 6.831758837950118e-03 -2.153988627190219e-03  2.985635448067629e-19
6.039697264884402e-03 7.423738658343244e-06 2.894539978982983e-19
 7.204215426976288e-03 -9.144787282459227e-05  3.257169828143300e-19
 6.285450808871901e-03 -8.427261131589680e-04  3.055073432707274e-19
6.898733595137592e-03 1.614426445611667e-03 3.017392463948788e-19
 6.947771052940868e-03 -2.361139328949857e-03  2.567014463574717e-19
6.409968599885553e-03 9.770852251396219e-05 4.783615360259202e-19
6.071499075737763e-03 3.657373314114906e-04 4.746373895412599e-20
6.980289324549430e-03 1.269684222178724e-03 3.376044187768616e-19
 6.753870152128981e-03 -2.001931600864179e-03  3.409561144450851e-19
 6.537234931618742e-03 -4.936235027680239e-04  3.067147844647922e-19
 7.383391729659512e-03 -3.971150985772206e-05  3.332727096683859e-19
7.172710472706205e-03 1.999530079712195e-04 3.280197454195290e-19
6.670703884407898e-03 8.446169329265912e-04 3.056097842131080e-19
 3.311599244416626e-03 -5.148597293854893e-04  1.999675731013164e-19
5.330576516773590e-03 8.111678974018708e-03 2.930867378532467e-19
 3.578649659323039e-03 -1.062378524129846e-02 -4.972180450282159e-21
 2.674275886232883e-03 -4.814209334917285e-04  1.776273522884616e-19
 6.678750442218359e-03 -1.721477058179319e-03  3.197306577551694e-19
 8.183945103514102e-03 -1.819534057190622e-03  3.804308721795720e-19
 3.786561291990949e-03 -8.829544309736531e-04  2.568789201387204e-19
-2.205453073209437e-03  7.406702940157840e-03 -1.101220954802043e-19
 1.253427752057902e-02 -7.110522315070040e-04  4.913565367405373e-19
 3.715125820350132e-05 -6.169088524562540e-03  4.295852783064423e-20
5.727245018503573e-03 2.082614078555774e-03 2.594738793635092e-19
7.205561230982075e-03 7.230761011228502e-05 3.173597454875033e-19
 6.663082021438703e-03 -9.188345476556706e-05  3.049964122314895e-19
6.802651033677071e-03 2.454258233566137e-04 3.124008586549370e-19
6.285604648686918e-03 5.435612643536999e-04 2.932484514178728e-19
6.531497970434254e-03 1.062814613176102e-03 2.962963927829845e-19
6.014314039931225e-03 2.878041173075019e-04 2.817644752007909e-19
5.632549369372089e-03 2.477768695928374e-03 2.482308240303138e-19
 6.501543957741246e-03 -2.051430738948591e-03  2.756285152859261e-19
 5.474821808381646e-03 -5.303344412217057e-04  2.644409504795582e-19
 6.163245605266957e-03 -5.970206024198574e-04  2.943439609594554e-19
6.084909307076686e-03 3.928402969403156e-04 2.864276354847078e-19
6.357882915321298e-03 5.759920817195393e-04 2.857680759001726e-19
 6.942086889503496e-03 -9.734727742611052e-04  3.021546803975047e-19
 6.206339034552776e-03 -1.903240860325281e-03  3.056165580156995e-19
6.360109862193283e-03 7.409787104149253e-04 3.057013671447171e-19
6.810972125747879e-03 2.122111485503543e-03 3.108188091586239e-19
6.193256674838808e-03 4.590734628439391e-04 2.945661016285368e-19
5.313527559905688e-03 3.475236050424994e-03 2.319445230935426e-19
 6.722106059480518e-03 -4.146480332789674e-04  2.862366638622981e-19
 5.421054211489172e-03 -2.310941574269122e-03  2.676697681981217e-19
 6.509258154562142e-03 -4.094012649241013e-04  3.091205294541919e-19
 7.447307627860996e-03 -1.644600137796621e-03  3.473931368605068e-19
7.778403374674331e-03 3.682891952421218e-03 3.480158484009948e-19
 6.042469771808816e-03 -3.677812490218105e-03  3.082324063103661e-19
5.451251386942667e-03 4.341546283519534e-03 2.334152544001880e-19
 7.480647469288028e-03 -1.547960466889912e-03  3.361102193068724e-19
9.378428422320787e-03 1.987747344582771e-03 4.081028544512668e-19
 1.602256721956184e-03 -5.566385853180957e-03  1.707823202792845e-19
4.212762960323915e-03 3.346866994281488e-03 1.623246348032810e-19
 7.560563172835028e-03 -1.695975284917114e-03  3.440305219413872e-19
6.897294439623442e-03 4.240765023802758e-03 3.071179464794972e-19
 4.925104798730606e-03 -8.673429060366621e-03  1.245208716572711e-19
8.792162845777742e-03 1.671265698742737e-04 3.682149659846974e-19
 4.929941585606898e-03 -4.746952732809243e-03  2.983836924608280e-19
4.239294693811700e-03 2.942288299657267e-03 1.746211346781376e-19
4.831688109426974e-03 7.803790089925552e-03 2.323510441129032e-19
 7.952927425234482e-03 -1.564528109562204e-03  3.354939751120305e-19
4.669103455239991e-03 7.795307013637308e-04 2.230118765084553e-19
5.645475223457663e-03 9.335897976251020e-04 2.585684679882626e-19
 5.982440606027231e-03 -5.552035714876660e-04  2.765950186846635e-19
 5.997677176243624e-03 -3.318379920942889e-04  2.849707503764921e-19
 6.522775594431056e-03 -4.768576454957365e-04  3.042339018649048e-19
 6.485701240478824e-03 -4.563026352409600e-04  3.051604872022809e-19
-7.311667887362134e-03 -9.883087942004212e-05 -3.114950810784190e-19
-5.566194523682305e-03 -1.411661113600845e-04 -2.573354162472643e-19
-4.749051140359941e-03 -3.334125939233611e-03 -2.008563040204386e-19
-4.877132020451770e-03  3.636152467005332e-03 -2.815980145180596e-19
-7.596739276572490e-03 -1.797594184866065e-03 -3.434587929334750e-19
2.900530553719206e-03 5.647644077396589e-03 9.669378851035314e-20
-7.417301003474632e-03 -1.120676348643119e-04 -3.463657863228788e-19
-6.511946490879491e-03  2.355329561670998e-03 -3.137023054437831e-19
-7.681288896437096e-03  5.817972791355873e-04 -3.466518114422557e-19
-7.274540595477223e-03 -1.283892447067762e-03 -3.325896391703029e-19
-3.477725901663332e-03 -6.902659849208281e-04 -1.780392907107045e-19
 2.993233330175722e-04  5.306005786439394e-03 -2.661295229665048e-21
-1.051124395529959e-02  6.231854535374356e-04 -1.030584448426330e-18
-1.700286437836342e-03 -6.426782560322680e-03 -7.037946598472540e-20
-5.681485662130886e-03  4.911428909609110e-04 -1.157479644520868e-19
-6.975673432938571e-03  2.308312428655325e-04 -2.828701499330980e-19
-6.859825891119838e-03  5.993844187729159e-05 -3.149970537138831e-19
-6.685516895491992e-03 -3.743635462355315e-04 -3.194533896837923e-19
-6.733573811670786e-03  1.290918297516848e-03 -3.248302432866831e-19
-6.612063758806290e-03 -5.080264293724216e-04 -3.115089893178999e-19
-6.974222935232833e-03  3.020453459191916e-03 -3.256603386777634e-19
-6.759646158466159e-03 -2.103129966991118e-03 -3.094625603314427e-19
-6.312998458742592e-03  1.671241427302935e-03 -3.294045784414922e-19
-7.275336793370339e-03 -2.003969133182599e-04 -3.388792186673581e-19
-7.429659082811933e-03 -2.046476732952392e-04 -3.441655699466103e-19
-7.616954471828787e-03 -2.533685408160924e-03 -3.424966500957867e-19
-9.600136465946934e-03 -1.041424839176233e-03 -4.324743667072304e-19
-1.750968192219484e-03 -7.027678776111971e-03  5.861481566507249e-21
-5.970473055223761e-03  2.776821394997800e-03 -3.865374313085831e-19
-8.958404403009365e-03  5.049917600199623e-03 -3.824862710045823e-19
-1.039875067568653e-02  2.754067635636712e-04 -4.411254344888310e-19
 3.404956105919205e-03 -6.845496416260753e-03  1.820136308954730e-19
-6.684119939884619e-03  1.237533878241193e-03 -3.342948980110183e-19
-7.900225867175427e-03  7.565348817469512e-04 -3.615977254546232e-19
-7.737308099067562e-03 -1.625858770658793e-03 -3.526137589640988e-19
-8.016738989423563e-03 -4.937619594875764e-04 -3.791923762708652e-19
-7.316110478124915e-03  9.917342585227576e-04 -3.671932214517747e-19
-7.855361324361676e-03  1.747926432530438e-03 -3.636717060713150e-19
-7.229331252129201e-03 -9.063520237484281e-04 -3.256727215569904e-19
-7.412024635532976e-03  5.555000163797302e-04 -4.209489691244160e-19
-8.052429193597031e-03 -2.513214808747208e-03 -8.870639352522644e-19
-9.297576794564003e-03 -2.441895470688662e-03 -6.806148177508363e-19
-2.238386142892753e-03 -5.814099362533458e-03  8.374179395623673e-20
-5.881706433115826e-03  3.278371022207967e-03  1.024216664931747e-18
-8.719185868598009e-03 -5.472425080180005e-04 -1.419216971530886e-18
-6.892559765894912e-03  5.134579547687164e-03 -8.773331599603416e-19
-1.014077430513136e-02 -1.159231042994539e-04 -5.387875650033244e-19
-8.020291184816347e-03 -6.196619936978448e-05 -3.342694247772158e-19
-7.614233124490190e-03  2.766054231925332e-04 -3.312857196801932e-19
-7.687350237447676e-03 -4.466441591955433e-04 -1.329187063868110e-19
-8.187671824073418e-03 -4.757134363174904e-04 -1.530104973381529e-19
-7.815503242357887e-03 -1.575809760217437e-03 -4.933342934496837e-19
-4.462546665165453e-03  6.867153026748707e-03 -8.728705263784892e-21
-9.027574794748545e-03 -1.366802987395912e-03 -3.315773692861228e-19
-8.104366746591476e-03  1.820862362934376e-03 -4.074489144867371e-19
-8.500181448483737e-03 -2.196157469771442e-03 -3.854808402706615e-19
-9.338017529428333e-03 -7.196865331314704e-04 -4.227882482859624e-19
-4.971111830747564e-03 -4.168145067617337e-03 -1.955661992289757e-19
-3.738128716999907e-03  4.736798165187520e-03 -3.129347986482070e-19
-8.160529735556464e-03 -2.460861262594724e-05 -3.965901162444261e-19
-6.606170620873291e-03  6.225825725262661e-03 -2.851073790572090e-19
-9.340510912653449e-03 -3.137313547817642e-03 -4.097246006945426e-19
-6.836750307418976e-03 -2.130392358975946e-04 -3.208887966112974e-19
-7.643108409976234e-03 -1.690858934031188e-04 -3.504973875428120e-19
-8.162474184009559e-03 -2.317477070864343e-03 -3.690066690046686e-19
-9.687259271319909e-03 -2.750391699220549e-03 -4.457421706484007e-19
-3.139019872045075e-03 -1.169112251300354e-03 -1.725655312430633e-19
 8.209053805992235e-04  7.843301719660925e-03 -9.518525111218173e-21
-1.212877577501232e-02 -2.777949493597907e-03 -5.040031425349320e-19
-6.515366758650542e-03 -1.475035228959433e-03 -2.957173701114782e-19
-6.840779334808519e-03 -5.825967366431621e-04 -3.331468516821826e-19
-6.798835874568089e-03  2.291421328161583e-03 -3.452001123156932e-19
-9.126455652603786e-03  5.541798638218874e-04 -4.000166824796861e-19
-6.502390475312174e-03 -5.123252418008025e-03 -2.840864416641208e-19
-4.642321344447880e-03 -1.173670781614771e-03 -2.355975237370019e-19
-5.969728315068071e-03  4.949457778239332e-03 -3.017732732282744e-19
-8.842099516982152e-03 -3.667493102036332e-03 -3.917312715926543e-19
-6.823186021410394e-03 -4.501685959235075e-04 -3.246229394409115e-19
-7.458816552897952e-03 -1.385669085173747e-05 -3.526301929925323e-19
-7.713719025271042e-03 -4.011920658520504e-04 -3.433523092528734e-19
-7.967160389274763e-03 -4.143736017705746e-04 -3.530984495853605e-19
-7.671013206606898e-03 -9.276768803583138e-04 -2.568805429536707e-19
-5.855378296118651e-03  5.949048335287027e-03 -5.823248975962540e-19
-8.238907348874251e-03 -1.775873418361403e-03 -2.834764229799166e-19
-7.663905005742578e-03  1.712945391650112e-03  9.946958504129018e-20
-8.207777624329157e-03 -2.055864562582931e-03 -5.592638608330147e-19
-9.324701805243668e-03 -4.059594244251345e-04 -9.058373655153758e-19
-4.076362830225346e-03 -4.515577364276640e-03 -2.491863307914727e-19
-3.385390191623230e-03  4.236061381833692e-03 -2.282830046633191e-19
-7.984594822528845e-03  3.156484492735545e-05 -4.053882881144321e-19
-6.423003217734908e-03  6.375750561276759e-03 -2.681062022425042e-19
-9.386315494020425e-03 -3.237668883470141e-03 -4.054394354424781e-19
-6.830990949670043e-03 -2.362469291872187e-04 -3.182522930616317e-19
-7.687977899796676e-03 -1.210960966205351e-04 -3.506329382325311e-19
-8.276161322778188e-03 -2.314367360718891e-03 -3.704986600480250e-19
-9.632291646907525e-03 -2.693599185309823e-03 -4.411164103306718e-19
-3.245953631128194e-03 -8.357698410145118e-04 -1.996948609640144e-19
1.219406117818864e-03 8.456858182090222e-03 2.544458647212111e-20
-1.190462408786452e-02 -3.045973629514971e-03 -4.944313996432501e-19
-6.429261568151675e-03 -1.758059191290672e-03 -2.866922972017417e-19
-7.696682154415721e-03 -8.152874146557260e-04 -3.572355580196196e-19
-6.624753673810328e-03 -2.746456265341196e-03 -2.998830189762000e-19
-7.194552919196158e-03  1.984148917357878e-03 -3.749793476348854e-19
-9.295465126972114e-03  2.055495035774333e-03 -4.175486939075422e-19
-6.322512572801511e-03 -1.795517738864774e-03 -2.932448630440774e-19
-6.077299168147521e-03  5.492844504911059e-03 -2.831729705405676e-19
-8.562880214330907e-03 -4.133989145583271e-03 -3.764802975604145e-19
-6.566978847015238e-03 -3.650159514929328e-04 -3.153174355220433e-19
-7.500253532473604e-03  3.525235658271777e-05 -3.540265466875631e-19
-7.834452437985640e-03 -4.202279278605372e-04 -3.615323601668609e-19
-8.179262645340602e-03 -4.387230147972310e-04 -3.747144870168659e-19
-7.831272397419460e-03 -1.110679457607156e-03 -3.647859571962198e-19
-5.661707070213894e-03  6.361430550623776e-03 -2.891815847217859e-19
-8.653167260570317e-03 -1.822010294142181e-03 -3.867842433266940e-19
-8.112663223784974e-03  1.645843870328110e-03 -3.698991412065629e-19
-8.461069559434280e-03 -2.726275595283455e-03 -3.721576175165982e-19
-9.757093802779761e-03 -4.769549234511572e-04 -4.385878439092216e-19
-4.908459437019547e-03 -4.361254135446749e-03 -1.809759109107194e-19
-3.955766744055669e-03  5.790120917456338e-03 -3.036751984992839e-19
-9.467254434966281e-03 -2.006810765149918e-03 -4.255156775076954e-19
-6.692294601047246e-03  4.830237488979755e-03 -3.240397256187977e-19
-9.778336454822237e-03  3.777519326705537e-04 -4.132999980536917e-19
-7.793857103885806e-03 -1.852909985136071e-04 -3.497728410065443e-19
-7.367257254822010e-03  1.898309325946711e-04 -3.419805146951613e-19
-7.546045218000158e-03 -4.168238842333299e-04 -3.469083575427043e-19
-8.053199641065545e-03 -4.448377736841872e-04 -3.665643081217992e-19
-7.651468888729721e-03 -1.415017367410010e-03 -3.533180056040579e-19
-4.811352923181378e-03  6.539196237641101e-03 -2.659209644452020e-19
-8.757640522935888e-03 -1.470855380956119e-03 -3.890193506201762e-19
-7.985777088375133e-03  1.701664791177041e-03 -3.601824692064518e-19
-8.405419172607212e-03 -2.606743632175304e-03 -3.658047929176922e-19
-9.541662315850184e-03 -9.652420769437148e-04 -4.252128429553108e-19
-4.676585140154770e-03 -4.206140853406849e-03 -1.655859479284610e-19
-3.809288668902494e-03  5.678597031929444e-03 -2.982186313751138e-19
-9.359844502286026e-03 -1.558541032275109e-03 -4.198775973325513e-19
-6.488796854000807e-03  4.659847550156976e-03 -3.213637494651030e-19
-9.676989617176565e-03  8.971975533128771e-04 -4.053991397407757e-19
-7.872565249516827e-03 -1.900857306242285e-04 -3.481176588895950e-19
-7.338501140535857e-03  1.965158616107518e-04 -3.370955899496409e-19
-7.539468824950460e-03 -4.017118272425119e-04 -3.431470577295198e-19
-8.044380898673622e-03 -4.286141404480405e-04 -3.632608827503239e-19
-7.774477321156458e-03 -1.181891386676826e-03 -3.557658666327610e-19
-5.266239569350952e-03  6.515335422342957e-03 -2.774157666504975e-19
-8.729945882217651e-03 -1.653290647929645e-03 -3.837110384211320e-19
-8.022226914497254e-03  1.718514691857788e-03 -3.612283146179779e-19
-8.478681528335653e-03 -2.353377094098246e-03 -3.649009561955520e-19
-9.379379620540071e-03 -7.302693884163960e-04 -4.145046884427124e-19
-5.351356385623100e-03 -4.118579221165519e-03 -2.044205128627353e-19
-3.927172722762944e-03  5.522087447678063e-03 -3.005346801086564e-19
-8.813922336891390e-03 -8.305581789280833e-04 -4.010315232214548e-19
-6.624309223007453e-03  5.224071026968825e-03 -3.147806698895887e-19
-1.007250093882958e-02 -2.265763817947381e-04 -4.170884481489731e-19
-7.788561580715153e-03 -1.752778365598341e-04 -3.419119539203110e-19
-7.445823963572584e-03  2.631732134212599e-04 -3.368928152052580e-19
-7.642416000294174e-03 -3.791472589600676e-04 -3.413457251127283e-19
-8.110600593809218e-03 -4.023743255463057e-04 -3.593333277856592e-19
-7.883557117937387e-03 -1.161646491018304e-03 -3.533082521522876e-19
-5.308893717540234e-03  6.518400732172202e-03 -2.724609107787680e-19
-8.790921771973772e-03 -1.554496365637296e-03 -3.802097590323095e-19
-8.062857407965232e-03  1.793329113636297e-03 -3.550564766935826e-19
-8.245225709778117e-03 -1.988067060250010e-03 -3.495096301333983e-19
-9.930185388348967e-03  1.473524645160638e-03 -4.206367060588698e-19
-4.377386663014180e-03 -4.831812467560755e-03 -1.336803121186456e-19
-2.950486686408562e-03  4.469743325709893e-03 -2.954843046657566e-19
-9.603980808748440e-03  7.462900411155786e-04 -4.192911031851827e-19
-4.641710568778893e-03  6.163673217826154e-03 -2.524735195122837e-19
-7.911765438606872e-03  3.075361814311678e-03 -3.454783336424647e-19
-7.207726084377309e-03  8.133689516401518e-04 -3.190388374061694e-19
-6.381931305854258e-03  1.680058498992388e-03 -2.945391140570397e-19
-6.230209194548661e-03  2.158328358006563e-04 -2.626560669356987e-19
-6.455511732373104e-03 -2.442957766935346e-03 -3.347630647744180e-19
-6.670591916366272e-03 -5.096678384691388e-04 -5.122754610887495e-19
-7.452509159078505e-03  7.879859597643163e-04  1.957329056402263e-19
-8.043809498446767e-03 -1.000108125502913e-03 -6.080281712514361e-19
-2.965219437649447e-03 -6.654740097600307e-03 -5.350383234858067e-20
-5.925157990366779e-03  1.828542330853184e-03 -3.063496785095875e-19
-8.692220030789151e-03  4.827063197436586e-03 -3.499648275994987e-19
-1.242381050585253e-02  8.366735951979932e-04 -4.793877704700508e-19
 5.518184554535322e-04 -1.020185726747342e-02  1.630202549066520e-20
-6.152306028083629e-03 -8.610532399362914e-04 -2.894116058208273e-19
-5.188794469163438e-03  5.853904853879523e-03 -2.733443400186199e-19
-7.182876844901258e-03 -6.711920147660861e-04 -2.888812773879444e-19
-6.146566379868511e-03  4.344618596730441e-03 -2.633291892153718e-19
-6.405104056674221e-03 -3.567155584750946e-03 -2.438439048459125e-19
-8.113037349966837e-03  8.366246810310737e-04 -3.365137036464130e-19
 3.512648978886684e-03 -7.776977702559410e-03  1.790176202657728e-19
-5.737585036675463e-03 -4.541797811006317e-04 -2.590532266895194e-19
-7.283242647865415e-03 -2.254339441351550e-04 -3.201120990513367e-19
-8.523995439955733e-03  1.154795527613427e-03 -3.566910676061445e-19
-8.511439946744366e-03 -1.667537479539453e-03 -3.602360893770625e-19
-8.326513379784965e-03 -1.140026858312282e-04 -3.148528876489577e-19
-8.880533083956229e-03 -1.277949900655075e-03 -2.758471988515082e-20
-9.382756733110828e-03 -1.350222213192628e-03 -5.768467339129758e-20
-2.693726468728405e-03 -4.297583582939801e-04  1.263483172112736e-18
3.710297269612970e-03 8.294450514239516e-03 7.917996735283862e-20
-1.219757365529102e-02 -3.048196426498211e-03 -5.220799794086018e-19
-6.693375034210568e-03 -2.246528645435507e-03 -2.176591621263551e-19
-6.720869494951911e-03 -6.792494222176964e-04 -2.619477301112013e-19
-5.675094675729101e-03  4.692940767303273e-03 -2.544987335200367e-19
-7.056923218176533e-03 -1.170411644283634e-03 -4.180585627944239e-19
-8.046222492951482e-03  1.790248308911714e-03 -1.500614700280964e-19
-4.920459839688390e-03 -4.934400706036831e-03  4.367540783162788e-20
-5.411779209663399e-03  2.473785579583191e-03  3.444957196848855e-19
-8.015037400133516e-03 -7.229955714646666e-04 -6.610429535874851e-19
-8.061614424151974e-03  7.109145327370851e-04 -2.767018693705542e-19
-4.714371270422344e-03 -1.363067877515630e-03 -1.513687924979027e-19
 1.091731768732092e-03  6.892286547290395e-03 -1.245935685022986e-20
-8.908695416524018e-03 -2.106713922776111e-03 -2.918560516176436e-19
-6.693839601617203e-03  1.028320812543316e-03 -2.257127381666285e-19
-5.842024563105556e-03 -1.617650665507622e-03 -1.701740230509981e-19
-7.055809127452715e-03  3.603931822586844e-03 -2.157766519205611e-19
-3.145597897981666e-03 -5.130532193009553e-03 -3.699877676116882e-20
-4.110989772678581e-03  3.273986421725261e-03 -1.846027124326504e-19
-7.877973350969868e-03 -4.340814413680775e-03 -2.407637457872847e-19
-6.546960425876949e-03  4.549448930518232e-04 -1.842109770967966e-19
-6.410519378237171e-03 -2.315688167609807e-04 -1.632112036283470e-19
-7.359945439072908e-03  1.046078284095005e-03 -1.876222897268142e-19
 1.806788917501917e-03 -7.605889479726950e-03  6.899855387686814e-20
-6.234199246100669e-03 -5.132925308292168e-06 -1.526473095153191e-19
-4.044875140027160e-03  1.026797498744621e-03 -9.895039107264656e-20
-3.287129193244985e-04  7.489768045955246e-03 -7.341116481982221e-21
-8.789501352096012e-03 -1.650084341280042e-04 -1.670994287338158e-19
-4.761817881478051e-03 -5.233078974206612e-03 -6.169355894146822e-20
-3.110416043763395e-03 -1.668603376762956e-03  5.462151649063752e-20
-5.257815541916096e-03  2.219447764012313e-03 -1.280186901798389e-19
-5.419891144831208e-03  2.197613921072551e-04 -5.312499598072612e-20
-1.496706562198559e-03  1.029807631696401e-02  5.299804776002755e-20
-5.757285835587748e-03 -5.368171571136531e-03 -6.109476734169714e-20
-3.562576369294003e-03  3.619805123723013e-03 -7.275936252461411e-20
-5.426303553916709e-03 -2.773095137646708e-03  2.623058336041766e-20
-4.248764546009789e-03  3.893234253145957e-03 -3.943641163605820e-20
-6.076401440618718e-03 -1.776938856604245e-03  6.443664026557922e-20
-5.966861105207701e-03  1.159071278632493e-03  5.824403024790211e-20
-6.787847351154566e-03 -4.861159422834750e-04  9.043223839962507e-20
-6.419090544870008e-03  7.820482450173953e-04  1.386140856307016e-19
-6.469754848201028e-03 -5.365336919120573e-04  2.254781684963275e-19
-6.638878527628993e-03 -5.473541091721960e-04  5.052532500776355e-19
-5.198509435571772e-03  3.212020736120860e-03  2.086711289848184e-19
-6.883091641221111e-03 -8.979693665867911e-04  1.004440393118462e-18
-8.539439707768335e-03  4.356935368168053e-03  1.697911865415039e-19
-2.555504949288722e-03 -5.968298089628225e-03  3.113051882048784e-19
-4.311840371908331e-03  8.313107991142674e-04  6.328872275034925e-19
-6.925031529466228e-03 -1.281859434668480e-03  7.376892753139876e-19
-1.153789801030560e-02  2.811550781828553e-03  7.198069221207822e-19
 2.592617107597747e-03 -8.565845220839823e-03 -2.469036058120881e-19
-6.271984021720019e-03  1.062044969521077e-03  1.030917293776438e-18
-8.900190311942347e-03  1.659969954656667e-03  1.270919075412317e-18
-4.906720485236224e-03  1.839256219898800e-04  1.775758705684824e-18
 1.933684731549251e-03  5.368872638379779e-03 -7.173603412276849e-19
-7.733677506488608e-03  1.223863309255407e-03  1.988361942320436e-18
-7.276907532578575e-03  4.703484161526409e-03  1.897717724042100e-18
-4.074608139021051e-03 -4.279073786924167e-03  1.910508803447759e-18
-3.954135435468461e-03  1.299018808134929e-03  2.841938705328416e-18
-5.985447478485026e-03 -1.458468794268404e-03  3.427424382509183e-18
-7.173998542944922e-03 -9.019462239625859e-04  5.348251577424257e-18
-5.809223639734039e-03 -2.491021025970374e-03  6.699487137681209e-18
-6.076177988983270e-03  3.558650148235022e-03  7.144683569023788e-18
-7.580523439799093e-03 -1.167654335423747e-03  1.028333461773433e-17
-6.471766910432548e-03  3.191049686765536e-03  1.032954115781805e-17
-7.424630320124953e-03 -9.984094390275990e-04  1.533281093797357e-17
-6.864045629744694e-03  7.678767180141560e-04  2.092058832907424e-17
-6.286555876167877e-03 -2.985619634091919e-03  3.010170601265308e-17
-6.623318181429771e-03  5.607070337695674e-04  3.849157171634364e-17
-6.536920682140847e-03 -1.653059999512572e-05  7.055607411266799e-17
-6.311476525351019e-03  2.675437713448502e-04  1.239629514761695e-16
-6.347420078312827e-03  2.690674201576611e-04  1.483611533253472e-16
-6.568645721564346e-03 -2.250247577843955e-03 -1.290472931035123e-15
-6.794349077659753e-03 -8.914429923844025e-04  6.602445717609239e-15
-7.924896502658731e-03  1.835367982745880e-04  1.889101018719392e-17
-7.306587737295133e-03 -9.586505435915657e-04  6.949353974139304e-15
-7.034580481993275e-03 -4.794607152421965e-04  1.674600114076643e-16
-6.134448145012595e-03  4.673947292840486e-03  7.351887750531434e-17
-8.074628454934592e-03 -1.926758821126273e-03  7.602529651709210e-17
-6.330932361257036e-03 -1.815857320846710e-03  5.565677706341122e-17
-2.917995912253965e-03 -3.514379802175542e-03  4.607762737990385e-17
-7.135111601712845e-03  2.523852926154032e-03  2.950378786125292e-17
-7.675094531074674e-03 -2.746322214702959e-03  3.245172785891241e-17
-7.566524348394144e-03  1.904406589229926e-03  1.857548355310391e-17
-5.820422757655205e-03 -1.115580077893024e-03  1.719509180558698e-17
 3.706795862839126e-04  6.443924663187015e-04 -1.437766015133363e-17
-5.895780132374866e-03  3.028801196144932e-03  7.222062738900763e-18
-6.467236670078383e-03  6.961399712109051e-03  2.615555202772824e-18
-9.479696635752648e-03 -5.408645761536259e-03  1.220864575356830e-17
-6.102807514667701e-03 -5.303144435659165e-04  9.690418410266933e-18
-5.486133005492042e-03 -1.286909475536462e-03  7.399527177535019e-18
-6.362987741101076e-03  4.539594616283864e-04  4.042494326155502e-18
-5.492347211373537e-03 -7.674685160078445e-04  3.615101713720136e-18
-7.734973483182073e-03  3.744280457382944e-03  1.370679119675501e-18
 1.627888940424980e-04 -8.226506607628324e-03  2.033860329181855e-18
-4.649610222642833e-03  7.702217923852718e-04  1.886725988572929e-18
 1.114506609290918e-03 -6.643667797324420e-03  1.565812975648239e-18
-6.416672828194567e-03 -5.839233938816259e-04  2.060614870233920e-18
-6.908891196242367e-03 -6.768179407403623e-04  1.746846282661317e-18
-6.930098337218736e-03  2.013363382682795e-04  1.299319092335926e-18
-6.619566845111788e-03  5.183750660368834e-04  9.848902860040050e-19
-5.783783143432105e-03  2.658909442749829e-03  4.173356758994860e-19
-6.668196989110804e-03  3.074861117743172e-04  7.451785756246098e-19
-5.210731000759565e-03 -2.959973472868993e-03  9.372780069025508e-19
-5.410639039097318e-03  1.019390891936969e-03  3.892178992210535e-19
-5.829927712135901e-03  2.949248755843215e-03  1.340632295926770e-19
-6.339319567245615e-03  1.014940861288700e-04  3.908788175658370e-19
-4.270272414671709e-03 -3.703694902652285e-03  5.743308300871232e-19
-2.996046075348527e-03  5.293991950149173e-05  3.398462861044912e-19
-5.855775461959446e-03  3.607836410345902e-03 -5.047778967092820e-20
-6.978154501961000e-03 -2.301821082339388e-03  2.797569660401298e-19
-6.925139791246800e-03  3.217860789604002e-04  1.145677705865840e-19
-2.819289897745423e-03 -6.126293921418675e-03  3.443056126469676e-19
-6.848119064687219e-03  3.045168990673782e-03 -1.459528512949098e-19
-6.220096188122754e-03 -5.668146916667882e-03  1.447346388528466e-19
-7.006918107364386e-03  2.823379921971923e-03 -1.228318659256050e-19
-6.533511956906526e-03 -2.524758824684997e-03  5.912949671860647e-20
-7.217743012593348e-03  2.912355612555853e-03 -1.313392341873990e-19
-4.605885081631246e-03 -7.712048266566443e-03  6.060230970856179e-20
-5.882349183750986e-03 -6.429430575279942e-04 -3.257622135282954e-20
-8.361029660817103e-03 -4.544836312984187e-04  8.538101656538140e-20
-8.133302195267957e-03 -3.189266730255838e-03 -4.433724255985807e-19
-8.797293333970562e-03 -4.495109097032621e-05 -3.174352430016290e-20
-7.736204838093340e-03  2.102771717105016e-03 -8.696232416137197e-19
-6.354920873741504e-03  2.080929582307863e-03 -4.915725295368732e-19
-6.820752214455707e-03  5.409368819282238e-03 -5.482816630730319e-20
-6.602697821243629e-03 -1.321595730032079e-03 -1.456954702998519e-19
-5.784035886548210e-03  1.277218979393178e-03 -1.767737359556642e-19
-5.353874140727194e-03 -1.844057325851487e-03 -8.421992695357204e-20
-5.192121463478393e-03  1.110878545131344e-03 -1.555553120798669e-19
-7.852770175490758e-03 -8.296784811081653e-04 -2.044966172711485e-19
-5.519826525157990e-03 -3.201277127188916e-03 -1.044873486725212e-19
-4.173179424152497e-03 -4.919130797523680e-04 -1.134017876941559e-19
-6.245710453148365e-03  1.315317239289333e-03 -2.284492550622823e-19
-6.489903567686003e-03  1.575590526608835e-03 -2.066107813124189e-19
-6.536948148745297e-03 -3.725180307339958e-04 -1.844467971183212e-19
-5.355250556741450e-03 -3.707311830496991e-03 -1.248856730034550e-19
-5.719641398489723e-03 -7.053117022791799e-04 -1.911943170446706e-19
-5.545346381224761e-03  3.255273413072311e-03 -2.381639437677241e-19
-1.132729547383724e-02  4.328382676416466e-03 -3.603039855971600e-19
-2.328130520562690e-03 -6.023858643792734e-03  2.949810873317553e-20
-3.613468357984434e-03  5.060317878802680e-03 -2.631875584328616e-19
-7.896189731419961e-03 -2.560135545044997e-03 -2.638012046278232e-19
-6.169919254944123e-03  3.370486213179714e-03 -2.632163274611580e-19
-6.822153695569214e-03 -1.443996488884331e-03 -2.461389862388277e-19
-4.748044898178119e-03  3.598142800495167e-03 -2.329146562471113e-19
-1.003516819333237e-02  1.227748968385421e-03 -3.344905042298361e-19
 1.074296035759898e-03 -5.236886952682155e-03  1.341038436798433e-19
-2.888714611730165e-03  7.467685068250156e-04 -1.877500843204384e-19
-8.314481507023226e-03  6.133446298083579e-03 -2.837067147907694e-19
-3.856380441639431e-03 -7.503033515105446e-03 -1.244910424775236e-19
-3.613838515784848e-03  6.749616091144171e-04 -1.997661968642420e-19
1.973577176715747e-03 8.926534666391223e-03 6.884775483819683e-20
-9.977602853866896e-03 -3.081876112341413e-03 -3.750050878048254e-19
-6.624888720418181e-03 -8.527118430899919e-04 -2.415067674155305e-19
-7.011815416745716e-03  9.690652265997507e-05 -4.376023762796818e-19
-7.433146612673009e-03  1.027295140906924e-04 -4.528143592162909e-19
-7.822521815314429e-03  1.563387624371038e-05 -1.306103131734847e-18
-7.923477378564020e-03 -6.629392103128095e-04 -6.310528693184511e-19
-7.880453777216573e-03  9.576950183829197e-04 -3.236646301438319e-19
-8.504432619491555e-03 -2.063460113366168e-04 -3.422054400010339e-19
-7.861717983243421e-03 -1.141626674969310e-03 -3.224754830289898e-19
-7.634712793290633e-03 -4.332930813441780e-04 -3.176097772101721e-19
-1.002847586729350e-02  6.386070442891012e-04 -4.028749229972266e-19
-3.738705287542579e-03 -8.434942379230549e-03 -1.108441384432282e-19
-5.946224875125645e-03 -8.144711128673620e-05 -3.088260319991576e-19
-3.011103718045386e-03  4.009339070693538e-03 -2.564143522437424e-19
-1.303354712772511e-03  1.363025220900302e-02  1.032686654423665e-19
-7.673500384781109e-03 -3.033974430819820e-03 -2.938860193470638e-19
-6.149013528326192e-03  4.421580948701007e-04 -2.650278613705538e-19
-4.997490128254491e-03 -3.417787189662144e-03 -1.754656782242237e-19
-8.495996581477381e-03  1.744243035513341e-03 -3.623737113350934e-19
 4.660579947356497e-03 -7.466278229477659e-03  2.173789103937315e-19
-5.295931613648615e-03  1.267528486616282e-04 -2.620219528485570e-19
-7.323468559960538e-03 -1.117339583832872e-04 -3.264420019540977e-19
-8.182765819164920e-03  3.003870757716083e-04 -3.511550094608152e-19
-7.405841456217871e-03 -2.010657881826527e-03 -3.081948142656579e-19
-7.811344432504941e-03  3.944691923269168e-04 -3.350684259363171e-19
-8.277478738625173e-03 -2.481824848135145e-03 -3.445085930244332e-19
-9.726985309697124e-03 -2.916428371649486e-03 -4.185523466918473e-19
-3.070490447999690e-03 -1.999151413447085e-03 -8.740550170959831e-20
-4.783285142134638e-04  7.286277291542831e-03 -1.163709657955930e-19
-1.118983573302879e-02 -2.777007239210008e-03 -4.473600015393545e-19
-6.741466354441839e-03 -2.732255213625395e-04 -2.949949625603787e-19
-7.241112989787705e-03 -7.217385123920844e-04 -3.237554329028893e-19
-7.503597500926521e-03  1.503573508414015e-03 -3.544113379244128e-19
-8.686557410249466e-03 -2.121671749637808e-04 -3.823424876718055e-19
-7.539347474160697e-03 -1.359400465188847e-03 -3.380853994123276e-19
-5.121516264454255e-03 -5.388248965104946e-04 -3.184309639863857e-19
-6.018898440624284e-03  5.734614210580343e-03 -2.435900120202839e-19
-8.715037168260942e-03 -3.978229658917357e-03 -4.458974187216536e-19
-6.491686309194299e-03 -1.073406333121166e-03  3.257022189870873e-19
-7.921683182736143e-03 -3.202801608157380e-04 -6.103007525362625e-19
-8.963913640660869e-03 -2.687244464613739e-03 -6.404490819472979e-19
-1.075426189193483e-02 -3.223963538539592e-03 -7.317424179565830e-19
-3.600987309979338e-03 -1.343200912168881e-03 -1.908872221889302e-19
 8.837022995239057e-04  8.796942525565744e-03 -1.820052608946379e-20
-1.282971576662850e-02 -3.223337825030680e-03 -5.235792223804301e-19
-7.190517197001697e-03 -2.168419715613315e-03 -3.090449340010194e-19
-7.729552451414583e-03 -7.625066050524676e-04 -3.630811635702891e-19
-7.551801290537364e-03  2.661039602164187e-03 -3.735751480549334e-19
-1.000754352868644e-02  6.112412666651362e-04 -4.280467931613247e-19
-5.197829308506141e-03 -6.196688039545951e-03 -1.996060150454029e-19
-4.607960102582196e-03 -3.090464291460411e-04 -2.571867369810552e-19
-5.864340496429709e-03  5.673520350748075e-03 -2.837513715502676e-19
-8.799099793597305e-03 -3.143226517240329e-03 -3.761574177915876e-19
-6.132849289635835e-03 -1.805553332916224e-03 -2.731097508410884e-19
-7.542387226331688e-03  2.219246912908091e-04 -3.478578689918009e-19
-8.466904348056760e-03 -2.389007250786518e-03 -3.719193708025802e-19
-9.852510525029366e-03 -2.779967520023748e-03 -4.427027903410086e-19
-2.334821697070190e-03 -1.551991828352608e-03 -6.170101631252049e-20
 1.797625322854982e-04  6.955392641324884e-03 -9.899737945921778e-20
-1.142517332661027e-02 -2.326855857369081e-03 -4.686089622464723e-19
-7.086959135045263e-03 -1.552227300843757e-04 -3.250948468761774e-19
-7.409629236722230e-03 -6.472379506463983e-04 -3.467599357552954e-19
-7.437013349189192e-03  2.242144655485991e-03 -3.641508097164395e-19
-9.009090638357359e-03 -3.150422188751184e-04 -3.996008169833626e-19
-7.221921681291029e-03 -2.494479773514624e-03 -3.221043695667430e-19
-4.832305639341365e-03 -7.444914332770330e-04 -2.527719969908738e-19
-6.010619540110194e-03  5.586205824759241e-03 -2.922699122061875e-19
-8.706986494118007e-03 -4.097541094468484e-03 -3.779347390465373e-19
-6.578514232040759e-03 -1.044785440236907e-03 -3.059441657662455e-19
-8.017063398698778e-03 -3.147329723817482e-04 -3.693319537731205e-19
-9.027230868556410e-03 -2.652032563260235e-03 -4.020717099610837e-19
-1.075555920412282e-02 -3.159783289110505e-03 -4.904461668038722e-19
-3.490477398864889e-03 -1.222483727856834e-03 -2.002580139461160e-19
 9.767228479504130e-04  8.877619654548740e-03 -3.640831885279323e-21
-1.283549150964376e-02 -3.291534180315330e-03 -5.342100474667047e-19
-7.157006178034529e-03 -2.197874709594499e-03 -3.194361611507098e-19
-7.636473648836141e-03 -6.452467464319316e-04 -3.712541194671421e-19
-8.080094461424625e-03  4.430015828064341e-03 -3.740858204057667e-19
-9.451114193145711e-03 -4.161523325895669e-03 -4.167795033651904e-19
-6.628928588803235e-03 -2.207761733324625e-03 -3.029570438467504e-19
-4.845381840060857e-03 -3.659180058294193e-04 -2.721619957752582e-19
-5.678476534457058e-03  6.010749541790796e-03 -2.806129869016339e-19
-9.234368725343691e-03 -2.930434703049423e-03 -4.051336044432889e-19
-6.499725038093688e-03 -2.082118956461126e-03 -1.290315317006618e-19
-7.703180461751002e-03 -3.533112735367079e-04 -7.309783102937108e-19
-9.417257124609599e-03 -2.875329408741502e-03 -7.673903425495116e-19
-3.087036531898501e-03 -2.342879380537636e-03 -9.967209467841646e-20
-1.104723847405754e-03  7.730943196608636e-03 -1.454547614766341e-19
-1.194707989857090e-02 -2.978130201784846e-03 -5.007542064310918e-19
-7.236598265896822e-03  4.695616095599739e-04 -3.445224769582069e-19
-7.513890864910521e-03 -6.853315033275134e-04 -3.880337592397484e-19
-7.698086551707521e-03  1.885659764051967e-03 -4.181956645392987e-19
-8.919801316978161e-03 -7.387174236427467e-04 -8.128801027417171e-19
-7.384046177627432e-03 -1.566387696671953e-03  2.741130114027906e-20
-5.109727094934792e-03 -4.976235145552319e-04  1.013013531860195e-18
-6.044766912926641e-03  5.664559809311371e-03 -3.954489789197020e-19
-8.565755462234714e-03 -3.950507332526772e-03 -4.658611815652992e-19
-6.325617527024215e-03 -9.335867551084190e-04 -6.003115059003616e-19
-7.630119889133142e-03 -3.820999261213087e-04 -8.684768694427334e-20
-8.381758335540545e-03 -2.702655201317509e-03 -4.769559945226952e-19
-9.888297603752177e-03 -3.188431100147294e-03 -5.529615636979668e-19
-3.787892439165355e-03 -1.208273100829050e-03 -2.127386419823442e-19
8.619139904168550e-04 8.385723730229517e-03 4.998987371079588e-21
-1.209087382561589e-02 -3.044057707497397e-03 -5.024899533661672e-19
-6.390701543963992e-03 -1.590348080460916e-03 -2.872417369729854e-19
-6.875634318919642e-03 -5.669610443480089e-04 -3.340334913843122e-19
-6.929211274448286e-03  2.300269064461328e-03 -3.503533063057716e-19
-8.953069001494967e-03  2.857470023246136e-04 -3.966923261093912e-19
-6.410585349557370e-03 -4.224497553228421e-03 -2.774685892667540e-19
-4.287329944524908e-03 -8.348626719358364e-04 -2.282322461912622e-19
-5.762979479387456e-03  5.254177710806497e-03 -2.835410309726249e-19
-8.534359634016853e-03 -4.002402393805543e-03 -3.766677865355132e-19
-6.397186440203616e-03 -1.067785881113390e-03 -2.993569387840000e-19
-7.747921681620955e-03 -3.469991205472011e-04 -3.562656721741308e-19
-8.569144872471362e-03 -2.648241116121912e-03 -3.842655015673189e-19
-1.003040149033477e-02 -3.099833417830202e-03 -4.587172255851162e-19
-3.556002122738358e-03 -1.220358948979344e-03 -1.963779870011314e-19
8.306526127917421e-04 8.398230928551888e-03 4.411412743102750e-21
-1.199050164628824e-02 -3.095107006742190e-03 -4.989818961951727e-19
-6.456293312332788e-03 -1.999094525999132e-03 -2.885445158277755e-19
-7.169378196117340e-03 -7.038525315171179e-04 -3.436431943691223e-19
-6.970737293863687e-03  2.030912685413635e-03 -3.541068964789860e-19
-9.293447278221402e-03  1.389207679501018e-03 -4.066169789728694e-19
-5.652026993340556e-03 -5.801541850228806e-03 -2.417960688348370e-19
-5.070400312893424e-03  1.260069445924360e-04 -2.855025128990836e-19
-5.966726726632139e-03  6.092801617438918e-03 -2.548348946286970e-19
-8.598943819969293e-03 -3.327122997645826e-03 -3.787038798100644e-19
-5.633188995966256e-03 -1.495141937375944e-03 -2.667077388315865e-19
-6.686176337613063e-03  1.121294209883140e-03 -3.325736039598115e-19
-7.572427578565705e-03 -2.554056086714873e-04 -3.466063614560260e-19
-7.857466184533247e-03 -2.650194950899035e-04 -3.544226136454061e-19
-8.450755484626284e-03 -1.835199084179610e-03 -3.841649625932537e-19
-7.446732946702127e-03  4.033373451044346e-03 -3.769932428439326e-19
-7.088446970035953e-03 -1.600048204454258e-03 -3.439718631959898e-19
-5.501500633063413e-03  3.968845030050830e-03 -3.177903897256279e-19
-7.559480822297072e-04 -8.764527344960170e-05 -8.560206604274094e-20
-9.374867086395629e-04  8.230337849934143e-03  4.382689056045534e-20
-5.381858226026279e-03 -4.967484066108655e-03 -2.520668804910929e-19
-6.489890783572436e-03 -1.493626191058223e-03 -2.937208480232052e-19
-1.145189146960394e-03 -4.124964715513660e-03  3.490739183554320e-20
-5.302376546498249e-03  1.631834623547105e-03 -3.176506871831100e-19
-8.054475143959060e-03 -2.296333513002130e-04 -3.633458394439086e-19
-7.547234863855529e-03 -1.270866889244724e-03 -3.465493209731990e-19
-7.661067131152476e-03  7.863515060719987e-04 -3.604504819380064e-19
-6.981688785571375e-03  1.000295160527652e-05 -3.329346207553220e-19
-7.715579684137135e-03  3.434026782150466e-03 -3.251758096028310e-19
-5.837708110272970e-03 -3.913089401561505e-03 -2.558769213954354e-19
-5.116791926718806e-03  2.452137444768157e-03 -2.990070637969519e-19
-5.619148498313060e-03  1.319232389384409e-04 -2.649581261081405e-19
-4.742679946746725e-03  9.806258305365734e-03 -8.318041919779515e-20
-3.917509165927507e-03 -5.935912461993345e-03 -1.733884518022264e-19
-4.604204785517775e-03  3.529457344370286e-03 -2.562632603416726e-19
-5.903779424771649e-03 -6.738315389635983e-03 -2.800082241633623e-19
-7.989109127065202e-03  9.944582383400978e-04 -3.540951355381869e-19
-5.355677262436551e-03 -4.433311536055250e-03 -2.268034065450519e-19
-3.649504774057682e-04  1.581186600894303e-03 -2.582002796155118e-19
-5.991547082080171e-03  2.998261917707546e-03 -3.349967380456117e-19
-1.242649974459067e-03  1.112792340871729e-02  3.134574630668796e-20
-8.819617416717334e-03 -1.163242396759004e-03 -3.798695441345481e-19
-3.860247711001067e-03  2.741007635753419e-03 -2.150034279216185e-19
-5.103924793466180e-03 -1.391908006877052e-04 -2.280930240390105e-19
-6.677613856139322e-03  6.497717796456798e-03 -1.900469709297221e-19
-1.510878050730409e-03 -4.938618823036719e-03 -5.186547314551047e-20
-3.143394060111102e-03  2.340842107855100e-03 -2.137048656464106e-19
-3.470933010902667e-03 -6.431354148682861e-03 -1.574270327723296e-19
-5.648841101870634e-03  2.287433171725943e-04 -2.766009238625520e-19
-6.593973760901366e-03 -1.344084717391459e-03 -2.390143521938696e-19
-6.875522486972950e-03  5.754886731157753e-04  4.825339534422085e-19
-6.666968997518367e-03 -1.473185701130125e-03  1.350470195725884e-18
-6.716673615352040e-03  1.202784528992332e-03  5.968753838046481e-19
-7.223264665997113e-03 -8.625646449817887e-04 -1.824763171213359e-19
-6.283999715168542e-03  2.882572778120614e-04 -3.239538352950755e-19
-6.797830691983754e-03  3.243463689138494e-03 -2.973794075743724e-19
-7.740192374169027e-03 -1.200222405498376e-03 -3.405896679553910e-19
-5.543109449189375e-03 -1.024081348986652e-03 -2.708240270377931e-19
-4.643506131167248e-03  2.415128699698001e-03 -2.438670777086250e-19
-1.011987728038564e-02  9.563713463364370e-04 -3.961208032448490e-19
 9.479451385338393e-05 -6.425222534958024e-03  2.533196949505743e-20
-5.466835042065149e-03  8.108267358175812e-04 -3.037346453265239e-19
-7.376764269863936e-03  1.636097635862312e-03 -3.282255966994205e-19
-6.601525077896057e-03 -2.285236539227346e-03 -2.971077561618612e-19
-7.267751024963964e-03  1.590354133463814e-04 -3.354024248248829e-19
-6.487360366190688e-03 -1.900511213671755e-03 -3.007811519444918e-19
-7.054265626283356e-03  3.581817634785344e-03 -3.087717087213496e-19
-6.173175633977110e-03 -3.239208661266864e-03 -2.786973407767477e-19
 8.383513331107909e-04  5.150073348102933e-03 -4.920489366459650e-20
-8.782557032250072e-03 -4.456131407467095e-04 -3.931791972334042e-19
-7.906857704087814e-03  3.800667683669812e-03 -3.281851223258101e-19
-5.510004652164775e-03 -3.541656530922313e-03 -2.417584846449487e-19
-4.961181152469758e-03  4.332097655642228e-03 -2.549139772100754e-19
-7.509949496122216e-03 -3.524434713063599e-03 -3.271453146101986e-19
-6.152800418671632e-03  3.287838684067917e-04 -3.197191800622188e-19
-6.418577634515536e-03  1.168512439710902e-05 -6.237114466067252e-19
-5.785532559331189e-03  2.130470999344056e-03  2.915779541359986e-20
-6.970781188371973e-03  1.939929364672749e-03 -3.227984461458317e-19
-5.517242337757760e-03  2.809582287136674e-03 -3.016320912817897e-19
-5.454557192250721e-03  4.769979524697709e-03 -2.535222138043018e-19
-4.865361106168835e-03 -6.886472019757132e-03 -1.401098577106231e-19
-4.318459904993686e-03  1.851724329719681e-06 -2.651944064193143e-19
-2.592791432978467e-03 -9.946039935047885e-05 -2.383400816507997e-19
-3.744910793949205e-03  6.330921156944558e-03 -1.858137485536107e-19
-5.094759057925624e-03 -5.325413799625384e-03 -1.695124906751386e-19
-5.106887825685352e-03  3.434086714406159e-04 -2.773274025513550e-19
-2.742828365243120e-03 -5.373768318651508e-03 -1.262827437734864e-19
-6.455260930297919e-03  2.986571625869647e-04 -3.058054729251841e-19
-5.053341560150710e-03 -3.861497979189028e-03 -2.427059763935636e-19
-6.458405219137219e-03  1.701686798567754e-03 -3.124237392120399e-19
-6.939728516812839e-03 -1.753449747167808e-03 -3.073039470812218e-19
-8.241914494992330e-03  1.209889209282095e-03 -3.535750422446021e-19
-3.338039380954034e-03 -4.838339409794723e-03 -1.818400608457481e-19
-5.367258377742989e-03  3.508300938657062e-03 -2.715766409075860e-19
-4.639417439345021e-03 -6.596308401915323e-03 -1.399345635311444e-19
-8.605793517133982e-03  1.200234710880215e-03 -3.340586040989012e-19
 9.590688944766838e-04 -5.150605189758595e-03  5.184056681328960e-20
-3.195111634855253e-03  8.854479394210088e-04 -2.592233149317601e-19
-6.533903869155096e-03 -5.457135907523072e-04 -3.176784322895992e-19
-5.195767956079623e-03  7.742296092319534e-03 -2.454244221701377e-19
-6.819158857911748e-03 -4.225205107235797e-03 -2.685137300762902e-19
-5.196478128121917e-03  1.578974775317468e-03 -2.917090943611022e-19
-7.165094929341105e-03 -9.163465996126269e-05 -3.292081608319406e-19
-6.865547486246537e-03  6.866686605232047e-04 -3.204265313235900e-19
-6.695658354177897e-03 -4.339834219454796e-04 -3.126830746423669e-19
-6.452709425180334e-03 -1.583191482233525e-03 -3.050699186447928e-19
-6.863068806399778e-03 -8.891589074977419e-05 -3.220912978296964e-19
-8.208184481476642e-03 -6.851106152859797e-05 -3.425781247795846e-19
-5.834610841877195e-03 -2.551020127865805e-03 -2.923766300407710e-19
-5.744279919011198e-03  2.411858045011011e-03 -2.946475869807114e-19
-7.220281578995497e-03  8.624354919005396e-04 -3.183728703661607e-19
-6.213741534109086e-03 -2.860218633132743e-03 -2.736869438832775e-19
-5.515937434178017e-03  4.485735742211837e-05 -2.952117839171755e-19
-6.012476136289488e-03  9.580820272061163e-04 -2.996972634972490e-19
-6.824118252509353e-03  1.326184186538950e-03 -4.326909241491328e-19
-1.267303547413916e-02  1.779146529843342e-03  3.921360532715530e-20
 2.726569887066814e-05 -6.337193318526713e-03 -7.794860021201988e-20
-7.995758498372123e-04  1.849983681833908e-04  2.707304907812892e-19
-6.839472674131456e-03  2.441724709948253e-03 -1.434349681785619e-18
-8.051557062966494e-03  2.144710781887325e-03  8.003023864639220e-19
-6.847476841649324e-03  2.905657429868163e-06 -9.854455382793652e-20
-6.195526134079452e-03  8.995528383781944e-04 -3.635220662028020e-19
-6.913869956696449e-03  4.750297476194800e-04 -3.027114654899557e-19
-6.267285722768607e-03 -8.355638862495232e-04 -2.900154269900383e-19
-6.284679807445281e-03  4.812962497358185e-04 -3.009353994696945e-19
-7.032089949061894e-03 -1.502785990260908e-04 -3.312413406922741e-19
-5.218974536473752e-03 -1.003719696527117e-03 -2.743342372827963e-19
-4.809834681356469e-03  2.824585358429167e-03 -4.459493110669977e-19
-6.151942035962427e-03 -2.043131903277127e-04 -2.087875504750648e-19
-6.457484072571800e-03  6.049270710065948e-04 -1.915072941179759e-18
-1.222690824060222e-02  1.035300471296122e-03 -1.601471220167349e-18
 2.559685707570273e-04 -6.157651370988252e-03 -3.435285509961319e-19
-1.087429655847006e-03  2.379818517001674e-04 -1.022397288218844e-18
-6.897289463084753e-03  2.493648606776025e-03 -6.796183738733875e-19
-8.103633180723725e-03  2.084193511939579e-03 -4.002255147826209e-19
-7.185704610102333e-03  1.812346144206513e-05 -3.256502043479453e-19
-6.606674273875009e-03 -4.043404408055582e-04 -3.177880733110436e-19
-6.815439841050042e-03  6.746050235111257e-04 -3.231974171546649e-19
-7.136388668662760e-03 -1.824880719695132e-04 -3.263340322415779e-19
-6.637546989073263e-03  1.601042572593109e-04 -3.222367070409409e-19
-5.526935468912034e-03  1.762885463193975e-03 -2.915679199059847e-19
-6.362601165592360e-03  1.475154223505403e-03 -3.043571594037820e-19
-5.533538475890860e-03 -2.870587195928534e-04 -2.866016311895535e-19
-7.765936230012496e-03 -2.227020831993626e-05 -3.212806792722619e-19
-1.290468822878335e-02 -9.605263382803130e-04 -4.041225837922915e-19
-3.278365849310868e-04 -4.693349461249238e-03 -3.869460562717575e-20
-2.265831790376214e-03  1.135479052697627e-03 -2.292560835050875e-19
-8.088236366199892e-03  1.359669223816010e-03 -3.596603089266839e-19
-7.727002569345131e-03  2.634566954739789e-03 -3.408330881676850e-19
-7.073548316865353e-03  1.575682909241515e-05 -3.240895363912772e-19
-6.344960326915452e-03  1.222625471476411e-03 -3.102586338419317e-19
-6.697649164054397e-03  1.338786114193119e-04 -3.130127201622803e-19
-6.115589625375280e-03  6.848938356602137e-06 -3.027788474947213e-19
-6.201189497029110e-03  1.693225088355263e-04 -3.020811871014357e-19
-7.191475941664530e-03 -1.018243133705309e-03 -3.110485132612988e-19
-6.219798160891485e-03 -1.651704065306149e-03 -3.054557205065269e-19
-4.554607012754111e-03  2.684763776158111e-03 -2.604732317709759e-19
-7.338693099700182e-03  1.146569587853122e-03 -3.285980544408426e-19
-6.156738991132468e-03 -2.929247967532048e-03 -2.736069653285504e-19
-6.268749392950777e-03  8.766100312842249e-04 -3.116774016326145e-19
-6.841885937072027e-03 -7.499794555372564e-04 -3.172267949445097e-19
-6.469985793031665e-03  1.513220079666374e-03 -3.159870442341385e-19
-6.842338063281057e-03 -2.743531053992794e-05 -3.208960125827604e-19
-6.288490278379117e-03  1.460277463637582e-03 -3.078933862830691e-19
-7.129558880905644e-03  3.727338013753342e-04 -3.188010151928509e-19
-6.206615682059735e-03 -7.396967323556335e-04 -3.007379755324026e-19
-6.288023502870531e-03  5.945006066522112e-04 -3.074927945310701e-19
-6.982630377701198e-03 -5.245096375702301e-04 -3.134703053983293e-19
-4.865929152687963e-03 -1.001415980985318e-03 -2.988898656303726e-19
-4.688185902825338e-03  3.067963767721974e-03 -2.517479650542158e-19
-6.096383520277066e-03 -3.020195962883499e-04 -4.083294393223435e-19
-6.099022998905168e-03  8.650241439745654e-04 -2.915089683741360e-19
-1.222228012619343e-02  1.808980241856842e-03  1.830509488105919e-18
 4.963875395501244e-05 -6.443907899743107e-03  1.938293982612462e-19
-8.618685513183293e-04  1.941002946387778e-04 -6.980380275540960e-19
-6.887735357115840e-03  2.428410753519735e-03 -7.045277460034547e-19
-8.103050932482347e-03  2.161150095989395e-03 -2.542131026857957e-19
-6.909487631968989e-03  4.989852676713014e-06 -1.132590983401073e-18
-6.253693936929233e-03  8.847242425663061e-04 -1.598018630118990e-19
-6.939300086557118e-03  4.907515294977595e-04 -2.490827889669601e-19
-6.279836083628081e-03 -7.756388080551309e-04 -3.233690358724340e-19
-6.296365276088977e-03  5.879648573287942e-04 -3.093178098410921e-19
-7.035602358292003e-03 -3.200839989617335e-04 -3.179796408716889e-19
-4.949505667263787e-03 -1.112892229250386e-03 -2.840192735115252e-19
-4.730590471217891e-03  2.916192029188625e-03 -2.586800734114480e-19
-6.034239223586026e-03 -2.954877881231462e-04 -3.036715554822285e-19
-5.804368162773297e-03  8.957651244515108e-04 -3.184475503489693e-19
-1.179847790318662e-02  2.268852328491811e-03 -7.151967333497149e-19
-1.755230752097871e-04 -5.900261330383757e-03  1.827822331274515e-20
-8.060767427628047e-04  3.113407369953508e-04 -7.199378751809114e-19
-7.305509846330069e-03  9.968020861685729e-04 -2.747230632916854e-20
-7.521494553995324e-03  2.793167654880555e-03 -1.708209863524161e-18
-7.097094059323313e-03  4.874780559854217e-06 -1.601899606638167e-20
-6.272471312912216e-03  1.518536060329540e-03 -3.098620121731188e-19
-7.166991504001651e-03  3.050475604946444e-04 -3.354520815521550e-19
-6.213071514306497e-03 -7.972324994313813e-04 -3.039536323530388e-19
-6.307536385589288e-03  5.937852161607678e-04 -3.139945121678865e-19
-7.086137933288598e-03 -2.525375595486577e-04 -3.217823914566457e-19
-5.020785285323957e-03 -1.153838200052961e-03 -2.907516662993807e-19
-4.824599724459347e-03  2.938071474484025e-03 -2.631982027890085e-19
-6.101045430780600e-03 -3.313864264912880e-04 -2.979223627811710e-19
-5.638811029389774e-03  8.867063034655338e-04 -2.888797767557122e-19
-1.155546128059001e-02  2.708258207098854e-03 -3.999882505854527e-19
-3.574823553375995e-04 -5.642156627945057e-03 -8.787142080429109e-21
-1.179351549816752e-03  6.089249835239411e-04 -2.031660620189551e-19
-7.524049694492243e-03 -1.816916373821399e-04 -3.526217466153649e-19
-6.801463481963888e-03  3.585267368268946e-03 -3.237493202671149e-19
-7.230209135181347e-03  1.040169120345506e-04 -3.330392057606437e-19
-6.294268622954961e-03  2.001754343948594e-03 -3.111115920584804e-19
-7.303131529861990e-03 -2.625143513410021e-04 -3.216776168391987e-19
-6.032833493302307e-03 -8.409121568069889e-04 -3.033001359922153e-19
-6.248693448504393e-03  5.518227245950942e-04 -3.138791529849683e-19
-7.097495281540831e-03  1.027501965435561e-04 -3.243381830599678e-19
-5.133519152160631e-03 -1.232788103885735e-03 -2.901085331636951e-19
-4.763117670351029e-03  2.764338222064915e-03 -2.652733224487134e-19
-6.037486555460679e-03 -2.862929797881893e-04 -2.979970461698309e-19
-5.743349773758997e-03  8.680895302207212e-04 -2.921225060302710e-19
-1.164869112524060e-02  2.402193505873107e-03 -4.026533905468514e-19
-2.441343666701145e-04 -5.489841471802140e-03 -1.000278924837448e-21
-1.220107418927194e-03  6.198038254267527e-04 -2.081535838519745e-19
-7.572234005993639e-03 -1.129720409560436e-04 -3.552456751674480e-19
-6.838626619364331e-03  3.644957607261190e-03 -3.286443122491666e-19
-7.319118409627223e-03  2.023356665138795e-04 -3.385959318025951e-19
-5.729229347375465e-03  1.917886142563809e-03 -3.038856325292839e-19
-7.321047089177192e-03  1.966929695596051e-03 -3.296115949997385e-19
-6.255258912100452e-03 -2.028435075897038e-03 -2.893138695946553e-19
-6.058272877449582e-03  4.407585568532250e-04 -3.185157292791322e-19
-5.192712460991952e-03  6.556742860733561e-04 -2.992742795520675e-19
-5.429860016238837e-03  2.454302524526652e-03 -2.856302276825930e-19
-6.154358703714784e-03 -7.195929070635896e-04 -2.930881722759288e-19
1.265457168241422e-03 5.501983944168563e-03 3.872113455210702e-20
-4.915916493988458e-03 -8.180780333955050e-04 -2.776376226145531e-19
-5.401903173053532e-03  1.185681879571304e-04 -2.909743792645762e-19
-1.168166995828913e-02  3.422862623951658e-03 -4.155481064812855e-19
-8.117121171180553e-04 -5.842200926055996e-03 -2.900287586231508e-20
-1.567626034130153e-03  8.874208769860263e-04 -2.157961238678886e-19
-7.969784899601410e-03 -2.062425029992921e-05 -3.675237405137012e-19
-7.247424219755346e-03  3.252821158758867e-03 -3.455833153517849e-19
-7.345431167415714e-03  7.590662025355998e-05 -3.438768411647461e-19
-5.755682598456384e-03  1.634172214126247e-03 -3.118839470151471e-19
-7.251251540647256e-03  2.110002878589568e-03 -3.342073201386417e-19
-6.077156648316855e-03 -2.373275728161647e-03 -2.832606006626845e-19
-6.203274503839796e-03  4.403319640861749e-04 -3.245845697002291e-19
-5.506630569275041e-03 -1.145335227477861e-03 -3.155125311496084e-19
-5.356291466326938e-03  2.443809180594593e-03 -2.710032611052434e-19
-5.633984256878702e-03 -3.924187032062571e-04 -3.370739885230102e-19
-5.299917903635507e-03  2.941731720912432e-03  6.594045334379579e-20
-1.237100296124336e-02  2.045395492314281e-03 -8.067943862163379e-19
-6.823639473674460e-04 -5.473525600319040e-03 -1.008753497435217e-20
-1.627357291756496e-03  8.312906012401418e-04 -7.042393631113143e-19
-7.673310561398137e-03 -4.060405524850632e-05 -3.987518179751822e-19
-7.069090316172711e-03  3.292405350997974e-03 -3.002796669837600e-19
-7.663616417025043e-03 -2.861333945862902e-04 -3.355428291315389e-19
-6.119078714268940e-03 -2.349424197582277e-04 -3.043947024977597e-19
-5.164760511306858e-03  5.222460183794248e-03 -1.007836468254526e-19
-8.034795914143704e-03 -2.571345485320713e-03 -3.180812950341858e-19
-5.737184071624023e-03 -4.800754819377358e-04 -4.320181915563507e-19
-6.367192381211384e-03  1.676883041912422e-03 -3.233866839599282e-19
-7.061812699796728e-03 -1.293581728937518e-03 -3.357124516038486e-19
-7.064868419310560e-03 -9.351077751898691e-04 -3.499086540484341e-19
-7.660851512374674e-03 -1.768467009226659e-03 -3.636047841507714e-19
-2.252101815698748e-03 -3.526306380429130e-03 -1.817353908385422e-19
-5.756113461723863e-03  3.515318905052203e-03 -3.333293979463480e-19
-6.982598611813010e-03  6.978216679225093e-04 -3.615036816672893e-19
-5.802394501024102e-03  2.762857002963750e-03 -3.287069542478657e-19
-6.028601493242782e-03 -2.419531603311441e-04 -3.320980326239058e-19
-5.041327287197593e-03  3.922526091618723e-04 -3.214679640695290e-19
-5.338449135885574e-03  1.426334936912052e-04 -3.202934144073163e-19
-9.488897067756810e-03  2.180780714447489e-03 -4.012273115243655e-19
-1.589555516737895e-02  2.819133163331099e-03 -5.216072090842940e-19
-1.217430398297282e-03 -5.488632502876397e-03 -6.523290625887645e-20
-3.388692512603913e-03  3.856436925534342e-03 -2.585290436125874e-19
-9.021429000410667e-03 -8.982033561544369e-04 -4.143377621316617e-19
-5.630300166985843e-03  6.771195104838882e-03 -3.223421046464896e-19
-7.398923585826614e-03 -2.075638828656504e-03 -3.574395381408784e-19
-5.492728121891327e-03  3.258323856201979e-03 -3.418842477609481e-19
-7.355592806704998e-03 -4.131200822498317e-04 -3.698642168147624e-19
-5.932392728679804e-03 -1.127874010829246e-03 -3.475372040799633e-19
-6.090143816655789e-03  4.041910808767299e-04 -3.693887877951562e-19
-7.468256866153627e-03  5.780605976326835e-04 -3.890095171444916e-19
-6.352590121589508e-03 -2.404045160966247e-03 -3.516407598316610e-19
-3.856375105338936e-03  6.921143442802157e-03 -2.668780067996158e-19
-9.124935426583197e-03 -4.734047874591920e-03 -3.405666526624349e-19
-6.631948478516583e-03 -2.775173916190853e-04 -3.954439840350280e-19
-6.970885943102720e-03  7.428704345420483e-04 -4.132314397386678e-19
-6.967562844068429e-03  7.113574727701278e-04 -4.092169178618413e-19
-8.076601008277253e-03 -2.166820726100592e-03 -3.912606206484685e-19
-4.963672827069270e-03 -1.731841577082952e-03 -3.707212800084309e-19
7.239458430233979e-04 4.179064360114870e-03 2.681608818991389e-20
-8.692676968388819e-03  2.591080035588407e-03 -4.627358143703857e-19
-5.855386602360805e-03 -3.869013526898765e-03 -2.982812508765422e-19
-6.433780094085434e-03  1.876873885154816e-03 -4.296887605874058e-19
-6.787583298075149e-03 -4.433177823932390e-03 -3.166539320630693e-19
-7.178832994048134e-03  5.744471039826193e-04 -4.461830948175824e-19
-6.088304531632936e-03 -1.514644926152585e-03 -4.010210142951485e-19
-4.381056145194423e-03  1.611833215429207e-03 -4.034092720059528e-19
-6.103157813865911e-03  5.366169272336956e-03 -4.212107896007776e-19
-5.468134933991145e-03 -5.488049644308613e-03 -2.168864698448463e-19
-6.691847714774990e-03  4.631967620288809e-04 -4.721996577550871e-19
-7.355300621520715e-03 -1.830130539371515e-03 -4.507503509287294e-19
-3.396593501778151e-04  7.187894467615333e-03 -2.273699151519102e-19
-7.494239879944006e-03 -4.135081124962547e-03 -1.453539026352340e-18
-4.611314387908890e-03 -6.345552134241417e-04 -4.534637704575846e-20
-5.010742615068457e-03 -1.102412478690472e-03 -4.566911884531540e-19
-5.241868922062382e-03  2.807786940077439e-03 -5.147298447300636e-19
-6.405051118942483e-03 -5.387623916996830e-04 -4.923844894668485e-19
-6.374428494311637e-03 -1.530869112978144e-04 -5.300215976324415e-19
-5.762740416771723e-03 -1.784903689581259e-03 -4.670098569918491e-19
-5.910865749973508e-03  1.574820739879373e-04 -5.685054403298002e-19
-7.051073925240399e-03  2.509668577600610e-03 -6.434248913475675e-19
-6.629497612509695e-03 -1.412716109230092e-03 -5.409349834059864e-19
-7.527635710515004e-03  2.288944005036465e-03 -6.892299627222677e-19
-5.893853779520579e-03 -3.295888117488386e-03 -4.385320728535447e-19
-6.828940472857830e-03  2.180095274353378e-03 -7.273231140978058e-19
-3.249320853331978e-03 -4.565801641048662e-03 -1.693156630845848e-19
-5.432527392253913e-03  3.118041898267965e-03 -7.626086643945230e-19
-5.235724386337855e-03 -5.048406763636801e-03 -2.844432109052486e-19
-2.958771570495103e-03  7.262649038520378e-04 -7.766959410365475e-19
-6.599349721885181e-03 -7.791776689842975e-04 -7.716814570183308e-19
-7.759824554072507e-03  7.618091470661905e-04 -1.005654425923018e-18
-6.853149481517933e-03 -1.382657075205806e-03 -8.869572439081344e-19
-6.207809513575620e-03  2.057090982482844e-03 -5.098710054426843e-19
-6.387163414298282e-03  1.190446397327993e-04 -1.114890611608517e-18
-6.785282814094712e-03 -4.973463126872114e-03 -5.701292407870500e-19
-6.049399523035091e-03 -1.961402408216717e-03 -1.039431397492203e-18
-4.506047945114604e-03  3.701374267663492e-03 -1.891147548434053e-18
-8.141383905891458e-03  1.294395525563118e-03 -1.960235824057899e-18
-7.896043118078403e-03 -7.138511536515507e-04 -1.955189337218156e-18
-7.369333057558917e-03 -6.662333052280973e-04 -2.341950830328545e-18
-6.188765764225846e-03  3.940505732278679e-03 -3.731581014872422e-18
-6.606476033222550e-03  3.185053590091590e-04 -3.968787119651764e-18
-6.144612771615040e-03  3.318356036227803e-03 -6.297549690236185e-18
-6.873269661434626e-03 -4.805133720185013e-03 -2.783937043588812e-18
-6.235324918547850e-03 -1.732549159607266e-03 -6.266961849879623e-18
-7.547628154307474e-03  1.263093207802728e-03 -1.261585431381693e-17
-7.181196186690380e-03  1.934827524042610e-04 -2.000155811668416e-17
-6.671626637570295e-03 -3.282426964840431e-04 -2.529104175823870e-17
-6.745983596468145e-03  1.970869111596273e-04 -3.883816112156590e-17
-6.288193057323971e-03 -8.024654147534841e-04 -5.115354603011956e-17
-6.949410436927050e-03  8.678090403264464e-04 -7.400086448004294e-17
-5.824558534058380e-03 -4.519737500748773e-03 -8.629974809593293e-17
-6.481144013348416e-03 -9.881225104379468e-05 -1.390762924071732e-16
-7.186921447420063e-03 -7.385241914543633e-05  3.509260962426775e-16
-5.761260270286629e-03  1.142036929621659e-03 -6.686245627486364e-15
-5.649759597814465e-03 -4.447685576881315e-03  2.250733984568432e-16
-6.679144701619226e-03  1.323986341464296e-03 -6.777923073158863e-15
-7.584375242550231e-03  7.070544540437191e-04 -9.146797304961903e-17
-6.866024519211117e-03  1.383050325253871e-05 -8.712163564743919e-17
-6.773385789196808e-03  2.178677817271479e-03 -8.167113365679312e-17
-6.787064143897376e-03 -6.784310541863009e-05 -4.831533906276524e-17
-6.564949848924600e-03  2.545833497759264e-04 -2.636866360849658e-17
-8.186705787554536e-03 -2.737871661434711e-05 -1.586186444344407e-17
 9.604579009592302e-04 -4.364672059170318e-03  3.698462442331597e-18
-4.704829635910767e-03  1.800757882854598e-03 -1.123561389366892e-17
-8.795543978006607e-03  3.366465181118854e-03 -7.998828273280712e-18
-1.151341079868676e-03 -6.605826256635419e-03 -1.261169676655043e-18
-2.365767674636593e-03  1.317544469328889e-03 -5.276958949225705e-18
-6.022693554108716e-03 -1.156668032047465e-03 -5.511911791935954e-18
-3.655776607129725e-03  6.957679093923634e-03 -2.040197006235093e-18
-7.938643810325418e-03 -1.906769302250241e-03 -4.239298321668166e-18
-4.681519352688811e-03  1.908602436228951e-03 -3.243611000559324e-18
-5.748945232455355e-03  7.530659101231197e-04 -2.966650548961751e-18
-4.692692691767712e-03 -6.024751961088344e-04 -2.598992807656433e-18
-4.830172230923606e-03 -8.428572748426654e-05 -2.293820238680219e-18
-3.285798854203468e-03 -1.234862500668998e-03 -1.994768233496297e-18
-5.176519574241138e-03  2.523161628458892e-03 -1.708562694503195e-18
-4.799287489105132e-03 -3.753723282896289e-03 -1.473663699094246e-18
-1.167166330134795e-02  3.755241256204049e-03 -1.658988334134433e-18
 3.079421148692270e-03 -1.162842326441587e-02  4.070815020153322e-19
-6.679009315220132e-03 -1.986194722842257e-03 -1.541129575574774e-18
-1.367139210162761e-04 -4.102349186064070e-03 -2.408071762674431e-19
-5.723953665262339e-03  3.875898594340144e-03 -1.111749323872978e-18
-1.079509342947286e-02  2.934349445585237e-03 -1.306750699835365e-18
-8.896268511433049e-03  6.038792782234991e-04 -1.192881198903024e-18
-8.119517927276452e-03  5.511533986575501e-04 -1.051376262685427e-18
-8.098436073869297e-03  7.366014154611010e-04 -9.469201572165017e-19
-2.669389235139523e-03 -7.748451215349316e-03 -2.886057722760539e-19
-7.697276094419083e-03  1.496356498269755e-04 -8.512886657132647e-19
-7.619139536598241e-03  1.481166690263202e-04 -7.671002504449426e-19
-6.633469782911883e-03  1.227043318941483e-03 -6.758607832485184e-19
-7.174761437583005e-03  8.768414637500152e-04 -6.453025568606211e-19
-6.544043058516772e-03 -1.530512393791902e-03 -5.927099588401410e-19
-6.664523696849970e-03 -6.755501975867178e-04 -5.876734016467324e-19
-6.752661966889324e-03  1.533292920035375e-03 -5.558021422309974e-19
-6.844347071319781e-03 -5.903777662083071e-04 -5.305048209512541e-19
-6.665091085802241e-03  2.095294425483415e-05 -5.123432201997362e-19
-6.750693338724766e-03  2.122205073972445e-05 -4.924576248438711e-19
-6.550438660041269e-03  1.053334769629947e-04 -4.739579332445808e-19
-6.212039589758849e-03  7.017427783208812e-04 -4.491215846818955e-19
-6.211772740204477e-03 -7.121693909253096e-04 -4.244579444606056e-19
-8.772701734865621e-03  7.725338745932433e-04 -4.623521048325576e-19
-2.339595982507647e-03 -5.166048913831967e-03 -1.727325809434060e-19
-4.381864921048198e-03  5.232224748206483e-03 -3.091723616717805e-19
-7.937465575175988e-03  2.267773907227473e-03 -4.307634916793414e-19
-5.502663867933247e-03  5.963988698131896e-04 -3.724295461920006e-19
-5.897717220744713e-03 -8.378143302884488e-04 -3.644723054721315e-19
-6.583146623098847e-03 -1.386325656822519e-03 -3.759832596229527e-19
-6.897676415330935e-03 -2.786574876238941e-03 -3.773559603682242e-19
-4.437710706248813e-03 -1.039622747082366e-03 -3.762565136151996e-19
-2.500400711077523e-03  6.092723742299298e-03 -1.791230954530427e-19
-9.002135552452484e-03  7.107999402468637e-04 -4.325145298427387e-19
-5.830652565248153e-03  6.243990560824169e-04 -3.684173585776281e-19
-7.302225995986573e-03  3.119501361915779e-03 -3.833936588850662e-19
-4.267571002375033e-03 -5.113529281052767e-03 -2.103753495164671e-19
-5.465028150751188e-03  1.527409652535612e-03 -3.560282982705661e-19
-6.065075556382974e-03  5.808534312144615e-05 -3.520080889140120e-19
-4.313600786026070e-03 -3.084392401973603e-03 -2.706704054986515e-19
-5.960588559306609e-03  1.310340471363678e-03 -3.498840309598967e-19
-6.409503923661164e-03 -2.467250517915535e-03 -3.233897738846706e-19
-6.076759706329029e-03  2.564594184629843e-04 -3.527408452814009e-19
-6.467405364834779e-03  6.114021028793639e-04 -3.537867356104962e-19
-6.400661500560204e-03  3.409911902943056e-05 -3.479171584392434e-19
-5.773343663671517e-03 -5.881230111913750e-05 -3.327867379636813e-19
-7.480139335062821e-03  8.375501007495896e-04 -3.558534022492442e-19
-1.308818274733470e-02 -4.230955824074983e-04 -4.411514338111303e-19
-1.974768419727454e-04 -5.572941111545264e-03  3.672221125513102e-22
-1.623082780235190e-03  5.125451556985954e-04 -2.734859323412597e-19
-7.226047885988245e-03  2.616291936666851e-03 -3.742219452664332e-19
-7.978948286516404e-03  2.286863302240723e-03 -3.791538317486618e-19
-7.058174104170405e-03 -3.721668619618916e-05 -3.503702423948571e-19
-6.415943133174387e-03 -4.296969369153655e-04 -3.413902903082831e-19
-6.347089651242163e-03  4.064195143518686e-04 -3.437087039083028e-19
-6.752704609504464e-03  7.252791728921990e-04 -3.471164192030291e-19
-6.465184940082069e-03 -2.492119074956469e-04 -3.368785543016295e-19
-6.600845351208524e-03  7.202478842263872e-04 -3.414578039715559e-19
-6.723400569587508e-03 -1.109048469818781e-03 -3.305818074577177e-19
-6.487897339060386e-03  9.922498186307267e-05 -3.358453306726055e-19
-5.891403495822131e-03 -6.056425386787986e-04 -3.226145844784929e-19
-6.668465244317719e-03  1.546762747966523e-03 -3.353176759683631e-19
-6.691482667174771e-03 -2.366858697437014e-03 -3.071158378928473e-19
-6.135149838971511e-03  4.378052546021422e-05 -3.328060017098672e-19
-5.696284464795753e-03  2.256259572945406e-03 -3.114370091161976e-19
-6.627036602899005e-03  6.978620832002409e-04 -3.293154746090913e-19
-5.494726106647932e-03 -6.312694623904782e-05 -3.044932135676453e-19
-7.403340119043094e-03  5.462528789778547e-04 -3.323516934095784e-19
-1.292301913913009e-02 -2.350249309164893e-04 -4.212009375794654e-19
-1.604936251299451e-04 -4.809605849037307e-03 -1.198630885168849e-20
-1.774515679424929e-03  7.909738796304386e-04 -2.397949179740349e-19
-7.674863533798684e-03  1.331078178899459e-03 -3.663237551250202e-19
-7.553065181557329e-03  2.476538085168027e-03 -3.529188802658838e-19
-7.110538561347727e-03 -3.169162566269199e-05 -3.362211939836391e-19
-6.462991605887085e-03  1.375452342460646e-04 -3.279571864122309e-19
-6.709958010224345e-03  5.467767030988064e-04 -3.315086629744084e-19
-6.754886261651210e-03 -1.703341893091432e-04 -3.286429818819123e-19
-6.273361067990248e-03  1.197218213711014e-04 -3.230680932107076e-19
-5.400987553717073e-03  1.549865498321536e-03 -2.996499617699457e-19
-6.119841762139188e-03  1.110641935434001e-03 -3.099826616268137e-19
-5.305962138558157e-03 -2.193776272582373e-04 -2.902302013298269e-19
-7.562470211887391e-03  7.286008922420125e-05 -3.249531949338643e-19
-1.333159867363162e-02  2.061254050429709e-04 -4.273132130044406e-19
 1.045063216202632e-04 -5.517850507956858e-03  1.229930425849116e-20
-1.886667644905702e-03  5.557722235072776e-04 -2.536132695422847e-19
-7.161505079678639e-03  2.716678883968991e-03 -3.457284323707066e-19
-7.976093287875210e-03  1.846952872343199e-03 -3.536254474511496e-19
-6.905097491068218e-03  2.731159258084987e-05 -3.250752670270712e-19
-6.431146623993363e-03 -3.683650071301501e-04 -3.193404881833104e-19
-6.541799042893708e-03  4.366300650503211e-04 -3.252974769567243e-19
-6.836376555314922e-03  3.242306747522422e-06 -3.280695823893579e-19
-6.415591437377953e-03  1.205839066847310e-04 -3.226329163138004e-19
-5.408373164660110e-03  1.583039041591052e-03 -2.969369261881871e-19
-6.170333536702636e-03  1.292516603571280e-03 -3.078176216332352e-19
-5.372810063797204e-03 -2.433348280365909e-04 -2.886245202560051e-19
-7.643809347789825e-03  6.944945032161318e-05 -3.237014328928833e-19
-1.331031405300875e-02 -2.508423601174160e-04 -4.203472908403849e-19
 4.083493926177815e-05 -5.440805803078565e-03  3.644242053972440e-21
-1.962428872195746e-03  6.045285075196201e-04 -2.510764459519204e-19
-7.268929259783079e-03  2.765515475561179e-03 -3.446341577810451e-19
-8.074525936384837e-03  1.921398716468159e-03 -3.522206597718124e-19
-6.922820268012031e-03  3.823927331131151e-06 -3.227017258174136e-19
-6.132646514536409e-03 -6.717865788608583e-05 -3.127112039612467e-19
-6.629033837134495e-03  1.233505856889268e-03 -3.204306533078671e-19
-6.889211545564032e-03 -7.728130000322660e-04 -3.169902872700421e-19
-6.156096209221146e-03 -4.330559195470920e-06 -3.153397321830437e-19
-5.183670007433287e-03  2.165606010984307e-03 -2.824630468998204e-19
-6.366886660491273e-03  1.140358564414777e-03 -3.053055120232400e-19
-5.367881988662233e-03 -2.877078455185313e-04 -2.692592414131851e-19
-7.717798267023763e-03  6.876529557437291e-04 -3.948889184279770e-19
-1.359655727751252e-02 -3.825310789893074e-04 -4.049796021577958e-19
 3.273475283530084e-05 -5.547161438918665e-03 -1.433278652305731e-20
-1.851943487628069e-03  5.504917407857542e-04 -9.277084045660218e-19
-7.231308342363406e-03  2.708284130526458e-03 -6.605835559837095e-19
-8.035556085482190e-03  1.886091241892898e-03 -5.327952904655068e-19
-6.965599929890595e-03  2.100608221168469e-05 -3.735173620481510e-19
-6.408325226414630e-03 -3.779542937008257e-04 -3.116651575983387e-19
-6.549863376506386e-03  5.798816018123115e-04 -3.217150019610629e-19
-6.861281819828242e-03 -7.304759506480477e-05 -3.204028845103976e-19
-6.387818117050579e-03  1.020576614169450e-04 -3.162469093978468e-19
-5.383435148218535e-03  1.473162406719080e-03 -2.901373179415920e-19
-6.137688259910492e-03  1.340579535168791e-03 -3.003985381122260e-19
-5.408197614106739e-03 -3.255826739670519e-04 -2.831961237342897e-19
-7.701958329585291e-03 -2.510693894883346e-04 -3.368910351302088e-19
-1.341723372610613e-02  4.991727633971547e-04 -4.457407616505435e-19
 1.684771572093472e-04 -5.705895838108750e-03  6.692748330755977e-21
-2.174437809146418e-03  6.334027261945424e-04 -3.321257345497229e-19
-7.264939509932317e-03  2.796142597440553e-03  1.303055533266240e-19
-8.060633071571907e-03  1.848595451633349e-03 -9.355915159607436e-19
-6.936048370788344e-03  3.091932064594801e-05 -5.317756715710835e-19
-6.347434894506831e-03 -3.072245905572524e-04 -2.995586069963979e-19
-6.546896869232511e-03  6.819176816580186e-04 -3.307173351630281e-19
-6.795007725148038e-03 -1.924437507798796e-04 -3.123690132273301e-19
-6.290002712370632e-03  1.638929717501226e-04 -3.095850244674258e-19
-5.544976755191566e-03  1.564045553399554e-03 -2.892095782874963e-19
-6.185745944942371e-03  9.332061571403234e-04 -2.992174933614624e-19
-5.346924689398434e-03 -1.494996216888378e-04 -2.805552697021841e-19
-7.568672937555704e-03  2.353963075120762e-04 -3.143496187545717e-19
-1.330364364346023e-02 -3.205221404310789e-05 -4.127410583498470e-19
 2.483247408433774e-05 -5.463802274693647e-03  1.189053733358782e-21
-1.806270964347396e-03  5.464021410910677e-04 -2.394602500875194e-19
-7.198745861967263e-03  2.688944868113177e-03 -3.351433191621924e-19
-8.011332960128535e-03  1.856755033781372e-03 -3.432205280459062e-19
-6.945892521310695e-03  1.947838595329060e-05 -3.160068760785493e-19
-6.353037764978289e-03 -3.279623834486339e-04 -3.093104595921870e-19
-6.557329549285820e-03  7.288621541881192e-04 -3.152621789731948e-19
-6.841284631044295e-03 -1.616268409812526e-04 -3.171065775390439e-19
-6.332031353790107e-03  1.815498413446968e-04 -3.115044736828211e-19
-5.535890792772118e-03  1.561066537824321e-03 -2.893863333654055e-19
-6.217197180307533e-03  1.042178292830360e-03 -2.997340176607060e-19
-5.434848772818404e-03 -2.184372017570468e-04 -2.827482128604106e-19
-7.722091908075156e-03 -5.281983263156839e-05 -3.177903215402579e-19
-1.338107908074015e-02  1.660636563940266e-06 -4.184637290977932e-19
 5.360882191904219e-05 -5.628020312344994e-03  2.958010159712391e-21
-2.076946055796351e-03  6.280537068679179e-04 -2.482020031650053e-19
-7.243948526702654e-03  2.712713691315208e-03 -3.396026706980159e-19
-7.851150232188134e-03  2.514516258536591e-03 -3.378302457341178e-19
-7.086847188978761e-03  4.757498046045260e-05 -3.052959667051120e-19
-6.927025246864258e-03 -7.563101151549634e-04 -3.185753274071816e-19
-6.032691551678885e-03 -6.014011865333289e-04 -7.302495089081460e-20
-6.309220390779653e-03  1.723799196981583e-03 -4.632989195551077e-19
-6.797401120269374e-03  1.450178133278222e-04 -7.573994319061468e-20
-6.299310968726844e-03 -7.564376008824788e-04 -3.560586261906743e-19
-6.168830857799426e-03  1.480347791875107e-04 -3.229385024082213e-19
-6.650353715996764e-03  3.742428830810748e-04 -3.148383412217039e-19
-6.685547729311811e-03 -6.467350495071201e-04 -3.126336228733455e-19
-7.035790090315283e-03 -5.407990080603890e-04 -3.269113578089666e-19
-7.436345741283723e-03  8.956956673659537e-04 -3.402291133104431e-19
-7.352327663752799e-03 -8.014173144066051e-04 -3.333422063808437e-19
-7.739511563153311e-03  1.628885292774987e-03 -3.471780764960796e-19
-5.083367553568371e-03 -3.743205612171882e-03 -2.519450147068266e-19
-5.491670477923235e-03  2.781627674820153e-03 -2.889524197549722e-19
-6.769637695858304e-03  1.993558696674201e-04 -3.181396687838736e-19
-6.133294933903556e-03  3.875408655388786e-04 -3.063870995703815e-19
-6.847643079600888e-03 -9.482650364393212e-04 -3.128525063524012e-19
-4.445267272173817e-03 -3.929966313949366e-03 -2.360657810815593e-19
-6.508511829242388e-03  6.297592939020045e-04 -3.258256450540520e-19
-7.359899949467312e-03  1.135290572635256e-03 -3.284477177177844e-19
-8.036790498348868e-03 -1.388385346536908e-03 -3.231972022397035e-19
-6.035715026770648e-03 -1.941337292219223e-03 -3.132966039007516e-19
 1.073993863457923e-04  6.350916608428125e-03 -2.782121570448766e-21
-8.892459801045265e-03 -9.588999556275675e-04 -3.388422854807322e-19
-6.098288940997840e-03  5.172686218647560e-04 -2.980459520275774e-19
-6.435592371916306e-03  3.874378976404128e-06 -2.997342509089623e-19
-6.156211500970904e-03 -2.930470199716713e-04 -2.960269667046062e-19
-6.147045508543582e-03  1.136212705613367e-04 -2.995812520637258e-19
-2.113055919199544e-03 -6.338969939054569e-04 -2.337019814232025e-19
-1.792961456790003e-03  4.936242259737419e-03 -9.992092683923319e-20
-6.889520598534382e-03 -1.161052171049972e-03 -2.834589742670576e-19
-4.492486594204512e-03 -7.972506213711330e-04 -2.594603388952280e-19
-7.117161140725496e-03  1.904119964812195e-03 -3.073032652140833e-19
-9.476845047769853e-03 -5.031047354256100e-03 -2.868868519844159e-19
-1.570398343844276e-04 -2.815150403674035e-03 -4.913040480593952e-20
-1.217903998287709e-03  5.140212624634569e-04 -2.003281322528549e-19
-6.466066803684334e-03 -2.536202995524864e-04 -3.231545198048124e-19
-7.777991538693264e-03  4.367197064400835e-03 -3.325920967510939e-19
-5.408546559307203e-03 -6.690168560417630e-03 -1.780911767105103e-19
-6.296691442937810e-03  7.983244467862192e-04 -3.124798666494376e-19
-6.834661177342321e-03 -1.545453927123512e-03 -3.079542019362644e-19
-7.608124746532608e-03  5.301375565972788e-04 -3.345304741152992e-19
-5.344394933748569e-03 -4.624583258698592e-03 -2.326460514253751e-19
-6.908996906219284e-03  6.752969953444459e-04 -3.359313736581154e-19
-7.270398662892590e-03 -3.808653718356965e-05 -3.349764685001211e-19
-8.063986566501875e-03 -4.309676633331232e-04 -3.473540786374701e-19
-8.795988214480350e-03 -2.122495210372890e-03 -3.561818813473697e-19
-2.379052004918569e-03 -2.571852578854344e-03 -2.321053040483297e-19
-3.084869390151886e-03  5.100575303015699e-03 -1.794847187809033e-19
-8.364805838766478e-03 -1.052985495481762e-03 -3.496049034065985e-19
-7.598444795438180e-03  1.154509324792270e-03 -3.536406316086555e-19
-8.663270874807182e-03 -9.837335837134707e-04 -3.695259489409115e-19
-2.223098849624453e-03 -4.620952533211067e-03 -1.568757320395589e-19
-6.007534462028546e-03  4.294891215706539e-03 -3.020940855526891e-19
-5.959112399051309e-03  1.242872656085649e-03 -3.068889991461841e-19
-1.901315570211366e-03  8.283216270236659e-03 -1.231408676120911e-19
-8.135763538036554e-03 -3.084245195899637e-03 -2.934828779114936e-19
-3.580483402858582e-03 -2.324228347590408e-03 -2.334522329385424e-19
-4.705621823923629e-03  2.127608173639033e-04 -2.839563556244193e-19
-6.360043661830950e-03  1.242553554261521e-03 -3.051316974614787e-19
-6.150630833644526e-03 -1.106063775949518e-03 -2.967663247133404e-19
-4.374391268075314e-03  7.672274655379235e-05 -2.745675342312827e-19
-6.276094338941109e-03  2.371641035258325e-03 -2.927895623929927e-19
-6.323364372595883e-03 -2.529979486471260e-03 -2.731906922424965e-19
-6.527762700036782e-03 -3.028648161974930e-04 -3.113481871790317e-19
-6.694066032280233e-03  1.442233997542055e-03 -3.114557459554310e-19
-7.594367683978492e-03 -9.492026581457694e-04 -3.136573054198956e-19
-1.190537497051134e-02 -6.051473515564409e-04 -3.961563655641890e-19
 9.002015219591519e-04 -4.510327585649796e-03  4.022459332083840e-20
6.986539888697392e-03 8.657961105399891e-04 3.808101765212482e-19
 6.489456706182229e-03 -6.133135166525490e-04  8.661530144678566e-19
 6.850846944781420e-03 -1.349255212416907e-03  3.237157862322300e-19
6.971863597819972e-03 4.621892056603889e-03 2.803075918974475e-19
 3.261511217730012e-03 -1.719770288257220e-03  2.442064465919520e-19
 5.054800585999683e-04  7.111672178658181e-03 -1.043323369499413e-20
 7.922083641804033e-03 -5.211695606412899e-03  3.310427604040571e-19
 6.866625675967808e-03 -2.573092231816663e-05  3.213600496923210e-19
 6.059245073211972e-03 -5.013450012641206e-03  2.832916596377243e-19
7.809576347675729e-03 5.208426851852900e-04 3.777903360903494e-19
 2.406232893489648e-03 -1.400385585265663e-03  1.497521373064547e-19
 2.093994006046547e-04  6.598383130154058e-03 -7.491034073944046e-21
 1.066181868903254e-02 -3.865846318625812e-03  1.948952742800424e-19
 5.930821129707591e-03  2.449812885670208e-04 -3.325942248434781e-19
6.193727080469388e-03 1.260239731739971e-03 3.811204596326235e-20
 1.877027532823544e-03 -3.676549368661010e-03  1.096698751332836e-19
4.786460172629243e-03 3.221161182512944e-03 2.529990709890085e-19
 3.517427713544361e-03 -7.393590995932309e-03  1.794198477214898e-19
4.632752201014314e-03 6.923971818177158e-04 2.896829776657468e-19
 6.002772504845997e-03 -1.511791360118411e-03  3.127954905538272e-19
5.975372468796935e-03 3.054218945675571e-04 3.082000107840228e-19
 6.094951752888714e-03 -2.384662378590922e-03  3.160528294869822e-19
 8.847922612066166e-03 -4.794640408571395e-03  4.044563237606486e-19
 7.727194875964380e-03 -3.698778519768213e-03  4.136308871785936e-19
2.277259428813171e-03 5.992573649192787e-03 1.516315644584231e-19
1.014087670967544e-02 5.446315689316009e-03 3.585529826300135e-19
 1.072752801832588e-02 -3.959152324777419e-04  4.255333294572478e-19
 1.090650855050974e-04 -6.247430319111852e-03  2.399373587277206e-20
6.551586334170804e-03 2.836063897114816e-03 3.361791935076437e-19
 6.491516847069641e-03 -2.101009540258433e-03  3.579275049693073e-19
5.067101502781397e-03 4.605368243544653e-03 2.523178519184091e-19
 7.138076693347623e-03 -7.925653585004904e-04  3.535107046649520e-19
 8.072099896571238e-03 -9.187926992105263e-04  3.792804529581709e-19
 7.412994107860049e-03 -4.022228553499123e-03  3.715664371530117e-19
8.670773872463058e-03 1.976966452958558e-03 4.011649012953609e-19
8.161803047448729e-03 5.220863912743886e-04 3.912609238671289e-19
6.826302640453016e-03 2.629551122005142e-03 3.182006861113080e-19
 6.734238600799835e-03 -3.914592062539226e-03  3.388909289049590e-19
 8.740116936977151e-03 -1.492138850488610e-03  5.048162577040857e-19
 2.388012611734598e-03 -5.634393450055001e-03  1.803022572839404e-19
6.270068651286553e-03 3.810863904867041e-03 5.471014996171125e-19
 8.374685813335876e-03 -7.224261278799526e-04  2.868062808160215e-18
 6.366156155843705e-03  5.034163092238477e-03 -2.177528786686881e-19
 7.514886282036789e-03 -3.327886723443930e-04  1.503228620890248e-18
 7.620351252473681e-03 -7.065406236699415e-04  2.488279252914352e-19
 7.398804319412335e-03 -2.243832149126340e-03  4.007062048132178e-19
8.530092154486425e-03 4.478017287376970e-04 5.326263649424823e-19
 7.196520850332725e-03 -1.601445555717654e-03  5.883994681796325e-19
-2.604527752659231e-03  7.337473774063116e-03 -1.383002153822163e-18
 1.100665998613853e-02 -1.379915545996017e-03  1.886214388220515e-19
8.265882382927504e-03 2.600937958142091e-04 3.408123232415509e-19
 9.235791906579555e-03 -2.642239962593652e-03  4.741914356203264e-19
 1.773757015394679e-03 -5.017380513157239e-03  1.421485741201309e-19
6.262134676675807e-03 3.925267916743629e-03 3.580960594454912e-19
 8.116893412418093e-03 -1.880387013451288e-03  4.071598772986923e-19
6.113492988073177e-03 5.156646792656689e-03 2.756570998014612e-19
 7.927457410844085e-03 -6.042615280142332e-04  3.788938768871332e-19
7.477963770697563e-03 1.107359460034101e-04 3.778963143431249e-19
8.044928235252921e-03 1.973275537215907e-04 3.855272453919993e-19
 8.064650800503516e-03 -7.274041468596584e-04  3.936912361831604e-19
7.073414995001260e-03 5.412339641873848e-04 3.755813438933250e-19
6.633143283841212e-03 3.845483321802916e-03 2.935538012532535e-19
 6.827481488455106e-03 -1.680328866527662e-03  3.473472626371372e-19
 8.836149261835735e-03 -3.632507871665545e-03  4.045373404832202e-19
 1.693416123853629e-03 -5.825245265539948e-03  1.121031090524261e-19
5.148581795596501e-03 3.230389235498691e-03 3.351297200011051e-19
8.605175930672643e-03 4.184351595868343e-04 4.190833378065224e-19
6.787929224265222e-03 5.805076014873671e-03 2.696313864133626e-19
 7.823831062733936e-03 -3.724562042572030e-04  3.677566724835953e-19
 7.634487721097281e-03 -6.718935234227947e-04  3.752533107858368e-19
 7.594553796564311e-03 -8.169581429838725e-04  3.834425505478094e-19
7.771122527550921e-03 1.104400046279172e-03 3.724346045022513e-19
7.660575177585002e-03 4.447553359494494e-04 3.694050230105142e-19
 7.438730960346417e-03 -1.070418111399602e-04 -9.848841232254781e-19
 8.124512109976311e-03 -7.269108474004184e-04  4.520472316197922e-19
 6.414370341174622e-03 -2.263114798458272e-03  5.362280023715052e-19
5.999880571802992e-03 4.356446701111290e-03 2.894927952870052e-19
 7.910747326704120e-03 -5.118068539449803e-04  3.885288128342245e-19
 8.327974507345254e-03 -5.564961523432037e-04  3.938217244108128e-19
 7.637159230206319e-03 -3.041939171066088e-03  3.920037454268161e-19
8.639246012599631e-03 1.681257075400088e-03 4.043869932287057e-19
 7.280420423963834e-03 -1.261104758422997e-03  3.939091954486012e-19
7.333179331684624e-03 7.622324314718408e-03 2.236242003450050e-19
 1.894117450157468e-03 -1.133593261235197e-02  1.681339572601603e-19
6.525302758061388e-03 3.415678085196667e-04 3.649958091956421e-19
 9.236775120816054e-03 -3.025155139335769e-03  4.274460526822228e-19
 2.195223115307934e-03 -4.743044666473767e-03  1.515210063481023e-19
6.187941498405170e-03 4.191170594668939e-03 3.281463634184591e-19
 8.151553133433917e-03 -1.755711833184453e-03  4.087713343608457e-19
5.943007962457578e-03 4.851694662698180e-03 2.739227387534965e-19
 7.448888620854724e-03 -4.126683367005544e-04  3.669924004312049e-19
 7.637644275043136e-03 -6.695862853271594e-04  3.790452536415627e-19
 7.417236023019449e-03 -2.212181275557975e-03  3.838462636658595e-19
8.530607927280078e-03 7.579603422196893e-04 4.040381273984271e-19
 7.002864978319570e-03 -1.621719050664517e-03  3.926338136865936e-19
-2.550832416564403e-03  7.090555732130370e-03 -1.602531034323672e-19
 1.124292526199926e-02 -1.350330221172208e-03  4.504651389563153e-19
8.037673966643961e-03 2.558911855818616e-04 3.884287542123238e-19
 8.993949369168740e-03 -2.503367874007860e-03  4.224140611107349e-19
 1.417558022851294e-03 -5.120831426540561e-03  9.717768287314772e-20
6.508456932222092e-03 3.710361772988364e-03 3.462426721730053e-19
 7.496223276574969e-03 -2.632521317387013e-03  3.993689673643884e-19
5.583185358406122e-03 5.091068774819621e-03 2.680801445628379e-19
 7.670626282462244e-03 -6.202915197484854e-04  3.781729149984344e-19
 7.848015375854573e-03 -1.820435182957398e-04  3.858981492904632e-19
 7.459450843417036e-03 -2.702312831208182e-03  3.874525405354363e-19
8.659163753699425e-03 9.613225730650652e-04 4.094138754612556e-19
 6.979293720200940e-03 -1.780821733270255e-03  3.966161314045707e-19
-2.396406125354131e-03  6.230502336391567e-03 -1.542619212622956e-19
 1.127325298877845e-02 -1.916035037167100e-05  4.463162759954354e-19
7.750062718398260e-03 3.159390606619899e-04 3.842153444392183e-19
 8.009958293046699e-03 -4.516117619516498e-04  3.971199703592977e-19
 6.448627577671141e-03 -2.120830886045315e-03  3.760188409722113e-19
6.084273858532666e-03 4.067263109587259e-03 3.104028201110543e-19
 7.779272249344809e-03 -4.440206693291917e-04  3.847821127256709e-19
 7.896446501985828e-03 -6.411468469117291e-04  3.931583838390554e-19
 7.541367547528634e-03 -2.288444666878109e-03  3.946875853775656e-19
8.564660271525699e-03 6.315347840558083e-04 4.117179592892062e-19
 7.031327808544786e-03 -1.559539153067339e-03  4.000417041812984e-19
-2.510633653512533e-03  7.326689633797932e-03 -1.640905356473732e-19
 1.129688267453776e-02 -1.631373458643432e-03  4.580679005507900e-19
8.022818505722722e-03 1.381893438167735e-04 3.945249760960339e-19
 8.991235431995245e-03 -2.575373171618321e-03  4.290248744898204e-19
 1.499758965870575e-03 -5.066937310143222e-03  1.077102085755220e-19
6.487767634707209e-03 3.816682823398376e-03 3.472971341336126e-19
 7.498084805014820e-03 -2.694758486874894e-03  4.055570644899189e-19
5.508581236124526e-03 5.125546033233491e-03 2.672219853459401e-19
 7.648155825304849e-03 -5.858733936919269e-04  3.833909893772417e-19
 7.765205795273452e-03 -1.476051940323824e-04  3.896505561698870e-19
 7.423991505373682e-03 -2.621511438938162e-03  3.925427054263758e-19
8.607130022117694e-03 7.166377336911181e-04 4.152182863230808e-19
 7.039589549176425e-03 -1.754876147636842e-03  4.038891835127296e-19
-2.296880388763524e-03  6.318761008245591e-03 -1.541058925688539e-19
 1.111766684253082e-02 -3.455668770144541e-05  4.490499148834405e-19
7.662164584444377e-03 3.546148291022468e-04 3.864736081149423e-19
 7.787023238111064e-03 -4.397492553476414e-04  3.961199591317574e-19
 6.404969449386279e-03 -1.589821742526774e-03  3.796919421562672e-19
6.020787863078922e-03 3.970683633904419e-03 3.040243646250246e-19
 7.687408554279227e-03 -6.128958733002379e-04  3.846576609943564e-19
 7.091751566331031e-03 -1.486553321157490e-03  3.841057571806555e-19
7.316344028320974e-03 1.334692438218529e-03 3.771927181016793e-19
 7.674810641239475e-03 -2.480761054277755e-04  3.870635953297174e-19
7.010270217763412e-03 2.740646223880299e-04 3.517117877297749e-19
7.476236198067962e-03 2.992945866893779e-03 2.242210103695688e-19
 7.313584172983036e-03 -2.504065081354142e-03  1.540574648096287e-18
 4.721835649979012e-03 -1.363887982973621e-03 -2.336473729870464e-18
 1.040007809426437e-03  7.754743864539222e-03 -2.095060162519449e-19
 1.026781069520392e-02 -3.420175524720969e-03  1.843906250077968e-18
 1.004455607381703e-02 -4.288764857512540e-03  1.314752739169230e-18
 6.174925762632481e-03 -6.691919235277130e-03  2.198799694883219e-19
4.658129152638078e-03 3.790002584066323e-03 3.550886287009538e-19
7.064662375148560e-03 3.101579003647881e-03 3.939545001727385e-19
4.487870706751524e-03 7.909739936606425e-03 1.430575202931657e-19
1.189074742079035e-02 4.388373975127414e-03 3.787336849070035e-19
 6.162751595452080e-03 -2.391388044589958e-03  3.629349454543718e-19
4.970740343201624e-03 5.495463685477492e-03 2.496250018927815e-19
 7.115853640790586e-03 -2.362839817091550e-03  4.061080365503573e-19
7.046168602794033e-03 7.378522060337426e-03 2.635778806229604e-19
 5.594817731531235e-03 -4.836225879743313e-03  3.403885356241226e-19
2.544576398322615e-03 6.685111416299223e-03 1.315120743501101e-19
 7.345689223548253e-03 -6.764149057162966e-03  3.829351184624850e-19
3.763006247613754e-03 4.631722977065540e-03 2.178794175086289e-19
8.793095251181778e-03 8.277519973685723e-04 4.022813161853694e-19
 7.973652408319045e-03 -2.713988403245855e-03  4.084551314247161e-19
 5.189960959648424e-04 -6.690855332042776e-03  8.221658054191448e-20
9.203926397604834e-03 3.163611070899655e-03 6.456137980859124e-19
 5.336611575511008e-03 -8.441380152930930e-03  1.008916576144596e-18
3.573862861436908e-03 3.712038393489240e-03 1.038569154043459e-18
 8.405828196595393e-03  6.663641192919792e-03 -1.908051713698024e-18
7.180525925103526e-03 3.250352596871963e-04 3.952588284020526e-19
1.119902687538861e-03 9.500059892752009e-03 1.319746601790369e-20
 9.913194071043295e-03 -2.905339907689584e-03  9.864443912125858e-19
8.573508806831638e-03 3.132033129686582e-03 5.456370333812938e-19
 2.848938190335365e-03 -5.060699800718400e-03  2.535161070070650e-19
3.914566990198860e-03 2.804563844837684e-03 3.423142748483721e-19
7.140038373186081e-03 7.541474452119862e-04 4.164823007427663e-20
 6.808817424016622e-03  2.525684941250332e-03 -9.272113134557796e-19
 6.050379000217289e-03 -3.734436100825625e-03 -6.874338675559099e-19
 6.617318278228373e-03  8.112684124698405e-04 -7.712086498915001e-19
6.716613452875018e-03 3.915397238311160e-04 4.062210896873861e-19
 6.763809251559828e-03 -4.701144283060843e-04  4.018904923355258e-19
 7.359628930220265e-03 -5.115265109342827e-04  4.213721818284187e-19
 7.672688244404507e-03 -7.504328061078219e-04  4.421874696697764e-19
6.544912490404771e-03 3.792338790996132e-03 3.645112240744145e-19
7.658779310717140e-03 8.972572174721061e-05 4.475663130271964e-19
5.211998681433854e-03 2.001043900924628e-03 3.850292699819887e-19
3.718123617378403e-03 2.085999273655104e-03 3.338004229380458e-19
4.046197035994718e-03 3.998441449504987e-03 2.611416222478339e-19
3.576175034505307e-03 1.477946234185284e-04 3.428697207680368e-19
2.464895376683031e-03 8.037865496311037e-03 4.577830932546326e-20
 3.944553274289055e-03 -3.622432732558908e-03  2.965025872984671e-19
 6.205519821076638e-03 -7.510647122948411e-04  4.260600045878644e-19
 1.812513745098961e-03 -5.653864256160608e-03  1.450638243894266e-19
7.021780729271497e-03 1.073599350704708e-03 4.583917560925911e-19
 6.887098919063885e-03 -1.259640668966255e-03  4.694237226398257e-19
6.961948426949523e-03 1.781962616322101e-03 4.645593247130229e-19
 5.922788055090496e-03 -1.673360367430984e-03  4.654203152955389e-19
5.681620314708204e-03 3.701381951618882e-03 4.045808935443553e-19
 6.624555058056008e-03 -1.329272579202207e-03  4.944073102099438e-19
5.826087644888494e-04 5.169831272733898e-05 4.098052429415052e-19
 8.370565523297608e-04  1.021816266034158e-02 -3.942107733838360e-20
 6.102277024743723e-03 -6.413271629276382e-03  4.101037454795849e-19
 3.344710531367855e-03 -1.063389667703330e-03  4.497757565026387e-19
 6.922464750577704e-03 -2.713421872721765e-04  5.658807022248461e-19
 6.905278478263389e-03 -3.456849324835454e-04  6.005913424075954e-19
 6.821518867788038e-03 -3.414918452122410e-04  6.341823693941115e-19
6.796684034746726e-03 2.802610231326219e-04 6.736976188062412e-19
 6.626721038211253e-03 -5.473579049381791e-04  7.225242845805721e-19
6.800444386991902e-03 1.233767657646421e-03 7.689022453968590e-19
 7.068579372346302e-03 -9.002638789074206e-04  8.221495558630554e-19
 7.354760145538743e-03 -2.589786447859619e-04  1.099482241829932e-18
5.098075753169971e-03 2.837833870961004e-03 8.329323738049012e-19
9.289172155827080e-03 3.311404542527142e-03 1.724867247198039e-18
 1.768480014189154e-03 -8.340588917663837e-03  1.833232946485259e-19
 5.919738415971171e-03 -1.348884047959229e-04  1.233682257358515e-18
 5.134340867003897e-03 -1.227191250911835e-03  1.286570801481291e-18
-3.402670352059304e-03  6.187945623042438e-03 -5.352939380343650e-19
 8.889227321881481e-03 -1.354750078306590e-03  1.606844903924652e-18
7.693302775769049e-03 1.219863518838498e-03 2.024380067227045e-18
 5.848901382084903e-03 -2.229959031561674e-03  1.973999047253805e-18
5.565223537028605e-03 3.418968953408334e-03 2.417730158397069e-18
 7.643698202088886e-03 -1.517602386028623e-03  2.780962080442180e-18
5.623984836471401e-03 7.815107334833283e-04 3.408841083535514e-18
 5.984684888492516e-03 -8.971642176986391e-04  4.306699842395651e-18
5.829599902166316e-03 6.281007002093730e-04 6.241921527441986e-18
7.530239084031754e-03 3.651578557516385e-03 7.104737889551912e-18
 4.222042968029298e-03 -3.659010685199541e-03  7.215422814923695e-18
1.875380379781218e-03 2.336960012931616e-03 7.514869428953049e-18
6.226974806451701e-03 4.904756973747174e-04 1.329423291800742e-17
5.300338880304467e-03 8.527976106961498e-03 5.406880968729823e-18
 4.910119882934546e-03 -5.060456034460693e-03  1.628995928556550e-17
4.342278246772826e-03 1.538326331652077e-03 2.359274907333088e-17
8.145747118219865e-03 4.195766208544055e-04 3.532553661288723e-17
7.315598762689347e-03 8.709125665016531e-04 4.947113673294665e-17
6.799870964888822e-03 3.180054870930073e-04 7.196742113474648e-17
6.236049581375480e-03 2.916375906103501e-04 1.202358843428424e-16
 6.631136609125263e-03  5.276020222509472e-04 -1.117986784556011e-16
 6.499112877405816e-03 -3.272155523774577e-03 -1.690425965736508e-15
 6.313210818908656e-03 -1.127035671060241e-03  6.875771956582298e-15
 5.992580861687213e-03  4.726653379067523e-03 -9.050149326634360e-16
 3.251667723203641e-03 -5.804883789885706e-04  6.546246628802053e-15
 6.126956071775717e-03 -5.176545378254243e-03  2.201713322234615e-18
5.499396522028344e-03 1.874858277451359e-03 1.265425082505616e-16
9.005714742521116e-03 2.699024304263429e-03 9.989019008630526e-17
7.946661807640691e-03 2.381624776023033e-03 6.082925009570035e-17
8.483450087952031e-03 9.017254306100112e-05 4.977636655792358e-17
 6.408602608509082e-03 -1.575172862481643e-03  4.570302428186589e-17
7.347071858925338e-03 1.751967098404004e-03 3.106519454158481e-17
 7.198828056314156e-03 -2.932961915863742e-03  3.164414644579984e-17
7.687716394636316e-03 9.167418912224839e-04 2.061589404197358e-17
 5.194675516791167e-03 -1.006983861017158e-03  1.696785233083710e-17
-1.592246000925880e-04  4.394733968857776e-04 -1.209094909934933e-17
7.029905678589681e-03 5.723186571475686e-03 5.217785003586856e-18
7.112366800137398e-03 8.155457750688336e-03 3.091379349364481e-18
 1.068311618642293e-02 -4.080654469683953e-03  1.248575168979171e-17
 5.896398647694894e-03 -8.412230347083306e-04  1.020636582806700e-17
 5.384133795808791e-03 -1.593177965730544e-03  7.966210893588908e-18
6.879411252676668e-03 5.137110660932031e-04 4.634541665093601e-18
 6.840084616353533e-03 -9.579596588923655e-04  4.165139392663941e-18
7.172803395308066e-03 1.992767304656657e-03 2.545933494329725e-18
 1.051166839017371e-04 -6.614762158835409e-03  2.245770820537711e-18
6.100899328358987e-03 1.979212652566552e-03 2.088484970401032e-18
 5.654560292124313e-03 -1.565300505002708e-04  2.503011022348890e-18
3.611258798669059e-03 2.447701714887078e-03 9.941121346822022e-19
3.995055581843042e-03 9.877760674964421e-04 1.616236044487981e-18
5.216462102275922e-03 5.507669247622797e-03 4.383055888977191e-19
 3.935906587651166e-03 -3.982933264542605e-03  1.923089736041787e-18
 4.800992122136888e-03 -1.926957055072212e-03  1.713432228835458e-18
 6.469221526147922e-03 -2.186785755177019e-03  1.525759926345332e-18
4.788277352242228e-03 6.184702988211008e-03 1.620749749719007e-19
 9.065924173907263e-03 -2.188333380631969e-03  1.346769607804695e-18
 7.739627077442634e-03 -2.722388369506277e-04  1.121380926387238e-18
 3.171511983943695e-03 -4.212987860524813e-04  1.018166631371284e-18
-9.261654594360236e-04 -1.128821238823144e-03  1.929870769363707e-19
-9.775078369112537e-04  6.682736498967448e-04 -9.718609707303817e-19
 1.036244911114301e-03  1.212975267838631e-02 -5.188928179502020e-19
 8.226404085828337e-03 -5.342482787404289e-03  9.981028638881342e-19
 2.600872913453965e-03 -1.689087799162582e-03  7.564189495099848e-19
2.730925292008573e-03 4.021630757271649e-03 1.375172718571046e-19
 4.021027025770495e-03 -4.343944201489538e-03  7.881060977614206e-19
5.139487187277526e-03 4.869223883146101e-03 2.879858223953247e-19
 2.788044375900478e-03 -7.455434995417943e-03  5.879662708034947e-19
7.927012530266550e-03 3.128649654450589e-03 5.735615940549731e-19
 5.841756626009272e-04 -6.656567513538318e-03  3.547821736179768e-19
4.644396382277432e-03 2.859069162848781e-03 4.535378170843108e-19
 8.969059097707279e-03 -2.933197199348702e-03  7.831679837640939e-19
8.226892351405866e-03 4.134224046467757e-03 4.967283988023618e-19
 4.661921913743016e-03 -5.545464321946039e-03  6.011056273150901e-19
5.981995244915415e-03 5.343960539261334e-03 3.017970284694881e-19
 7.489164152026166e-03 -6.094953985840912e-03  6.707104769973764e-19
8.513598448417335e-03 1.628431786535096e-05 6.247163401068630e-19
 7.648891964600208e-03 -5.796419803918104e-03  6.455454740702742e-19
 2.864640670581352e-03 -7.721393944645500e-06  6.042101301776480e-19
-1.974161603399790e-03  6.218744720342430e-03 -2.903847229206373e-19
1.043419958265340e-02 3.496373279302681e-03 5.255701302780168e-19
5.804421635171367e-03 4.356052496270978e-03 4.055403873071670e-19
7.741978033072447e-03 3.662394443517890e-03 1.119453848246249e-18
 5.898589246431112e-03 -1.792946576916394e-03  5.328913790731448e-19
 7.299376582838618e-03 -1.750618399653870e-04  2.777429292677197e-19
 3.254367272209247e-03 -4.243502354868393e-03  1.763520052546631e-19
4.383936011289608e-03 4.953285164345593e-03 2.907235760361989e-19
 7.651672979391298e-03 -3.878873410675391e-03  7.958234758649334e-19
6.132214809871005e-03 3.283412409630503e-03 3.360823123905065e-19
9.729038936270589e-03 1.289865336819272e-03 4.842751930883293e-19
-1.028193485683237e-03 -4.915027505126126e-03 -1.404078724914128e-20
2.452912083635227e-03 1.093440220305897e-03 3.438712325878459e-19
4.735297947555700e-03 3.584098523141915e-03 2.598596476048665e-19
 6.328604265463805e-03 -5.544623772415013e-03  4.093263330465809e-19
 3.696843178466025e-03 -1.529922279587289e-03  3.555090322173579e-19
3.562131188433026e-03 4.155014571257863e-03 1.770088431283748e-19
 4.618859156594957e-03 -3.238469457195108e-03  3.648284205081071e-19
 6.175003794330760e-03 -1.764207754807311e-03  4.192362681983263e-19
 5.050211348397144e-03 -3.367186848037719e-03  3.815468882386187e-19
7.275500178481040e-03 1.223475072628337e-03 4.186959544839923e-19
6.961901463521859e-03 1.815252358927031e-03 3.833861822501012e-19
6.020169873777071e-03 8.751797332882697e-04 3.718777671294564e-19
6.258268216262854e-03 9.097931824503529e-04 3.561828203812608e-19
 1.261940833238530e-03 -6.487703515233190e-03  1.403255523414657e-19
6.349620313268399e-03 4.626138088317507e-05 3.957073466921390e-19
7.659698975660626e-03 5.580621112463106e-05 4.043127382407364e-19
 4.959889306667611e-03 -2.322810443762878e-03  3.580478832411894e-19
3.769625661670681e-03 4.683250559676902e-03 2.001089051378786e-19
 7.432159966292693e-03 -1.426121076325957e-03  3.865667016272643e-19
 2.986768234729089e-03 -1.470002970991449e-04  3.069441165713154e-19
5.130875908930427e-03 5.575972054149224e-03 1.918542690180394e-19
 5.815739923090090e-03 -5.223666969686966e-03  3.321362159371538e-19
 3.675651341362608e-03 -1.512627404245704e-03  3.103602821684027e-19
 5.130560628276321e-03 -4.287323642170584e-04  3.527000745455374e-19
 6.404820615383473e-03 -1.977145526588082e-04  3.694562302973722e-19
 7.247968534351805e-03 -1.491776181266094e-03  3.822311179084657e-19
 2.562028238964722e-03 -5.904147103562132e-03  2.006495653855921e-19
6.717432057389300e-03 1.369955029648366e-03 3.548493524447752e-19
 8.925072391703225e-03 -2.994909533554627e-03 -1.276026165147125e-20
8.736120261776753e-03 8.568008188764612e-03 9.663646131401077e-19
 1.386630095019402e-03 -9.542162267616533e-03 -1.191452614879340e-18
7.799386784770082e-03 3.485265532711037e-03 9.627177830648611e-19
 7.148011356313573e-03 -1.229963843109036e-03  1.388776627714058e-18
2.256541107059233e-03 9.212799690447086e-03 1.641566157334119e-20
 8.836086399245303e-03 -4.937255770153024e-03  1.667719076923110e-19
7.808395264552573e-03 4.624438113712132e-03 3.075046323329559e-19
 4.748876197122547e-03 -4.046880092683810e-03  2.983279732174422e-19
1.259982620723214e-03 1.894689830732455e-03 2.002199572500779e-19
7.356939527212445e-03 7.793654251644805e-03 2.363478596887975e-19
 9.086435696846777e-03 -4.275637498825813e-03  4.339606929703323e-19
 9.171277112386239e-03 -2.321994214844514e-03  4.482769543170449e-19
 4.296603617671521e-03 -4.849504029987793e-03  2.918140435085301e-19
4.961104820545502e-03 3.436772159582911e-03 3.344018549907083e-19
6.867337669406478e-03 2.519852385152856e-03 3.651128141230655e-19
2.316050250227922e-03 9.525127854431619e-03 1.136450579629704e-20
9.657299773865322e-03 4.309148967854987e-05 4.035497435159742e-19
 6.889989045240435e-03 -2.729692638736421e-03  3.714745235979992e-19
 7.190920782696517e-03 -9.480362737814246e-04  3.946996761686569e-19
7.495848659388167e-03 5.967430477891277e-04 4.033228464566503e-19
6.309130173721015e-03 1.822242107249457e-03 3.615664450333129e-19
7.163842581639306e-03 3.531301211236076e-03 3.150128083119696e-19
 6.651303639234749e-03 -2.710105755594665e-03  3.661814477239012e-19
7.100762828794347e-03 1.968752406527145e-05 4.026566055987400e-19
5.605842433977168e-03 5.732298682234330e-03 2.373442219783856e-19
 7.391566812068058e-03 -1.519397811570777e-03  3.799851011000243e-19
 8.213104709327353e-03 -3.412963042689517e-03  4.125845062684788e-19
 1.196279352234146e-03 -4.527605581677726e-03  9.393594173998894e-20
5.592573994017818e-03 3.732414134124780e-03 3.329719498583300e-19
 8.505940056645941e-03 -2.028888935120809e-03  4.246306399251956e-19
6.411770217279737e-03 4.247449504190572e-03 3.076723698909733e-19
7.328018709156890e-03 5.752835494929255e-05 3.587841083065769e-19
7.222882710456377e-03 7.306140687960745e-04 1.048362614860720e-18
 6.980278696294299e-03 -2.565041371246057e-03 -5.986869677146805e-19
 7.466082374409464e-03 -2.170071572180592e-03  4.057181035037860e-19
 1.154926585709791e-02 -3.679489187138828e-03  5.064409492532800e-19
-1.698783380762247e-03 -1.134826177087031e-02  1.645608535388661e-20
1.257005036501732e-02 1.395171004493813e-03 5.829716391400197e-19
-6.463467033628105e-04  7.219875423292850e-03 -8.739344500018014e-20
-1.715861787249863e-02  9.325738771623966e-03 -6.487128987234059e-19
1.569767089800640e-02 8.527611411669359e-03 4.219694118731816e-19
 1.135427197843999e-02 -2.413730449650014e-03  4.722922021000903e-19
 2.416485459334010e-03 -4.235285187111153e-03  1.955588544680426e-19
4.608280102006908e-03 3.546590302894774e-03 3.009887381311829e-19
 7.436143775135331e-03 -1.173871720705335e-03  4.085699587953514e-19
5.635185838329696e-03 4.507072692442706e-03 2.830364455200276e-19
 7.113262239402417e-03 -4.366663353423194e-05  3.745331144506846e-19
6.665656397098369e-03 9.624749575803673e-04 3.618268769913470e-19
 7.578851555962346e-03 -2.263630291822917e-04  3.816100433447740e-19
 7.306081084866117e-03 -1.735556539469929e-03  3.911357465768290e-19
7.597503112613347e-03 1.605333105479853e-03 3.715767516226161e-19
 4.580260147389214e-03 -6.403274320707226e-03  2.692240297218358e-19
7.285510090254449e-03 2.502135120982413e-03 3.818070036057806e-19
 1.074247546349304e-02 -1.825763376323751e-03  4.652503132513025e-19
 2.640048126960118e-03 -4.889472469565283e-03  1.866899248742750e-19
5.506066989552027e-03 4.482683053072818e-03 3.034948333960374e-19
 8.559610128822335e-03 -1.806212482566456e-03  4.216634641054163e-19
6.245367501665127e-03 3.918405102120979e-03 3.127381074995776e-19
7.066789616573303e-03 1.635455935054263e-04 3.711902123457267e-19
7.039746628792178e-03 5.043944532459351e-04 3.662450156756593e-19
 6.908395978219268e-03 -2.254808304339652e-03  3.721559064406657e-19
 7.267626561655815e-03 -2.140507173370493e-03  3.984080028346853e-19
 1.152799734558089e-02 -3.374758762557025e-03  5.071404531790305e-19
-1.896299522495563e-03 -1.152452618248754e-02  7.634214181714980e-21
1.339524325144321e-02 1.202616894269376e-03 5.979404022666903e-19
7.783444603216787e-04 6.028680656169193e-03 2.233619183292715e-20
-1.746078426585262e-02  8.074870187170371e-03 -6.420373935581386e-19
1.784301937504822e-02 8.395675066619939e-03 4.688659022678332e-19
 1.079425120685732e-02 -2.361220377981301e-03  4.537863398718161e-19
 1.708897837119453e-03 -2.715051610046824e-03  1.673794400207872e-19
3.110648680661179e-03 2.768463499845114e-03 2.598299174521899e-19
9.675272705336030e-03 2.816785494151965e-03 3.734579047268809e-19
 1.159729485562563e-02 -4.185310471236434e-03  4.674424269246900e-19
-3.098598386942452e-03 -5.653144567003242e-03 -1.581042747800097e-19
5.675720932737137e-03 3.240056691555867e-04 3.962349454316931e-19
7.674780980407096e-03 3.030814679005925e-03 3.337500648032106e-19
 8.837269986134898e-03 -5.833506566334565e-04 -3.203981176271845e-20
 7.873044334451492e-03 -8.231755208360220e-04  1.099526235874677e-19
 8.305652237608608e-03 -4.689938521560831e-04  2.506184326464324e-19
 7.238100856497997e-03 -8.694859235657595e-05  4.050308731942375e-19
7.717762765296091e-03 8.171802534429564e-03 2.275856780989408e-19
 3.563070929887413e-03 -8.997465598039673e-03  2.172034225230534e-19
6.447907917726795e-03 2.343139921007555e-03 3.629678106960936e-19
 1.077887895939541e-02 -1.832688805202461e-03  4.551047879214730e-19
 2.817049650428302e-03 -4.939725141529287e-03  1.929818608498477e-19
5.707584258899102e-03 4.666155146962957e-03 3.853243326003875e-19
 9.448287966699807e-03 -1.709398479873576e-03  2.956902645870824e-19
7.265723580928716e-03 3.100197221752623e-03 1.099130283540545e-18
7.908363600906292e-03 6.113863507705537e-04 7.276684712360400e-19
7.751680805226382e-03 1.746991658243926e-03 5.525479973182891e-19
 7.907651370701570e-03 -8.592663526221981e-04  3.959043584102173e-19
7.390332039310251e-03 1.252059024839384e-04 3.014604235438222e-19
6.870999443799590e-03 1.075885193822581e-03 3.312713666682522e-19
 7.706168288340958e-03 -2.164773053797197e-03  3.722686560115941e-19
 4.320817538608464e-04 -5.889053078198313e-03  4.294524101708025e-20
6.936961610953240e-03 3.579962226941703e-04 3.698845981349981e-19
 9.396021662866353e-03 -3.481042837661819e-03  4.270154404068195e-19
 2.740607442530383e-03 -5.037528921350684e-03  1.838311589093030e-19
5.770130112909974e-03 4.302103285503445e-03 3.200018764499898e-19
 9.151010664404678e-03 -6.958805496300885e-04  4.270011089617011e-19
6.972629858058566e-03 4.686318641605723e-03 3.042036370605360e-19
7.742493876270256e-03 7.204676428085106e-05 3.728289902471141e-19
8.083397644503396e-03 5.010434726719487e-04 3.774402768387097e-19
 7.844557555755022e-03 -2.656052437322453e-03  3.860497850558059e-19
 7.982018570016576e-03 -2.568195377691001e-04  4.059705284427743e-19
6.613312374799722e-03 2.773548382548729e-03 3.163528968397538e-19
 8.782264242179486e-03 -5.515629941945980e-03  3.832170189088712e-19
 1.565921590156007e-03 -5.373987078017752e-03  1.138807915777304e-19
6.480693503240872e-03 2.770513835530189e-03 3.537051992288332e-19
 1.183300741167673e-02 -1.897623102947634e-03  4.737154681968887e-19
 3.279576245643006e-03 -5.937558100365846e-03  2.054097075902955e-19
6.117550875798000e-03 4.621291139436589e-03 3.118019473930951e-19
 8.864430009757226e-03 -1.111493406068174e-03  4.167527996850030e-19
6.272463938862593e-03 5.218592877413136e-03 2.699608518982909e-19
7.531323044147492e-03 5.340519434576954e-04 3.556875139096345e-19
5.570034488995111e-03 1.931424012703672e-03 3.014103721617492e-19
6.332898944310775e-03 9.730484125869674e-04 3.022789735352672e-19
 3.113081032633188e-03 -5.690498940888661e-03  1.771749715001699e-19
7.087041736088840e-03 9.862261097874428e-04 3.540382005513336e-19
 7.234356844761174e-03 -3.142024547468548e-04  3.533614286720953e-19
3.263577817303090e-03 1.265814926592658e-03 2.665283041666428e-19
4.684882849843901e-03 8.199353722166651e-03 9.818665419835863e-20
 5.540665103022520e-03 -5.348556475525427e-03  2.694348908889721e-19
 6.541166197835712e-03 -2.448020222828740e-03  3.234517238959412e-19
 3.414086467462081e-03 -7.618936380504412e-03  1.910035085694229e-19
 5.179252403038096e-03 -3.800260404569120e-03  2.985497615640574e-19
9.184488790347459e-03 1.974936272350447e-03 3.948859060982312e-19
 8.132363844169831e-03 -5.627126304799658e-05  3.812379543460155e-19
6.865523730869327e-03 6.126173220831976e-03 2.440264961599212e-19
 7.353808425667782e-03 -6.488590119432385e-03  3.340729932230557e-19
6.488584805676362e-03 1.384193905150994e-03 3.190482322301697e-19
 5.988270093766482e-03 -8.538668183421123e-04  3.215370548308318e-19
7.203208334450728e-03 3.082000271417762e-03 2.869592590154428e-19
 1.585818806618340e-03 -8.204041200753154e-03  1.147188114934062e-19
5.480265518854497e-03 4.167303076384538e-04 3.349260961081739e-19
8.647245296950235e-03 2.222641234143711e-03 3.577674964056409e-19
 7.703098204436149e-03 -7.575958846078793e-04  3.587113833088643e-19
8.393413353581744e-03 5.018284336592212e-03 2.865022408994018e-19
 4.526986555492810e-03 -7.160609752630409e-03  2.291153782718834e-19
2.648054938951687e-03 1.432502395382333e-03 2.823121678562184e-19
1.163325791599554e-03 4.801745848286495e-05 2.622542620512557e-19
-1.752305255893902e-03  7.242157361384660e-03 -1.025773751297076e-19
 1.141981266453858e-02 -1.113354866301596e-03  3.912015553880346e-19
4.003761846206493e-03 2.222213934964226e-03 2.238816391545980e-19
4.122944094696758e-03 4.119383956525312e-05 2.447724033223326e-19
6.321473243435178e-03 4.770491612127003e-03 2.077227700589800e-19
 1.347940275495873e-03 -4.645558112218096e-03  8.225331891223531e-20
3.996447637405462e-03 2.273701358127818e-03 2.318520043272145e-19
 2.309879466820857e-03 -6.009654196426091e-03  1.238343558313863e-19
5.181039739894192e-03 1.110146490851896e-03 2.980208226350821e-19
 7.263391673797646e-03 -3.289292875722064e-04  2.949087913613029e-19
 6.338122682891915e-03 -3.603245452318718e-04  2.703115642218829e-19
 6.477707659765197e-03  2.825399628474551e-03 -3.489419856646149e-19
 6.986131734484490e-03 -1.254819089463628e-03  1.280562933635567e-18
 7.302882539901462e-03 -2.944954440183238e-05  5.843129075540588e-19
 6.966539689075003e-03 -2.470122450425850e-04  2.836250298075868e-19
6.862661637412578e-03 9.782690783730918e-04 3.763709571909086e-19
6.879022389347523e-03 1.552355712037477e-03 3.053711673092918e-19
6.404244476476077e-03 5.518827131415036e-04 3.101542941019010e-19
 6.336002184355669e-03 -1.353932676851579e-03  3.121370474860607e-19
6.602137842713421e-03 6.774778514660110e-04 3.196052879901111e-19
 6.699900842611666e-03 -3.354789239314203e-04  3.253175482269111e-19
6.520965392437027e-03 1.628892754073261e-03 3.065745489503457e-19
 6.690328302139948e-03 -6.914294502567777e-04  3.204015924601977e-19
6.882260845408982e-03 3.147776761949227e-04 3.284606737679525e-19
6.146777378981679e-03 2.811384722120903e-04 3.145557846717255e-19
1.429199830423441e-03 7.286262068349786e-03 2.862668623120533e-20
 6.172568566853347e-03 -1.143766392471459e-03  3.070746506555718e-19
7.001213138554933e-03 4.517207431285782e-04 3.240785621640973e-19
 6.186774000737313e-03 -3.174798251570732e-03  3.059939537958355e-19
7.196658130301821e-03 7.087980710184652e-04 3.345725036673690e-19
 7.245063652851332e-03 -2.507196368388984e-03  3.391871522197333e-19
7.140438237602886e-03 8.320882352956610e-04 3.458160026125922e-19
6.717746894077231e-03 7.828312454015665e-04 3.255218858211636e-19
7.020050942681783e-03 9.054204399458680e-04 2.220572985133517e-19
 6.329073917736123e-03 -7.506860546330695e-04  6.146847326271218e-19
 6.334277896463363e-03  4.803280045163222e-05 -2.692828260332379e-19

VECTORS velocity double
0.000000000000000e+00 0.000000000000000e+00 0.000000000000000e+00
0.000000000000000e+00 0.000000000000000e+00 0.000000000000000e+00
0.000000000000000e+00 0.000000000000000e+00 0.000000000000000e+00
0.000000000000000e+00 0.000000000000000e+00 0.000000000000000e+00
0.000000000000000e+00 0.000000000000000e+00 0.000000000000000e+00
0.000000000000000e+00 0.000000000000000e+00 0.000000000000000e+00
0.000000000000000e+00 0.000000000000000e+00 0.000000000000000e+00
0.000000000000000e+00 0.000000000000000e+00 0.000000000000000e+00
0.000000000000000e+00 0.000000000000000e+00 0.000000000000000e+00
0.000000000000000e+00 0.000000000000000e+00 0.000000000000000e+00
0.000000000000000e+00 0.000000000000000e+00 0.000000000000000e+00
0.000000000000000e+00 0.000000000000000e+00 0.000000000000000e+00
0.000000000000000e+00 0.000000000000000e+00 0.000000000000000e+00
0.000000000000000e+00 0.000000000000000e+00 0.000000000000000e+00
0.000000000000000e+00 0.000000000000000e+00 0.000000000000000e+00
0.000000000000000e+00 0.000000000000000e+00 0.000000000000000e+00
0.000000000000000e+00 0.000000000000000e+00 0.000000000000000e+00
0.000000000000000e+00 0.000000000000000e+00 0.000000000000000e+00
0.000000000000000e+00 0.000000000000000e+00 0.000000000000000e+00
0.000000000000000e+00 0.000000000000000e+00 0.000000000000000e+00
0.000000000000000e+00 0.000000000000000e+00 0.000000000000000e+00
0.000000000000000e+00 0.000000000000000e+00 0.000000000000000e+00
0.000000000000000e+00 0.000000000000000e+00 0.000000000000000e+00
0.000000000000000e+00 0.000000000000000e+00 0.000000000000000e+00
0.000000000000000e+00 0.000000000000000e+00 0.000000000000000e+00
0.000000000000000e+00 0.000000000000000e+00 0.000000000000000e+00
0.000000000000000e+00 0.000000000000000e+00 0.000000000000000e+00
0.000000000000000e+00 0.000000000000000e+00 0.000000000000000e+00
0.000000000000000e+00 0.000000000000000e+00 0.000000000000000e+00
0.000000000000000e+00 0.000000000000000e+00 0.000000000000000e+00
0.000000000000000e+00 0.000000000000000e+00 0.000000000000000e+00
0.000000000000000e+00 0.000000000000000e+00 0.000000000000000e+00
0.000000000000000e+00 0.000000000000000e+00 0.000000000000000e+00
0.000000000000000e+00 0.000000000000000e+00 0.000000000000000e+00
0.000000000000000e+00 0.000000000000000e+00 0.000000000000000e+00
0.000000000000000e+00 0.000000000000000e+00 0.000000000000000e+00
0.000000000000000e+00 0.000000000000000e+00 0.000000000000000e+00
0.000000000000000e+00 0.000000000000000e+00 0.000000000000000e+00
0.000000000000000e+00 0.000000000000000e+00 0.000000000000000e+00
0.000000000000000e+00 0.000000000000000e+00 0.000000000000000e+00
0.000000000000000e+00 0.000000000000000e+00 0.000000000000000e+00
0.000000000000000e+00 0.000000000000000e+00 0.000000000000000e+00
0.000000000000000e+00 0.000000000000000e+00 0.000000000000000e+00
0.000000000000000e+00 0.000000000000000e+00 0.000000000000000e+00
0.000000000000000e+00 0.000000000000000e+00 0.000000000000000e+00
0.000000000000000e+00 0.000000000000000e+00 0.000000000000000e+00
0.000000000000000e+00 0.000000000000000e+00 0.000000000000000e+00
0.000000000000000e+00 0.000000000000000e+00 0.000000000000000e+00
0.000000000000000e+00 0.000000000000000e+00 0.000000000000000e+00
0.000000000000000e+00 0.000000000000000e+00 0.000000000000000e+00
0.000000000000000e+00 0.000000000000000e+00 0.000000000000000e+00
0.000000000000000e+00 0.000000000000000e+00 0.000000000000000e+00
0.000000000000000e+00 0.000000000000000e+00 0.000000000000000e+00
0.000000000000000e+00 0.000000000000000e+00 0.000000000000000e+00
0.000000000000000e+00 0.000000000000000e+00 0.000000000000000e+00
0.000000000000000e+00 0.000000000000000e+00 0.000000000000000e+00
0.000000000000000e+00 0.000000000000000e+00 0.000000000000000e+00
0.000000000000000e+00 0.000000000000000e+00 0.000000000000000e+00
0.000000000000000e+00 0.000000000000000e+00 0.000000000000000e+00
0.000000000000000e+00 0.000000000000000e+00 0.000000000000000e+00
0.000000000000000e+00 0.000000000000000e+00 0.000000000000000e+00
0.000000000000000e+00 0.000000000000000e+00 0.000000000000000e+00
0.000000000000000e+00 0.000000000000000e+00 0.000000000000000e+00
0.000000000000000e+00 0.000000000000000e+00 0.000000000000000e+00
0.000000000000000e+00 0.000000000000000e+00 0.000000000000000e+00
0.000000000000000e+00 0.000000000000000e+00 0.000000000000000e+00
0.000000000000000e+00 0.000000000000000e+00 0.000000000000000e+00
0.000000000000000e+00 0.000000000000000e+00 0.000000000000000e+00
0.000000000000000e+00 0.000000000000000e+00 0.000000000000000e+00
0.000000000000000e+00 0.000000000000000e+00 0.000000000000000e+00
0.000000000000000e+00 0.000000000000000e+00 0.000000000000000e+00
0.000000000000000e+00 0.000000000000000e+00 0.000000000000000e+00
0.000000000000000e+00 0.000000000000000e+00 0.000000000000000e+00
0.000000000000000e+00 0.000000000000000e+00 0.000000000000000e+00
0.000000000000000e+00 0.000000000000000e+00 0.000000000000000e+00
0.000000000000000e+00 0.000000000000000e+00 0.000000000000000e+00
0.000000000000000e+00 0.000000000000000e+00 0.000000000000000e+00
0.000000000000000e+00 0.000000000000000e+00 0.000000000000000e+00
0.000000000000000e+00 0.000000000000000e+00 0.000000000000000e+00
0.000000000000000e+00 0.000000000000000e+00 0.000000000000000e+00
0.000000000000000e+00 0.000000000000000e+00 0.000000000000000e+00
0.000000000000000e+00 0.000000000000000e+00 0.000000000000000e+00
0.000000000000000e+00 0.000000000000000e+00 0.000000000000000e+00
0.000000000000000e+00 0.000000000000000e+00 0.000000000000000e+00
0.000000000000000e+00 0.000000000000000e+00 0.000000000000000e+00
0.000000000000000e+00 0.000000000000000e+00 0.000000000000000e+00
0.000000000000000e+00 0.000000000000000e+00 0.000000000000000e+00
0.000000000000000e+00 0.000000000000000e+00 0.000000000000000e+00
0.000000000000000e+00 0.000000000000000e+00 0.000000000000000e+00
0.000000000000000e+00 0.000000000000000e+00 0.000000000000000e+00
0.000000000000000e+00 0.000000000000000e+00 0.000000000000000e+00
0.000000000000000e+00 0.000000000000000e+00 0.000000000000000e+00
0.000000000000000e+00 0.000000000000000e+00 0.000000000000000e+00
0.000000000000000e+00 0.000000000000000e+00 0.000000000000000e+00
0.000000000000000e+00 0.000000000000000e+00 0.000000000000000e+00
0.000000000000000e+00 0.000000000000000e+00 0.000000000000000e+00
0.000000000000000e+00 0.000000000000000e+00 0.000000000000000e+00
0.000000000000000e+00 0.000000000000000e+00 0.000000000000000e+00
0.000000000000000e+00 0.000000000000000e+00 0.000000000000000e+00
0.000000000000000e+00 0.000000000000000e+00 0.000000000000000e+00
0.000000000000000e+00 0.000000000000000e+00 0.000000000000000e+00
0.000000000000000e+00 0.000000000000000e+00 0.000000000000000e+00
0.000000000000000e+00 0.000000000000000e+00 0.000000000000000e+00
0.000000000000000e+00 0.000000000000000e+00 0.000000000000000e+00
0.000000000000000e+00 0.000000000000000e+00 0.000000000000000e+00
0.000000000000000e+00 0.000000000000000e+00 0.000000000000000e+00
0.000000000000000e+00 0.000000000000000e+00 0.000000000000000e+00
0.000000000000000e+00 0.000000000000000e+00 0.000000000000000e+00
0.000000000000000e+00 0.000000000000000e+00 0.000000000000000e+00
0.000000000000000e+00 0.000000000000000e+00 0.000000000000000e+00
0.000000000000000e+00 0.000000000000000e+00 0.000000000000000e+00
0.000000000000000e+00 0.000000000000000e+00 0.000000000000000e+00
0.000000000000000e+00 0.000000000000000e+00 0.000000000000000e+00
0.000000000000000e+00 0.000000000000000e+00 0.000000000000000e+00
0.000000000000000e+00 0.000000000000000e+00 0.000000000000000e+00
0.000000000000000e+00 0.000000000000000e+00 0.000000000000000e+00
0.000000000000000e+00 0.000000000000000e+00 0.000000000000000e+00
0.000000000000000e+00 0.000000000000000e+00 0.000000000000000e+00
0.000000000000000e+00 0.000000000000000e+00 0.000000000000000e+00
0.000000000000000e+00 0.000000000000000e+00 0.000000000000000e+00
0.000000000000000e+00 0.000000000000000e+00 0.000000000000000e+00
0.000000000000000e+00 0.000000000000000e+00 0.000000000000000e+00
0.000000000000000e+00 0.000000000000000e+00 0.000000000000000e+00
0.000000000000000e+00 0.000000000000000e+00 0.000000000000000e+00
0.000000000000000e+00 0.000000000000000e+00 0.000000000000000e+00
0.000000000000000e+00 0.000000000000000e+00 0.000000000000000e+00
0.000000000000000e+00 0.000000000000000e+00 0.000000000000000e+00
0.000000000000000e+00 0.000000000000000e+00 0.000000000000000e+00
0.000000000000000e+00 0.000000000000000e+00 0.000000000000000e+00
0.000000000000000e+00 0.000000000000000e+00 0.000000000000000e+00
0.000000000000000e+00 0.000000000000000e+00 0.000000000000000e+00
0.000000000000000e+00 0.000000000000000e+00 0.000000000000000e+00
0.000000000000000e+00 0.000000000000000e+00 0.000000000000000e+00
0.000000000000000e+00 0.000000000000000e+00 0.000000000000000e+00
0.000000000000000e+00 0.000000000000000e+00 0.000000000000000e+00
0.000000000000000e+00 0.000000000000000e+00 0.000000000000000e+00
0.000000000000000e+00 0.000000000000000e+00 0.000000000000000e+00
0.000000000000000e+00 0.000000000000000e+00 0.000000000000000e+00
0.000000000000000e+00 0.000000000000000e+00 0.000000000000000e+00
0.000000000000000e+00 0.000000000000000e+00 0.000000000000000e+00
0.000000000000000e+00 0.000000000000000e+00 0.000000000000000e+00
0.000000000000000e+00 0.000000000000000e+00 0.000000000000000e+00
0.000000000000000e+00 0.000000000000000e+00 0.000000000000000e+00
0.000000000000000e+00 0.000000000000000e+00 0.000000000000000e+00
0.000000000000000e+00 0.000000000000000e+00 0.000000000000000e+00
0.000000000000000e+00 0.000000000000000e+00 0.000000000000000e+00
0.000000000000000e+00 0.000000000000000e+00 0.000000000000000e+00
0.000000000000000e+00 0.000000000000000e+00 0.000000000000000e+00
0.000000000000000e+00 0.000000000000000e+00 0.000000000000000e+00
0.000000000000000e+00 0.000000000000000e+00 0.000000000000000e+00
0.000000000000000e+00 0.000000000000000e+00 0.000000000000000e+00
0.000000000000000e+00 0.000000000000000e+00 0.000000000000000e+00
0.000000000000000e+00 0.000000000000000e+00 0.000000000000000e+00
0.000000000000000e+00 0.000000000000000e+00 0.000000000000000e+00
0.000000000000000e+00 0.000000000000000e+00 0.000000000000000e+00
0.000000000000000e+00 0.000000000000000e+00 0.000000000000000e+00
0.000000000000000e+00 0.000000000000000e+00 0.000000000000000e+00
0.000000000000000e+00 0.000000000000000e+00 0.000000000000000e+00
0.000000000000000e+00 0.000000000000000e+00 0.000000000000000e+00
0.000000000000000e+00 0.000000000000000e+00 0.000000000000000e+00
0.000000000000000e+00 0.000000000000000e+00 0.000000000000000e+00
0.000000000000000e+00 0.000000000000000e+00 0.000000000000000e+00
0.000000000000000e+00 0.000000000000000e+00 0.000000000000000e+00
0.000000000000000e+00 0.000000000000000e+00 0.000000000000000e+00
0.000000000000000e+00 0.000000000000000e+00 0.000000000000000e+00
0.000000000000000e+00 0.000000000000000e+00 0.000000000000000e+00
0.000000000000000e+00 0.000000000000000e+00 0.000000000000000e+00
0.000000000000000e+00 0.000000000000000e+00 0.000000000000000e+00
0.000000000000000e+00 0.000000000000000e+00 0.000000000000000e+00
0.000000000000000e+00 0.000000000000000e+00 0.000000000000000e+00
0.000000000000000e+00 0.000000000000000e+00 0.000000000000000e+00
0.000000000000000e+00 0.000000000000000e+00 0.000000000000000e+00
0.000000000000000e+00 0.000000000000000e+00 0.000000000000000e+00
0.000000000000000e+00 0.000000000000000e+00 0.000000000000000e+00
0.000000000000000e+00 0.000000000000000e+00 0.000000000000000e+00
0.000000000000000e+00 0.000000000000000e+00 0.000000000000000e+00
0.000000000000000e+00 0.000000000000000e+00 0.000000000000000e+00
0.000000000000000e+00 0.000000000000000e+00 0.000000000000000e+00
0.000000000000000e+00 0.000000000000000e+00 0.000000000000000e+00
0.000000000000000e+00 0.000000000000000e+00 0.000000000000000e+00
0.000000000000000e+00 0.000000000000000e+00 0.000000000000000e+00
0.000000000000000e+00 0.000000000000000e+00 0.000000000000000e+00
0.000000000000000e+00 0.000000000000000e+00 0.000000000000000e+00
0.000000000000000e+00 0.000000000000000e+00 0.000000000000000e+00
0.000000000000000e+00 0.000000000000000e+00 0.000000000000000e+00
0.000000000000000e+00 0.000000000000000e+00 0.000000000000000e+00
0.000000000000000e+00 0.000000000000000e+00 0.000000000000000e+00
0.000000000000000e+00 0.000000000000000e+00 0.000000000000000e+00
0.000000000000000e+00 0.000000000000000e+00 0.000000000000000e+00
0.000000000000000e+00 0.000000000000000e+00 0.000000000000000e+00
0.000000000000000e+00 0.000000000000000e+00 0.000000000000000e+00
0.000000000000000e+00 0.000000000000000e+00 0.000000000000000e+00
0.000000000000000e+00 0.000000000000000e+00 0.000000000000000e+00
0.000000000000000e+00 0.000000000000000e+00 0.000000000000000e+00
0.000000000000000e+00 0.000000000000000e+00 0.000000000000000e+00
0.000000000000000e+00 0.000000000000000e+00 0.000000000000000e+00
0.000000000000000e+00 0.000000000000000e+00 0.000000000000000e+00
0.000000000000000e+00 0.000000000000000e+00 0.000000000000000e+00
0.000000000000000e+00 0.000000000000000e+00 0.000000000000000e+00
0.000000000000000e+00 0.000000000000000e+00 0.000000000000000e+00
0.000000000000000e+00 0.000000000000000e+00 0.000000000000000e+00
0.000000000000000e+00 0.000000000000000e+00 0.000000000000000e+00
0.000000000000000e+00 0.000000000000000e+00 0.000000000000000e+00
0.000000000000000e+00 0.000000000000000e+00 0.000000000000000e+00
0.000000000000000e+00 0.000000000000000e+00 0.000000000000000e+00
0.000000000000000e+00 0.000000000000000e+00 0.000000000000000e+00
0.000000000000000e+00 0.000000000000000e+00 0.000000000000000e+00
0.000000000000000e+00 0.000000000000000e+00 0.000000000000000e+00
0.000000000000000e+00 0.000000000000000e+00 0.000000000000000e+00
0.000000000000000e+00 0.000000000000000e+00 0.000000000000000e+00
0.000000000000000e+00 0.000000000000000e+00 0.000000000000000e+00
0.000000000000000e+00 0.000000000000000e+00 0.000000000000000e+00
0.000000000000000e+00 0.000000000000000e+00 0.000000000000000e+00
0.000000000000000e+00 0.000000000000000e+00 0.000000000000000e+00
0.000000000000000e+00 0.000000000000000e+00 0.000000000000000e+00
0.000000000000000e+00 0.000000000000000e+00 0.000000000000000e+00
0.000000000000000e+00 0.000000000000000e+00 0.000000000000000e+00
0.000000000000000e+00 0.000000000000000e+00 0.000000000000000e+00
0.000000000000000e+00 0.000000000000000e+00 0.000000000000000e+00
0.000000000000000e+00 0.000000000000000e+00 0.000000000000000e+00
0.000000000000000e+00 0.000000000000000e+00 0.000000000000000e+00
0.000000000000000e+00 0.000000000000000e+00 0.000000000000000e+00
0.000000000000000e+00 0.000000000000000e+00 0.000000000000000e+00
0.000000000000000e+00 0.000000000000000e+00 0.000000000000000e+00
0.000000000000000e+00 0.000000000000000e+00 0.000000000000000e+00
0.000000000000000e+00 0.000000000000000e+00 0.000000000000000e+00
0.000000000000000e+00 0.000000000000000e+00 0.000000000000000e+00
0.000000000000000e+00 0.000000000000000e+00 0.000000000000000e+00
0.000000000000000e+00 0.000000000000000e+00 0.000000000000000e+00
0.000000000000000e+00 0.000000000000000e+00 0.000000000000000e+00
0.000000000000000e+00 0.000000000000000e+00 0.000000000000000e+00
0.000000000000000e+00 0.000000000000000e+00 0.000000000000000e+00
0.000000000000000e+00 0.000000000000000e+00 0.000000000000000e+00
0.000000000000000e+00 0.000000000000000e+00 0.000000000000000e+00
0.000000000000000e+00 0.000000000000000e+00 0.000000000000000e+00
0.000000000000000e+00 0.000000000000000e+00 0.000000000000000e+00
0.000000000000000e+00 0.000000000000000e+00 0.000000000000000e+00
0.000000000000000e+00 0.000000000000000e+00 0.000000000000000e+00
0.000000000000000e+00 0.000000000000000e+00 0.000000000000000e+00
0.000000000000000e+00 0.000000000000000e+00 0.000000000000000e+00
0.000000000000000e+00 0.000000000000000e+00 0.000000000000000e+00
0.000000000000000e+00 0.000000000000000e+00 0.000000000000000e+00
0.000000000000000e+00 0.000000000000000e+00 0.000000000000000e+00
0.000000000000000e+00 0.000000000000000e+00 0.000000000000000e+00
0.000000000000000e+00 0.000000000000000e+00 0.000000000000000e+00
0.000000000000000e+00 0.000000000000000e+00 0.000000000000000e+00
0.000000000000000e+00 0.000000000000000e+00 0.000000000000000e+00
0.000000000000000e+00 0.000000000000000e+00 0.000000000000000e+00
0.000000000000000e+00 0.000000000000000e+00 0.000000000000000e+00
0.000000000000000e+00 0.000000000000000e+00 0.000000000000000e+00
0.000000000000000e+00 0.000000000000000e+00 0.000000000000000e+00
0.000000000000000e+00 0.000000000000000e+00 0.000000000000000e+00
0.000000000000000e+00 0.000000000000000e+00 0.000000000000000e+00
0.000000000000000e+00 0.000000000000000e+00 0.000000000000000e+00
0.000000000000000e+00 0.000000000000000e+00 0.000000000000000e+00
0.000000000000000e+00 0.000000000000000e+00 0.000000000000000e+00
0.000000000000000e+00 0.000000000000000e+00 0.000000000000000e+00
0.000000000000000e+00 0.000000000000000e+00 0.000000000000000e+00
0.000000000000000e+00 0.000000000000000e+00 0.000000000000000e+00
0.000000000000000e+00 0.000000000000000e+00 0.000000000000000e+00
0.000000000000000e+00 0.000000000000000e+00 0.000000000000000e+00
0.000000000000000e+00 0.000000000000000e+00 0.000000000000000e+00
0.000000000000000e+00 0.000000000000000e+00 0.000000000000000e+00
0.000000000000000e+00 0.000000000000000e+00 0.000000000000000e+00
0.000000000000000e+00 0.000000000000000e+00 0.000000000000000e+00
0.000000000000000e+00 0.000000000000000e+00 0.000000000000000e+00
0.000000000000000e+00 0.000000000000000e+00 0.000000000000000e+00
0.000000000000000e+00 0.000000000000000e+00 0.000000000000000e+00
0.000000000000000e+00 0.000000000000000e+00 0.000000000000000e+00
0.000000000000000e+00 0.000000000000000e+00 0.000000000000000e+00
0.000000000000000e+00 0.000000000000000e+00 0.000000000000000e+00
0.000000000000000e+00 0.000000000000000e+00 0.000000000000000e+00
0.000000000000000e+00 0.000000000000000e+00 0.000000000000000e+00
0.000000000000000e+00 0.000000000000000e+00 0.000000000000000e+00
0.000000000000000e+00 0.000000000000000e+00 0.000000000000000e+00
0.000000000000000e+00 0.000000000000000e+00 0.000000000000000e+00
0.000000000000000e+00 0.000000000000000e+00 0.000000000000000e+00
0.000000000000000e+00 0.000000000000000e+00 0.000000000000000e+00
0.000000000000000e+00 0.000000000000000e+00 0.000000000000000e+00
0.000000000000000e+00 0.000000000000000e+00 0.000000000000000e+00
0.000000000000000e+00 0.000000000000000e+00 0.000000000000000e+00
0.000000000000000e+00 0.000000000000000e+00 0.000000000000000e+00
0.000000000000000e+00 0.000000000000000e+00 0.000000000000000e+00
0.000000000000000e+00 0.000000000000000e+00 0.000000000000000e+00
0.000000000000000e+00 0.000000000000000e+00 0.000000000000000e+00
0.000000000000000e+00 0.000000000000000e+00 0.000000000000000e+00
0.000000000000000e+00 0.000000000000000e+00 0.000000000000000e+00
0.000000000000000e+00 0.000000000000000e+00 0.000000000000000e+00
0.000000000000000e+00 0.000000000000000e+00 0.000000000000000e+00
0.000000000000000e+00 0.000000000000000e+00 0.000000000000000e+00
0.000000000000000e+00 0.000000000000000e+00 0.000000000000000e+00
0.000000000000000e+00 0.000000000000000e+00 0.000000000000000e+00
0.000000000000000e+00 0.000000000000000e+00 0.000000000000000e+00
0.000000000000000e+00 0.000000000000000e+00 0.000000000000000e+00
0.000000000000000e+00 0.000000000000000e+00 0.000000000000000e+00
0.000000000000000e+00 0.000000000000000e+00 0.000000000000000e+00
0.000000000000000e+00 0.000000000000000e+00 0.000000000000000e+00
0.000000000000000e+00 0.000000000000000e+00 0.000000000000000e+00
0.000000000000000e+00 0.000000000000000e+00 0.000000000000000e+00
0.000000000000000e+00 0.000000000000000e+00 0.000000000000000e+00
0.000000000000000e+00 0.000000000000000e+00 0.000000000000000e+00
0.000000000000000e+00 0.000000000000000e+00 0.000000000000000e+00
0.000000000000000e+00 0.000000000000000e+00 0.000000000000000e+00
0.000000000000000e+00 0.000000000000000e+00 0.000000000000000e+00
0.000000000000000e+00 0.000000000000000e+00 0.000000000000000e+00
0.000000000000000e+00 0.000000000000000e+00 0.000000000000000e+00
0.000000000000000e+00 0.000000000000000e+00 0.000000000000000e+00
0.000000000000000e+00 0.000000000000000e+00 0.000000000000000e+00
0.000000000000000e+00 0.000000000000000e+00 0.000000000000000e+00
0.000000000000000e+00 0.000000000000000e+00 0.000000000000000e+00
0.000000000000000e+00 0.000000000000000e+00 0.000000000000000e+00
0.000000000000000e+00 0.000000000000000e+00 0.000000000000000e+00
0.000000000000000e+00 0.000000000000000e+00 0.000000000000000e+00
0.000000000000000e+00 0.000000000000000e+00 0.000000000000000e+00
0.000000000000000e+00 0.000000000000000e+00 0.000000000000000e+00
0.000000000000000e+00 0.000000000000000e+00 0.000000000000000e+00
0.000000000000000e+00 0.000000000000000e+00 0.000000000000000e+00
0.000000000000000e+00 0.000000000000000e+00 0.000000000000000e+00
0.000000000000000e+00 0.000000000000000e+00 0.000000000000000e+00
0.000000000000000e+00 0.000000000000000e+00 0.000000000000000e+00
0.000000000000000e+00 0.000000000000000e+00 0.000000000000000e+00
0.000000000000000e+00 0.000000000000000e+00 0.000000000000000e+00
0.000000000000000e+00 0.000000000000000e+00 0.000000000000000e+00
0.000000000000000e+00 0.000000000000000e+00 0.000000000000000e+00
0.000000000000000e+00 0.000000000000000e+00 0.000000000000000e+00
0.000000000000000e+00 0.000000000000000e+00 0.000000000000000e+00
0.000000000000000e+00 0.000000000000000e+00 0.000000000000000e+00
0.000000000000000e+00 0.000000000000000e+00 0.000000000000000e+00
0.000000000000000e+00 0.000000000000000e+00 0.000000000000000e+00
0.000000000000000e+00 0.000000000000000e+00 0.000000000000000e+00
0.000000000000000e+00 0.000000000000000e+00 0.000000000000000e+00
0.000000000000000e+00 0.000000000000000e+00 0.000000000000000e+00
0.000000000000000e+00 0.000000000000000e+00 0.000000000000000e+00
0.000000000000000e+00 0.000000000000000e+00 0.000000000000000e+00
0.000000000000000e+00 0.000000000000000e+00 0.000000000000000e+00
0.000000000000000e+00 0.000000000000000e+00 0.000000000000000e+00
0.000000000000000e+00 0.000000000000000e+00 0.000000000000000e+00
0.000000000000000e+00 0.000000000000000e+00 0.000000000000000e+00
0.000000000000000e+00 0.000000000000000e+00 0.000000000000000e+00
0.000000000000000e+00 0.000000000000000e+00 0.000000000000000e+00
0.000000000000000e+00 0.000000000000000e+00 0.000000000000000e+00
0.000000000000000e+00 0.000000000000000e+00 0.000000000000000e+00
0.000000000000000e+00 0.000000000000000e+00 0.000000000000000e+00
0.000000000000000e+00 0.000000000000000e+00 0.000000000000000e+00
0.000000000000000e+00 0.000000000000000e+00 0.000000000000000e+00
0.000000000000000e+00 0.000000000000000e+00 0.000000000000000e+00
0.000000000000000e+00 0.000000000000000e+00 0.000000000000000e+00
0.000000000000000e+00 0.000000000000000e+00 0.000000000000000e+00
0.000000000000000e+00 0.000000000000000e+00 0.000000000000000e+00
0.000000000000000e+00 0.000000000000000e+00 0.000000000000000e+00
0.000000000000000e+00 0.000000000000000e+00 0.000000000000000e+00
0.000000000000000e+00 0.000000000000000e+00 0.000000000000000e+00
0.000000000000000e+00 0.000000000000000e+00 0.000000000000000e+00
0.000000000000000e+00 0.000000000000000e+00 0.000000000000000e+00
0.000000000000000e+00 0.000000000000000e+00 0.000000000000000e+00
0.000000000000000e+00 0.000000000000000e+00 0.000000000000000e+00
0.000000000000000e+00 0.000000000000000e+00 0.000000000000000e+00
0.000000000000000e+00 0.000000000000000e+00 0.000000000000000e+00
0.000000000000000e+00 0.000000000000000e+00 0.000000000000000e+00
0.000000000000000e+00 0.000000000000000e+00 0.000000000000000e+00
0.000000000000000e+00 0.000000000000000e+00 0.000000000000000e+00
0.000000000000000e+00 0.000000000000000e+00 0.000000000000000e+00
0.000000000000000e+00 0.000000000000000e+00 0.000000000000000e+00
0.000000000000000e+00 0.000000000000000e+00 0.000000000000000e+00
0.000000000000000e+00 0.000000000000000e+00 0.000000000000000e+00
0.000000000000000e+00 0.000000000000000e+00 0.000000000000000e+00
0.000000000000000e+00 0.000000000000000e+00 0.000000000000000e+00
0.000000000000000e+00 0.000000000000000e+00 0.000000000000000e+00
0.000000000000000e+00 0.000000000000000e+00 0.000000000000000e+00
0.000000000000000e+00 0.000000000000000e+00 0.000000000000000e+00
0.000000000000000e+00 0.000000000000000e+00 0.000000000000000e+00
0.000000000000000e+00 0.000000000000000e+00 0.000000000000000e+00
0.000000000000000e+00 0.000000000000000e+00 0.000000000000000e+00
0.000000000000000e+00 0.000000000000000e+00 0.000000000000000e+00
0.000000000000000e+00 0.000000000000000e+00 0.000000000000000e+00
0.000000000000000e+00 0.000000000000000e+00 0.000000000000000e+00
0.000000000000000e+00 0.000000000000000e+00 0.000000000000000e+00
0.000000000000000e+00 0.000000000000000e+00 0.000000000000000e+00
0.000000000000000e+00 0.000000000000000e+00 0.000000000000000e+00
0.000000000000000e+00 0.000000000000000e+00 0.000000000000000e+00
0.000000000000000e+00 0.000000000000000e+00 0.000000000000000e+00
0.000000000000000e+00 0.000000000000000e+00 0.000000000000000e+00
0.000000000000000e+00 0.000000000000000e+00 0.000000000000000e+00
0.000000000000000e+00 0.000000000000000e+00 0.000000000000000e+00
0.000000000000000e+00 0.000000000000000e+00 0.000000000000000e+00
0.000000000000000e+00 0.000000000000000e+00 0.000000000000000e+00
0.000000000000000e+00 0.000000000000000e+00 0.000000000000000e+00
0.000000000000000e+00 0.000000000000000e+00 0.000000000000000e+00
0.000000000000000e+00 0.000000000000000e+00 0.000000000000000e+00
0.000000000000000e+00 0.000000000000000e+00 0.000000000000000e+00
0.000000000000000e+00 0.000000000000000e+00 0.000000000000000e+00
0.000000000000000e+00 0.000000000000000e+00 0.000000000000000e+00
0.000000000000000e+00 0.000000000000000e+00 0.000000000000000e+00
0.000000000000000e+00 0.000000000000000e+00 0.000000000000000e+00
0.000000000000000e+00 0.000000000000000e+00 0.000000000000000e+00
0.000000000000000e+00 0.000000000000000e+00 0.000000000000000e+00
0.000000000000000e+00 0.000000000000000e+00 0.000000000000000e+00
0.000000000000000e+00 0.000000000000000e+00 0.000000000000000e+00
0.000000000000000e+00 0.000000000000000e+00 0.000000000000000e+00
0.000000000000000e+00 0.000000000000000e+00 0.000000000000000e+00
0.000000000000000e+00 0.000000000000000e+00 0.000000000000000e+00
0.000000000000000e+00 0.000000000000000e+00 0.000000000000000e+00
0.000000000000000e+00 0.000000000000000e+00 0.000000000000000e+00
0.000000000000000e+00 0.000000000000000e+00 0.000000000000000e+00
0.000000000000000e+00 0.000000000000000e+00 0.000000000000000e+00
0.000000000000000e+00 0.000000000000000e+00 0.000000000000000e+00
0.000000000000000e+00 0.000000000000000e+00 0.000000000000000e+00
0.000000000000000e+00 0.000000000000000e+00 0.000000000000000e+00
0.000000000000000e+00 0.000000000000000e+00 0.000000000000000e+00
0.000000000000000e+00 0.000000000000000e+00 0.000000000000000e+00
0.000000000000000e+00 0.000000000000000e+00 0.000000000000000e+00
0.000000000000000e+00 0.000000000000000e+00 0.000000000000000e+00
0.000000000000000e+00 0.000000000000000e+00 0.000000000000000e+00
0.000000000000000e+00 0.000000000000000e+00 0.000000000000000e+00
0.000000000000000e+00 0.000000000000000e+00 0.000000000000000e+00
0.000000000000000e+00 0.000000000000000e+00 0.000000000000000e+00
0.000000000000000e+00 0.000000000000000e+00 0.000000000000000e+00
0.000000000000000e+00 0.000000000000000e+00 0.000000000000000e+00
0.000000000000000e+00 0.000000000000000e+00 0.000000000000000e+00
0.000000000000000e+00 0.000000000000000e+00 0.000000000000000e+00
0.000000000000000e+00 0.000000000000000e+00 0.000000000000000e+00
0.000000000000000e+00 0.000000000000000e+00 0.000000000000000e+00
0.000000000000000e+00 0.000000000000000e+00 0.000000000000000e+00
0.000000000000000e+00 0.000000000000000e+00 0.000000000000000e+00
0.000000000000000e+00 0.000000000000000e+00 0.000000000000000e+00
0.000000000000000e+00 0.000000000000000e+00 0.000000000000000e+00
0.000000000000000e+00 0.000000000000000e+00 0.000000000000000e+00
0.000000000000000e+00 0.000000000000000e+00 0.000000000000000e+00
0.000000000000000e+00 0.000000000000000e+00 0.000000000000000e+00
0.000000000000000e+00 0.000000000000000e+00 0.000000000000000e+00
0.000000000000000e+00 0.000000000000000e+00 0.000000000000000e+00
0.000000000000000e+00 0.000000000000000e+00 0.000000000000000e+00
0.000000000000000e+00 0.000000000000000e+00 0.000000000000000e+00
0.000000000000000e+00 0.000000000000000e+00 0.000000000000000e+00
0.000000000000000e+00 0.000000000000000e+00 0.000000000000000e+00
0.000000000000000e+00 0.000000000000000e+00 0.000000000000000e+00
0.000000000000000e+00 0.000000000000000e+00 0.000000000000000e+00
0.000000000000000e+00 0.000000000000000e+00 0.000000000000000e+00
0.000000000000000e+00 0.000000000000000e+00 0.000000000000000e+00
0.000000000000000e+00 0.000000000000000e+00 0.000000000000000e+00
0.000000000000000e+00 0.000000000000000e+00 0.000000000000000e+00
0.000000000000000e+00 0.000000000000000e+00 0.000000000000000e+00
0.000000000000000e+00 0.000000000000000e+00 0.000000000000000e+00
0.000000000000000e+00 0.000000000000000e+00 0.000000000000000e+00
0.000000000000000e+00 0.000000000000000e+00 0.000000000000000e+00
0.000000000000000e+00 0.000000000000000e+00 0.000000000000000e+00
0.000000000000000e+00 0.000000000000000e+00 0.000000000000000e+00
0.000000000000000e+00 0.000000000000000e+00 0.000000000000000e+00
0.000000000000000e+00 0.000000000000000e+00 0.000000000000000e+00
0.000000000000000e+00 0.000000000000000e+00 0.000000000000000e+00
0.000000000000000e+00 0.000000000000000e+00 0.000000000000000e+00
0.000000000000000e+00 0.000000000000000e+00 0.000000000000000e+00
0.000000000000000e+00 0.000000000000000e+00 0.000000000000000e+00
0.000000000000000e+00 0.000000000000000e+00 0.000000000000000e+00
0.000000000000000e+00 0.000000000000000e+00 0.000000000000000e+00
0.000000000000000e+00 0.000000000000000e+00 0.000000000000000e+00
0.000000000000000e+00 0.000000000000000e+00 0.000000000000000e+00
0.000000000000000e+00 0.000000000000000e+00 0.000000000000000e+00
0.000000000000000e+00 0.000000000000000e+00 0.000000000000000e+00
0.000000000000000e+00 0.000000000000000e+00 0.000000000000000e+00
0.000000000000000e+00 0.000000000000000e+00 0.000000000000000e+00
0.000000000000000e+00 0.000000000000000e+00 0.000000000000000e+00
0.000000000000000e+00 0.000000000000000e+00 0.000000000000000e+00
0.000000000000000e+00 0.000000000000000e+00 0.000000000000000e+00
0.000000000000000e+00 0.000000000000000e+00 0.000000000000000e+00
0.000000000000000e+00 0.000000000000000e+00 0.000000000000000e+00
0.000000000000000e+00 0.000000000000000e+00 0.000000000000000e+00
0.000000000000000e+00 0.000000000000000e+00 0.000000000000000e+00
0.000000000000000e+00 0.000000000000000e+00 0.000000000000000e+00
0.000000000000000e+00 0.000000000000000e+00 0.000000000000000e+00
0.000000000000000e+00 0.000000000000000e+00 0.000000000000000e+00
0.000000000000000e+00 0.000000000000000e+00 0.000000000000000e+00
0.000000000000000e+00 0.000000000000000e+00 0.000000000000000e+00
0.000000000000000e+00 0.000000000000000e+00 0.000000000000000e+00
0.000000000000000e+00 0.000000000000000e+00 0.000000000000000e+00
0.000000000000000e+00 0.000000000000000e+00 0.000000000000000e+00
0.000000000000000e+00 0.000000000000000e+00 0.000000000000000e+00
0.000000000000000e+00 0.000000000000000e+00 0.000000000000000e+00
0.000000000000000e+00 0.000000000000000e+00 0.000000000000000e+00
0.000000000000000e+00 0.000000000000000e+00 0.000000000000000e+00
0.000000000000000e+00 0.000000000000000e+00 0.000000000000000e+00
0.000000000000000e+00 0.000000000000000e+00 0.000000000000000e+00
0.000000000000000e+00 0.000000000000000e+00 0.000000000000000e+00
0.000000000000000e+00 0.000000000000000e+00 0.000000000000000e+00
0.000000000000000e+00 0.000000000000000e+00 0.000000000000000e+00
0.000000000000000e+00 0.000000000000000e+00 0.000000000000000e+00
0.000000000000000e+00 0.000000000000000e+00 0.000000000000000e+00
0.000000000000000e+00 0.000000000000000e+00 0.000000000000000e+00
0.000000000000000e+00 0.000000000000000e+00 0.000000000000000e+00
0.000000000000000e+00 0.000000000000000e+00 0.000000000000000e+00
0.000000000000000e+00 0.000000000000000e+00 0.000000000000000e+00
0.000000000000000e+00 0.000000000000000e+00 0.000000000000000e+00
0.000000000000000e+00 0.000000000000000e+00 0.000000000000000e+00
0.000000000000000e+00 0.000000000000000e+00 0.000000000000000e+00
0.000000000000000e+00 0.000000000000000e+00 0.000000000000000e+00
0.000000000000000e+00 0.000000000000000e+00 0.000000000000000e+00
0.000000000000000e+00 0.000000000000000e+00 0.000000000000000e+00
0.000000000000000e+00 0.000000000000000e+00 0.000000000000000e+00
0.000000000000000e+00 0.000000000000000e+00 0.000000000000000e+00
0.000000000000000e+00 0.000000000000000e+00 0.000000000000000e+00
0.000000000000000e+00 0.000000000000000e+00 0.000000000000000e+00
0.000000000000000e+00 0.000000000000000e+00 0.000000000000000e+00
0.000000000000000e+00 0.000000000000000e+00 0.000000000000000e+00
0.000000000000000e+00 0.000000000000000e+00 0.000000000000000e+00
0.000000000000000e+00 0.000000000000000e+00 0.000000000000000e+00
0.000000000000000e+00 0.000000000000000e+00 0.000000000000000e+00
0.000000000000000e+00 0.000000000000000e+00 0.000000000000000e+00
0.000000000000000e+00 0.000000000000000e+00 0.000000000000000e+00
0.000000000000000e+00 0.000000000000000e+00 0.000000000000000e+00
0.000000000000000e+00 0.000000000000000e+00 0.000000000000000e+00
0.000000000000000e+00 0.000000000000000e+00 0.000000000000000e+00
0.000000000000000e+00 0.000000000000000e+00 0.000000000000000e+00
0.000000000000000e+00 0.000000000000000e+00 0.000000000000000e+00
0.000000000000000e+00 0.000000000000000e+00 0.000000000000000e+00
0.000000000000000e+00 0.000000000000000e+00 0.000000000000000e+00
0.000000000000000e+00 0.000000000000000e+00 0.000000000000000e+00
0.000000000000000e+00 0.000000000000000e+00 0.000000000000000e+00
0.000000000000000e+00 0.000000000000000e+00 0.000000000000000e+00
0.000000000000000e+00 0.000000000000000e+00 0.000000000000000e+00
0.000000000000000e+00 0.000000000000000e+00 0.000000000000000e+00
0.000000000000000e+00 0.000000000000000e+00 0.000000000000000e+00
0.000000000000000e+00 0.000000000000000e+00 0.000000000000000e+00
0.000000000000000e+00 0.000000000000000e+00 0.000000000000000e+00
0.000000000000000e+00 0.000000000000000e+00 0.000000000000000e+00
0.000000000000000e+00 0.000000000000000e+00 0.000000000000000e+00
0.000000000000000e+00 0.000000000000000e+00 0.000000000000000e+00
0.000000000000000e+00 0.000000000000000e+00 0.000000000000000e+00
0.000000000000000e+00 0.000000000000000e+00 0.000000000000000e+00
0.000000000000000e+00 0.000000000000000e+00 0.000000000000000e+00
0.000000000000000e+00 0.000000000000000e+00 0.000000000000000e+00
0.000000000000000e+00 0.000000000000000e+00 0.000000000000000e+00
0.000000000000000e+00 0.000000000000000e+00 0.000000000000000e+00
0.000000000000000e+00 0.000000000000000e+00 0.000000000000000e+00
0.000000000000000e+00 0.000000000000000e+00 0.000000000000000e+00
0.000000000000000e+00 0.000000000000000e+00 0.000000000000000e+00
0.000000000000000e+00 0.000000000000000e+00 0.000000000000000e+00
0.000000000000000e+00 0.000000000000000e+00 0.000000000000000e+00
0.000000000000000e+00 0.000000000000000e+00 0.000000000000000e+00
0.000000000000000e+00 0.000000000000000e+00 0.000000000000000e+00
0.000000000000000e+00 0.000000000000000e+00 0.000000000000000e+00
0.000000000000000e+00 0.000000000000000e+00 0.000000000000000e+00
0.000000000000000e+00 0.000000000000000e+00 0.000000000000000e+00
0.000000000000000e+00 0.000000000000000e+00 0.000000000000000e+00
0.000000000000000e+00 0.000000000000000e+00 0.000000000000000e+00
0.000000000000000e+00 0.000000000000000e+00 0.000000000000000e+00
0.000000000000000e+00 0.000000000000000e+00 0.000000000000000e+00
0.000000000000000e+00 0.000000000000000e+00 0.000000000000000e+00
0.000000000000000e+00 0.000000000000000e+00 0.000000000000000e+00
0.000000000000000e+00 0.000000000000000e+00 0.000000000000000e+00
0.000000000000000e+00 0.000000000000000e+00 0.000000000000000e+00
0.000000000000000e+00 0.000000000000000e+00 0.000000000000000e+00
0.000000000000000e+00 0.000000000000000e+00 0.000000000000000e+00
0.000000000000000e+00 0.000000000000000e+00 0.000000000000000e+00
0.000000000000000e+00 0.000000000000000e+00 0.000000000000000e+00
0.000000000000000e+00 0.000000000000000e+00 0.000000000000000e+00
0.000000000000000e+00 0.000000000000000e+00 0.000000000000000e+00
0.000000000000000e+00 0.000000000000000e+00 0.000000000000000e+00
0.000000000000000e+00 0.000000000000000e+00 0.000000000000000e+00
0.000000000000000e+00 0.000000000000000e+00 0.000000000000000e+00
0.000000000000000e+00 0.000000000000000e+00 0.000000000000000e+00
0.000000000000000e+00 0.000000000000000e+00 0.000000000000000e+00
0.000000000000000e+00 0.000000000000000e+00 0.000000000000000e+00
0.000000000000000e+00 0.000000000000000e+00 0.000000000000000e+00
0.000000000000000e+00 0.000000000000000e+00 0.000000000000000e+00
0.000000000000000e+00 0.000000000000000e+00 0.000000000000000e+00
0.000000000000000e+00 0.000000000000000e+00 0.000000000000000e+00
0.000000000000000e+00 0.000000000000000e+00 0.000000000000000e+00
0.000000000000000e+00 0.000000000000000e+00 0.000000000000000e+00
0.000000000000000e+00 0.000000000000000e+00 0.000000000000000e+00
0.000000000000000e+00 0.000000000000000e+00 0.000000000000000e+00
0.000000000000000e+00 0.000000000000000e+00 0.000000000000000e+00
0.000000000000000e+00 0.000000000000000e+00 0.000000000000000e+00
0.000000000000000e+00 0.000000000000000e+00 0.000000000000000e+00
0.000000000000000e+00 0.000000000000000e+00 0.000000000000000e+00
0.000000000000000e+00 0.000000000000000e+00 0.000000000000000e+00
0.000000000000000e+00 0.000000000000000e+00 0.000000000000000e+00
0.000000000000000e+00 0.000000000000000e+00 0.000000000000000e+00
0.000000000000000e+00 0.000000000000000e+00 0.000000000000000e+00
0.000000000000000e+00 0.000000000000000e+00 0.000000000000000e+00
0.000000000000000e+00 0.000000000000000e+00 0.000000000000000e+00
0.000000000000000e+00 0.000000000000000e+00 0.000000000000000e+00
0.000000000000000e+00 0.000000000000000e+00 0.000000000000000e+00
0.000000000000000e+00 0.000000000000000e+00 0.000000000000000e+00
0.000000000000000e+00 0.000000000000000e+00 0.000000000000000e+00
0.000000000000000e+00 0.000000000000000e+00 0.000000000000000e+00
0.000000000000000e+00 0.000000000000000e+00 0.000000000000000e+00
0.000000000000000e+00 0.000000000000000e+00 0.000000000000000e+00
0.000000000000000e+00 0.000000000000000e+00 0.000000000000000e+00
0.000000000000000e+00 0.000000000000000e+00 0.000000000000000e+00
0.000000000000000e+00 0.000000000000000e+00 0.000000000000000e+00
0.000000000000000e+00 0.000000000000000e+00 0.000000000000000e+00
0.000000000000000e+00 0.000000000000000e+00 0.000000000000000e+00
0.000000000000000e+00 0.000000000000000e+00 0.000000000000000e+00
0.000000000000000e+00 0.000000000000000e+00 0.000000000000000e+00
0.000000000000000e+00 0.000000000000000e+00 0.000000000000000e+00
0.000000000000000e+00 0.000000000000000e+00 0.000000000000000e+00
0.000000000000000e+00 0.000000000000000e+00 0.000000000000000e+00
0.000000000000000e+00 0.000000000000000e+00 0.000000000000000e+00
0.000000000000000e+00 0.000000000000000e+00 0.000000000000000e+00
0.000000000000000e+00 0.000000000000000e+00 0.000000000000000e+00
0.000000000000000e+00 0.000000000000000e+00 0.000000000000000e+00
0.000000000000000e+00 0.000000000000000e+00 0.000000000000000e+00
0.000000000000000e+00 0.000000000000000e+00 0.000000000000000e+00
0.000000000000000e+00 0.000000000000000e+00 0.000000000000000e+00
0.000000000000000e+00 0.000000000000000e+00 0.000000000000000e+00
0.000000000000000e+00 0.000000000000000e+00 0.000000000000000e+00
0.000000000000000e+00 0.000000000000000e+00 0.000000000000000e+00
0.000000000000000e+00 0.000000000000000e+00 0.000000000000000e+00
0.000000000000000e+00 0.000000000000000e+00 0.000000000000000e+00
0.000000000000000e+00 0.000000000000000e+00 0.000000000000000e+00
0.000000000000000e+00 0.000000000000000e+00 0.000000000000000e+00
0.000000000000000e+00 0.000000000000000e+00 0.000000000000000e+00
0.000000000000000e+00 0.000000000000000e+00 0.000000000000000e+00
0.000000000000000e+00 0.000000000000000e+00 0.000000000000000e+00
0.000000000000000e+00 0.000000000000000e+00 0.000000000000000e+00
0.000000000000000e+00 0.000000000000000e+00 0.000000000000000e+00
0.000000000000000e+00 0.000000000000000e+00 0.000000000000000e+00
0.000000000000000e+00 0.000000000000000e+00 0.000000000000000e+00
0.000000000000000e+00 0.000000000000000e+00 0.000000000000000e+00
0.000000000000000e+00 0.000000000000000e+00 0.000000000000000e+00
0.000000000000000e+00 0.000000000000000e+00 0.000000000000000e+00
0.000000000000000e+00 0.000000000000000e+00 0.000000000000000e+00
0.000000000000000e+00 0.000000000000000e+00 0.000000000000000e+00
0.000000000000000e+00 0.000000000000000e+00 0.000000000000000e+00
0.000000000000000e+00 0.000000000000000e+00 0.000000000000000e+00
0.000000000000000e+00 0.000000000000000e+00 0.000000000000000e+00
0.000000000000000e+00 0.000000000000000e+00 0.000000000000000e+00
0.000000000000000e+00 0.000000000000000e+00 0.000000000000000e+00
0.000000000000000e+00 0.000000000000000e+00 0.000000000000000e+00
0.000000000000000e+00 0.000000000000000e+00 0.000000000000000e+00
0.000000000000000e+00 0.000000000000000e+00 0.000000000000000e+00
0.000000000000000e+00 0.000000000000000e+00 0.000000000000000e+00
0.000000000000000e+00 0.000000000000000e+00 0.000000000000000e+00
0.000000000000000e+00 0.000000000000000e+00 0.000000000000000e+00
0.000000000000000e+00 0.000000000000000e+00 0.000000000000000e+00
0.000000000000000e+00 0.000000000000000e+00 0.000000000000000e+00
0.000000000000000e+00 0.000000000000000e+00 0.000000000000000e+00
0.000000000000000e+00 0.000000000000000e+00 0.000000000000000e+00
0.000000000000000e+00 0.000000000000000e+00 0.000000000000000e+00
0.000000000000000e+00 0.000000000000000e+00 0.000000000000000e+00
0.000000000000000e+00 0.000000000000000e+00 0.000000000000000e+00
0.000000000000000e+00 0.000000000000000e+00 0.000000000000000e+00
0.000000000000000e+00 0.000000000000000e+00 0.000000000000000e+00
0.000000000000000e+00 0.000000000000000e+00 0.000000000000000e+00
0.000000000000000e+00 0.000000000000000e+00 0.000000000000000e+00
0.000000000000000e+00 0.000000000000000e+00 0.000000000000000e+00
0.000000000000000e+00 0.000000000000000e+00 0.000000000000000e+00
0.000000000000000e+00 0.000000000000000e+00 0.000000000000000e+00
0.000000000000000e+00 0.000000000000000e+00 0.000000000000000e+00
0.000000000000000e+00 0.000000000000000e+00 0.000000000000000e+00
0.000000000000000e+00 0.000000000000000e+00 0.000000000000000e+00
0.000000000000000e+00 0.000000000000000e+00 0.000000000000000e+00
0.000000000000000e+00 0.000000000000000e+00 0.000000000000000e+00
0.000000000000000e+00 0.000000000000000e+00 0.000000000000000e+00
0.000000000000000e+00 0.000000000000000e+00 0.000000000000000e+00
0.000000000000000e+00 0.000000000000000e+00 0.000000000000000e+00
0.000000000000000e+00 0.000000000000000e+00 0.000000000000000e+00
0.000000000000000e+00 0.000000000000000e+00 0.000000000000000e+00
0.000000000000000e+00 0.000000000000000e+00 0.000000000000000e+00
0.000000000000000e+00 0.000000000000000e+00 0.000000000000000e+00
0.000000000000000e+00 0.000000000000000e+00 0.000000000000000e+00
0.000000000000000e+00 0.000000000000000e+00 0.000000000000000e+00
0.000000000000000e+00 0.000000000000000e+00 0.000000000000000e+00
0.000000000000000e+00 0.000000000000000e+00 0.000000000000000e+00
0.000000000000000e+00 0.000000000000000e+00 0.000000000000000e+00
0.000000000000000e+00 0.000000000000000e+00 0.000000000000000e+00
0.000000000000000e+00 0.000000000000000e+00 0.000000000000000e+00
0.000000000000000e+00 0.000000000000000e+00 0.000000000000000e+00
0.000000000000000e+00 0.000000000000000e+00 0.000000000000000e+00
0.000000000000000e+00 0.000000000000000e+00 0.000000000000000e+00
0.000000000000000e+00 0.000000000000000e+00 0.000000000000000e+00
0.000000000000000e+00 0.000000000000000e+00 0.000000000000000e+00
0.000000000000000e+00 0.000000000000000e+00 0.000000000000000e+00
0.000000000000000e+00 0.000000000000000e+00 0.000000000000000e+00
0.000000000000000e+00 0.000000000000000e+00 0.000000000000000e+00
0.000000000000000e+00 0.000000000000000e+00 0.000000000000000e+00
0.000000000000000e+00 0.000000000000000e+00 0.000000000000000e+00
0.000000000000000e+00 0.000000000000000e+00 0.000000000000000e+00
0.000000000000000e+00 0.000000000000000e+00 0.000000000000000e+00
0.000000000000000e+00 0.000000000000000e+00 0.000000000000000e+00
0.000000000000000e+00 0.000000000000000e+00 0.000000000000000e+00
0.000000000000000e+00 0.000000000000000e+00 0.000000000000000e+00
0.000000000000000e+00 0.000000000000000e+00 0.000000000000000e+00
0.000000000000000e+00 0.000000000000000e+00 0.000000000000000e+00
0.000000000000000e+00 0.000000000000000e+00 0.000000000000000e+00
0.000000000000000e+00 0.000000000000000e+00 0.000000000000000e+00
0.000000000000000e+00 0.000000000000000e+00 0.000000000000000e+00
0.000000000000000e+00 0.000000000000000e+00 0.000000000000000e+00
0.000000000000000e+00 0.000000000000000e+00 0.000000000000000e+00
0.000000000000000e+00 0.000000000000000e+00 0.000000000000000e+00
0.000000000000000e+00 0.000000000000000e+00 0.000000000000000e+00
0.000000000000000e+00 0.000000000000000e+00 0.000000000000000e+00
0.000000000000000e+00 0.000000000000000e+00 0.000000000000000e+00
0.000000000000000e+00 0.000000000000000e+00 0.000000000000000e+00
0.000000000000000e+00 0.000000000000000e+00 0.000000000000000e+00
0.000000000000000e+00 0.000000000000000e+00 0.000000000000000e+00
0.000000000000000e+00 0.000000000000000e+00 0.000000000000000e+00
0.000000000000000e+00 0.000000000000000e+00 0.000000000000000e+00
0.000000000000000e+00 0.000000000000000e+00 0.000000000000000e+00
0.000000000000000e+00 0.000000000000000e+00 0.000000000000000e+00
0.000000000000000e+00 0.000000000000000e+00 0.000000000000000e+00
0.000000000000000e+00 0.000000000000000e+00 0.000000000000000e+00
0.000000000000000e+00 0.000000000000000e+00 0.000000000000000e+00
0.000000000000000e+00 0.000000000000000e+00 0.000000000000000e+00
0.000000000000000e+00 0.000000000000000e+00 0.000000000000000e+00
0.000000000000000e+00 0.000000000000000e+00 0.000000000000000e+00
0.000000000000000e+00 0.000000000000000e+00 0.000000000000000e+00
0.000000000000000e+00 0.000000000000000e+00 0.000000000000000e+00
0.000000000000000e+00 0.000000000000000e+00 0.000000000000000e+00
0.000000000000000e+00 0.000000000000000e+00 0.000000000000000e+00
0.000000000000000e+00 0.000000000000000e+00 0.000000000000000e+00
0.000000000000000e+00 0.000000000000000e+00 0.000000000000000e+00
0.000000000000000e+00 0.000000000000000e+00 0.000000000000000e+00
0.000000000000000e+00 0.000000000000000e+00 0.000000000000000e+00
0.000000000000000e+00 0.000000000000000e+00 0.000000000000000e+00
0.000000000000000e+00 0.000000000000000e+00 0.000000000000000e+00
0.000000000000000e+00 0.000000000000000e+00 0.000000000000000e+00
0.000000000000000e+00 0.000000000000000e+00 0.000000000000000e+00
0.000000000000000e+00 0.000000000000000e+00 0.000000000000000e+00
0.000000000000000e+00 0.000000000000000e+00 0.000000000000000e+00
0.000000000000000e+00 0.000000000000000e+00 0.000000000000000e+00
0.000000000000000e+00 0.000000000000000e+00 0.000000000000000e+00
0.000000000000000e+00 0.000000000000000e+00 0.000000000000000e+00
0.000000000000000e+00 0.000000000000000e+00 0.000000000000000e+00
0.000000000000000e+00 0.000000000000000e+00 0.000000000000000e+00
0.000000000000000e+00 0.000000000000000e+00 0.000000000000000e+00
0.000000000000000e+00 0.000000000000000e+00 0.000000000000000e+00
0.000000000000000e+00 0.000000000000000e+00 0.000000000000000e+00
0.000000000000000e+00 0.000000000000000e+00 0.000000000000000e+00
0.000000000000000e+00 0.000000000000000e+00 0.000000000000000e+00
0.000000000000000e+00 0.000000000000000e+00 0.000000000000000e+00
0.000000000000000e+00 0.000000000000000e+00 0.000000000000000e+00
0.000000000000000e+00 0.000000000000000e+00 0.000000000000000e+00
0.000000000000000e+00 0.000000000000000e+00 0.000000000000000e+00
0.000000000000000e+00 0.000000000000000e+00 0.000000000000000e+00
0.000000000000000e+00 0.000000000000000e+00 0.000000000000000e+00
0.000000000000000e+00 0.000000000000000e+00 0.000000000000000e+00
0.000000000000000e+00 0.000000000000000e+00 0.000000000000000e+00
0.000000000000000e+00 0.000000000000000e+00 0.000000000000000e+00
0.000000000000000e+00 0.000000000000000e+00 0.000000000000000e+00
0.000000000000000e+00 0.000000000000000e+00 0.000000000000000e+00
0.000000000000000e+00 0.000000000000000e+00 0.000000000000000e+00
0.000000000000000e+00 0.000000000000000e+00 0.000000000000000e+00
0.000000000000000e+00 0.000000000000000e+00 0.000000000000000e+00
0.000000000000000e+00 0.000000000000000e+00 0.000000000000000e+00
0.000000000000000e+00 0.000000000000000e+00 0.000000000000000e+00
0.000000000000000e+00 0.000000000000000e+00 0.000000000000000e+00
0.000000000000000e+00 0.000000000000000e+00 0.000000000000000e+00
0.000000000000000e+00 0.000000000000000e+00 0.000000000000000e+00
0.000000000000000e+00 0.000000000000000e+00 0.000000000000000e+00
0.000000000000000e+00 0.000000000000000e+00 0.000000000000000e+00
0.000000000000000e+00 0.000000000000000e+00 0.000000000000000e+00
0.000000000000000e+00 0.000000000000000e+00 0.000000000000000e+00
0.000000000000000e+00 0.000000000000000e+00 0.000000000000000e+00
0.000000000000000e+00 0.000000000000000e+00 0.000000000000000e+00
0.000000000000000e+00 0.000000000000000e+00 0.000000000000000e+00
0.000000000000000e+00 0.000000000000000e+00 0.000000000000000e+00
0.000000000000000e+00 0.000000000000000e+00 0.000000000000000e+00
0.000000000000000e+00 0.000000000000000e+00 0.000000000000000e+00
0.000000000000000e+00 0.000000000000000e+00 0.000000000000000e+00
0.000000000000000e+00 0.000000000000000e+00 0.000000000000000e+00
0.000000000000000e+00 0.000000000000000e+00 0.000000000000000e+00
0.000000000000000e+00 0.000000000000000e+00 0.000000000000000e+00
0.000000000000000e+00 0.000000000000000e+00 0.000000000000000e+00
0.000000000000000e+00 0.000000000000000e+00 0.000000000000000e+00
0.000000000000000e+00 0.000000000000000e+00 0.000000000000000e+00
0.000000000000000e+00 0.000000000000000e+00 0.000000000000000e+00
0.000000000000000e+00 0.000000000000000e+00 0.000000000000000e+00
0.000000000000000e+00 0.000000000000000e+00 0.000000000000000e+00
0.000000000000000e+00 0.000000000000000e+00 0.000000000000000e+00
0.000000000000000e+00 0.000000000000000e+00 0.000000000000000e+00
0.000000000000000e+00 0.000000000000000e+00 0.000000000000000e+00
0.000000000000000e+00 0.000000000000000e+00 0.000000000000000e+00
0.000000000000000e+00 0.000000000000000e+00 0.000000000000000e+00
0.000000000000000e+00 0.000000000000000e+00 0.000000000000000e+00
0.000000000000000e+00 0.000000000000000e+00 0.000000000000000e+00
0.000000000000000e+00 0.000000000000000e+00 0.000000000000000e+00
0.000000000000000e+00 0.000000000000000e+00 0.000000000000000e+00
0.000000000000000e+00 0.000000000000000e+00 0.000000000000000e+00
0.000000000000000e+00 0.000000000000000e+00 0.000000000000000e+00
0.000000000000000e+00 0.000000000000000e+00 0.000000000000000e+00
0.000000000000000e+00 0.000000000000000e+00 0.000000000000000e+00
0.000000000000000e+00 0.000000000000000e+00 0.000000000000000e+00
0.000000000000000e+00 0.000000000000000e+00 0.000000000000000e+00
0.000000000000000e+00 0.000000000000000e+00 0.000000000000000e+00
0.000000000000000e+00 0.000000000000000e+00 0.000000000000000e+00
0.000000000000000e+00 0.000000000000000e+00 0.000000000000000e+00
0.000000000000000e+00 0.000000000000000e+00 0.000000000000000e+00
0.000000000000000e+00 0.000000000000000e+00 0.000000000000000e+00
0.000000000000000e+00 0.000000000000000e+00 0.000000000000000e+00
0.000000000000000e+00 0.000000000000000e+00 0.000000000000000e+00
0.000000000000000e+00 0.000000000000000e+00 0.000000000000000e+00
0.000000000000000e+00 0.000000000000000e+00 0.000000000000000e+00
0.000000000000000e+00 0.000000000000000e+00 0.000000000000000e+00
0.000000000000000e+00 0.000000000000000e+00 0.000000000000000e+00
0.000000000000000e+00 0.000000000000000e+00 0.000000000000000e+00
0.000000000000000e+00 0.000000000000000e+00 0.000000000000000e+00
0.000000000000000e+00 0.000000000000000e+00 0.000000000000000e+00
0.000000000000000e+00 0.000000000000000e+00 0.000000000000000e+00
0.000000000000000e+00 0.000000000000000e+00 0.000000000000000e+00
0.000000000000000e+00 0.000000000000000e+00 0.000000000000000e+00
0.000000000000000e+00 0.000000000000000e+00 0.000000000000000e+00
0.000000000000000e+00 0.000000000000000e+00 0.000000000000000e+00
0.000000000000000e+00 0.000000000000000e+00 0.000000000000000e+00
0.000000000000000e+00 0.000000000000000e+00 0.000000000000000e+00
0.000000000000000e+00 0.000000000000000e+00 0.000000000000000e+00
0.000000000000000e+00 0.000000000000000e+00 0.000000000000000e+00
0.000000000000000e+00 0.000000000000000e+00 0.000000000000000e+00
0.000000000000000e+00 0.000000000000000e+00 0.000000000000000e+00
0.000000000000000e+00 0.000000000000000e+00 0.000000000000000e+00
0.000000000000000e+00 0.000000000000000e+00 0.000000000000000e+00
0.000000000000000e+00 0.000000000000000e+00 0.000000000000000e+00
0.000000000000000e+00 0.000000000000000e+00 0.000000000000000e+00
0.000000000000000e+00 0.000000000000000e+00 0.000000000000000e+00
0.000000000000000e+00 0.000000000000000e+00 0.000000000000000e+00
0.000000000000000e+00 0.000000000000000e+00 0.000000000000000e+00
0.000000000000000e+00 0.000000000000000e+00 0.000000000000000e+00
0.000000000000000e+00 0.000000000000000e+00 0.000000000000000e+00
0.000000000000000e+00 0.000000000000000e+00 0.000000000000000e+00
0.000000000000000e+00 0.000000000000000e+00 0.000000000000000e+00
0.000000000000000e+00 0.000000000000000e+00 0.000000000000000e+00
0.000000000000000e+00 0.000000000000000e+00 0.000000000000000e+00
0.000000000000000e+00 0.000000000000000e+00 0.000000000000000e+00
0.000000000000000e+00 0.000000000000000e+00 0.000000000000000e+00
0.000000000000000e+00 0.000000000000000e+00 0.000000000000000e+00
0.000000000000000e+00 0.000000000000000e+00 0.000000000000000e+00
0.000000000000000e+00 0.000000000000000e+00 0.000000000000000e+00
0.000000000000000e+00 0.000000000000000e+00 0.000000000000000e+00
0.000000000000000e+00 0.000000000000000e+00 0.000000000000000e+00
0.000000000000000e+00 0.000000000000000e+00 0.000000000000000e+00
0.000000000000000e+00 0.000000000000000e+00 0.000000000000000e+00
0.000000000000000e+00 0.000000000000000e+00 0.000000000000000e+00
0.000000000000000e+00 0.000000000000000e+00 0.000000000000000e+00
0.000000000000000e+00 0.000000000000000e+00 0.000000000000000e+00
0.000000000000000e+00 0.000000000000000e+00 0.000000000000000e+00
0.000000000000000e+00 0.000000000000000e+00 0.000000000000000e+00
0.000000000000000e+00 0.000000000000000e+00 0.000000000000000e+00
0.000000000000000e+00 0.000000000000000e+00 0.000000000000000e+00
0.000000000000000e+00 0.000000000000000e+00 0.000000000000000e+00
0.000000000000000e+00 0.000000000000000e+00 0.000000000000000e+00
0.000000000000000e+00 0.000000000000000e+00 0.000000000000000e+00
0.000000000000000e+00 0.000000000000000e+00 0.000000000000000e+00
0.000000000000000e+00 0.000000000000000e+00 0.000000000000000e+00
0.000000000000000e+00 0.000000000000000e+00 0.000000000000000e+00
0.000000000000000e+00 0.000000000000000e+00 0.000000000000000e+00
0.000000000000000e+00 0.000000000000000e+00 0.000000000000000e+00
0.000000000000000e+00 0.000000000000000e+00 0.000000000000000e+00
0.000000000000000e+00 0.000000000000000e+00 0.000000000000000e+00
0.000000000000000e+00 0.000000000000000e+00 0.000000000000000e+00
0.000000000000000e+00 0.000000000000000e+00 0.000000000000000e+00
0.000000000000000e+00 0.000000000000000e+00 0.000000000000000e+00
0.000000000000000e+00 0.000000000000000e+00 0.000000000000000e+00
0.000000000000000e+00 0.000000000000000e+00 0.000000000000000e+00
0.000000000000000e+00 0.000000000000000e+00 0.000000000000000e+00
0.000000000000000e+00 0.000000000000000e+00 0.000000000000000e+00
0.000000000000000e+00 0.000000000000000e+00 0.000000000000000e+00
0.000000000000000e+00 0.000000000000000e+00 0.000000000000000e+00
0.000000000000000e+00 0.000000000000000e+00 0.000000000000000e+00
0.000000000000000e+00 0.000000000000000e+00 0.000000000000000e+00
0.000000000000000e+00 0.000000000000000e+00 0.000000000000000e+00
0.000000000000000e+00 0.000000000000000e+00 0.000000000000000e+00
0.000000000000000e+00 0.000000000000000e+00 0.000000000000000e+00
0.000000000000000e+00 0.000000000000000e+00 0.000000000000000e+00
0.000000000000000e+00 0.000000000000000e+00 0.000000000000000e+00
0.000000000000000e+00 0.000000000000000e+00 0.000000000000000e+00
0.000000000000000e+00 0.000000000000000e+00 0.000000000000000e+00
0.000000000000000e+00 0.000000000000000e+00 0.000000000000000e+00
0.000000000000000e+00 0.000000000000000e+00 0.000000000000000e+00
0.000000000000000e+00 0.000000000000000e+00 0.000000000000000e+00
0.000000000000000e+00 0.000000000000000e+00 0.000000000000000e+00
0.000000000000000e+00 0.000000000000000e+00 0.000000000000000e+00
0.000000000000000e+00 0.000000000000000e+00 0.000000000000000e+00
0.000000000000000e+00 0.000000000000000e+00 0.000000000000000e+00
0.000000000000000e+00 0.000000000000000e+00 0.000000000000000e+00
0.000000000000000e+00 0.000000000000000e+00 0.000000000000000e+00
0.000000000000000e+00 0.000000000000000e+00 0.000000000000000e+00
0.000000000000000e+00 0.000000000000000e+00 0.000000000000000e+00
0.000000000000000e+00 0.000000000000000e+00 0.000000000000000e+00
0.000000000000000e+00 0.000000000000000e+00 0.000000000000000e+00
0.000000000000000e+00 0.000000000000000e+00 0.000000000000000e+00
0.000000000000000e+00 0.000000000000000e+00 0.000000000000000e+00
0.000000000000000e+00 0.000000000000000e+00 0.000000000000000e+00
0.000000000000000e+00 0.000000000000000e+00 0.000000000000000e+00
0.000000000000000e+00 0.000000000000000e+00 0.000000000000000e+00
0.000000000000000e+00 0.000000000000000e+00 0.000000000000000e+00
0.000000000000000e+00 0.000000000000000e+00 0.000000000000000e+00
0.000000000000000e+00 0.000000000000000e+00 0.000000000000000e+00
0.000000000000000e+00 0.000000000000000e+00 0.000000000000000e+00
0.000000000000000e+00 0.000000000000000e+00 0.000000000000000e+00
0.000000000000000e+00 0.000000000000000e+00 0.000000000000000e+00
0.000000000000000e+00 0.000000000000000e+00 0.000000000000000e+00
0.000000000000000e+00 0.000000000000000e+00 0.000000000000000e+00
0.000000000000000e+00 0.000000000000000e+00 0.000000000000000e+00
0.000000000000000e+00 0.000000000000000e+00 0.000000000000000e+00
0.000000000000000e+00 0.000000000000000e+00 0.000000000000000e+00
0.000000000000000e+00 0.000000000000000e+00 0.000000000000000e+00
0.000000000000000e+00 0.000000000000000e+00 0.000000000000000e+00
0.000000000000000e+00 0.000000000000000e+00 0.000000000000000e+00
0.000000000000000e+00 0.000000000000000e+00 0.000000000000000e+00
0.000000000000000e+00 0.000000000000000e+00 0.000000000000000e+00
0.000000000000000e+00 0.000000000000000e+00 0.000000000000000e+00
0.000000000000000e+00 0.000000000000000e+00 0.000000000000000e+00
0.000000000000000e+00 0.000000000000000e+00 0.000000000000000e+00
0.000000000000000e+00 0.000000000000000e+00 0.000000000000000e+00
0.000000000000000e+00 0.000000000000000e+00 0.000000000000000e+00
0.000000000000000e+00 0.000000000000000e+00 0.000000000000000e+00
0.000000000000000e+00 0.000000000000000e+00 0.000000000000000e+00
0.000000000000000e+00 0.000000000000000e+00 0.000000000000000e+00
0.000000000000000e+00 0.000000000000000e+00 0.000000000000000e+00
0.000000000000000e+00 0.000000000000000e+00 0.000000000000000e+00
0.000000000000000e+00 0.000000000000000e+00 0.000000000000000e+00
0.000000000000000e+00 0.000000000000000e+00 0.000000000000000e+00
0.000000000000000e+00 0.000000000000000e+00 0.000000000000000e+00
0.000000000000000e+00 0.000000000000000e+00 0.000000000000000e+00
0.000000000000000e+00 0.000000000000000e+00 0.000000000000000e+00
0.000000000000000e+00 0.000000000000000e+00 0.000000000000000e+00
0.000000000000000e+00 0.000000000000000e+00 0.000000000000000e+00
0.000000000000000e+00 0.000000000000000e+00 0.000000000000000e+00
0.000000000000000e+00 0.000000000000000e+00 0.000000000000000e+00
0.000000000000000e+00 0.000000000000000e+00 0.000000000000000e+00
0.000000000000000e+00 0.000000000000000e+00 0.000000000000000e+00
0.000000000000000e+00 0.000000000000000e+00 0.000000000000000e+00
0.000000000000000e+00 0.000000000000000e+00 0.000000000000000e+00
0.000000000000000e+00 0.000000000000000e+00 0.000000000000000e+00
0.000000000000000e+00 0.000000000000000e+00 0.000000000000000e+00
0.000000000000000e+00 0.000000000000000e+00 0.000000000000000e+00
0.000000000000000e+00 0.000000000000000e+00 0.000000000000000e+00
0.000000000000000e+00 0.000000000000000e+00 0.000000000000000e+00
0.000000000000000e+00 0.000000000000000e+00 0.000000000000000e+00
0.000000000000000e+00 0.000000000000000e+00 0.000000000000000e+00
0.000000000000000e+00 0.000000000000000e+00 0.000000000000000e+00
0.000000000000000e+00 0.000000000000000e+00 0.000000000000000e+00
0.000000000000000e+00 0.000000000000000e+00 0.000000000000000e+00
0.000000000000000e+00 0.000000000000000e+00 0.000000000000000e+00
0.000000000000000e+00 0.000000000000000e+00 0.000000000000000e+00
0.000000000000000e+00 0.000000000000000e+00 0.000000000000000e+00
0.000000000000000e+00 0.000000000000000e+00 0.000000000000000e+00
0.000000000000000e+00 0.000000000000000e+00 0.000000000000000e+00
0.000000000000000e+00 0.000000000000000e+00 0.000000000000000e+00
0.000000000000000e+00 0.000000000000000e+00 0.000000000000000e+00
0.000000000000000e+00 0.000000000000000e+00 0.000000000000000e+00
0.000000000000000e+00 0.000000000000000e+00 0.000000000000000e+00
0.000000000000000e+00 0.000000000000000e+00 0.000000000000000e+00
0.000000000000000e+00 0.000000000000000e+00 0.000000000000000e+00
0.000000000000000e+00 0.000000000000000e+00 0.000000000000000e+00
0.000000000000000e+00 0.000000000000000e+00 0.000000000000000e+00
0.000000000000000e+00 0.000000000000000e+00 0.000000000000000e+00
0.000000000000000e+00 0.000000000000000e+00 0.000000000000000e+00
0.000000000000000e+00 0.000000000000000e+00 0.000000000000000e+00
0.000000000000000e+00 0.000000000000000e+00 0.000000000000000e+00
0.000000000000000e+00 0.000000000000000e+00 0.000000000000000e+00
0.000000000000000e+00 0.000000000000000e+00 0.000000000000000e+00
0.000000000000000e+00 0.000000000000000e+00 0.000000000000000e+00
0.000000000000000e+00 0.000000000000000e+00 0.000000000000000e+00
0.000000000000000e+00 0.000000000000000e+00 0.000000000000000e+00
0.000000000000000e+00 0.000000000000000e+00 0.000000000000000e+00
0.000000000000000e+00 0.000000000000000e+00 0.000000000000000e+00
0.000000000000000e+00 0.000000000000000e+00 0.000000000000000e+00
0.000000000000000e+00 0.000000000000000e+00 0.000000000000000e+00
0.000000000000000e+00 0.000000000000000e+00 0.000000000000000e+00
0.000000000000000e+00 0.000000000000000e+00 0.000000000000000e+00
0.000000000000000e+00 0.000000000000000e+00 0.000000000000000e+00
0.000000000000000e+00 0.000000000000000e+00 0.000000000000000e+00
0.000000000000000e+00 0.000000000000000e+00 0.000000000000000e+00
0.000000000000000e+00 0.000000000000000e+00 0.000000000000000e+00
0.000000000000000e+00 0.000000000000000e+00 0.000000000000000e+00
0.000000000000000e+00 0.000000000000000e+00 0.000000000000000e+00
0.000000000000000e+00 0.000000000000000e+00 0.000000000000000e+00
0.000000000000000e+00 0.000000000000000e+00 0.000000000000000e+00
0.000000000000000e+00 0.000000000000000e+00 0.000000000000000e+00
0.000000000000000e+00 0.000000000000000e+00 0.000000000000000e+00
0.000000000000000e+00 0.000000000000000e+00 0.000000000000000e+00
0.000000000000000e+00 0.000000000000000e+00 0.000000000000000e+00
0.000000000000000e+00 0.000000000000000e+00 0.000000000000000e+00
0.000000000000000e+00 0.000000000000000e+00 0.000000000000000e+00
0.000000000000000e+00 0.000000000000000e+00 0.000000000000000e+00
0.000000000000000e+00 0.000000000000000e+00 0.000000000000000e+00
0.000000000000000e+00 0.000000000000000e+00 0.000000000000000e+00
0.000000000000000e+00 0.000000000000000e+00 0.000000000000000e+00
0.000000000000000e+00 0.000000000000000e+00 0.000000000000000e+00
0.000000000000000e+00 0.000000000000000e+00 0.000000000000000e+00
0.000000000000000e+00 0.000000000000000e+00 0.000000000000000e+00
0.000000000000000e+00 0.000000000000000e+00 0.000000000000000e+00
0.000000000000000e+00 0.000000000000000e+00 0.000000000000000e+00
0.000000000000000e+00 0.000000000000000e+00 0.000000000000000e+00
0.000000000000000e+00 0.000000000000000e+00 0.000000000000000e+00
0.000000000000000e+00 0.000000000000000e+00 0.000000000000000e+00
0.000000000000000e+00 0.000000000000000e+00 0.000000000000000e+00
0.000000000000000e+00 0.000000000000000e+00 0.000000000000000e+00
0.000000000000000e+00 0.000000000000000e+00 0.000000000000000e+00
0.000000000000000e+00 0.000000000000000e+00 0.000000000000000e+00
0.000000000000000e+00 0.000000000000000e+00 0.000000000000000e+00
0.000000000000000e+00 0.000000000000000e+00 0.000000000000000e+00
0.000000000000000e+00 0.000000000000000e+00 0.000000000000000e+00
0.000000000000000e+00 0.000000000000000e+00 0.000000000000000e+00
0.000000000000000e+00 0.000000000000000e+00 0.000000000000000e+00
0.000000000000000e+00 0.000000000000000e+00 0.000000000000000e+00
0.000000000000000e+00 0.000000000000000e+00 0.000000000000000e+00
0.000000000000000e+00 0.000000000000000e+00 0.000000000000000e+00
0.000000000000000e+00 0.000000000000000e+00 0.000000000000000e+00
0.000000000000000e+00 0.000000000000000e+00 0.000000000000000e+00
0.000000000000000e+00 0.000000000000000e+00 0.000000000000000e+00
0.000000000000000e+00 0.000000000000000e+00 0.000000000000000e+00
0.000000000000000e+00 0.000000000000000e+00 0.000000000000000e+00
0.000000000000000e+00 0.000000000000000e+00 0.000000000000000e+00
0.000000000000000e+00 0.000000000000000e+00 0.000000000000000e+00
0.000000000000000e+00 0.000000000000000e+00 0.000000000000000e+00
0.000000000000000e+00 0.000000000000000e+00 0.000000000000000e+00
0.000000000000000e+00 0.000000000000000e+00 0.000000000000000e+00
0.000000000000000e+00 0.000000000000000e+00 0.000000000000000e+00
0.000000000000000e+00 0.000000000000000e+00 0.000000000000000e+00
0.000000000000000e+00 0.000000000000000e+00 0.000000000000000e+00
0.000000000000000e+00 0.000000000000000e+00 0.000000000000000e+00
0.000000000000000e+00 0.000000000000000e+00 0.000000000000000e+00
0.000000000000000e+00 0.000000000000000e+00 0.000000000000000e+00
0.000000000000000e+00 0.000000000000000e+00 0.000000000000000e+00
0.000000000000000e+00 0.000000000000000e+00 0.000000000000000e+00
0.000000000000000e+00 0.000000000000000e+00 0.000000000000000e+00
0.000000000000000e+00 0.000000000000000e+00 0.000000000000000e+00
0.000000000000000e+00 0.000000000000000e+00 0.000000000000000e+00
0.000000000000000e+00 0.000000000000000e+00 0.000000000000000e+00
0.000000000000000e+00 0.000000000000000e+00 0.000000000000000e+00
0.000000000000000e+00 0.000000000000000e+00 0.000000000000000e+00
0.000000000000000e+00 0.000000000000000e+00 0.000000000000000e+00
0.000000000000000e+00 0.000000000000000e+00 0.000000000000000e+00
0.000000000000000e+00 0.000000000000000e+00 0.000000000000000e+00
0.000000000000000e+00 0.000000000000000e+00 0.000000000000000e+00
0.000000000000000e+00 0.000000000000000e+00 0.000000000000000e+00
0.000000000000000e+00 0.000000000000000e+00 0.000000000000000e+00
0.000000000000000e+00 0.000000000000000e+00 0.000000000000000e+00
0.000000000000000e+00 0.000000000000000e+00 0.000000000000000e+00
0.000000000000000e+00 0.000000000000000e+00 0.000000000000000e+00
0.000000000000000e+00 0.000000000000000e+00 0.000000000000000e+00
0.000000000000000e+00 0.000000000000000e+00 0.000000000000000e+00
0.000000000000000e+00 0.000000000000000e+00 0.000000000000000e+00
0.000000000000000e+00 0.000000000000000e+00 0.000000000000000e+00
0.000000000000000e+00 0.000000000000000e+00 0.000000000000000e+00
0.000000000000000e+00 0.000000000000000e+00 0.000000000000000e+00
0.000000000000000e+00 0.000000000000000e+00 0.000000000000000e+00
0.000000000000000e+00 0.000000000000000e+00 0.000000000000000e+00
0.000000000000000e+00 0.000000000000000e+00 0.000000000000000e+00
0.000000000000000e+00 0.000000000000000e+00 0.000000000000000e+00
0.000000000000000e+00 0.000000000000000e+00 0.000000000000000e+00
0.000000000000000e+00 0.000000000000000e+00 0.000000000000000e+00
0.000000000000000e+00 0.000000000000000e+00 0.000000000000000e+00
0.000000000000000e+00 0.000000000000000e+00 0.000000000000000e+00
0.000000000000000e+00 0.000000000000000e+00 0.000000000000000e+00
0.000000000000000e+00 0.000000000000000e+00 0.000000000000000e+00
0.000000000000000e+00 0.000000000000000e+00 0.000000000000000e+00
0.000000000000000e+00 0.000000000000000e+00 0.000000000000000e+00
0.000000000000000e+00 0.000000000000000e+00 0.000000000000000e+00
0.000000000000000e+00 0.000000000000000e+00 0.000000000000000e+00
0.000000000000000e+00 0.000000000000000e+00 0.000000000000000e+00
0.000000000000000e+00 0.000000000000000e+00 0.000000000000000e+00
0.000000000000000e+00 0.000000000000000e+00 0.000000000000000e+00
0.000000000000000e+00 0.000000000000000e+00 0.000000000000000e+00
0.000000000000000e+00 0.000000000000000e+00 0.000000000000000e+00
0.000000000000000e+00 0.000000000000000e+00 0.000000000000000e+00
0.000000000000000e+00 0.000000000000000e+00 0.000000000000000e+00
0.000000000000000e+00 0.000000000000000e+00 0.000000000000000e+00
0.000000000000000e+00 0.000000000000000e+00 0.000000000000000e+00
0.000000000000000e+00 0.000000000000000e+00 0.000000000000000e+00
0.000000000000000e+00 0.000000000000000e+00 0.000000000000000e+00
0.000000000000000e+00 0.000000000000000e+00 0.000000000000000e+00
0.000000000000000e+00 0.000000000000000e+00 0.000000000000000e+00
0.000000000000000e+00 0.000000000000000e+00 0.000000000000000e+00
0.000000000000000e+00 0.000000000000000e+00 0.000000000000000e+00
0.000000000000000e+00 0.000000000000000e+00 0.000000000000000e+00
0.000000000000000e+00 0.000000000000000e+00 0.000000000000000e+00
0.000000000000000e+00 0.000000000000000e+00 0.000000000000000e+00
0.000000000000000e+00 0.000000000000000e+00 0.000000000000000e+00
0.000000000000000e+00 0.000000000000000e+00 0.000000000000000e+00
0.000000000000000e+00 0.000000000000000e+00 0.000000000000000e+00
0.000000000000000e+00 0.000000000000000e+00 0.000000000000000e+00
0.000000000000000e+00 0.000000000000000e+00 0.000000000000000e+00
0.000000000000000e+00 0.000000000000000e+00 0.000000000000000e+00
0.000000000000000e+00 0.000000000000000e+00 0.000000000000000e+00
0.000000000000000e+00 0.000000000000000e+00 0.000000000000000e+00
0.000000000000000e+00 0.000000000000000e+00 0.000000000000000e+00
0.000000000000000e+00 0.000000000000000e+00 0.000000000000000e+00
0.000000000000000e+00 0.000000000000000e+00 0.000000000000000e+00
0.000000000000000e+00 0.000000000000000e+00 0.000000000000000e+00
0.000000000000000e+00 0.000000000000000e+00 0.000000000000000e+00
0.000000000000000e+00 0.000000000000000e+00 0.000000000000000e+00
0.000000000000000e+00 0.000000000000000e+00 0.000000000000000e+00
0.000000000000000e+00 0.000000000000000e+00 0.000000000000000e+00
0.000000000000000e+00 0.000000000000000e+00 0.000000000000000e+00
0.000000000000000e+00 0.000000000000000e+00 0.000000000000000e+00
0.000000000000000e+00 0.000000000000000e+00 0.000000000000000e+00
0.000000000000000e+00 0.000000000000000e+00 0.000000000000000e+00
0.000000000000000e+00 0.000000000000000e+00 0.000000000000000e+00
0.000000000000000e+00 0.000000000000000e+00 0.000000000000000e+00
0.000000000000000e+00 0.000000000000000e+00 0.000000000000000e+00
0.000000000000000e+00 0.000000000000000e+00 0.000000000000000e+00
0.000000000000000e+00 0.000000000000000e+00 0.000000000000000e+00
0.000000000000000e+00 0.000000000000000e+00 0.000000000000000e+00
0.000000000000000e+00 0.000000000000000e+00 0.000000000000000e+00
0.000000000000000e+00 0.000000000000000e+00 0.000000000000000e+00
0.000000000000000e+00 0.000000000000000e+00 0.000000000000000e+00
0.000000000000000e+00 0.000000000000000e+00 0.000000000000000e+00
0.000000000000000e+00 0.000000000000000e+00 0.000000000000000e+00
0.000000000000000e+00 0.000000000000000e+00 0.000000000000000e+00
0.000000000000000e+00 0.000000000000000e+00 0.000000000000000e+00
0.000000000000000e+00 0.000000000000000e+00 0.000000000000000e+00
0.000000000000000e+00 0.000000000000000e+00 0.000000000000000e+00
0.000000000000000e+00 0.000000000000000e+00 0.000000000000000e+00
0.000000000000000e+00 0.000000000000000e+00 0.000000000000000e+00
0.000000000000000e+00 0.000000000000000e+00 0.000000000000000e+00
0.000000000000000e+00 0.000000000000000e+00 0.000000000000000e+00
0.000000000000000e+00 0.000000000000000e+00 0.000000000000000e+00
0.000000000000000e+00 0.000000000000000e+00 0.000000000000000e+00
0.000000000000000e+00 0.000000000000000e+00 0.000000000000000e+00
0.000000000000000e+00 0.000000000000000e+00 0.000000000000000e+00
0.000000000000000e+00 0.000000000000000e+00 0.000000000000000e+00
0.000000000000000e+00 0.000000000000000e+00 0.000000000000000e+00
0.000000000000000e+00 0.000000000000000e+00 0.000000000000000e+00
0.000000000000000e+00 0.000000000000000e+00 0.000000000000000e+00
0.000000000000000e+00 0.000000000000000e+00 0.000000000000000e+00
0.000000000000000e+00 0.000000000000000e+00 0.000000000000000e+00
0.000000000000000e+00 0.000000000000000e+00 0.000000000000000e+00
0.000000000000000e+00 0.000000000000000e+00 0.000000000000000e+00
0.000000000000000e+00 0.000000000000000e+00 0.000000000000000e+00
0.000000000000000e+00 0.000000000000000e+00 0.000000000000000e+00
0.000000000000000e+00 0.000000000000000e+00 0.000000000000000e+00
0.000000000000000e+00 0.000000000000000e+00 0.000000000000000e+00
0.000000000000000e+00 0.000000000000000e+00 0.000000000000000e+00
0.000000000000000e+00 0.000000000000000e+00 0.000000000000000e+00
0.000000000000000e+00 0.000000000000000e+00 0.000000000000000e+00
0.000000000000000e+00 0.000000000000000e+00 0.000000000000000e+00
0.000000000000000e+00 0.000000000000000e+00 0.000000000000000e+00
0.000000000000000e+00 0.000000000000000e+00 0.000000000000000e+00
0.000000000000000e+00 0.000000000000000e+00 0.000000000000000e+00
0.000000000000000e+00 0.000000000000000e+00 0.000000000000000e+00
0.000000000000000e+00 0.000000000000000e+00 0.000000000000000e+00
0.000000000000000e+00 0.000000000000000e+00 0.000000000000000e+00
0.000000000000000e+00 0.000000000000000e+00 0.000000000000000e+00
0.000000000000000e+00 0.000000000000000e+00 0.000000000000000e+00
0.000000000000000e+00 0.000000000000000e+00 0.000000000000000e+00
0.000000000000000e+00 0.000000000000000e+00 0.000000000000000e+00
0.000000000000000e+00 0.000000000000000e+00 0.000000000000000e+00
0.000000000000000e+00 0.000000000000000e+00 0.000000000000000e+00
0.000000000000000e+00 0.000000000000000e+00 0.000000000000000e+00
0.000000000000000e+00 0.000000000000000e+00 0.000000000000000e+00
0.000000000000000e+00 0.000000000000000e+00 0.000000000000000e+00
0.000000000000000e+00 0.000000000000000e+00 0.000000000000000e+00
0.000000000000000e+00 0.000000000000000e+00 0.000000000000000e+00
0.000000000000000e+00 0.000000000000000e+00 0.000000000000000e+00
0.000000000000000e+00 0.000000000000000e+00 0.000000000000000e+00
0.000000000000000e+00 0.000000000000000e+00 0.000000000000000e+00
0.000000000000000e+00 0.000000000000000e+00 0.000000000000000e+00
0.000000000000000e+00 0.000000000000000e+00 0.000000000000000e+00
0.000000000000000e+00 0.000000000000000e+00 0.000000000000000e+00
0.000000000000000e+00 0.000000000000000e+00 0.000000000000000e+00
0.000000000000000e+00 0.000000000000000e+00 0.000000000000000e+00
0.000000000000000e+00 0.000000000000000e+00 0.000000000000000e+00
0.000000000000000e+00 0.000000000000000e+00 0.000000000000000e+00
0.000000000000000e+00 0.000000000000000e+00 0.000000000000000e+00
0.000000000000000e+00 0.000000000000000e+00 0.000000000000000e+00
0.000000000000000e+00 0.000000000000000e+00 0.000000000000000e+00
0.000000000000000e+00 0.000000000000000e+00 0.000000000000000e+00
0.000000000000000e+00 0.000000000000000e+00 0.000000000000000e+00
0.000000000000000e+00 0.000000000000000e+00 0.000000000000000e+00
0.000000000000000e+00 0.000000000000000e+00 0.000000000000000e+00
0.000000000000000e+00 0.000000000000000e+00 0.000000000000000e+00
0.000000000000000e+00 0.000000000000000e+00 0.000000000000000e+00
0.000000000000000e+00 0.000000000000000e+00 0.000000000000000e+00
0.000000000000000e+00 0.000000000000000e+00 0.000000000000000e+00
0.000000000000000e+00 0.000000000000000e+00 0.000000000000000e+00
0.000000000000000e+00 0.000000000000000e+00 0.000000000000000e+00
0.000000000000000e+00 0.000000000000000e+00 0.000000000000000e+00
0.000000000000000e+00 0.000000000000000e+00 0.000000000000000e+00
0.000000000000000e+00 0.000000000000000e+00 0.000000000000000e+00
0.000000000000000e+00 0.000000000000000e+00 0.000000000000000e+00
0.000000000000000e+00 0.000000000000000e+00 0.000000000000000e+00
0.000000000000000e+00 0.000000000000000e+00 0.000000000000000e+00
0.000000000000000e+00 0.000000000000000e+00 0.000000000000000e+00
0.000000000000000e+00 0.000000000000000e+00 0.000000000000000e+00
0.000000000000000e+00 0.000000000000000e+00 0.000000000000000e+00
0.000000000000000e+00 0.000000000000000e+00 0.000000000000000e+00
0.000000000000000e+00 0.000000000000000e+00 0.000000000000000e+00
0.000000000000000e+00 0.000000000000000e+00 0.000000000000000e+00
0.000000000000000e+00 0.000000000000000e+00 0.000000000000000e+00
0.000000000000000e+00 0.000000000000000e+00 0.000000000000000e+00
0.000000000000000e+00 0.000000000000000e+00 0.000000000000000e+00
0.000000000000000e+00 0.000000000000000e+00 0.000000000000000e+00
0.000000000000000e+00 0.000000000000000e+00 0.000000000000000e+00
0.000000000000000e+00 0.000000000000000e+00 0.000000000000000e+00
0.000000000000000e+00 0.000000000000000e+00 0.000000000000000e+00
0.000000000000000e+00 0.000000000000000e+00 0.000000000000000e+00
0.000000000000000e+00 0.000000000000000e+00 0.000000000000000e+00
0.000000000000000e+00 0.000000000000000e+00 0.000000000000000e+00
0.000000000000000e+00 0.000000000000000e+00 0.000000000000000e+00
0.000000000000000e+00 0.000000000000000e+00 0.000000000000000e+00
0.000000000000000e+00 0.000000000000000e+00 0.000000000000000e+00
0.000000000000000e+00 0.000000000000000e+00 0.000000000000000e+00
0.000000000000000e+00 0.000000000000000e+00 0.000000000000000e+00
0.000000000000000e+00 0.000000000000000e+00 0.000000000000000e+00
0.000000000000000e+00 0.000000000000000e+00 0.000000000000000e+00
0.000000000000000e+00 0.000000000000000e+00 0.000000000000000e+00
0.000000000000000e+00 0.000000000000000e+00 0.000000000000000e+00
0.000000000000000e+00 0.000000000000000e+00 0.000000000000000e+00
0.000000000000000e+00 0.000000000000000e+00 0.000000000000000e+00
0.000000000000000e+00 0.000000000000000e+00 0.000000000000000e+00
0.000000000000000e+00 0.000000000000000e+00 0.000000000000000e+00
0.000000000000000e+00 0.000000000000000e+00 0.000000000000000e+00
0.000000000000000e+00 0.000000000000000e+00 0.000000000000000e+00
0.000000000000000e+00 0.000000000000000e+00 0.000000000000000e+00
0.000000000000000e+00 0.000000000000000e+00 0.000000000000000e+00
0.000000000000000e+00 0.000000000000000e+00 0.000000000000000e+00
0.000000000000000e+00 0.000000000000000e+00 0.000000000000000e+00
0.000000000000000e+00 0.000000000000000e+00 0.000000000000000e+00
0.000000000000000e+00 0.000000000000000e+00 0.000000000000000e+00
0.000000000000000e+00 0.000000000000000e+00 0.000000000000000e+00
0.000000000000000e+00 0.000000000000000e+00 0.000000000000000e+00
0.000000000000000e+00 0.000000000000000e+00 0.000000000000000e+00
0.000000000000000e+00 0.000000000000000e+00 0.000000000000000e+00
0.000000000000000e+00 0.000000000000000e+00 0.000000000000000e+00
0.000000000000000e+00 0.000000000000000e+00 0.000000000000000e+00
0.000000000000000e+00 0.000000000000000e+00 0.000000000000000e+00
0.000000000000000e+00 0.000000000000000e+00 0.000000000000000e+00
0.000000000000000e+00 0.000000000000000e+00 0.000000000000000e+00
0.000000000000000e+00 0.000000000000000e+00 0.000000000000000e+00
0.000000000000000e+00 0.000000000000000e+00 0.000000000000000e+00
0.000000000000000e+00 0.000000000000000e+00 0.000000000000000e+00
0.000000000000000e+00 0.000000000000000e+00 0.000000000000000e+00
0.000000000000000e+00 0.000000000000000e+00 0.000000000000000e+00
0.000000000000000e+00 0.000000000000000e+00 0.000000000000000e+00
0.000000000000000e+00 0.000000000000000e+00 0.000000000000000e+00
0.000000000000000e+00 0.000000000000000e+00 0.000000000000000e+00
0.000000000000000e+00 0.000000000000000e+00 0.000000000000000e+00
0.000000000000000e+00 0.000000000000000e+00 0.000000000000000e+00
0.000000000000000e+00 0.000000000000000e+00 0.000000000000000e+00
0.000000000000000e+00 0.000000000000000e+00 0.000000000000000e+00
0.000000000000000e+00 0.000000000000000e+00 0.000000000000000e+00
0.000000000000000e+00 0.000000000000000e+00 0.000000000000000e+00
0.000000000000000e+00 0.000000000000000e+00 0.000000000000000e+00
0.000000000000000e+00 0.000000000000000e+00 0.000000000000000e+00
0.000000000000000e+00 0.000000000000000e+00 0.000000000000000e+00
0.000000000000000e+00 0.000000000000000e+00 0.000000000000000e+00
0.000000000000000e+00 0.000000000000000e+00 0.000000000000000e+00
0.000000000000000e+00 0.000000000000000e+00 0.000000000000000e+00
0.000000000000000e+00 0.000000000000000e+00 0.000000000000000e+00
0.000000000000000e+00 0.000000000000000e+00 0.000000000000000e+00
0.000000000000000e+00 0.000000000000000e+00 0.000000000000000e+00
0.000000000000000e+00 0.000000000000000e+00 0.000000000000000e+00
0.000000000000000e+00 0.000000000000000e+00 0.000000000000000e+00
0.000000000000000e+00 0.000000000000000e+00 0.000000000000000e+00
0.000000000000000e+00 0.000000000000000e+00 0.000000000000000e+00
0.000000000000000e+00 0.000000000000000e+00 0.000000000000000e+00
0.000000000000000e+00 0.000000000000000e+00 0.000000000000000e+00
0.000000000000000e+00 0.000000000000000e+00 0.000000000000000e+00
0.000000000000000e+00 0.000000000000000e+00 0.000000000000000e+00
0.000000000000000e+00 0.000000000000000e+00 0.000000000000000e+00
0.000000000000000e+00 0.000000000000000e+00 0.000000000000000e+00
0.000000000000000e+00 0.000000000000000e+00 0.000000000000000e+00
0.000000000000000e+00 0.000000000000000e+00 0.000000000000000e+00
0.000000000000000e+00 0.000000000000000e+00 0.000000000000000e+00
0.000000000000000e+00 0.000000000000000e+00 0.000000000000000e+00
0.000000000000000e+00 0.000000000000000e+00 0.000000000000000e+00
0.000000000000000e+00 0.000000000000000e+00 0.000000000000000e+00
0.000000000000000e+00 0.000000000000000e+00 0.000000000000000e+00
0.000000000000000e+00 0.000000000000000e+00 0.000000000000000e+00
0.000000000000000e+00 0.000000000000000e+00 0.000000000000000e+00
0.000000000000000e+00 0.000000000000000e+00 0.000000000000000e+00
0.000000000000000e+00 0.000000000000000e+00 0.000000000000000e+00
0.000000000000000e+00 0.000000000000000e+00 0.000000000000000e+00
0.000000000000000e+00 0.000000000000000e+00 0.000000000000000e+00
0.000000000000000e+00 0.000000000000000e+00 0.000000000000000e+00
0.000000000000000e+00 0.000000000000000e+00 0.000000000000000e+00
0.000000000000000e+00 0.000000000000000e+00 0.000000000000000e+00
0.000000000000000e+00 0.000000000000000e+00 0.000000000000000e+00
0.000000000000000e+00 0.000000000000000e+00 0.000000000000000e+00
0.000000000000000e+00 0.000000000000000e+00 0.000000000000000e+00
0.000000000000000e+00 0.000000000000000e+00 0.000000000000000e+00
0.000000000000000e+00 0.000000000000000e+00 0.000000000000000e+00
0.000000000000000e+00 0.000000000000000e+00 0.000000000000000e+00
0.000000000000000e+00 0.000000000000000e+00 0.000000000000000e+00
0.000000000000000e+00 0.000000000000000e+00 0.000000000000000e+00
0.000000000000000e+00 0.000000000000000e+00 0.000000000000000e+00
0.000000000000000e+00 0.000000000000000e+00 0.000000000000000e+00
0.000000000000000e+00 0.000000000000000e+00 0.000000000000000e+00
0.000000000000000e+00 0.000000000000000e+00 0.000000000000000e+00
0.000000000000000e+00 0.000000000000000e+00 0.000000000000000e+00
0.000000000000000e+00 0.000000000000000e+00 0.000000000000000e+00
0.000000000000000e+00 0.000000000000000e+00 0.000000000000000e+00
0.000000000000000e+00 0.000000000000000e+00 0.000000000000000e+00
0.000000000000000e+00 0.000000000000000e+00 0.000000000000000e+00
0.000000000000000e+00 0.000000000000000e+00 0.000000000000000e+00
0.000000000000000e+00 0.000000000000000e+00 0.000000000000000e+00
0.000000000000000e+00 0.000000000000000e+00 0.000000000000000e+00
0.000000000000000e+00 0.000000000000000e+00 0.000000000000000e+00
0.000000000000000e+00 0.000000000000000e+00 0.000000000000000e+00
0.000000000000000e+00 0.000000000000000e+00 0.000000000000000e+00
0.000000000000000e+00 0.000000000000000e+00 0.000000000000000e+00
0.000000000000000e+00 0.000000000000000e+00 0.000000000000000e+00
0.000000000000000e+00 0.000000000000000e+00 0.000000000000000e+00
0.000000000000000e+00 0.000000000000000e+00 0.000000000000000e+00
0.000000000000000e+00 0.000000000000000e+00 0.000000000000000e+00
0.000000000000000e+00 0.000000000000000e+00 0.000000000000000e+00
0.000000000000000e+00 0.000000000000000e+00 0.000000000000000e+00
0.000000000000000e+00 0.000000000000000e+00 0.000000000000000e+00
0.000000000000000e+00 0.000000000000000e+00 0.000000000000000e+00
0.000000000000000e+00 0.000000000000000e+00 0.000000000000000e+00
0.000000000000000e+00 0.000000000000000e+00 0.000000000000000e+00
0.000000000000000e+00 0.000000000000000e+00 0.000000000000000e+00
0.000000000000000e+00 0.000000000000000e+00 0.000000000000000e+00
0.000000000000000e+00 0.000000000000000e+00 0.000000000000000e+00
0.000000000000000e+00 0.000000000000000e+00 0.000000000000000e+00
0.000000000000000e+00 0.000000000000000e+00 0.000000000000000e+00
0.000000000000000e+00 0.000000000000000e+00 0.000000000000000e+00
0.000000000000000e+00 0.000000000000000e+00 0.000000000000000e+00
0.000000000000000e+00 0.000000000000000e+00 0.000000000000000e+00
0.000000000000000e+00 0.000000000000000e+00 0.000000000000000e+00
0.000000000000000e+00 0.000000000000000e+00 0.000000000000000e+00
0.000000000000000e+00 0.000000000000000e+00 0.000000000000000e+00
0.000000000000000e+00 0.000000000000000e+00 0.000000000000000e+00
0.000000000000000e+00 0.000000000000000e+00 0.000000000000000e+00
0.000000000000000e+00 0.000000000000000e+00 0.000000000000000e+00
0.000000000000000e+00 0.000000000000000e+00 0.000000000000000e+00
0.000000000000000e+00 0.000000000000000e+00 0.000000000000000e+00
0.000000000000000e+00 0.000000000000000e+00 0.000000000000000e+00
0.000000000000000e+00 0.000000000000000e+00 0.000000000000000e+00
0.000000000000000e+00 0.000000000000000e+00 0.000000000000000e+00
0.000000000000000e+00 0.000000000000000e+00 0.000000000000000e+00
0.000000000000000e+00 0.000000000000000e+00 0.000000000000000e+00
0.000000000000000e+00 0.000000000000000e+00 0.000000000000000e+00
0.000000000000000e+00 0.000000000000000e+00 0.000000000000000e+00
0.000000000000000e+00 0.000000000000000e+00 0.000000000000000e+00
0.000000000000000e+00 0.000000000000000e+00 0.000000000000000e+00
0.000000000000000e+00 0.000000000000000e+00 0.000000000000000e+00
0.000000000000000e+00 0.000000000000000e+00 0.000000000000000e+00
0.000000000000000e+00 0.000000000000000e+00 0.000000000000000e+00
0.000000000000000e+00 0.000000000000000e+00 0.000000000000000e+00
0.000000000000000e+00 0.000000000000000e+00 0.000000000000000e+00
0.000000000000000e+00 0.000000000000000e+00 0.000000000000000e+00
0.000000000000000e+00 0.000000000000000e+00 0.000000000000000e+00
0.000000000000000e+00 0.000000000000000e+00 0.000000000000000e+00
0.000000000000000e+00 0.000000000000000e+00 0.000000000000000e+00
0.000000000000000e+00 0.000000000000000e+00 0.000000000000000e+00
0.000000000000000e+00 0.000000000000000e+00 0.000000000000000e+00
0.000000000000000e+00 0.000000000000000e+00 0.000000000000000e+00
0.000000000000000e+00 0.000000000000000e+00 0.000000000000000e+00
0.000000000000000e+00 0.000000000000000e+00 0.000000000000000e+00
0.000000000000000e+00 0.000000000000000e+00 0.000000000000000e+00
0.000000000000000e+00 0.000000000000000e+00 0.000000000000000e+00
0.000000000000000e+00 0.000000000000000e+00 0.000000000000000e+00
0.000000000000000e+00 0.000000000000000e+00 0.000000000000000e+00
0.000000000000000e+00 0.000000000000000e+00 0.000000000000000e+00
0.000000000000000e+00 0.000000000000000e+00 0.000000000000000e+00
0.000000000000000e+00 0.000000000000000e+00 0.000000000000000e+00
0.000000000000000e+00 0.000000000000000e+00 0.000000000000000e+00
0.000000000000000e+00 0.000000000000000e+00 0.000000000000000e+00
0.000000000000000e+00 0.000000000000000e+00 0.000000000000000e+00
0.000000000000000e+00 0.000000000000000e+00 0.000000000000000e+00
0.000000000000000e+00 0.000000000000000e+00 0.000000000000000e+00
0.000000000000000e+00 0.000000000000000e+00 0.000000000000000e+00
0.000000000000000e+00 0.000000000000000e+00 0.000000000000000e+00
0.000000000000000e+00 0.000000000000000e+00 0.000000000000000e+00
0.000000000000000e+00 0.000000000000000e+00 0.000000000000000e+00
0.000000000000000e+00 0.000000000000000e+00 0.000000000000000e+00
0.000000000000000e+00 0.000000000000000e+00 0.000000000000000e+00
0.000000000000000e+00 0.000000000000000e+00 0.000000000000000e+00
0.000000000000000e+00 0.000000000000000e+00 0.000000000000000e+00
0.000000000000000e+00 0.000000000000000e+00 0.000000000000000e+00
0.000000000000000e+00 0.000000000000000e+00 0.000000000000000e+00
0.000000000000000e+00 0.000000000000000e+00 0.000000000000000e+00
0.000000000000000e+00 0.000000000000000e+00 0.000000000000000e+00
0.000000000000000e+00 0.000000000000000e+00 0.000000000000000e+00
0.000000000000000e+00 0.000000000000000e+00 0.000000000000000e+00
0.000000000000000e+00 0.000000000000000e+00 0.000000000000000e+00
0.000000000000000e+00 0.000000000000000e+00 0.000000000000000e+00
0.000000000000000e+00 0.000000000000000e+00 0.000000000000000e+00
0.000000000000000e+00 0.000000000000000e+00 0.000000000000000e+00
0.000000000000000e+00 0.000000000000000e+00 0.000000000000000e+00
0.000000000000000e+00 0.000000000000000e+00 0.000000000000000e+00
0.000000000000000e+00 0.000000000000000e+00 0.000000000000000e+00
0.000000000000000e+00 0.000000000000000e+00 0.000000000000000e+00
0.000000000000000e+00 0.000000000000000e+00 0.000000000000000e+00
0.000000000000000e+00 0.000000000000000e+00 0.000000000000000e+00
0.000000000000000e+00 0.000000000000000e+00 0.000000000000000e+00
0.000000000000000e+00 0.000000000000000e+00 0.000000000000000e+00
0.000000000000000e+00 0.000000000000000e+00 0.000000000000000e+00
0.000000000000000e+00 0.000000000000000e+00 0.000000000000000e+00
0.000000000000000e+00 0.000000000000000e+00 0.000000000000000e+00
0.000000000000000e+00 0.000000000000000e+00 0.000000000000000e+00
0.000000000000000e+00 0.000000000000000e+00 0.000000000000000e+00
0.000000000000000e+00 0.000000000000000e+00 0.000000000000000e+00
0.000000000000000e+00 0.000000000000000e+00 0.000000000000000e+00
0.000000000000000e+00 0.000000000000000e+00 0.000000000000000e+00
0.000000000000000e+00 0.000000000000000e+00 0.000000000000000e+00
0.000000000000000e+00 0.000000000000000e+00 0.000000000000000e+00
0.000000000000000e+00 0.000000000000000e+00 0.000000000000000e+00
0.000000000000000e+00 0.000000000000000e+00 0.000000000000000e+00
0.000000000000000e+00 0.000000000000000e+00 0.000000000000000e+00
0.000000000000000e+00 0.000000000000000e+00 0.000000000000000e+00
0.000000000000000e+00 0.000000000000000e+00 0.000000000000000e+00
0.000000000000000e+00 0.000000000000000e+00 0.000000000000000e+00
0.000000000000000e+00 0.000000000000000e+00 0.000000000000000e+00
0.000000000000000e+00 0.000000000000000e+00 0.000000000000000e+00
0.000000000000000e+00 0.000000000000000e+00 0.000000000000000e+00
0.000000000000000e+00 0.000000000000000e+00 0.000000000000000e+00
0.000000000000000e+00 0.000000000000000e+00 0.000000000000000e+00
0.000000000000000e+00 0.000000000000000e+00 0.000000000000000e+00
0.000000000000000e+00 0.000000000000000e+00 0.000000000000000e+00
0.000000000000000e+00 0.000000000000000e+00 0.000000000000000e+00
0.000000000000000e+00 0.000000000000000e+00 0.000000000000000e+00
0.000000000000000e+00 0.000000000000000e+00 0.000000000000000e+00
0.000000000000000e+00 0.000000000000000e+00 0.000000000000000e+00
0.000000000000000e+00 0.000000000000000e+00 0.000000000000000e+00
0.000000000000000e+00 0.000000000000000e+00 0.000000000000000e+00
0.000000000000000e+00 0.000000000000000e+00 0.000000000000000e+00
0.000000000000000e+00 0.000000000000000e+00 0.000000000000000e+00
0.000000000000000e+00 0.000000000000000e+00 0.000000000000000e+00
0.000000000000000e+00 0.000000000000000e+00 0.000000000000000e+00
0.000000000000000e+00 0.000000000000000e+00 0.000000000000000e+00
0.000000000000000e+00 0.000000000000000e+00 0.000000000000000e+00
0.000000000000000e+00 0.000000000000000e+00 0.000000000000000e+00
0.000000000000000e+00 0.000000000000000e+00 0.000000000000000e+00
0.000000000000000e+00 0.000000000000000e+00 0.000000000000000e+00
0.000000000000000e+00 0.000000000000000e+00 0.000000000000000e+00
0.000000000000000e+00 0.000000000000000e+00 0.000000000000000e+00
0.000000000000000e+00 0.000000000000000e+00 0.000000000000000e+00
0.000000000000000e+00 0.000000000000000e+00 0.000000000000000e+00
0.000000000000000e+00 0.000000000000000e+00 0.000000000000000e+00
0.000000000000000e+00 0.000000000000000e+00 0.000000000000000e+00
0.000000000000000e+00 0.000000000000000e+00 0.000000000000000e+00
0.000000000000000e+00 0.000000000000000e+00 0.000000000000000e+00
0.000000000000000e+00 0.000000000000000e+00 0.000000000000000e+00
0.000000000000000e+00 0.000000000000000e+00 0.000000000000000e+00
0.000000000000000e+00 0.000000000000000e+00 0.000000000000000e+00
0.000000000000000e+00 0.000000000000000e+00 0.000000000000000e+00
0.000000000000000e+00 0.000000000000000e+00 0.000000000000000e+00
0.000000000000000e+00 0.000000000000000e+00 0.000000000000000e+00
0.000000000000000e+00 0.000000000000000e+00 0.000000000000000e+00
0.000000000000000e+00 0.000000000000000e+00 0.000000000000000e+00
0.000000000000000e+00 0.000000000000000e+00 0.000000000000000e+00
0.000000000000000e+00 0.000000000000000e+00 0.000000000000000e+00
0.000000000000000e+00 0.000000000000000e+00 0.000000000000000e+00
0.000000000000000e+00 0.000000000000000e+00 0.000000000000000e+00
0.000000000000000e+00 0.000000000000000e+00 0.000000000000000e+00
0.000000000000000e+00 0.000000000000000e+00 0.000000000000000e+00
0.000000000000000e+00 0.000000000000000e+00 0.000000000000000e+00
0.000000000000000e+00 0.000000000000000e+00 0.000000000000000e+00
0.000000000000000e+00 0.000000000000000e+00 0.000000000000000e+00
0.000000000000000e+00 0.000000000000000e+00 0.000000000000000e+00
0.000000000000000e+00 0.000000000000000e+00 0.000000000000000e+00
0.000000000000000e+00 0.000000000000000e+00 0.000000000000000e+00
0.000000000000000e+00 0.000000000000000e+00 0.000000000000000e+00
0.000000000000000e+00 0.000000000000000e+00 0.000000000000000e+00
0.000000000000000e+00 0.000000000000000e+00 0.000000000000000e+00
0.000000000000000e+00 0.000000000000000e+00 0.000000000000000e+00
0.000000000000000e+00 0.000000000000000e+00 0.000000000000000e+00
0.000000000000000e+00 0.000000000000000e+00 0.000000000000000e+00
0.000000000000000e+00 0.000000000000000e+00 0.000000000000000e+00
0.000000000000000e+00 0.000000000000000e+00 0.000000000000000e+00
0.000000000000000e+00 0.000000000000000e+00 0.000000000000000e+00
0.000000000000000e+00 0.000000000000000e+00 0.000000000000000e+00
0.000000000000000e+00 0.000000000000000e+00 0.000000000000000e+00
0.000000000000000e+00 0.000000000000000e+00 0.000000000000000e+00
0.000000000000000e+00 0.000000000000000e+00 0.000000000000000e+00
0.000000000000000e+00 0.000000000000000e+00 0.000000000000000e+00
0.000000000000000e+00 0.000000000000000e+00 0.000000000000000e+00
0.000000000000000e+00 0.000000000000000e+00 0.000000000000000e+00
0.000000000000000e+00 0.000000000000000e+00 0.000000000000000e+00
0.000000000000000e+00 0.000000000000000e+00 0.000000000000000e+00
0.000000000000000e+00 0.000000000000000e+00 0.000000000000000e+00
0.000000000000000e+00 0.000000000000000e+00 0.000000000000000e+00
0.000000000000000e+00 0.000000000000000e+00 0.000000000000000e+00
0.000000000000000e+00 0.000000000000000e+00 0.000000000000000e+00
0.000000000000000e+00 0.000000000000000e+00 0.000000000000000e+00
0.000000000000000e+00 0.000000000000000e+00 0.000000000000000e+00
0.000000000000000e+00 0.000000000000000e+00 0.000000000000000e+00
0.000000000000000e+00 0.000000000000000e+00 0.000000000000000e+00
0.000000000000000e+00 0.000000000000000e+00 0.000000000000000e+00
0.000000000000000e+00 0.000000000000000e+00 0.000000000000000e+00
0.000000000000000e+00 0.000000000000000e+00 0.000000000000000e+00
0.000000000000000e+00 0.000000000000000e+00 0.000000000000000e+00
0.000000000000000e+00 0.000000000000000e+00 0.000000000000000e+00
0.000000000000000e+00 0.000000000000000e+00 0.000000000000000e+00
0.000000000000000e+00 0.000000000000000e+00 0.000000000000000e+00
0.000000000000000e+00 0.000000000000000e+00 0.000000000000000e+00
0.000000000000000e+00 0.000000000000000e+00 0.000000000000000e+00
0.000000000000000e+00 0.000000000000000e+00 0.000000000000000e+00
0.000000000000000e+00 0.000000000000000e+00 0.000000000000000e+00
0.000000000000000e+00 0.000000000000000e+00 0.000000000000000e+00
0.000000000000000e+00 0.000000000000000e+00 0.000000000000000e+00
0.000000000000000e+00 0.000000000000000e+00 0.000000000000000e+00
0.000000000000000e+00 0.000000000000000e+00 0.000000000000000e+00
0.000000000000000e+00 0.000000000000000e+00 0.000000000000000e+00
0.000000000000000e+00 0.000000000000000e+00 0.000000000000000e+00
0.000000000000000e+00 0.000000000000000e+00 0.000000000000000e+00
0.000000000000000e+00 0.000000000000000e+00 0.000000000000000e+00
0.000000000000000e+00 0.000000000000000e+00 0.000000000000000e+00
0.000000000000000e+00 0.000000000000000e+00 0.000000000000000e+00
0.000000000000000e+00 0.000000000000000e+00 0.000000000000000e+00
0.000000000000000e+00 0.000000000000000e+00 0.000000000000000e+00
0.000000000000000e+00 0.000000000000000e+00 0.000000000000000e+00
0.000000000000000e+00 0.000000000000000e+00 0.000000000000000e+00
0.000000000000000e+00 0.000000000000000e+00 0.000000000000000e+00
0.000000000000000e+00 0.000000000000000e+00 0.000000000000000e+00
0.000000000000000e+00 0.000000000000000e+00 0.000000000000000e+00
0.000000000000000e+00 0.000000000000000e+00 0.000000000000000e+00
0.000000000000000e+00 0.000000000000000e+00 0.000000000000000e+00
0.000000000000000e+00 0.000000000000000e+00 0.000000000000000e+00
0.000000000000000e+00 0.000000000000000e+00 0.000000000000000e+00
0.000000000000000e+00 0.000000000000000e+00 0.000000000000000e+00
0.000000000000000e+00 0.000000000000000e+00 0.000000000000000e+00
0.000000000000000e+00 0.000000000000000e+00 0.000000000000000e+00
0.000000000000000e+00 0.000000000000000e+00 0.000000000000000e+00
0.000000000000000e+00 0.000000000000000e+00 0.000000000000000e+00
0.000000000000000e+00 0.000000000000000e+00 0.000000000000000e+00
0.000000000000000e+00 0.000000000000000e+00 0.000000000000000e+00
0.000000000000000e+00 0.000000000000000e+00 0.000000000000000e+00
0.000000000000000e+00 0.000000000000000e+00 0.000000000000000e+00
0.000000000000000e+00 0.000000000000000e+00 0.000000000000000e+00
0.000000000000000e+00 0.000000000000000e+00 0.000000000000000e+00
0.000000000000000e+00 0.000000000000000e+00 0.000000000000000e+00
0.000000000000000e+00 0.000000000000000e+00 0.000000000000000e+00
0.000000000000000e+00 0.000000000000000e+00 0.000000000000000e+00
0.000000000000000e+00 0.000000000000000e+00 0.000000000000000e+00
0.000000000000000e+00 0.000000000000000e+00 0.000000000000000e+00
0.000000000000000e+00 0.000000000000000e+00 0.000000000000000e+00
0.000000000000000e+00 0.000000000000000e+00 0.000000000000000e+00
0.000000000000000e+00 0.000000000000000e+00 0.000000000000000e+00
0.000000000000000e+00 0.000000000000000e+00 0.000000000000000e+00
0.000000000000000e+00 0.000000000000000e+00 0.000000000000000e+00
0.000000000000000e+00 0.000000000000000e+00 0.000000000000000e+00
0.000000000000000e+00 0.000000000000000e+00 0.000000000000000e+00
0.000000000000000e+00 0.000000000000000e+00 0.000000000000000e+00
0.000000000000000e+00 0.000000000000000e+00 0.000000000000000e+00
0.000000000000000e+00 0.000000000000000e+00 0.000000000000000e+00
0.000000000000000e+00 0.000000000000000e+00 0.000000000000000e+00
0.000000000000000e+00 0.000000000000000e+00 0.000000000000000e+00
0.000000000000000e+00 0.000000000000000e+00 0.000000000000000e+00
0.000000000000000e+00 0.000000000000000e+00 0.000000000000000e+00
0.000000000000000e+00 0.000000000000000e+00 0.000000000000000e+00
0.000000000000000e+00 0.000000000000000e+00 0.000000000000000e+00
0.000000000000000e+00 0.000000000000000e+00 0.000000000000000e+00
0.000000000000000e+00 0.000000000000000e+00 0.000000000000000e+00
0.000000000000000e+00 0.000000000000000e+00 0.000000000000000e+00
0.000000000000000e+00 0.000000000000000e+00 0.000000000000000e+00
0.000000000000000e+00 0.000000000000000e+00 0.000000000000000e+00
0.000000000000000e+00 0.000000000000000e+00 0.000000000000000e+00
0.000000000000000e+00 0.000000000000000e+00 0.000000000000000e+00
0.000000000000000e+00 0.000000000000000e+00 0.000000000000000e+00
0.000000000000000e+00 0.000000000000000e+00 0.000000000000000e+00
0.000000000000000e+00 0.000000000000000e+00 0.000000000000000e+00
0.000000000000000e+00 0.000000000000000e+00 0.000000000000000e+00
0.000000000000000e+00 0.000000000000000e+00 0.000000000000000e+00
0.000000000000000e+00 0.000000000000000e+00 0.000000000000000e+00
0.000000000000000e+00 0.000000000000000e+00 0.000000000000000e+00
0.000000000000000e+00 0.000000000000000e+00 0.000000000000000e+00
0.000000000000000e+00 0.000000000000000e+00 0.000000000000000e+00
0.000000000000000e+00 0.000000000000000e+00 0.000000000000000e+00
0.000000000000000e+00 0.000000000000000e+00 0.000000000000000e+00
0.000000000000000e+00 0.000000000000000e+00 0.000000000000000e+00
0.000000000000000e+00 0.000000000000000e+00 0.000000000000000e+00
0.000000000000000e+00 0.000000000000000e+00 0.000000000000000e+00
0.000000000000000e+00 0.000000000000000e+00 0.000000000000000e+00
0.000000000000000e+00 0.000000000000000e+00 0.000000000000000e+00
0.000000000000000e+00 0.000000000000000e+00 0.000000000000000e+00
0.000000000000000e+00 0.000000000000000e+00 0.000000000000000e+00
0.000000000000000e+00 0.000000000000000e+00 0.000000000000000e+00
0.000000000000000e+00 0.000000000000000e+00 0.000000000000000e+00
0.000000000000000e+00 0.000000000000000e+00 0.000000000000000e+00
0.000000000000000e+00 0.000000000000000e+00 0.000000000000000e+00
0.000000000000000e+00 0.000000000000000e+00 0.000000000000000e+00
0.000000000000000e+00 0.000000000000000e+00 0.000000000000000e+00
0.000000000000000e+00 0.000000000000000e+00 0.000000000000000e+00
0.000000000000000e+00 0.000000000000000e+00 0.000000000000000e+00
0.000000000000000e+00 0.000000000000000e+00 0.000000000000000e+00
0.000000000000000e+00 0.000000000000000e+00 0.000000000000000e+00
0.000000000000000e+00 0.000000000000000e+00 0.000000000000000e+00
0.000000000000000e+00 0.000000000000000e+00 0.000000000000000e+00
0.000000000000000e+00 0.000000000000000e+00 0.000000000000000e+00
0.000000000000000e+00 0.000000000000000e+00 0.000000000000000e+00
0.000000000000000e+00 0.000000000000000e+00 0.000000000000000e+00
0.000000000000000e+00 0.000000000000000e+00 0.000000000000000e+00
0.000000000000000e+00 0.000000000000000e+00 0.000000000000000e+00
0.000000000000000e+00 0.000000000000000e+00 0.000000000000000e+00
0.000000000000000e+00 0.000000000000000e+00 0.000000000000000e+00
0.000000000000000e+00 0.000000000000000e+00 0.000000000000000e+00
0.000000000000000e+00 0.000000000000000e+00 0.000000000000000e+00
0.000000000000000e+00 0.000000000000000e+00 0.000000000000000e+00
0.000000000000000e+00 0.000000000000000e+00 0.000000000000000e+00
0.000000000000000e+00 0.000000000000000e+00 0.000000000000000e+00
0.000000000000000e+00 0.000000000000000e+00 0.000000000000000e+00
0.000000000000000e+00 0.000000000000000e+00 0.000000000000000e+00
0.000000000000000e+00 0.000000000000000e+00 0.000000000000000e+00
0.000000000000000e+00 0.000000000000000e+00 0.000000000000000e+00
0.000000000000000e+00 0.000000000000000e+00 0.000000000000000e+00
0.000000000000000e+00 0.000000000000000e+00 0.000000000000000e+00
0.000000000000000e+00 0.000000000000000e+00 0.000000000000000e+00
0.000000000000000e+00 0.000000000000000e+00 0.000000000000000e+00
0.000000000000000e+00 0.000000000000000e+00 0.000000000000000e+00
0.000000000000000e+00 0.000000000000000e+00 0.000000000000000e+00
0.000000000000000e+00 0.000000000000000e+00 0.000000000000000e+00
0.000000000000000e+00 0.000000000000000e+00 0.000000000000000e+00
0.000000000000000e+00 0.000000000000000e+00 0.000000000000000e+00
0.000000000000000e+00 0.000000000000000e+00 0.000000000000000e+00
0.000000000000000e+00 0.000000000000000e+00 0.000000000000000e+00
0.000000000000000e+00 0.000000000000000e+00 0.000000000000000e+00
0.000000000000000e+00 0.000000000000000e+00 0.000000000000000e+00
0.000000000000000e+00 0.000000000000000e+00 0.000000000000000e+00
0.000000000000000e+00 0.000000000000000e+00 0.000000000000000e+00
0.000000000000000e+00 0.000000000000000e+00 0.000000000000000e+00
0.000000000000000e+00 0.000000000000000e+00 0.000000000000000e+00
0.000000000000000e+00 0.000000000000000e+00 0.000000000000000e+00
0.000000000000000e+00 0.000000000000000e+00 0.000000000000000e+00
0.000000000000000e+00 0.000000000000000e+00 0.000000000000000e+00
0.000000000000000e+00 0.000000000000000e+00 0.000000000000000e+00
0.000000000000000e+00 0.000000000000000e+00 0.000000000000000e+00
0.000000000000000e+00 0.000000000000000e+00 0.000000000000000e+00
0.000000000000000e+00 0.000000000000000e+00 0.000000000000000e+00
0.000000000000000e+00 0.000000000000000e+00 0.000000000000000e+00
0.000000000000000e+00 0.000000000000000e+00 0.000000000000000e+00
0.000000000000000e+00 0.000000000000000e+00 0.000000000000000e+00
0.000000000000000e+00 0.000000000000000e+00 0.000000000000000e+00
0.000000000000000e+00 0.000000000000000e+00 0.000000000000000e+00
0.000000000000000e+00 0.000000000000000e+00 0.000000000000000e+00
0.000000000000000e+00 0.000000000000000e+00 0.000000000000000e+00
0.000000000000000e+00 0.000000000000000e+00 0.000000000000000e+00
0.000000000000000e+00 0.000000000000000e+00 0.000000000000000e+00
0.000000000000000e+00 0.000000000000000e+00 0.000000000000000e+00
0.000000000000000e+00 0.000000000000000e+00 0.000000000000000e+00
0.000000000000000e+00 0.000000000000000e+00 0.000000000000000e+00
0.000000000000000e+00 0.000000000000000e+00 0.000000000000000e+00
0.000000000000000e+00 0.000000000000000e+00 0.000000000000000e+00
0.000000000000000e+00 0.000000000000000e+00 0.000000000000000e+00
0.000000000000000e+00 0.000000000000000e+00 0.000000000000000e+00
0.000000000000000e+00 0.000000000000000e+00 0.000000000000000e+00
0.000000000000000e+00 0.000000000000000e+00 0.000000000000000e+00
0.000000000000000e+00 0.000000000000000e+00 0.000000000000000e+00
0.000000000000000e+00 0.000000000000000e+00 0.000000000000000e+00
0.000000000000000e+00 0.000000000000000e+00 0.000000000000000e+00
0.000000000000000e+00 0.000000000000000e+00 0.000000000000000e+00
0.000000000000000e+00 0.000000000000000e+00 0.000000000000000e+00
0.000000000000000e+00 0.000000000000000e+00 0.000000000000000e+00
0.000000000000000e+00 0.000000000000000e+00 0.000000000000000e+00
0.000000000000000e+00 0.000000000000000e+00 0.000000000000000e+00
0.000000000000000e+00 0.000000000000000e+00 0.000000000000000e+00
0.000000000000000e+00 0.000000000000000e+00 0.000000000000000e+00
0.000000000000000e+00 0.000000000000000e+00 0.000000000000000e+00
0.000000000000000e+00 0.000000000000000e+00 0.000000000000000e+00
0.000000000000000e+00 0.000000000000000e+00 0.000000000000000e+00
0.000000000000000e+00 0.000000000000000e+00 0.000000000000000e+00
0.000000000000000e+00 0.000000000000000e+00 0.000000000000000e+00
0.000000000000000e+00 0.000000000000000e+00 0.000000000000000e+00
0.000000000000000e+00 0.000000000000000e+00 0.000000000000000e+00
0.000000000000000e+00 0.000000000000000e+00 0.000000000000000e+00
0.000000000000000e+00 0.000000000000000e+00 0.000000000000000e+00
0.000000000000000e+00 0.000000000000000e+00 0.000000000000000e+00
0.000000000000000e+00 0.000000000000000e+00 0.000000000000000e+00
0.000000000000000e+00 0.000000000000000e+00 0.000000000000000e+00
0.000000000000000e+00 0.000000000000000e+00 0.000000000000000e+00
0.000000000000000e+00 0.000000000000000e+00 0.000000000000000e+00
0.000000000000000e+00 0.000000000000000e+00 0.000000000000000e+00
0.000000000000000e+00 0.000000000000000e+00 0.000000000000000e+00
0.000000000000000e+00 0.000000000000000e+00 0.000000000000000e+00
0.000000000000000e+00 0.000000000000000e+00 0.000000000000000e+00
0.000000000000000e+00 0.000000000000000e+00 0.000000000000000e+00
0.000000000000000e+00 0.000000000000000e+00 0.000000000000000e+00
0.000000000000000e+00 0.000000000000000e+00 0.000000000000000e+00
0.000000000000000e+00 0.000000000000000e+00 0.000000000000000e+00
0.000000000000000e+00 0.000000000000000e+00 0.000000000000000e+00
0.000000000000000e+00 0.000000000000000e+00 0.000000000000000e+00
0.000000000000000e+00 0.000000000000000e+00 0.000000000000000e+00
0.000000000000000e+00 0.000000000000000e+00 0.000000000000000e+00
0.000000000000000e+00 0.000000000000000e+00 0.000000000000000e+00
0.000000000000000e+00 0.000000000000000e+00 0.000000000000000e+00
0.000000000000000e+00 0.000000000000000e+00 0.000000000000000e+00
0.000000000000000e+00 0.000000000000000e+00 0.000000000000000e+00
0.000000000000000e+00 0.000000000000000e+00 0.000000000000000e+00
0.000000000000000e+00 0.000000000000000e+00 0.000000000000000e+00
0.000000000000000e+00 0.000000000000000e+00 0.000000000000000e+00
0.000000000000000e+00 0.000000000000000e+00 0.000000000000000e+00
0.000000000000000e+00 0.000000000000000e+00 0.000000000000000e+00
0.000000000000000e+00 0.000000000000000e+00 0.000000000000000e+00
0.000000000000000e+00 0.000000000000000e+00 0.000000000000000e+00
0.000000000000000e+00 0.000000000000000e+00 0.000000000000000e+00
0.000000000000000e+00 0.000000000000000e+00 0.000000000000000e+00
0.000000000000000e+00 0.000000000000000e+00 0.000000000000000e+00
0.000000000000000e+00 0.000000000000000e+00 0.000000000000000e+00
0.000000000000000e+00 0.000000000000000e+00 0.000000000000000e+00
0.000000000000000e+00 0.000000000000000e+00 0.000000000000000e+00
0.000000000000000e+00 0.000000000000000e+00 0.000000000000000e+00
0.000000000000000e+00 0.000000000000000e+00 0.000000000000000e+00
0.000000000000000e+00 0.000000000000000e+00 0.000000000000000e+00
0.000000000000000e+00 0.000000000000000e+00 0.000000000000000e+00
0.000000000000000e+00 0.000000000000000e+00 0.000000000000000e+00
0.000000000000000e+00 0.000000000000000e+00 0.000000000000000e+00
0.000000000000000e+00 0.000000000000000e+00 0.000000000000000e+00
0.000000000000000e+00 0.000000000000000e+00 0.000000000000000e+00
0.000000000000000e+00 0.000000000000000e+00 0.000000000000000e+00
0.000000000000000e+00 0.000000000000000e+00 0.000000000000000e+00
0.000000000000000e+00 0.000000000000000e+00 0.000000000000000e+00
0.000000000000000e+00 0.000000000000000e+00 0.000000000000000e+00
0.000000000000000e+00 0.000000000000000e+00 0.000000000000000e+00
0.000000000000000e+00 0.000000000000000e+00 0.000000000000000e+00
0.000000000000000e+00 0.000000000000000e+00 0.000000000000000e+00
0.000000000000000e+00 0.000000000000000e+00 0.000000000000000e+00
0.000000000000000e+00 0.000000000000000e+00 0.000000000000000e+00
0.000000000000000e+00 0.000000000000000e+00 0.000000000000000e+00
0.000000000000000e+00 0.000000000000000e+00 0.000000000000000e+00
0.000000000000000e+00 0.000000000000000e+00 0.000000000000000e+00
0.000000000000000e+00 0.000000000000000e+00 0.000000000000000e+00
0.000000000000000e+00 0.000000000000000e+00 0.000000000000000e+00
0.000000000000000e+00 0.000000000000000e+00 0.000000000000000e+00
0.000000000000000e+00 0.000000000000000e+00 0.000000000000000e+00
0.000000000000000e+00 0.000000000000000e+00 0.000000000000000e+00
0.000000000000000e+00 0.000000000000000e+00 0.000000000000000e+00
0.000000000000000e+00 0.000000000000000e+00 0.000000000000000e+00
0.000000000000000e+00 0.000000000000000e+00 0.000000000000000e+00
0.000000000000000e+00 0.000000000000000e+00 0.000000000000000e+00
0.000000000000000e+00 0.000000000000000e+00 0.000000000000000e+00
0.000000000000000e+00 0.000000000000000e+00 0.000000000000000e+00
0.000000000000000e+00 0.000000000000000e+00 0.000000000000000e+00
0.000000000000000e+00 0.000000000000000e+00 0.000000000000000e+00
0.000000000000000e+00 0.000000000000000e+00 0.000000000000000e+00
0.000000000000000e+00 0.000000000000000e+00 0.000000000000000e+00
0.000000000000000e+00 0.000000000000000e+00 0.000000000000000e+00
0.000000000000000e+00 0.000000000000000e+00 0.000000000000000e+00
0.000000000000000e+00 0.000000000000000e+00 0.000000000000000e+00
0.000000000000000e+00 0.000000000000000e+00 0.000000000000000e+00
0.000000000000000e+00 0.000000000000000e+00 0.000000000000000e+00
0.000000000000000e+00 0.000000000000000e+00 0.000000000000000e+00
0.000000000000000e+00 0.000000000000000e+00 0.000000000000000e+00
0.000000000000000e+00 0.000000000000000e+00 0.000000000000000e+00
0.000000000000000e+00 0.000000000000000e+00 0.000000000000000e+00
0.000000000000000e+00 0.000000000000000e+00 0.000000000000000e+00
0.000000000000000e+00 0.000000000000000e+00 0.000000000000000e+00
0.000000000000000e+00 0.000000000000000e+00 0.000000000000000e+00
0.000000000000000e+00 0.000000000000000e+00 0.000000000000000e+00
0.000000000000000e+00 0.000000000000000e+00 0.000000000000000e+00
0.000000000000000e+00 0.000000000000000e+00 0.000000000000000e+00
0.000000000000000e+00 0.000000000000000e+00 0.000000000000000e+00
0.000000000000000e+00 0.000000000000000e+00 0.000000000000000e+00
0.000000000000000e+00 0.000000000000000e+00 0.000000000000000e+00
0.000000000000000e+00 0.000000000000000e+00 0.000000000000000e+00
0.000000000000000e+00 0.000000000000000e+00 0.000000000000000e+00
0.000000000000000e+00 0.000000000000000e+00 0.000000000000000e+00
0.000000000000000e+00 0.000000000000000e+00 0.000000000000000e+00
0.000000000000000e+00 0.000000000000000e+00 0.000000000000000e+00
0.000000000000000e+00 0.000000000000000e+00 0.000000000000000e+00
0.000000000000000e+00 0.000000000000000e+00 0.000000000000000e+00
0.000000000000000e+00 0.000000000000000e+00 0.000000000000000e+00
0.000000000000000e+00 0.000000000000000e+00 0.000000000000000e+00
0.000000000000000e+00 0.000000000000000e+00 0.000000000000000e+00
0.000000000000000e+00 0.000000000000000e+00 0.000000000000000e+00
0.000000000000000e+00 0.000000000000000e+00 0.000000000000000e+00
0.000000000000000e+00 0.000000000000000e+00 0.000000000000000e+00
0.000000000000000e+00 0.000000000000000e+00 0.000000000000000e+00
0.000000000000000e+00 0.000000000000000e+00 0.000000000000000e+00
0.000000000000000e+00 0.000000000000000e+00 0.000000000000000e+00
0.000000000000000e+00 0.000000000000000e+00 0.000000000000000e+00
0.000000000000000e+00 0.000000000000000e+00 0.000000000000000e+00
0.000000000000000e+00 0.000000000000000e+00 0.000000000000000e+00
0.000000000000000e+00 0.000000000000000e+00 0.000000000000000e+00
0.000000000000000e+00 0.000000000000000e+00 0.000000000000000e+00
0.000000000000000e+00 0.000000000000000e+00 0.000000000000000e+00
0.000000000000000e+00 0.000000000000000e+00 0.000000000000000e+00
0.000000000000000e+00 0.000000000000000e+00 0.000000000000000e+00
0.000000000000000e+00 0.000000000000000e+00 0.000000000000000e+00
0.000000000000000e+00 0.000000000000000e+00 0.000000000000000e+00
0.000000000000000e+00 0.000000000000000e+00 0.000000000000000e+00
0.000000000000000e+00 0.000000000000000e+00 0.000000000000000e+00
0.000000000000000e+00 0.000000000000000e+00 0.000000000000000e+00
0.000000000000000e+00 0.000000000000000e+00 0.000000000000000e+00
0.000000000000000e+00 0.000000000000000e+00 0.000000000000000e+00
0.000000000000000e+00 0.000000000000000e+00 0.000000000000000e+00
0.000000000000000e+00 0.000000000000000e+00 0.000000000000000e+00
0.000000000000000e+00 0.000000000000000e+00 0.000000000000000e+00
0.000000000000000e+00 0.000000000000000e+00 0.000000000000000e+00
0.000000000000000e+00 0.000000000000000e+00 0.000000000000000e+00
0.000000000000000e+00 0.000000000000000e+00 0.000000000000000e+00
0.000000000000000e+00 0.000000000000000e+00 0.000000000000000e+00
0.000000000000000e+00 0.000000000000000e+00 0.000000000000000e+00
0.000000000000000e+00 0.000000000000000e+00 0.000000000000000e+00
0.000000000000000e+00 0.000000000000000e+00 0.000000000000000e+00
0.000000000000000e+00 0.000000000000000e+00 0.000000000000000e+00
0.000000000000000e+00 0.000000000000000e+00 0.000000000000000e+00
0.000000000000000e+00 0.000000000000000e+00 0.000000000000000e+00
0.000000000000000e+00 0.000000000000000e+00 0.000000000000000e+00
0.000000000000000e+00 0.000000000000000e+00 0.000000000000000e+00
0.000000000000000e+00 0.000000000000000e+00 0.000000000000000e+00
0.000000000000000e+00 0.000000000000000e+00 0.000000000000000e+00
0.000000000000000e+00 0.000000000000000e+00 0.000000000000000e+00
0.000000000000000e+00 0.000000000000000e+00 0.000000000000000e+00
0.000000000000000e+00 0.000000000000000e+00 0.000000000000000e+00
0.000000000000000e+00 0.000000000000000e+00 0.000000000000000e+00
0.000000000000000e+00 0.000000000000000e+00 0.000000000000000e+00
0.000000000000000e+00 0.000000000000000e+00 0.000000000000000e+00
0.000000000000000e+00 0.000000000000000e+00 0.000000000000000e+00
0.000000000000000e+00 0.000000000000000e+00 0.000000000000000e+00
0.000000000000000e+00 0.000000000000000e+00 0.000000000000000e+00
0.000000000000000e+00 0.000000000000000e+00 0.000000000000000e+00
0.000000000000000e+00 0.000000000000000e+00 0.000000000000000e+00
0.000000000000000e+00 0.000000000000000e+00 0.000000000000000e+00
0.000000000000000e+00 0.000000000000000e+00 0.000000000000000e+00
0.000000000000000e+00 0.000000000000000e+00 0.000000000000000e+00
0.000000000000000e+00 0.000000000000000e+00 0.000000000000000e+00
0.000000000000000e+00 0.000000000000000e+00 0.000000000000000e+00
0.000000000000000e+00 0.000000000000000e+00 0.000000000000000e+00
0.000000000000000e+00 0.000000000000000e+00 0.000000000000000e+00
0.000000000000000e+00 0.000000000000000e+00 0.000000000000000e+00
0.000000000000000e+00 0.000000000000000e+00 0.000000000000000e+00
0.000000000000000e+00 0.000000000000000e+00 0.000000000000000e+00
0.000000000000000e+00 0.000000000000000e+00 0.000000000000000e+00
0.000000000000000e+00 0.000000000000000e+00 0.000000000000000e+00
0.000000000000000e+00 0.000000000000000e+00 0.000000000000000e+00
0.000000000000000e+00 0.000000000000000e+00 0.000000000000000e+00
0.000000000000000e+00 0.000000000000000e+00 0.000000000000000e+00
0.000000000000000e+00 0.000000000000000e+00 0.000000000000000e+00
0.000000000000000e+00 0.000000000000000e+00 0.000000000000000e+00
0.000000000000000e+00 0.000000000000000e+00 0.000000000000000e+00
0.000000000000000e+00 0.000000000000000e+00 0.000000000000000e+00
0.000000000000000e+00 0.000000000000000e+00 0.000000000000000e+00
0.000000000000000e+00 0.000000000000000e+00 0.000000000000000e+00
0.000000000000000e+00 0.000000000000000e+00 0.000000000000000e+00
0.000000000000000e+00 0.000000000000000e+00 0.000000000000000e+00
0.000000000000000e+00 0.000000000000000e+00 0.000000000000000e+00
0.000000000000000e+00 0.000000000000000e+00 0.000000000000000e+00
0.000000000000000e+00 0.000000000000000e+00 0.000000000000000e+00
0.000000000000000e+00 0.000000000000000e+00 0.000000000000000e+00
0.000000000000000e+00 0.000000000000000e+00 0.000000000000000e+00
0.000000000000000e+00 0.000000000000000e+00 0.000000000000000e+00
0.000000000000000e+00 0.000000000000000e+00 0.000000000000000e+00
0.000000000000000e+00 0.000000000000000e+00 0.000000000000000e+00
0.000000000000000e+00 0.000000000000000e+00 0.000000000000000e+00
0.000000000000000e+00 0.000000000000000e+00 0.000000000000000e+00
0.000000000000000e+00 0.000000000000000e+00 0.000000000000000e+00
0.000000000000000e+00 0.000000000000000e+00 0.000000000000000e+00
0.000000000000000e+00 0.000000000000000e+00 0.000000000000000e+00
0.000000000000000e+00 0.000000000000000e+00 0.000000000000000e+00
0.000000000000000e+00 0.000000000000000e+00 0.000000000000000e+00
0.000000000000000e+00 0.000000000000000e+00 0.000000000000000e+00
0.000000000000000e+00 0.000000000000000e+00 0.000000000000000e+00
0.000000000000000e+00 0.000000000000000e+00 0.000000000000000e+00
0.000000000000000e+00 0.000000000000000e+00 0.000000000000000e+00
0.000000000000000e+00 0.000000000000000e+00 0.000000000000000e+00
0.000000000000000e+00 0.000000000000000e+00 0.000000000000000e+00
0.000000000000000e+00 0.000000000000000e+00 0.000000000000000e+00
0.000000000000000e+00 0.000000000000000e+00 0.000000000000000e+00
0.000000000000000e+00 0.000000000000000e+00 0.000000000000000e+00
0.000000000000000e+00 0.000000000000000e+00 0.000000000000000e+00
0.000000000000000e+00 0.000000000000000e+00 0.000000000000000e+00
0.000000000000000e+00 0.000000000000000e+00 0.000000000000000e+00
0.000000000000000e+00 0.000000000000000e+00 0.000000000000000e+00
0.000000000000000e+00 0.000000000000000e+00 0.000000000000000e+00
0.000000000000000e+00 0.000000000000000e+00 0.000000000000000e+00
0.000000000000000e+00 0.000000000000000e+00 0.000000000000000e+00
0.000000000000000e+00 0.000000000000000e+00 0.000000000000000e+00
0.000000000000000e+00 0.000000000000000e+00 0.000000000000000e+00
0.000000000000000e+00 0.000000000000000e+00 0.000000000000000e+00
0.000000000000000e+00 0.000000000000000e+00 0.000000000000000e+00
0.000000000000000e+00 0.000000000000000e+00 0.000000000000000e+00
0.000000000000000e+00 0.000000000000000e+00 0.000000000000000e+00
0.000000000000000e+00 0.000000000000000e+00 0.000000000000000e+00
0.000000000000000e+00 0.000000000000000e+00 0.000000000000000e+00
0.000000000000000e+00 0.000000000000000e+00 0.000000000000000e+00
0.000000000000000e+00 0.000000000000000e+00 0.000000000000000e+00
0.000000000000000e+00 0.000000000000000e+00 0.000000000000000e+00
0.000000000000000e+00 0.000000000000000e+00 0.000000000000000e+00
0.000000000000000e+00 0.000000000000000e+00 0.000000000000000e+00
0.000000000000000e+00 0.000000000000000e+00 0.000000000000000e+00
0.000000000000000e+00 0.000000000000000e+00 0.000000000000000e+00
0.000000000000000e+00 0.000000000000000e+00 0.000000000000000e+00
0.000000000000000e+00 0.000000000000000e+00 0.000000000000000e+00
0.000000000000000e+00 0.000000000000000e+00 0.000000000000000e+00
0.000000000000000e+00 0.000000000000000e+00 0.000000000000000e+00
0.000000000000000e+00 0.000000000000000e+00 0.000000000000000e+00
0.000000000000000e+00 0.000000000000000e+00 0.000000000000000e+00
0.000000000000000e+00 0.000000000000000e+00 0.000000000000000e+00
0.000000000000000e+00 0.000000000000000e+00 0.000000000000000e+00
0.000000000000000e+00 0.000000000000000e+00 0.000000000000000e+00
0.000000000000000e+00 0.000000000000000e+00 0.000000000000000e+00
0.000000000000000e+00 0.000000000000000e+00 0.000000000000000e+00
0.000000000000000e+00 0.000000000000000e+00 0.000000000000000e+00
0.000000000000000e+00 0.000000000000000e+00 0.000000000000000e+00
0.000000000000000e+00 0.000000000000000e+00 0.000000000000000e+00
0.000000000000000e+00 0.000000000000000e+00 0.000000000000000e+00
0.000000000000000e+00 0.000000000000000e+00 0.000000000000000e+00
0.000000000000000e+00 0.000000000000000e+00 0.000000000000000e+00
0.000000000000000e+00 0.000000000000000e+00 0.000000000000000e+00
0.000000000000000e+00 0.000000000000000e+00 0.000000000000000e+00
0.000000000000000e+00 0.000000000000000e+00 0.000000000000000e+00
0.000000000000000e+00 0.000000000000000e+00 0.000000000000000e+00
0.000000000000000e+00 0.000000000000000e+00 0.000000000000000e+00
0.000000000000000e+00 0.000000000000000e+00 0.000000000000000e+00
0.000000000000000e+00 0.000000000000000e+00 0.000000000000000e+00
0.000000000000000e+00 0.000000000000000e+00 0.000000000000000e+00
0.000000000000000e+00 0.000000000000000e+00 0.000000000000000e+00
0.000000000000000e+00 0.000000000000000e+00 0.000000000000000e+00
0.000000000000000e+00 0.000000000000000e+00 0.000000000000000e+00
0.000000000000000e+00 0.000000000000000e+00 0.000000000000000e+00
0.000000000000000e+00 0.000000000000000e+00 0.000000000000000e+00
0.000000000000000e+00 0.000000000000000e+00 0.000000000000000e+00
0.000000000000000e+00 0.000000000000000e+00 0.000000000000000e+00
0.000000000000000e+00 0.000000000000000e+00 0.000000000000000e+00
0.000000000000000e+00 0.000000000000000e+00 0.000000000000000e+00
0.000000000000000e+00 0.000000000000000e+00 0.000000000000000e+00
0.000000000000000e+00 0.000000000000000e+00 0.000000000000000e+00
0.000000000000000e+00 0.000000000000000e+00 0.000000000000000e+00
0.000000000000000e+00 0.000000000000000e+00 0.000000000000000e+00
0.000000000000000e+00 0.000000000000000e+00 0.000000000000000e+00
0.000000000000000e+00 0.000000000000000e+00 0.000000000000000e+00
0.000000000000000e+00 0.000000000000000e+00 0.000000000000000e+00
0.000000000000000e+00 0.000000000000000e+00 0.000000000000000e+00
0.000000000000000e+00 0.000000000000000e+00 0.000000000000000e+00
0.000000000000000e+00 0.000000000000000e+00 0.000000000000000e+00
0.000000000000000e+00 0.000000000000000e+00 0.000000000000000e+00
0.000000000000000e+00 0.000000000000000e+00 0.000000000000000e+00
0.000000000000000e+00 0.000000000000000e+00 0.000000000000000e+00
0.000000000000000e+00 0.000000000000000e+00 0.000000000000000e+00
0.000000000000000e+00 0.000000000000000e+00 0.000000000000000e+00
0.000000000000000e+00 0.000000000000000e+00 0.000000000000000e+00
0.000000000000000e+00 0.000000000000000e+00 0.000000000000000e+00
0.000000000000000e+00 0.000000000000000e+00 0.000000000000000e+00
0.000000000000000e+00 0.000000000000000e+00 0.000000000000000e+00
0.000000000000000e+00 0.000000000000000e+00 0.000000000000000e+00
0.000000000000000e+00 0.000000000000000e+00 0.000000000000000e+00
0.000000000000000e+00 0.000000000000000e+00 0.000000000000000e+00
0.000000000000000e+00 0.000000000000000e+00 0.000000000000000e+00
0.000000000000000e+00 0.000000000000000e+00 0.000000000000000e+00
0.000000000000000e+00 0.000000000000000e+00 0.000000000000000e+00
0.000000000000000e+00 0.000000000000000e+00 0.000000000000000e+00
0.000000000000000e+00 0.000000000000000e+00 0.000000000000000e+00
0.000000000000000e+00 0.000000000000000e+00 0.000000000000000e+00
0.000000000000000e+00 0.000000000000000e+00 0.000000000000000e+00
0.000000000000000e+00 0.000000000000000e+00 0.000000000000000e+00
0.000000000000000e+00 0.000000000000000e+00 0.000000000000000e+00
0.000000000000000e+00 0.000000000000000e+00 0.000000000000000e+00
0.000000000000000e+00 0.000000000000000e+00 0.000000000000000e+00
0.000000000000000e+00 0.000000000000000e+00 0.000000000000000e+00
0.000000000000000e+00 0.000000000000000e+00 0.000000000000000e+00
0.000000000000000e+00 0.000000000000000e+00 0.000000000000000e+00
0.000000000000000e+00 0.000000000000000e+00 0.000000000000000e+00
0.000000000000000e+00 0.000000000000000e+00 0.000000000000000e+00
0.000000000000000e+00 0.000000000000000e+00 0.000000000000000e+00
0.000000000000000e+00 0.000000000000000e+00 0.000000000000000e+00
0.000000000000000e+00 0.000000000000000e+00 0.000000000000000e+00
0.000000000000000e+00 0.000000000000000e+00 0.000000000000000e+00
0.000000000000000e+00 0.000000000000000e+00 0.000000000000000e+00
0.000000000000000e+00 0.000000000000000e+00 0.000000000000000e+00
0.000000000000000e+00 0.000000000000000e+00 0.000000000000000e+00
0.000000000000000e+00 0.000000000000000e+00 0.000000000000000e+00
0.000000000000000e+00 0.000000000000000e+00 0.000000000000000e+00
0.000000000000000e+00 0.000000000000000e+00 0.000000000000000e+00
0.000000000000000e+00 0.000000000000000e+00 0.000000000000000e+00
0.000000000000000e+00 0.000000000000000e+00 0.000000000000000e+00
0.000000000000000e+00 0.000000000000000e+00 0.000000000000000e+00
0.000000000000000e+00 0.000000000000000e+00 0.000000000000000e+00
0.000000000000000e+00 0.000000000000000e+00 0.000000000000000e+00
0.000000000000000e+00 0.000000000000000e+00 0.000000000000000e+00
0.000000000000000e+00 0.000000000000000e+00 0.000000000000000e+00
0.000000000000000e+00 0.000000000000000e+00 0.000000000000000e+00
0.000000000000000e+00 0.000000000000000e+00 0.000000000000000e+00
0.000000000000000e+00 0.000000000000000e+00 0.000000000000000e+00
0.000000000000000e+00 0.000000000000000e+00 0.000000000000000e+00
0.000000000000000e+00 0.000000000000000e+00 0.000000000000000e+00
0.000000000000000e+00 0.000000000000000e+00 0.000000000000000e+00
0.000000000000000e+00 0.000000000000000e+00 0.000000000000000e+00
0.000000000000000e+00 0.000000000000000e+00 0.000000000000000e+00
0.000000000000000e+00 0.000000000000000e+00 0.000000000000000e+00
0.000000000000000e+00 0.000000000000000e+00 0.000000000000000e+00
0.000000000000000e+00 0.000000000000000e+00 0.000000000000000e+00
0.000000000000000e+00 0.000000000000000e+00 0.000000000000000e+00
0.000000000000000e+00 0.000000000000000e+00 0.000000000000000e+00
0.000000000000000e+00 0.000000000000000e+00 0.000000000000000e+00
0.000000000000000e+00 0.000000000000000e+00 0.000000000000000e+00
0.000000000000000e+00 0.000000000000000e+00 0.000000000000000e+00
0.000000000000000e+00 0.000000000000000e+00 0.000000000000000e+00
0.000000000000000e+00 0.000000000000000e+00 0.000000000000000e+00
0.000000000000000e+00 0.000000000000000e+00 0.000000000000000e+00
0.000000000000000e+00 0.000000000000000e+00 0.000000000000000e+00
0.000000000000000e+00 0.000000000000000e+00 0.000000000000000e+00
0.000000000000000e+00 0.000000000000000e+00 0.000000000000000e+00
0.000000000000000e+00 0.000000000000000e+00 0.000000000000000e+00
0.000000000000000e+00 0.000000000000000e+00 0.000000000000000e+00
0.000000000000000e+00 0.000000000000000e+00 0.000000000000000e+00
0.000000000000000e+00 0.000000000000000e+00 0.000000000000000e+00
0.000000000000000e+00 0.000000000000000e+00 0.000000000000000e+00
0.000000000000000e+00 0.000000000000000e+00 0.000000000000000e+00
0.000000000000000e+00 0.000000000000000e+00 0.000000000000000e+00
0.000000000000000e+00 0.000000000000000e+00 0.000000000000000e+00
0.000000000000000e+00 0.000000000000000e+00 0.000000000000000e+00
0.000000000000000e+00 0.000000000000000e+00 0.000000000000000e+00
0.000000000000000e+00 0.000000000000000e+00 0.000000000000000e+00
0.000000000000000e+00 0.000000000000000e+00 0.000000000000000e+00
0.000000000000000e+00 0.000000000000000e+00 0.000000000000000e+00
0.000000000000000e+00 0.000000000000000e+00 0.000000000000000e+00
0.000000000000000e+00 0.000000000000000e+00 0.000000000000000e+00
0.000000000000000e+00 0.000000000000000e+00 0.000000000000000e+00
0.000000000000000e+00 0.000000000000000e+00 0.000000000000000e+00
0.000000000000000e+00 0.000000000000000e+00 0.000000000000000e+00
0.000000000000000e+00 0.000000000000000e+00 0.000000000000000e+00
0.000000000000000e+00 0.000000000000000e+00 0.000000000000000e+00
0.000000000000000e+00 0.000000000000000e+00 0.000000000000000e+00
0.000000000000000e+00 0.000000000000000e+00 0.000000000000000e+00
0.000000000000000e+00 0.000000000000000e+00 0.000000000000000e+00
0.000000000000000e+00 0.000000000000000e+00 0.000000000000000e+00
0.000000000000000e+00 0.000000000000000e+00 0.000000000000000e+00
0.000000000000000e+00 0.000000000000000e+00 0.000000000000000e+00
0.000000000000000e+00 0.000000000000000e+00 0.000000000000000e+00
0.000000000000000e+00 0.000000000000000e+00 0.000000000000000e+00
0.000000000000000e+00 0.000000000000000e+00 0.000000000000000e+00
0.000000000000000e+00 0.000000000000000e+00 0.000000000000000e+00
0.000000000000000e+00 0.000000000000000e+00 0.000000000000000e+00
0.000000000000000e+00 0.000000000000000e+00 0.000000000000000e+00
0.000000000000000e+00 0.000000000000000e+00 0.000000000000000e+00
0.000000000000000e+00 0.000000000000000e+00 0.000000000000000e+00
0.000000000000000e+00 0.000000000000000e+00 0.000000000000000e+00
0.000000000000000e+00 0.000000000000000e+00 0.000000000000000e+00
0.000000000000000e+00 0.000000000000000e+00 0.000000000000000e+00
0.000000000000000e+00 0.000000000000000e+00 0.000000000000000e+00
0.000000000000000e+00 0.000000000000000e+00 0.000000000000000e+00
0.000000000000000e+00 0.000000000000000e+00 0.000000000000000e+00
0.000000000000000e+00 0.000000000000000e+00 0.000000000000000e+00
0.000000000000000e+00 0.000000000000000e+00 0.000000000000000e+00
0.000000000000000e+00 0.000000000000000e+00 0.000000000000000e+00
0.000000000000000e+00 0.000000000000000e+00 0.000000000000000e+00
0.000000000000000e+00 0.000000000000000e+00 0.000000000000000e+00
0.000000000000000e+00 0.000000000000000e+00 0.000000000000000e+00
0.000000000000000e+00 0.000000000000000e+00 0.000000000000000e+00
0.000000000000000e+00 0.000000000000000e+00 0.000000000000000e+00
0.000000000000000e+00 0.000000000000000e+00 0.000000000000000e+00
0.000000000000000e+00 0.000000000000000e+00 0.000000000000000e+00
0.000000000000000e+00 0.000000000000000e+00 0.000000000000000e+00
0.000000000000000e+00 0.000000000000000e+00 0.000000000000000e+00
0.000000000000000e+00 0.000000000000000e+00 0.000000000000000e+00
0.000000000000000e+00 0.000000000000000e+00 0.000000000000000e+00
0.000000000000000e+00 0.000000000000000e+00 0.000000000000000e+00
0.000000000000000e+00 0.000000000000000e+00 0.000000000000000e+00
0.000000000000000e+00 0.000000000000000e+00 0.000000000000000e+00
0.000000000000000e+00 0.000000000000000e+00 0.000000000000000e+00
0.000000000000000e+00 0.000000000000000e+00 0.000000000000000e+00
0.000000000000000e+00 0.000000000000000e+00 0.000000000000000e+00
0.000000000000000e+00 0.000000000000000e+00 0.000000000000000e+00
0.000000000000000e+00 0.000000000000000e+00 0.000000000000000e+00
0.000000000000000e+00 0.000000000000000e+00 0.000000000000000e+00
-2.226870550580660e+01 -9.772320734117946e-01  4.063388821042033e-16
 1.149715755295649e+00  5.176435261847447e-03 -2.051374928689278e-17
-1.451926060663706e-01  2.724192069926308e-01 -2.151327727708620e-19
 2.297188468999611e+01  4.113114483967696e-01 -4.130381656290031e-16
 3.213088108319140e+01  1.293022378311463e+00 -5.850926912106537e-16
-2.230920275243879e+01 -7.384059122022927e+00  4.728873994311232e-16
 8.394332757337093e+00 -4.256338493551594e+00 -1.056548327506198e-16
-5.739451224282804e+00 -2.115268544848844e+00  1.238739966942550e-16
-7.420641926931092e+00 -1.621575777596368e+01  2.986701951781824e-16
-1.860494913782152e+01 -3.481883597965476e+00  3.668723517950918e-16
-4.237564640729507e-02 -1.644961635057999e+00  1.765550840797441e-17
 1.605128528673085e+01  8.742539120594039e+00 -3.754781819014347e-16
-1.627825495501409e+01  2.150398072091094e+00  2.675964053182800e-16
-3.149692992558780e+00 -1.683971709543900e-01  5.778276365026279e-17
-9.612770692162014e+00  8.439519018028578e-01  1.623994217846974e-16
 2.912389360621147e+01 -1.441662769590588e+01 -3.701688145361393e-16
-1.470279573169550e+01 -6.796436514212068e+00  3.314847043972164e-16
-4.934918070735603e+00  1.018536863305860e+01 -1.682820900278601e-17
 1.688402492580564e+01  1.161943897366958e+01 -4.198568779889460e-16
-2.135080663760661e+01  9.582070240175399e+00  2.815107814632833e-16
-5.799587497674828e+00 -3.674539961351944e+00  1.409651407895994e-16
 1.398851475181253e+01 -6.840352269186525e+00 -1.786601714858821e-16
 1.232618704758907e+01  2.692438642793021e+00 -2.470230306951163e-16
 7.731526752710575e+00 -1.132538979085658e+00 -1.259553144963896e-16
-5.662072622984221e-01 -2.767256797703054e-01  1.291958946699437e-17
-2.383681274478052e+00  2.440707324189113e-01  3.991271352646997e-17
 2.048792539932745e+01  6.949060977392449e+00 -4.360061484951294e-16
-2.678700750152483e+01 -5.946062688291050e+00  5.378003852762426e-16
-3.738369435963566e+00 -2.041581514741087e+01  2.762938275586409e-16
 2.918153239479193e+01 -2.749621280316606e-01 -5.164950419750423e-16
 9.991858012713978e+00  1.302402477653232e+01 -3.116341554242037e-16
-2.907333119775954e+01  5.143238767689135e+00  4.645496986573173e-16
 2.649613711995672e+01 -4.012092824306518e+00 -4.303075694974075e-16
-5.695799675032391e+00 -1.129613875641366e+01  2.174272716571897e-16
-1.291878732862830e+01  5.340274259826855e+00  1.750358525460189e-16
-1.058170858224455e+01 -1.484066733516483e+00  2.035623731077897e-16
-2.084202810377018e+01  7.784501877212088e+00  2.909258224818388e-16
 3.033338206953841e+01 -4.745733542517354e-01 -5.349426480761287e-16
 2.347447214280607e+01 -1.879350983822758e+00 -3.984465845018972e-16
 2.763816615516749e+01  1.296827051630480e+01 -6.250984032835665e-16
-3.018985574975803e+01 -7.277690914973983e+00  6.120401252030739e-16
-6.642595014723838e+00  4.863667463399699e+00  6.824048550697586e-17
 2.501018125910097e+01  2.061625992549646e+00 -4.662684668740964e-16
 1.446675048418505e+01  5.108219185520979e+00 -3.099381778917883e-16
-3.073076405930603e+01 -1.521546370059297e+00  5.625239396383297e-16
 1.959657016107485e+01 -7.381089693329812e+00 -2.729063263895268e-16
 2.459190045449496e+01  2.034227376778598e+01 -6.466516760657118e-16
-2.698524570260614e+01 -1.814859496445733e+01  6.667048569796779e-16
-2.270518590051587e+01 -1.221344930960990e+01  5.295546216737612e-16
-5.416825201289142e+00 -1.581362417185806e+01  2.588781096090363e-16
 2.940377191184952e+01  8.204083122604416e+00 -6.075691690328028e-16
-2.377087486442397e+01  2.940904975560212e+00  3.928143428953798e-16
 1.552845553990431e+01 -4.142196389966776e+00 -2.337878261777516e-16
-1.444988608031962e+01 -4.471605881056295e-01  2.617473718575554e-16
-1.134283620506850e+01  5.584960359311967e+00  1.444758616503498e-16
 2.643679163138811e+01 -8.136060225120584e+00 -3.868791788154529e-16
 1.497566248495303e+00 -1.662347118210126e+01  1.441491498055900e-16
-2.994352311107219e+01 -1.199436911876100e+00  5.452044902354980e-16
-1.373268768670465e+01  4.823010718475223e+00  1.948348752657286e-16
 1.137690036022847e+01  2.624626967403956e+00 -2.294326013863198e-16
-6.325064161952934e+00  6.374767618214539e-01  1.060122194225072e-16
-3.042375945237007e+01 -2.847627898062360e+00  5.706854324209392e-16
 1.738633241938766e-01 -1.027464415161762e+00  7.462718378427569e-18
 1.188011677707917e+01 -2.434734785013358e+01  3.873930531268052e-17
-3.168480793850829e+01  5.325827435411687e-01  5.583968580550314e-16
-1.554910207096542e+01 -5.959589032221183e-01  2.828380802285776e-16
-1.976447301764046e+01  2.183404707791406e+00  3.292986830617428e-16
 2.318422058466242e+01 -2.127823473405203e+00 -3.907282472492141e-16
 2.183274441780256e+01  1.050851691901425e+01 -4.965109238493730e-16
-3.018830818690411e+01 -3.147919201893766e+00  5.695806803575006e-16
-3.625546374988217e+00  2.107948790181319e+00  4.286251437656034e-17
 2.661893124248178e+01  4.375990883725869e-01 -4.782118053363225e-16
 2.159691874782454e+01  1.344877516788719e+01 -5.225242101198537e-16
-2.975676104181439e+01 -6.452292247845531e-01  5.361865537766918e-16
 2.235237713801765e+01 -5.831339988436516e+00 -3.378723140266433e-16
 3.515621739565912e+00  7.011052327528090e+00 -1.346006983008060e-16
-1.610882995513796e+01  8.522808733655026e+00  1.991070806982573e-16
 4.529820725488839e+00  1.217009639855994e+00 -9.311789514302661e-17
-2.505045691770437e+01  2.892114610984369e+00  4.160873351118235e-16
 1.038905231316537e+01 -3.210605584876375e+00 -1.518977723801254e-16
 2.588067722387244e+01 -1.671711273294896e+00 -4.434012967587904e-16
 2.405675295899435e+01  5.426068838627979e+00 -4.838695010269050e-16
-2.495007190525461e+01 -5.997842198201641e+00  5.056419408128599e-16
-1.884102534060296e+00 -1.773592651376573e+01  2.157600540070090e-16
 2.928154630397913e+01  7.456654680763846e-01 -5.287614865791896e-16
 1.298319093816573e+01  1.062789626593438e+01 -3.402491429766936e-16
-2.822991227908046e+01  2.952389242975997e+00  4.720502359158199e-16
 2.630119533878126e+01 -3.719951262255441e+00 -4.298399963890612e-16
 3.125083962843977e+00  4.910622722765438e+00 -1.060694614200279e-16
-1.459187739740991e+01  7.581465615876295e+00  1.817830590613836e-16
-9.596468775431392e+00 -9.219641956104384e-01  1.802534561148877e-16
-2.135567081634032e+01  7.476455579086724e+00  3.032317710587295e-16
 2.984234372137150e+01 -1.755527913880334e+00 -5.130426921423136e-16
 2.417875430408327e+01 -1.836367634254800e+00 -4.114217639612793e-16
 2.203455657211586e+01  1.055261484389870e+01 -5.005555020228657e-16
-3.005290559745239e+01 -3.105870147881345e+00  5.667389910038799e-16
-3.065276065389771e+00  1.854937193904587e+00  3.549143810497310e-17
 2.533915326347148e+01  6.971977384489233e-01 -4.581039114481779e-16
 2.459913331659411e+01  1.020140759505020e+01 -5.425866774181837e-16
-2.852102246639280e+01 -1.410440668121274e+00  5.220573813876916e-16
 2.039283841896638e+01 -4.481187101335679e+00 -3.168723155403355e-16
 1.643787673700675e+01  2.545715851447471e+01 -5.540946802217529e-16
-3.129029610370677e+01  2.122161870624549e+00  5.350437012887393e-16
-2.739906466433051e+01 -9.033078689477543e+00  5.804106405607351e-16
-1.019072178269090e+01  2.012541976592357e+01 -2.542532704834685e-17
 2.206621382444557e+01 -1.346420946924937e-01 -3.913111979298067e-16
 1.289019329221443e+01 -3.481673091885422e+00 -1.936234393875224e-16
 2.530008740981699e+01 -1.566638590523090e+00 -4.341485920745745e-16
 2.385686062042540e+01  5.040799166719736e+00 -4.763536724952884e-16
-2.497161791150635e+01 -5.964928404918627e+00  5.056872004314504e-16
-2.228447560535398e+00 -1.741183269603522e+01  2.185581382110776e-16
 2.870613814856046e+01  1.041659174422800e+00 -5.215626398850859e-16
-4.513144185439957e+00 -3.710084313854190e+00  1.184365527632205e-16
-3.006215131525455e+01  4.417652244360406e+00  4.896020700849122e-16
 2.070540585241512e+01 -1.052903185982485e+01 -2.602954179864279e-16
-8.647287330630513e-01  2.559299349910270e+00 -1.090699180933931e-17
-2.604981422860418e+01  6.918669408988600e+00  3.925007027181656e-16
-8.175458627750858e+00 -9.956634518454480e-01  1.557221185991713e-16
-2.651796519012074e+01  2.633791179328285e+00  4.448575747419880e-16
 7.091413831392035e+00 -2.243884705242952e+00 -1.031450678769718e-16
 2.557894203561110e+01 -1.525410325353460e+00 -4.395347482441355e-16
 2.499333328022676e+01  5.600623139429606e+00 -5.023305470661096e-16
-2.527022506369644e+01 -6.843284737030062e+00  5.200260631247127e-16
-5.599895544427110e-01 -1.476674018456707e+01  1.616885731624772e-16
 2.888141866542595e+01  2.226858526006629e+00 -5.368594585559299e-16
 3.426267142533851e+00  1.831074396773879e+00 -7.978813496993469e-17
-2.847618719802714e+01  2.634181802765631e+00  4.797024577138546e-16
 2.246140132790504e+01 -3.846991567546425e+00 -3.602009887014742e-16
 2.209085621106192e+01  2.352434267469106e+01 -6.348372124643520e-16
-3.133395958717083e+01 -6.105738784055201e+00  6.203594353266053e-16
-2.802848765851758e+01 -1.026312041304386e+01  6.042502054149479e-16
-4.161158272620548e+00  2.049063081578662e+01 -1.364810129386951e-16
 2.824527035169955e+01 -4.840409435023046e+00 -4.529248295290836e-16
 2.805308362053176e+01 -3.118404692763617e+00 -4.671976105689156e-16
 2.491271490496953e+01 -2.053740486098950e+00 -4.222500412642701e-16
 1.707337570110450e+01  8.177925077847510e+00 -3.878662958715999e-16
-2.966678136468137e+01 -9.584872635273927e-01  5.378038706522193e-16
 4.051878423975166e+00 -2.357601055400665e+00 -4.788451545856375e-17
 2.350013718090518e+01  6.375276515751915e-01 -4.247633381438277e-16
 6.562912954669817e-01  1.301673403903383e-02 -1.181322867695444e-17
-3.073997213325166e+01  1.411682853415714e-01  5.456040192164082e-16
 1.055207899311317e+01 -8.912240890614534e+00 -9.621679507090065e-17
-3.429318491884422e+00 -3.470766449575667e+00  9.668967766357841e-17
-2.670322993427099e+01  8.391496960439278e+00  3.889962465610005e-16
-9.024769479039652e+00 -1.038035165452340e+00  1.712719722614062e-16
-2.657696812576987e+01  2.957096897052267e+00  4.425857535827022e-16
 7.500085764763384e+00 -2.318464907591537e+00 -1.096515879163873e-16
 2.539595137008152e+01 -1.723664323702106e+00 -4.342412232545602e-16
 2.346561055246647e+01  5.609038241295464e+00 -4.752293609360954e-16
-2.538874958130181e+01 -5.925816650932204e+00  5.127086970005180e-16
-1.954340960276750e+00 -1.724601116054101e+01  2.119763283535869e-16
 2.911342411440748e+01  8.034495042694069e-01 -5.263632616519446e-16
 1.301749603100770e+01  1.065196405345498e+01 -3.411069306697093e-16
-2.852027304330488e+01  2.774261786478285e+00  4.790477469867881e-16
 2.550359108799695e+01 -3.933922124235256e+00 -4.134472044493243e-16
 6.242357482927461e+00  1.354729698701364e+01 -2.502837527931578e-16
-2.618262442778326e+01  1.116432203075579e+01  3.512416802673275e-16
 1.535332095827641e+00  2.240623884387756e-01 -2.962522569267071e-17
 1.012672022288986e+01 -1.790494063697048e+00 -1.618203898835715e-16
 1.878150779070856e+01  4.173756326556417e+00 -3.771231646417585e-16
-1.079935026520118e+01  8.441955499999475e-01  1.835135172968634e-16
-7.976735208638577e+00 -2.483100652510480e-01  1.445068137433529e-16
 1.915477922492023e+01 -2.778533201286241e+00 -3.123337256726575e-16
-3.275766752012090e+00 -1.309081366996544e+01  1.927995317701043e-16
-1.322329568115707e+01  1.318382828868042e+00  2.217784153280452e-16
-2.488896054770880e+01 -8.592033695088928e+00  5.312087664927793e-16
 9.664502393996845e+00 -4.922874115001652e+00 -1.214106052168987e-16
 2.018516744629453e+01  2.154559697678331e+00 -3.813564506467658e-16
 4.639301407711827e+00  2.835716287584137e-01 -8.547549797418865e-17
-2.453236460536932e+01 -3.602806220035908e+00  4.736002165301495e-16
-7.294335283728132e+00  1.070063664144564e+01  1.986624319101845e-17
 2.710785716641886e+01  3.444930851380948e-01 -4.859561950027485e-16
 1.379844792575122e+01  8.353442227450682e+00 -3.313884245444917e-16
-1.391026075112077e+01  1.332116438336869e-01  2.461809815704197e-16
-2.299603567962689e+01 -8.606718826116895e+00  4.976727949474789e-16
-4.689028030323255e+00 -2.156306128331101e+01  3.049994685163894e-16
 2.927901515350728e+01  2.454153228487042e+00 -5.462705328297892e-16
-2.191559363633059e+01  5.270875935128637e+00  3.358577951472678e-16
 2.880216375671437e+01 -1.512510037777196e+01 -3.571639486493713e-16
-4.066451946248091e+00 -8.283211958319988e+00  1.574743568428246e-16
-2.332552221906221e+01  1.776316448827321e+01  2.325954292820542e-16
 3.062809652001294e+01 -2.379803324235493e+00 -5.206118974568978e-16
 2.216352528354251e+01 -2.913335985652395e+00 -3.644929011088468e-16
 2.764070578483895e+01  8.904572060111262e+00 -5.833905736037695e-16
-2.347940504777022e+01 -3.225338965464466e+00  4.509832062419921e-16
-1.895512074140671e+01 -1.399763224765471e+00  3.517110427197761e-16
-3.071961459963743e+01  5.371500702147772e+00  4.915019670757051e-16
 1.572502871257417e+01 -1.439797154076543e+01 -1.319117161963624e-16
 6.985201606669157e+00  1.786074277444758e+01 -3.078226385532046e-16
 1.519985014837278e+01 -1.308710307978998e+01 -1.360342344338180e-16
 2.210403171633912e+01  1.186887862768528e+01 -5.153160273159496e-16
-2.679515703545717e+01  1.196778981094874e+01  3.538870891259592e-16
-2.537056999220412e+01 -6.138544892867298e+00  5.145708749332168e-16
-1.538785585072958e+00 -7.172209055322068e-02  2.812144343606590e-17
-4.736331990387486e+00  2.581865290331182e-01  8.163590471422009e-17
-2.460677508277989e+01 -1.272945371181711e+00  4.509859658888992e-16
-1.113552535418764e+01  1.003858546100824e+00  1.878556747252201e-16
-2.887573956011009e+01  6.153771051613541e+00  4.506504676289637e-16
-4.221945029481167e-01 -1.392822416406467e+01  1.506208983649523e-16
 2.758165499181873e+01  1.208340562916785e+01 -6.150010544521434e-16
-2.801645432317012e+01 -1.068554010394298e+01  6.083762667337037e-16
-2.497123689305540e+01 -1.499656418541411e+00  4.598013721996532e-16
-4.703889010543785e+00  3.666836910139047e+00  4.603589868209134e-17
 2.123713900188761e+01  3.606161175600956e+00 -4.149922171839515e-16
-2.144366273001697e+01 -1.405194181621650e+00  3.960534169586078e-16
-4.391210866971777e+00  1.055339840316720e+00  6.730360192413894e-17
-8.914365424224724e-01 -5.389305104070126e-01  2.140149183394786e-17
-9.458260216276710e-01 -2.700017259839794e+00  4.457379887386589e-17
-4.255425150879923e+00 -1.758096458933296e+00  9.379416906898519e-17
-1.273865935412351e+01  5.344677031843162e+00  1.717850234901845e-16
 9.616535653005146e+00  1.361384749179815e+01 -3.110150604204178e-16
-1.269840524794552e+01  1.077823065008936e+00  2.149090281485117e-16
-2.742987002353805e+01 -1.661478757800564e+01  6.588581632621362e-16
-1.123777667821108e+01  2.379859958731410e+00  1.755374443504047e-16
-3.227431100532412e+01  4.089020100751777e-01  5.701585429272954e-16
 1.245836651550273e-02 -7.152413539845410e+00  7.326673936142661e-17
 2.640784065730671e+00  4.415823354404295e+00 -9.236688331106499e-17
 1.297044642986956e+01 -6.093809045646890e+00 -1.682128916908419e-16
 1.030738151961022e+01  3.394888486907030e+00 -2.183133951681554e-16
-1.310308595880767e+01  3.622777419664102e+00  1.959623226286229e-16
 2.735917463047466e+01  1.722059314996406e+01 -6.638244865942820e-16
-1.854464305889608e+01  7.498287788303078e-02  3.292536222558388e-16
-1.813471469064782e+01 -2.071092149608435e+00  3.440085992592856e-16
-1.836823354176534e+00 -5.820561297131406e-01  3.866887792149479e-17
-5.677150410718398e-01 -6.196533799826767e-01  1.646987972937133e-17
 3.116137874404481e+00 -1.535043217859541e+00 -3.968337911899209e-17
 6.969997541426214e+00  3.985541717770410e+00 -1.649894136953184e-16
-7.782412360615283e+00  1.309878022524166e+00  1.250387903144831e-16
-2.144724786642071e+01 -1.396927570076172e+01  5.252085921845738e-16
-1.328200901404585e+00  2.417836036861027e+00 -1.205467571290059e-18
 1.561178742398965e+01  2.497651368679630e+01 -5.344549845070119e-16
-2.469960143010795e+01  1.041299173469923e+01  3.325691628889088e-16
-1.317006726103452e+01 -1.387167909164392e+01  3.769035202535100e-16
 2.173357560092152e+00 -4.493488594061912e+00  7.491472592393117e-18
-1.560675350498947e+01 -1.914133754336561e+01  4.744110847917896e-16
-2.699987578906070e+01  1.094938673590184e+01  3.679940251795031e-16
-3.200598281350582e+01 -5.889869326283761e+00  6.301009100289409e-16
-1.067207456496810e-03 -1.095035513951478e-01  1.144101440812114e-18
 2.567372992900396e+01 -3.541077886788254e+00 -4.205113599103942e-16
 3.118378496148814e+01 -6.589570117587268e+00 -4.872472115989948e-16
 2.037788976581746e+01  3.942209502175951e-01 -3.666993330675364e-16
 9.058758407377884e+00  2.342771273706706e-01 -1.636185239148416e-16
 1.937883528531623e+01  5.243548187358233e-01 -3.502570450930533e-16
 3.571554455470459e+00  5.055769951243948e-01 -6.875469173662174e-17
-1.750304715850919e+01  3.155448314776961e-01  3.082454941040141e-16
-1.483037691118315e+01 -1.438129796703768e+00  2.787005086992553e-16
 2.001312954653903e+01 -6.060259988194062e+00 -2.938905429006506e-16
 1.531875230937706e+01  4.941575726305671e+00 -3.233883656690599e-16
-3.238135628077185e+01  3.246173690827881e+00  5.429116054656689e-16
 1.915575143165032e+00 -3.006868305608503e-01 -3.100049670497543e-17
 1.573829864864784e+01 -1.148408463588517e+00 -2.682823179945466e-16
 3.207245716869207e+01  5.517843656438749e+00 -6.274614718274877e-16
-1.870006291274037e+01  1.366020959446288e+00  3.187545566525938e-16
-7.241660723494200e-01  3.246821363910386e-01  9.551408076813586e-18
-1.734350562684692e+01 -2.641977570012732e+00  3.357937304857303e-16
 2.913307694287451e+01 -8.158139924411907e+00 -4.346359312867206e-16
 9.982211428744584e+00  7.170360877105959e+00 -2.513182128196300e-16
-8.457051374056705e+00  4.479559683738617e-01  1.459007322879631e-16
 8.866776098153871e+00  1.155144654892371e+00 -1.696635490376714e-16
-1.557532712579248e+01 -2.171532105621441e+00  2.994932286537216e-16
-3.066707464693926e+01 -5.266706536355809e+00  5.998706707750017e-16
 3.805778063226417e+00 -9.899274260185182e+00  3.398308656826758e-17
-5.275497518171203e+00 -1.303592804115025e-01  9.522316542755076e-17
-8.066381493980346e+00  2.353831245668991e+01 -9.829672908344026e-17
 3.222094156784414e+01 -3.712688025911882e-01 -5.695954376582053e-16
 1.627271439469863e+01  4.613761998748462e+00 -3.369970919368684e-16
 8.839048276139141e-01 -5.483352245459410e-02 -1.516674623734053e-17
-2.616741626346234e+01 -1.076851634799486e+01  5.763229796187479e-16
-6.413795911989792e+00  1.810245751641517e+00  9.554153141007865e-17
-1.573747511831452e+01 -3.968910078063919e+00  3.208462513341761e-16
-1.379180076177677e+01  4.915093771542931e+00  1.949407430234035e-16
-1.347818536231621e+01 -3.556123586758336e+00  2.763982638796515e-16
-4.404706768932434e+00  4.526814944917977e+00  3.187563198018134e-17
 2.989243056829307e+01 -1.286594421897219e+01 -3.997785559350625e-16
-1.184710909240011e+00 -2.327913147558956e+00  4.500180572756606e-17
 1.397943318391174e+01 -5.043400985229371e+00 -1.969615757807906e-16
 3.948391999410099e+00 -2.062448925182263e+01  1.416427893325936e-16
-3.050449205048434e+01 -6.143869105247766e+00  6.059898462775267e-16
 1.606045621824299e+00  9.006175856881450e-01 -3.783501612119810e-17
 2.313068346433705e+01 -3.618415814428960e+00 -3.744601954983959e-16
 1.998973125478825e+01  1.280686515189888e+01 -4.873269993621222e-16
-1.530384354677278e+01 -1.032661445653004e+00  2.829603722125716e-16
-2.549031922046442e+01 -2.021741391241808e+01  6.613572199785181e-16
-5.688650698616072e-01 -3.320862452858855e-01  1.353569804492944e-17
-2.124414507597722e+01 -1.119022304891914e+01  4.930403792997480e-16
 6.931299231229513e+00 -1.951586557748077e+00 -1.032988948504702e-16
 2.697463512524286e+01  1.190079291150062e+01 -6.023221325110474e-16
-1.694291648310470e+01  2.764369440280202e+01  1.749049123509187e-17
-2.569234238195986e+01  8.381081243855970e+00  3.711133144531461e-16
-2.235135588283561e+01  1.164021546139333e+01  2.781700542721904e-16
 1.289656820837967e+01 -5.513879592225967e+00 -1.728567050749428e-16
 2.718606113826667e+01 -6.882276229908857e+00 -4.130954985351184e-16
 5.923868148055159e+00 -2.835597981047010e+01  1.859250916718471e-16
-2.997180346505203e+01 -6.531017079110626e+00  6.004878222791079e-16
-2.471725491161032e-01 -5.188008492260806e-01  9.729220609970181e-18
-7.642716159288904e+00 -8.140461343274573e+00  2.196515337213546e-16
-2.004404372352304e+01  2.321325785136675e+01  1.181998757508815e-16
 2.753791326553244e+01 -1.510903792464398e+01 -3.348301389807523e-16
-8.990357023455767e+00  4.385627530230257e-01  1.554880543561123e-16
-9.278167732252623e+00  1.173337145332004e+01  4.455993296370110e-17
 3.133868073061400e+01  1.493858165382467e+00 -5.730580557061221e-16
 1.648825215975063e+01  2.017798721726103e+00 -3.141602639420932e-16
-2.553219587484324e+01 -2.265995044822333e+00  4.776581574086229e-16
-2.719135456446743e+01  1.781097604174052e+01  3.009012808914365e-16
 2.318888314184994e+01 -2.721554518063910e+00 -3.847108521942578e-16
 1.199753734532121e+01  5.008626524602005e-01 -2.186566700452875e-16
 2.717340357721020e+01 -9.203202092105484e-01 -4.741271744428637e-16
-2.473901731678193e+01 -7.817515030457742e+00  5.205824499736594e-16
 3.637985306393190e+00 -6.939078588325599e+00  6.554223610791558e-18
 2.606213290956698e+01  6.851085997577358e+00 -5.341991629805474e-16
-2.510266359560444e+01 -4.062056472157634e+00  4.884679968450324e-16
-2.963351974865223e+01  1.094028254291574e+01  4.149564032838240e-16
 2.529287418933495e+01 -4.796058230552609e-01 -4.451890910346536e-16
 9.913291144154719e+00  5.854000906055175e-01 -1.824336141807512e-16
-1.939803610546669e+01 -3.142875977433838e+00  3.775031002616271e-16
 1.319800222286514e+01 -8.354339973797831e-01 -2.262904118748377e-16
 2.339084968029897e+00  6.768136225052243e-01 -4.858082124769935e-17
 2.686167959459209e+01  1.139157330182669e+00 -4.897400578908920e-16
-2.446716848637142e+01 -1.445442652669924e+01  5.839364303944686e-16
 4.245102194814266e+00 -1.000320555954367e+01  2.723264596573526e-17
 3.204067782376948e+01 -1.340059198619950e+00 -5.564334599158691e-16
 1.431475487129428e+01 -3.067766377902830e+00 -2.232279530974816e-16
 2.024584656941226e+01  4.863663000839749e+00 -4.102713603153906e-16
-1.345545813035042e+01  1.363553160730953e+00  2.254459142935118e-16
-7.457090765304924e+00  1.277360923348254e-01  1.313953834836108e-16
 2.190327805539265e+01 -4.073464834843307e+00 -3.479415887635711e-16
-1.480512403466767e+00 -1.385527621888328e+01  1.687054141771522e-16
-1.961014471388775e+01  2.136244632335639e+00  3.270367794545725e-16
-2.847613418640649e+01 -4.188382036953294e+00  5.498008793239483e-16
 2.465119940844185e+01 -1.285193116352320e+01 -3.066485745218265e-16
 1.981709474126983e+01  3.644201536969827e+00 -3.901116865550456e-16
 2.095963654518415e+01  1.788006436979322e+00 -3.913728504986076e-16
-2.600114339223672e+01 -9.733548979452395e+00  5.627300417887967e-16
 4.969280458075268e-01 -4.951474513126879e-01 -3.755967153527975e-18
 2.676226251117221e+01  2.499457229707700e+00 -5.019473996179428e-16
-2.666065282055048e+01 -1.377974980585934e+01  6.160400424049826e-16
-2.409623799680343e+01  6.847261380111262e+00  3.584681749243323e-16
 2.591232532844325e+01 -4.946181612171052e+00 -4.103205193020281e-16
 2.342950063089391e+01  1.896677670752204e+01 -6.118326520295487e-16
-3.141158662463733e+01 -1.969852462124606e-01  5.610306049260416e-16
-2.750681661841529e+01 -6.148237674338471e+00  5.526875216711068e-16
-1.771780352598094e+01 -2.047971510416542e+01  5.257310812898933e-16
 2.013789763586654e+00  1.254577091661035e+00 -4.872811482527392e-17
-1.711959212414492e+01  4.752927173178344e+00  2.558289627326057e-16
 2.801024730712704e+01 -3.735401811299277e+00 -4.600958660274243e-16
 2.577956838278512e+01 -1.932048480661951e+00 -4.389270740777403e-16
 2.586269934998300e+01  1.151380445527540e+01 -5.785577432274793e-16
-2.971266756665722e+01 -4.836800192372978e+00  5.784687268083018e-16
-6.107722125807588e+00  4.031920693978982e+00  6.726768033428453e-17
 2.986642845420257e+01 -6.295620660732625e-01 -5.250401987825648e-16
 3.613658000846816e+00  8.189495624377344e+00 -1.484534472005032e-16
-2.482548449688542e+01  7.673037966210759e+00  3.629614318231361e-16
 2.979680731803887e+01  3.539635197795925e-01 -5.339065757283963e-16
-7.375915560029999e+00 -1.959645082744981e+01  3.326096291340174e-16
-2.339179685864837e+01  8.743122822012353e+00  3.264525169650940e-16
-2.476995934074201e+01 -2.891083104082207e+00  4.705158017903712e-16
 3.499493311938327e+00  1.560756117526922e+01 -2.226396790476330e-16
 1.685089270484701e+01  3.755821356307353e+00 -3.384714362303878e-16
-1.203629920248078e+01  3.749783949394580e+00  1.756726338223191e-16
 2.986158530763953e+01 -2.796726796563133e+00 -5.026871788380989e-16
 2.571718270959148e+01 -1.703831458747194e+00 -4.401616935954092e-16
 2.762041244339468e+01  1.215668659866800e+01 -6.164437248810532e-16
-2.981910048496281e+01 -6.399240312050107e+00  5.964163321801194e-16
-9.544850515445292e+00  5.636178748945895e+00  1.119523112495289e-16
 2.102425670755735e+01  1.709910841610375e+00 -3.917204394884944e-16
-3.035859964443433e+01 -5.471243079699538e+00  5.964825287767372e-16
-1.657754878046893e+01  2.542848230059997e+00  2.688904131523353e-16
 2.410417656698783e+01 -3.403254084552326e+00 -3.939953750980782e-16
 3.027714436745923e+01  1.162922760640597e+01 -6.583039889944433e-16
 1.094862413837548e+01  2.298933297085622e+01 -4.310508713896355e-16
-2.321379748975652e+01 -1.627581606891308e+01  5.803453143196520e-16
-4.757605688645275e+00 -2.303663100434455e+01  3.213602833191286e-16
 2.422138435801259e+01  1.042411256774821e+01 -5.381523967831354e-16
-2.070868373877244e+01  5.627054149249155e+00  3.107197921081272e-16
 2.799788681790791e+01 -3.679658638400691e+00 -4.604486372182990e-16
 2.572581949573907e+01 -1.940367379672608e+00 -4.378850748415933e-16
 2.551496474370133e+01  1.119202640020237e+01 -5.690632384817135e-16
-2.985604231313839e+01 -4.538920636835084e+00  5.779596472195053e-16
-5.304279197699418e+00  3.359073583375626e+00  5.988271467404967e-17
 2.877690063061605e+01  3.426952557331640e-02 -5.124713799836189e-16
-3.043843120058834e+00 -6.057696499926205e+00  1.164094500778397e-16
-2.759412237297325e+01  9.281640994719048e+00  3.957048336179387e-16
 2.850052381141788e+01 -8.196649038053531e+00 -4.229832266223722e-16
-7.868420973242621e-01 -3.886421185257351e+00  5.393435941906713e-17
-3.298701550539420e+00  1.945468443199823e+00  3.871534739984037e-17
 1.730641492215932e+01  9.480784549986199e+00 -4.053999145207572e-16
-9.264314445448429e+00 -3.046168001998408e+01  4.778522228386198e-16
 2.301317267550205e+01  2.518377298573046e+00 -4.354222707542151e-16
-8.584855139135385e+00  2.733759453278994e+00  1.246893522897532e-16
 3.031128002257094e+01 -1.025681245327158e+00 -5.288868824226606e-16
 2.402724222227093e+01 -1.718604810179980e+00 -4.099353959755511e-16
 2.520948500944116e+01  1.115423288320636e+01 -5.632385475458640e-16
-2.996945294208339e+01 -4.710917663353759e+00  5.817451316054295e-16
-6.236799305099792e+00  3.805715380819535e+00  7.188894013337855e-17
 2.859861936521451e+01  1.362400969059169e-01 -5.103463627736342e-16
-6.628510087892588e+00 -1.009722686972839e+01  2.217075819219098e-16
-2.805267557572418e+01  9.654856787274056e+00  4.000306781527835e-16
 2.721808634890989e+01 -1.054624030822919e+01 -3.760195254735211e-16
-3.755927781641617e+00 -5.250611750913625e+00  1.207893434226186e-16
-5.715763306275363e+00  2.058346230540517e+00  8.057006626516507e-17
 1.389263221455705e+01  8.656597923253210e+00 -3.361793609600821e-16
-5.876749289714415e+00 -2.884354169581513e+01  4.009406765249467e-16
 2.643304504859863e+01  3.651618545786178e+00 -5.079266211600599e-16
-9.677898022572627e+00  3.039690147050610e+00  1.409980275024528e-16
 3.030352577348309e+01 -1.193235012222359e+00 -5.270273322227489e-16
 2.434970243153478e+01 -1.712986726354905e+00 -4.157316838125837e-16
 2.560914672603695e+01  1.128763853351571e+01 -5.717216991409693e-16
-2.977129438934209e+01 -4.892543149698755e+00  5.800847996877743e-16
-6.798577553689362e+00  4.303337914603102e+00  7.677356340306193e-17
 2.963336601543620e+01 -4.958414015020711e-01 -5.222665059268050e-16
 4.206108057246167e+00  8.010708124147833e+00 -1.571598260171989e-16
-2.793885881858191e+01  8.472097483161182e+00  4.101575953860540e-16
 2.799176837368109e+01 -7.043900087726243e+00 -4.257733934596716e-16
-9.467124786757614e-02  2.349294588491826e+00 -2.245336068854070e-17
-1.651492733478807e+01  9.939391706932694e+00  1.917791925401060e-16
-1.637775846469535e-03  9.418992463799085e-03 -6.763055138316301e-20
-3.281846075921734e+00 -1.052532008477315e+01  1.665482059948681e-16
 2.910996876282104e+01  4.870915548114882e+00 -5.680935055558156e-16
-2.145813186385783e+01  2.356475636407736e+00  3.576611215716370e-16
 1.234368453666978e+01 -4.098827157664722e+00 -1.775566302938479e-16
 2.724468018212399e+01 -1.859286428111797e+00 -4.657480898439200e-16
 2.354353774253971e+01  5.866246861103945e+00 -4.792588933346983e-16
-2.548943683484339e+01 -5.641926114843826e+00  5.115836746560051e-16
-1.940227656092739e+00 -2.125993539539018e+01  2.529667786022899e-16
 2.854374898605564e+01  1.595130462195624e-01 -5.096090000261094e-16
 2.763880258185991e+01  1.645111047867790e+01 -6.608946446453010e-16
-2.307615977354510e+01 -5.295428558954706e+00  4.650763941799533e-16
-3.087322926680037e+01 -8.217769145770395e+00  6.338605344173080e-16
-8.266949074574860e+00  1.970979881820710e+01 -5.539080289188881e-17
 3.121713582487950e+01 -3.991768932297300e+00 -5.145321934687833e-16
 2.725120015352239e+01  2.101323584194649e+00 -5.065579496220888e-16
-2.817756586136057e+01 -1.554763945198294e+01  6.611997432787109e-16
-1.540939987362586e+01  6.591408816351916e+00  2.065043206336115e-16
 3.124190708553984e+01  1.686839090763555e+00 -5.733186621571831e-16
-9.755712168474163e+00 -1.059741619690042e-02  1.737234196616899e-16
 2.967160784918219e+01 -6.422402611121611e+00 -4.620538014973858e-16
-1.460763265111831e+01 -4.945120845751609e+00  3.107695679158228e-16
-2.009349852317927e+01  1.039708425387231e+01  2.507615109025681e-16
 1.865258626190517e+01  8.806276881589550e-01 -3.409931517298333e-16
 2.964065890100547e+01  1.418471419593409e+00 -5.420651603686679e-16
-2.837919953155272e+01 -7.244096155462845e+00  5.794721640271313e-16
-1.894217249494266e+01  7.438777089859415e+00  2.606678222885718e-16
 2.535945749854011e+01 -1.477558157666454e+00 -4.361204227361648e-16
 1.013343418643633e+01 -3.861897032301054e-02 -1.799397530535338e-16
 1.689537560098108e+01  3.571799742842867e-01 -3.043432568313845e-16
-1.101418120179328e+01 -1.751495628683370e+00  2.140064739927364e-16
 2.972680082189926e+01 -1.212547093501322e+01 -4.044390710104904e-16
 1.235168576998183e+01  1.986620617783081e+01 -4.239310335555333e-16
 8.288361528376573e+00 -2.429254650762361e+01  1.020958104624276e-16
 3.254214290403569e+01 -1.508022748579868e-01 -5.775768120615841e-16
-1.082602599292860e+00  2.935222813100286e-01  1.625036981311580e-17
 1.586569122679704e+01 -3.508894097855483e+00 -2.462962884879521e-16
 2.559504662265291e+01 -1.011576970476538e+01 -3.515585265643477e-16
 1.720808374543322e+00 -8.285511641537715e-01 -2.211077545819541e-17
-3.109729637442268e+01  2.317213005035179e+00  5.296049613250701e-16
 3.383836103403642e+00  1.935520870113595e+01 -2.590871380766220e-16
 6.880644333311508e+00  4.132616329760046e+00 -1.649104049734325e-16
-2.710064167289565e+01  9.177734180447731e-01  4.728584569036652e-16
 1.110358566323527e+01 -3.201018088043263e-01 -1.943126219583960e-16
 4.932291283778017e+00  1.809571258627435e-01 -8.963527556325061e-17
 3.170684133286177e+01  2.607123023685675e+00 -5.910483047873370e-16
-1.458872467232379e+01 -2.660835113331131e+00  2.869628717957542e-16
 3.654765813520333e+00 -3.845941254360052e-01 -6.108935229091371e-17
-1.622128400816170e+01 -8.941275553537562e+00  3.805454566015213e-16
-2.774095497146321e+01  1.299694132062412e+01  3.601445336804951e-16
 3.591170062606543e+00 -9.288094944340921e-01 -5.436597482107751e-17
 6.831493277583359e+00 -2.452315848529184e-01 -1.190549063264529e-16
 2.351981955581352e+01  2.192268352587304e+00 -4.410880054293993e-16
-2.214256254288939e+01 -2.582698171741973e+00  4.205895985524559e-16
-2.740152130212191e+01  4.129705916266639e+00  4.452115291993574e-16
 1.888623585644678e+01 -7.441231907563900e+00 -2.596471406874087e-16
 3.058051275115425e+01  4.714722027259838e+00 -5.926587582784964e-16
-2.988257477979250e+01 -1.266103476626014e+01  6.618835960649669e-16
 2.549760119167714e+01  7.841807759335534e-02 -4.545659451092668e-16
-1.997145233329185e+01 -1.723796449525135e+01  5.325296402229975e-16
-3.134175692921793e+01  2.686158547155989e+00  5.301646470872158e-16
-5.836705337433854e+00  2.038763144967223e+00  8.292358306187484e-17
 7.097058463147150e+00  1.532503377722657e-01 -1.278752125838938e-16
 1.733698166618082e+01 -4.590617214149185e+00 -2.613653448180341e-16
 2.115852577994886e+01  1.318814613479075e+01 -5.120446157139876e-16
 1.228494212460206e+01 -1.072952218134015e+01 -1.083832564489116e-16
-1.433619974005147e+01 -1.774755131274018e+01  4.374794177767962e-16
-2.265670573283112e+00  1.603991481494299e+00  2.383988065365189e-17
-1.156128821063868e-01 -1.551058290280538e+00  1.799402962292935e-17
-3.189741673273777e+00  2.129304980709102e+01 -1.620130936721730e-16
-1.120663791264782e+01 -9.102885371797969e+00  2.929643297893595e-16
-8.376421185126604e+00  5.228747084719304e+00  9.534492989173456e-17
 1.453905307660446e+01  1.027030411660436e+01 -3.642634361971830e-16
 1.095831678433614e+01 -1.955286482285780e+01  5.882264294329060e-18
-1.036984120113067e+01 -4.620858236229913e+00  2.320213335362993e-16
 7.892224653898100e+00 -1.076538457731381e+01 -2.984113613441289e-17
 2.512706115320205e+01  2.058995143069389e+01 -6.587202970752638e-16
-8.377469347767368e+00 -2.539705988167060e+01  4.100326242939053e-16
-2.705561285236954e+01  1.012010597001510e+01  3.775064913349557e-16
 3.135666189609867e+01  7.257364773447131e+00 -6.325959886705142e-16
-2.662487018920701e+01 -4.989014721267460e+00  5.250816381979456e-16
-2.810359236650015e+01  3.650391448787505e+00  4.626305032910635e-16
-8.193379202933979e+00  4.562566773121719e-01  1.411230847151702e-16
-9.687883940151114e+00  7.315093245057099e-01  1.648914582534295e-16
 1.518202810133283e+01 -1.259526553895041e+00 -2.572411220436648e-16
 3.212295576696567e+01 -2.352195094224893e+00 -5.474983654104958e-16
 2.152712490741618e+01  9.496137080524090e-01 -3.928578020941080e-16
-1.030051543999310e+01 -1.154910653441202e+01  3.019728333330250e-16
 1.544819874086121e+00  3.159575444151266e-01 -3.073826138035121e-17
 1.392115357941534e+01  5.519314884227464e+00 -3.044524891192765e-16
-2.088514480924674e+01 -2.486595568934650e+01  6.271647261995557e-16
-1.776982573888452e+00  2.815490232775826e-01  2.873071062887381e-17
-2.160289744566324e+01  1.032369097951032e+01  2.783771544019352e-16
 2.778674505239870e+01 -2.155876470856644e+00 -4.723474258716723e-16
 2.593297191093070e+01  5.464715389212562e+00 -5.176561345781462e-16
-2.445110042553907e+01 -9.173424251806907e+00  5.293901001529928e-16
-3.161960611262807e+00 -2.048002797243623e+01  2.666957084469384e-16
 3.187924356119009e+01 -1.604398130967413e+00 -5.508445581442610e-16
 4.856200260358640e-01 -1.032774766787642e+01  9.747166788668616e-17
-2.279118007712895e+01  4.629662546040506e+00  3.580281349399850e-16
 1.110330286877439e+01 -3.180270088197736e-01 -1.943289070922576e-16
 1.024452970598047e+01 -1.413370102353460e-01 -1.808614398002562e-16
-1.510923074922004e+01 -1.444692034470105e+00  2.837304699601235e-16
 1.830246898157168e+00 -4.730791454209832e-01 -2.771071037784724e-17
-6.403115418974323e+00 -1.123600059980593e+00  1.254956592398908e-16
 1.961233782261867e+01 -1.397061791060552e+01 -2.054819221065218e-16
-6.680586951470235e+00 -2.700035733825347e+00  1.466309000365332e-16
-1.206268736309729e+01  5.184419329507050e+00  1.614018852614439e-16
 1.714655736372661e+01 -4.915975180746345e-01 -3.000924555256027e-16
 1.689663735565894e+01  1.507263686017599e+00 -3.161824036106852e-16
 2.178829918457057e+01  1.021070050216923e+01 -4.926600124173946e-16
 1.089816993829731e+01 -2.390898950667838e+00 -1.693803156922294e-16
-5.855424925167262e-01  1.818507196791227e+01 -1.764245812345083e-16
-2.513193849875620e+01  1.433134378150367e+01  3.000034728626637e-16
 1.691000021555327e+01 -1.318636100748663e+01 -1.654485556946431e-16
 3.225450135369768e+01 -1.319180406892821e+00 -5.604532266895447e-16
-1.291960592695067e+01  1.417356639867869e+01  8.429155264787716e-17
-2.065668921056784e+01  5.106965691850399e+00  3.151382074245220e-16
 2.420719425558767e+01 -3.023154324803566e+00 -3.997340846995834e-16
 1.779405975997861e+01  5.620493904586673e+00 -3.744150520343082e-16
-2.148972369242463e+01 -1.389002818660714e+00  3.967067663524195e-16
-2.980757048723914e+01  4.598084517320488e+00  4.832176245178037e-16
 2.269039307789102e+01 -6.888813464424571e+00 -3.330225550711134e-16
 8.201790701573811e+00  1.783157601024330e+00 -1.642819455634966e-16
 1.177580851079329e+01 -2.101680496081261e+00 -1.879705555285128e-16
 2.379864816436572e+01  9.310189253691014e+00 -5.191841445876823e-16
 3.156690858020327e+01  4.497692290800074e+00 -6.079829469779993e-16
 4.880625422145907e-01 -4.395419719914723e-01 -4.169521030805001e-18
-9.237660220664745e+00  7.472339898959115e+00  8.761960472499168e-17
-2.113793917694628e+01 -2.263440019306867e+00  3.994308658597758e-16
-1.945013196733755e+01  1.755847209736385e+01  1.657313769889655e-16
 3.226983445599573e+01  3.486782849623856e+00 -6.101056241233981e-16
-1.884109798783151e+01 -1.977902303972281e-01  3.373320359344920e-16
 9.877659950597719e+00 -7.255846839839514e-01 -1.683296222512584e-16
 8.754536080528307e-01 -2.040120474125668e-01 -1.348359155947649e-17
 2.511111293166502e+00  5.144765337076415e-01 -4.997428030823976e-17
-2.521187668120259e+01 -6.846917139742950e+00  5.190250056596858e-16
-1.011220431734037e+01  2.681863154381638e+01 -9.559295855288148e-17
 1.080734644747672e+01  5.717733605257616e+00 -2.510772571886117e-16
-1.915839971843261e+00 -7.162682846933442e-01  4.145405403228889e-17
 2.279925960604401e+01  8.841568142607803e+00 -4.965839214070186e-16
 2.788037502682735e+01 -1.707591199447601e+00 -4.786196512790763e-16
-1.342276129847963e+01 -1.624132439168883e+01  4.057477566752939e-16
 3.195191481592873e+00 -2.251234308773774e+00 -3.373162901681806e-17
-1.266592643523073e+01 -1.056987746521620e-01  2.264912858861060e-16
-1.026498949231308e+01  7.761363616606144e+00  1.029325408921992e-16
 2.800760011412055e+01  1.540667446964024e+01 -6.567266360799361e-16
-3.067541262723223e+01  1.304439808679234e-01  5.445652941487351e-16
 2.881015209966352e+01 -7.550432048179306e-01 -5.049532279642055e-16
 1.240051116617251e+01  2.738309383557734e+00 -2.488170222362996e-16
-1.911373723434902e+01 -5.254238375591200e+00  3.941371443731376e-16
-2.214703597273611e+01 -1.435098163393323e+01  5.415840460609132e-16
-3.142380377783951e-03  6.530250039006112e+00 -6.704002448921972e-17
 1.593918585287563e+01  1.010700187079954e+01 -3.875025978462142e-16
-2.749729925344489e+01 -6.907302358375497e+00  5.603172626847045e-16
-2.412791305189996e+01 -2.609722155143810e+00  4.561989406799761e-16
-2.605431502202864e+01  1.167544673722543e+01  3.437066406572572e-16
 3.106209512950526e+01 -3.077766643553159e+00 -5.211641008374903e-16
 2.140529871141997e+01  2.442636379447783e+01 -6.319048382733602e-16
-3.098504379346767e+01 -9.933146655367695e+00  6.534752880582966e-16
-3.605441724211799e+00  1.650692441683009e+00  4.720287096587643e-17
 2.649057237034962e+01  1.731132095290817e+01 -6.492988685134530e-16
-3.152992630197759e+01 -1.078262984997239e+00  5.721914092810859e-16
-3.416167291263485e+00 -5.894865702079009e-02  6.140044794164450e-17
-4.065224461909574e+00 -2.795295357046270e-01  7.521758290853036e-17
-4.073247857562436e+00 -1.232046166733877e-01  7.375418705373574e-17
-2.565061210430759e+01 -4.520636736977888e+00  5.029311398156530e-16
-1.547047140651951e+01  2.355709668955572e+01  3.327488163978266e-17
-1.309306031679671e+00  1.044767301488996e+00  1.256605816396004e-17
-4.210331050635886e+00  2.812328008725489e-01  7.203829842913753e-17
 2.245110550867494e+01  8.489789766368057e+00 -4.867737089260371e-16
 2.904378555943539e+01 -3.200137503385457e+00 -4.839885583829072e-16
 1.146986551253954e+00 -6.427160675875249e-02 -1.975162646774762e-17
 8.835124873117447e+00 -1.155552473536540e+01 -3.850276717518385e-17
-1.106488179152794e+01  2.589444473007116e-02  1.966467141373419e-16
-1.067377037632912e+01  9.080076918481558e+00  9.665798417555712e-17
 2.780743102940847e+01  1.573796765813057e+01 -6.565683056058691e-16
-3.073274003115888e+01 -1.017367131646624e-02  5.470302989752858e-16
 2.857146598145772e+01 -9.955440852428024e-01 -4.982344645926904e-16
 1.292133986233952e+01  3.165175798942148e+00 -2.624716874984263e-16
-2.335576720401017e+01 -6.636643402267688e+00  4.838328372177065e-16
-2.699903489723128e+01 -1.207665093790637e+01  6.045632328962942e-16
 1.556414918439714e+00  1.327729023479134e+01 -1.641175939361284e-16
 1.216804512522372e+01  9.009822910386269e+00 -3.091175349642449e-16
-2.747520343397613e+01 -8.435476220533904e+00  5.756254725106236e-16
-2.166645618682796e+00 -5.210774383890737e-01  4.391192463982107e-17
-2.758833539394658e+01 -1.609251699043373e+01  6.563121029849070e-16
-2.844648438759199e+01  9.727639413328610e+00  4.062911606484655e-16
 3.118572248492209e+01 -9.241778241486147e+00 -4.600312171549369e-16
-2.880988074504632e+01 -1.317526709645456e+01  6.480772767445848e-16
-5.717624007557616e+00  3.315800343351865e+00  6.768329544578547e-17
 2.422496888923857e+01  1.857725041797704e+01 -6.219867174517984e-16
-3.193031376566699e+01 -4.291296714231047e-01  5.726471728027536e-16
-8.976273381952887e-01 -1.054679547120636e-01  1.705799414869751e-17
-4.594879638212758e+00 -3.421106809668726e-01  8.528642710075393e-17
-4.048708617981466e+00 -7.800639109955922e-02  7.285308666262540e-17
-2.622812706986295e+01 -5.288274998250684e+00  5.210959117620555e-16
-1.446864276989019e+01  2.431568109193660e+01  7.651966884872214e-18
 3.493172275411465e+00  3.604712538484508e+00 -9.920227930909826e-17
-2.396014375897136e-01 -4.350143380451320e-01  8.733607691231100e-18
 1.830706410933706e+01  9.235128418381370e+00 -4.206836329273175e-16
 2.701737421662629e+01 -3.684291772480511e+00 -4.429516421151816e-16
-1.333024466559438e+01 -1.704160508248932e+01  4.123239062056438e-16
-2.315485703215781e+00  4.599220589907410e+00 -6.048490698180009e-18
 3.205087414145664e+00  5.586604432357058e+00 -1.144386847893959e-16
-1.950302701245698e+01  1.731728611940437e+01  1.691508057474744e-16
 3.242825916586213e+01  1.219994984349595e+00 -5.896345589560414e-16
-8.973523619106984e+00 -2.059698287658864e-01  1.618108219802827e-16
 8.506361754399178e+00 -4.877240865295968e-01 -1.463696663698007e-16
 9.513003524283887e-01 -1.439824422231499e-01 -1.545015723489595e-17
 2.464261453016523e+00  4.320765078431608e-01 -4.829390118974055e-17
-2.529058687203123e+01 -6.478826776858962e+00  5.166437526523740e-16
-1.155876575051722e+01  2.570233032289205e+01 -5.838008284401113e-17
 1.135937494633302e+01  5.752375503853216e+00 -2.612571957468863e-16
 2.731764553413709e+00 -2.197633191446658e+00 -2.603512609669442e-17
 2.255806476507086e+01  1.017806373957689e+01 -5.060235782903123e-16
 2.995890311704838e+01 -1.395912627582528e+00 -5.188119220899988e-16
-1.369173200671393e+01 -1.795238183983765e+01  4.281149049697807e-16
 8.602354786259895e-01 -1.909763289030291e+00  4.313207578283601e-18
 2.245032826636891e+00  4.181045139457930e+00 -8.291175707113856e-17
-2.034956303229502e+01  1.839614417267591e+01  1.731310494188061e-16
 3.242931574270047e+01 -1.061120677379068e+00 -5.662157272453434e-16
 1.512492533807646e+00  3.033537054079806e-01 -3.003345793938442e-17
 8.349233428042993e+00 -4.840050556698386e-01 -1.436115920811527e-16
 1.398339528635230e+00 -9.499834594091500e-02 -2.390904641514814e-17
-1.515933946203450e+00  1.152842102009893e-01  2.579334946164604e-17
-2.596581881127852e+01 -5.586694188538314e+00  5.194939722061284e-16
-1.317116725812777e+01  2.554190856832764e+01 -2.803719939864370e-17
 6.415825616531536e+00  4.616195495954734e+00 -1.616070017089466e-16
-2.264742857383819e+00 -6.375198726917707e-01  4.685408573134046e-17
 2.189249814531693e+01  9.107257079247509e+00 -4.831768768959566e-16
 2.649425503691750e+01 -1.792804589303137e+00 -4.530764559793544e-16
-1.657890454076463e+01 -1.766002734596957e+01  4.764917479504725e-16
 1.504648410699122e+00 -2.980776376186443e+00  3.849381155483997e-18
-8.385604235961853e+00  1.081125320788421e+00  1.381236601639630e-16
-1.771554466189912e+01  1.677710248971351e+01  1.428906156778234e-16
 3.224700438612958e+01  3.969659928510456e+00 -6.146607223676143e-16
-1.876024834238659e+01 -5.084484971253196e-01  3.390851209095876e-16
 7.411924451162196e+00 -5.516040743601324e-01 -1.262365053819707e-16
 8.925060802148360e-01 -1.390483794962646e-01 -1.445453872869481e-17
-2.437504569854317e+00  7.579012734178327e-02  4.259958535945288e-17
-2.593261943013828e+01 -5.368558631800485e+00  5.166618860089070e-16
-1.337994607177634e+01  2.614175770726396e+01 -3.048496335736634e-17
 5.387903499965937e+00  4.237233805914525e+00 -1.394202078054678e-16
-4.388885428964573e+00 -3.796436885011940e-02  7.849552155721207e-17
 4.291005535020671e+00  3.168835246176190e+00 -1.089221929824016e-16
 2.376148450304007e+01 -1.034775029635790e+01 -3.165445851998162e-16
 2.113612294726838e+00  2.082028808907745e+00 -5.900634166283314e-17
 3.890802162539952e+00 -2.167029043503862e+00 -4.697602940068581e-17
 2.985699887059467e+01  2.711426789515341e+00 -5.591998349420621e-16
-1.130994978523872e+01  3.051515951669595e+01 -1.122581312519086e-16
 2.544435401574993e+01 -1.010149315073407e+01 -3.490234582980453e-16
 1.068745578398470e+01 -5.686358892102528e-01 -1.843534969352718e-16
 2.198707435121753e+01 -7.086989994458190e+00 -3.184699675195687e-16
 2.491970786174713e+01 -1.214498338356892e+00 -4.309973974691849e-16
 2.195641474607492e+01  1.086091851549932e+01 -5.023325832121090e-16
-2.993022601789926e+01 -1.965107369368598e+00  5.528348384074765e-16
 6.739949687808501e+00 -1.454084259704673e+00 -1.050052568514383e-16
 2.339601077363925e+01  1.522252615786671e+00 -4.320005121247125e-16
 2.813651935979919e+00  2.083075333769523e+01 -2.641007157756835e-16
-2.957612076899818e+01  1.173301280047136e+01  4.057899045029646e-16
 9.223379907354494e-01 -3.085846282604257e+00  1.529184479964454e-17
 3.175916917427812e+01 -3.970093638624505e+00 -5.244010292486606e-16
 6.118992293079417e+00 -2.983223815634582e+01  1.976206429791624e-16
-3.199514364999702e+01 -4.976595619091504e+00  6.205244585760003e-16
-4.856027683721226e+00  4.413889839773907e+00  4.106769045083812e-17
 1.676916807344160e+01  4.325866020115398e+00 -3.428740507572160e-16
 9.712890058160168e-01 -2.961642612629775e+00  1.314455550890388e-17
 5.477179011662839e+00  5.366233775698098e+00 -1.526090365661879e-16
-1.359935757548496e+01  1.611205975038088e+00  2.254622338713653e-16
 8.190827383818442e+00 -1.599266387208941e+01  1.855326801698195e-17
-3.122317066318118e+01  2.180407560317432e-01  5.534132767357534e-16
-3.134440838048974e+01 -1.466246177950715e+00  5.728762829229251e-16
 1.364197725261863e+01 -3.517342599316048e+00 -2.066358405142631e-16
 1.456437800389445e+01  5.002188663806469e+00 -3.105861509769181e-16
-8.845346728140226e+00 -3.775179785899421e-01  1.612923562335107e-16
-6.571552289216533e+00 -1.116813357614674e+00  1.284234633614101e-16
-1.982160327826168e+01 -2.850834689073770e+00  3.820403652056219e-16
-2.141971460259263e+01 -8.827495612553806e+00  4.718886823550043e-16
 7.549779936916813e+00  1.675275588090222e+01 -3.064858205594329e-16
-7.024662607698986e+00  1.559760960587496e+00  1.089862731609647e-16
-2.833684943337622e+01 -1.117115991816909e+01  6.190676470802193e-16
-2.819150762213464e+01 -4.024645493587460e+00  5.430532765900842e-16
-3.131016650958413e+00  2.036275407744238e+00  3.479818603418841e-17
 1.632625551959950e+01  4.688709465856168e+00 -3.387199781201748e-16
 2.507105603710413e+01 -1.130811835332368e+01 -3.299825398453916e-16
-3.620481853206477e+00 -4.847872226846885e+00  1.142409192657337e-16
-1.187917822122625e+01  1.051165584460089e+01  1.034007012245138e-16
-3.373464073590414e+00  2.686071070619105e-01  5.727497675761029e-17
-6.596797223978064e-01 -5.748358156231590e-01  1.764601673215844e-17
 2.828771579252307e-01 -5.495569951634497e-01  6.123620329027041e-19
-1.545135116426788e+00 -3.568134409151323e+00  6.415880736814766e-17
-1.706893468468882e+00  1.376255731811560e+00  1.623567763933376e-17
-4.113570988786732e+00  1.141225494524787e+00  6.148022522449076e-17
-2.172507184082930e+01 -1.032691783579917e+01  4.927288973007754e-16
 1.488431067248166e+00 -3.054614534207852e+00  4.896648364336295e-18
 6.475062231773458e+00  1.354543829823942e+01 -2.544059139918582e-16
 6.035358353882309e+00 -2.546086955179497e+00 -8.124628259522858e-17
 1.752973075795991e+01  1.918152021519535e+01 -5.090456211656394e-16
-1.369076226425544e+01  1.750518831727170e+00  2.256575003472245e-16
-2.016522227457039e+01 -1.949353084620731e+00  3.788930790451348e-16
 1.369193043601496e+01 -3.209065964004850e+00 -2.106922474158530e-16
 1.076698676450636e+01 -2.282787848454646e+01  4.293678593436146e-17
-2.774617809544024e+01  1.007358470414438e+00  4.834260937135822e-16
-3.017134245809664e+01  5.284233395026051e+00  4.826414502000658e-16
 4.749785376327390e-01  9.836303545531562e+00 -1.095172553271660e-16
 3.192093082088742e+01  1.264711365994291e+00 -5.810654904729058e-16
 1.796034387256503e+01  2.683380509285766e+01 -5.953333424632124e-16
-2.753057556737589e+01 -1.735062453759393e+01  6.682107960158100e-16
-1.097269775208571e+01  8.078133112264020e+00  1.122723620196252e-16
-1.521094593581462e+01 -2.689735394165262e+00  2.983329812752835e-16
-1.454894440715689e+00  2.964262035864737e+01 -2.786755738437361e-16
-1.087772097310081e+01 -1.147183352972921e+01  3.114509422601004e-16
 7.328193610173032e+00 -4.030244331420673e+00 -8.900465023897376e-17
-4.177299911025679e+00 -4.975412649787650e+00  1.254605923283017e-16
 1.120137073091460e+01 -1.235854922313341e+01 -7.236214987747527e-17
 2.066351033704483e+01  8.286380100693968e+00 -4.528713601053674e-16
-2.858584119380350e+01  9.438010613582016e+00  4.117470119745561e-16
 1.677659236142488e+00  1.752499071136593e-01 -3.165657648499559e-17
 8.447285334175602e+00 -1.233668693717590e+00 -1.376540211370340e-16
 1.966937955229510e+01  2.062325941122822e+00 -3.712297214800363e-16
-1.934542228013643e+01 -2.676779636128106e+00  3.717778038918469e-16
-1.058430851050688e+01  1.083524631418596e+01  7.703217563795083e-17
 2.066013096052070e+01  5.438383287905908e+00 -4.235490873953996e-16
 1.559090567948989e+01 -1.711227581884958e+01 -1.016363464368511e-16
-2.814250443274617e+00 -1.474445694151506e+01  2.015768824314708e-16
-2.074625059841775e+01  9.623510200932328e+00  2.703262050594983e-16
-1.351315982225137e+01 -3.642065406685872e+00  2.779036971126099e-16
-2.056556818622044e+01  2.772212178256569e+00  3.375053443066805e-16
 6.731294797507777e+00 -1.943166021322634e+01  7.986182942776876e-17
-2.588858639359243e+01  6.935259251534732e+00  3.894610064685520e-16
-1.053237084169661e+01  1.760302420750304e+00  1.693496346863272e-16
-2.029454302798488e+01 -2.573293657741217e+00  3.876052589288800e-16
-9.319581584772482e+00 -1.805058406931729e+01  3.513162652354226e-16
 1.690528057234391e+01  1.545508887299595e-01 -3.024375873612302e-16
 1.954112482387475e+01 -2.040527685474975e+01 -1.381008187054997e-16
-1.109711614543406e-01 -3.024264062636890e+00  3.304807880339108e-17
 8.973964710580987e+00  3.381618146328536e-01 -1.631768963582010e-16
 2.308249459147355e+01  6.967805616856846e+00 -4.823721965559600e-16
 5.155149557889285e+00  2.839458581741146e-01 -9.465947620950589e-17
-2.602290337392360e+01 -1.609877517984241e+01  6.285176735278046e-16
-1.192486829047736e+01  9.705944822069759e+00  1.124921985708886e-16
 4.144478606509695e+00  2.351379279450770e+00 -9.791550848614960e-17
-1.312590000795395e+00  1.963467441556657e-01  2.134171327571501e-17
 1.724691464036006e+01  4.498708682103954e+00 -3.531520163460769e-16
 1.563723877684550e+00 -2.849810808802843e-01 -2.490025459773658e-17
-1.327264351113834e+01 -1.045595292479133e+01  3.436336414124643e-16
-5.251186748633066e+00  7.124795476440514e-01  8.613066349856127e-17
 8.148444301504165e+00  1.129584410344272e-01 -1.461718931075082e-16
-1.108975823502824e+00  2.220001754071568e-01  1.745457646170507e-17
 2.358567917891718e+01 -7.474012291365295e-01 -4.120560188805633e-16
 2.910729874406925e+01  1.445936507094184e+01 -6.665638250231656e-16
-9.070718404524042e+00 -1.059566243559431e+00  1.723109121964263e-16
-1.522387822284386e+01  5.272573584487086e-01  2.655096948471439e-16
-2.681147182656856e+01 -4.145834533111604e+00  5.197390668043563e-16
-2.658120510700075e+01 -3.888076181959568e+00  5.129928224394251e-16
-7.742096391227925e-01 -3.823873917979909e-01  1.770687558576670e-17
 2.885927545002869e+01  9.689949198092775e+00 -6.131459391551225e-16
 2.740069946756837e+01  7.166084449196411e+00 -5.612570462397569e-16
-1.183565203730945e+01 -3.031513263663895e+01  5.221065212636580e-16
 1.722590189136654e+01 -8.909691928237523e+00 -2.150116240272039e-16
 3.980341716424363e+00  4.180647888492050e+00 -1.137895671046733e-16
-5.626960168638283e+00  7.978035039707492e-01  9.194132709983268e-17
 5.906766441018330e+00  7.785106978785636e-01 -1.131168692746641e-16
-1.301320718601193e+01 -2.442918646688919e+01  4.825865610856382e-16
 3.106620930414299e+01 -9.556121193645760e+00 -4.546745778715490e-16
 4.345864150550099e+00 -9.730466313669263e+00  2.263717007231869e-17
 2.323844777049657e+01  2.278067816878534e+01 -6.476190905119466e-16
-3.850107956402620e+00  3.054654185748320e-01  6.537871745099696e-17
-5.606960691156273e+00 -2.310063253926351e+00  1.235176144816311e-16
-5.904323620801243e+00  1.066179224865443e+00  9.411987752990830e-17
-2.195073118777034e+01 -6.233335246701247e+00  4.546847005131344e-16
-1.289834929677748e+01  6.020807180581476e+00  1.676799048537406e-16
 1.433904964652791e+00 -1.704024804250993e+01  1.495643091360126e-16
-1.991828798739459e+01  8.060678755538341e+00  2.716491481426138e-16
 1.432793584386086e+01 -2.909072240143129e+01  4.391389544634918e-17
-2.901163735396786e+01 -9.015551626662697e-01  5.255598448339820e-16
-1.859415248396947e+01 -2.122097953005501e+00  3.527089089190080e-16
-2.341945758525914e+01  8.851313917353363e-01  4.076827799512346e-16
-1.523949706229005e+01  8.179073038259058e-01  2.628013281356444e-16
 9.673575339617052e+00 -5.356256872395298e+00 -1.171192186381280e-16
 2.876807400188996e+01 -1.852428747600627e+00 -4.929291602169226e-16
-9.308576027947296e+00 -9.451079795545379e+00  2.627636256681597e-16
-2.599748752280692e+01  6.209585128147398e+00  3.988550699581698e-16
 2.509250243510627e+01 -1.684355189270820e+01 -2.734896353561284e-16
 3.041061653809126e+01 -1.216381112564187e+00 -5.286953223339231e-16
 1.891348422522410e+01  2.143176639007706e+01 -5.567916267278794e-16
-3.251144902711898e+01  1.416382887717506e+00  5.640271968576501e-16
 2.038338562727353e+01 -1.733611803351202e+01 -1.846243463420554e-16
 2.183884423368456e+01  1.130870364249304e+01 -5.048411052502899e-16
 2.204684781300466e+01 -3.732475067715327e+00 -3.540001298451145e-16
 1.619323773691178e+00  6.297869203143063e+00 -9.352611637191497e-17
-1.505865510788428e+01  8.716530672050601e+00  1.784275440687118e-16
-2.661554999129066e+00  6.527210328290916e-01  4.065907452300426e-17
-4.200762919588167e+00  1.220785531853740e+00  6.221445914666621e-17
 2.874658858655032e+00  2.066457947511977e+00 -7.239008815090055e-17
-4.526907342878832e+00  9.373846434037897e-01  7.093042937006580e-17
 3.250373078140532e+00  2.073573042049247e+01 -2.708963635626966e-16
-3.238791975284013e+01 -6.851495082207643e-01  5.834213280130948e-16
 6.070510207156574e+00 -4.411443337586157e-01 -1.034993725171368e-16
-2.274646664479656e+01 -1.048972610303057e+01  5.125786320024598e-16
-3.035226970327200e+01 -1.460906416927739e-01  5.416558731403827e-16
-2.143997547381775e+01  6.192554288236710e+00  3.179236923499503e-16
-2.711170759966903e+01  8.081660831618743e+00  3.994490475432647e-16
 2.093903903183934e+01 -2.484608033835498e+01 -1.173507269441453e-16
 8.518165325700686e+00  2.567542112850504e+00 -1.779714752550310e-16
 1.359616750814171e+01 -3.547381688952423e+00 -2.055119607078066e-16
 6.427011635465948e+00  1.195387131366805e+00 -1.266585069897533e-16
-8.941648463460936e-01  1.289998739503575e+00  2.658461610440123e-18
 3.241097917705419e+01  2.931633899821371e+00 -6.069135090126172e-16
 9.864689954382444e+00  6.261042817549515e+00 -2.398838652822606e-16
-3.236763619623424e+01 -3.380244377864809e+00  6.107514786552699e-16
-1.277364988654367e+01  3.059917859321089e+00  1.958827922941350e-16
 2.852317122191365e+01 -8.364718407640288e+00 -4.216594125778991e-16
 3.145964565540620e+01  9.327082141825072e-01 -5.694451589385251e-16
 1.085756015337023e+01  9.197473950216859e+00 -2.877239379546586e-16
-3.152264978472173e+01 -3.846254297590501e+00  6.005020201713569e-16
-2.559987129146828e+01  2.007965038923606e+01  2.492691329119963e-16
 2.735794997430397e+01 -1.625414786621326e+01 -3.198618888807934e-16
 1.676479665331593e+00  4.441591177293682e+00 -7.547069126898238e-17
 6.603387305188248e+00 -1.120649825164123e+01 -2.372455366199281e-18
 1.376195030410655e+01  9.539908072332080e+00 -3.429294113771807e-16
-1.185027994689728e+01  9.603248972704780e+00  1.122199725675437e-16
-1.725707631721340e+01 -6.232128649847511e+00  3.711431159729845e-16
-7.172895561233278e+00  9.022062818475126e+00  3.495181466250143e-17
 3.139628894968079e+01 -5.396941637902038e+00 -5.032827979355060e-16
-3.588371016237738e+00  1.525968278908515e+01 -9.292835464076104e-17
-2.360992397621026e+01  8.520457663244105e+00  3.326221528428922e-16
-1.190853958388320e-01 -4.785850856513417e+00  5.129214566339662e-17
-8.261805708411455e+00 -2.211472276532820e+01  3.742494303865372e-16
-3.148541399975474e+01  6.332664184121494e+00  4.952546752710745e-16
 1.220424521995398e+01  2.972596216116689e+01 -5.226125640495392e-16
 2.118808673494862e+01  1.140860236652114e+01 -4.942865224112032e-16
-2.880473103404965e+01 -3.794354882547767e+00  5.516001663152478e-16
-1.513037645774947e+01  9.508608181369792e-02  2.682861222834814e-16
-3.227720871624093e+00 -4.114665535055702e-03  5.748341976900544e-17
 1.090896248294777e+01 -2.427495973049155e-01 -1.916438361378296e-16
-1.998545560949738e+01 -2.086597319519177e+00  3.771040515359927e-16
-1.593076014453087e+01  2.177169597043233e+00  2.611372529655145e-16
 3.074894503929480e+01  1.024963496612878e+00 -5.577452832342686e-16
 2.000791633821985e+00  5.752870238637445e-01 -4.151733891996195e-17
-3.247697016324788e+01 -2.082055544251556e+00  5.993587883432530e-16
 2.498791010407633e+01 -5.375568506930155e+00 -3.894576533398040e-16
-7.633543452797973e+00 -2.329533681482206e+01  3.751991345907189e-16
-3.234539155230768e+01 -8.527901520198515e-01  5.843869346718589e-16
-1.766384949013964e+01  2.627116897692541e+01  4.442255420729369e-17
-7.081383345468080e+00  4.035695921668045e+00  8.455635407158528e-17
 6.705450996896871e+00  5.216609690446935e+00 -1.729302685770676e-16
 2.084986568429087e+01 -3.945466435030866e+00 -3.305099961156206e-16
-1.593337646232849e+01 -1.627826731460561e+01  4.508067233944882e-16
-2.249245382291442e+01  5.946207201574295e+00  3.391849268394489e-16
 1.116188655308645e+01 -1.639911647741215e+01 -3.014412111881872e-17
-2.939240750218592e+01  3.633484198506805e+00  4.857402218215805e-16
-1.041770554809582e+01 -2.392901863111828e-01  1.878541166275269e-16
 1.896259577914966e+01 -1.775268009971070e+00 -3.192217773791810e-16
-1.342681930523541e+01 -4.258549039590495e+00  2.827013101031099e-16
 2.114791053839081e+01 -3.586492941741686e+00 -3.395023820740044e-16
 1.700510694168336e+01  3.175372033277394e+00 -3.352519565736896e-16
-1.122845357623429e+00  8.979778276957791e-01  1.075597654480497e-17
-3.971416011980549e+00 -8.361105945602366e+00  1.565834114457594e-16
-1.046418559474170e+00 -3.555782612597423e+00  5.515664110716642e-17
 1.615058807407170e+01  1.095138465177367e+01 -3.999404788677850e-16
-2.799187153186949e+01  1.160048546259969e-01  4.969568360764525e-16
-1.631595579989460e+01 -2.010464773288021e+00  3.110186910368256e-16
-2.743205657263692e+01  7.453897023330902e+00  4.116000847099025e-16
 2.984934309870040e+01  1.058262646404508e+00 -5.420779302930788e-16
 1.914517478619020e+01  4.278453623516050e+00 -3.846707793186829e-16
-3.186883889336416e+01 -6.436800276202303e+00  6.332797871635734e-16
 1.584385729777970e-02 -3.517512152435729e+00  3.585919921276332e-17
 2.596175979468660e+01  1.780780708300543e+01 -6.449892325668297e-16
-3.184134172773322e+01 -4.665900946049692e+00  6.145950949895383e-16
 2.251541114194043e+01 -7.044742173152139e-01 -3.934503819571286e-16
 5.710743334181358e+00  8.500500979083799e-01 -1.103634456099025e-16
-2.371781993970803e+01 -7.006940898632076e+00  4.940806697788711e-16
-2.377806050779897e+01 -1.448640295051948e+01  5.720014780521350e-16
 9.329431111143324e-01  1.445880923229481e+01 -1.651618479057921e-16
 1.109294711802483e+01  9.491105934004787e+00 -2.949298917351872e-16
-2.832144536035630e+01 -9.690170170799941e+00  6.035768815645034e-16
-2.761508428447985e+01 -3.197047534938818e+00  5.242918673326301e-16
-2.707068660840640e+01  1.229958236926594e+01  3.553814185098357e-16
 3.159199954335573e+01 -3.713101566800113e+00 -5.240665464394433e-16
 8.371801885269896e+00  2.025781176183217e+01 -3.571278575695313e-16
-3.241595398851932e+01 -2.794570584874144e+00  6.055937659467577e-16
 2.678746695439624e+00 -7.693355873044827e+00  3.137494405022108e-17
 2.818577464635767e+01  1.433350076887156e+01 -6.488709944918322e-16
-3.072255784420569e+01 -1.035720555309878e+01  6.531610886137186e-16
 2.020602115332286e+01 -2.729015443910187e+00 -3.315506067265443e-16
 1.280869177602092e+01  1.769878693739135e+00 -2.461308095445061e-16
 6.474495747672313e-01  1.609128088622624e+00 -2.805534404914612e-17
 9.867350901558050e+00  1.736567863220806e+00 -1.934438834504761e-16
-1.895276337771131e+00 -9.770355775638334e+00  1.341155595007210e-16
 1.109194979813957e+01  8.713400286041709e+00 -2.869215002298583e-16
-2.534116777271500e+01  4.080216777701203e-01  4.467840340381092e-16
-1.997894987516030e+01 -2.345587817842717e+00  3.796493075235683e-16
-2.461969794344597e+01  9.734323491719003e+00  3.381202546548654e-16
 3.107734049948962e+01  1.371666933690134e+00 -5.671517240364389e-16
 2.757597594615286e+01  1.208192878852819e+01 -6.148848150994375e-16
-3.161136337406707e+01 -7.696183803715237e+00  6.416374114197767e-16
 1.504320394464805e-01 -3.464964918976419e+00  3.292413823791653e-17
 2.556710496409877e+01  1.815670776236203e+01 -6.415507068277735e-16
-3.193415824623626e+01 -4.373459523960554e+00  6.132421463145904e-16
 2.213886833623000e+01 -7.315542985136021e-01 -3.864711155675094e-16
 4.752068404732928e+00  6.095989158303192e-01 -9.083213314484391e-17
-2.417462000084882e+01 -7.041799634954941e+00  5.025681326072142e-16
-2.435602587028993e+01 -1.410454399124857e+01  5.783635990149419e-16
 1.174931502840207e+00  1.513775458943851e+01 -1.764442368952928e-16
 9.366703179721924e+00  8.933082290786050e+00 -2.584758314952991e-16
-2.899836878177739e+01 -1.020493873662200e+01  6.209126013170749e-16
-2.895534312255758e+01 -3.266626530083472e+00  5.488582709738447e-16
-1.686931460267557e+01  9.401526888571912e+00  2.036123023380946e-16
 2.768229053765116e+01  1.688209612515520e+01 -6.660967856490075e-16
-3.053684160746090e+01 -1.089594476120774e+01  6.553913963050241e-16
-3.216631093890764e+01 -4.853286525478120e+00  6.223036285086798e-16
 1.120826818885295e+00 -6.152868773686984e+00  4.327204127007537e-17
 2.904901049612597e+01  1.331070210602258e+01 -6.537244214383429e-16
-2.995196771296910e+01 -1.091720297742198e+01  6.452012881347796e-16
 1.501207870166700e+01 -8.634605277984669e-01 -2.582861042853567e-16
-5.852805291357791e+00 -2.035119311831127e+00  1.250677632719493e-16
-1.069474882281342e+00 -5.980828656315524e+00  8.048342302952953e-17
-1.204577421418041e+00  9.599011892410674e-01  1.157425607090873e-17
 1.215839179534664e+01  1.155388070404866e+01 -3.350850120927161e-16
-2.217866878919536e+01  2.744533041742290e+00  3.664967867621393e-16
-1.490882219047367e+01 -1.752898993763689e+00  2.833306751460832e-16
-2.417666337169317e+01  7.726858612911313e+00  3.508618983620890e-16
 3.134575807688254e+01  3.542471606370958e+00 -5.942327644022747e-16
-2.055286352672340e+00 -2.393918602396665e-01  3.903593674824650e-17
-3.195819305326098e+01 -5.986521897304888e+00  6.302435042601365e-16
 4.419814714829925e-01 -4.218480301117535e+00  3.547776514331535e-17
 2.580593032769865e+01  1.789983112789701e+01 -6.431615749438314e-16
-3.186651883313707e+01 -3.872981490036642e+00  6.068961922508862e-16
 2.552402702288484e+01 -3.133954715433013e-01 -4.510104824091651e-16
 1.223130239930011e+01  3.371428778711972e+00 -2.523108221782001e-16
-2.365145830868217e+01 -7.704440644019213e+00  5.000662418995346e-16
-2.628410984883958e+01 -1.339411117781461e+01  6.053767142307517e-16
 9.237506988568087e-01  1.249067693592104e+01 -1.447764135875508e-16
 1.453566367893680e+01  1.014054100797386e+01 -3.628698490219363e-16
-2.875378177966541e+01 -8.015918183360089e+00  5.940684928739634e-16
-2.447265483340732e+01 -2.512491563984778e+00  4.613350228949869e-16
-2.522554124101103e+01  1.112036316266750e+01  3.346609047095927e-16
 3.121669505564119e+01 -1.787486955221189e+00 -5.371725460315967e-16
 2.388939550015631e+01  2.190396424936177e+01 -6.501955648052875e-16
-3.145234526715664e+01 -8.347235331289765e+00  6.454968124574031e-16
 1.797135810349506e+00 -5.031858420654737e+00  1.971834186590598e-17
 2.588004961408733e+01  1.810968438187103e+01 -6.466367820250955e-16
-3.182094840548853e+01 -4.661210962865289e+00  6.141839836204037e-16
 2.377950860560068e+01 -5.513088634366851e-01 -4.175202225645384e-16
 9.894179163214961e+00  2.365783588710702e+00 -2.003862873660924e-16
-2.280465383954465e+01 -7.040300627976453e+00  4.781725488627223e-16
-2.526144478267159e+01 -1.409095699647285e+01  5.943370071321704e-16
 7.002745412543433e-01  1.196126591927213e+01 -1.353598829208771e-16
 1.601794161704633e+01  1.030964978308620e+01 -3.909862842869724e-16
-2.755302087164277e+01 -9.830824422619518e+00  5.913470225032769e-16
-2.523380263912797e+01 -2.765498658180023e+00  4.774801120279584e-16
-3.004335035224617e+01  1.155833752344714e+01  4.158995372598924e-16
 2.924672264015097e+01 -6.682054430865866e+00 -4.518246342566106e-16
 6.087265885371956e+00  1.476322455403563e+01 -2.600169267686554e-16
-3.245689630300318e+01  3.932779114777298e-01  5.735683980233050e-16
 1.282628268540229e+00 -7.078819577927066e+00  4.990639961847748e-17
 2.718880344625421e+01  1.505048698217156e+01 -6.384954756345410e-16
-3.101285840313557e+01 -9.734789093091926e+00  6.519322303234979e-16
-8.559052235286323e+00  2.252495007688712e+00  1.291749761954086e-16
 1.178855380935559e+01 -2.839794541025786e-01 -2.068735912025311e-16
 8.141111490117142e+00  8.899641424846111e-01 -1.540248483004157e-16
-1.992172668945826e+01 -4.817752764214338e+00  4.040315494197723e-16
-2.470701868967049e+01  2.052555230310011e+01  2.287982756241362e-16
-2.981033659837005e+01 -1.181728214907339e+01  6.519287800279033e-16
-3.165809624443704e+00  3.069424393016045e+00  2.480213797503178e-17
 8.554543294810431e+00 -9.251262691305024e+00 -5.718493876668391e-17
-1.574422398001503e+00  1.205254171617507e+01 -9.581676317977802e-17
 9.422122930549898e+00  1.142898453160841e+01 -2.851065809035639e-16
 2.974405048249730e+01  5.653116592979737e-01 -5.351392302586581e-16
 3.027748101578020e+00 -8.770279376499310e+00  3.622904550694177e-17
-1.328883522860846e+01  8.032619406554055e+00  1.539584280058874e-16
 1.021209778290157e+01  7.163340324709665e-01 -1.890965334345455e-16
-2.402477283613287e+01 -5.354380378199484e+00  4.825638037159222e-16
-1.982106983627433e+01  2.577198796946116e+00  3.262597997483181e-16
-2.821995726972308e+01 -1.755889781066818e+00  5.202489312344349e-16
 1.538813818917099e+01 -1.166259147713043e+01 -1.540213839696885e-16
-6.466383520584841e+00 -6.046166486706388e+00  1.771991723815783e-16
-1.312479687608248e+01  1.029599389732421e+01  1.277838191745544e-16
-1.872894689493866e+01 -3.514689769380728e+00  3.694161112900947e-16
-1.083333873786345e+01  2.679406865778274e+01 -8.250713662553411e-17
-7.114907501814466e+00 -1.460311101837428e+01  2.766599267906834e-16
-1.105962402792102e+00  3.970779360814213e+00 -2.111639526423929e-17
-4.625696522756406e+00 -6.864431115570859e-01  8.937274096058816e-17
 6.978969079766606e+00 -4.317204239792455e+00 -7.984137434024755e-17
 4.305227905455506e+00  4.773739703692899e+00 -1.256651073316844e-16
 7.957338245801235e+00 -2.036885791928954e+01  6.767228975566555e-17
-2.065908244971728e+00  2.948580448612942e-01  3.373574219688647e-17
-5.145088911698426e+00  2.711453334002742e+00  6.370379647097234e-17
-1.355602720233407e+01 -9.881123440687446e-01  2.513981696700768e-16
-2.023687955916422e+00  5.573094243164401e+00 -2.124757769009576e-17
-1.356997329068632e+01 -5.468441837872714e+00  2.976801149032637e-16
-7.341515595173444e+00  3.479803310848491e+00  9.489731239227449e-17
 3.939357338263434e+00  8.884469076816139e+00 -1.613902551679620e-16
 1.653696563456000e+01 -1.184229414756086e+01 -1.726197590789155e-16
-5.790087784309399e+00 -1.773085747486781e+01  2.852196382256579e-16
-2.026831704521520e+01  4.053629612046019e+00  3.190493070442793e-16
 6.526543387647900e+00  1.652804240720008e+00 -1.331295878817404e-16
-4.539706840120331e+00  7.307768265721353e-01  7.328103203400055e-17
-1.076061152273596e+01 -3.251624569157230e+00  2.249071790193293e-16
-4.845255931181812e+00  1.460522211470524e+00  7.122077371282319e-17
 9.045222324427691e-01  3.407884028349059e-01 -1.959852911464165e-17
-2.972475531161847e+01  8.107519469702806e-01  5.206572960166554e-16
 1.886633104172035e+01 -1.330378026985093e+01 -1.990573560925911e-16
 2.997086990048507e+01  6.580701136664278e+00 -6.009816940308449e-16
-2.871101888555220e+01 -8.138081728912125e+00  5.945626622437822e-16
-2.890233131216484e+00  4.030715335065070e+00  1.002101034326410e-17
 3.183694137901482e+01 -5.946843927934240e+00 -5.054746872770303e-16
 6.044138565849015e-01 -3.837974156684134e-01 -6.812886523498531e-18
-2.851219488848616e+01  7.798346631855662e+00  4.272833398916949e-16
 1.578611845172755e+01 -4.938278165946621e+00 -2.301937939965117e-16
 1.697969183024528e+01  8.496559357926246e+00 -3.894729310688177e-16
-7.515547529750996e+00  3.768920088476422e-01  1.298757046872663e-16
-2.164102393349796e+01 -9.497012311170142e+00  4.827061867484865e-16
 8.206477380190366e+00 -8.660293161772600e+00 -5.706268782296638e-17
 1.150154783394687e+01  8.102644163509034e+00 -2.879354885622818e-16
-9.071554464115701e+00 -2.768851431340119e+01  4.459285587566510e-16
-7.029673391058027e+00  1.228558631698155e+00  1.124784296546723e-16
 4.484424175609630e+00 -6.494964296911452e+00 -1.307227872696749e-17
-1.105315114260773e+01 -1.170009852868482e+01  3.169182713204974e-16
-2.962826512877925e-01  1.078614188098010e+00 -5.809665755408230e-18
 2.248019277224822e+01  1.811129980953341e+01 -5.861488719617945e-16
-1.699243676074829e+01  2.126895750802318e+00  2.805476002707683e-16
-1.525384940940993e+01 -7.810200332972831e-01  2.794851428109341e-16
 1.464650593720586e+01 -6.579769222323214e+00 -1.930473056264375e-16
-2.144721563705357e+01  4.337319630514381e+00  3.371144018416793e-16
-1.189911588909553e+01  8.004419234882198e+00  1.295164611617305e-16
 9.407077889492450e+00 -1.134416541064117e+01 -5.085299362597200e-17
-6.834280985397034e+00 -7.393044189669472e+00  1.975850257437664e-16
-2.418720631103464e+01  3.069727107875900e+00  3.988998569662495e-16
-3.159125804555320e+01 -6.505954165860470e+00  6.290504359643554e-16
 7.553485807672426e-01 -4.627270873680261e+00  3.410119824977761e-17
-4.464248667103757e+00 -5.004000774884032e+00  1.308609203316805e-16
-3.014052939400102e+00  2.823245463152050e+00  2.463084581734516e-17
 5.181610142021997e-01 -8.661774992371798e+00  7.977529813858268e-17
 5.780207967626708e+00 -4.283979827076806e-01 -9.846406202382510e-17
-7.516871234975936e+00 -1.017841028891895e+01  2.383511582777373e-16
-3.170896419171392e+00  1.592726179211801e+00  4.006520125701844e-17
 3.194652461807595e+00  1.489590354737438e+00 -7.215765104727676e-17
-3.975771721311662e-01 -6.798893692233979e-01  1.406097630984124e-17
 3.153649005412800e+00  1.391682556140132e+00 -7.042197853621599e-17
-3.138962330951703e+00  3.359757297680345e+00  2.134129323463696e-17
 3.512319185749784e-01  1.106041633033256e+01 -1.198923508372064e-16
 3.853479202385347e-01 -1.353853758792246e+00  7.052629654890931e-18
-4.281820269091719e+00  1.778119893992567e+01 -1.064952604711288e-16
 4.533422714374237e+00  1.997245584258234e+00 -1.011986377004442e-16
-2.201115289331507e+01 -5.109012375148812e+00  4.442079678020319e-16
-3.108534234334710e+00 -2.810599556600207e-01  5.820786360839537e-17
-7.971578093162974e+00 -4.475133137111141e+00  1.878441083061107e-16
-2.888585697490034e+01  1.402034354675757e+01  3.700043444089389e-16
 2.389194749975670e+01  1.648779279024938e+00 -4.421263132282302e-16
 1.896318510425366e+01 -2.672602335174689e+00 -3.100124808741874e-16
 1.473020022686828e+01  9.800128863147363e-01 -2.722107602538178e-16
-1.210528241823155e+01 -4.152547640523319e+00  2.580938588456892e-16
-1.474717511090504e+01  7.651375997058617e-02  2.616574210786351e-16
 2.988271231783647e+01 -1.570517063286629e+00 -5.156620187919916e-16
-2.254303442086753e+01 -1.428934012893354e+01  5.479979667397031e-16
-2.279835712712939e+01  1.340088616934892e+01  2.680347227247965e-16
 2.930250792015355e+01 -4.121077835539739e+00 -4.791305040390454e-16
 2.102394869852021e+01  1.346424355815333e+01 -5.124864567345132e-16
-3.151627473023956e+01  1.231684634590394e+00  5.482145906133691e-16
-3.018679452207933e+00  6.096857528976469e-01  4.745670202698878e-17
 1.114188705177890e+00 -2.454098410567454e-01 -1.730682010239487e-17
 3.051361100693449e+01 -9.802777725799686e+00 -4.423061257534208e-16
-1.353076832775613e-01  6.318740924259601e+00 -6.251480595281948e-17
-2.960622949475504e+01  1.203933088869210e+01  4.031784181115332e-16
-1.006606708647208e+01  3.751357325905940e+00  1.405938372713474e-16
 3.088791236624175e+01 -9.314990508390512e+00 -4.539791013609459e-16
 8.218699444986772e+00  2.989634450432720e-01 -1.493333010467042e-16
-1.484687724613314e+01  2.792736589497305e+00  2.355235366756112e-16
 2.922771788607998e+01 -2.500461378788071e+00 -4.944507715481099e-16
-5.053486009430981e+00 -1.277274375305207e+00  1.030563417683247e-16
-5.328112855578873e+00  7.612206408300952e-01  8.699885830845975e-17
 3.016792005047784e+01  3.898176244253761e-01 -5.408793573710483e-16
-2.461251446515959e+01 -7.883294998168213e+00  5.190070461075270e-16
-1.949274976586249e+00  4.123362589765200e+00 -7.676379346859012e-18
 2.626262927194914e+01  2.297536295662199e+00 -4.909811659011045e-16
-2.391600810679798e+01  2.782428807972071e+00  3.970254470817948e-16
 3.052832277029956e+01 -8.150890574399314e+00 -4.595404795341064e-16
-8.792430947741537e-01  9.727663008543070e+00 -8.430102396002478e-17
-2.979616104875187e+01  1.135401292674958e+01  4.135998697736646e-16
-1.125522903353957e+01  4.269572891692324e+00  1.564319159433191e-16
 3.100292926798958e+01 -8.927807291599473e+00 -4.600041312527930e-16
 1.835071446682212e+01  2.944442130920966e-01 -3.295981607862335e-16
-1.378835208679094e+01 -1.328152254831365e+00  2.590264546627963e-16
-6.513429455225983e+00  8.878728679550457e-01  1.067916754770796e-16
 8.704262979196322e+00  4.823065060854773e-01 -1.598582666622971e-16
-1.714889887564925e+01  7.115585992625093e-02  3.044540108283468e-16
-2.993817291425164e+01  1.186936133383202e+01  4.108321226493077e-16
 3.015064863005955e+01 -8.010089549409182e+00 -4.542659970823050e-16
 1.949541492244918e+01  1.276705502597542e+00 -3.600618487691574e-16
-1.035701983128552e+01 -6.624320612641246e-03  1.843835846872262e-16
 3.242550276768454e+01 -2.716986364201678e+00 -5.491344524008884e-16
 1.459701817047794e+00  1.657155719296492e+01 -1.962438652172979e-16
-7.596140046363026e+00  9.884319690602577e+00  3.362457900920771e-17
 1.392239199468131e+01 -9.607089451484382e-01 -2.378946373730619e-16
 2.780719589271174e+01 -1.246056819987344e+01 -3.668344088551515e-16
 5.895686623657975e+00  3.644513850201889e-01 -1.086653816546815e-16
-9.750775629685258e+00  2.581775536305796e+00  1.469998776741881e-16
 2.622004193117383e+01 -4.075915131793881e-02 -4.661981371057225e-16
 5.470260554382456e+00 -2.244011690912921e-02 -9.711924768684219e-17
 1.566042449624598e+01 -6.119224952309439e-01 -2.724086529970796e-16
 3.084921434116910e+01  4.623101009707423e+00 -5.964992509250500e-16
-1.531175855155524e+01 -5.262481736440123e+00  3.265610960866319e-16
-2.371290681612614e+01  2.228658413519492e+01  1.930129066624943e-16
 2.651005478216166e+01 -4.764120648661651e+00 -4.228284381952190e-16
 1.686955319187668e+01  1.192452348494312e+01 -4.227339687412671e-16
-1.680586682074687e+01  4.269482327446347e+00  2.552130669049519e-16
-1.306394359942116e+00 -2.065721382106228e-01  2.537129961027839e-17
-2.513796433844531e+01  8.633403179323826e+00  3.586549796528527e-16
-3.371564717204099e+00 -1.688832630702247e-01  6.173623007203722e-17
-1.614192165260963e+01  4.909114547888488e+00  2.368253819514664e-16
 3.052400221469109e+01 -1.595012271036283e+00 -5.268228580516700e-16
-9.760686427633521e+00 -1.987205852098298e+00  1.941208762099992e-16
 1.225722734214908e+00  8.297118244253626e-02 -2.266569690892816e-17
 2.975919629347970e+01  2.492048650122250e+00 -5.552052906671004e-16
-2.807250827301706e+01 -9.489510897470263e+00  5.970850480216720e-16
 6.948067557130806e+00 -3.421863955410378e+00 -8.849074104418904e-17
 2.616374220552699e+01  2.953692852855403e+00 -4.959631228596304e-16
-2.921038967525557e+01  5.079188155793728e+00  4.676469144803640e-16
 2.966609911116881e+01 -1.019879675748128e+01 -4.231546889153160e-16
-4.496884577911028e-01  6.793704866893138e+00 -6.180010702802042e-17
-2.979784719173297e+01  1.180978292960416e+01  4.089470054891582e-16
-1.091949130737865e+01  4.017993610036299e+00  1.530419483347815e-16
 3.085616720133048e+01 -9.347278916106490e+00 -4.530824066411799e-16
 7.961161951906282e+00  3.078240644493000e-01 -1.448411537906551e-16
-1.536772790138941e+01  2.782469795916685e+00  2.448981829384438e-16
 2.889877783533037e+01 -2.526662911171008e+00 -4.883276797461423e-16
-7.602737998054025e+00 -1.663584966241529e+00  1.523925227692829e-16
-2.312505327526568e+00  5.230805018121744e-01  3.577932862362743e-17
 3.012435144804846e+01  1.300309039193827e+00 -5.494589706574529e-16
-2.707180743680033e+01 -9.979564115040223e+00  5.843115017497310e-16
 3.013665865790221e+00  1.200936005575445e-01 -5.486569701035254e-17
 2.587232638900811e+01  2.855273732330475e+00 -4.897658100988893e-16
-3.028395900201146e+01  5.572390010064307e+00  4.816848913957712e-16
 2.906246852915177e+01 -1.150644623972748e+01 -3.989767392891492e-16
-3.360350454580712e-01  1.336275289517986e+01 -1.313172872265877e-16
-1.829960706809444e+01  1.627877614141129e+01  1.584048251003977e-16
 2.306034987407605e+00  7.484431139335526e-02 -4.180764145032121e-17
 2.599601270038490e+01 -1.304783769991301e+01 -3.285682627351008e-16
 3.321504388299562e+00  3.161958496090793e-01 -6.235893010308027e-17
-1.429709824186906e+01  4.584041195884709e+00  2.073345593878588e-16
 3.079938782338125e+01 -1.229605425495411e+00 -5.354780960780959e-16
-1.126139494477547e+01 -2.350793982394187e+00  2.245635102997119e-16
-3.668975380078950e+00  6.896374087712894e-01  5.820801955441884e-17
 3.001099802747454e+01  9.042911817204204e-01 -5.433727717026290e-16
-2.706512274183835e+01 -1.018295629273633e+01  5.862823203648171e-16
 3.044815290633025e+00 -1.841643720030400e-02 -5.399689786178442e-17
 2.558108927884656e+01  3.001023798469939e+00 -4.860804272890505e-16
-3.108764941374571e+01  5.659926510578358e+00  4.950881152098336e-16
 2.811575354755426e+01 -1.279354024761010e+01 -3.689043935474728e-16
 2.067449217460189e-01  1.544004629316523e+01 -1.623201392311552e-16
 1.263280703454982e+01  1.652180276536741e-01 -2.265134253537949e-16
 8.020198931929597e+00  1.731409779000107e+00 -1.605186133448000e-16
 4.814027432000527e+00 -5.110742824128952e+00 -3.316033457326023e-17
 2.811325318481912e+00  4.182915120108974e-01 -5.432868084505752e-17
-2.561248121740405e+00  1.318702903484628e+00  3.203127215593985e-17
 3.139730777140101e+01  2.117361249812232e+00 -5.805076615372322e-16
-1.786220986774564e+01 -3.591162113565531e+00  3.547772175548338e-16
-8.264652958790270e+00  1.167682204739048e+00  1.350818473714659e-16
 3.060218036391279e+01 -1.140386355158417e+00 -5.328852476676033e-16
-2.293407533359174e+01 -9.196459732520932e+00  5.026295102567612e-16
-1.999855073039823e+00  4.236210496022322e+00 -7.935717438371430e-18
 2.552127940189484e+01  2.712478674157706e+00 -4.820513428472338e-16
-3.044072702064683e+01  5.393421601157464e+00  4.863136006651138e-16
 2.872445872120374e+01 -1.195111806932724e+01 -3.883926100560170e-16
-4.955769081628805e-02  1.654188370757974e+01 -1.690799076770141e-16
 1.264233022904862e+01  2.097078068327280e-02 -2.252008139024993e-16
 6.931813897297738e+00  1.570908022772487e+00 -1.395004061373022e-16
 3.019379694399302e+00 -3.899432636877995e+00 -1.366820948268444e-17
 1.035679163726023e+00  3.680891672771838e-01 -2.221312861065778e-17
-2.613190514481102e+01  1.043371563879128e+01  3.578457853867766e-16
 3.061185463092213e+01 -1.048630098219974e+01 -4.370315350812913e-16
 9.371119816949992e+00  3.902869937584206e+00 -2.068708262309262e-16
-2.197133179929158e+01  2.550720571099236e+00  3.647983304761760e-16
-3.145442921677141e+01  2.723440898088547e+00  5.317867222347290e-16
 2.453896418724582e+01 -1.345492863962165e+01 -2.984556348666605e-16
 2.686781199996517e+01  5.216061679961127e+00 -5.317379025525075e-16
-1.137528549443089e+01 -2.349427653734664e+01  4.438319307804703e-16
 1.857226171119645e+01  3.249188013714507e+00 -3.638997774520261e-16
-3.242699222172853e+01  4.249165761674785e-01  5.727111434451197e-16
 2.609840853947757e+01 -1.547899560338020e+01 -3.054112545291114e-16
 1.247192285926952e+00  1.146405875800324e+01 -1.399843136181431e-16
 6.514676355986635e+00  2.740244922785562e+00 -1.440914578684987e-16
 1.389799382814726e+01  2.397931241414686e+00 -2.719692507115965e-16
 8.879667996651328e+00 -7.070152965525422e+00 -8.538103071199082e-17
-2.503876972300683e-01  2.370112193837122e-01  2.020743563145935e-18
-2.708668594390520e+01  8.945528086503248e+00  3.901278351203221e-16
 3.013934357685968e+01 -1.158270593236956e+01 -4.173574746715995e-16
 9.299671384813013e+00  4.598926519821320e+00 -2.127510446880415e-16
-9.243193847632627e+00  1.765765232968678e+00  1.463510638897072e-16
-1.970381087192507e+01 -7.571290351024417e+00  4.284450759168667e-16
 1.894690593731018e+01 -1.114613716749623e+01 -2.226602815152362e-16
 1.094702241923302e+01  6.850595299192884e-01 -2.018540598413061e-16
-2.548972045270196e+01  1.969507889485394e+01  2.512601997146097e-16
 3.118168450159233e+01 -9.082980958537524e+00 -4.615909408045374e-16
 1.433157621313946e+00  1.424641250757047e+01 -1.718814626023535e-16
 2.231293703968885e+00  2.671276057792077e+00 -6.715492414345777e-17
 1.327372043990320e+01  2.116778874484649e+00 -2.579708226145968e-16
 1.825136896204700e+01 -1.297459472006195e+01 -1.914956342626798e-16
 2.006069228321115e+01  1.800691325966931e+00 -3.755053976751521e-16
-2.682028616911837e+01 -3.178452780451992e+00  5.099564324528621e-16
-9.474781836397804e+00  1.316782503194159e+01  3.332042601310134e-17
 2.679652943423534e+01  1.377904219518769e+01 -6.184508583629764e-16
-2.235655070650016e+01 -2.163275284492602e+00  4.200883553731673e-16
 1.186920793321426e+01 -4.284899218203096e+00 -1.672009303897384e-16
 2.597023972343810e+01  6.380097637847970e+00 -5.277245798194011e-16
 1.380595945426428e+00  1.154474701455743e-01 -2.575553250428929e-17
 2.435879772029912e+01  4.562928885603675e+00 -4.803762983768111e-16
 5.843458206839582e-01 -1.427916397512196e+01  1.363140915405439e-16
 5.490115127102200e+00 -4.109185194362055e+00 -5.548276240274432e-17
 1.201107368457912e+01 -2.021649468415857e-01 -2.116742121724220e-16
 2.126440488154349e+01 -1.330031436637298e+01 -2.417695514762343e-16
 2.552348817501014e+01  2.227019648892184e+00 -4.771027354705098e-16
 3.238914460236568e+00  1.422530676972104e-01 -5.910194493909977e-17
-2.021706184442901e+00 -4.451565785690199e-01  4.055249527140616e-17
-3.027044626092245e+01  7.670853511539156e+00  4.598834658832057e-16
 3.034981567559838e+01 -1.174642984635985e+01 -4.194208729886287e-16
 2.253907369384812e+00  7.141156947537536e+00 -1.134837636453925e-16
 9.171640377196077e+00 -9.841364236866777e+00 -6.210383839099240e-17
 1.078448330584374e+01  6.949391711314007e+00 -2.633252199477311e-16
 4.444620753865611e+00 -1.647191406930425e+01  9.014560524717846e-17
-8.506903033529955e+00 -2.459554257402536e+00  1.766615133938237e-16
-1.459786889496784e+01  1.295591299754067e+01  1.266691903966434e-16
 3.056421349688053e+01  3.371473960181614e+00 -5.785673076712415e-16
-1.816997214317890e+01 -4.915350315700991e+00  3.738597671178845e-16
-1.782700240077255e+01  1.789147368879645e+00  2.988699332739377e-16
 3.101069649199736e+01 -4.643960111989219e+00 -5.041573318301726e-16
-1.301279045792089e+01 -6.875302226179501e+00  3.022193611898446e-16
-8.369454708880113e+00  2.354295954260384e+01 -9.295092681948058e-17
 5.217010891527576e+00  9.516474911098829e+00 -1.906212545449508e-16
-3.010365412567297e+01 -2.497674431507535e-01  5.382967038572902e-16
-2.907599633159220e+01  3.828829812008254e+00  4.781022023952760e-16
 1.159566671775731e+01 -1.553809261381932e+00 -1.903938953481373e-16
 2.964088328358617e+01  9.827106402006260e+00 -6.284648233195237e-16
-1.417573233146192e+01 -7.287780044352213e+00  3.271533587785784e-16
-9.249617020162598e+00 -2.853956324476291e+01  4.578416129425626e-16
 3.074844907754839e+01 -8.730408543203000e+00 -4.575035531383061e-16
 4.791865754518180e+00  5.244838534538074e+00 -1.391657777071021e-16
-1.532776984307171e+01  6.993641267972694e+00  2.009188245336441e-16
 1.819198737524504e+01  2.072122594338345e+01 -5.366511846691968e-16
-2.008490314457616e+01  3.107737424528636e+00  3.255039365100062e-16
-2.428899602747174e+01 -9.644613222927198e+00  5.313465545201963e-16
-3.032578375087704e+01  1.175600154499159e+01  4.188948504912263e-16
 1.750779994085916e+01 -2.209816291191831e+01 -8.452158772687896e-17
-7.311142113292605e-02  6.421481788244768e-02  6.413210229902511e-19
-2.751092899154554e+01  5.998146500155341e+00  4.279610212891867e-16
-2.345104125140993e+01 -8.644001991821339e+00  5.061532328279358e-16
 6.435196247685504e-01  9.958501383783087e+00 -1.137721834195024e-16
 7.843010746708877e+00  8.480671464670829e+00 -2.267115502301134e-16
-1.792041204634538e+01 -3.911464311501598e-01  3.229339960906810e-16
-2.475554365124112e+01 -8.517277865516764e+00  5.280663647437126e-16
 8.592625223052851e-02  6.636354290352398e-01 -8.347773109895492e-18
 2.665778248937239e+01  3.795110287183873e+00 -5.134004174976592e-16
 2.381457738997481e+01 -2.342458888909336e-01 -4.214020203009238e-16
-1.218060477947025e+01 -5.719449567313494e+00  2.755336582142176e-16
-2.456764866237022e+01  9.030200025680044e-01  4.279324108173326e-16
 2.838044617818851e+01 -1.591019153186995e+01 -3.415924549224381e-16
-5.149616510857647e+00 -1.599600149549823e+00  1.080788788997969e-16
 2.650238982251671e+01 -1.456240719823754e+01 -3.220181962554146e-16
-1.391473168442790e+01 -1.099387013927579e+01  3.605872703434449e-16
-5.415040646834144e+00  2.159670100023024e+00  7.417728189272333e-17
-2.798234650112092e+00 -1.478253418529358e+01  2.016830921112465e-16
 1.559397385621921e+01 -1.160599538363626e+01 -1.582659794962515e-16
 1.310822050302838e+01  1.783397558732714e+01 -4.165140404873288e-16
-2.863970431575682e+01  1.545500767327487e+01  3.508831114925283e-16
-6.171407201548067e+00 -1.161024708356537e+00  1.217566597771127e-16
-4.273094506074862e+00  8.742938999060879e-02  7.514650864881085e-17
-1.581139964490753e+01 -4.778723258266267e+00  3.304823627153653e-16
-1.131421119344408e+01  5.637053908255572e+00  1.434312031403457e-16
 2.301368519420472e+01 -7.367896882852785e-01 -4.019857333563448e-16
 2.188029329545280e+01  2.373199246571177e+01 -6.332235203755377e-16
-2.639959123682726e+01 -9.637864776639830e+00  5.688377760448123e-16
-1.916092615239887e+01  2.626689466501529e+01  7.110873618058525e-17
 2.800893778917187e+01 -4.281770839392105e+00 -4.544588182908627e-16
 1.766574674345699e+01  2.788453426914459e+00 -3.430333817614562e-16
-3.048419952867875e+01 -2.504728546477778e+00  5.682378694010169e-16
-2.017935581299293e+01  1.830614095975908e+01  1.710267592237382e-16
 3.137733244810174e+00 -1.274877462201253e-01 -5.452981563140903e-17
 1.589772893195674e+01 -1.224600379725797e+01 -1.570958094298717e-16
 1.855406917109521e+01  1.999654308240646e+01 -5.356490089946963e-16
-2.840828650586502e+01 -8.654678691390146e+00  5.944830245577682e-16
-1.888745545375664e+01  3.881600717672035e+00  2.962427622777881e-16
 2.762673353547812e+01 -3.732982596195373e-01 -4.878151736088454e-16
-1.697280275492437e+00 -1.634804358193655e-01  3.188482918461125e-17
 4.932643233991779e+00 -2.198764718397184e-01 -8.552311934631662e-17
-2.283788098401177e+01 -4.864082490176707e+00  4.564040147156238e-16
 1.789968680956358e+01 -3.624364168930384e+00 -2.813072530875750e-16
 1.510305153555446e+01  1.970181170384875e+01 -4.712057757910940e-16
-2.450078154216797e+01  9.343990873089321e-01  4.264200219422039e-16
-1.555642973588618e+01 -4.608620936540146e-01  2.815804141271907e-16
-3.153280990283056e+01  8.048093754553763e+00  4.784727262537293e-16
 6.330552017283843e-01  1.797948033603187e+00 -2.973923534262072e-17
 2.547529411412643e+01 -6.840912450597727e+00 -3.830753564741692e-16
-2.389837038629402e+01  3.531078654663696e+00  3.890194575959833e-16
-2.687514005569364e+01 -1.500741620006111e+00  4.936947500717270e-16
 2.356216482055825e+01 -1.017873422420883e+01 -3.147340324366094e-16
 1.258462982237077e+01  5.288877966767891e-01 -2.293926291611865e-16
 2.541798354001992e+00 -9.055661233967920e-02 -4.430389737643688e-17
 2.839516651738453e+01 -2.557310957040965e+00 -4.790504180733993e-16
-7.948413920216455e+00  2.430148146704959e+01 -1.082373871761215e-16
-2.315880597203987e+01  1.184912927811181e+01  2.903930782137291e-16
 2.859101835058878e+01 -1.087206461350665e+01 -3.971047617563763e-16
-1.023308109077951e-01  1.794576368070785e+01 -1.825651037903179e-16
 8.513107170803533e+00  1.006125560479053e+00 -1.618384715325175e-16
-1.783559191562707e+01 -8.270680271524508e+00  4.023838684867517e-16
-2.072082321066284e+00  9.206360075691127e-01  2.741597604715035e-17
 8.402899093335050e+00  6.088755215278645e+00 -2.120993606728867e-16
-1.262452641731882e+01  7.985153525613278e+00  1.426239549822941e-16
 3.215727099800109e+01 -4.165798957824554e+00 -5.294749250083661e-16
 2.435752083067128e+01  3.565006072621392e+00 -4.701002802010325e-16
 2.884351416934378e+01 -5.268081393399973e-01 -5.078919781946901e-16
-2.205320300346283e+01 -1.511601312587251e+01  5.477745970939948e-16
 2.279471851949357e+01 -1.543836900104677e+01 -2.470355734114868e-16
-1.218829403694911e-02 -1.644203719293397e+00  1.711050117326436e-17
-2.763334501854979e+01  9.532228953219782e+00  3.938281471505778e-16
 9.092165143529311e+00 -2.872634406460350e+01  1.333468255444042e-16
-5.994298104885318e+00 -7.718333709170925e-01  1.146059925386356e-16
-1.092608782318630e+00  2.640002126663783e+01 -2.518063515428031e-16
-1.600441053684773e+01  1.332090836417014e+01  1.479500819178092e-16
 3.149402862039479e+01 -7.853921597897515e+00 -4.797776154276241e-16
-1.106968287419035e+00 -1.319702370105377e-01  2.105576735868424e-17
-1.504688796835598e+01  9.576772119843989e-01  2.579375345181066e-16
 1.268267279117938e+01 -2.314668887402646e+00 -2.019209087834899e-16
 1.212718096214121e+00 -3.251968022004814e+01  3.125461356787907e-16
-2.753711677052129e+01 -5.751247169116558e-01  4.959650379319154e-16
-1.442694467887016e+01  6.147422657409629e-01  2.504284361808061e-16
-1.707061122123912e+01  3.763982455903285e+00  2.651183368563070e-16
 3.148803111168516e+01 -5.246666142228984e+00 -5.064594852680189e-16
 1.460415916661870e+01  4.170289475851806e+00 -3.027466422658122e-16
-2.342030771375015e+01 -2.842454263540936e+00  4.459974975009131e-16
-5.257439084475517e+00  1.643248211290264e+00  7.667862134541052e-17
 1.364370124523169e+01  1.842655320269405e+00 -2.617385524915435e-16
-7.250944699816607e+00 -5.200273035423818e-02  1.295735193327183e-16
 1.039434354263818e+00  4.879348806110522e-04 -1.850298757353467e-17
-1.525660530832164e+01  1.617527824807126e-02  2.713432950953541e-16
 1.654953503917991e+01 -2.318750120431726e+00 -2.706944018700955e-16
 8.637792081424150e+00  1.105406727085552e+00 -1.650774661782544e-16
 2.259381665313181e+01 -6.815405458358409e+00 -3.320581029764404e-16
 5.660799069395633e+00  1.533894926214548e+01 -2.583428033461441e-16
-8.426675353974742e+00  1.295365420190964e+01  1.686864839419263e-17
 3.188682147310684e+01 -6.505157668150708e+00 -5.006258921871261e-16
 2.843621594752609e+01 -3.308570876672923e+00 -4.720620188748645e-16
 3.035886964570576e+01  5.017024562977876e+00 -5.918204035479726e-16
 1.913566376034952e+01  3.805385469630278e+00 -3.796409157661151e-16
 2.546269844082508e+00  1.466205614238973e+00 -6.037863923174162e-17
-3.042586478222903e+01 -1.055158450362400e+01  6.498782547709175e-16
-3.311996090547293e-01  5.183322192770857e+00 -4.736266045904362e-17
 3.203830411837174e+01  1.255550860569134e+00 -5.830601674445690e-16
-3.231449742195076e+01  1.972386423482713e+00  5.548094737757417e-16
 2.540262626449134e+01 -1.545476725773936e+01 -2.932779164297609e-16
-3.624294906708048e+00 -8.137481834378347e+00  1.481083208055214e-16
-1.591464559950823e+01  7.850506566213426e+00  2.025589990174763e-16
 2.500975461694042e+01 -5.098943042261952e-01 -4.398394373835627e-16
 8.228379354324140e+00  3.903277199227387e+00 -1.865385809827149e-16
 5.754598081666304e+00 -9.859807388642067e-01 -9.227934328211681e-17
 1.757531721068624e+01  9.728556211662802e+00 -4.127311153382642e-16
-2.146365623304071e+01  1.838312285841080e+00  3.630833745024379e-16
 1.460593991700046e+01 -1.645223724083144e+00 -2.430260473184687e-16
 1.926776694078065e+01  1.313129732738963e-02 -3.430278154588208e-16
 6.375804260455765e+00  3.648505723032971e-03 -1.135025292298522e-16
-1.426797082383102e+01  1.921561037714494e+00  2.341722186506929e-16
 3.230476990556648e+01 -3.722751985598100e+00 -5.366519907118395e-16
 5.620304702589661e-01  1.157531832856614e+01 -1.289341934755313e-16
-2.774178280602098e+01  1.421646137657062e+01  3.476291404233446e-16
-5.599074924303745e+00  1.989977304332988e+00  7.919592313365553e-17
 3.065338173639614e+01 -1.008719162959089e+01 -4.418712631024598e-16
 2.022319630741821e+01  5.383142217693224e-01 -3.654268844668491e-16
-1.341182022746877e+01 -1.407936640923861e+00  2.531453766683965e-16
-1.527854265937830e+01  1.160264224287109e+00  2.599785981127724e-16
 2.472526697627385e+01 -3.401880561463031e+00 -4.050625322375895e-16
 3.761377494853873e+00  1.267589559370092e-01 -6.824060147729222e-17
 3.623435158225492e+00 -4.491503736221316e-01 -5.986849389721359e-17
 2.245224414172406e+01  5.536513039263530e+00 -4.564501266596222e-16
 2.816598288137533e+00 -7.325622714999443e-03 -5.004945818808036e-17
-2.449681433853170e+01 -4.530675049599567e+00  4.825010722858091e-16
 2.140718100728086e+01 -7.133175520998612e+00 -3.076755342390363e-16
 1.639945846227079e+01  8.409338757210302e+00 -3.782508261699131e-16
-2.606105702041516e+01  2.752418005723786e-01  4.609595869232368e-16
-2.657809708741259e+01  1.427340371377591e+01  3.263349031255609e-16
 3.031573455294091e+01 -2.853265168223776e+00 -5.101883951864297e-16
 1.418581826580230e+01  1.930657891245668e-01 -2.544372383417787e-16
-1.310088049318520e+01  1.166321170045925e+00  2.211622693992083e-16
 3.222585433557915e+01 -4.440252833007677e+00 -5.278755334532026e-16
 6.636111456720307e-01  1.681346775791748e+01 -1.845620252835450e-16
-1.399097069580569e+01  1.562222350885263e+01  8.847334112014912e-17
 1.208562239244931e+01 -1.156081747084208e+00 -2.031997467545358e-16
 2.839509536751488e+01 -1.208904967990986e+01 -3.811139990973199e-16
 1.644189387647069e+01  6.352952593694996e-01 -2.991305421437209e-16
-1.487117051171115e+01  2.423532410239173e-01  2.621601266369358e-16
 1.194966243609596e+01 -1.202345193203309e+00 -2.003048370439999e-16
 1.027368875405955e+01  4.389806392694495e-01 -1.873429128786902e-16
-1.407610133991234e+01 -6.383663366118390e-02  2.511569121374066e-16
-2.941168940285270e+01  1.070501877559726e+01  4.134259173775789e-16
 3.013276808563497e+01 -6.115389936990671e+00 -4.734151417069755e-16
 1.923034626374218e+01  9.626382284168785e-01 -3.521177086488883e-16
-1.896253962807931e+01  2.828520341438487e-01  3.345548101248153e-16
 3.192849858739948e+01 -6.184734074401943e+00 -5.046598221707345e-16
 9.540365405471281e-01  7.561434255964017e+00 -9.466920838114788e-17
-2.750580017924323e+01  1.310444774757252e+01  3.548550841651043e-16
-2.073311257011449e+00  6.116835849027762e-01  3.061222033175011e-17
 3.134083475080456e+01 -7.823187555962883e+00 -4.773671288945994e-16
 1.869610248661743e+01  1.980001967272161e-01 -3.347538253589971e-16
-7.035195281391709e+00 -6.944873975301110e-01  1.323352976428055e-16
-8.562589191871430e+00  8.535920107003021e-01  1.436111406710629e-16
 8.526297859409528e+00  8.527022476406494e-02 -1.526117615251164e-16
-1.356478624876414e+01 -9.748184879127497e-02  2.424031425452296e-16
-2.997642291536723e+01  1.096484118025642e+01  4.208064430359148e-16
 3.003792046385957e+01 -7.150957970221279e+00 -4.610871297983057e-16
 1.958918230753000e+01  1.104597143170214e+00 -3.599622003567266e-16
-1.644043621612802e+01  2.665759643289110e-01  2.898382021193626e-16
 3.216301090012995e+01 -4.865571618268070e+00 -5.223871635414680e-16
 8.612457490753824e-01  9.022819762201591e+00 -1.080330907634888e-16
-2.730083571183609e+01  1.347043637761691e+01  3.474470967556297e-16
-1.931098155133543e+00  5.386475711907870e-01  2.883178704162894e-17
 3.127760896310587e+01 -8.097107131752411e+00 -4.734275264496241e-16
 1.652461606912150e+01  3.324488363945824e-01 -2.974910452493661e-16
-2.219064303473029e+01 -9.742604115433217e-01  4.049191345678189e-16
 1.923690131933788e+01 -4.761293652097220e+00 -2.934230429508529e-16
 1.937235427834818e+01  3.219428604920919e+00 -3.778326119443088e-16
-2.055699137235749e+01 -5.299658917975509e-01  3.712813897525152e-16
-2.803643778475080e+01  1.573305067246080e+01  3.372904731614049e-16
 3.092924476632244e+01 -5.922102461361496e+00 -4.895753529014777e-16
 1.664572801427082e+01  1.019366320347789e+00 -3.067042043912656e-16
-2.246118195405795e+01  2.614619346164563e+00  3.728592616164131e-16
 3.228598931490335e+01 -4.044471518543164e+00 -5.330122163659455e-16
 9.086731917072181e-01  8.006098115679405e+00 -9.843067311887677e-17
-2.760243275565113e+01  1.330537436197417e+01  3.545103281549365e-16
-2.607646828065360e+00  8.129739300045938e-01  3.805317399543442e-17
 3.129045920098062e+01 -7.975863324728019e+00 -4.749019478337472e-16
 1.856866510791991e+01  2.262734241634949e-01 -3.327764223358178e-16
-1.095794056168810e+01 -1.081935450581599e+00  2.061261171340949e-16
-6.578348130689087e+00  8.846108750512809e-01  1.079804965370685e-16
 1.167510539163604e+01  3.120127528225688e-01 -2.109782447546348e-16
-1.340433030059549e+01 -1.087705169968148e-01  2.396636245055088e-16
-3.023715012495087e+01  1.019776727350117e+01  4.333278004726397e-16
 3.009136752519191e+01 -7.621320964953923e+00 -4.572054750836519e-16
 2.042431498901283e+01  1.484365348124221e+00 -3.787263629613040e-16
-2.139803977480374e+01 -7.540778355073269e-01  3.885515181233057e-16
 3.166609765073654e+01 -7.339767140977026e+00 -4.881225393531888e-16
 1.235386206796986e+00  4.300063163223275e+00 -6.616675807733131e-17
-2.767631075648837e+01  1.282195682416494e+01  3.607920148922073e-16
-3.728730858486352e+00  1.263426258970466e+00  5.337596757368881e-17
 3.137168996305128e+01 -7.710656441004248e+00 -4.790724505255817e-16
 1.803171762995241e+01  1.968142509628613e-01 -3.229181191805746e-16
-1.316182573454436e+01 -1.133200427758745e+00  2.458736116761297e-16
 1.195575301414848e-01  7.803776984923400e-02 -2.929478593358499e-18
 1.177177460014027e+01  6.024525312972516e-01 -2.156827517958063e-16
-1.435402822508196e+01  7.650803530290494e-02  2.546609620924079e-16
-2.831002648865744e+01  1.025725437479983e+01  3.984211282222712e-16
 2.987454694158827e+01 -4.884345916294452e+00 -4.814683185230040e-16
 1.773610017428766e+01  6.043071391395402e-01 -3.218440953146362e-16
-1.639430321803856e+01  6.494945697937946e-01  2.850828608406407e-16
 3.208318339533437e+01 -5.359057986610630e+00 -5.158961446879091e-16
 8.615777867199814e-01  8.953558639977604e+00 -1.073273668949481e-16
-2.740347370266483e+01  1.345417972944683e+01  3.494406933850710e-16
-8.745306014574541e-01  1.320645040135028e-01  1.420640039934803e-17
 3.131973152080177e+01 -7.863131360292885e+00 -4.765811636584168e-16
 1.821994687936008e+01  2.334483771632626e-01 -3.266442855277830e-16
-1.426333087723912e+01 -1.285708690759914e+00  2.670431766306930e-16
-2.043095004333509e+00  4.210462445609221e-01  3.203321549715437e-17
 1.213898328711959e+01  5.754118330531199e-01 -2.219398350439522e-16
-1.437101406952789e+01  1.201009465207614e-01  2.545153441370477e-16
-2.880562308416259e+01  1.029615479131403e+01  4.068411731798480e-16
 3.013311607475964e+01 -5.613603922372928e+00 -4.785770035863183e-16
 1.862268704292639e+01  8.997647796855334e-01 -3.406576861265015e-16
-1.700208354905930e+01 -7.220381725775832e-02  3.033142255875297e-16
 3.201298721536583e+01 -5.726695160483644e+00 -5.108695815400373e-16
 9.396411786117693e-01  7.080920518175146e+00 -8.947592164765542e-17
-2.759533086497313e+01  1.332703487316082e+01  3.541613876541681e-16
-1.151709602152639e+01  4.368687453733749e+00  1.600737852000280e-16
 3.025334093671761e+01 -1.121954578430279e+01 -4.231175322513277e-16
 2.270606029532676e+01  2.414837492502978e-01 -4.065625855244381e-16
 2.118952073233055e+01  2.726694883242158e+00 -4.051085966060789e-16
-2.928135778113839e+01 -4.421558702226709e+00  5.665265992279940e-16
-7.808044183729220e+00  3.053559732108713e+00  1.075792430565640e-16
 2.375981244596417e+01 -1.916145595582754e-01 -4.208654342134946e-16
 7.283205500953978e+00  9.670410204809308e-01 -1.395493247985325e-16
-1.006962244505540e+01  4.027981153344110e-01  1.750623385810199e-16
 2.211377104740893e+01 -1.786871387279056e+00 -3.751814796295793e-16
 1.452179347693940e+01  1.680320546055588e+00 -2.756973203495219e-16
-9.830251635990917e+00 -8.612900972260821e-01  1.837904966779566e-16
-1.140846668731416e+01  1.774640952223303e+00  1.847934820885602e-16
-1.522277914531152e+01 -2.272468723151683e+00  2.942563038925287e-16
 1.512911112277366e+01 -5.925970536660814e+00 -2.083533845245612e-16
-8.704575610955615e+00 -1.188987464136714e+01  2.770724488696777e-16
-8.342404226090672e+00  6.947718307886895e+00  7.707775267365780e-17
 2.254460887040149e+01  4.178907963942319e-01 -4.055018831576659e-16
 1.612952339517220e+01 -1.281608411215605e+00 -2.738760479560285e-16
 2.480917621495474e+01  3.086848243436767e+00 -4.732251285363907e-16
-1.379365603128150e+01 -2.178913852073127e+01  4.693500456992293e-16
-2.531649065366054e+01  3.714332853948392e+00  4.123737290188345e-16
 2.417101629403967e+01 -5.094273536555940e+00 -3.778102572043143e-16
 3.003945098944117e+01  5.940418728433484e+00 -5.956235071606117e-16
-1.626324610306737e+01 -7.262592787999291e+00  3.640443665063467e-16
 1.186785709203142e-01 -4.772599729625134e+00  4.692470175419981e-17
 1.889181818422469e+01  6.376200539686192e+00 -4.017155838184485e-16
 7.284103716308566e-04  6.503595728816313e-03 -7.978501502355427e-20
 2.689804801937246e+01  1.720280464195361e-01 -4.804503753166839e-16
-1.610688291394862e+00 -2.351241143308916e-01  3.107993431615436e-17
 1.714869648109922e+01 -6.513539283495586e-01 -2.984890845894596e-16
-2.541011427069631e+01 -1.664477871323093e+01  6.232223484346496e-16
 5.660464099758063e+00 -2.773532507120428e+01  1.842356789689652e-16
 2.978727602726369e+01  8.009731723902647e+00 -6.123971922136793e-16
-1.114865158609855e+01 -3.469595815250185e+00  2.340523901743039e-16
 1.513732564104438e+01 -7.071414395582023e+00 -1.967305521497978e-16
 2.905379275454790e+01  1.464921223051332e+01 -6.675622327104674e-16
 6.398803470884198e-01  2.717694585229846e+01 -2.906206800704950e-16
 2.880954965120479e+00  3.604335719684584e+00 -8.830327031546775e-17
-1.030436839049145e+01 -1.899932358406998e+00  2.028996418356909e-16
 7.010189028290267e+00 -9.191187138956737e+00 -3.031856686975409e-17
-1.164340005353250e+01 -1.750748478002888e+01  3.870912388507535e-16
-2.468462845720367e+01  6.048167553121242e+00  3.771496838029858e-16
 1.353813181730115e+01  4.757591767452180e+00 -2.898097316673558e-16
 2.033012434583972e+01 -3.614148859339399e+00 -3.246647467783537e-16
-1.243854823889794e+01 -1.656836941651294e+01  3.915927800883733e-16
-2.156977511643302e+01  3.565776930028142e+00  3.472228149449571e-16
 1.158760677973004e+01  1.804425235833495e-01 -2.080692662219259e-16
 2.202659443909324e+01  6.762312561651724e-01 -3.989375528250953e-16
 3.076282732439389e+01  5.801864559171047e+00 -6.070732581569112e-16
 3.817746707809758e+00 -8.669644779208885e-01 -5.903361156982087e-17
 9.624326020408516e+00 -2.298596193464108e+01  6.489604688423724e-17
 1.969005533223027e+01  5.972089989217229e+00 -4.117690769348744e-16
 4.765071034349520e-01 -7.824646964148224e-01 -4.404717291883436e-19
 1.070378322125555e+01  4.282504128531577e-01 -1.948867077805292e-16
 6.336430630424270e+00  3.120245174389276e+01 -4.333581981405134e-16
-1.043469608351359e+01  8.536879339686317e+00  9.798452976520988e-17
-1.881183163208871e+01  4.638232301346450e-01  3.300133682626047e-16
-2.760477317182588e+00  2.008802759930874e+01 -1.572711995003743e-16
 2.699995995002916e+01  1.314470149202756e+01 -6.155535267562473e-16
-2.384396014014783e+01 -2.214847302934090e+01  6.518992272369186e-16
-2.531027651631705e+01  2.046502937159687e+00  4.293994875511792e-16
 2.569724528523068e+01 -6.634183481861885e+00 -3.891493073508326e-16
 2.316453461903108e+01  5.410788738830298e+00 -4.678344138804553e-16
-3.250505346592955e+01 -1.905473022996312e-01  5.804240041619862e-16
 2.724625051849139e+01 -1.404187314208840e+01 -3.406043829605955e-16
 1.483682474877580e+01  8.294499970825171e+00 -3.492619684569753e-16
-1.428216553772783e+01 -4.993257227596328e-01  2.592985625444722e-16
-7.736069751514258e+00  2.534163162711200e+00  1.116349832384719e-16
 1.671631477603438e+01  3.108712346756892e+00 -3.294276514410976e-16
 2.665945608655014e+01 -4.936448694874698e+00 -4.237166045451352e-16
-6.100464760900484e+00  2.288899964733039e+01 -1.266111091378562e-16
-1.878682777701055e+01 -4.036691828686403e+00  3.758095521467540e-16
 6.925080381793235e+00 -9.791679894339285e-01 -1.131794705363902e-16
 1.444432827759289e+01 -3.978280445528290e+00 -2.161786651416442e-16
-1.050367424360405e+01 -1.618572080508648e+01  3.532278138639384e-16
-1.224215036144681e+01  3.630399020744954e+00  1.805626375238083e-16
 5.641248823514796e-02  4.552159726027246e+00 -4.777571502878789e-17
 9.799431358673413e+00 -4.018068314351608e+00 -1.331083779338800e-16
 1.396956861549709e+01  1.900437421873948e+00 -2.681314411433410e-16
-1.277251249093308e+00  3.898613174952004e+00 -1.732662456326858e-17
 6.030254838736150e+00 -3.000754971870410e-01 -1.042324111426414e-16
-1.105270325186343e+01  1.891824437433924e+00  1.772582296631953e-16
 5.772430193188461e-01 -7.956190827163468e+00  7.147424240306165e-17
 9.874291888641768e+00  1.466695440640046e+00 -1.907945654833953e-16
 1.685105848804558e+01  1.209743372013115e+00 -3.123143601447518e-16
-2.427879839303778e+01 -7.408542153741777e+00  5.081902575220623e-16
-9.773782604618326e+00  2.395000258060583e+01 -7.214145612491299e-17
-6.738400537025817e+00 -3.799267534177372e+00  1.589539691640697e-16
 2.078018697273619e+00 -4.154537984376539e-01 -3.271218460770261e-17
 2.707067591432105e+01  9.688581976137137e+00 -5.813016291830523e-16
-6.969300060146379e+00  1.759948257294055e+00  1.059441788160982e-16
-2.225353277245883e+01 -2.353747143375454e+00  4.202120575132490e-16
-2.175040731724259e+01  9.240104213759722e+00  2.921357289065333e-16
 1.527185627286714e+01 -8.024552424328919e+00 -1.893315382273943e-16
 2.774642929647149e+01 -1.579203531399264e+01 -3.315233804105631e-16
 1.722425253952559e+00  1.722124842355191e+01 -2.075946835407683e-16
-2.128639354777125e+01 -1.094325211970351e+01  4.912547046700794e-16
-3.238080719216575e+01  4.177200468578346e-01  5.719631674804041e-16
 5.641018108602400e+00  2.759265553622684e+01 -3.838931580903744e-16
-8.047431478097206e+00 -5.181754417872932e+00  1.964542867674821e-16
 1.483873249725382e+01 -8.017789336072189e+00 -1.816930722653338e-16
-7.421174751452793e+00 -1.008866327909780e+01  2.357260072555373e-16
-2.522841807568595e+01  4.696119199482870e+00  4.007188743931521e-16
-2.926056546600273e+01  1.510264387463075e+00  5.052092477846370e-16
 2.420238904069504e+01 -1.622895094377437e+01 -2.639638072045338e-16
 2.786804269497985e+01  8.139400308904678e+00 -5.795744433226047e-16
 2.651100210853076e+01  3.872791952911308e-01 -4.757740590304998e-16
-1.523710201463724e+01 -8.281199368719752e+00  3.562487210135655e-16
-2.212122761902937e+01  1.813914032627275e+01  2.073005552110299e-16
-1.102227577363996e+01 -1.768317746462173e+00  2.143233677335454e-16
-3.368095966912134e+00  9.627140523910619e+00 -3.897608632525596e-17
 8.968142092806652e+00  6.540844057034085e+00 -2.268035827167364e-16
 2.181518069200601e+01 -3.623983622489780e+00 -3.509920472680999e-16
-2.422566672892084e+00 -5.740540370704631e+00  1.020944306505721e-16
-2.497798301255557e+01  2.792983547258805e+00  4.158161111771859e-16
-2.136993053984963e+01  1.517478089780311e+00  3.647118688144757e-16
 2.487204708462105e+01 -9.260342552626534e+00 -3.474810906146304e-16
 1.429382917619472e+01  6.857070808132539e-01 -2.614211316462243e-16
 1.717629821954626e+01 -5.088397752174053e+00 -2.533912770134446e-16
-5.534086889061816e+00  1.256960056709992e+01 -3.066240214811181e-17
-8.457095364830668e+00  5.798569147352545e+00  9.092590846386979e-17
 6.155715807077543e-01 -5.506598759610305e-01 -5.297000375340838e-18
-3.119136013769382e+01  7.536484032738238e+00  4.776528244023656e-16
-4.798298026918680e+00  1.982413190495478e+01 -1.182943167846046e-16
-1.191195082767441e+00 -2.043991563525132e+00  4.220000819823680e-17
 1.875152113311258e+01 -5.862388696078110e+00 -2.734717719570131e-16
 2.967659778987603e-01 -1.617091025883004e+00  1.133371827699006e-17
-2.051186715930231e+01  3.735566235635939e+00  3.266515574902998e-16
 2.008143931207415e+01  4.829944647846213e-01 -3.623357592395290e-16
-7.622383463549978e+00 -5.256367634397267e-01  1.410501328137217e-16
 1.673068326161506e+01 -1.719749048680327e+00 -2.800726689913621e-16
 2.900989738282477e+01  1.487155672830674e+00 -5.315457124830086e-16
-1.747327390180318e+01 -1.545357264076865e+01  4.697375970006800e-16
-2.786768181291139e+01  8.446392243282792e+00  4.091550276611177e-16
-3.009777290307883e+01  9.620075088994174e+00  4.367829938954062e-16
-2.663325307485877e+00  1.482873868387184e+01 -1.049628523559304e-16
 1.120586421127944e+01  1.084356051517245e+01 -3.108353656027712e-16
 2.562509117584481e+01 -8.009386453606682e-01 -4.477997105792840e-16
-2.933488514284015e+00 -8.310981818263727e+00  1.375972463563378e-16
-2.422497782068663e+01  3.030735408042809e+00  3.999726715807959e-16
-3.915663765079127e+00  3.885434400993659e-01  6.569176483773607e-17
 2.747977860109467e+01 -3.804715709676453e+00 -4.499433675085596e-16
 1.946527893552356e+01  3.253522206184319e+00 -3.798366164344746e-16
-6.507428537943682e+00 -3.784289241058210e-01  1.196956729119750e-16
-4.424090998209960e+00  5.977414126864403e-02  7.811781897277114e-17
-1.095887894605182e+01  6.231005874642958e-01  1.886241908916211e-16
 2.767195016786368e+01 -1.428495118774448e+01 -3.456826773920812e-16
 3.413010918736668e+00  1.965704034412736e+00 -8.093549535843934e-17
-2.193878147179381e+01  3.198483108620326e+00  3.575635337972600e-16
-2.535784313828780e+01  3.050328325099745e-01  4.481389650214746e-16
 2.580406630256675e+01 -1.286406386683414e+01 -3.270405569834797e-16
 2.190526756186809e+01  5.191900281395569e+00 -4.431752551301284e-16
 2.718661255342220e+01 -8.494690411237581e+00 -3.965383416515440e-16
 1.809026852887862e+01  2.018097632892637e+01 -5.292901079315215e-16
 3.069571727498987e+00 -2.983207997988642e+01  2.518870942429756e-16
 2.404295659080357e+01  4.912722008940103e+00 -4.783495260031172e-16
-3.053331479444989e+01  9.149372686157580e+00  4.493702775709462e-16
-2.149081346307796e+00  6.191432726042995e-02  3.760931885367699e-17
 3.017761346828558e-02 -4.942065272522256e-02 -2.926737464824474e-20
 1.603610697802682e+01 -4.193214185959288e+00 -2.422978997465162e-16
-1.390819539058097e+00 -3.823228133111706e+00  6.403357294006935e-17
-2.498281351917506e+01  3.140533358337251e+00  4.123311277615659e-16
-2.343484649677588e+01  1.435534520829154e+00  4.023014517737355e-16
 2.478430123478105e+01 -9.056347736162772e+00 -3.480155211734735e-16
 1.408319841032960e+01  1.138524902123535e+00 -2.623252445316622e-16
 1.453348859092913e+01 -4.561981388873694e+00 -2.117680641276735e-16
-5.083530522134537e+00  1.098215983197020e+01 -2.237021330956797e-17
-1.118729291417567e+01  6.607754323170395e+00  1.311989468283722e-16
-1.052674964129102e+00 -6.582568553294514e-01  2.549695675764825e-17
-3.125781003678244e+01  7.250948997340686e+00  4.817691483842425e-16
-2.904636698009317e+00  2.580455190077021e+01 -2.134409218710015e-16
-5.648481402040743e+00 -5.642744845319654e+00  1.584986177536389e-16
 1.850343348469596e+01 -9.002083262864922e+00 -2.367975352283911e-16
 2.434111623653943e-01 -5.881861193639146e-01  1.711606719965573e-18
-2.384644523760322e+01  4.194320125473366e+00  3.812808224610986e-16
-2.346810864226200e+01 -9.794341573492850e-01  4.277063172393744e-16
 2.259860418271321e+01 -1.003083497928256e+01 -2.991059325144592e-16
 1.666943854205422e+01  1.955565133750420e+00 -3.167452642304441e-16
 1.178893319327907e+01 -3.922673185898546e+00 -1.694940865452048e-16
 4.732153131172375e+00 -8.309251189062692e+00  1.160227774083866e-18
-2.301274781628329e+01  5.000498801629872e+00  3.581609893383118e-16
 1.670387802168095e+00 -8.299885305788675e-02 -2.887376038797143e-17
-1.176644777817770e+01  3.433111147121883e-01  2.058705767532383e-16
 2.770605119650503e+01 -1.351776754450266e+01 -3.541720791194987e-16
 3.641632552424073e+00  2.269471826121065e+00 -8.812519374724625e-17
-2.237333801970055e+01  2.860369104842023e+00  3.687709844805868e-16
-1.909231725815638e+01  9.452022650832034e-01  3.300589498331872e-16
 2.533015048763236e+01 -9.470637946776904e+00 -3.534728783260608e-16
 1.429873285865409e+01  9.548363192942639e-01 -2.642736036817969e-16
 1.601398477388638e+01 -4.878264327484997e+00 -2.348655673981142e-16
-6.688804198647071e+00  1.462069515285835e+01 -3.118708200524616e-17
-9.681876835373703e+00  6.702351860494501e+00  1.034363166657225e-16
-1.935330715804208e-02 -1.207412952519098e-01  1.584988135124047e-18
-3.118070661050315e+01  7.457439060620477e+00  4.782753905534166e-16
-3.522299524290052e+00  2.459404293090691e+01 -1.900113352159651e-16
-5.422244210103299e+00 -5.694515577049921e+00  1.550043824999405e-16
 1.806057330229180e+01 -8.874797809392831e+00 -2.302241218351385e-16
 2.463561521126197e-01 -7.304906050138606e-01  3.121323999318638e-18
-2.399872881156211e+01  4.111045465595080e+00  3.848465071868231e-16
-2.344293989593265e+01 -1.030039902028222e+00  4.277783650093002e-16
 2.130928466357006e+01 -9.126777884576121e+00 -2.854498119490500e-16
 1.652372239938507e+01  1.504989459172613e+00 -3.095225702859655e-16
 1.382309928106036e+01 -4.512394491844868e+00 -1.996353263114470e-16
 4.040147232775475e+00 -7.272601118186961e+00  2.824095291903815e-18
-2.321077333687479e+01  4.968206153625018e+00  3.620168849207569e-16
 5.853433003993315e-01 -1.360999275059621e-01 -9.018504956260676e-18
-1.040017002187989e+01  4.580281752334318e-01  1.803773582049285e-16
 2.872641493952720e+01 -1.086076928311679e+01 -3.996303609802642e-16
-3.281698814550420e+00 -4.094876474096401e+00  1.004751131613554e-16
-2.424236454214287e+01  3.203337061124778e+00  3.985086697444206e-16
 2.385765446815065e+01 -6.490311095809086e+00 -3.578898309328175e-16
 1.977236485405675e+01  4.854244781267056e+00 -4.017484196166986e-16
-5.348079514220897e+00  6.618943195620146e-01  8.837473068990707e-17
 1.739082056303209e+01  3.718261645864236e-01 -3.133107752118243e-16
-2.404779441329853e+01 -1.564283174699031e+01  5.886836004384733e-16
-2.448026739189949e+01  1.059753696795841e+01  3.267697167984823e-16
 2.844593975958882e+01 -1.163976201080969e+01 -3.866351032990642e-16
 8.842969219438286e-01  1.259638201395546e+01 -1.451603678277114e-16
-2.555736266372437e+01  1.254680344509267e+01  3.259099070373270e-16
-3.075934664075413e+01  1.062788640805272e+01  4.382015925088068e-16
 1.812168074124076e+01 -2.254888280046181e+01 -9.081534570217235e-17
 2.068502799023348e+01  2.431622135564270e+01 -6.179550881250788e-16
 2.713494796396246e+01  9.247888204624747e+00 -5.779174585508437e-16
 1.013206953760954e+01  1.950257792330593e+01 -3.806941668241744e-16
-3.024975293519742e+01 -1.200174277315810e+01  6.616439837996181e-16
-3.455042322040315e+00  1.423286667057290e+00  4.686284597572001e-17
 1.347064922867093e+01  2.883113479702774e+01 -5.359557079237059e-16
 2.188090076163600e+01 -1.027909038164786e+01 -2.837828099602039e-16
 1.383121126083211e+01  1.121395751263894e+01 -3.613622425903061e-16
 5.026435076237915e+00 -4.594787323318086e+00 -4.224163733707405e-17
 3.004186153688226e+00  1.286607270492104e+01 -1.856572992877692e-16
 1.529724295736101e+01 -1.310020528336798e+01 -1.376328352499229e-16
-4.546359070199027e-01  1.566747370322497e+00 -8.006971798188265e-18
-3.235634947363788e+01 -2.213849744899353e+00  5.985663368324708e-16
-2.984704398922162e+01  8.633386755783203e+00  4.424588379769161e-16
 3.009994178373455e+00  2.126223559443398e+01 -2.720281836232343e-16
 8.604395181413295e+00 -6.634131917399987e-01 -1.463091463882339e-16
 9.234748192154555e+00 -9.543367882965347e+00 -6.628872153466627e-17
 1.757880228452543e+01  2.598721573129669e+01 -5.798449566419576e-16
 8.553438875073066e-03 -1.077564052048342e-02 -4.150285557970856e-20
 1.185109084719385e+01 -1.066632269270122e+00 -1.999450389710206e-16
 1.550587652666440e+00  2.373726872877528e+01 -2.714863700029538e-16
 1.040996706838793e+01  6.649399499718855e-01 -1.920897978915139e-16
-9.284433059263749e+00 -9.278495021351267e+00  2.605607269185807e-16
-3.774088126518888e+00  4.330784688158055e+00  2.266716067803540e-17
-6.046085819308805e+00 -1.389168884206607e+00  1.218705148328550e-16
-1.334952110017752e+01 -1.200160789451162e-01  2.388037734754768e-16
-1.960056367477285e+01 -1.030621466653557e+01  4.547080227442729e-16
-3.492780844773533e+00  3.975499353734053e+00  2.131138980561260e-17
 1.893796105125610e+01  3.649120827598309e+00 -3.745169978068489e-16
-1.960086222562619e+01 -1.342662942900330e+00  3.626160980506419e-16
-1.297692702394128e+01  7.472994800827998e-01  2.232616651439098e-16
 4.179714168705844e+00 -2.621783820350954e-01 -7.168921174762383e-17
 2.235215499267010e+01 -2.786259231082603e+00 -3.691554592805925e-16
 2.333714906501048e+01  2.260458344436136e+01 -6.475662884555750e-16
 1.882577565672301e+01 -5.126201632421843e-01 -3.297601480511347e-16
 2.571923811520032e+01  1.099363366624068e+01 -5.706601135291090e-16
 2.832942227130499e+01  1.524537202896302e+01 -6.607965212939215e-16
-2.006363546836457e+01 -2.402034338566230e+01  6.038566283131883e-16
 1.742642720790399e+01 -6.005267143870388e+00 -2.484221207962421e-16
 3.705784500293412e+00  6.565498234211770e+00 -1.334069648954457e-16
-1.135951084890026e+01  1.087185847257967e+01  9.045164930201519e-17
-3.630267831756163e+00  9.210124164794524e-01  5.514187840450106e-17
-9.603874690324838e-01 -1.927673679901194e+01  2.151527085153487e-16
 1.316431169133281e+01  3.126858617006821e+00 -2.664019658978323e-16
-1.677222209383955e+01  4.384714812031655e+00  2.534303469354152e-16
-1.246783698385318e+01 -6.331686058158101e+00  2.869358054840025e-16
 2.480226128836232e+01 -1.053435076345301e+01 -3.331491975956398e-16
 2.652980998088887e+00  2.809976058976052e+00 -7.608444466804441e-17
-2.633291422736223e+01  8.122225010607902e+00  3.851727083006590e-16
 3.245204805617568e+01 -1.293773206162754e+00 -5.642298556619974e-16
 1.224627410860097e+00  2.589904691941453e+01 -2.878970042806713e-16
 4.605027288305382e+00 -2.624582044413485e+00 -5.498532660319585e-17
 3.140748667714531e+01 -8.524064298702788e+00 -4.713520255059368e-16
 9.299746173230865e+00 -1.872156394731285e-01 -1.635765036086514e-16
-3.225059161733185e+00  2.022992903343598e-01  5.531522305413157e-17
 1.161074171746863e+01 -5.123889645821345e-01 -2.013623881779946e-16
-2.389819758779800e+00 -1.484156994943110e-01  4.405461068809755e-17
 3.569306180476399e+00 -5.213107779240712e-01 -5.816378222286126e-17
-1.127577272623448e+01 -3.224349503212959e+00  2.337948456240925e-16
-8.515417461319210e+00  1.544319774172125e+00  1.356746866040057e-16
 2.203819091316930e+01 -1.371114744772747e+00 -3.781081894873380e-16
 2.554253423855697e+01  1.875193660066588e+01 -6.472292015593931e-16
-2.606207314621645e+01 -1.268958021861031e+01  5.941865065820326e-16
 2.293414993114115e+00 -2.134958280006268e+01  1.785451520900518e-16
 2.592292238250281e+01  3.197575835674728e+00 -4.941832559008942e-16
 4.705056454688374e+00 -2.917304007484550e+00 -5.375785310308135e-17
 6.008621944143572e+00 -7.155416385337438e+00 -3.341129085694396e-17
 9.801817237566942e+00 -4.406745452904104e-01 -1.699072589055985e-16
 6.091280857307813e+00  6.131178091917509e-01 -1.147011715583351e-16
 2.274298303835628e+01 -1.451497780682909e+01 -2.556023879015512e-16
 5.952289880529185e+00  5.356294062742243e+00 -1.609620742780953e-16
-3.008890724968557e+01  1.183208771273490e+01  4.138975928652522e-16
-1.711729858440125e+01 -2.861172176467132e+00  3.340202512951858e-16
-9.127360972339281e+00  1.429138279307952e+00  1.477483993581856e-16
 2.266906044037059e+01  2.409253081430403e+00 -4.281771713693318e-16
-2.361687139512531e+01 -1.878706260966251e+01  6.133206412091357e-16
-9.244652949359939e+00  8.022650026187222e+00  8.208981204272735e-17
-9.356484837706059e+00 -2.758435022871203e+00  1.948517262860104e-16
-6.502520805162941e+00 -5.292531259905948e-01  1.211579978046223e-16
 9.169441684342871e+00  6.951061398707510e+00 -2.346007832275444e-16
-9.361283779735534e-01  1.653988598741439e+00 -3.346108645798016e-19
 2.725842954900703e+01  1.775600075727546e+01 -6.675327263879128e-16
 5.575464761738045e+00  5.138188096902127e-01 -1.045013476971543e-16
 1.375025526096319e+00  5.907487828341419e-02 -2.507719232588771e-17
-7.576097663492646e+00 -3.621892981814592e-01  1.385470584837836e-16
-3.078861164374149e+00 -1.669603226639231e-01  5.650746368306608e-17
-2.380669622930189e+01 -2.990020010734666e+00  4.543899264374400e-16
-2.618237148211939e+01  1.918282415550732e+01  2.688499823423225e-16
 8.089229926321220e+00 -1.209038255942036e+00 -1.315350668457639e-16
-4.188071711539354e+00 -8.012282600740427e+00  1.568550249065643e-16
 3.096747097363288e+01 -1.000516056132697e+01 -4.483036951339970e-16
-1.751469347504415e+00  3.909019484593185e+00 -8.994268901647779e-18
 2.813407672433684e+01  1.635737303612583e+01 -6.687455206262400e-16
 1.798903219334952e+01  5.348089089213503e+00 -3.750859585580540e-16
-4.883069497711764e+00 -1.102142705324073e+00  9.822416236543598e-17
-3.253193185660767e+01  3.946756971376884e-01  5.748893834640078e-16
 3.034500852513086e+01 -1.095950922508532e+01 -4.274206475300671e-16
-1.908131727416940e+01 -7.460710840843440e+00  4.162308955140378e-16
-7.180794128820810e+00  5.400858930331494e+00  7.229893355806824e-17
 1.689763505988509e+01  3.083416264423176e+00 -3.323945541192362e-16
 2.173015462915447e+00 -2.027922626314096e+00 -1.783523393247533e-17
 1.100206222520617e+00 -1.891648063011673e+01  1.747804845778570e-16
-2.869963777362834e+01 -1.534342464934065e+01  6.683924027923185e-16
-5.360631340090090e+00 -1.226101557926291e+01  2.213763100887632e-16
-2.731027845670121e+01  1.769854012893688e+01  3.041729115724190e-16
-1.355615907555605e+01  1.739812569155984e+00  2.233720789921338e-16
 1.199690436941172e+01 -5.102319595478313e+00 -1.610747433611005e-16
 1.294305027297660e+01  1.759133999431199e+00 -2.484114814358547e-16
 1.545638802123623e+01 -3.385802025584011e+00 -2.402769760372155e-16
-1.916001755861693e+00 -1.521178768290375e+00  4.972709597047810e-17
-3.721328058185656e+00 -1.293659602933409e+01  1.991442963528518e-16
 4.873999322719721e+00  2.594405990543628e+00 -1.133952109407853e-16
 1.214044660567881e+01 -2.815215791792878e+00 -1.871284094228732e-16
 6.539672700061889e+00  9.393398025110319e+00 -2.128950288569615e-16
-7.747735619696089e+00 -3.777682589305881e+00  1.766945134469344e-16
-1.305933532775201e+01 -2.230003187523495e+01  4.615311764528601e-16
-1.673064260606575e+01  2.032313169541418e+01  8.892894685193775e-17
 2.964004864163102e+01 -9.940220218746564e+00 -4.253478697556857e-16
 2.704419713475864e+01 -1.114034134920035e+01 -3.668207871038384e-16
 9.835858697439498e+00  1.949122855268301e+01 -3.753061310515451e-16
-1.962530595907544e+01  8.512445581453239e+00  2.617934434531915e-16
 2.368055307755253e+01 -1.159248036547290e-01 -4.202326039791911e-16
 2.948859479575250e+01 -8.637434455657798e+00 -4.360382183596966e-16
 1.919211634713881e+01  2.534129190415251e+01 -6.019191721126705e-16
 3.013054660990778e+01 -1.226664405473495e+01 -4.101737063993485e-16
 1.050426156977948e+00 -2.477179736417391e+01  2.358276325723932e-16
-2.473225381211877e+01  1.840305384019608e+01  2.510552653819850e-16
 2.366273434829470e+01 -1.740310304906566e+01 -2.422960218805705e-16
 1.847860398042890e+00  1.341987158269596e+01 -1.707691854490644e-16
 1.565329509529196e+00 -6.241770440945616e+00  3.627501801849824e-17
 2.556486983455562e+00  2.737595050220288e+00 -7.362352999335149e-17
 3.264336798643209e+00 -6.906249608072082e+00  1.286643870563963e-17
 1.665699334934564e+01  7.822677836589113e+00 -3.768062388582368e-16
-4.245064015628853e-01 -2.412097460317065e+00  3.233802294525873e-17
-4.746779375400269e-01  4.714526885178036e-01  3.603455006661721e-18
 1.564072540134335e+01 -3.727276080217353e+00 -2.400489577251806e-16
 1.247214120846638e+01  5.001293100243117e+00 -2.733430998917209e-16
-8.466115680748619e+00  1.883562515499906e+01 -4.286457881563534e-17
 9.554239088482893e-01 -3.995490772884777e-01 -1.289768650218009e-17
-9.148517115415611e+00  1.679515922760336e+01 -9.755385056193159e-18
-7.089391719617415e+00 -3.626946576668886e+00  1.634297406993976e-16
 1.684120637717835e+01 -1.291733977462612e+01 -1.669883827216044e-16
 3.249473121614633e+01 -1.166019646651491e+00 -5.663020748251695e-16
 1.031499569519062e+01 -1.946533321960827e+01  1.643157506507243e-17
-9.125681921853479e+00  2.301028435930567e+00  1.387601640256280e-16
 2.218880768428326e+01  1.970487441341858e+01 -5.973367268735124e-16
-2.795657613367485e+01 -1.609483195709689e+01  6.628891716738586e-16
-2.240592128997346e+01  8.830807019669399e+00  3.080067619392474e-16
-2.005467206521498e+01 -1.988400709624149e+00  3.773269064413984e-16
-1.227786419331246e+01  2.065796312497021e+01  6.246172233314268e-18
-8.671344834747112e+00 -1.421291422876390e+01  3.003494554436828e-16
 1.647032014521135e+01 -9.496735418430967e+00 -1.955334869660453e-16
 1.894907327090904e+01  1.355376987095635e+01 -4.764814238500442e-16
-2.863888826873989e+01 -5.717105672237828e+00  5.684043623667771e-16
 8.014707229694958e+00  2.457671722203780e+01 -3.951481168740365e-16
 1.971921331716487e+01  1.137705501603299e+01 -4.678220302421840e-16
-1.472275544371699e+01 -1.241504836350508e+01  3.895691069610588e-16
-1.954507287952343e+01  2.602059507410876e+01  8.047572424997049e-17
 2.931800652924996e+01 -1.412505520980958e+01 -3.766190869339621e-16
-1.452857702520804e+01 -2.756741943528352e+01  5.417985786919718e-16
-1.938218068996443e+01  1.588529210587673e+01  1.817134195649977e-16
 9.304418018697721e+00 -1.721649591316839e+00 -1.478938932248515e-16
 2.348022940105072e+01 -2.252429681430446e+01 -1.864297230942068e-16
 2.498961711810358e+01  5.177223404041499e+00 -4.979141350441865e-16
-1.019333768948920e+01 -3.181757510163271e+00  2.140940058114087e-16
-1.046057148434457e+01 -1.790013576862274e+00  2.045500866251708e-16
-3.137214569596152e+01 -2.421027134990451e+00  5.831799290318820e-16
-8.324010539478885e-01 -1.580386370934972e+00  3.105146555212159e-17
 3.100878824646601e+01 -8.167818093783810e-02 -5.509991618293582e-16
-2.050820957767839e+01 -1.726793666908122e+00  3.827102301476285e-16
 8.896032127899359e+00 -8.932315750803198e+00 -6.653920379280009e-17
-3.980613919319694e+00 -3.708163065202883e+00  1.089398013601765e-16
-2.968911677911246e+01  9.569755630949436e+00  4.300274848595843e-16
 3.218840946124686e+01 -4.580994278914530e+00 -5.257630900116159e-16
-7.381866464917615e+00 -1.429641961778467e+01  2.782596372457975e-16
-1.875071484627681e+01  2.254757346668680e+01  1.020232108690984e-16
 3.019225275097514e+01 -1.214312921060033e+01 -4.125409109392814e-16
 2.795449196236504e+01 -1.367825253309790e+00 -4.834296222156154e-16
-1.926835713570443e+01  1.557464503115364e-01  3.413031611717137e-16
-2.998504393375007e+01  4.238651761273101e+00  4.900690171906073e-16
-2.638423090587443e+00  8.822659955470225e+00 -4.369573990608501e-17
 1.338650366243479e+01  5.215611414757235e+00 -2.918173132771470e-16
 2.123946573994498e+01 -7.651510304900892e+00 -2.993651393930607e-16
 1.971393355414918e+01  2.581186997410221e+01 -6.160405505095739e-16
 6.355845325237643e-01 -3.099661640286227e+01  3.071679884410435e-16
 1.690337579760405e+01  8.285314125961673e+00 -3.859443282212745e-16
 1.171849349547767e+01 -3.462322864423943e+00 -1.729704604335976e-16
 3.860064636518841e+00  2.643312501492916e+01 -3.402852117749381e-16
 2.021884001852365e+01 -1.150405218777473e+01 -2.416184189108993e-16
-1.151166678665880e+00 -6.291811146251249e+00  8.513245811489430e-17
-6.881937490213423e+00  6.480819207507790e+00  5.588422364981871e-17
 1.157870201130362e+01  2.992091035550662e+01 -5.134832983526753e-16
-1.887614407332501e+01 -2.628840978898842e+01  6.060273608235278e-16
-2.027257130213214e+01  1.486683126654908e+01  2.080232977443964e-16
-2.728057780903210e+01  2.782515947481584e+00  4.569010829972520e-16
 1.564091648275849e+01 -2.637743734171564e+01 -7.330179455499979e-18
 1.964182191746364e+01  1.858094886986690e+01 -5.404621503436636e-16
 2.685674706578370e+01  6.996466606659753e+00 -5.498340026960092e-16
 3.418339873464151e-01 -5.563720684239806e-02 -5.511691470329838e-18
-3.093574733158616e+01  1.825600635035772e+00  5.317811419246139e-16
-2.288840413228198e+01  1.217438688729161e+01  2.822390511660311e-16
 2.697162673673473e+01 -3.584310869325072e+00 -4.431647785970319e-16
 2.908677744459682e+01  2.408707272392616e+00 -5.423824927966971e-16
 2.863261662676938e+01  8.387128931490841e+00 -5.957262700405827e-16
-2.419683401275213e+01 -1.657639690502885e+01  6.009279807675662e-16
-1.313997215711724e+01  7.627582170939246e+00  1.554708425385640e-16
 3.128705581212273e+01 -5.442815821600665e-01 -5.511981831931717e-16
-1.790416717616542e+00 -7.502345059905034e+00  1.089464712891955e-16
-2.796691990950619e+01  7.545128853293591e+00  4.201812419030609e-16
-2.980985908292623e+01  1.033411513267207e+01  4.243227219673424e-16
-3.896147307925290e+00  2.508143011519835e+01 -1.883659942152546e-16
-6.370229531401913e+00 -5.502730159589903e+00  1.699043866014800e-16
 9.178330503146894e+00 -4.598230419742350e-01 -1.586148248475958e-16
 6.364906869567579e+00  3.972612238616178e+00 -1.540882576935145e-16
-1.768708974795244e+01  1.094041416333322e+00  3.035219818725010e-16
-2.759934019084874e+01 -4.958147619378707e+00  5.421063460165526e-16
-2.626824659563828e+01  1.181838818740873e+01  3.460451367241457e-16
 1.164537701509567e+01 -3.348346991416321e+00 -1.728403261111630e-16
-2.528242168761049e+01  1.771429221733488e+00  4.317300601437938e-16
-4.269108011444721e+00 -2.669412803380791e+01  3.502463377819470e-16
 3.196356607048682e+01  3.581839287554913e+00 -6.056318832457668e-16
-4.780259689999721e+00  3.216146808358752e+01 -2.453769779304578e-16
-2.977089893139614e+01  1.311404498517297e+01  3.950666102301992e-16
 1.156493456686260e+01  6.307054585135899e+00 -2.706145004601258e-16
-3.171114833425554e+01  6.970520105125992e+00  4.927181491480468e-16
-4.416681250672490e+00  1.663778848361562e+00  6.150538801286281e-17
-8.173583279217663e+00 -6.259082481132932e+00  2.097684630197219e-16
 7.230958595467765e+00 -1.201834761004290e+00 -1.163351180318047e-16
-5.622456699570671e+00 -7.311125735950879e+00  1.751774846915579e-16
-2.018023090762789e+01  1.708849550927493e+00  3.415734724989203e-16
 1.718599552075752e+00  4.006392302953305e-01 -3.470095159943452e-17
-2.979632342676976e+01  6.347579188647786e-01  5.237392106993336e-16
 2.337984778169983e+01 -7.150284566757543e+00 -3.426057033378677e-16
-5.416758302359835e+00 -3.132351067408060e+00  1.285814446559227e-16
-1.086279161732629e+00  7.874628956777123e+00 -6.157731845964158e-17
 2.374168017605797e+01  1.169012997875457e+01 -5.426233576755402e-16
-3.206576566095389e+01  4.714581678087954e+00  5.222079352981057e-16
-4.322629350111308e+00  4.328390224453543e+00  3.245370834190776e-17
-2.520335595401617e+00 -3.412921126048759e+00  7.991890303990292e-17
-2.442593648250147e+00  3.766657555949216e+00  4.767829510791195e-18
 4.623276474918217e+00  2.882679777960529e+00 -1.118952072282811e-16
-1.931465367977509e+01  5.970984848380114e-01  3.375923315493630e-16
-2.821743698845477e+01 -3.699488872006183e+00  5.401738544226836e-16
-2.717614865278602e+01  1.056142907446624e+01  3.751171350863189e-16
 9.512185051446577e+00 -2.793325322236639e+00 -1.405802765926205e-16
-2.518679745624294e+01  8.717413093791953e-01  4.392722793576248e-16
-4.842678409633067e+00 -2.718245164881989e+01  3.654710549394578e-16
 3.212742251296682e+01  2.952134747905594e+00 -6.020779187035154e-16
 3.059703604933344e+00  3.235284570707424e+01 -3.868648121722166e-16
-3.018990047355685e+01  1.199980264378712e+01  4.139716777638541e-16
 2.008349193510607e+01  1.023503151950433e+01 -4.625709262098301e-16
-3.161347524261619e+01  7.236969300144783e+00  4.882422712840805e-16
-9.603099983662483e+00  5.528699902994939e+00  1.140932360759836e-16
-7.476654119948208e+00 -3.349752164873226e+00  1.674734651646646e-16
-3.038035671090299e+01 -9.108024261185149e+00  6.342363272784733e-16
-3.104728477273651e+01  9.754792754101391e+00  4.522965151589228e-16
-3.752479728799238e+00 -3.299053821022759e+00  1.006764324428285e-16
 2.726280294431797e+01  2.766676515843344e+00 -5.136006947867736e-16
 8.209663520951446e+00  2.671270996054879e+00 -1.735470943116609e-16
-3.010263824205953e+01  3.914435996831972e+00  4.954929473760008e-16
 1.460641180233638e+01 -1.595651366349690e+00 -2.435437830388956e-16
 1.814669912409965e+01 -1.028656482674969e+00 -3.123730854043370e-16
 3.076217237704172e+01 -2.688227328846520e+00 -5.198289926481384e-16
 1.807058887584577e+01  1.949223317610753e+01 -5.218632993315182e-16
 7.939365852179419e+00 -2.275117275774628e+01  9.246954947436121e-17
 2.150213411722255e+01  1.205457351493762e+01 -5.065124890835465e-16
-3.205865199482123e+01  4.872225108507441e+00  5.204616101428693e-16
-1.031673322430994e+00 -2.011818265402900e+00  3.903055920580527e-17
 8.360877082255694e-02 -1.459315717518612e-01  1.147608023339701e-20
-1.661322173816812e+01  9.039540335976223e+00  2.027741046536068e-16
 2.103477017537578e+01  1.139953637530036e+01 -4.914649215442615e-16
 3.049116998852901e+00  5.837621000026676e-01 -6.026061762707789e-17
-1.222738448159607e+01 -4.295896622210261e+00  2.617396694188274e-16
-1.837952642539711e+01  3.676755965961777e+00  2.893082647351823e-16
 2.059576980493130e+01  2.709051256110832e-01 -3.693097429546677e-16
-1.278781208883894e+01 -2.820255768515874e+00  2.565514734750717e-16
-3.125907546036155e+01  8.219522297971146e+00  4.718399293270722e-16
 3.617259801241930e+00  2.485974112108673e+01 -3.197982621516130e-16
 1.330841396552284e+01  2.192642876716216e+00 -2.593677103851807e-16
-2.951671139669546e+01  1.013450085773142e+01  4.211567733548981e-16
 1.202635724716134e+00 -1.145551321901520e+01  9.629889959546977e-17
 6.690615521904334e+00  6.075392441405468e+00 -1.814899343722032e-16
 1.062250805412966e+01  1.033154111452987e+00 -1.996554849993312e-16
 2.665315928873376e-01 -7.065569604921207e-01  2.516368471071719e-18
-1.714702227246466e+01  1.175942254285484e+00  2.930693355698805e-16
-2.519521099800993e+01 -3.431024467448034e+00  4.836313636409807e-16
 8.022290032533499e+00 -2.116196881715744e+00 -1.210230662647863e-16
 3.124573442541092e+01 -1.663209171395691e+00 -5.389662453216717e-16
-5.478471273918156e+00 -3.456122520326927e+00  1.330063346674044e-16
-2.679439901185910e+01  1.846989810624041e+01  2.870667984769914e-16
-5.444658320319706e-01 -1.295887703618016e+01  1.428371729059024e-16
 1.731349684892800e+01  1.052240759200400e+01 -4.162282442345933e-16
-3.210566705085309e+01  4.588014735417833e+00  5.242184574831620e-16
 2.636952940694618e+00 -9.575749826840131e+00  5.145962772613608e-17
 7.978411759185222e+00  6.480897291057941e+00 -2.085742196014082e-16
 1.842207841420969e+01 -2.649723157792984e+00 -3.006179171249597e-16
 5.962447468960526e+00  3.472413700087388e+00 -1.417866543095869e-16
-1.069593894738551e+01  6.766774700657814e-01  1.833943769582886e-16
 1.307337051032016e+00  1.232788180676951e+00 -3.593207298572075e-17
-2.953577472200490e+01 -6.610020835544539e+00  5.935399055779604e-16
-1.386965758690597e+00  1.364280320253606e+00  1.066522542202329e-17
 2.382748708867146e+01  5.852955628065697e+00 -4.841755480674236e-16
 1.334314793253858e+01 -1.177135892351409e+00 -2.253625900645492e-16
 3.031674216702219e+01  1.097428216521468e+01 -6.522793525880854e-16
 3.957237758963392e+00  9.164834152687338e-01 -7.984030044457355e-17
-1.297067850184357e+01  1.734591049187029e+01  5.260576689839907e-17
-1.666770856724466e+01  3.726208578904207e+00  2.583363163933782e-16
-5.491366795494554e+00  2.622570917847867e+01 -1.717342123009333e-16
 2.515350351281109e+01 -2.064833194872184e+01 -2.354824893750904e-16
 2.689358716982553e+01  7.151447731639641e+00 -5.520819910448641e-16
 2.816988321107986e+01 -2.431119550371808e+00 -4.763378037691560e-16
 1.527018633516748e+01  1.444127894870703e+01 -4.201300758656675e-16
 1.688607124665925e+01 -1.596062732341447e+01 -1.365181325317785e-16
 1.262960863240295e+01  4.328063531069478e+00 -2.692282312853308e-16
 1.768416548676327e+01 -5.415520663936908e+00 -2.590683117379565e-16
-4.115647808278718e+00 -4.112255135906046e+00  1.154947897285144e-16
 2.747923776573812e+00 -1.142897504076812e+01  6.852598527691674e-17
 3.158399419263444e+01  5.767755679780261e+00 -6.213364457578457e-16
 1.705859043162591e+00 -6.948991963447623e-01 -2.321795968823630e-17
 2.401510798320056e+01 -4.501492813036300e+00 -3.811262894281083e-16
 1.244243679132531e+01  4.820143233966680e+00 -2.709532252751378e-16
-4.317583785723696e-01  8.373251487909375e+00 -7.834846191968377e-17
 2.082557440909392e+01  2.140298553488752e+01 -5.905238395174036e-16
 1.702493586343483e+01 -9.603935925143743e+00 -2.043020889502705e-16
-1.873562472525502e+00  6.983734985257806e+00 -3.841306091824309e-17
 1.181589010316125e+01  3.430164795417833e+00 -2.455215560867799e-16
 3.700952963325062e+00  5.813538414416912e+00 -1.255948679452480e-16
 1.307797630257348e+01 -5.169334534720607e+00 -1.796251538382316e-16
-1.012529813364494e+01 -1.232181665869429e+01  3.067939481765147e-16
-4.593094075308706e+00  1.136561378698859e+01 -3.503796494586525e-17
-1.639761720202324e+01 -9.519129478097341e+00  3.896207552580524e-16
 8.584910922273724e-01 -1.056331654168212e+01  9.325636708582629e-17
 1.936932970735509e+01  8.256246220810537e+00 -4.295302573758551e-16
-2.400431078778196e+01  1.937595988075320e+00  4.072772489427675e-16
 2.092327285879079e+01 -2.237111653387128e+00 -3.493690891540301e-16
-2.113376225495246e+01 -1.414388348611624e+01  5.214237733304167e-16
-1.322304064184289e+01  3.352205702258837e+00  2.008770854052828e-16
 2.269700520801953e+01  4.234713862928137e-01 -4.082712963111562e-16
 3.217872665862751e+01 -2.349675613358940e+00 -5.485167616467197e-16
 2.351405477146574e+01  3.481981580239598e+00 -4.542367490705615e-16
-1.064403667569469e+01 -2.789899861811880e+00  2.180885369005754e-16
-2.033330827724587e+01 -1.981235168328479e+00  3.822119468716399e-16
-1.216865995844705e+01  3.434587534064050e+00  1.812666800351711e-16
 1.153010330087459e+01  1.923839303408951e+00 -2.249586918214345e-16
 1.413222357653928e+01 -1.547624769076229e+00 -2.355984937708997e-16
-1.154657158931341e+01 -3.827061147825703e+00  2.448066776977957e-16
-1.073984392616983e+01  1.696189910449561e+00  1.737005984579919e-16
 6.951944285472536e+00 -1.050449419159683e-01 -1.226388425194429e-16
 2.762277161232797e+01  3.217294730054328e+00 -5.246367050680963e-16
-3.934005420922447e+00  3.161379810369633e+01 -2.548099720188823e-16
-1.594784819894338e+01  3.804551581573794e+00  2.447205965663297e-16
-1.640973765313485e+01 -2.796684241492879e+00  3.207657704032723e-16
 5.103591028338274e+00 -3.415476854115053e+00 -5.573170619477989e-17
 1.600335643217703e+01  2.982762743520725e+00 -3.154456208338442e-16
 2.547776191650672e+01 -1.227910322328135e+01 -3.272438393042509e-16
 2.545372673527981e+01  2.317390536303993e+00 -4.767897754780820e-16
-2.414568518221488e+00 -3.391738513365974e-01  4.645501509994613e-17
-3.128325870021776e+01 -5.524752045166228e+00  6.134877248736651e-16
-1.350074386643280e+01  1.916719872303207e+00  2.205682409684131e-16
 2.482843343550056e-01  1.920896312313826e-01 -6.392167015821983e-18
VECTORS SF_force double
0.000000000000000e+00 0.000000000000000e+00 0.000000000000000e+00
0.000000000000000e+00 0.000000000000000e+00 0.000000000000000e+00
0.000000000000000e+00 0.000000000000000e+00 0.000000000000000e+00
0.000000000000000e+00 0.000000000000000e+00 0.000000000000000e+00
0.000000000000000e+00 0.000000000000000e+00 0.000000000000000e+00
0.000000000000000e+00 0.000000000000000e+00 0.000000000000000e+00
0.000000000000000e+00 0.000000000000000e+00 0.000000000000000e+00
0.000000000000000e+00 0.000000000000000e+00 0.000000000000000e+00
0.000000000000000e+00 0.000000000000000e+00 0.000000000000000e+00
0.000000000000000e+00 0.000000000000000e+00 0.000000000000000e+00
0.000000000000000e+00 0.000000000000000e+00 0.000000000000000e+00
0.000000000000000e+00 0.000000000000000e+00 0.000000000000000e+00
0.000000000000000e+00 0.000000000000000e+00 0.000000000000000e+00
0.000000000000000e+00 0.000000000000000e+00 0.000000000000000e+00
0.000000000000000e+00 0.000000000000000e+00 0.000000000000000e+00
0.000000000000000e+00 0.000000000000000e+00 0.000000000000000e+00
0.000000000000000e+00 0.000000000000000e+00 0.000000000000000e+00
0.000000000000000e+00 0.000000000000000e+00 0.000000000000000e+00
0.000000000000000e+00 0.000000000000000e+00 0.000000000000000e+00
0.000000000000000e+00 0.000000000000000e+00 0.000000000000000e+00
0.000000000000000e+00 0.000000000000000e+00 0.000000000000000e+00
0.000000000000000e+00 0.000000000000000e+00 0.000000000000000e+00
0.000000000000000e+00 0.000000000000000e+00 0.000000000000000e+00
0.000000000000000e+00 0.000000000000000e+00 0.000000000000000e+00
0.000000000000000e+00 0.000000000000000e+00 0.000000000000000e+00
0.000000000000000e+00 0.000000000000000e+00 0.000000000000000e+00
0.000000000000000e+00 0.000000000000000e+00 0.000000000000000e+00
0.000000000000000e+00 0.000000000000000e+00 0.000000000000000e+00
0.000000000000000e+00 0.000000000000000e+00 0.000000000000000e+00
0.000000000000000e+00 0.000000000000000e+00 0.000000000000000e+00
0.000000000000000e+00 0.000000000000000e+00 0.000000000000000e+00
0.000000000000000e+00 0.000000000000000e+00 0.000000000000000e+00
0.000000000000000e+00 0.000000000000000e+00 0.000000000000000e+00
0.000000000000000e+00 0.000000000000000e+00 0.000000000000000e+00
0.000000000000000e+00 0.000000000000000e+00 0.000000000000000e+00
0.000000000000000e+00 0.000000000000000e+00 0.000000000000000e+00
0.000000000000000e+00 0.000000000000000e+00 0.000000000000000e+00
0.000000000000000e+00 0.000000000000000e+00 0.000000000000000e+00
0.000000000000000e+00 0.000000000000000e+00 0.000000000000000e+00
0.000000000000000e+00 0.000000000000000e+00 0.000000000000000e+00
0.000000000000000e+00 0.000000000000000e+00 0.000000000000000e+00
0.000000000000000e+00 0.000000000000000e+00 0.000000000000000e+00
0.000000000000000e+00 0.000000000000000e+00 0.000000000000000e+00
0.000000000000000e+00 0.000000000000000e+00 0.000000000000000e+00
0.000000000000000e+00 0.000000000000000e+00 0.000000000000000e+00
0.000000000000000e+00 0.000000000000000e+00 0.000000000000000e+00
0.000000000000000e+00 0.000000000000000e+00 0.000000000000000e+00
0.000000000000000e+00 0.000000000000000e+00 0.000000000000000e+00
0.000000000000000e+00 0.000000000000000e+00 0.000000000000000e+00
0.000000000000000e+00 0.000000000000000e+00 0.000000000000000e+00
0.000000000000000e+00 0.000000000000000e+00 0.000000000000000e+00
0.000000000000000e+00 0.000000000000000e+00 0.000000000000000e+00
0.000000000000000e+00 0.000000000000000e+00 0.000000000000000e+00
0.000000000000000e+00 0.000000000000000e+00 0.000000000000000e+00
0.000000000000000e+00 0.000000000000000e+00 0.000000000000000e+00
0.000000000000000e+00 0.000000000000000e+00 0.000000000000000e+00
0.000000000000000e+00 0.000000000000000e+00 0.000000000000000e+00
0.000000000000000e+00 0.000000000000000e+00 0.000000000000000e+00
0.000000000000000e+00 0.000000000000000e+00 0.000000000000000e+00
0.000000000000000e+00 0.000000000000000e+00 0.000000000000000e+00
0.000000000000000e+00 0.000000000000000e+00 0.000000000000000e+00
0.000000000000000e+00 0.000000000000000e+00 0.000000000000000e+00
0.000000000000000e+00 0.000000000000000e+00 0.000000000000000e+00
0.000000000000000e+00 0.000000000000000e+00 0.000000000000000e+00
0.000000000000000e+00 0.000000000000000e+00 0.000000000000000e+00
0.000000000000000e+00 0.000000000000000e+00 0.000000000000000e+00
0.000000000000000e+00 0.000000000000000e+00 0.000000000000000e+00
0.000000000000000e+00 0.000000000000000e+00 0.000000000000000e+00
0.000000000000000e+00 0.000000000000000e+00 0.000000000000000e+00
0.000000000000000e+00 0.000000000000000e+00 0.000000000000000e+00
0.000000000000000e+00 0.000000000000000e+00 0.000000000000000e+00
0.000000000000000e+00 0.000000000000000e+00 0.000000000000000e+00
0.000000000000000e+00 0.000000000000000e+00 0.000000000000000e+00
0.000000000000000e+00 0.000000000000000e+00 0.000000000000000e+00
0.000000000000000e+00 0.000000000000000e+00 0.000000000000000e+00
0.000000000000000e+00 0.000000000000000e+00 0.000000000000000e+00
0.000000000000000e+00 0.000000000000000e+00 0.000000000000000e+00
0.000000000000000e+00 0.000000000000000e+00 0.000000000000000e+00
0.000000000000000e+00 0.000000000000000e+00 0.000000000000000e+00
0.000000000000000e+00 0.000000000000000e+00 0.000000000000000e+00
0.000000000000000e+00 0.000000000000000e+00 0.000000000000000e+00
0.000000000000000e+00 0.000000000000000e+00 0.000000000000000e+00
0.000000000000000e+00 0.000000000000000e+00 0.000000000000000e+00
0.000000000000000e+00 0.000000000000000e+00 0.000000000000000e+00
0.000000000000000e+00 0.000000000000000e+00 0.000000000000000e+00
0.000000000000000e+00 0.000000000000000e+00 0.000000000000000e+00
0.000000000000000e+00 0.000000000000000e+00 0.000000000000000e+00
0.000000000000000e+00 0.000000000000000e+00 0.000000000000000e+00
0.000000000000000e+00 0.000000000000000e+00 0.000000000000000e+00
0.000000000000000e+00 0.000000000000000e+00 0.000000000000000e+00
0.000000000000000e+00 0.000000000000000e+00 0.000000000000000e+00
0.000000000000000e+00 0.000000000000000e+00 0.000000000000000e+00
0.000000000000000e+00 0.000000000000000e+00 0.000000000000000e+00
0.000000000000000e+00 0.000000000000000e+00 0.000000000000000e+00
0.000000000000000e+00 0.000000000000000e+00 0.000000000000000e+00
0.000000000000000e+00 0.000000000000000e+00 0.000000000000000e+00
0.000000000000000e+00 0.000000000000000e+00 0.000000000000000e+00
0.000000000000000e+00 0.000000000000000e+00 0.000000000000000e+00
0.000000000000000e+00 0.000000000000000e+00 0.000000000000000e+00
0.000000000000000e+00 0.000000000000000e+00 0.000000000000000e+00
0.000000000000000e+00 0.000000000000000e+00 0.000000000000000e+00
0.000000000000000e+00 0.000000000000000e+00 0.000000000000000e+00
0.000000000000000e+00 0.000000000000000e+00 0.000000000000000e+00
0.000000000000000e+00 0.000000000000000e+00 0.000000000000000e+00
0.000000000000000e+00 0.000000000000000e+00 0.000000000000000e+00
0.000000000000000e+00 0.000000000000000e+00 0.000000000000000e+00
0.000000000000000e+00 0.000000000000000e+00 0.000000000000000e+00
0.000000000000000e+00 0.000000000000000e+00 0.000000000000000e+00
0.000000000000000e+00 0.000000000000000e+00 0.000000000000000e+00
0.000000000000000e+00 0.000000000000000e+00 0.000000000000000e+00
0.000000000000000e+00 0.000000000000000e+00 0.000000000000000e+00
0.000000000000000e+00 0.000000000000000e+00 0.000000000000000e+00
0.000000000000000e+00 0.000000000000000e+00 0.000000000000000e+00
0.000000000000000e+00 0.000000000000000e+00 0.000000000000000e+00
0.000000000000000e+00 0.000000000000000e+00 0.000000000000000e+00
0.000000000000000e+00 0.000000000000000e+00 0.000000000000000e+00
0.000000000000000e+00 0.000000000000000e+00 0.000000000000000e+00
0.000000000000000e+00 0.000000000000000e+00 0.000000000000000e+00
0.000000000000000e+00 0.000000000000000e+00 0.000000000000000e+00
0.000000000000000e+00 0.000000000000000e+00 0.000000000000000e+00
0.000000000000000e+00 0.000000000000000e+00 0.000000000000000e+00
0.000000000000000e+00 0.000000000000000e+00 0.000000000000000e+00
0.000000000000000e+00 0.000000000000000e+00 0.000000000000000e+00
0.000000000000000e+00 0.000000000000000e+00 0.000000000000000e+00
0.000000000000000e+00 0.000000000000000e+00 0.000000000000000e+00
0.000000000000000e+00 0.000000000000000e+00 0.000000000000000e+00
0.000000000000000e+00 0.000000000000000e+00 0.000000000000000e+00
0.000000000000000e+00 0.000000000000000e+00 0.000000000000000e+00
0.000000000000000e+00 0.000000000000000e+00 0.000000000000000e+00
0.000000000000000e+00 0.000000000000000e+00 0.000000000000000e+00
0.000000000000000e+00 0.000000000000000e+00 0.000000000000000e+00
0.000000000000000e+00 0.000000000000000e+00 0.000000000000000e+00
0.000000000000000e+00 0.000000000000000e+00 0.000000000000000e+00
0.000000000000000e+00 0.000000000000000e+00 0.000000000000000e+00
0.000000000000000e+00 0.000000000000000e+00 0.000000000000000e+00
0.000000000000000e+00 0.000000000000000e+00 0.000000000000000e+00
0.000000000000000e+00 0.000000000000000e+00 0.000000000000000e+00
0.000000000000000e+00 0.000000000000000e+00 0.000000000000000e+00
0.000000000000000e+00 0.000000000000000e+00 0.000000000000000e+00
0.000000000000000e+00 0.000000000000000e+00 0.000000000000000e+00
0.000000000000000e+00 0.000000000000000e+00 0.000000000000000e+00
0.000000000000000e+00 0.000000000000000e+00 0.000000000000000e+00
0.000000000000000e+00 0.000000000000000e+00 0.000000000000000e+00
0.000000000000000e+00 0.000000000000000e+00 0.000000000000000e+00
0.000000000000000e+00 0.000000000000000e+00 0.000000000000000e+00
0.000000000000000e+00 0.000000000000000e+00 0.000000000000000e+00
0.000000000000000e+00 0.000000000000000e+00 0.000000000000000e+00
0.000000000000000e+00 0.000000000000000e+00 0.000000000000000e+00
0.000000000000000e+00 0.000000000000000e+00 0.000000000000000e+00
0.000000000000000e+00 0.000000000000000e+00 0.000000000000000e+00
0.000000000000000e+00 0.000000000000000e+00 0.000000000000000e+00
0.000000000000000e+00 0.000000000000000e+00 0.000000000000000e+00
0.000000000000000e+00 0.000000000000000e+00 0.000000000000000e+00
0.000000000000000e+00 0.000000000000000e+00 0.000000000000000e+00
0.000000000000000e+00 0.000000000000000e+00 0.000000000000000e+00
0.000000000000000e+00 0.000000000000000e+00 0.000000000000000e+00
0.000000000000000e+00 0.000000000000000e+00 0.000000000000000e+00
0.000000000000000e+00 0.000000000000000e+00 0.000000000000000e+00
0.000000000000000e+00 0.000000000000000e+00 0.000000000000000e+00
0.000000000000000e+00 0.000000000000000e+00 0.000000000000000e+00
0.000000000000000e+00 0.000000000000000e+00 0.000000000000000e+00
0.000000000000000e+00 0.000000000000000e+00 0.000000000000000e+00
0.000000000000000e+00 0.000000000000000e+00 0.000000000000000e+00
0.000000000000000e+00 0.000000000000000e+00 0.000000000000000e+00
0.000000000000000e+00 0.000000000000000e+00 0.000000000000000e+00
0.000000000000000e+00 0.000000000000000e+00 0.000000000000000e+00
0.000000000000000e+00 0.000000000000000e+00 0.000000000000000e+00
0.000000000000000e+00 0.000000000000000e+00 0.000000000000000e+00
0.000000000000000e+00 0.000000000000000e+00 0.000000000000000e+00
0.000000000000000e+00 0.000000000000000e+00 0.000000000000000e+00
0.000000000000000e+00 0.000000000000000e+00 0.000000000000000e+00
0.000000000000000e+00 0.000000000000000e+00 0.000000000000000e+00
0.000000000000000e+00 0.000000000000000e+00 0.000000000000000e+00
0.000000000000000e+00 0.000000000000000e+00 0.000000000000000e+00
0.000000000000000e+00 0.000000000000000e+00 0.000000000000000e+00
0.000000000000000e+00 0.000000000000000e+00 0.000000000000000e+00
0.000000000000000e+00 0.000000000000000e+00 0.000000000000000e+00
0.000000000000000e+00 0.000000000000000e+00 0.000000000000000e+00
0.000000000000000e+00 0.000000000000000e+00 0.000000000000000e+00
0.000000000000000e+00 0.000000000000000e+00 0.000000000000000e+00
0.000000000000000e+00 0.000000000000000e+00 0.000000000000000e+00
0.000000000000000e+00 0.000000000000000e+00 0.000000000000000e+00
0.000000000000000e+00 0.000000000000000e+00 0.000000000000000e+00
0.000000000000000e+00 0.000000000000000e+00 0.000000000000000e+00
0.000000000000000e+00 0.000000000000000e+00 0.000000000000000e+00
0.000000000000000e+00 0.000000000000000e+00 0.000000000000000e+00
0.000000000000000e+00 0.000000000000000e+00 0.000000000000000e+00
0.000000000000000e+00 0.000000000000000e+00 0.000000000000000e+00
0.000000000000000e+00 0.000000000000000e+00 0.000000000000000e+00
0.000000000000000e+00 0.000000000000000e+00 0.000000000000000e+00
0.000000000000000e+00 0.000000000000000e+00 0.000000000000000e+00
0.000000000000000e+00 0.000000000000000e+00 0.000000000000000e+00
0.000000000000000e+00 0.000000000000000e+00 0.000000000000000e+00
0.000000000000000e+00 0.000000000000000e+00 0.000000000000000e+00
0.000000000000000e+00 0.000000000000000e+00 0.000000000000000e+00
0.000000000000000e+00 0.000000000000000e+00 0.000000000000000e+00
0.000000000000000e+00 0.000000000000000e+00 0.000000000000000e+00
0.000000000000000e+00 0.000000000000000e+00 0.000000000000000e+00
0.000000000000000e+00 0.000000000000000e+00 0.000000000000000e+00
0.000000000000000e+00 0.000000000000000e+00 0.000000000000000e+00
0.000000000000000e+00 0.000000000000000e+00 0.000000000000000e+00
0.000000000000000e+00 0.000000000000000e+00 0.000000000000000e+00
0.000000000000000e+00 0.000000000000000e+00 0.000000000000000e+00
0.000000000000000e+00 0.000000000000000e+00 0.000000000000000e+00
0.000000000000000e+00 0.000000000000000e+00 0.000000000000000e+00
0.000000000000000e+00 0.000000000000000e+00 0.000000000000000e+00
0.000000000000000e+00 0.000000000000000e+00 0.000000000000000e+00
0.000000000000000e+00 0.000000000000000e+00 0.000000000000000e+00
0.000000000000000e+00 0.000000000000000e+00 0.000000000000000e+00
0.000000000000000e+00 0.000000000000000e+00 0.000000000000000e+00
0.000000000000000e+00 0.000000000000000e+00 0.000000000000000e+00
0.000000000000000e+00 0.000000000000000e+00 0.000000000000000e+00
0.000000000000000e+00 0.000000000000000e+00 0.000000000000000e+00
0.000000000000000e+00 0.000000000000000e+00 0.000000000000000e+00
0.000000000000000e+00 0.000000000000000e+00 0.000000000000000e+00
0.000000000000000e+00 0.000000000000000e+00 0.000000000000000e+00
0.000000000000000e+00 0.000000000000000e+00 0.000000000000000e+00
0.000000000000000e+00 0.000000000000000e+00 0.000000000000000e+00
0.000000000000000e+00 0.000000000000000e+00 0.000000000000000e+00
0.000000000000000e+00 0.000000000000000e+00 0.000000000000000e+00
0.000000000000000e+00 0.000000000000000e+00 0.000000000000000e+00
0.000000000000000e+00 0.000000000000000e+00 0.000000000000000e+00
0.000000000000000e+00 0.000000000000000e+00 0.000000000000000e+00
0.000000000000000e+00 0.000000000000000e+00 0.000000000000000e+00
0.000000000000000e+00 0.000000000000000e+00 0.000000000000000e+00
0.000000000000000e+00 0.000000000000000e+00 0.000000000000000e+00
0.000000000000000e+00 0.000000000000000e+00 0.000000000000000e+00
0.000000000000000e+00 0.000000000000000e+00 0.000000000000000e+00
0.000000000000000e+00 0.000000000000000e+00 0.000000000000000e+00
0.000000000000000e+00 0.000000000000000e+00 0.000000000000000e+00
0.000000000000000e+00 0.000000000000000e+00 0.000000000000000e+00
0.000000000000000e+00 0.000000000000000e+00 0.000000000000000e+00
0.000000000000000e+00 0.000000000000000e+00 0.000000000000000e+00
0.000000000000000e+00 0.000000000000000e+00 0.000000000000000e+00
0.000000000000000e+00 0.000000000000000e+00 0.000000000000000e+00
0.000000000000000e+00 0.000000000000000e+00 0.000000000000000e+00
0.000000000000000e+00 0.000000000000000e+00 0.000000000000000e+00
0.000000000000000e+00 0.000000000000000e+00 0.000000000000000e+00
0.000000000000000e+00 0.000000000000000e+00 0.000000000000000e+00
0.000000000000000e+00 0.000000000000000e+00 0.000000000000000e+00
0.000000000000000e+00 0.000000000000000e+00 0.000000000000000e+00
0.000000000000000e+00 0.000000000000000e+00 0.000000000000000e+00
0.000000000000000e+00 0.000000000000000e+00 0.000000000000000e+00
0.000000000000000e+00 0.000000000000000e+00 0.000000000000000e+00
0.000000000000000e+00 0.000000000000000e+00 0.000000000000000e+00
0.000000000000000e+00 0.000000000000000e+00 0.000000000000000e+00
0.000000000000000e+00 0.000000000000000e+00 0.000000000000000e+00
0.000000000000000e+00 0.000000000000000e+00 0.000000000000000e+00
0.000000000000000e+00 0.000000000000000e+00 0.000000000000000e+00
0.000000000000000e+00 0.000000000000000e+00 0.000000000000000e+00
0.000000000000000e+00 0.000000000000000e+00 0.000000000000000e+00
0.000000000000000e+00 0.000000000000000e+00 0.000000000000000e+00
0.000000000000000e+00 0.000000000000000e+00 0.000000000000000e+00
0.000000000000000e+00 0.000000000000000e+00 0.000000000000000e+00
0.000000000000000e+00 0.000000000000000e+00 0.000000000000000e+00
0.000000000000000e+00 0.000000000000000e+00 0.000000000000000e+00
0.000000000000000e+00 0.000000000000000e+00 0.000000000000000e+00
0.000000000000000e+00 0.000000000000000e+00 0.000000000000000e+00
0.000000000000000e+00 0.000000000000000e+00 0.000000000000000e+00
0.000000000000000e+00 0.000000000000000e+00 0.000000000000000e+00
0.000000000000000e+00 0.000000000000000e+00 0.000000000000000e+00
0.000000000000000e+00 0.000000000000000e+00 0.000000000000000e+00
0.000000000000000e+00 0.000000000000000e+00 0.000000000000000e+00
0.000000000000000e+00 0.000000000000000e+00 0.000000000000000e+00
0.000000000000000e+00 0.000000000000000e+00 0.000000000000000e+00
0.000000000000000e+00 0.000000000000000e+00 0.000000000000000e+00
0.000000000000000e+00 0.000000000000000e+00 0.000000000000000e+00
0.000000000000000e+00 0.000000000000000e+00 0.000000000000000e+00
0.000000000000000e+00 0.000000000000000e+00 0.000000000000000e+00
0.000000000000000e+00 0.000000000000000e+00 0.000000000000000e+00
0.000000000000000e+00 0.000000000000000e+00 0.000000000000000e+00
0.000000000000000e+00 0.000000000000000e+00 0.000000000000000e+00
0.000000000000000e+00 0.000000000000000e+00 0.000000000000000e+00
0.000000000000000e+00 0.000000000000000e+00 0.000000000000000e+00
0.000000000000000e+00 0.000000000000000e+00 0.000000000000000e+00
0.000000000000000e+00 0.000000000000000e+00 0.000000000000000e+00
0.000000000000000e+00 0.000000000000000e+00 0.000000000000000e+00
0.000000000000000e+00 0.000000000000000e+00 0.000000000000000e+00
0.000000000000000e+00 0.000000000000000e+00 0.000000000000000e+00
0.000000000000000e+00 0.000000000000000e+00 0.000000000000000e+00
0.000000000000000e+00 0.000000000000000e+00 0.000000000000000e+00
0.000000000000000e+00 0.000000000000000e+00 0.000000000000000e+00
0.000000000000000e+00 0.000000000000000e+00 0.000000000000000e+00
0.000000000000000e+00 0.000000000000000e+00 0.000000000000000e+00
0.000000000000000e+00 0.000000000000000e+00 0.000000000000000e+00
0.000000000000000e+00 0.000000000000000e+00 0.000000000000000e+00
0.000000000000000e+00 0.000000000000000e+00 0.000000000000000e+00
0.000000000000000e+00 0.000000000000000e+00 0.000000000000000e+00
0.000000000000000e+00 0.000000000000000e+00 0.000000000000000e+00
0.000000000000000e+00 0.000000000000000e+00 0.000000000000000e+00
0.000000000000000e+00 0.000000000000000e+00 0.000000000000000e+00
0.000000000000000e+00 0.000000000000000e+00 0.000000000000000e+00
0.000000000000000e+00 0.000000000000000e+00 0.000000000000000e+00
0.000000000000000e+00 0.000000000000000e+00 0.000000000000000e+00
0.000000000000000e+00 0.000000000000000e+00 0.000000000000000e+00
0.000000000000000e+00 0.000000000000000e+00 0.000000000000000e+00
0.000000000000000e+00 0.000000000000000e+00 0.000000000000000e+00
0.000000000000000e+00 0.000000000000000e+00 0.000000000000000e+00
0.000000000000000e+00 0.000000000000000e+00 0.000000000000000e+00
0.000000000000000e+00 0.000000000000000e+00 0.000000000000000e+00
0.000000000000000e+00 0.000000000000000e+00 0.000000000000000e+00
0.000000000000000e+00 0.000000000000000e+00 0.000000000000000e+00
0.000000000000000e+00 0.000000000000000e+00 0.000000000000000e+00
0.000000000000000e+00 0.000000000000000e+00 0.000000000000000e+00
0.000000000000000e+00 0.000000000000000e+00 0.000000000000000e+00
0.000000000000000e+00 0.000000000000000e+00 0.000000000000000e+00
0.000000000000000e+00 0.000000000000000e+00 0.000000000000000e+00
0.000000000000000e+00 0.000000000000000e+00 0.000000000000000e+00
0.000000000000000e+00 0.000000000000000e+00 0.000000000000000e+00
0.000000000000000e+00 0.000000000000000e+00 0.000000000000000e+00
0.000000000000000e+00 0.000000000000000e+00 0.000000000000000e+00
0.000000000000000e+00 0.000000000000000e+00 0.000000000000000e+00
0.000000000000000e+00 0.000000000000000e+00 0.000000000000000e+00
0.000000000000000e+00 0.000000000000000e+00 0.000000000000000e+00
0.000000000000000e+00 0.000000000000000e+00 0.000000000000000e+00
0.000000000000000e+00 0.000000000000000e+00 0.000000000000000e+00
0.000000000000000e+00 0.000000000000000e+00 0.000000000000000e+00
0.000000000000000e+00 0.000000000000000e+00 0.000000000000000e+00
0.000000000000000e+00 0.000000000000000e+00 0.000000000000000e+00
0.000000000000000e+00 0.000000000000000e+00 0.000000000000000e+00
0.000000000000000e+00 0.000000000000000e+00 0.000000000000000e+00
0.000000000000000e+00 0.000000000000000e+00 0.000000000000000e+00
0.000000000000000e+00 0.000000000000000e+00 0.000000000000000e+00
0.000000000000000e+00 0.000000000000000e+00 0.000000000000000e+00
0.000000000000000e+00 0.000000000000000e+00 0.000000000000000e+00
0.000000000000000e+00 0.000000000000000e+00 0.000000000000000e+00
0.000000000000000e+00 0.000000000000000e+00 0.000000000000000e+00
0.000000000000000e+00 0.000000000000000e+00 0.000000000000000e+00
0.000000000000000e+00 0.000000000000000e+00 0.000000000000000e+00
0.000000000000000e+00 0.000000000000000e+00 0.000000000000000e+00
0.000000000000000e+00 0.000000000000000e+00 0.000000000000000e+00
0.000000000000000e+00 0.000000000000000e+00 0.000000000000000e+00
0.000000000000000e+00 0.000000000000000e+00 0.000000000000000e+00
0.000000000000000e+00 0.000000000000000e+00 0.000000000000000e+00
0.000000000000000e+00 0.000000000000000e+00 0.000000000000000e+00
0.000000000000000e+00 0.000000000000000e+00 0.000000000000000e+00
0.000000000000000e+00 0.000000000000000e+00 0.000000000000000e+00
0.000000000000000e+00 0.000000000000000e+00 0.000000000000000e+00
0.000000000000000e+00 0.000000000000000e+00 0.000000000000000e+00
0.000000000000000e+00 0.000000000000000e+00 0.000000000000000e+00
0.000000000000000e+00 0.000000000000000e+00 0.000000000000000e+00
0.000000000000000e+00 0.000000000000000e+00 0.000000000000000e+00
0.000000000000000e+00 0.000000000000000e+00 0.000000000000000e+00
0.000000000000000e+00 0.000000000000000e+00 0.000000000000000e+00
0.000000000000000e+00 0.000000000000000e+00 0.000000000000000e+00
0.000000000000000e+00 0.000000000000000e+00 0.000000000000000e+00
0.000000000000000e+00 0.000000000000000e+00 0.000000000000000e+00
0.000000000000000e+00 0.000000000000000e+00 0.000000000000000e+00
0.000000000000000e+00 0.000000000000000e+00 0.000000000000000e+00
0.000000000000000e+00 0.000000000000000e+00 0.000000000000000e+00
0.000000000000000e+00 0.000000000000000e+00 0.000000000000000e+00
0.000000000000000e+00 0.000000000000000e+00 0.000000000000000e+00
0.000000000000000e+00 0.000000000000000e+00 0.000000000000000e+00
0.000000000000000e+00 0.000000000000000e+00 0.000000000000000e+00
0.000000000000000e+00 0.000000000000000e+00 0.000000000000000e+00
0.000000000000000e+00 0.000000000000000e+00 0.000000000000000e+00
0.000000000000000e+00 0.000000000000000e+00 0.000000000000000e+00
0.000000000000000e+00 0.000000000000000e+00 0.000000000000000e+00
0.000000000000000e+00 0.000000000000000e+00 0.000000000000000e+00
0.000000000000000e+00 0.000000000000000e+00 0.000000000000000e+00
0.000000000000000e+00 0.000000000000000e+00 0.000000000000000e+00
0.000000000000000e+00 0.000000000000000e+00 0.000000000000000e+00
0.000000000000000e+00 0.000000000000000e+00 0.000000000000000e+00
0.000000000000000e+00 0.000000000000000e+00 0.000000000000000e+00
0.000000000000000e+00 0.000000000000000e+00 0.000000000000000e+00
0.000000000000000e+00 0.000000000000000e+00 0.000000000000000e+00
0.000000000000000e+00 0.000000000000000e+00 0.000000000000000e+00
0.000000000000000e+00 0.000000000000000e+00 0.000000000000000e+00
0.000000000000000e+00 0.000000000000000e+00 0.000000000000000e+00
0.000000000000000e+00 0.000000000000000e+00 0.000000000000000e+00
0.000000000000000e+00 0.000000000000000e+00 0.000000000000000e+00
0.000000000000000e+00 0.000000000000000e+00 0.000000000000000e+00
0.000000000000000e+00 0.000000000000000e+00 0.000000000000000e+00
0.000000000000000e+00 0.000000000000000e+00 0.000000000000000e+00
0.000000000000000e+00 0.000000000000000e+00 0.000000000000000e+00
0.000000000000000e+00 0.000000000000000e+00 0.000000000000000e+00
0.000000000000000e+00 0.000000000000000e+00 0.000000000000000e+00
0.000000000000000e+00 0.000000000000000e+00 0.000000000000000e+00
0.000000000000000e+00 0.000000000000000e+00 0.000000000000000e+00
0.000000000000000e+00 0.000000000000000e+00 0.000000000000000e+00
0.000000000000000e+00 0.000000000000000e+00 0.000000000000000e+00
0.000000000000000e+00 0.000000000000000e+00 0.000000000000000e+00
0.000000000000000e+00 0.000000000000000e+00 0.000000000000000e+00
0.000000000000000e+00 0.000000000000000e+00 0.000000000000000e+00
0.000000000000000e+00 0.000000000000000e+00 0.000000000000000e+00
0.000000000000000e+00 0.000000000000000e+00 0.000000000000000e+00
0.000000000000000e+00 0.000000000000000e+00 0.000000000000000e+00
0.000000000000000e+00 0.000000000000000e+00 0.000000000000000e+00
0.000000000000000e+00 0.000000000000000e+00 0.000000000000000e+00
0.000000000000000e+00 0.000000000000000e+00 0.000000000000000e+00
0.000000000000000e+00 0.000000000000000e+00 0.000000000000000e+00
0.000000000000000e+00 0.000000000000000e+00 0.000000000000000e+00
0.000000000000000e+00 0.000000000000000e+00 0.000000000000000e+00
0.000000000000000e+00 0.000000000000000e+00 0.000000000000000e+00
0.000000000000000e+00 0.000000000000000e+00 0.000000000000000e+00
0.000000000000000e+00 0.000000000000000e+00 0.000000000000000e+00
0.000000000000000e+00 0.000000000000000e+00 0.000000000000000e+00
0.000000000000000e+00 0.000000000000000e+00 0.000000000000000e+00
0.000000000000000e+00 0.000000000000000e+00 0.000000000000000e+00
0.000000000000000e+00 0.000000000000000e+00 0.000000000000000e+00
0.000000000000000e+00 0.000000000000000e+00 0.000000000000000e+00
0.000000000000000e+00 0.000000000000000e+00 0.000000000000000e+00
0.000000000000000e+00 0.000000000000000e+00 0.000000000000000e+00
0.000000000000000e+00 0.000000000000000e+00 0.000000000000000e+00
0.000000000000000e+00 0.000000000000000e+00 0.000000000000000e+00
0.000000000000000e+00 0.000000000000000e+00 0.000000000000000e+00
0.000000000000000e+00 0.000000000000000e+00 0.000000000000000e+00
0.000000000000000e+00 0.000000000000000e+00 0.000000000000000e+00
0.000000000000000e+00 0.000000000000000e+00 0.000000000000000e+00
0.000000000000000e+00 0.000000000000000e+00 0.000000000000000e+00
0.000000000000000e+00 0.000000000000000e+00 0.000000000000000e+00
0.000000000000000e+00 0.000000000000000e+00 0.000000000000000e+00
0.000000000000000e+00 0.000000000000000e+00 0.000000000000000e+00
0.000000000000000e+00 0.000000000000000e+00 0.000000000000000e+00
0.000000000000000e+00 0.000000000000000e+00 0.000000000000000e+00
0.000000000000000e+00 0.000000000000000e+00 0.000000000000000e+00
0.000000000000000e+00 0.000000000000000e+00 0.000000000000000e+00
0.000000000000000e+00 0.000000000000000e+00 0.000000000000000e+00
0.000000000000000e+00 0.000000000000000e+00 0.000000000000000e+00
0.000000000000000e+00 0.000000000000000e+00 0.000000000000000e+00
0.000000000000000e+00 0.000000000000000e+00 0.000000000000000e+00
0.000000000000000e+00 0.000000000000000e+00 0.000000000000000e+00
0.000000000000000e+00 0.000000000000000e+00 0.000000000000000e+00
0.000000000000000e+00 0.000000000000000e+00 0.000000000000000e+00
0.000000000000000e+00 0.000000000000000e+00 0.000000000000000e+00
0.000000000000000e+00 0.000000000000000e+00 0.000000000000000e+00
0.000000000000000e+00 0.000000000000000e+00 0.000000000000000e+00
0.000000000000000e+00 0.000000000000000e+00 0.000000000000000e+00
0.000000000000000e+00 0.000000000000000e+00 0.000000000000000e+00
0.000000000000000e+00 0.000000000000000e+00 0.000000000000000e+00
0.000000000000000e+00 0.000000000000000e+00 0.000000000000000e+00
0.000000000000000e+00 0.000000000000000e+00 0.000000000000000e+00
0.000000000000000e+00 0.000000000000000e+00 0.000000000000000e+00
0.000000000000000e+00 0.000000000000000e+00 0.000000000000000e+00
0.000000000000000e+00 0.000000000000000e+00 0.000000000000000e+00
0.000000000000000e+00 0.000000000000000e+00 0.000000000000000e+00
0.000000000000000e+00 0.000000000000000e+00 0.000000000000000e+00
0.000000000000000e+00 0.000000000000000e+00 0.000000000000000e+00
0.000000000000000e+00 0.000000000000000e+00 0.000000000000000e+00
0.000000000000000e+00 0.000000000000000e+00 0.000000000000000e+00
0.000000000000000e+00 0.000000000000000e+00 0.000000000000000e+00
0.000000000000000e+00 0.000000000000000e+00 0.000000000000000e+00
0.000000000000000e+00 0.000000000000000e+00 0.000000000000000e+00
0.000000000000000e+00 0.000000000000000e+00 0.000000000000000e+00
0.000000000000000e+00 0.000000000000000e+00 0.000000000000000e+00
0.000000000000000e+00 0.000000000000000e+00 0.000000000000000e+00
0.000000000000000e+00 0.000000000000000e+00 0.000000000000000e+00
0.000000000000000e+00 0.000000000000000e+00 0.000000000000000e+00
0.000000000000000e+00 0.000000000000000e+00 0.000000000000000e+00
0.000000000000000e+00 0.000000000000000e+00 0.000000000000000e+00
0.000000000000000e+00 0.000000000000000e+00 0.000000000000000e+00
0.000000000000000e+00 0.000000000000000e+00 0.000000000000000e+00
0.000000000000000e+00 0.000000000000000e+00 0.000000000000000e+00
0.000000000000000e+00 0.000000000000000e+00 0.000000000000000e+00
0.000000000000000e+00 0.000000000000000e+00 0.000000000000000e+00
0.000000000000000e+00 0.000000000000000e+00 0.000000000000000e+00
0.000000000000000e+00 0.000000000000000e+00 0.000000000000000e+00
0.000000000000000e+00 0.000000000000000e+00 0.000000000000000e+00
0.000000000000000e+00 0.000000000000000e+00 0.000000000000000e+00
0.000000000000000e+00 0.000000000000000e+00 0.000000000000000e+00
0.000000000000000e+00 0.000000000000000e+00 0.000000000000000e+00
0.000000000000000e+00 0.000000000000000e+00 0.000000000000000e+00
0.000000000000000e+00 0.000000000000000e+00 0.000000000000000e+00
0.000000000000000e+00 0.000000000000000e+00 0.000000000000000e+00
0.000000000000000e+00 0.000000000000000e+00 0.000000000000000e+00
0.000000000000000e+00 0.000000000000000e+00 0.000000000000000e+00
0.000000000000000e+00 0.000000000000000e+00 0.000000000000000e+00
0.000000000000000e+00 0.000000000000000e+00 0.000000000000000e+00
0.000000000000000e+00 0.000000000000000e+00 0.000000000000000e+00
0.000000000000000e+00 0.000000000000000e+00 0.000000000000000e+00
0.000000000000000e+00 0.000000000000000e+00 0.000000000000000e+00
0.000000000000000e+00 0.000000000000000e+00 0.000000000000000e+00
0.000000000000000e+00 0.000000000000000e+00 0.000000000000000e+00
0.000000000000000e+00 0.000000000000000e+00 0.000000000000000e+00
0.000000000000000e+00 0.000000000000000e+00 0.000000000000000e+00
0.000000000000000e+00 0.000000000000000e+00 0.000000000000000e+00
0.000000000000000e+00 0.000000000000000e+00 0.000000000000000e+00
0.000000000000000e+00 0.000000000000000e+00 0.000000000000000e+00
0.000000000000000e+00 0.000000000000000e+00 0.000000000000000e+00
0.000000000000000e+00 0.000000000000000e+00 0.000000000000000e+00
0.000000000000000e+00 0.000000000000000e+00 0.000000000000000e+00
0.000000000000000e+00 0.000000000000000e+00 0.000000000000000e+00
0.000000000000000e+00 0.000000000000000e+00 0.000000000000000e+00
0.000000000000000e+00 0.000000000000000e+00 0.000000000000000e+00
0.000000000000000e+00 0.000000000000000e+00 0.000000000000000e+00
0.000000000000000e+00 0.000000000000000e+00 0.000000000000000e+00
0.000000000000000e+00 0.000000000000000e+00 0.000000000000000e+00
0.000000000000000e+00 0.000000000000000e+00 0.000000000000000e+00
0.000000000000000e+00 0.000000000000000e+00 0.000000000000000e+00
0.000000000000000e+00 0.000000000000000e+00 0.000000000000000e+00
0.000000000000000e+00 0.000000000000000e+00 0.000000000000000e+00
0.000000000000000e+00 0.000000000000000e+00 0.000000000000000e+00
0.000000000000000e+00 0.000000000000000e+00 0.000000000000000e+00
0.000000000000000e+00 0.000000000000000e+00 0.000000000000000e+00
0.000000000000000e+00 0.000000000000000e+00 0.000000000000000e+00
0.000000000000000e+00 0.000000000000000e+00 0.000000000000000e+00
0.000000000000000e+00 0.000000000000000e+00 0.000000000000000e+00
0.000000000000000e+00 0.000000000000000e+00 0.000000000000000e+00
0.000000000000000e+00 0.000000000000000e+00 0.000000000000000e+00
0.000000000000000e+00 0.000000000000000e+00 0.000000000000000e+00
0.000000000000000e+00 0.000000000000000e+00 0.000000000000000e+00
0.000000000000000e+00 0.000000000000000e+00 0.000000000000000e+00
0.000000000000000e+00 0.000000000000000e+00 0.000000000000000e+00
0.000000000000000e+00 0.000000000000000e+00 0.000000000000000e+00
0.000000000000000e+00 0.000000000000000e+00 0.000000000000000e+00
0.000000000000000e+00 0.000000000000000e+00 0.000000000000000e+00
0.000000000000000e+00 0.000000000000000e+00 0.000000000000000e+00
0.000000000000000e+00 0.000000000000000e+00 0.000000000000000e+00
0.000000000000000e+00 0.000000000000000e+00 0.000000000000000e+00
0.000000000000000e+00 0.000000000000000e+00 0.000000000000000e+00
0.000000000000000e+00 0.000000000000000e+00 0.000000000000000e+00
0.000000000000000e+00 0.000000000000000e+00 0.000000000000000e+00
0.000000000000000e+00 0.000000000000000e+00 0.000000000000000e+00
0.000000000000000e+00 0.000000000000000e+00 0.000000000000000e+00
0.000000000000000e+00 0.000000000000000e+00 0.000000000000000e+00
0.000000000000000e+00 0.000000000000000e+00 0.000000000000000e+00
0.000000000000000e+00 0.000000000000000e+00 0.000000000000000e+00
0.000000000000000e+00 0.000000000000000e+00 0.000000000000000e+00
0.000000000000000e+00 0.000000000000000e+00 0.000000000000000e+00
0.000000000000000e+00 0.000000000000000e+00 0.000000000000000e+00
0.000000000000000e+00 0.000000000000000e+00 0.000000000000000e+00
0.000000000000000e+00 0.000000000000000e+00 0.000000000000000e+00
0.000000000000000e+00 0.000000000000000e+00 0.000000000000000e+00
0.000000000000000e+00 0.000000000000000e+00 0.000000000000000e+00
0.000000000000000e+00 0.000000000000000e+00 0.000000000000000e+00
0.000000000000000e+00 0.000000000000000e+00 0.000000000000000e+00
0.000000000000000e+00 0.000000000000000e+00 0.000000000000000e+00
0.000000000000000e+00 0.000000000000000e+00 0.000000000000000e+00
0.000000000000000e+00 0.000000000000000e+00 0.000000000000000e+00
0.000000000000000e+00 0.000000000000000e+00 0.000000000000000e+00
0.000000000000000e+00 0.000000000000000e+00 0.000000000000000e+00
0.000000000000000e+00 0.000000000000000e+00 0.000000000000000e+00
0.000000000000000e+00 0.000000000000000e+00 0.000000000000000e+00
0.000000000000000e+00 0.000000000000000e+00 0.000000000000000e+00
0.000000000000000e+00 0.000000000000000e+00 0.000000000000000e+00
0.000000000000000e+00 0.000000000000000e+00 0.000000000000000e+00
0.000000000000000e+00 0.000000000000000e+00 0.000000000000000e+00
0.000000000000000e+00 0.000000000000000e+00 0.000000000000000e+00
0.000000000000000e+00 0.000000000000000e+00 0.000000000000000e+00
0.000000000000000e+00 0.000000000000000e+00 0.000000000000000e+00
0.000000000000000e+00 0.000000000000000e+00 0.000000000000000e+00
0.000000000000000e+00 0.000000000000000e+00 0.000000000000000e+00
0.000000000000000e+00 0.000000000000000e+00 0.000000000000000e+00
0.000000000000000e+00 0.000000000000000e+00 0.000000000000000e+00
0.000000000000000e+00 0.000000000000000e+00 0.000000000000000e+00
0.000000000000000e+00 0.000000000000000e+00 0.000000000000000e+00
0.000000000000000e+00 0.000000000000000e+00 0.000000000000000e+00
0.000000000000000e+00 0.000000000000000e+00 0.000000000000000e+00
0.000000000000000e+00 0.000000000000000e+00 0.000000000000000e+00
0.000000000000000e+00 0.000000000000000e+00 0.000000000000000e+00
0.000000000000000e+00 0.000000000000000e+00 0.000000000000000e+00
0.000000000000000e+00 0.000000000000000e+00 0.000000000000000e+00
0.000000000000000e+00 0.000000000000000e+00 0.000000000000000e+00
0.000000000000000e+00 0.000000000000000e+00 0.000000000000000e+00
0.000000000000000e+00 0.000000000000000e+00 0.000000000000000e+00
0.000000000000000e+00 0.000000000000000e+00 0.000000000000000e+00
0.000000000000000e+00 0.000000000000000e+00 0.000000000000000e+00
0.000000000000000e+00 0.000000000000000e+00 0.000000000000000e+00
0.000000000000000e+00 0.000000000000000e+00 0.000000000000000e+00
0.000000000000000e+00 0.000000000000000e+00 0.000000000000000e+00
0.000000000000000e+00 0.000000000000000e+00 0.000000000000000e+00
0.000000000000000e+00 0.000000000000000e+00 0.000000000000000e+00
0.000000000000000e+00 0.000000000000000e+00 0.000000000000000e+00
0.000000000000000e+00 0.000000000000000e+00 0.000000000000000e+00
0.000000000000000e+00 0.000000000000000e+00 0.000000000000000e+00
0.000000000000000e+00 0.000000000000000e+00 0.000000000000000e+00
0.000000000000000e+00 0.000000000000000e+00 0.000000000000000e+00
0.000000000000000e+00 0.000000000000000e+00 0.000000000000000e+00
0.000000000000000e+00 0.000000000000000e+00 0.000000000000000e+00
0.000000000000000e+00 0.000000000000000e+00 0.000000000000000e+00
0.000000000000000e+00 0.000000000000000e+00 0.000000000000000e+00
0.000000000000000e+00 0.000000000000000e+00 0.000000000000000e+00
0.000000000000000e+00 0.000000000000000e+00 0.000000000000000e+00
0.000000000000000e+00 0.000000000000000e+00 0.000000000000000e+00
0.000000000000000e+00 0.000000000000000e+00 0.000000000000000e+00
0.000000000000000e+00 0.000000000000000e+00 0.000000000000000e+00
0.000000000000000e+00 0.000000000000000e+00 0.000000000000000e+00
0.000000000000000e+00 0.000000000000000e+00 0.000000000000000e+00
0.000000000000000e+00 0.000000000000000e+00 0.000000000000000e+00
0.000000000000000e+00 0.000000000000000e+00 0.000000000000000e+00
0.000000000000000e+00 0.000000000000000e+00 0.000000000000000e+00
0.000000000000000e+00 0.000000000000000e+00 0.000000000000000e+00
0.000000000000000e+00 0.000000000000000e+00 0.000000000000000e+00
0.000000000000000e+00 0.000000000000000e+00 0.000000000000000e+00
0.000000000000000e+00 0.000000000000000e+00 0.000000000000000e+00
0.000000000000000e+00 0.000000000000000e+00 0.000000000000000e+00
0.000000000000000e+00 0.000000000000000e+00 0.000000000000000e+00
0.000000000000000e+00 0.000000000000000e+00 0.000000000000000e+00
0.000000000000000e+00 0.000000000000000e+00 0.000000000000000e+00
0.000000000000000e+00 0.000000000000000e+00 0.000000000000000e+00
0.000000000000000e+00 0.000000000000000e+00 0.000000000000000e+00
0.000000000000000e+00 0.000000000000000e+00 0.000000000000000e+00
0.000000000000000e+00 0.000000000000000e+00 0.000000000000000e+00
0.000000000000000e+00 0.000000000000000e+00 0.000000000000000e+00
0.000000000000000e+00 0.000000000000000e+00 0.000000000000000e+00
0.000000000000000e+00 0.000000000000000e+00 0.000000000000000e+00
0.000000000000000e+00 0.000000000000000e+00 0.000000000000000e+00
0.000000000000000e+00 0.000000000000000e+00 0.000000000000000e+00
0.000000000000000e+00 0.000000000000000e+00 0.000000000000000e+00
0.000000000000000e+00 0.000000000000000e+00 0.000000000000000e+00
0.000000000000000e+00 0.000000000000000e+00 0.000000000000000e+00
0.000000000000000e+00 0.000000000000000e+00 0.000000000000000e+00
0.000000000000000e+00 0.000000000000000e+00 0.000000000000000e+00
0.000000000000000e+00 0.000000000000000e+00 0.000000000000000e+00
0.000000000000000e+00 0.000000000000000e+00 0.000000000000000e+00
0.000000000000000e+00 0.000000000000000e+00 0.000000000000000e+00
0.000000000000000e+00 0.000000000000000e+00 0.000000000000000e+00
0.000000000000000e+00 0.000000000000000e+00 0.000000000000000e+00
0.000000000000000e+00 0.000000000000000e+00 0.000000000000000e+00
0.000000000000000e+00 0.000000000000000e+00 0.000000000000000e+00
0.000000000000000e+00 0.000000000000000e+00 0.000000000000000e+00
0.000000000000000e+00 0.000000000000000e+00 0.000000000000000e+00
0.000000000000000e+00 0.000000000000000e+00 0.000000000000000e+00
0.000000000000000e+00 0.000000000000000e+00 0.000000000000000e+00
0.000000000000000e+00 0.000000000000000e+00 0.000000000000000e+00
0.000000000000000e+00 0.000000000000000e+00 0.000000000000000e+00
0.000000000000000e+00 0.000000000000000e+00 0.000000000000000e+00
0.000000000000000e+00 0.000000000000000e+00 0.000000000000000e+00
0.000000000000000e+00 0.000000000000000e+00 0.000000000000000e+00
0.000000000000000e+00 0.000000000000000e+00 0.000000000000000e+00
0.000000000000000e+00 0.000000000000000e+00 0.000000000000000e+00
0.000000000000000e+00 0.000000000000000e+00 0.000000000000000e+00
0.000000000000000e+00 0.000000000000000e+00 0.000000000000000e+00
0.000000000000000e+00 0.000000000000000e+00 0.000000000000000e+00
0.000000000000000e+00 0.000000000000000e+00 0.000000000000000e+00
0.000000000000000e+00 0.000000000000000e+00 0.000000000000000e+00
0.000000000000000e+00 0.000000000000000e+00 0.000000000000000e+00
0.000000000000000e+00 0.000000000000000e+00 0.000000000000000e+00
0.000000000000000e+00 0.000000000000000e+00 0.000000000000000e+00
0.000000000000000e+00 0.000000000000000e+00 0.000000000000000e+00
0.000000000000000e+00 0.000000000000000e+00 0.000000000000000e+00
0.000000000000000e+00 0.000000000000000e+00 0.000000000000000e+00
0.000000000000000e+00 0.000000000000000e+00 0.000000000000000e+00
0.000000000000000e+00 0.000000000000000e+00 0.000000000000000e+00
0.000000000000000e+00 0.000000000000000e+00 0.000000000000000e+00
0.000000000000000e+00 0.000000000000000e+00 0.000000000000000e+00
0.000000000000000e+00 0.000000000000000e+00 0.000000000000000e+00
0.000000000000000e+00 0.000000000000000e+00 0.000000000000000e+00
0.000000000000000e+00 0.000000000000000e+00 0.000000000000000e+00
0.000000000000000e+00 0.000000000000000e+00 0.000000000000000e+00
0.000000000000000e+00 0.000000000000000e+00 0.000000000000000e+00
0.000000000000000e+00 0.000000000000000e+00 0.000000000000000e+00
0.000000000000000e+00 0.000000000000000e+00 0.000000000000000e+00
0.000000000000000e+00 0.000000000000000e+00 0.000000000000000e+00
0.000000000000000e+00 0.000000000000000e+00 0.000000000000000e+00
0.000000000000000e+00 0.000000000000000e+00 0.000000000000000e+00
0.000000000000000e+00 0.000000000000000e+00 0.000000000000000e+00
0.000000000000000e+00 0.000000000000000e+00 0.000000000000000e+00
0.000000000000000e+00 0.000000000000000e+00 0.000000000000000e+00
0.000000000000000e+00 0.000000000000000e+00 0.000000000000000e+00
0.000000000000000e+00 0.000000000000000e+00 0.000000000000000e+00
0.000000000000000e+00 0.000000000000000e+00 0.000000000000000e+00
0.000000000000000e+00 0.000000000000000e+00 0.000000000000000e+00
0.000000000000000e+00 0.000000000000000e+00 0.000000000000000e+00
0.000000000000000e+00 0.000000000000000e+00 0.000000000000000e+00
0.000000000000000e+00 0.000000000000000e+00 0.000000000000000e+00
0.000000000000000e+00 0.000000000000000e+00 0.000000000000000e+00
0.000000000000000e+00 0.000000000000000e+00 0.000000000000000e+00
0.000000000000000e+00 0.000000000000000e+00 0.000000000000000e+00
0.000000000000000e+00 0.000000000000000e+00 0.000000000000000e+00
0.000000000000000e+00 0.000000000000000e+00 0.000000000000000e+00
0.000000000000000e+00 0.000000000000000e+00 0.000000000000000e+00
0.000000000000000e+00 0.000000000000000e+00 0.000000000000000e+00
0.000000000000000e+00 0.000000000000000e+00 0.000000000000000e+00
0.000000000000000e+00 0.000000000000000e+00 0.000000000000000e+00
0.000000000000000e+00 0.000000000000000e+00 0.000000000000000e+00
0.000000000000000e+00 0.000000000000000e+00 0.000000000000000e+00
0.000000000000000e+00 0.000000000000000e+00 0.000000000000000e+00
0.000000000000000e+00 0.000000000000000e+00 0.000000000000000e+00
0.000000000000000e+00 0.000000000000000e+00 0.000000000000000e+00
0.000000000000000e+00 0.000000000000000e+00 0.000000000000000e+00
0.000000000000000e+00 0.000000000000000e+00 0.000000000000000e+00
0.000000000000000e+00 0.000000000000000e+00 0.000000000000000e+00
0.000000000000000e+00 0.000000000000000e+00 0.000000000000000e+00
0.000000000000000e+00 0.000000000000000e+00 0.000000000000000e+00
0.000000000000000e+00 0.000000000000000e+00 0.000000000000000e+00
0.000000000000000e+00 0.000000000000000e+00 0.000000000000000e+00
0.000000000000000e+00 0.000000000000000e+00 0.000000000000000e+00
0.000000000000000e+00 0.000000000000000e+00 0.000000000000000e+00
0.000000000000000e+00 0.000000000000000e+00 0.000000000000000e+00
0.000000000000000e+00 0.000000000000000e+00 0.000000000000000e+00
0.000000000000000e+00 0.000000000000000e+00 0.000000000000000e+00
0.000000000000000e+00 0.000000000000000e+00 0.000000000000000e+00
0.000000000000000e+00 0.000000000000000e+00 0.000000000000000e+00
0.000000000000000e+00 0.000000000000000e+00 0.000000000000000e+00
0.000000000000000e+00 0.000000000000000e+00 0.000000000000000e+00
0.000000000000000e+00 0.000000000000000e+00 0.000000000000000e+00
0.000000000000000e+00 0.000000000000000e+00 0.000000000000000e+00
0.000000000000000e+00 0.000000000000000e+00 0.000000000000000e+00
0.000000000000000e+00 0.000000000000000e+00 0.000000000000000e+00
0.000000000000000e+00 0.000000000000000e+00 0.000000000000000e+00
0.000000000000000e+00 0.000000000000000e+00 0.000000000000000e+00
0.000000000000000e+00 0.000000000000000e+00 0.000000000000000e+00
0.000000000000000e+00 0.000000000000000e+00 0.000000000000000e+00
0.000000000000000e+00 0.000000000000000e+00 0.000000000000000e+00
0.000000000000000e+00 0.000000000000000e+00 0.000000000000000e+00
0.000000000000000e+00 0.000000000000000e+00 0.000000000000000e+00
0.000000000000000e+00 0.000000000000000e+00 0.000000000000000e+00
0.000000000000000e+00 0.000000000000000e+00 0.000000000000000e+00
0.000000000000000e+00 0.000000000000000e+00 0.000000000000000e+00
0.000000000000000e+00 0.000000000000000e+00 0.000000000000000e+00
0.000000000000000e+00 0.000000000000000e+00 0.000000000000000e+00
0.000000000000000e+00 0.000000000000000e+00 0.000000000000000e+00
0.000000000000000e+00 0.000000000000000e+00 0.000000000000000e+00
0.000000000000000e+00 0.000000000000000e+00 0.000000000000000e+00
0.000000000000000e+00 0.000000000000000e+00 0.000000000000000e+00
0.000000000000000e+00 0.000000000000000e+00 0.000000000000000e+00
0.000000000000000e+00 0.000000000000000e+00 0.000000000000000e+00
0.000000000000000e+00 0.000000000000000e+00 0.000000000000000e+00
0.000000000000000e+00 0.000000000000000e+00 0.000000000000000e+00
0.000000000000000e+00 0.000000000000000e+00 0.000000000000000e+00
0.000000000000000e+00 0.000000000000000e+00 0.000000000000000e+00
0.000000000000000e+00 0.000000000000000e+00 0.000000000000000e+00
0.000000000000000e+00 0.000000000000000e+00 0.000000000000000e+00
0.000000000000000e+00 0.000000000000000e+00 0.000000000000000e+00
0.000000000000000e+00 0.000000000000000e+00 0.000000000000000e+00
0.000000000000000e+00 0.000000000000000e+00 0.000000000000000e+00
0.000000000000000e+00 0.000000000000000e+00 0.000000000000000e+00
0.000000000000000e+00 0.000000000000000e+00 0.000000000000000e+00
0.000000000000000e+00 0.000000000000000e+00 0.000000000000000e+00
0.000000000000000e+00 0.000000000000000e+00 0.000000000000000e+00
0.000000000000000e+00 0.000000000000000e+00 0.000000000000000e+00
0.000000000000000e+00 0.000000000000000e+00 0.000000000000000e+00
0.000000000000000e+00 0.000000000000000e+00 0.000000000000000e+00
0.000000000000000e+00 0.000000000000000e+00 0.000000000000000e+00
0.000000000000000e+00 0.000000000000000e+00 0.000000000000000e+00
0.000000000000000e+00 0.000000000000000e+00 0.000000000000000e+00
0.000000000000000e+00 0.000000000000000e+00 0.000000000000000e+00
0.000000000000000e+00 0.000000000000000e+00 0.000000000000000e+00
0.000000000000000e+00 0.000000000000000e+00 0.000000000000000e+00
0.000000000000000e+00 0.000000000000000e+00 0.000000000000000e+00
0.000000000000000e+00 0.000000000000000e+00 0.000000000000000e+00
0.000000000000000e+00 0.000000000000000e+00 0.000000000000000e+00
0.000000000000000e+00 0.000000000000000e+00 0.000000000000000e+00
0.000000000000000e+00 0.000000000000000e+00 0.000000000000000e+00
0.000000000000000e+00 0.000000000000000e+00 0.000000000000000e+00
0.000000000000000e+00 0.000000000000000e+00 0.000000000000000e+00
0.000000000000000e+00 0.000000000000000e+00 0.000000000000000e+00
0.000000000000000e+00 0.000000000000000e+00 0.000000000000000e+00
0.000000000000000e+00 0.000000000000000e+00 0.000000000000000e+00
0.000000000000000e+00 0.000000000000000e+00 0.000000000000000e+00
0.000000000000000e+00 0.000000000000000e+00 0.000000000000000e+00
0.000000000000000e+00 0.000000000000000e+00 0.000000000000000e+00
0.000000000000000e+00 0.000000000000000e+00 0.000000000000000e+00
0.000000000000000e+00 0.000000000000000e+00 0.000000000000000e+00
0.000000000000000e+00 0.000000000000000e+00 0.000000000000000e+00
0.000000000000000e+00 0.000000000000000e+00 0.000000000000000e+00
0.000000000000000e+00 0.000000000000000e+00 0.000000000000000e+00
0.000000000000000e+00 0.000000000000000e+00 0.000000000000000e+00
0.000000000000000e+00 0.000000000000000e+00 0.000000000000000e+00
0.000000000000000e+00 0.000000000000000e+00 0.000000000000000e+00
0.000000000000000e+00 0.000000000000000e+00 0.000000000000000e+00
0.000000000000000e+00 0.000000000000000e+00 0.000000000000000e+00
0.000000000000000e+00 0.000000000000000e+00 0.000000000000000e+00
0.000000000000000e+00 0.000000000000000e+00 0.000000000000000e+00
0.000000000000000e+00 0.000000000000000e+00 0.000000000000000e+00
0.000000000000000e+00 0.000000000000000e+00 0.000000000000000e+00
0.000000000000000e+00 0.000000000000000e+00 0.000000000000000e+00
0.000000000000000e+00 0.000000000000000e+00 0.000000000000000e+00
0.000000000000000e+00 0.000000000000000e+00 0.000000000000000e+00
0.000000000000000e+00 0.000000000000000e+00 0.000000000000000e+00
0.000000000000000e+00 0.000000000000000e+00 0.000000000000000e+00
0.000000000000000e+00 0.000000000000000e+00 0.000000000000000e+00
0.000000000000000e+00 0.000000000000000e+00 0.000000000000000e+00
0.000000000000000e+00 0.000000000000000e+00 0.000000000000000e+00
0.000000000000000e+00 0.000000000000000e+00 0.000000000000000e+00
0.000000000000000e+00 0.000000000000000e+00 0.000000000000000e+00
0.000000000000000e+00 0.000000000000000e+00 0.000000000000000e+00
0.000000000000000e+00 0.000000000000000e+00 0.000000000000000e+00
0.000000000000000e+00 0.000000000000000e+00 0.000000000000000e+00
0.000000000000000e+00 0.000000000000000e+00 0.000000000000000e+00
0.000000000000000e+00 0.000000000000000e+00 0.000000000000000e+00
0.000000000000000e+00 0.000000000000000e+00 0.000000000000000e+00
0.000000000000000e+00 0.000000000000000e+00 0.000000000000000e+00
0.000000000000000e+00 0.000000000000000e+00 0.000000000000000e+00
0.000000000000000e+00 0.000000000000000e+00 0.000000000000000e+00
0.000000000000000e+00 0.000000000000000e+00 0.000000000000000e+00
0.000000000000000e+00 0.000000000000000e+00 0.000000000000000e+00
0.000000000000000e+00 0.000000000000000e+00 0.000000000000000e+00
0.000000000000000e+00 0.000000000000000e+00 0.000000000000000e+00
0.000000000000000e+00 0.000000000000000e+00 0.000000000000000e+00
0.000000000000000e+00 0.000000000000000e+00 0.000000000000000e+00
0.000000000000000e+00 0.000000000000000e+00 0.000000000000000e+00
0.000000000000000e+00 0.000000000000000e+00 0.000000000000000e+00
0.000000000000000e+00 0.000000000000000e+00 0.000000000000000e+00
0.000000000000000e+00 0.000000000000000e+00 0.000000000000000e+00
0.000000000000000e+00 0.000000000000000e+00 0.000000000000000e+00
0.000000000000000e+00 0.000000000000000e+00 0.000000000000000e+00
0.000000000000000e+00 0.000000000000000e+00 0.000000000000000e+00
0.000000000000000e+00 0.000000000000000e+00 0.000000000000000e+00
0.000000000000000e+00 0.000000000000000e+00 0.000000000000000e+00
0.000000000000000e+00 0.000000000000000e+00 0.000000000000000e+00
0.000000000000000e+00 0.000000000000000e+00 0.000000000000000e+00
0.000000000000000e+00 0.000000000000000e+00 0.000000000000000e+00
0.000000000000000e+00 0.000000000000000e+00 0.000000000000000e+00
0.000000000000000e+00 0.000000000000000e+00 0.000000000000000e+00
0.000000000000000e+00 0.000000000000000e+00 0.000000000000000e+00
0.000000000000000e+00 0.000000000000000e+00 0.000000000000000e+00
0.000000000000000e+00 0.000000000000000e+00 0.000000000000000e+00
0.000000000000000e+00 0.000000000000000e+00 0.000000000000000e+00
0.000000000000000e+00 0.000000000000000e+00 0.000000000000000e+00
0.000000000000000e+00 0.000000000000000e+00 0.000000000000000e+00
0.000000000000000e+00 0.000000000000000e+00 0.000000000000000e+00
0.000000000000000e+00 0.000000000000000e+00 0.000000000000000e+00
0.000000000000000e+00 0.000000000000000e+00 0.000000000000000e+00
0.000000000000000e+00 0.000000000000000e+00 0.000000000000000e+00
0.000000000000000e+00 0.000000000000000e+00 0.000000000000000e+00
0.000000000000000e+00 0.000000000000000e+00 0.000000000000000e+00
0.000000000000000e+00 0.000000000000000e+00 0.000000000000000e+00
0.000000000000000e+00 0.000000000000000e+00 0.000000000000000e+00
0.000000000000000e+00 0.000000000000000e+00 0.000000000000000e+00
0.000000000000000e+00 0.000000000000000e+00 0.000000000000000e+00
0.000000000000000e+00 0.000000000000000e+00 0.000000000000000e+00
0.000000000000000e+00 0.000000000000000e+00 0.000000000000000e+00
0.000000000000000e+00 0.000000000000000e+00 0.000000000000000e+00
0.000000000000000e+00 0.000000000000000e+00 0.000000000000000e+00
0.000000000000000e+00 0.000000000000000e+00 0.000000000000000e+00
0.000000000000000e+00 0.000000000000000e+00 0.000000000000000e+00
0.000000000000000e+00 0.000000000000000e+00 0.000000000000000e+00
0.000000000000000e+00 0.000000000000000e+00 0.000000000000000e+00
0.000000000000000e+00 0.000000000000000e+00 0.000000000000000e+00
0.000000000000000e+00 0.000000000000000e+00 0.000000000000000e+00
0.000000000000000e+00 0.000000000000000e+00 0.000000000000000e+00
0.000000000000000e+00 0.000000000000000e+00 0.000000000000000e+00
0.000000000000000e+00 0.000000000000000e+00 0.000000000000000e+00
0.000000000000000e+00 0.000000000000000e+00 0.000000000000000e+00
0.000000000000000e+00 0.000000000000000e+00 0.000000000000000e+00
0.000000000000000e+00 0.000000000000000e+00 0.000000000000000e+00
0.000000000000000e+00 0.000000000000000e+00 0.000000000000000e+00
0.000000000000000e+00 0.000000000000000e+00 0.000000000000000e+00
0.000000000000000e+00 0.000000000000000e+00 0.000000000000000e+00
0.000000000000000e+00 0.000000000000000e+00 0.000000000000000e+00
0.000000000000000e+00 0.000000000000000e+00 0.000000000000000e+00
0.000000000000000e+00 0.000000000000000e+00 0.000000000000000e+00
0.000000000000000e+00 0.000000000000000e+00 0.000000000000000e+00
0.000000000000000e+00 0.000000000000000e+00 0.000000000000000e+00
0.000000000000000e+00 0.000000000000000e+00 0.000000000000000e+00
0.000000000000000e+00 0.000000000000000e+00 0.000000000000000e+00
0.000000000000000e+00 0.000000000000000e+00 0.000000000000000e+00
0.000000000000000e+00 0.000000000000000e+00 0.000000000000000e+00
0.000000000000000e+00 0.000000000000000e+00 0.000000000000000e+00
0.000000000000000e+00 0.000000000000000e+00 0.000000000000000e+00
0.000000000000000e+00 0.000000000000000e+00 0.000000000000000e+00
0.000000000000000e+00 0.000000000000000e+00 0.000000000000000e+00
0.000000000000000e+00 0.000000000000000e+00 0.000000000000000e+00
0.000000000000000e+00 0.000000000000000e+00 0.000000000000000e+00
0.000000000000000e+00 0.000000000000000e+00 0.000000000000000e+00
0.000000000000000e+00 0.000000000000000e+00 0.000000000000000e+00
0.000000000000000e+00 0.000000000000000e+00 0.000000000000000e+00
0.000000000000000e+00 0.000000000000000e+00 0.000000000000000e+00
0.000000000000000e+00 0.000000000000000e+00 0.000000000000000e+00
0.000000000000000e+00 0.000000000000000e+00 0.000000000000000e+00
0.000000000000000e+00 0.000000000000000e+00 0.000000000000000e+00
0.000000000000000e+00 0.000000000000000e+00 0.000000000000000e+00
0.000000000000000e+00 0.000000000000000e+00 0.000000000000000e+00
0.000000000000000e+00 0.000000000000000e+00 0.000000000000000e+00
0.000000000000000e+00 0.000000000000000e+00 0.000000000000000e+00
0.000000000000000e+00 0.000000000000000e+00 0.000000000000000e+00
0.000000000000000e+00 0.000000000000000e+00 0.000000000000000e+00
0.000000000000000e+00 0.000000000000000e+00 0.000000000000000e+00
0.000000000000000e+00 0.000000000000000e+00 0.000000000000000e+00
0.000000000000000e+00 0.000000000000000e+00 0.000000000000000e+00
0.000000000000000e+00 0.000000000000000e+00 0.000000000000000e+00
0.000000000000000e+00 0.000000000000000e+00 0.000000000000000e+00
0.000000000000000e+00 0.000000000000000e+00 0.000000000000000e+00
0.000000000000000e+00 0.000000000000000e+00 0.000000000000000e+00
0.000000000000000e+00 0.000000000000000e+00 0.000000000000000e+00
0.000000000000000e+00 0.000000000000000e+00 0.000000000000000e+00
0.000000000000000e+00 0.000000000000000e+00 0.000000000000000e+00
0.000000000000000e+00 0.000000000000000e+00 0.000000000000000e+00
0.000000000000000e+00 0.000000000000000e+00 0.000000000000000e+00
0.000000000000000e+00 0.000000000000000e+00 0.000000000000000e+00
0.000000000000000e+00 0.000000000000000e+00 0.000000000000000e+00
0.000000000000000e+00 0.000000000000000e+00 0.000000000000000e+00
0.000000000000000e+00 0.000000000000000e+00 0.000000000000000e+00
0.000000000000000e+00 0.000000000000000e+00 0.000000000000000e+00
0.000000000000000e+00 0.000000000000000e+00 0.000000000000000e+00
0.000000000000000e+00 0.000000000000000e+00 0.000000000000000e+00
0.000000000000000e+00 0.000000000000000e+00 0.000000000000000e+00
0.000000000000000e+00 0.000000000000000e+00 0.000000000000000e+00
0.000000000000000e+00 0.000000000000000e+00 0.000000000000000e+00
0.000000000000000e+00 0.000000000000000e+00 0.000000000000000e+00
0.000000000000000e+00 0.000000000000000e+00 0.000000000000000e+00
0.000000000000000e+00 0.000000000000000e+00 0.000000000000000e+00
0.000000000000000e+00 0.000000000000000e+00 0.000000000000000e+00
0.000000000000000e+00 0.000000000000000e+00 0.000000000000000e+00
0.000000000000000e+00 0.000000000000000e+00 0.000000000000000e+00
0.000000000000000e+00 0.000000000000000e+00 0.000000000000000e+00
0.000000000000000e+00 0.000000000000000e+00 0.000000000000000e+00
0.000000000000000e+00 0.000000000000000e+00 0.000000000000000e+00
0.000000000000000e+00 0.000000000000000e+00 0.000000000000000e+00
0.000000000000000e+00 0.000000000000000e+00 0.000000000000000e+00
0.000000000000000e+00 0.000000000000000e+00 0.000000000000000e+00
0.000000000000000e+00 0.000000000000000e+00 0.000000000000000e+00
0.000000000000000e+00 0.000000000000000e+00 0.000000000000000e+00
0.000000000000000e+00 0.000000000000000e+00 0.000000000000000e+00
0.000000000000000e+00 0.000000000000000e+00 0.000000000000000e+00
0.000000000000000e+00 0.000000000000000e+00 0.000000000000000e+00
0.000000000000000e+00 0.000000000000000e+00 0.000000000000000e+00
0.000000000000000e+00 0.000000000000000e+00 0.000000000000000e+00
0.000000000000000e+00 0.000000000000000e+00 0.000000000000000e+00
0.000000000000000e+00 0.000000000000000e+00 0.000000000000000e+00
0.000000000000000e+00 0.000000000000000e+00 0.000000000000000e+00
0.000000000000000e+00 0.000000000000000e+00 0.000000000000000e+00
0.000000000000000e+00 0.000000000000000e+00 0.000000000000000e+00
0.000000000000000e+00 0.000000000000000e+00 0.000000000000000e+00
0.000000000000000e+00 0.000000000000000e+00 0.000000000000000e+00
0.000000000000000e+00 0.000000000000000e+00 0.000000000000000e+00
0.000000000000000e+00 0.000000000000000e+00 0.000000000000000e+00
0.000000000000000e+00 0.000000000000000e+00 0.000000000000000e+00
0.000000000000000e+00 0.000000000000000e+00 0.000000000000000e+00
0.000000000000000e+00 0.000000000000000e+00 0.000000000000000e+00
0.000000000000000e+00 0.000000000000000e+00 0.000000000000000e+00
0.000000000000000e+00 0.000000000000000e+00 0.000000000000000e+00
0.000000000000000e+00 0.000000000000000e+00 0.000000000000000e+00
0.000000000000000e+00 0.000000000000000e+00 0.000000000000000e+00
0.000000000000000e+00 0.000000000000000e+00 0.000000000000000e+00
0.000000000000000e+00 0.000000000000000e+00 0.000000000000000e+00
0.000000000000000e+00 0.000000000000000e+00 0.000000000000000e+00
0.000000000000000e+00 0.000000000000000e+00 0.000000000000000e+00
0.000000000000000e+00 0.000000000000000e+00 0.000000000000000e+00
0.000000000000000e+00 0.000000000000000e+00 0.000000000000000e+00
0.000000000000000e+00 0.000000000000000e+00 0.000000000000000e+00
0.000000000000000e+00 0.000000000000000e+00 0.000000000000000e+00
0.000000000000000e+00 0.000000000000000e+00 0.000000000000000e+00
0.000000000000000e+00 0.000000000000000e+00 0.000000000000000e+00
0.000000000000000e+00 0.000000000000000e+00 0.000000000000000e+00
0.000000000000000e+00 0.000000000000000e+00 0.000000000000000e+00
0.000000000000000e+00 0.000000000000000e+00 0.000000000000000e+00
0.000000000000000e+00 0.000000000000000e+00 0.000000000000000e+00
0.000000000000000e+00 0.000000000000000e+00 0.000000000000000e+00
0.000000000000000e+00 0.000000000000000e+00 0.000000000000000e+00
0.000000000000000e+00 0.000000000000000e+00 0.000000000000000e+00
0.000000000000000e+00 0.000000000000000e+00 0.000000000000000e+00
0.000000000000000e+00 0.000000000000000e+00 0.000000000000000e+00
0.000000000000000e+00 0.000000000000000e+00 0.000000000000000e+00
0.000000000000000e+00 0.000000000000000e+00 0.000000000000000e+00
0.000000000000000e+00 0.000000000000000e+00 0.000000000000000e+00
0.000000000000000e+00 0.000000000000000e+00 0.000000000000000e+00
0.000000000000000e+00 0.000000000000000e+00 0.000000000000000e+00
0.000000000000000e+00 0.000000000000000e+00 0.000000000000000e+00
0.000000000000000e+00 0.000000000000000e+00 0.000000000000000e+00
0.000000000000000e+00 0.000000000000000e+00 0.000000000000000e+00
0.000000000000000e+00 0.000000000000000e+00 0.000000000000000e+00
0.000000000000000e+00 0.000000000000000e+00 0.000000000000000e+00
0.000000000000000e+00 0.000000000000000e+00 0.000000000000000e+00
0.000000000000000e+00 0.000000000000000e+00 0.000000000000000e+00
0.000000000000000e+00 0.000000000000000e+00 0.000000000000000e+00
0.000000000000000e+00 0.000000000000000e+00 0.000000000000000e+00
0.000000000000000e+00 0.000000000000000e+00 0.000000000000000e+00
0.000000000000000e+00 0.000000000000000e+00 0.000000000000000e+00
0.000000000000000e+00 0.000000000000000e+00 0.000000000000000e+00
0.000000000000000e+00 0.000000000000000e+00 0.000000000000000e+00
0.000000000000000e+00 0.000000000000000e+00 0.000000000000000e+00
0.000000000000000e+00 0.000000000000000e+00 0.000000000000000e+00
0.000000000000000e+00 0.000000000000000e+00 0.000000000000000e+00
0.000000000000000e+00 0.000000000000000e+00 0.000000000000000e+00
0.000000000000000e+00 0.000000000000000e+00 0.000000000000000e+00
0.000000000000000e+00 0.000000000000000e+00 0.000000000000000e+00
0.000000000000000e+00 0.000000000000000e+00 0.000000000000000e+00
0.000000000000000e+00 0.000000000000000e+00 0.000000000000000e+00
0.000000000000000e+00 0.000000000000000e+00 0.000000000000000e+00
0.000000000000000e+00 0.000000000000000e+00 0.000000000000000e+00
0.000000000000000e+00 0.000000000000000e+00 0.000000000000000e+00
0.000000000000000e+00 0.000000000000000e+00 0.000000000000000e+00
0.000000000000000e+00 0.000000000000000e+00 0.000000000000000e+00
0.000000000000000e+00 0.000000000000000e+00 0.000000000000000e+00
0.000000000000000e+00 0.000000000000000e+00 0.000000000000000e+00
0.000000000000000e+00 0.000000000000000e+00 0.000000000000000e+00
0.000000000000000e+00 0.000000000000000e+00 0.000000000000000e+00
0.000000000000000e+00 0.000000000000000e+00 0.000000000000000e+00
0.000000000000000e+00 0.000000000000000e+00 0.000000000000000e+00
0.000000000000000e+00 0.000000000000000e+00 0.000000000000000e+00
0.000000000000000e+00 0.000000000000000e+00 0.000000000000000e+00
0.000000000000000e+00 0.000000000000000e+00 0.000000000000000e+00
0.000000000000000e+00 0.000000000000000e+00 0.000000000000000e+00
0.000000000000000e+00 0.000000000000000e+00 0.000000000000000e+00
0.000000000000000e+00 0.000000000000000e+00 0.000000000000000e+00
0.000000000000000e+00 0.000000000000000e+00 0.000000000000000e+00
0.000000000000000e+00 0.000000000000000e+00 0.000000000000000e+00
0.000000000000000e+00 0.000000000000000e+00 0.000000000000000e+00
0.000000000000000e+00 0.000000000000000e+00 0.000000000000000e+00
0.000000000000000e+00 0.000000000000000e+00 0.000000000000000e+00
0.000000000000000e+00 0.000000000000000e+00 0.000000000000000e+00
0.000000000000000e+00 0.000000000000000e+00 0.000000000000000e+00
0.000000000000000e+00 0.000000000000000e+00 0.000000000000000e+00
0.000000000000000e+00 0.000000000000000e+00 0.000000000000000e+00
0.000000000000000e+00 0.000000000000000e+00 0.000000000000000e+00
0.000000000000000e+00 0.000000000000000e+00 0.000000000000000e+00
0.000000000000000e+00 0.000000000000000e+00 0.000000000000000e+00
0.000000000000000e+00 0.000000000000000e+00 0.000000000000000e+00
0.000000000000000e+00 0.000000000000000e+00 0.000000000000000e+00
0.000000000000000e+00 0.000000000000000e+00 0.000000000000000e+00
0.000000000000000e+00 0.000000000000000e+00 0.000000000000000e+00
0.000000000000000e+00 0.000000000000000e+00 0.000000000000000e+00
0.000000000000000e+00 0.000000000000000e+00 0.000000000000000e+00
0.000000000000000e+00 0.000000000000000e+00 0.000000000000000e+00
0.000000000000000e+00 0.000000000000000e+00 0.000000000000000e+00
0.000000000000000e+00 0.000000000000000e+00 0.000000000000000e+00
0.000000000000000e+00 0.000000000000000e+00 0.000000000000000e+00
0.000000000000000e+00 0.000000000000000e+00 0.000000000000000e+00
0.000000000000000e+00 0.000000000000000e+00 0.000000000000000e+00
0.000000000000000e+00 0.000000000000000e+00 0.000000000000000e+00
0.000000000000000e+00 0.000000000000000e+00 0.000000000000000e+00
0.000000000000000e+00 0.000000000000000e+00 0.000000000000000e+00
0.000000000000000e+00 0.000000000000000e+00 0.000000000000000e+00
0.000000000000000e+00 0.000000000000000e+00 0.000000000000000e+00
0.000000000000000e+00 0.000000000000000e+00 0.000000000000000e+00
0.000000000000000e+00 0.000000000000000e+00 0.000000000000000e+00
0.000000000000000e+00 0.000000000000000e+00 0.000000000000000e+00
0.000000000000000e+00 0.000000000000000e+00 0.000000000000000e+00
0.000000000000000e+00 0.000000000000000e+00 0.000000000000000e+00
0.000000000000000e+00 0.000000000000000e+00 0.000000000000000e+00
0.000000000000000e+00 0.000000000000000e+00 0.000000000000000e+00
0.000000000000000e+00 0.000000000000000e+00 0.000000000000000e+00
0.000000000000000e+00 0.000000000000000e+00 0.000000000000000e+00
0.000000000000000e+00 0.000000000000000e+00 0.000000000000000e+00
0.000000000000000e+00 0.000000000000000e+00 0.000000000000000e+00
0.000000000000000e+00 0.000000000000000e+00 0.000000000000000e+00
0.000000000000000e+00 0.000000000000000e+00 0.000000000000000e+00
0.000000000000000e+00 0.000000000000000e+00 0.000000000000000e+00
0.000000000000000e+00 0.000000000000000e+00 0.000000000000000e+00
0.000000000000000e+00 0.000000000000000e+00 0.000000000000000e+00
0.000000000000000e+00 0.000000000000000e+00 0.000000000000000e+00
0.000000000000000e+00 0.000000000000000e+00 0.000000000000000e+00
0.000000000000000e+00 0.000000000000000e+00 0.000000000000000e+00
0.000000000000000e+00 0.000000000000000e+00 0.000000000000000e+00
0.000000000000000e+00 0.000000000000000e+00 0.000000000000000e+00
0.000000000000000e+00 0.000000000000000e+00 0.000000000000000e+00
0.000000000000000e+00 0.000000000000000e+00 0.000000000000000e+00
0.000000000000000e+00 0.000000000000000e+00 0.000000000000000e+00
0.000000000000000e+00 0.000000000000000e+00 0.000000000000000e+00
0.000000000000000e+00 0.000000000000000e+00 0.000000000000000e+00
0.000000000000000e+00 0.000000000000000e+00 0.000000000000000e+00
0.000000000000000e+00 0.000000000000000e+00 0.000000000000000e+00
0.000000000000000e+00 0.000000000000000e+00 0.000000000000000e+00
0.000000000000000e+00 0.000000000000000e+00 0.000000000000000e+00
0.000000000000000e+00 0.000000000000000e+00 0.000000000000000e+00
0.000000000000000e+00 0.000000000000000e+00 0.000000000000000e+00
0.000000000000000e+00 0.000000000000000e+00 0.000000000000000e+00
0.000000000000000e+00 0.000000000000000e+00 0.000000000000000e+00
0.000000000000000e+00 0.000000000000000e+00 0.000000000000000e+00
0.000000000000000e+00 0.000000000000000e+00 0.000000000000000e+00
0.000000000000000e+00 0.000000000000000e+00 0.000000000000000e+00
0.000000000000000e+00 0.000000000000000e+00 0.000000000000000e+00
0.000000000000000e+00 0.000000000000000e+00 0.000000000000000e+00
0.000000000000000e+00 0.000000000000000e+00 0.000000000000000e+00
0.000000000000000e+00 0.000000000000000e+00 0.000000000000000e+00
0.000000000000000e+00 0.000000000000000e+00 0.000000000000000e+00
0.000000000000000e+00 0.000000000000000e+00 0.000000000000000e+00
0.000000000000000e+00 0.000000000000000e+00 0.000000000000000e+00
0.000000000000000e+00 0.000000000000000e+00 0.000000000000000e+00
0.000000000000000e+00 0.000000000000000e+00 0.000000000000000e+00
0.000000000000000e+00 0.000000000000000e+00 0.000000000000000e+00
0.000000000000000e+00 0.000000000000000e+00 0.000000000000000e+00
0.000000000000000e+00 0.000000000000000e+00 0.000000000000000e+00
0.000000000000000e+00 0.000000000000000e+00 0.000000000000000e+00
0.000000000000000e+00 0.000000000000000e+00 0.000000000000000e+00
0.000000000000000e+00 0.000000000000000e+00 0.000000000000000e+00
0.000000000000000e+00 0.000000000000000e+00 0.000000000000000e+00
0.000000000000000e+00 0.000000000000000e+00 0.000000000000000e+00
0.000000000000000e+00 0.000000000000000e+00 0.000000000000000e+00
0.000000000000000e+00 0.000000000000000e+00 0.000000000000000e+00
0.000000000000000e+00 0.000000000000000e+00 0.000000000000000e+00
0.000000000000000e+00 0.000000000000000e+00 0.000000000000000e+00
0.000000000000000e+00 0.000000000000000e+00 0.000000000000000e+00
0.000000000000000e+00 0.000000000000000e+00 0.000000000000000e+00
0.000000000000000e+00 0.000000000000000e+00 0.000000000000000e+00
0.000000000000000e+00 0.000000000000000e+00 0.000000000000000e+00
0.000000000000000e+00 0.000000000000000e+00 0.000000000000000e+00
0.000000000000000e+00 0.000000000000000e+00 0.000000000000000e+00
0.000000000000000e+00 0.000000000000000e+00 0.000000000000000e+00
0.000000000000000e+00 0.000000000000000e+00 0.000000000000000e+00
0.000000000000000e+00 0.000000000000000e+00 0.000000000000000e+00
0.000000000000000e+00 0.000000000000000e+00 0.000000000000000e+00
0.000000000000000e+00 0.000000000000000e+00 0.000000000000000e+00
0.000000000000000e+00 0.000000000000000e+00 0.000000000000000e+00
0.000000000000000e+00 0.000000000000000e+00 0.000000000000000e+00
0.000000000000000e+00 0.000000000000000e+00 0.000000000000000e+00
0.000000000000000e+00 0.000000000000000e+00 0.000000000000000e+00
0.000000000000000e+00 0.000000000000000e+00 0.000000000000000e+00
0.000000000000000e+00 0.000000000000000e+00 0.000000000000000e+00
0.000000000000000e+00 0.000000000000000e+00 0.000000000000000e+00
0.000000000000000e+00 0.000000000000000e+00 0.000000000000000e+00
0.000000000000000e+00 0.000000000000000e+00 0.000000000000000e+00
0.000000000000000e+00 0.000000000000000e+00 0.000000000000000e+00
0.000000000000000e+00 0.000000000000000e+00 0.000000000000000e+00
0.000000000000000e+00 0.000000000000000e+00 0.000000000000000e+00
0.000000000000000e+00 0.000000000000000e+00 0.000000000000000e+00
0.000000000000000e+00 0.000000000000000e+00 0.000000000000000e+00
0.000000000000000e+00 0.000000000000000e+00 0.000000000000000e+00
0.000000000000000e+00 0.000000000000000e+00 0.000000000000000e+00
0.000000000000000e+00 0.000000000000000e+00 0.000000000000000e+00
0.000000000000000e+00 0.000000000000000e+00 0.000000000000000e+00
0.000000000000000e+00 0.000000000000000e+00 0.000000000000000e+00
0.000000000000000e+00 0.000000000000000e+00 0.000000000000000e+00
0.000000000000000e+00 0.000000000000000e+00 0.000000000000000e+00
0.000000000000000e+00 0.000000000000000e+00 0.000000000000000e+00
0.000000000000000e+00 0.000000000000000e+00 0.000000000000000e+00
0.000000000000000e+00 0.000000000000000e+00 0.000000000000000e+00
0.000000000000000e+00 0.000000000000000e+00 0.000000000000000e+00
0.000000000000000e+00 0.000000000000000e+00 0.000000000000000e+00
0.000000000000000e+00 0.000000000000000e+00 0.000000000000000e+00
0.000000000000000e+00 0.000000000000000e+00 0.000000000000000e+00
0.000000000000000e+00 0.000000000000000e+00 0.000000000000000e+00
0.000000000000000e+00 0.000000000000000e+00 0.000000000000000e+00
0.000000000000000e+00 0.000000000000000e+00 0.000000000000000e+00
0.000000000000000e+00 0.000000000000000e+00 0.000000000000000e+00
0.000000000000000e+00 0.000000000000000e+00 0.000000000000000e+00
0.000000000000000e+00 0.000000000000000e+00 0.000000000000000e+00
0.000000000000000e+00 0.000000000000000e+00 0.000000000000000e+00
0.000000000000000e+00 0.000000000000000e+00 0.000000000000000e+00
0.000000000000000e+00 0.000000000000000e+00 0.000000000000000e+00
0.000000000000000e+00 0.000000000000000e+00 0.000000000000000e+00
0.000000000000000e+00 0.000000000000000e+00 0.000000000000000e+00
0.000000000000000e+00 0.000000000000000e+00 0.000000000000000e+00
0.000000000000000e+00 0.000000000000000e+00 0.000000000000000e+00
0.000000000000000e+00 0.000000000000000e+00 0.000000000000000e+00
0.000000000000000e+00 0.000000000000000e+00 0.000000000000000e+00
0.000000000000000e+00 0.000000000000000e+00 0.000000000000000e+00
0.000000000000000e+00 0.000000000000000e+00 0.000000000000000e+00
0.000000000000000e+00 0.000000000000000e+00 0.000000000000000e+00
0.000000000000000e+00 0.000000000000000e+00 0.000000000000000e+00
0.000000000000000e+00 0.000000000000000e+00 0.000000000000000e+00
0.000000000000000e+00 0.000000000000000e+00 0.000000000000000e+00
0.000000000000000e+00 0.000000000000000e+00 0.000000000000000e+00
0.000000000000000e+00 0.000000000000000e+00 0.000000000000000e+00
0.000000000000000e+00 0.000000000000000e+00 0.000000000000000e+00
0.000000000000000e+00 0.000000000000000e+00 0.000000000000000e+00
0.000000000000000e+00 0.000000000000000e+00 0.000000000000000e+00
0.000000000000000e+00 0.000000000000000e+00 0.000000000000000e+00
0.000000000000000e+00 0.000000000000000e+00 0.000000000000000e+00
0.000000000000000e+00 0.000000000000000e+00 0.000000000000000e+00
0.000000000000000e+00 0.000000000000000e+00 0.000000000000000e+00
0.000000000000000e+00 0.000000000000000e+00 0.000000000000000e+00
0.000000000000000e+00 0.000000000000000e+00 0.000000000000000e+00
0.000000000000000e+00 0.000000000000000e+00 0.000000000000000e+00
0.000000000000000e+00 0.000000000000000e+00 0.000000000000000e+00
0.000000000000000e+00 0.000000000000000e+00 0.000000000000000e+00
0.000000000000000e+00 0.000000000000000e+00 0.000000000000000e+00
0.000000000000000e+00 0.000000000000000e+00 0.000000000000000e+00
0.000000000000000e+00 0.000000000000000e+00 0.000000000000000e+00
0.000000000000000e+00 0.000000000000000e+00 0.000000000000000e+00
0.000000000000000e+00 0.000000000000000e+00 0.000000000000000e+00
0.000000000000000e+00 0.000000000000000e+00 0.000000000000000e+00
0.000000000000000e+00 0.000000000000000e+00 0.000000000000000e+00
0.000000000000000e+00 0.000000000000000e+00 0.000000000000000e+00
0.000000000000000e+00 0.000000000000000e+00 0.000000000000000e+00
0.000000000000000e+00 0.000000000000000e+00 0.000000000000000e+00
0.000000000000000e+00 0.000000000000000e+00 0.000000000000000e+00
0.000000000000000e+00 0.000000000000000e+00 0.000000000000000e+00
0.000000000000000e+00 0.000000000000000e+00 0.000000000000000e+00
0.000000000000000e+00 0.000000000000000e+00 0.000000000000000e+00
0.000000000000000e+00 0.000000000000000e+00 0.000000000000000e+00
0.000000000000000e+00 0.000000000000000e+00 0.000000000000000e+00
0.000000000000000e+00 0.000000000000000e+00 0.000000000000000e+00
0.000000000000000e+00 0.000000000000000e+00 0.000000000000000e+00
0.000000000000000e+00 0.000000000000000e+00 0.000000000000000e+00
0.000000000000000e+00 0.000000000000000e+00 0.000000000000000e+00
0.000000000000000e+00 0.000000000000000e+00 0.000000000000000e+00
0.000000000000000e+00 0.000000000000000e+00 0.000000000000000e+00
0.000000000000000e+00 0.000000000000000e+00 0.000000000000000e+00
0.000000000000000e+00 0.000000000000000e+00 0.000000000000000e+00
0.000000000000000e+00 0.000000000000000e+00 0.000000000000000e+00
0.000000000000000e+00 0.000000000000000e+00 0.000000000000000e+00
0.000000000000000e+00 0.000000000000000e+00 0.000000000000000e+00
0.000000000000000e+00 0.000000000000000e+00 0.000000000000000e+00
0.000000000000000e+00 0.000000000000000e+00 0.000000000000000e+00
0.000000000000000e+00 0.000000000000000e+00 0.000000000000000e+00
0.000000000000000e+00 0.000000000000000e+00 0.000000000000000e+00
0.000000000000000e+00 0.000000000000000e+00 0.000000000000000e+00
0.000000000000000e+00 0.000000000000000e+00 0.000000000000000e+00
0.000000000000000e+00 0.000000000000000e+00 0.000000000000000e+00
0.000000000000000e+00 0.000000000000000e+00 0.000000000000000e+00
0.000000000000000e+00 0.000000000000000e+00 0.000000000000000e+00
0.000000000000000e+00 0.000000000000000e+00 0.000000000000000e+00
0.000000000000000e+00 0.000000000000000e+00 0.000000000000000e+00
0.000000000000000e+00 0.000000000000000e+00 0.000000000000000e+00
0.000000000000000e+00 0.000000000000000e+00 0.000000000000000e+00
0.000000000000000e+00 0.000000000000000e+00 0.000000000000000e+00
0.000000000000000e+00 0.000000000000000e+00 0.000000000000000e+00
0.000000000000000e+00 0.000000000000000e+00 0.000000000000000e+00
0.000000000000000e+00 0.000000000000000e+00 0.000000000000000e+00
0.000000000000000e+00 0.000000000000000e+00 0.000000000000000e+00
0.000000000000000e+00 0.000000000000000e+00 0.000000000000000e+00
0.000000000000000e+00 0.000000000000000e+00 0.000000000000000e+00
0.000000000000000e+00 0.000000000000000e+00 0.000000000000000e+00
0.000000000000000e+00 0.000000000000000e+00 0.000000000000000e+00
0.000000000000000e+00 0.000000000000000e+00 0.000000000000000e+00
0.000000000000000e+00 0.000000000000000e+00 0.000000000000000e+00
0.000000000000000e+00 0.000000000000000e+00 0.000000000000000e+00
0.000000000000000e+00 0.000000000000000e+00 0.000000000000000e+00
0.000000000000000e+00 0.000000000000000e+00 0.000000000000000e+00
0.000000000000000e+00 0.000000000000000e+00 0.000000000000000e+00
0.000000000000000e+00 0.000000000000000e+00 0.000000000000000e+00
0.000000000000000e+00 0.000000000000000e+00 0.000000000000000e+00
0.000000000000000e+00 0.000000000000000e+00 0.000000000000000e+00
0.000000000000000e+00 0.000000000000000e+00 0.000000000000000e+00
0.000000000000000e+00 0.000000000000000e+00 0.000000000000000e+00
0.000000000000000e+00 0.000000000000000e+00 0.000000000000000e+00
0.000000000000000e+00 0.000000000000000e+00 0.000000000000000e+00
0.000000000000000e+00 0.000000000000000e+00 0.000000000000000e+00
0.000000000000000e+00 0.000000000000000e+00 0.000000000000000e+00
0.000000000000000e+00 0.000000000000000e+00 0.000000000000000e+00
0.000000000000000e+00 0.000000000000000e+00 0.000000000000000e+00
0.000000000000000e+00 0.000000000000000e+00 0.000000000000000e+00
0.000000000000000e+00 0.000000000000000e+00 0.000000000000000e+00
0.000000000000000e+00 0.000000000000000e+00 0.000000000000000e+00
0.000000000000000e+00 0.000000000000000e+00 0.000000000000000e+00
0.000000000000000e+00 0.000000000000000e+00 0.000000000000000e+00
0.000000000000000e+00 0.000000000000000e+00 0.000000000000000e+00
0.000000000000000e+00 0.000000000000000e+00 0.000000000000000e+00
0.000000000000000e+00 0.000000000000000e+00 0.000000000000000e+00
0.000000000000000e+00 0.000000000000000e+00 0.000000000000000e+00
0.000000000000000e+00 0.000000000000000e+00 0.000000000000000e+00
0.000000000000000e+00 0.000000000000000e+00 0.000000000000000e+00
0.000000000000000e+00 0.000000000000000e+00 0.000000000000000e+00
0.000000000000000e+00 0.000000000000000e+00 0.000000000000000e+00
0.000000000000000e+00 0.000000000000000e+00 0.000000000000000e+00
0.000000000000000e+00 0.000000000000000e+00 0.000000000000000e+00
0.000000000000000e+00 0.000000000000000e+00 0.000000000000000e+00
0.000000000000000e+00 0.000000000000000e+00 0.000000000000000e+00
0.000000000000000e+00 0.000000000000000e+00 0.000000000000000e+00
0.000000000000000e+00 0.000000000000000e+00 0.000000000000000e+00
0.000000000000000e+00 0.000000000000000e+00 0.000000000000000e+00
0.000000000000000e+00 0.000000000000000e+00 0.000000000000000e+00
0.000000000000000e+00 0.000000000000000e+00 0.000000000000000e+00
0.000000000000000e+00 0.000000000000000e+00 0.000000000000000e+00
0.000000000000000e+00 0.000000000000000e+00 0.000000000000000e+00
0.000000000000000e+00 0.000000000000000e+00 0.000000000000000e+00
0.000000000000000e+00 0.000000000000000e+00 0.000000000000000e+00
0.000000000000000e+00 0.000000000000000e+00 0.000000000000000e+00
0.000000000000000e+00 0.000000000000000e+00 0.000000000000000e+00
0.000000000000000e+00 0.000000000000000e+00 0.000000000000000e+00
0.000000000000000e+00 0.000000000000000e+00 0.000000000000000e+00
0.000000000000000e+00 0.000000000000000e+00 0.000000000000000e+00
0.000000000000000e+00 0.000000000000000e+00 0.000000000000000e+00
0.000000000000000e+00 0.000000000000000e+00 0.000000000000000e+00
0.000000000000000e+00 0.000000000000000e+00 0.000000000000000e+00
0.000000000000000e+00 0.000000000000000e+00 0.000000000000000e+00
0.000000000000000e+00 0.000000000000000e+00 0.000000000000000e+00
0.000000000000000e+00 0.000000000000000e+00 0.000000000000000e+00
0.000000000000000e+00 0.000000000000000e+00 0.000000000000000e+00
0.000000000000000e+00 0.000000000000000e+00 0.000000000000000e+00
0.000000000000000e+00 0.000000000000000e+00 0.000000000000000e+00
0.000000000000000e+00 0.000000000000000e+00 0.000000000000000e+00
0.000000000000000e+00 0.000000000000000e+00 0.000000000000000e+00
0.000000000000000e+00 0.000000000000000e+00 0.000000000000000e+00
0.000000000000000e+00 0.000000000000000e+00 0.000000000000000e+00
0.000000000000000e+00 0.000000000000000e+00 0.000000000000000e+00
0.000000000000000e+00 0.000000000000000e+00 0.000000000000000e+00
0.000000000000000e+00 0.000000000000000e+00 0.000000000000000e+00
0.000000000000000e+00 0.000000000000000e+00 0.000000000000000e+00
0.000000000000000e+00 0.000000000000000e+00 0.000000000000000e+00
0.000000000000000e+00 0.000000000000000e+00 0.000000000000000e+00
0.000000000000000e+00 0.000000000000000e+00 0.000000000000000e+00
0.000000000000000e+00 0.000000000000000e+00 0.000000000000000e+00
0.000000000000000e+00 0.000000000000000e+00 0.000000000000000e+00
0.000000000000000e+00 0.000000000000000e+00 0.000000000000000e+00
0.000000000000000e+00 0.000000000000000e+00 0.000000000000000e+00
0.000000000000000e+00 0.000000000000000e+00 0.000000000000000e+00
0.000000000000000e+00 0.000000000000000e+00 0.000000000000000e+00
0.000000000000000e+00 0.000000000000000e+00 0.000000000000000e+00
0.000000000000000e+00 0.000000000000000e+00 0.000000000000000e+00
0.000000000000000e+00 0.000000000000000e+00 0.000000000000000e+00
0.000000000000000e+00 0.000000000000000e+00 0.000000000000000e+00
0.000000000000000e+00 0.000000000000000e+00 0.000000000000000e+00
0.000000000000000e+00 0.000000000000000e+00 0.000000000000000e+00
0.000000000000000e+00 0.000000000000000e+00 0.000000000000000e+00
0.000000000000000e+00 0.000000000000000e+00 0.000000000000000e+00
0.000000000000000e+00 0.000000000000000e+00 0.000000000000000e+00
0.000000000000000e+00 0.000000000000000e+00 0.000000000000000e+00
0.000000000000000e+00 0.000000000000000e+00 0.000000000000000e+00
0.000000000000000e+00 0.000000000000000e+00 0.000000000000000e+00
0.000000000000000e+00 0.000000000000000e+00 0.000000000000000e+00
0.000000000000000e+00 0.000000000000000e+00 0.000000000000000e+00
0.000000000000000e+00 0.000000000000000e+00 0.000000000000000e+00
0.000000000000000e+00 0.000000000000000e+00 0.000000000000000e+00
0.000000000000000e+00 0.000000000000000e+00 0.000000000000000e+00
0.000000000000000e+00 0.000000000000000e+00 0.000000000000000e+00
0.000000000000000e+00 0.000000000000000e+00 0.000000000000000e+00
0.000000000000000e+00 0.000000000000000e+00 0.000000000000000e+00
0.000000000000000e+00 0.000000000000000e+00 0.000000000000000e+00
0.000000000000000e+00 0.000000000000000e+00 0.000000000000000e+00
0.000000000000000e+00 0.000000000000000e+00 0.000000000000000e+00
0.000000000000000e+00 0.000000000000000e+00 0.000000000000000e+00
0.000000000000000e+00 0.000000000000000e+00 0.000000000000000e+00
0.000000000000000e+00 0.000000000000000e+00 0.000000000000000e+00
0.000000000000000e+00 0.000000000000000e+00 0.000000000000000e+00
0.000000000000000e+00 0.000000000000000e+00 0.000000000000000e+00
0.000000000000000e+00 0.000000000000000e+00 0.000000000000000e+00
0.000000000000000e+00 0.000000000000000e+00 0.000000000000000e+00
0.000000000000000e+00 0.000000000000000e+00 0.000000000000000e+00
0.000000000000000e+00 0.000000000000000e+00 0.000000000000000e+00
0.000000000000000e+00 0.000000000000000e+00 0.000000000000000e+00
0.000000000000000e+00 0.000000000000000e+00 0.000000000000000e+00
0.000000000000000e+00 0.000000000000000e+00 0.000000000000000e+00
0.000000000000000e+00 0.000000000000000e+00 0.000000000000000e+00
0.000000000000000e+00 0.000000000000000e+00 0.000000000000000e+00
0.000000000000000e+00 0.000000000000000e+00 0.000000000000000e+00
0.000000000000000e+00 0.000000000000000e+00 0.000000000000000e+00
0.000000000000000e+00 0.000000000000000e+00 0.000000000000000e+00
0.000000000000000e+00 0.000000000000000e+00 0.000000000000000e+00
0.000000000000000e+00 0.000000000000000e+00 0.000000000000000e+00
0.000000000000000e+00 0.000000000000000e+00 0.000000000000000e+00
0.000000000000000e+00 0.000000000000000e+00 0.000000000000000e+00
0.000000000000000e+00 0.000000000000000e+00 0.000000000000000e+00
0.000000000000000e+00 0.000000000000000e+00 0.000000000000000e+00
0.000000000000000e+00 0.000000000000000e+00 0.000000000000000e+00
0.000000000000000e+00 0.000000000000000e+00 0.000000000000000e+00
0.000000000000000e+00 0.000000000000000e+00 0.000000000000000e+00
0.000000000000000e+00 0.000000000000000e+00 0.000000000000000e+00
0.000000000000000e+00 0.000000000000000e+00 0.000000000000000e+00
0.000000000000000e+00 0.000000000000000e+00 0.000000000000000e+00
0.000000000000000e+00 0.000000000000000e+00 0.000000000000000e+00
0.000000000000000e+00 0.000000000000000e+00 0.000000000000000e+00
0.000000000000000e+00 0.000000000000000e+00 0.000000000000000e+00
0.000000000000000e+00 0.000000000000000e+00 0.000000000000000e+00
0.000000000000000e+00 0.000000000000000e+00 0.000000000000000e+00
0.000000000000000e+00 0.000000000000000e+00 0.000000000000000e+00
0.000000000000000e+00 0.000000000000000e+00 0.000000000000000e+00
0.000000000000000e+00 0.000000000000000e+00 0.000000000000000e+00
0.000000000000000e+00 0.000000000000000e+00 0.000000000000000e+00
0.000000000000000e+00 0.000000000000000e+00 0.000000000000000e+00
0.000000000000000e+00 0.000000000000000e+00 0.000000000000000e+00
0.000000000000000e+00 0.000000000000000e+00 0.000000000000000e+00
0.000000000000000e+00 0.000000000000000e+00 0.000000000000000e+00
0.000000000000000e+00 0.000000000000000e+00 0.000000000000000e+00
0.000000000000000e+00 0.000000000000000e+00 0.000000000000000e+00
0.000000000000000e+00 0.000000000000000e+00 0.000000000000000e+00
0.000000000000000e+00 0.000000000000000e+00 0.000000000000000e+00
0.000000000000000e+00 0.000000000000000e+00 0.000000000000000e+00
0.000000000000000e+00 0.000000000000000e+00 0.000000000000000e+00
0.000000000000000e+00 0.000000000000000e+00 0.000000000000000e+00
0.000000000000000e+00 0.000000000000000e+00 0.000000000000000e+00
0.000000000000000e+00 0.000000000000000e+00 0.000000000000000e+00
0.000000000000000e+00 0.000000000000000e+00 0.000000000000000e+00
0.000000000000000e+00 0.000000000000000e+00 0.000000000000000e+00
0.000000000000000e+00 0.000000000000000e+00 0.000000000000000e+00
0.000000000000000e+00 0.000000000000000e+00 0.000000000000000e+00
0.000000000000000e+00 0.000000000000000e+00 0.000000000000000e+00
0.000000000000000e+00 0.000000000000000e+00 0.000000000000000e+00
0.000000000000000e+00 0.000000000000000e+00 0.000000000000000e+00
0.000000000000000e+00 0.000000000000000e+00 0.000000000000000e+00
0.000000000000000e+00 0.000000000000000e+00 0.000000000000000e+00
0.000000000000000e+00 0.000000000000000e+00 0.000000000000000e+00
0.000000000000000e+00 0.000000000000000e+00 0.000000000000000e+00
0.000000000000000e+00 0.000000000000000e+00 0.000000000000000e+00
0.000000000000000e+00 0.000000000000000e+00 0.000000000000000e+00
0.000000000000000e+00 0.000000000000000e+00 0.000000000000000e+00
0.000000000000000e+00 0.000000000000000e+00 0.000000000000000e+00
0.000000000000000e+00 0.000000000000000e+00 0.000000000000000e+00
0.000000000000000e+00 0.000000000000000e+00 0.000000000000000e+00
0.000000000000000e+00 0.000000000000000e+00 0.000000000000000e+00
0.000000000000000e+00 0.000000000000000e+00 0.000000000000000e+00
0.000000000000000e+00 0.000000000000000e+00 0.000000000000000e+00
0.000000000000000e+00 0.000000000000000e+00 0.000000000000000e+00
0.000000000000000e+00 0.000000000000000e+00 0.000000000000000e+00
0.000000000000000e+00 0.000000000000000e+00 0.000000000000000e+00
0.000000000000000e+00 0.000000000000000e+00 0.000000000000000e+00
0.000000000000000e+00 0.000000000000000e+00 0.000000000000000e+00
0.000000000000000e+00 0.000000000000000e+00 0.000000000000000e+00
0.000000000000000e+00 0.000000000000000e+00 0.000000000000000e+00
0.000000000000000e+00 0.000000000000000e+00 0.000000000000000e+00
0.000000000000000e+00 0.000000000000000e+00 0.000000000000000e+00
0.000000000000000e+00 0.000000000000000e+00 0.000000000000000e+00
0.000000000000000e+00 0.000000000000000e+00 0.000000000000000e+00
0.000000000000000e+00 0.000000000000000e+00 0.000000000000000e+00
0.000000000000000e+00 0.000000000000000e+00 0.000000000000000e+00
0.000000000000000e+00 0.000000000000000e+00 0.000000000000000e+00
0.000000000000000e+00 0.000000000000000e+00 0.000000000000000e+00
0.000000000000000e+00 0.000000000000000e+00 0.000000000000000e+00
0.000000000000000e+00 0.000000000000000e+00 0.000000000000000e+00
0.000000000000000e+00 0.000000000000000e+00 0.000000000000000e+00
0.000000000000000e+00 0.000000000000000e+00 0.000000000000000e+00
0.000000000000000e+00 0.000000000000000e+00 0.000000000000000e+00
0.000000000000000e+00 0.000000000000000e+00 0.000000000000000e+00
0.000000000000000e+00 0.000000000000000e+00 0.000000000000000e+00
0.000000000000000e+00 0.000000000000000e+00 0.000000000000000e+00
0.000000000000000e+00 0.000000000000000e+00 0.000000000000000e+00
0.000000000000000e+00 0.000000000000000e+00 0.000000000000000e+00
0.000000000000000e+00 0.000000000000000e+00 0.000000000000000e+00
0.000000000000000e+00 0.000000000000000e+00 0.000000000000000e+00
0.000000000000000e+00 0.000000000000000e+00 0.000000000000000e+00
0.000000000000000e+00 0.000000000000000e+00 0.000000000000000e+00
0.000000000000000e+00 0.000000000000000e+00 0.000000000000000e+00
0.000000000000000e+00 0.000000000000000e+00 0.000000000000000e+00
0.000000000000000e+00 0.000000000000000e+00 0.000000000000000e+00
0.000000000000000e+00 0.000000000000000e+00 0.000000000000000e+00
0.000000000000000e+00 0.000000000000000e+00 0.000000000000000e+00
0.000000000000000e+00 0.000000000000000e+00 0.000000000000000e+00
0.000000000000000e+00 0.000000000000000e+00 0.000000000000000e+00
0.000000000000000e+00 0.000000000000000e+00 0.000000000000000e+00
0.000000000000000e+00 0.000000000000000e+00 0.000000000000000e+00
0.000000000000000e+00 0.000000000000000e+00 0.000000000000000e+00
0.000000000000000e+00 0.000000000000000e+00 0.000000000000000e+00
0.000000000000000e+00 0.000000000000000e+00 0.000000000000000e+00
0.000000000000000e+00 0.000000000000000e+00 0.000000000000000e+00
0.000000000000000e+00 0.000000000000000e+00 0.000000000000000e+00
0.000000000000000e+00 0.000000000000000e+00 0.000000000000000e+00
0.000000000000000e+00 0.000000000000000e+00 0.000000000000000e+00
0.000000000000000e+00 0.000000000000000e+00 0.000000000000000e+00
0.000000000000000e+00 0.000000000000000e+00 0.000000000000000e+00
0.000000000000000e+00 0.000000000000000e+00 0.000000000000000e+00
0.000000000000000e+00 0.000000000000000e+00 0.000000000000000e+00
0.000000000000000e+00 0.000000000000000e+00 0.000000000000000e+00
0.000000000000000e+00 0.000000000000000e+00 0.000000000000000e+00
0.000000000000000e+00 0.000000000000000e+00 0.000000000000000e+00
0.000000000000000e+00 0.000000000000000e+00 0.000000000000000e+00
0.000000000000000e+00 0.000000000000000e+00 0.000000000000000e+00
0.000000000000000e+00 0.000000000000000e+00 0.000000000000000e+00
0.000000000000000e+00 0.000000000000000e+00 0.000000000000000e+00
0.000000000000000e+00 0.000000000000000e+00 0.000000000000000e+00
0.000000000000000e+00 0.000000000000000e+00 0.000000000000000e+00
0.000000000000000e+00 0.000000000000000e+00 0.000000000000000e+00
0.000000000000000e+00 0.000000000000000e+00 0.000000000000000e+00
0.000000000000000e+00 0.000000000000000e+00 0.000000000000000e+00
0.000000000000000e+00 0.000000000000000e+00 0.000000000000000e+00
0.000000000000000e+00 0.000000000000000e+00 0.000000000000000e+00
0.000000000000000e+00 0.000000000000000e+00 0.000000000000000e+00
0.000000000000000e+00 0.000000000000000e+00 0.000000000000000e+00
0.000000000000000e+00 0.000000000000000e+00 0.000000000000000e+00
0.000000000000000e+00 0.000000000000000e+00 0.000000000000000e+00
0.000000000000000e+00 0.000000000000000e+00 0.000000000000000e+00
0.000000000000000e+00 0.000000000000000e+00 0.000000000000000e+00
0.000000000000000e+00 0.000000000000000e+00 0.000000000000000e+00
0.000000000000000e+00 0.000000000000000e+00 0.000000000000000e+00
0.000000000000000e+00 0.000000000000000e+00 0.000000000000000e+00
0.000000000000000e+00 0.000000000000000e+00 0.000000000000000e+00
0.000000000000000e+00 0.000000000000000e+00 0.000000000000000e+00
0.000000000000000e+00 0.000000000000000e+00 0.000000000000000e+00
0.000000000000000e+00 0.000000000000000e+00 0.000000000000000e+00
0.000000000000000e+00 0.000000000000000e+00 0.000000000000000e+00
0.000000000000000e+00 0.000000000000000e+00 0.000000000000000e+00
0.000000000000000e+00 0.000000000000000e+00 0.000000000000000e+00
0.000000000000000e+00 0.000000000000000e+00 0.000000000000000e+00
0.000000000000000e+00 0.000000000000000e+00 0.000000000000000e+00
0.000000000000000e+00 0.000000000000000e+00 0.000000000000000e+00
0.000000000000000e+00 0.000000000000000e+00 0.000000000000000e+00
0.000000000000000e+00 0.000000000000000e+00 0.000000000000000e+00
0.000000000000000e+00 0.000000000000000e+00 0.000000000000000e+00
0.000000000000000e+00 0.000000000000000e+00 0.000000000000000e+00
0.000000000000000e+00 0.000000000000000e+00 0.000000000000000e+00
0.000000000000000e+00 0.000000000000000e+00 0.000000000000000e+00
0.000000000000000e+00 0.000000000000000e+00 0.000000000000000e+00
0.000000000000000e+00 0.000000000000000e+00 0.000000000000000e+00
0.000000000000000e+00 0.000000000000000e+00 0.000000000000000e+00
0.000000000000000e+00 0.000000000000000e+00 0.000000000000000e+00
0.000000000000000e+00 0.000000000000000e+00 0.000000000000000e+00
0.000000000000000e+00 0.000000000000000e+00 0.000000000000000e+00
0.000000000000000e+00 0.000000000000000e+00 0.000000000000000e+00
0.000000000000000e+00 0.000000000000000e+00 0.000000000000000e+00
0.000000000000000e+00 0.000000000000000e+00 0.000000000000000e+00
0.000000000000000e+00 0.000000000000000e+00 0.000000000000000e+00
0.000000000000000e+00 0.000000000000000e+00 0.000000000000000e+00
0.000000000000000e+00 0.000000000000000e+00 0.000000000000000e+00
0.000000000000000e+00 0.000000000000000e+00 0.000000000000000e+00
0.000000000000000e+00 0.000000000000000e+00 0.000000000000000e+00
0.000000000000000e+00 0.000000000000000e+00 0.000000000000000e+00
0.000000000000000e+00 0.000000000000000e+00 0.000000000000000e+00
0.000000000000000e+00 0.000000000000000e+00 0.000000000000000e+00
0.000000000000000e+00 0.000000000000000e+00 0.000000000000000e+00
0.000000000000000e+00 0.000000000000000e+00 0.000000000000000e+00
0.000000000000000e+00 0.000000000000000e+00 0.000000000000000e+00
0.000000000000000e+00 0.000000000000000e+00 0.000000000000000e+00
0.000000000000000e+00 0.000000000000000e+00 0.000000000000000e+00
0.000000000000000e+00 0.000000000000000e+00 0.000000000000000e+00
0.000000000000000e+00 0.000000000000000e+00 0.000000000000000e+00
0.000000000000000e+00 0.000000000000000e+00 0.000000000000000e+00
0.000000000000000e+00 0.000000000000000e+00 0.000000000000000e+00
0.000000000000000e+00 0.000000000000000e+00 0.000000000000000e+00
0.000000000000000e+00 0.000000000000000e+00 0.000000000000000e+00
0.000000000000000e+00 0.000000000000000e+00 0.000000000000000e+00
0.000000000000000e+00 0.000000000000000e+00 0.000000000000000e+00
0.000000000000000e+00 0.000000000000000e+00 0.000000000000000e+00
0.000000000000000e+00 0.000000000000000e+00 0.000000000000000e+00
0.000000000000000e+00 0.000000000000000e+00 0.000000000000000e+00
0.000000000000000e+00 0.000000000000000e+00 0.000000000000000e+00
0.000000000000000e+00 0.000000000000000e+00 0.000000000000000e+00
0.000000000000000e+00 0.000000000000000e+00 0.000000000000000e+00
0.000000000000000e+00 0.000000000000000e+00 0.000000000000000e+00
0.000000000000000e+00 0.000000000000000e+00 0.000000000000000e+00
0.000000000000000e+00 0.000000000000000e+00 0.000000000000000e+00
0.000000000000000e+00 0.000000000000000e+00 0.000000000000000e+00
0.000000000000000e+00 0.000000000000000e+00 0.000000000000000e+00
0.000000000000000e+00 0.000000000000000e+00 0.000000000000000e+00
0.000000000000000e+00 0.000000000000000e+00 0.000000000000000e+00
0.000000000000000e+00 0.000000000000000e+00 0.000000000000000e+00
0.000000000000000e+00 0.000000000000000e+00 0.000000000000000e+00
0.000000000000000e+00 0.000000000000000e+00 0.000000000000000e+00
0.000000000000000e+00 0.000000000000000e+00 0.000000000000000e+00
0.000000000000000e+00 0.000000000000000e+00 0.000000000000000e+00
0.000000000000000e+00 0.000000000000000e+00 0.000000000000000e+00
0.000000000000000e+00 0.000000000000000e+00 0.000000000000000e+00
0.000000000000000e+00 0.000000000000000e+00 0.000000000000000e+00
0.000000000000000e+00 0.000000000000000e+00 0.000000000000000e+00
0.000000000000000e+00 0.000000000000000e+00 0.000000000000000e+00
0.000000000000000e+00 0.000000000000000e+00 0.000000000000000e+00
0.000000000000000e+00 0.000000000000000e+00 0.000000000000000e+00
0.000000000000000e+00 0.000000000000000e+00 0.000000000000000e+00
0.000000000000000e+00 0.000000000000000e+00 0.000000000000000e+00
0.000000000000000e+00 0.000000000000000e+00 0.000000000000000e+00
0.000000000000000e+00 0.000000000000000e+00 0.000000000000000e+00
0.000000000000000e+00 0.000000000000000e+00 0.000000000000000e+00
0.000000000000000e+00 0.000000000000000e+00 0.000000000000000e+00
0.000000000000000e+00 0.000000000000000e+00 0.000000000000000e+00
0.000000000000000e+00 0.000000000000000e+00 0.000000000000000e+00
0.000000000000000e+00 0.000000000000000e+00 0.000000000000000e+00
0.000000000000000e+00 0.000000000000000e+00 0.000000000000000e+00
0.000000000000000e+00 0.000000000000000e+00 0.000000000000000e+00
0.000000000000000e+00 0.000000000000000e+00 0.000000000000000e+00
0.000000000000000e+00 0.000000000000000e+00 0.000000000000000e+00
0.000000000000000e+00 0.000000000000000e+00 0.000000000000000e+00
0.000000000000000e+00 0.000000000000000e+00 0.000000000000000e+00
0.000000000000000e+00 0.000000000000000e+00 0.000000000000000e+00
0.000000000000000e+00 0.000000000000000e+00 0.000000000000000e+00
0.000000000000000e+00 0.000000000000000e+00 0.000000000000000e+00
0.000000000000000e+00 0.000000000000000e+00 0.000000000000000e+00
0.000000000000000e+00 0.000000000000000e+00 0.000000000000000e+00
0.000000000000000e+00 0.000000000000000e+00 0.000000000000000e+00
0.000000000000000e+00 0.000000000000000e+00 0.000000000000000e+00
0.000000000000000e+00 0.000000000000000e+00 0.000000000000000e+00
0.000000000000000e+00 0.000000000000000e+00 0.000000000000000e+00
0.000000000000000e+00 0.000000000000000e+00 0.000000000000000e+00
0.000000000000000e+00 0.000000000000000e+00 0.000000000000000e+00
0.000000000000000e+00 0.000000000000000e+00 0.000000000000000e+00
0.000000000000000e+00 0.000000000000000e+00 0.000000000000000e+00
0.000000000000000e+00 0.000000000000000e+00 0.000000000000000e+00
0.000000000000000e+00 0.000000000000000e+00 0.000000000000000e+00
0.000000000000000e+00 0.000000000000000e+00 0.000000000000000e+00
0.000000000000000e+00 0.000000000000000e+00 0.000000000000000e+00
0.000000000000000e+00 0.000000000000000e+00 0.000000000000000e+00
0.000000000000000e+00 0.000000000000000e+00 0.000000000000000e+00
0.000000000000000e+00 0.000000000000000e+00 0.000000000000000e+00
0.000000000000000e+00 0.000000000000000e+00 0.000000000000000e+00
0.000000000000000e+00 0.000000000000000e+00 0.000000000000000e+00
0.000000000000000e+00 0.000000000000000e+00 0.000000000000000e+00
0.000000000000000e+00 0.000000000000000e+00 0.000000000000000e+00
0.000000000000000e+00 0.000000000000000e+00 0.000000000000000e+00
0.000000000000000e+00 0.000000000000000e+00 0.000000000000000e+00
0.000000000000000e+00 0.000000000000000e+00 0.000000000000000e+00
0.000000000000000e+00 0.000000000000000e+00 0.000000000000000e+00
0.000000000000000e+00 0.000000000000000e+00 0.000000000000000e+00
0.000000000000000e+00 0.000000000000000e+00 0.000000000000000e+00
0.000000000000000e+00 0.000000000000000e+00 0.000000000000000e+00
0.000000000000000e+00 0.000000000000000e+00 0.000000000000000e+00
0.000000000000000e+00 0.000000000000000e+00 0.000000000000000e+00
0.000000000000000e+00 0.000000000000000e+00 0.000000000000000e+00
0.000000000000000e+00 0.000000000000000e+00 0.000000000000000e+00
0.000000000000000e+00 0.000000000000000e+00 0.000000000000000e+00
0.000000000000000e+00 0.000000000000000e+00 0.000000000000000e+00
0.000000000000000e+00 0.000000000000000e+00 0.000000000000000e+00
0.000000000000000e+00 0.000000000000000e+00 0.000000000000000e+00
0.000000000000000e+00 0.000000000000000e+00 0.000000000000000e+00
0.000000000000000e+00 0.000000000000000e+00 0.000000000000000e+00
0.000000000000000e+00 0.000000000000000e+00 0.000000000000000e+00
0.000000000000000e+00 0.000000000000000e+00 0.000000000000000e+00
0.000000000000000e+00 0.000000000000000e+00 0.000000000000000e+00
0.000000000000000e+00 0.000000000000000e+00 0.000000000000000e+00
0.000000000000000e+00 0.000000000000000e+00 0.000000000000000e+00
0.000000000000000e+00 0.000000000000000e+00 0.000000000000000e+00
0.000000000000000e+00 0.000000000000000e+00 0.000000000000000e+00
0.000000000000000e+00 0.000000000000000e+00 0.000000000000000e+00
0.000000000000000e+00 0.000000000000000e+00 0.000000000000000e+00
0.000000000000000e+00 0.000000000000000e+00 0.000000000000000e+00
0.000000000000000e+00 0.000000000000000e+00 0.000000000000000e+00
0.000000000000000e+00 0.000000000000000e+00 0.000000000000000e+00
0.000000000000000e+00 0.000000000000000e+00 0.000000000000000e+00
0.000000000000000e+00 0.000000000000000e+00 0.000000000000000e+00
0.000000000000000e+00 0.000000000000000e+00 0.000000000000000e+00
0.000000000000000e+00 0.000000000000000e+00 0.000000000000000e+00
0.000000000000000e+00 0.000000000000000e+00 0.000000000000000e+00
0.000000000000000e+00 0.000000000000000e+00 0.000000000000000e+00
0.000000000000000e+00 0.000000000000000e+00 0.000000000000000e+00
0.000000000000000e+00 0.000000000000000e+00 0.000000000000000e+00
0.000000000000000e+00 0.000000000000000e+00 0.000000000000000e+00
0.000000000000000e+00 0.000000000000000e+00 0.000000000000000e+00
0.000000000000000e+00 0.000000000000000e+00 0.000000000000000e+00
0.000000000000000e+00 0.000000000000000e+00 0.000000000000000e+00
0.000000000000000e+00 0.000000000000000e+00 0.000000000000000e+00
0.000000000000000e+00 0.000000000000000e+00 0.000000000000000e+00
0.000000000000000e+00 0.000000000000000e+00 0.000000000000000e+00
0.000000000000000e+00 0.000000000000000e+00 0.000000000000000e+00
0.000000000000000e+00 0.000000000000000e+00 0.000000000000000e+00
0.000000000000000e+00 0.000000000000000e+00 0.000000000000000e+00
0.000000000000000e+00 0.000000000000000e+00 0.000000000000000e+00
0.000000000000000e+00 0.000000000000000e+00 0.000000000000000e+00
0.000000000000000e+00 0.000000000000000e+00 0.000000000000000e+00
0.000000000000000e+00 0.000000000000000e+00 0.000000000000000e+00
0.000000000000000e+00 0.000000000000000e+00 0.000000000000000e+00
0.000000000000000e+00 0.000000000000000e+00 0.000000000000000e+00
0.000000000000000e+00 0.000000000000000e+00 0.000000000000000e+00
0.000000000000000e+00 0.000000000000000e+00 0.000000000000000e+00
0.000000000000000e+00 0.000000000000000e+00 0.000000000000000e+00
0.000000000000000e+00 0.000000000000000e+00 0.000000000000000e+00
0.000000000000000e+00 0.000000000000000e+00 0.000000000000000e+00
0.000000000000000e+00 0.000000000000000e+00 0.000000000000000e+00
0.000000000000000e+00 0.000000000000000e+00 0.000000000000000e+00
0.000000000000000e+00 0.000000000000000e+00 0.000000000000000e+00
0.000000000000000e+00 0.000000000000000e+00 0.000000000000000e+00
0.000000000000000e+00 0.000000000000000e+00 0.000000000000000e+00
0.000000000000000e+00 0.000000000000000e+00 0.000000000000000e+00
0.000000000000000e+00 0.000000000000000e+00 0.000000000000000e+00
0.000000000000000e+00 0.000000000000000e+00 0.000000000000000e+00
0.000000000000000e+00 0.000000000000000e+00 0.000000000000000e+00
0.000000000000000e+00 0.000000000000000e+00 0.000000000000000e+00
0.000000000000000e+00 0.000000000000000e+00 0.000000000000000e+00
0.000000000000000e+00 0.000000000000000e+00 0.000000000000000e+00
0.000000000000000e+00 0.000000000000000e+00 0.000000000000000e+00
0.000000000000000e+00 0.000000000000000e+00 0.000000000000000e+00
0.000000000000000e+00 0.000000000000000e+00 0.000000000000000e+00
0.000000000000000e+00 0.000000000000000e+00 0.000000000000000e+00
0.000000000000000e+00 0.000000000000000e+00 0.000000000000000e+00
0.000000000000000e+00 0.000000000000000e+00 0.000000000000000e+00
0.000000000000000e+00 0.000000000000000e+00 0.000000000000000e+00
0.000000000000000e+00 0.000000000000000e+00 0.000000000000000e+00
0.000000000000000e+00 0.000000000000000e+00 0.000000000000000e+00
0.000000000000000e+00 0.000000000000000e+00 0.000000000000000e+00
0.000000000000000e+00 0.000000000000000e+00 0.000000000000000e+00
0.000000000000000e+00 0.000000000000000e+00 0.000000000000000e+00
0.000000000000000e+00 0.000000000000000e+00 0.000000000000000e+00
0.000000000000000e+00 0.000000000000000e+00 0.000000000000000e+00
0.000000000000000e+00 0.000000000000000e+00 0.000000000000000e+00
0.000000000000000e+00 0.000000000000000e+00 0.000000000000000e+00
0.000000000000000e+00 0.000000000000000e+00 0.000000000000000e+00
0.000000000000000e+00 0.000000000000000e+00 0.000000000000000e+00
0.000000000000000e+00 0.000000000000000e+00 0.000000000000000e+00
0.000000000000000e+00 0.000000000000000e+00 0.000000000000000e+00
0.000000000000000e+00 0.000000000000000e+00 0.000000000000000e+00
0.000000000000000e+00 0.000000000000000e+00 0.000000000000000e+00
0.000000000000000e+00 0.000000000000000e+00 0.000000000000000e+00
0.000000000000000e+00 0.000000000000000e+00 0.000000000000000e+00
0.000000000000000e+00 0.000000000000000e+00 0.000000000000000e+00
0.000000000000000e+00 0.000000000000000e+00 0.000000000000000e+00
0.000000000000000e+00 0.000000000000000e+00 0.000000000000000e+00
0.000000000000000e+00 0.000000000000000e+00 0.000000000000000e+00
0.000000000000000e+00 0.000000000000000e+00 0.000000000000000e+00
0.000000000000000e+00 0.000000000000000e+00 0.000000000000000e+00
0.000000000000000e+00 0.000000000000000e+00 0.000000000000000e+00
0.000000000000000e+00 0.000000000000000e+00 0.000000000000000e+00
0.000000000000000e+00 0.000000000000000e+00 0.000000000000000e+00
0.000000000000000e+00 0.000000000000000e+00 0.000000000000000e+00
0.000000000000000e+00 0.000000000000000e+00 0.000000000000000e+00
0.000000000000000e+00 0.000000000000000e+00 0.000000000000000e+00
0.000000000000000e+00 0.000000000000000e+00 0.000000000000000e+00
0.000000000000000e+00 0.000000000000000e+00 0.000000000000000e+00
0.000000000000000e+00 0.000000000000000e+00 0.000000000000000e+00
0.000000000000000e+00 0.000000000000000e+00 0.000000000000000e+00
0.000000000000000e+00 0.000000000000000e+00 0.000000000000000e+00
0.000000000000000e+00 0.000000000000000e+00 0.000000000000000e+00
0.000000000000000e+00 0.000000000000000e+00 0.000000000000000e+00
0.000000000000000e+00 0.000000000000000e+00 0.000000000000000e+00
0.000000000000000e+00 0.000000000000000e+00 0.000000000000000e+00
0.000000000000000e+00 0.000000000000000e+00 0.000000000000000e+00
0.000000000000000e+00 0.000000000000000e+00 0.000000000000000e+00
0.000000000000000e+00 0.000000000000000e+00 0.000000000000000e+00
0.000000000000000e+00 0.000000000000000e+00 0.000000000000000e+00
0.000000000000000e+00 0.000000000000000e+00 0.000000000000000e+00
0.000000000000000e+00 0.000000000000000e+00 0.000000000000000e+00
0.000000000000000e+00 0.000000000000000e+00 0.000000000000000e+00
0.000000000000000e+00 0.000000000000000e+00 0.000000000000000e+00
0.000000000000000e+00 0.000000000000000e+00 0.000000000000000e+00
0.000000000000000e+00 0.000000000000000e+00 0.000000000000000e+00
0.000000000000000e+00 0.000000000000000e+00 0.000000000000000e+00
0.000000000000000e+00 0.000000000000000e+00 0.000000000000000e+00
0.000000000000000e+00 0.000000000000000e+00 0.000000000000000e+00
0.000000000000000e+00 0.000000000000000e+00 0.000000000000000e+00
0.000000000000000e+00 0.000000000000000e+00 0.000000000000000e+00
0.000000000000000e+00 0.000000000000000e+00 0.000000000000000e+00
0.000000000000000e+00 0.000000000000000e+00 0.000000000000000e+00
0.000000000000000e+00 0.000000000000000e+00 0.000000000000000e+00
0.000000000000000e+00 0.000000000000000e+00 0.000000000000000e+00
0.000000000000000e+00 0.000000000000000e+00 0.000000000000000e+00
0.000000000000000e+00 0.000000000000000e+00 0.000000000000000e+00
0.000000000000000e+00 0.000000000000000e+00 0.000000000000000e+00
0.000000000000000e+00 0.000000000000000e+00 0.000000000000000e+00
0.000000000000000e+00 0.000000000000000e+00 0.000000000000000e+00
0.000000000000000e+00 0.000000000000000e+00 0.000000000000000e+00
0.000000000000000e+00 0.000000000000000e+00 0.000000000000000e+00
0.000000000000000e+00 0.000000000000000e+00 0.000000000000000e+00
0.000000000000000e+00 0.000000000000000e+00 0.000000000000000e+00
0.000000000000000e+00 0.000000000000000e+00 0.000000000000000e+00
0.000000000000000e+00 0.000000000000000e+00 0.000000000000000e+00
0.000000000000000e+00 0.000000000000000e+00 0.000000000000000e+00
0.000000000000000e+00 0.000000000000000e+00 0.000000000000000e+00
0.000000000000000e+00 0.000000000000000e+00 0.000000000000000e+00
0.000000000000000e+00 0.000000000000000e+00 0.000000000000000e+00
0.000000000000000e+00 0.000000000000000e+00 0.000000000000000e+00
0.000000000000000e+00 0.000000000000000e+00 0.000000000000000e+00
0.000000000000000e+00 0.000000000000000e+00 0.000000000000000e+00
0.000000000000000e+00 0.000000000000000e+00 0.000000000000000e+00
0.000000000000000e+00 0.000000000000000e+00 0.000000000000000e+00
0.000000000000000e+00 0.000000000000000e+00 0.000000000000000e+00
0.000000000000000e+00 0.000000000000000e+00 0.000000000000000e+00
0.000000000000000e+00 0.000000000000000e+00 0.000000000000000e+00
0.000000000000000e+00 0.000000000000000e+00 0.000000000000000e+00
0.000000000000000e+00 0.000000000000000e+00 0.000000000000000e+00
0.000000000000000e+00 0.000000000000000e+00 0.000000000000000e+00
0.000000000000000e+00 0.000000000000000e+00 0.000000000000000e+00
0.000000000000000e+00 0.000000000000000e+00 0.000000000000000e+00
0.000000000000000e+00 0.000000000000000e+00 0.000000000000000e+00
0.000000000000000e+00 0.000000000000000e+00 0.000000000000000e+00
0.000000000000000e+00 0.000000000000000e+00 0.000000000000000e+00
0.000000000000000e+00 0.000000000000000e+00 0.000000000000000e+00
0.000000000000000e+00 0.000000000000000e+00 0.000000000000000e+00
0.000000000000000e+00 0.000000000000000e+00 0.000000000000000e+00
0.000000000000000e+00 0.000000000000000e+00 0.000000000000000e+00
0.000000000000000e+00 0.000000000000000e+00 0.000000000000000e+00
0.000000000000000e+00 0.000000000000000e+00 0.000000000000000e+00
0.000000000000000e+00 0.000000000000000e+00 0.000000000000000e+00
0.000000000000000e+00 0.000000000000000e+00 0.000000000000000e+00
0.000000000000000e+00 0.000000000000000e+00 0.000000000000000e+00
0.000000000000000e+00 0.000000000000000e+00 0.000000000000000e+00
0.000000000000000e+00 0.000000000000000e+00 0.000000000000000e+00
0.000000000000000e+00 0.000000000000000e+00 0.000000000000000e+00
0.000000000000000e+00 0.000000000000000e+00 0.000000000000000e+00
0.000000000000000e+00 0.000000000000000e+00 0.000000000000000e+00
0.000000000000000e+00 0.000000000000000e+00 0.000000000000000e+00
0.000000000000000e+00 0.000000000000000e+00 0.000000000000000e+00
0.000000000000000e+00 0.000000000000000e+00 0.000000000000000e+00
0.000000000000000e+00 0.000000000000000e+00 0.000000000000000e+00
0.000000000000000e+00 0.000000000000000e+00 0.000000000000000e+00
0.000000000000000e+00 0.000000000000000e+00 0.000000000000000e+00
0.000000000000000e+00 0.000000000000000e+00 0.000000000000000e+00
0.000000000000000e+00 0.000000000000000e+00 0.000000000000000e+00
0.000000000000000e+00 0.000000000000000e+00 0.000000000000000e+00
0.000000000000000e+00 0.000000000000000e+00 0.000000000000000e+00
0.000000000000000e+00 0.000000000000000e+00 0.000000000000000e+00
0.000000000000000e+00 0.000000000000000e+00 0.000000000000000e+00
0.000000000000000e+00 0.000000000000000e+00 0.000000000000000e+00
0.000000000000000e+00 0.000000000000000e+00 0.000000000000000e+00
0.000000000000000e+00 0.000000000000000e+00 0.000000000000000e+00
0.000000000000000e+00 0.000000000000000e+00 0.000000000000000e+00
0.000000000000000e+00 0.000000000000000e+00 0.000000000000000e+00
0.000000000000000e+00 0.000000000000000e+00 0.000000000000000e+00
0.000000000000000e+00 0.000000000000000e+00 0.000000000000000e+00
0.000000000000000e+00 0.000000000000000e+00 0.000000000000000e+00
0.000000000000000e+00 0.000000000000000e+00 0.000000000000000e+00
0.000000000000000e+00 0.000000000000000e+00 0.000000000000000e+00
0.000000000000000e+00 0.000000000000000e+00 0.000000000000000e+00
0.000000000000000e+00 0.000000000000000e+00 0.000000000000000e+00
0.000000000000000e+00 0.000000000000000e+00 0.000000000000000e+00
0.000000000000000e+00 0.000000000000000e+00 0.000000000000000e+00
0.000000000000000e+00 0.000000000000000e+00 0.000000000000000e+00
0.000000000000000e+00 0.000000000000000e+00 0.000000000000000e+00
0.000000000000000e+00 0.000000000000000e+00 0.000000000000000e+00
0.000000000000000e+00 0.000000000000000e+00 0.000000000000000e+00
0.000000000000000e+00 0.000000000000000e+00 0.000000000000000e+00
0.000000000000000e+00 0.000000000000000e+00 0.000000000000000e+00
0.000000000000000e+00 0.000000000000000e+00 0.000000000000000e+00
0.000000000000000e+00 0.000000000000000e+00 0.000000000000000e+00
0.000000000000000e+00 0.000000000000000e+00 0.000000000000000e+00
0.000000000000000e+00 0.000000000000000e+00 0.000000000000000e+00
0.000000000000000e+00 0.000000000000000e+00 0.000000000000000e+00
0.000000000000000e+00 0.000000000000000e+00 0.000000000000000e+00
0.000000000000000e+00 0.000000000000000e+00 0.000000000000000e+00
0.000000000000000e+00 0.000000000000000e+00 0.000000000000000e+00
0.000000000000000e+00 0.000000000000000e+00 0.000000000000000e+00
0.000000000000000e+00 0.000000000000000e+00 0.000000000000000e+00
0.000000000000000e+00 0.000000000000000e+00 0.000000000000000e+00
0.000000000000000e+00 0.000000000000000e+00 0.000000000000000e+00
0.000000000000000e+00 0.000000000000000e+00 0.000000000000000e+00
0.000000000000000e+00 0.000000000000000e+00 0.000000000000000e+00
0.000000000000000e+00 0.000000000000000e+00 0.000000000000000e+00
0.000000000000000e+00 0.000000000000000e+00 0.000000000000000e+00
0.000000000000000e+00 0.000000000000000e+00 0.000000000000000e+00
0.000000000000000e+00 0.000000000000000e+00 0.000000000000000e+00
0.000000000000000e+00 0.000000000000000e+00 0.000000000000000e+00
0.000000000000000e+00 0.000000000000000e+00 0.000000000000000e+00
0.000000000000000e+00 0.000000000000000e+00 0.000000000000000e+00
0.000000000000000e+00 0.000000000000000e+00 0.000000000000000e+00
0.000000000000000e+00 0.000000000000000e+00 0.000000000000000e+00
0.000000000000000e+00 0.000000000000000e+00 0.000000000000000e+00
0.000000000000000e+00 0.000000000000000e+00 0.000000000000000e+00
0.000000000000000e+00 0.000000000000000e+00 0.000000000000000e+00
0.000000000000000e+00 0.000000000000000e+00 0.000000000000000e+00
0.000000000000000e+00 0.000000000000000e+00 0.000000000000000e+00
0.000000000000000e+00 0.000000000000000e+00 0.000000000000000e+00
0.000000000000000e+00 0.000000000000000e+00 0.000000000000000e+00
0.000000000000000e+00 0.000000000000000e+00 0.000000000000000e+00
0.000000000000000e+00 0.000000000000000e+00 0.000000000000000e+00
0.000000000000000e+00 0.000000000000000e+00 0.000000000000000e+00
0.000000000000000e+00 0.000000000000000e+00 0.000000000000000e+00
0.000000000000000e+00 0.000000000000000e+00 0.000000000000000e+00
0.000000000000000e+00 0.000000000000000e+00 0.000000000000000e+00
0.000000000000000e+00 0.000000000000000e+00 0.000000000000000e+00
0.000000000000000e+00 0.000000000000000e+00 0.000000000000000e+00
0.000000000000000e+00 0.000000000000000e+00 0.000000000000000e+00
0.000000000000000e+00 0.000000000000000e+00 0.000000000000000e+00
0.000000000000000e+00 0.000000000000000e+00 0.000000000000000e+00
0.000000000000000e+00 0.000000000000000e+00 0.000000000000000e+00
0.000000000000000e+00 0.000000000000000e+00 0.000000000000000e+00
0.000000000000000e+00 0.000000000000000e+00 0.000000000000000e+00
0.000000000000000e+00 0.000000000000000e+00 0.000000000000000e+00
0.000000000000000e+00 0.000000000000000e+00 0.000000000000000e+00
0.000000000000000e+00 0.000000000000000e+00 0.000000000000000e+00
0.000000000000000e+00 0.000000000000000e+00 0.000000000000000e+00
0.000000000000000e+00 0.000000000000000e+00 0.000000000000000e+00
0.000000000000000e+00 0.000000000000000e+00 0.000000000000000e+00
0.000000000000000e+00 0.000000000000000e+00 0.000000000000000e+00
0.000000000000000e+00 0.000000000000000e+00 0.000000000000000e+00
0.000000000000000e+00 0.000000000000000e+00 0.000000000000000e+00
0.000000000000000e+00 0.000000000000000e+00 0.000000000000000e+00
0.000000000000000e+00 0.000000000000000e+00 0.000000000000000e+00
0.000000000000000e+00 0.000000000000000e+00 0.000000000000000e+00
0.000000000000000e+00 0.000000000000000e+00 0.000000000000000e+00
0.000000000000000e+00 0.000000000000000e+00 0.000000000000000e+00
0.000000000000000e+00 0.000000000000000e+00 0.000000000000000e+00
0.000000000000000e+00 0.000000000000000e+00 0.000000000000000e+00
0.000000000000000e+00 0.000000000000000e+00 0.000000000000000e+00
0.000000000000000e+00 0.000000000000000e+00 0.000000000000000e+00
0.000000000000000e+00 0.000000000000000e+00 0.000000000000000e+00
0.000000000000000e+00 0.000000000000000e+00 0.000000000000000e+00
0.000000000000000e+00 0.000000000000000e+00 0.000000000000000e+00
0.000000000000000e+00 0.000000000000000e+00 0.000000000000000e+00
0.000000000000000e+00 0.000000000000000e+00 0.000000000000000e+00
0.000000000000000e+00 0.000000000000000e+00 0.000000000000000e+00
0.000000000000000e+00 0.000000000000000e+00 0.000000000000000e+00
0.000000000000000e+00 0.000000000000000e+00 0.000000000000000e+00
0.000000000000000e+00 0.000000000000000e+00 0.000000000000000e+00
0.000000000000000e+00 0.000000000000000e+00 0.000000000000000e+00
0.000000000000000e+00 0.000000000000000e+00 0.000000000000000e+00
0.000000000000000e+00 0.000000000000000e+00 0.000000000000000e+00
0.000000000000000e+00 0.000000000000000e+00 0.000000000000000e+00
0.000000000000000e+00 0.000000000000000e+00 0.000000000000000e+00
0.000000000000000e+00 0.000000000000000e+00 0.000000000000000e+00
0.000000000000000e+00 0.000000000000000e+00 0.000000000000000e+00
0.000000000000000e+00 0.000000000000000e+00 0.000000000000000e+00
0.000000000000000e+00 0.000000000000000e+00 0.000000000000000e+00
0.000000000000000e+00 0.000000000000000e+00 0.000000000000000e+00
0.000000000000000e+00 0.000000000000000e+00 0.000000000000000e+00
0.000000000000000e+00 0.000000000000000e+00 0.000000000000000e+00
0.000000000000000e+00 0.000000000000000e+00 0.000000000000000e+00
0.000000000000000e+00 0.000000000000000e+00 0.000000000000000e+00
0.000000000000000e+00 0.000000000000000e+00 0.000000000000000e+00
0.000000000000000e+00 0.000000000000000e+00 0.000000000000000e+00
0.000000000000000e+00 0.000000000000000e+00 0.000000000000000e+00
0.000000000000000e+00 0.000000000000000e+00 0.000000000000000e+00
0.000000000000000e+00 0.000000000000000e+00 0.000000000000000e+00
0.000000000000000e+00 0.000000000000000e+00 0.000000000000000e+00
0.000000000000000e+00 0.000000000000000e+00 0.000000000000000e+00
0.000000000000000e+00 0.000000000000000e+00 0.000000000000000e+00
0.000000000000000e+00 0.000000000000000e+00 0.000000000000000e+00
0.000000000000000e+00 0.000000000000000e+00 0.000000000000000e+00
0.000000000000000e+00 0.000000000000000e+00 0.000000000000000e+00
0.000000000000000e+00 0.000000000000000e+00 0.000000000000000e+00
0.000000000000000e+00 0.000000000000000e+00 0.000000000000000e+00
0.000000000000000e+00 0.000000000000000e+00 0.000000000000000e+00
0.000000000000000e+00 0.000000000000000e+00 0.000000000000000e+00
0.000000000000000e+00 0.000000000000000e+00 0.000000000000000e+00
0.000000000000000e+00 0.000000000000000e+00 0.000000000000000e+00
0.000000000000000e+00 0.000000000000000e+00 0.000000000000000e+00
0.000000000000000e+00 0.000000000000000e+00 0.000000000000000e+00
0.000000000000000e+00 0.000000000000000e+00 0.000000000000000e+00
0.000000000000000e+00 0.000000000000000e+00 0.000000000000000e+00
0.000000000000000e+00 0.000000000000000e+00 0.000000000000000e+00
0.000000000000000e+00 0.000000000000000e+00 0.000000000000000e+00
0.000000000000000e+00 0.000000000000000e+00 0.000000000000000e+00
0.000000000000000e+00 0.000000000000000e+00 0.000000000000000e+00
0.000000000000000e+00 0.000000000000000e+00 0.000000000000000e+00
0.000000000000000e+00 0.000000000000000e+00 0.000000000000000e+00
0.000000000000000e+00 0.000000000000000e+00 0.000000000000000e+00
0.000000000000000e+00 0.000000000000000e+00 0.000000000000000e+00
0.000000000000000e+00 0.000000000000000e+00 0.000000000000000e+00
0.000000000000000e+00 0.000000000000000e+00 0.000000000000000e+00
0.000000000000000e+00 0.000000000000000e+00 0.000000000000000e+00
0.000000000000000e+00 0.000000000000000e+00 0.000000000000000e+00
0.000000000000000e+00 0.000000000000000e+00 0.000000000000000e+00
0.000000000000000e+00 0.000000000000000e+00 0.000000000000000e+00
0.000000000000000e+00 0.000000000000000e+00 0.000000000000000e+00
0.000000000000000e+00 0.000000000000000e+00 0.000000000000000e+00
0.000000000000000e+00 0.000000000000000e+00 0.000000000000000e+00
0.000000000000000e+00 0.000000000000000e+00 0.000000000000000e+00
0.000000000000000e+00 0.000000000000000e+00 0.000000000000000e+00
0.000000000000000e+00 0.000000000000000e+00 0.000000000000000e+00
0.000000000000000e+00 0.000000000000000e+00 0.000000000000000e+00
0.000000000000000e+00 0.000000000000000e+00 0.000000000000000e+00
0.000000000000000e+00 0.000000000000000e+00 0.000000000000000e+00
0.000000000000000e+00 0.000000000000000e+00 0.000000000000000e+00
0.000000000000000e+00 0.000000000000000e+00 0.000000000000000e+00
0.000000000000000e+00 0.000000000000000e+00 0.000000000000000e+00
0.000000000000000e+00 0.000000000000000e+00 0.000000000000000e+00
0.000000000000000e+00 0.000000000000000e+00 0.000000000000000e+00
0.000000000000000e+00 0.000000000000000e+00 0.000000000000000e+00
0.000000000000000e+00 0.000000000000000e+00 0.000000000000000e+00
0.000000000000000e+00 0.000000000000000e+00 0.000000000000000e+00
0.000000000000000e+00 0.000000000000000e+00 0.000000000000000e+00
0.000000000000000e+00 0.000000000000000e+00 0.000000000000000e+00
0.000000000000000e+00 0.000000000000000e+00 0.000000000000000e+00
0.000000000000000e+00 0.000000000000000e+00 0.000000000000000e+00
0.000000000000000e+00 0.000000000000000e+00 0.000000000000000e+00
0.000000000000000e+00 0.000000000000000e+00 0.000000000000000e+00
0.000000000000000e+00 0.000000000000000e+00 0.000000000000000e+00
0.000000000000000e+00 0.000000000000000e+00 0.000000000000000e+00
0.000000000000000e+00 0.000000000000000e+00 0.000000000000000e+00
0.000000000000000e+00 0.000000000000000e+00 0.000000000000000e+00
0.000000000000000e+00 0.000000000000000e+00 0.000000000000000e+00
0.000000000000000e+00 0.000000000000000e+00 0.000000000000000e+00
0.000000000000000e+00 0.000000000000000e+00 0.000000000000000e+00
0.000000000000000e+00 0.000000000000000e+00 0.000000000000000e+00
0.000000000000000e+00 0.000000000000000e+00 0.000000000000000e+00
0.000000000000000e+00 0.000000000000000e+00 0.000000000000000e+00
0.000000000000000e+00 0.000000000000000e+00 0.000000000000000e+00
0.000000000000000e+00 0.000000000000000e+00 0.000000000000000e+00
0.000000000000000e+00 0.000000000000000e+00 0.000000000000000e+00
0.000000000000000e+00 0.000000000000000e+00 0.000000000000000e+00
0.000000000000000e+00 0.000000000000000e+00 0.000000000000000e+00
0.000000000000000e+00 0.000000000000000e+00 0.000000000000000e+00
0.000000000000000e+00 0.000000000000000e+00 0.000000000000000e+00
0.000000000000000e+00 0.000000000000000e+00 0.000000000000000e+00
0.000000000000000e+00 0.000000000000000e+00 0.000000000000000e+00
0.000000000000000e+00 0.000000000000000e+00 0.000000000000000e+00
0.000000000000000e+00 0.000000000000000e+00 0.000000000000000e+00
0.000000000000000e+00 0.000000000000000e+00 0.000000000000000e+00
0.000000000000000e+00 0.000000000000000e+00 0.000000000000000e+00
0.000000000000000e+00 0.000000000000000e+00 0.000000000000000e+00
0.000000000000000e+00 0.000000000000000e+00 0.000000000000000e+00
0.000000000000000e+00 0.000000000000000e+00 0.000000000000000e+00
0.000000000000000e+00 0.000000000000000e+00 0.000000000000000e+00
0.000000000000000e+00 0.000000000000000e+00 0.000000000000000e+00
0.000000000000000e+00 0.000000000000000e+00 0.000000000000000e+00
0.000000000000000e+00 0.000000000000000e+00 0.000000000000000e+00
0.000000000000000e+00 0.000000000000000e+00 0.000000000000000e+00
0.000000000000000e+00 0.000000000000000e+00 0.000000000000000e+00
0.000000000000000e+00 0.000000000000000e+00 0.000000000000000e+00
0.000000000000000e+00 0.000000000000000e+00 0.000000000000000e+00
0.000000000000000e+00 0.000000000000000e+00 0.000000000000000e+00
0.000000000000000e+00 0.000000000000000e+00 0.000000000000000e+00
0.000000000000000e+00 0.000000000000000e+00 0.000000000000000e+00
0.000000000000000e+00 0.000000000000000e+00 0.000000000000000e+00
0.000000000000000e+00 0.000000000000000e+00 0.000000000000000e+00
0.000000000000000e+00 0.000000000000000e+00 0.000000000000000e+00
0.000000000000000e+00 0.000000000000000e+00 0.000000000000000e+00
0.000000000000000e+00 0.000000000000000e+00 0.000000000000000e+00
0.000000000000000e+00 0.000000000000000e+00 0.000000000000000e+00
0.000000000000000e+00 0.000000000000000e+00 0.000000000000000e+00
0.000000000000000e+00 0.000000000000000e+00 0.000000000000000e+00
0.000000000000000e+00 0.000000000000000e+00 0.000000000000000e+00
0.000000000000000e+00 0.000000000000000e+00 0.000000000000000e+00
0.000000000000000e+00 0.000000000000000e+00 0.000000000000000e+00
0.000000000000000e+00 0.000000000000000e+00 0.000000000000000e+00
0.000000000000000e+00 0.000000000000000e+00 0.000000000000000e+00
0.000000000000000e+00 0.000000000000000e+00 0.000000000000000e+00
0.000000000000000e+00 0.000000000000000e+00 0.000000000000000e+00
0.000000000000000e+00 0.000000000000000e+00 0.000000000000000e+00
0.000000000000000e+00 0.000000000000000e+00 0.000000000000000e+00
0.000000000000000e+00 0.000000000000000e+00 0.000000000000000e+00
0.000000000000000e+00 0.000000000000000e+00 0.000000000000000e+00
0.000000000000000e+00 0.000000000000000e+00 0.000000000000000e+00
0.000000000000000e+00 0.000000000000000e+00 0.000000000000000e+00
0.000000000000000e+00 0.000000000000000e+00 0.000000000000000e+00
0.000000000000000e+00 0.000000000000000e+00 0.000000000000000e+00
0.000000000000000e+00 0.000000000000000e+00 0.000000000000000e+00
0.000000000000000e+00 0.000000000000000e+00 0.000000000000000e+00
0.000000000000000e+00 0.000000000000000e+00 0.000000000000000e+00
0.000000000000000e+00 0.000000000000000e+00 0.000000000000000e+00
0.000000000000000e+00 0.000000000000000e+00 0.000000000000000e+00
0.000000000000000e+00 0.000000000000000e+00 0.000000000000000e+00
0.000000000000000e+00 0.000000000000000e+00 0.000000000000000e+00
0.000000000000000e+00 0.000000000000000e+00 0.000000000000000e+00
0.000000000000000e+00 0.000000000000000e+00 0.000000000000000e+00
0.000000000000000e+00 0.000000000000000e+00 0.000000000000000e+00
0.000000000000000e+00 0.000000000000000e+00 0.000000000000000e+00
0.000000000000000e+00 0.000000000000000e+00 0.000000000000000e+00
0.000000000000000e+00 0.000000000000000e+00 0.000000000000000e+00
0.000000000000000e+00 0.000000000000000e+00 0.000000000000000e+00
0.000000000000000e+00 0.000000000000000e+00 0.000000000000000e+00
0.000000000000000e+00 0.000000000000000e+00 0.000000000000000e+00
0.000000000000000e+00 0.000000000000000e+00 0.000000000000000e+00
0.000000000000000e+00 0.000000000000000e+00 0.000000000000000e+00
0.000000000000000e+00 0.000000000000000e+00 0.000000000000000e+00
0.000000000000000e+00 0.000000000000000e+00 0.000000000000000e+00
0.000000000000000e+00 0.000000000000000e+00 0.000000000000000e+00
0.000000000000000e+00 0.000000000000000e+00 0.000000000000000e+00
0.000000000000000e+00 0.000000000000000e+00 0.000000000000000e+00
0.000000000000000e+00 0.000000000000000e+00 0.000000000000000e+00
0.000000000000000e+00 0.000000000000000e+00 0.000000000000000e+00
0.000000000000000e+00 0.000000000000000e+00 0.000000000000000e+00
0.000000000000000e+00 0.000000000000000e+00 0.000000000000000e+00
0.000000000000000e+00 0.000000000000000e+00 0.000000000000000e+00
0.000000000000000e+00 0.000000000000000e+00 0.000000000000000e+00
0.000000000000000e+00 0.000000000000000e+00 0.000000000000000e+00
0.000000000000000e+00 0.000000000000000e+00 0.000000000000000e+00
0.000000000000000e+00 0.000000000000000e+00 0.000000000000000e+00
0.000000000000000e+00 0.000000000000000e+00 0.000000000000000e+00
0.000000000000000e+00 0.000000000000000e+00 0.000000000000000e+00
0.000000000000000e+00 0.000000000000000e+00 0.000000000000000e+00
0.000000000000000e+00 0.000000000000000e+00 0.000000000000000e+00
0.000000000000000e+00 0.000000000000000e+00 0.000000000000000e+00
0.000000000000000e+00 0.000000000000000e+00 0.000000000000000e+00
0.000000000000000e+00 0.000000000000000e+00 0.000000000000000e+00
0.000000000000000e+00 0.000000000000000e+00 0.000000000000000e+00
0.000000000000000e+00 0.000000000000000e+00 0.000000000000000e+00
0.000000000000000e+00 0.000000000000000e+00 0.000000000000000e+00
0.000000000000000e+00 0.000000000000000e+00 0.000000000000000e+00
0.000000000000000e+00 0.000000000000000e+00 0.000000000000000e+00
0.000000000000000e+00 0.000000000000000e+00 0.000000000000000e+00
0.000000000000000e+00 0.000000000000000e+00 0.000000000000000e+00
0.000000000000000e+00 0.000000000000000e+00 0.000000000000000e+00
0.000000000000000e+00 0.000000000000000e+00 0.000000000000000e+00
0.000000000000000e+00 0.000000000000000e+00 0.000000000000000e+00
0.000000000000000e+00 0.000000000000000e+00 0.000000000000000e+00
0.000000000000000e+00 0.000000000000000e+00 0.000000000000000e+00
0.000000000000000e+00 0.000000000000000e+00 0.000000000000000e+00
0.000000000000000e+00 0.000000000000000e+00 0.000000000000000e+00
0.000000000000000e+00 0.000000000000000e+00 0.000000000000000e+00
0.000000000000000e+00 0.000000000000000e+00 0.000000000000000e+00
0.000000000000000e+00 0.000000000000000e+00 0.000000000000000e+00
0.000000000000000e+00 0.000000000000000e+00 0.000000000000000e+00
0.000000000000000e+00 0.000000000000000e+00 0.000000000000000e+00
0.000000000000000e+00 0.000000000000000e+00 0.000000000000000e+00
0.000000000000000e+00 0.000000000000000e+00 0.000000000000000e+00
0.000000000000000e+00 0.000000000000000e+00 0.000000000000000e+00
0.000000000000000e+00 0.000000000000000e+00 0.000000000000000e+00
0.000000000000000e+00 0.000000000000000e+00 0.000000000000000e+00
0.000000000000000e+00 0.000000000000000e+00 0.000000000000000e+00
0.000000000000000e+00 0.000000000000000e+00 0.000000000000000e+00
0.000000000000000e+00 0.000000000000000e+00 0.000000000000000e+00
0.000000000000000e+00 0.000000000000000e+00 0.000000000000000e+00
0.000000000000000e+00 0.000000000000000e+00 0.000000000000000e+00
0.000000000000000e+00 0.000000000000000e+00 0.000000000000000e+00
0.000000000000000e+00 0.000000000000000e+00 0.000000000000000e+00
0.000000000000000e+00 0.000000000000000e+00 0.000000000000000e+00
0.000000000000000e+00 0.000000000000000e+00 0.000000000000000e+00
0.000000000000000e+00 0.000000000000000e+00 0.000000000000000e+00
0.000000000000000e+00 0.000000000000000e+00 0.000000000000000e+00
0.000000000000000e+00 0.000000000000000e+00 0.000000000000000e+00
0.000000000000000e+00 0.000000000000000e+00 0.000000000000000e+00
0.000000000000000e+00 0.000000000000000e+00 0.000000000000000e+00
0.000000000000000e+00 0.000000000000000e+00 0.000000000000000e+00
0.000000000000000e+00 0.000000000000000e+00 0.000000000000000e+00
0.000000000000000e+00 0.000000000000000e+00 0.000000000000000e+00
0.000000000000000e+00 0.000000000000000e+00 0.000000000000000e+00
0.000000000000000e+00 0.000000000000000e+00 0.000000000000000e+00
0.000000000000000e+00 0.000000000000000e+00 0.000000000000000e+00
0.000000000000000e+00 0.000000000000000e+00 0.000000000000000e+00
0.000000000000000e+00 0.000000000000000e+00 0.000000000000000e+00
0.000000000000000e+00 0.000000000000000e+00 0.000000000000000e+00
0.000000000000000e+00 0.000000000000000e+00 0.000000000000000e+00
0.000000000000000e+00 0.000000000000000e+00 0.000000000000000e+00
-1.099999709823867e-01 -7.989914904147061e-05  1.958401631077906e-18
-1.099968909279013e-01  8.270345792712832e-04  1.949028403239025e-18
-1.007704056553988e-01  4.410584251600119e-02  1.340158062469825e-18
-1.099932963755470e-01  1.214393857443945e-03  1.944984458025482e-18
-1.097950634378815e-01 -6.711486025576473e-03  2.022892202991149e-18
-1.065254342779245e-01 -2.742866843103230e-02  2.177566775190240e-18
-1.074377867813400e-01  2.360343135070098e-02  1.669466889529066e-18
-1.046104211721655e-01 -3.400970129510221e-02  2.211104554639968e-18
 2.370889098073100e-02  1.074145636702200e-01 -1.525573617059222e-18
-1.091702179694017e-01 -1.348567790336252e-02  2.081374693210708e-18
-7.903897980063700e-02  7.650385396876698e-02  6.205436187963703e-19
-1.039033495342831e-01 -3.611224107635153e-02  2.220124203877952e-18
-1.096805000006972e-01  8.377823082219998e-03  1.865816240402687e-18
-1.099480025564342e-01 -3.381824041883169e-03  1.991402869726835e-18
-1.095609797361019e-01  9.817928461003541e-03  1.848892675107436e-18
-1.051214840457187e-01  3.239557982234038e-02  1.537909387753113e-18
-1.058068776407135e-01 -3.008163299960623e-02  2.192037449901524e-18
-6.825026812484088e-02  8.626645292862842e-02  3.282384674452622e-19
-1.005619306716209e-01 -4.457912179031824e-02  2.247653792988239e-18
-1.071580663772010e-01  2.484247995469281e-02  1.651758156979791e-18
-1.049931881028004e-01 -3.280899955819871e-02  2.205579574585506e-18
-1.032837276596370e-01  3.784800656216716e-02  1.449182616666816e-18
-1.086155731968957e-01 -1.739704742505829e-02  2.111692028826313e-18
-1.097491638191200e-01  7.424354585005477e-03  1.876834737397692e-18
-1.044964335569968e-01 -3.435833776346100e-02  2.212658122121407e-18
-1.098630758692319e-01  5.486762301333188e-03  1.898769995051438e-18
-1.064245730507462e-01 -2.781744508337009e-02  2.179766368212291e-18
-1.087028925838703e-01 -1.684283657521706e-02  2.107551666322718e-18
-4.745425706392052e-03  1.098975929439087e-01 -1.044707333847842e-18
-1.099536143206522e-01  3.194166217528444e-03  1.923936826719048e-18
-8.396244925117829e-02 -7.106551284373615e-02  2.224384266857723e-18
-1.095127576991758e-01  1.034194861336684e-02  1.842650389735032e-18
-1.097433385171866e-01  7.509970113264077e-03  1.875851400749935e-18
-7.370228463189891e-02 -8.165765879596650e-02  2.150622850525319e-18
-1.064224460300448e-01  2.782558141319108e-02  1.608016631611928e-18
-1.092824014137549e-01 -1.254419153404711e-02  2.073697700990622e-18
-1.056283151633693e-01  3.070275290178145e-02  1.564322233714816e-18
-1.098523747489783e-01  5.696995875894359e-03  1.896419482245005e-18
-1.099039024144009e-01  4.596980975136535e-03  1.908638732016914e-18
-1.034282306597144e-01 -3.745131643348230e-02  2.225427409609381e-18
-1.081395273962910e-01 -2.014553584560998e-02  2.131459946030387e-18
-9.735440069933772e-02  5.120664668256179e-02  1.206407996226456e-18
-1.098785227714913e-01 -5.168194419215184e-03  2.008520700765034e-18
-1.063075166967623e-01 -2.826149135780948e-02  2.182245624923809e-18
-1.099390866426848e-01 -3.660222421134792e-03  1.994104642619007e-18
-1.068299268688567e-01  2.621767963025430e-02  1.631788845914204e-18
-9.192718866501094e-02 -6.041019768339950e-02  2.256646812911179e-18
-9.298808960738378e-02 -5.876406377344140e-02  2.258613382737774e-18
-1.014837954696501e-01 -4.243865286592118e-02  2.242066936082352e-18
 2.868535231578244e-02  1.061939290285436e-01 -1.601594105132900e-18
-1.099055301348709e-01 -4.557899271914856e-03  2.002730768076210e-18
-1.092252966952194e-01  1.303205900236899e-02  1.809894771267007e-18
-1.076632457636466e-01  2.255272736581042e-02  1.684274802810420e-18
-1.099391539074012e-01  3.658201487708397e-03  1.918911692585905e-18
-1.035491209526316e-01  3.711575878164425e-02  1.461429186828400e-18
-1.072798430183761e-01  2.431121720425598e-02  1.659383849338091e-18
-9.111265442371824e-03 -1.096220089308647e-01  1.288472156077381e-18
-1.094598345427347e-01 -1.088781988632582e-02  2.059836718202894e-18
-1.062853544108525e-01  2.834472504293192e-02  1.600242910514064e-18
-1.092712515839721e-01 -1.264094843246393e-02  2.074493418451853e-18
-1.097173375788517e-01  7.880725512807297e-03  1.871579305991766e-18
-1.099803925738786e-01 -2.076836367042964e-03  1.978571014429239e-18
-1.051145982597018e-01  3.241791530468024e-02  1.537557358010079e-18
 3.660676330424951e-02 -1.037301541519465e-01  4.143286325817214e-19
-1.096216035291924e-01 -9.116141710640513e-03  2.044512240626856e-18
-1.099462442002681e-01 -3.438515123559519e-03  1.991954057951389e-18
-1.095923802654755e-01  9.460982388068872e-03  1.853118976214634e-18
-1.098528391669023e-01  5.688033664688430e-03  1.896519830580365e-18
-1.038338845802842e-01 -3.631149147264739e-02  2.220935217600708e-18
-1.096457538223572e-01 -8.820922215219842e-03  2.041908750830602e-18
-1.012217689237713e-01  4.305988267451011e-02  1.358937467640091e-18
-1.099923369619296e-01 -1.298387327899893e-03  1.970785297973498e-18
-1.002820373224944e-01 -4.520523189244560e-02  2.249105810823097e-18
-1.099141211650950e-01 -4.345798948955033e-03  2.000704401938379e-18
-1.091451606419319e-01  1.368699778792997e-02  1.801739396507930e-18
-6.945252378128235e-02 -8.530150608524062e-02  2.112432494081995e-18
-1.049066432316872e-01  3.308468234484707e-02  1.527005761108532e-18
-1.096445187296168e-01 -8.836261231461013e-03  2.042044373701666e-18
-1.093926383771325e-01  1.154342535341379e-02  1.828167986073960e-18
-1.068423350826128e-01  2.616706773971089e-02  1.632529683668525e-18
-1.098267267882210e-01  6.171716372726191e-03  1.891085465536786e-18
-1.081941380103138e-01 -1.985015113809208e-02  2.129396836483904e-18
-1.087197460807761e-01 -1.673370288165465e-02  2.106730285347534e-18
-8.159069865154035e-03  1.096969898353436e-01 -9.818963400333977e-19
-1.099929996465283e-01  1.240978951775122e-03  1.944706025191996e-18
-9.498133801777929e-02 -5.548464137355744e-02  2.260390741995222e-18
-1.098907499175214e-01  4.901334773783496e-03  1.905277542928021e-18
-1.098624974768120e-01  5.498331397560331e-03  1.898640833607383e-18
-6.941328231897474e-02 -8.533344149690811e-02  2.112062270204980e-18
-1.049966885163730e-01  3.279779566671643e-02  1.531555880759474e-18
-1.095482738626413e-01 -9.958699398800355e-03  2.051864225908485e-18
-1.059750072873527e-01  2.948385711614893e-02  1.583015745017779e-18
-1.096223342703137e-01  9.107350280269690e-03  1.857285484904353e-18
-1.099065654965166e-01  4.532864520348660e-03  1.909344898021070e-18
-1.036764241729834e-01 -3.675865980559612e-02  2.222727514004780e-18
-1.096555082274455e-01 -8.698822643355678e-03  2.040827813359006e-18
-1.011611022097869e-01  4.320221521752064e-02  1.356395415924778e-18
-1.099915039655769e-01 -1.367134006022354e-03  1.971476820953768e-18
-1.050453612843654e-01 -3.264156970240669e-02  2.204787777640099e-18
-1.098450820220325e-01 -5.835919428236788e-03  2.014786214641118e-18
-1.093570153158912e-01  1.187616104639323e-02  1.824115292834455e-18
-7.944755997655996e-02 -7.607946643984063e-02  2.195552978434845e-18
-1.099228256931652e-01 -4.119756258560645e-03  1.998536802869575e-18
-1.071058468805526e-01 -2.506666240247295e-02  2.163627155901104e-18
-7.104285815999301e-02  8.398161884876382e-02  4.014117783984092e-19
-1.093141151645924e-01  1.226475543099622e-02  1.819359167332387e-18
-1.074487037052582e-01  2.355368489344199e-02  1.670172295989237e-18
-1.098457157650225e-01  5.823978714746726e-03  1.894996275142417e-18
-1.083930164196315e-01 -1.873376607768525e-02  2.121465664063594e-18
-1.087662908118755e-01 -1.642845041464485e-02  2.104422246148991e-18
-6.697832532295176e-03  1.097958971882340e-01 -1.008917038519339e-18
-1.099929201836118e-01  1.248002196128150e-03  1.944632449770226e-18
-1.006363208891858e-01 -4.441093241408885e-02  2.247249570903307e-18
-1.092850116244471e-01  1.252143099826762e-02  1.816203986908732e-18
-1.047497301790279e-01  3.357817784545147e-02  1.519142819167907e-18
-5.010584684401330e-02 -9.792550286847759e-02  1.897842281441946e-18
-1.094121232073385e-01  1.135725738293015e-02  1.830427550137034e-18
-1.092202111397521e-01 -1.307461198613202e-02  2.078040828340069e-18
-1.095772406544161e-01  9.634746004130596e-03  1.851064190744976e-18
-1.070080459071597e-01  2.548093622948589e-02  1.642528457473944e-18
-1.098557746536773e-01  5.631054540705880e-03  1.897157510869134e-18
-1.081519844987394e-01 -2.007855196433150e-02  2.130993399981022e-18
-1.083008110021484e-01 -1.925965566350685e-02  2.125228083126529e-18
-1.550511318417783e-02  1.089017514328661e-01 -8.429939507956521e-19
-1.099591191180813e-01 -2.998686841857228e-03  1.987664106654197e-18
-9.884989364966044e-02 -4.825659048721475e-02  2.254970706932029e-18
-1.098909957533736e-01  4.895819883527937e-03  1.905338581364230e-18
-1.095330977427839e-01  1.012425300304599e-02  1.845249108386966e-18
-8.807633580511431e-02 -6.589809611168344e-02  2.244502455559604e-18
-1.067661141121410e-01 -2.647634562006650e-02  2.172065189002426e-18
-1.059331290722377e-01 -2.963396978071852e-02  2.189684667772848e-18
-5.229151758469337e-02  9.677601556527130e-02 -6.374847297092860e-20
-1.065713567764848e-01  2.724969568305512e-02  1.616583692646304e-18
-1.091994551509852e-01  1.324684848286161e-02  1.807228006277273e-18
-1.098574610048104e-01  5.598058732853937e-03  1.897526541438345e-18
-1.039487213834320e-01 -3.598143024880419e-02  2.219587616321847e-18
-1.099719403249723e-01 -2.484419682874513e-03  1.982608367084534e-18
-1.026214903604664e-01  3.960845510994640e-02  1.419309344675077e-18
-1.099946950652891e-01 -1.080304352479474e-03  1.968586539886498e-18
-1.070738643086131e-01 -2.520292804458722e-02  2.164458067854557e-18
-1.099557385326771e-01  3.120186490176719e-03  1.924734744429700e-18
-1.007830927952645e-01  4.407684433601207e-02  1.340681791022680e-18
-4.642904673588719e-02 -9.972132981061141e-02  1.850860707129699e-18
-1.090769847916885e-01  1.422010508940391e-02  1.795048642069762e-18
-1.092444960844059e-01 -1.287012335854441e-02  2.076371961534730e-18
-1.094788213581397e-01  1.069521734386253e-02  1.838416744192158e-18
-1.071480168788632e-01  2.488578869408738e-02  1.651134332604944e-18
-1.098239204321482e-01  6.221454887172762e-03  1.890524477915569e-18
-1.080217380153955e-01 -2.076786257979319e-02  2.135757924613298e-18
-1.087624544674273e-01 -1.645382928745532e-02  2.104614732522086e-18
-8.634154138259995e-03  1.096606191042012e-01 -9.730679526424025e-19
-1.099951690176951e-01  1.030918410257770e-03  1.946902927494723e-18
-9.526812743929125e-02 -5.499076189880345e-02  2.260420069655043e-18
-1.099103594843630e-01  4.439918694977471e-03  1.910367401151556e-18
-1.098219024207360e-01  6.256976002052692e-03  1.890123598443735e-18
-6.821236338712176e-02 -8.629642797441373e-02  2.100584821535587e-18
-1.063002619045015e-01  2.828876665806263e-02  1.601083159222300e-18
-1.098739672981244e-01  5.264153319445180e-03  1.901251047441761e-18
-1.091468322876042e-01  1.367366086977147e-02  1.801906177425836e-18
-1.088997368662308e-01 -1.551925611830738e-02  2.097455436755912e-18
-1.098650495033779e-01  5.447099927507074e-03  1.899212634708158e-18
-1.099983637691773e-01 -5.999734191252711e-04  1.963716602998674e-18
-1.096605637850675e-01  8.634856706458598e-03  1.862820524548700e-18
-5.542151872200528e-02 -9.501818385207300e-02  1.962569356526162e-18
-1.099495383420887e-01  3.331518927079011e-03  1.922453040624194e-18
-1.076128796395931e-01 -2.279184362166345e-02  2.149277472062677e-18
-1.025050280488266e-01  3.990888653807817e-02  1.414149935132277e-18
-1.097607726107159e-01 -7.250710027207127e-03  2.027822287550234e-18
-1.097612851378962e-01 -7.242947250764660e-03  2.027751648874821e-18
-1.095872167701609e-01 -9.520605052710171e-03  2.048056001141665e-18
-8.460834475463316e-02  7.029529143464065e-02  7.834478361764184e-19
-1.099988676816913e-01  4.991079499397756e-04  1.952432908920677e-18
-1.018087243445978e-01 -4.165313490393764e-02  2.239778521298099e-18
-1.099710424171488e-01 -2.523852152085173e-03  1.982997542040202e-18
-1.078736748231446e-01 -2.152371436695752e-02  2.140889066024770e-18
 9.229060374213775e-03  1.096121546390228e-01 -1.290467208131497e-18
-1.098245361621580e-01  6.210576202477265e-03  1.890647210098895e-18
-1.072323475876237e-01  2.451986196631173e-02  1.656394862357813e-18
-1.043520856689531e-01  3.479428425100001e-02  1.499571209243300e-18
-7.795268331438350e-02 -7.761043205708473e-02  2.184679980639083e-18
-9.990196617473297e-02  4.603908290162226e-02  1.304839803328028e-18
-1.092520670759709e-01  1.280569559326974e-02  1.812696983922479e-18
-1.093888563459226e-01  1.157921013416015e-02  1.827733004694629e-18
-1.065516912479101e-01 -2.732649066766473e-02  2.176984209891241e-18
-1.089316621091516e-01 -1.529356041402875e-02  2.095704643162838e-18
-1.097944807555061e-01 -6.721011503392170e-03  2.022979704287453e-18
-1.082664481977007e-01  1.945189437187319e-02  1.726869442218960e-18
-9.650460025234990e-02  5.279073905652456e-02  1.175008809906693e-18
-5.836559537508913e-02 -9.323871125509677e-02  1.996679277887184e-18
-8.587732364012396e-02  6.873925577433417e-02  8.220185302828672e-19
-1.033492156380127e-01 -3.766881504650073e-02  2.226255962283397e-18
-1.062623192951387e-01  2.843096020217955e-02  1.598946938218158e-18
-1.092630390780125e-01 -1.271173833260552e-02  2.075074607620077e-18
-9.361445000388570e-02  5.776101410527613e-02  1.072507368172318e-18
-9.420697337818910e-02 -5.678948993362330e-02  2.260016844478597e-18
-1.099925282820550e-01  1.282077268058288e-03  1.944275366428963e-18
-1.099925282820550e-01  1.282077268058288e-03  1.944275366428963e-18
-1.069309783858503e-01  2.580243905999467e-02  1.637853624212094e-18
-5.316059566021652e-02  9.630135548916692e-02 -4.340523209161735e-20
-1.039561707038744e-01 -3.595990228833845e-02  2.219498993891699e-18
-1.045060607209655e-01 -3.432904415485229e-02  2.212528467801003e-18
-1.099094055869637e-01 -4.463469896866966e-03  2.001829508843887e-18
-9.063907348208131e-02  6.232622528526648e-02  9.726511073456625e-19
-1.094517743082209e-01 -1.096855053241783e-02  2.060522754776582e-18
-1.098871717660417e-01 -4.980911689678118e-03  2.006750357928428e-18
-1.079060506838812e-01  2.136081051382647e-02  1.700842318658971e-18
-1.099999177575169e-01  1.345114844795596e-04  1.956197692507689e-18
-6.450293927688484e-02  8.910314710851933e-02  2.324042784118327e-19
-1.061427367503351e-01 -2.887420016466232e-02  2.185608529631304e-18
-1.049811574853767e-01  3.284747437826003e-02  1.530769056822559e-18
-9.052407204298356e-02 -6.249313866943032e-02  2.253078140882605e-18
-1.099476213969219e-01  3.394193447499496e-03  1.921774968368877e-18
-1.025169541309882e-01 -3.987824113103271e-02  2.234145926405606e-18
-1.084510014304215e-01  1.839511589359106e-02  1.741011802105199e-18
-1.090683915320135e-01  1.428586604372760e-02  1.794220044846835e-18
-7.317380824618516e-02  8.213156388837639e-02  4.583432197173227e-19
-5.846121542345646e-02 -9.317878670176030e-02  1.997765247690950e-18
-8.607776403286442e-02  6.848809049099291e-02  8.281662382107972e-19
-1.089260488604420e-01 -1.533348882846087e-02  2.096014998659761e-18
-1.074375650214900e-01  2.360444073163002e-02  1.669452572025644e-18
-1.018625427532829e-01 -4.152134853103327e-02  2.239382226970205e-18
-1.099481574276952e-01 -3.376785195223375e-03  1.991353853526701e-18
-1.096793669416968e-01 -8.392643640030036e-03  2.038106529605729e-18
-9.850156621306264e-02  4.896367483730733e-02  1.249868895834126e-18
-9.946792485035992e-02 -4.696947866394802e-02  2.252744702949679e-18
-9.608414886873848e-02  5.355218329975012e-02  1.159702813014567e-18
-1.051128787542320e-01 -3.242349025009582e-02  2.203748644403670e-18
-1.089167201157768e-01  1.539961295687201e-02  1.780077526134576e-18
-1.043899099580761e-01 -3.468063867555907e-02  2.214073932401756e-18
-7.350836939749621e-02  8.183226520463165e-02  4.673723197327032e-19
-7.969005374280369e-02 -7.582542670152925e-02  2.197258278236419e-18
-1.090919221241549e-01  1.410505325254952e-02  1.796496585547528e-18
-9.027731551137211e-02 -6.284907560227203e-02  2.252343936743959e-18
-8.842884003275585e-02  6.542430932353205e-02  9.014856786052959e-19
-8.206912509935736e-02 -7.324383049394646e-02  2.213071727672589e-18
-1.059005482839266e-01  2.975019114499373e-02  1.578954172839065e-18
-1.099752531037473e-01 -2.333174825565059e-03  1.981113335968544e-18
-1.012981441078547e-01  4.287990205567422e-02  1.362145890621195e-18
-1.084402210095710e-01  1.845856081592847e-02  1.740168078127525e-18
-1.084175010653623e-01  1.859154277466230e-02  1.738397408301557e-18
-1.099608989030099e-01 -2.932697127555008e-03  1.987017759707727e-18
-1.099608989030099e-01 -2.932697127555008e-03  1.987017759707727e-18
-1.099249194418122e-01 -4.063506578193251e-03  1.997996118592390e-18
-1.088979633921452e-01 -1.553169562677939e-02  2.097551687099716e-18
-1.099903816345871e-01 -1.454629807826270e-03  1.972355835313851e-18
-1.097605094661623e-01 -7.254692393783871e-03  2.027858521948908e-18
-1.082087470933223e-01  1.977035792527162e-02  1.722570484915721e-18
-1.068636643929714e-01 -2.607982424224351e-02  2.169727099499750e-18
-1.098495843489205e-01  5.750549397173666e-03  1.895819580770786e-18
-1.091770623955097e-01  1.343015438060593e-02  1.804946098973015e-18
-1.098037469413611e-01  6.567888369746592e-03  1.886605988399148e-18
-1.091655535845419e-01 -1.352338384356624e-02  2.081679099756350e-18
-1.094678872715979e-01  1.080655617172555e-02  1.837078193069419e-18
-1.094678872715979e-01  1.080655617172555e-02  1.837078193069419e-18
-1.091655535845516e-01 -1.352338384348864e-02  2.081679099755724e-18
-1.081939545204448e-01  1.985115123180145e-02  1.721477111561454e-18
-9.767271693874061e-02 -5.059684146075309e-02  2.258066671780765e-18
-1.099506173883552e-01 -3.295714781265557e-03  1.990564662408143e-18
-1.089997347809843e-01 -1.480060193623925e-02  2.091851108276571e-18
-1.089997347809843e-01 -1.480060193623925e-02  2.091851108276571e-18
-1.094694486756987e-01 -1.079072780856318e-02  2.059010227338907e-18
-7.563730837185538e-02  7.986862702125774e-02  5.254349972722532e-19
-1.099916557543365e-01  1.354866937916898e-03  1.943511951342035e-18
-6.371781211457081e-02  8.966627247372438e-02  2.126460954647554e-19
-1.098172966229850e-01  6.337299300116560e-03  1.889216340070314e-18
-1.067602188872701e-01 -2.650010685152246e-02  2.172204414465202e-18
-1.097006979106515e-01 -8.109061469485876e-03  2.035572435857741e-18
-1.053831977220670e-01 -3.153381736916192e-02  2.199418227225585e-18
-1.042759067161053e-01  3.502192568283539e-02  1.495876580891349e-18
-1.078565734577863e-01 -2.160924713971038e-02  2.141463544997392e-18
-1.055121995105479e-01  3.109944942352302e-02  1.558179904512715e-18
-1.099996959795791e-01 -2.586201849854550e-04  1.960233030794988e-18
-9.565605553808254e-02  5.431315714350615e-02  1.144265651742807e-18
-1.044928862557076e-01  3.436912454444651e-02  1.506445285174073e-18
-1.059368559013676e-01 -2.962064418159735e-02  2.189614075452577e-18
-1.028842067594839e-01  3.892094551101891e-02  1.431048607751435e-18
-1.047029657374210e-02 -1.095005611385522e-01  1.311409904223633e-18
-1.095457075813721e-01 -9.986888929813890e-03  2.052108193062841e-18
-1.095457075813721e-01 -9.986888929813890e-03  2.052108193062841e-18
-1.096295345357153e-01  9.020263714678149e-03  1.858308405041353e-18
-9.808222589643102e-02 -4.979836305744794e-02  2.257150296633273e-18
-1.091003290868327e-01 -1.403987867272131e-02  2.085825148758764e-18
-9.700798978135845e-02 -5.185990665803188e-02  2.259214595166421e-18
-1.099974193838551e-01 -7.534778644511476e-04  1.965276998947304e-18
-1.025795203321418e-01 -3.971702416379711e-02  2.233602920813972e-18
-1.094736452507163e-01  1.074806938572015e-02  1.837781593655823e-18
-1.001232155143068e-01 -4.555591855155157e-02  2.249882565324756e-18
 3.547407410817587e-02 -1.041229564801517e-01  4.385220891748747e-19
-1.058132358000963e-01  3.005926029550875e-02  1.574224769793657e-18
-9.885325104608267e-02  4.824971251334130e-02  1.263463250459200e-18
-1.020303335085932e-01  4.110731132201619e-02  1.393388800251214e-18
-1.079105443729901e-01  2.133809769227036e-02  1.701155655207500e-18
-2.683157500404155e-03 -1.099672708846953e-01  1.177623748677161e-18
-1.076212476285513e-01 -2.275229788118054e-02  2.149020072290261e-18
-9.049447293009778e-02  6.253599258909803e-02  9.679224851929347e-19
-7.243317892130982e-02 -8.278547331116395e-02  2.139625485002148e-18
-8.618855980691204e-02  6.834860758208815e-02  8.315711173907964e-19
-9.857581389572265e-02  4.881402375133389e-02  1.252727832457313e-18
-1.095587120981361e-01  9.843200871548179e-03  1.848592654947296e-18
-8.499472574393328e-02  6.982762057891910e-02  7.951290949240152e-19
-1.099986278832028e-01  5.494213434162290e-04  1.951911689579981e-18
-1.094398323322291e-01 -1.108706900373211e-02  2.061527967307281e-18
-1.094398323322291e-01 -1.108706900373211e-02  2.061527967307281e-18
-1.009216612815493e-01  4.375863668091315e-02  1.346417250586981e-18
-1.091994641722996e-01  1.324677411608500e-02  1.807228930913937e-18
-1.099548490750604e-01 -3.151375077743591e-03  1.989156932301603e-18
-1.099996976343737e-01 -2.579153859029991e-04  1.960225818689491e-18
-1.079132177619810e-01 -2.132457343665259e-02  2.139546679073217e-18
-7.125501823872576e-02  8.380168480286532e-02  4.070361770298686e-19
-1.084330404483606e-01 -1.850069563892417e-02  2.119783225306784e-18
-1.090670955056016e-01 -1.429575734166991e-02  2.087862777908340e-18
-1.066302786938510e-01  2.701820989021314e-02  1.620010710879715e-18
-1.099533657830231e-01  3.202710256118617e-03  1.923844616802765e-18
-1.098272198562976e-01 -6.162935878005015e-03  2.017828311320733e-18
-1.091336331316235e-01 -1.377861094204186e-02  2.083733402940692e-18
-1.099891190206728e-01  1.547157734750344e-03  1.941491089056856e-18
-1.084176793182377e-01 -1.859050325428833e-02  2.120432596296152e-18
-1.093378858469216e-01 -1.205100487616946e-02  2.069617798913986e-18
-1.015826373356375e-01 -4.220151409530541e-02  2.241389430268110e-18
-3.373847473012787e-02  1.046982106957155e-01 -4.753196784966081e-19
-1.087395719441610e-01  1.660438175303643e-02  1.764546401388190e-18
-1.085449620166774e-01  1.783230834182695e-02  1.748466585960333e-18
-1.088307349270472e-01 -1.599597246930330e-02  2.101125552268697e-18
-1.097190897939555e-01  7.856292687129965e-03  1.871861527157742e-18
-1.099170265287434e-01  4.271683401126237e-03  1.912214605688285e-18
-1.093841162058945e-01  1.162390303879487e-02  1.827189444889119e-18
-3.900176545693335e-02 -1.028535963943035e-01  1.750866278473352e-18
-1.099326949725334e-01  3.847411607284110e-03  1.916852682891427e-18
-1.097195772666692e-01 -7.849481793300179e-03  2.033241329643260e-18
-1.035207387810932e-01  3.719484698471802e-02  1.460111489674298e-18
-1.089744613269251e-01 -1.498555232570437e-02  2.093301635078882e-18
-1.092348402251696e-01 -1.295182153141381e-02  2.077039543049314e-18
-1.062371412353295e-01 -2.852489828456162e-02  2.183699620124888e-18
-6.002520431402231e-02  9.217903691761925e-02  1.211139931065091e-19
-1.099356829245936e-01 -3.761066325278840e-03  1.995080203876843e-18
-1.039275252164437e-01 -3.604260676456918e-02  2.219838971722393e-18
-1.077027482682099e-01  2.236331852553500e-02  1.686923904026426e-18
-1.090641564035622e-01  1.431816287025868e-02  1.793812837524107e-18
-9.512554059640024e-02 -5.523704849322170e-02  2.260413071990817e-18
-1.096891219037958e-01 -8.264171826271999e-03  2.036960129576197e-18
-1.087125686533020e-01 -1.678026867487577e-02  2.107081001073412e-18
 5.368386159183715e-02  9.601064005925801e-02 -1.941842802140196e-18
-1.098510669497255e-01 -5.722157810376504e-03  2.013723864271327e-18
-1.069771393642339e-01  2.561038175125852e-02  1.640648432963568e-18
-1.090069632537687e-01  1.474726965209013e-02  1.788386100899994e-18
-1.098807419776294e-01  5.120795098961518e-03  1.902844564582206e-18
-1.041006789298066e-01 -3.553939569482350e-02  2.217750137657483e-18
-1.091095290805669e-01 -1.396820188201929e-02  2.085252420635083e-18
-1.019454357692453e-01  4.131740705584762e-02  1.389719286366491e-18
-1.099818132273630e-01 -2.000189796337353e-03  1.977808780982121e-18
-6.045651519927524e-02 -9.189673427255032e-02  2.020101364304272e-18
-1.083288870764038e-01  1.910110532895062e-02  1.731584846529661e-18
-1.097606186107063e-01 -7.253040892964023e-03  2.027843495735279e-18
-6.172715547306810e-02 -9.104810968495507e-02  2.033994614294534e-18
-1.062398699021830e-01  2.851473379092190e-02  1.597686681300132e-18
-1.099710723697475e-01 -2.522546698810447e-03  1.982984662024261e-18
 1.208301367324363e-02  1.093343531584292e-01 -1.338402402110704e-18
-1.099552396087817e-01 -3.137719327048892e-03  1.989023574437377e-18
-1.064089189264610e-01  2.787726623795388e-02  1.607244857869125e-18
-1.093819675045442e-01  1.164410515388632e-02  1.826943636791813e-18
-1.099212916793396e-01  4.160485013248899e-03  1.913433032171042e-18
-1.040262627987614e-01 -3.575663082734401e-02  2.218657825910088e-18
-1.084402581767618e-01 -1.845834246505300e-02  2.119476509917473e-18
-1.013959583462014e-01  4.264809059096678e-02  1.366268390259006e-18
-1.099016445516091e-01 -4.650647788393985e-03  2.003614576801112e-18
-1.092061079357180e-01 -1.319189105216651e-02  2.078994844800741e-18
-1.092263482010272e-01  1.302324301654131e-02  1.810004065118922e-18
-1.094784550911884e-01  1.069896587743722e-02  1.838371711214116e-18
-1.029509703955373e-01 -3.874400204698952e-02  2.230215868994719e-18
-6.517665481269240e-02 -8.861153236135272e-02  2.070347622893846e-18
-9.442303170232065e-02 -5.642952316068667e-02  2.260163332253941e-18
 1.561658987048611e-02  1.088858214866241e-01 -1.396678105553843e-18
-1.096662262331170e-01 -8.562641168863371e-03  2.039619337875263e-18
-1.069591067757481e-01  2.568558891156763e-02  1.639554795289850e-18
-1.090250952165901e-01  1.461261828056072e-02  1.790092274734458e-18
-1.098761619076634e-01  5.218145689885038e-03  1.901762814816805e-18
-1.043044972402681e-01 -3.493668352111887e-02  2.215184678978733e-18
-1.092397126647895e-01 -1.291066136625701e-02  2.076703348179733e-18
-1.015004683819360e-01  4.239876081028247e-02  1.370690043931127e-18
-1.099734911080159e-01 -2.414798856031167e-03  1.981920636414078e-18
-8.189012111047411e-02 -7.344391101045618e-02  2.211941892790326e-18
-1.072333725493487e-01  2.451537908522967e-02  1.656459162748943e-18
-1.084460261726417e-01  1.842442420708547e-02  1.740622129184024e-18
-4.473492314559722e-02 -1.004927193937822e-01  1.828637504759997e-18
-1.050591298216346e-01  3.259722750665851e-02  1.534727863253201e-18
-1.028539895076371e-01 -3.900072874143249e-02  2.231127751935471e-18
 8.657777927303526e-03  1.096587565193105e-01 -1.280779372929183e-18
-1.099984436848798e-01  5.851383633324879e-04  1.951541432146438e-18
-1.058953447136534e-01  2.976870786541552e-02  1.578671316523271e-18
-1.097768855354474e-01  7.002528267504074e-03  1.881662190582273e-18
-1.099193285263701e-01  4.212032325592226e-03  1.912868465613556e-18
-1.041914320888153e-01 -3.527244646011542e-02  2.216622391964738e-18
-1.091799732852632e-01 -1.340646983471607e-02  2.080734466561710e-18
-1.014851058090655e-01  4.243551930780048e-02  1.370038968413071e-18
-1.099721024126145e-01 -2.477234536604696e-03  1.982537426859710e-18
-8.485066393583263e-02 -7.000260587755518e-02  2.229270123718208e-18
-1.068414116484476e-01  2.617083791105814e-02  1.632474512915046e-18
-1.066155005890611e-01  2.707646642647169e-02  1.619149152129897e-18
-6.236108837891921e-02 -9.061509066483658e-02  2.040827093408422e-18
-1.079385865691767e-01  2.119579037092703e-02  1.703116855569200e-18
-9.908553212488429e-02 -4.777088363771853e-02  2.254173713243239e-18
 3.749675251977507e-03  1.099360720396388e-01 -1.196283147455526e-18
-1.099997847091595e-01  2.176325767937432e-04  1.955341285725455e-18
-1.059398963903787e-01  2.960976786122690e-02  1.581097217558436e-18
-1.097486076548022e-01  7.432571414538199e-03  1.876740414851732e-18
-1.099208747125084e-01  4.171486837684211e-03  1.913312571999479e-18
-1.041682455471770e-01 -3.534086331179500e-02  2.216912718095494e-18
-1.090942333266148e-01 -1.408716631825080e-02  2.086202530813965e-18
-1.018616376806647e-01  4.152356883762416e-02  1.386109762007155e-18
-1.099802659440682e-01 -2.083531346527336e-03  1.978637549382820e-18
-6.474080268203572e-02 -8.893046985193345e-02  2.065868081180403e-18
-1.080839918051536e-01  2.044139710155403e-02  1.713455631982331e-18
-1.091246826085828e-01  1.384931931814687e-02  1.799707170721196e-18
-5.358667802245468e-02 -9.606491523192896e-02  1.940670962280852e-18
-1.026160453541522e-01  3.962255968352521e-02  1.419067524922943e-18
-1.080327598152367e-01 -2.071045162963105e-02  2.135364194031593e-18
-6.815129699098877e-03  1.097886788661945e-01 -1.006755429882196e-18
-1.099419031171000e-01 -3.574624314542782e-03  1.993275275690954e-18
-1.093305442254308e-01  1.211742956946834e-02  1.821165261775222e-18
-1.061240863853753e-01  2.894267245555132e-02  1.591229261185788e-18
-1.098022049766823e-01  6.593616781293940e-03  1.886314197216115e-18
-1.078362559140901e-01 -2.171041018568702e-02  2.142141383619441e-18
-1.089389362782607e-01 -1.524165878639785e-02  2.095300825309549e-18
-1.117932145687644e-02  1.094304471879913e-01 -9.254087313979758e-19
-1.099458356681330e-01  3.451553162827433e-03  1.921153838957136e-18
-1.002582589091213e-01 -4.525794428066226e-02  2.249224246233227e-18
-1.069706272444543e-01 -2.563756827251616e-02  2.167086611601812e-18
-1.083154639121875e-01 -1.917707687546633e-02  2.124640382090697e-18
-6.656723556032589e-02  8.757170290599586e-02  2.848759260083928e-19
-1.083729897588048e-01  1.884927294984970e-02  1.734957192582318e-18
-1.096860061336660e-01 -8.305423435641848e-03  2.037328526030856e-18
-1.031444100365741e-01 -3.822604711720792e-02  2.228336559404852e-18
-1.049091141083552e-01  3.307684653953646e-02  1.527130243359249e-18
-1.099999169045569e-01 -1.352072131639422e-04  1.958968938965437e-18
-1.099911389733274e-01  1.396190298668869e-03  1.943078172087411e-18
-1.090244373298099e-01  1.461752595066196e-02  1.790030142326973e-18
-1.071062879588065e-01 -2.506477767077002e-02  2.163615640481193e-18
-1.041500392747770e-01  3.539448147751756e-02  1.489808744181315e-18
-1.099872226702552e-01 -1.676558762349739e-03  1.974579857162695e-18
-1.098009650077425e-01 -6.614233392345284e-03  2.021997992989128e-18
-1.082242143483036e-01 -1.968551316812347e-02  2.128240485461632e-18
-1.054644533660889e-01  3.126098328894964e-02  1.555670503131786e-18
-1.096877418085960e-01  8.282469253230068e-03  1.866924842966136e-18
-1.099984089851077e-01  5.916255106983583e-04  1.951474161540011e-18
-1.099572831778480e-01 -3.065269343216448e-03  1.988315544921701e-18
-1.091287253160461e-01 -1.381742779589874e-02  2.084044891580565e-18
-1.086941967220850e-01  1.689886383579127e-02  1.760713198762448e-18
-6.040992068766900e-02 -9.192737069289794e-02  2.019586937480029e-18
-3.511505799443711e-02  1.042445811639495e-01 -4.461608586120254e-19
-1.082598037235232e-01  1.948884033861838e-02  1.726371589488262e-18
-1.065184944870469e-01  2.745560657157077e-02  1.613527285571382e-18
-1.073781321376912e-01  2.387334787206120e-02  1.665631969782688e-18
-1.071261413201824e-01  2.497978874706961e-02  1.649779214547250e-18
 3.139198015971834e-02 -1.054255357190647e-01  5.245513487755902e-19
-1.098234285784309e-01  6.230131240850006e-03  1.890426578409804e-18
-6.624259457771970e-04  1.099980053994903e-01 -1.118400886470518e-18
-1.033773952711890e-01 -3.759141054741467e-02  2.225962149360388e-18
-1.099944618810452e-01 -1.103791420161342e-03  1.968823711182977e-18
-1.099895425675383e-01  1.516748424628827e-03  1.941811071193216e-18
-1.099284807247035e-01 -3.965996162178373e-03  1.997057611767690e-18
-1.095909861273817e-01 -9.477117685664910e-03  2.047676264450991e-18
-1.085719923126745e-01 -1.766698857350819e-02  2.113690002244850e-18
-1.098742698606967e-01 -5.257834400084918e-03  2.009366033384182e-18
-1.006882975237672e-01 -4.429296492407399e-02  2.246962484009977e-18
-1.049019129641256e-01  3.309967758856484e-02  1.526767509672949e-18
-1.094875174549800e-01  1.060582488755054e-02  1.839489976623388e-18
-1.094875174549800e-01  1.060582488755054e-02  1.839489976623388e-18
-1.097714761534248e-01 -7.086820379974598e-03  2.026328863271500e-18
-1.095513503510395e-01 -9.924799054072071e-03  2.051570661962244e-18
-1.089341837918134e-01  1.527558842111671e-02  1.781662620131387e-18
-1.051661359985342e-01  3.225033083764794e-02  1.540196403069147e-18
-1.092609886491844e-01 -1.272935031345724e-02  2.075219074498563e-18
-1.050204920282584e-01 -3.272149529197034e-02  2.205166405960635e-18
-1.096990434954395e-01 -8.131411696969593e-03  2.035772634033780e-18
-9.205866966478721e-02 -6.020964490469545e-02  2.256926067192324e-18
-1.097913232836451e-01  6.772394822074095e-03  1.884283665084304e-18
-1.011893485633084e-01  4.313601438859654e-02  1.357578282947488e-18
-1.097830738548509e-01  6.904831278189697e-03  1.882776120182431e-18
-1.074121156943798e-01  2.371997896409455e-02  1.667812557525829e-18
-9.941914633824418e-02 -4.707263898885122e-02  2.252936566004643e-18
-9.396330933993809e-02  5.719175200924546e-02  1.084564697431903e-18
-8.604516216069311e-02 -6.852904543870403e-02  2.235387346271887e-18
-1.077179595736275e-01  2.228993461843897e-02  1.687948600338167e-18
-1.076095167483957e-01 -2.280771591318781e-02  2.149380707431878e-18
-3.042750692842571e-02  1.057079316897296e-01 -5.446168164039484e-19
-8.612787798336748e-02 -6.842505852450619e-02  2.235790945235476e-18
-1.073327123525560e-01  2.407672857851337e-02  1.662734007651131e-18
-9.370498926378978e-02 -5.761401727941713e-02  2.259555157325329e-18
-5.431618963380339e-02  9.565433363765928e-02 -1.619214440957012e-20
-1.099801324383067e-01 -2.090566634301984e-03  1.978707458514708e-18
-7.923842304619057e-02  7.629726281560081e-02  6.262155983056275e-19
-9.036733479357068e-02 -6.271957272101457e-02  2.252615342189349e-18
-5.790568270040355e-02 -9.352503360598229e-02  1.991436441380074e-18
-1.079313444718573e-01  2.123263715361810e-02  1.702609386501948e-18
-1.084982523101681e-01 -1.811433812312842e-02  2.116974065053022e-18
-1.085260725890627e-01 -1.794690971709124e-02  2.115748894051106e-18
-1.095293305345617e-01  1.016492757724587e-02  1.844764149948972e-18
-1.098320217535591e-01  6.076758801010339e-03  1.892155350315046e-18
-1.097072218062961e-01  8.020316922920599e-03  1.869965032723266e-18
-1.097287647429967e-01  7.719986267863957e-03  1.873434203358356e-18
 1.099899525560995e-01  1.486720117208413e-03 -1.972677915621750e-18
 1.099646412102078e-01  2.788849854367384e-03 -1.985606380051903e-18
 9.002823398420259e-02  6.320535646355929e-02 -2.251571890275844e-18
 8.818795321615124e-02 -6.574864947317048e-02 -8.938663331495991e-19
 1.070439914372395e-01  2.532950645362304e-02 -2.165226991645334e-18
-5.025384861545293e-02 -9.784963310782045e-02  1.899696615278183e-18
 1.099874467277618e-01  1.661794905420535e-03 -1.974432151266629e-18
 1.034416660019616e-01 -3.741419162214466e-02 -1.456450608780307e-18
 1.096858231804640e-01 -8.307839263244104e-03 -1.866630031053211e-18
 1.083258092050763e-01  1.911855277120453e-02 -2.124223175006812e-18
 1.078952565179632e-01  2.141526607172707e-02 -2.140158871190317e-18
-6.195489149013093e-03 -1.098253882952588e-01  1.238672087960438e-18
 1.098071826980109e-01 -6.510194154215838e-03 -1.887259918892966e-18
 2.813394434083574e-02  1.063413427403787e-01 -1.593295764813395e-18
 1.095912772734477e-01 -9.473750343671983e-03 -1.852968161050216e-18
 1.099398240299460e-01 -3.638006633369564e-03 -1.919131113008056e-18
 1.099958012256532e-01 -9.610997484709721e-04 -1.947631539776197e-18
 1.098279479086047e-01  6.149947819675770e-03 -2.017707820298849e-18
 1.080325919806666e-01 -2.071132709264981e-02 -1.709767478193004e-18
 1.096767462469953e-01  8.426822216715190e-03 -2.038411063676776e-18
 1.009401448831781e-01 -4.371598278619550e-02 -1.347184441599286e-18
 1.050336770722394e-01  3.267914749017265e-02 -2.204965941266242e-18
 1.063369350204905e-01 -2.815059946871283e-02 -1.603155418744977e-18
 1.099582946761363e-01  3.028767392173114e-03 -1.987958501453447e-18
 1.099582946761363e-01  3.028767392173114e-03 -1.987958501453447e-18
 1.043769280632968e-01  3.471969020698931e-02 -2.214244144397931e-18
 1.093584194464416e-01  1.186322452691758e-02 -2.068053843937484e-18
 2.659383559040132e-02  1.067369097762842e-01 -1.569952000086919e-18
 9.974023461378501e-02 -4.638842096026816e-02 -1.298372275632524e-18
 9.582383694640283e-02 -5.401659256996066e-02 -1.150298615300515e-18
 1.099614414083048e-01 -2.912284911865924e-03 -1.926972347096570e-18
-4.898860269581150e-02  9.848917100834921e-02 -1.401298331152558e-19
 1.081617914679814e-01 -2.002565520618064e-02 -1.719111766732954e-18
 1.094990814177084e-01 -1.048576028135301e-02 -1.840929391346772e-18
 1.076490180861354e-01  2.262054166218901e-02 -2.148160533421905e-18
 1.097919493967908e-01  6.762236882308460e-03 -2.023358231531962e-18
 1.090030865004572e-01 -1.477589704125531e-02 -1.788022973426297e-18
 1.073739421888344e-01 -2.389218572732041e-02 -1.665363852525296e-18
 1.091455688136839e-01  1.368374248286384e-02 -2.082971073685302e-18
 1.096923674435249e-01 -8.220980758684141e-03 -1.867638933601797e-18
 1.050045568696134e-01  3.277259581748234e-02 -2.205407860140676e-18
 1.063918039371176e-01  2.794251339815110e-02 -2.180468234247484e-18
 3.952144360073109e-02  1.026550315167949e-01 -1.758074388953310e-18
 9.608261114717931e-02 -5.355494221021859e-02 -1.159647100622332e-18
 1.097839821201992e-01  6.890375158996510e-03 -2.024533018585295e-18
 8.821356877172919e-02 -6.571427763093286e-02 -8.946753507091329e-19
 1.099928134922388e-01  1.257370296092593e-03 -1.970372343297271e-18
 1.099967169863052e-01  8.498542431600284e-04 -1.966254731225499e-18
 1.099274892922483e-01 -3.993381762685509e-03 -1.915260251281234e-18
 1.098148026288682e-01  6.380370175989292e-03 -2.019841390370940e-18
 1.098148026288682e-01  6.380370175989292e-03 -2.019841390370940e-18
 1.078300220076815e-01  2.174135124188138e-02 -2.142348351931220e-18
 5.993830539493218e-02 -9.223556551777505e-02 -1.189867123531424e-19
 1.087605095385607e-01  1.646668044605738e-02 -2.104712161179087e-18
 1.073244989914084e-01 -2.411331408668478e-02 -1.662211938286267e-18
 1.065027338221077e-01  2.751668018524759e-02 -2.178067082303301e-18
 1.096747550380844e-01  8.452698228146751e-03 -2.038641494356450e-18
 8.429087462786063e-02  7.067565673179277e-02 -2.226223358269129e-18
 6.814460045015223e-02 -8.634994747820660e-02 -3.255001089634822e-19
 1.099994998534419e-01  3.317107061257106e-04 -1.960980519049445e-18
 8.005206713017061e-02 -7.544313453314744e-02 -6.494712231516445e-19
 1.042751462000942e-01  3.502418999704223e-02 -2.215561439459158e-18
 1.099466337964124e-01  3.426035148319322e-03 -1.991832764067530e-18
 1.099730922101461e-01  2.432897395827196e-03 -1.982099493472386e-18
 1.058176850595367e-01  3.004359380368163e-02 -2.191838941891468e-18
 1.058176850595367e-01  3.004359380368163e-02 -2.191838941891468e-18
 1.030825400887524e-01  3.839257648101622e-02 -2.228946538599988e-18
-1.145041120641741e-02 -1.094024135163566e-01  1.327843782071312e-18
 1.072235601129024e-01  2.455826045783249e-02 -2.160498357990922e-18
 1.072849669929307e-01  2.428859521103907e-02 -2.158820454220682e-18
 1.096032353726755e-01  9.334387812911448e-03 -2.046427756789565e-18
 1.042389405977354e-01 -3.513179846039350e-02 -1.494089821844409e-18
 1.097977628657174e-01 -6.667178539952830e-03 -1.885479324205419e-18
 8.640307049200388e-02  6.807723121245261e-02 -2.237114524912546e-18
 1.066445427748104e-01  2.696185261348983e-02 -2.174890090025688e-18
 8.468068413891769e-02 -7.020813153591816e-02 -7.856307381059743e-19
 1.016065223420529e-01  4.214397486656694e-02 -2.241223297775409e-18
 1.097613707613530e-01  7.241649576492750e-03 -2.027739839514634e-18
 1.099998101805242e-01  2.043532445946968e-04 -1.959677490038141e-18
 1.098515228148507e-01  5.713399623540861e-03 -2.013641989746867e-18
 1.098515228148507e-01  5.713399623540861e-03 -2.013641989746867e-18
 1.092043560770747e-01  1.320638534162161e-02 -2.079112591945281e-18
 7.716210587870251e-02 -7.839648854613215e-02 -5.676962757969533e-19
 1.075303960255769e-01  2.317787588590726e-02 -2.151775919041850e-18
 1.073512622932472e-01 -2.399388430509689e-02 -1.663915320787297e-18
 1.067036728814346e-01  2.672688147935932e-02 -2.173528137761121e-18
 1.098959022810546e-01  4.784418651501523e-03 -2.004886833270261e-18
 7.370934699257088e-02  8.165128392088337e-02 -2.150683034132098e-18
 6.867366310172922e-02 -8.592978526791578e-02 -3.392324240148759e-19
 1.099991404737317e-01 -4.348505952235734e-04 -1.953097984557281e-18
 7.806838199483733e-02 -7.749404966000993e-02 -5.930967720534871e-19
 1.039875846829226e-01  3.586895916822697e-02 -2.219123635598704e-18
 1.099342738437614e-01  3.802030305613261e-03 -1.995476017619514e-18
 1.099863567473360e-01  1.732434543544706e-03 -1.975138550385139e-18
 1.059358665527244e-01  2.962418231315915e-02 -2.189632821829827e-18
 1.059358665527244e-01  2.962418231315915e-02 -2.189632821829827e-18
 1.065255414488584e-01  2.742825220511631e-02 -2.177564405854763e-18
-1.569869520489916e-02 -1.088740142038659e-01  1.398017952377421e-18
 1.065669977248497e-01  2.726673790375027e-02 -2.176642668963859e-18
 1.061046242226535e-01  2.901394007316862e-02 -2.186366048535325e-18
 1.093880147496348e-01  1.158715794030632e-02 -2.065744043770038e-18
 1.016137641397278e-01  4.212651109878059e-02 -2.241172740333447e-18
 1.060412860250042e-01 -2.924458339869399e-02 -1.586653704739972e-18
 1.074053878621367e-01 -2.375042437902753e-02 -1.667380012147326e-18
 1.058157512253147e-01  3.005040420064645e-02 -2.191874501359516e-18
 8.160676555711607e-02 -7.375863214096244e-02 -6.944465863186426e-19
 9.905984251005964e-02  4.782413200343635e-02 -2.254263643517893e-18
 1.098304685641649e-01  6.104766578330701e-03 -2.017288457529524e-18
 1.099987849898261e-01 -5.170113750605670e-04 -1.952247486130984e-18
 1.098421010203763e-01  5.891760639178590e-03 -2.015306912317687e-18
 1.098421010203763e-01  5.891760639178590e-03 -2.015306912317687e-18
 1.089101082087150e-01  1.544630473498177e-02 -2.096890458204288e-18
 7.313125427217441e-02 -8.216945690813893e-02 -4.571965839769757e-19
 1.076397468856043e-01  2.266461758783845e-02 -2.148448405473890e-18
 1.078038923738893e-01 -2.187054615319006e-02 -1.693786941151762e-18
 1.046991562059563e-01  3.373554045455145e-02 -2.209866797371401e-18
 1.098688105441631e-01  5.370704759221614e-03 -2.010428580271909e-18
 8.223017079991803e-02  7.306297975182939e-02 -2.214079552338989e-18
 6.205223075989996e-02 -9.082687189218869e-02 -1.710803510689323e-19
 1.076089706582796e-01  2.281029227926379e-02 -2.149397460332374e-18
 8.919423559340170e-02 -6.437692394723966e-02 -9.258683098600710e-19
 1.099180101003451e-01 -4.246299045092702e-03 -1.912492924555018e-18
 1.099689270558475e-01  2.614399010406410e-03 -1.983890232738715e-18
 1.099635020231086e-01 -2.833411868000124e-03 -1.927819410068389e-18
 1.098325687062736e-01  6.066865037366659e-03 -2.016936407498628e-18
 1.098325687062736e-01  6.066865037366659e-03 -2.016936407498628e-18
 1.081658803867913e-01  2.000355768732840e-02 -2.130470154931593e-18
 6.519038869086873e-02 -8.860142900841601e-02 -2.497932319717242e-19
 1.084806518290244e-01  1.821944507250197e-02 -2.117740779218916e-18
 1.075846179552840e-01 -2.292487686805567e-02 -1.679051826225679e-18
 1.050635449116640e-01  3.258299450011764e-02 -2.204509538053271e-18
 1.094414406034014e-01  1.107118235113592e-02 -2.061393358826948e-18
 8.178657660178980e-02  7.355919988525902e-02 -2.211283746053371e-18
 6.127912848923466e-02 -9.135025129467242e-02 -1.519445407409429e-19
 1.085060244109236e-01  1.806772444266204e-02 -2.116633440223491e-18
 8.934762433036747e-02 -6.416386854390446e-02 -9.307871122754115e-19
 1.095302471969847e-01 -1.015504549312117e-02 -1.844881997874725e-18
 1.099679491655454e-01  2.655213046810077e-03 -1.984292179411792e-18
 1.099605806300159e-01 -2.944606511861662e-03 -1.926624935821703e-18
 1.098441930077379e-01  5.852628681093784e-03 -2.014942075074400e-18
 1.098441930077379e-01  5.852628681093784e-03 -2.014942075074400e-18
 1.087505284429055e-01  1.653246997241276e-02 -2.105210499159866e-18
 6.914769696813904e-02 -8.554879311832717e-02 -3.515829780491591e-19
 1.080789278867443e-01  2.046815445641978e-02 -2.133696294500235e-18
 1.075597320152283e-01 -2.304135518610422e-02 -1.677412178832660e-18
 1.059928101658520e-01  2.941979254083204e-02 -2.188546170688539e-18
 1.096680966849921e-01  8.538651503086071e-03 -2.039406139696433e-18
 8.717170083433314e-02  6.709019729922878e-02 -2.240651803812612e-18
 6.375144366823407e-02 -8.964236403741208e-02 -2.134902595772194e-19
 1.095148413839710e-01  1.031986030155438e-02 -2.054980052147199e-18
 8.637290070718168e-02 -6.811550501484420e-02 -8.372467277998055e-19
 1.099721802929249e-01  2.473774771545953e-03 -1.982503265003588e-18
 1.099721556388836e-01  2.474870529358384e-03 -1.982514084768978e-18
 1.099313542197470e-01 -3.885532062979397e-03 -1.916437148762089e-18
 1.098648810046434e-01  5.450497393400356e-03 -2.011178489758634e-18
 1.098648810046434e-01  5.450497393400356e-03 -2.011178489758634e-18
 1.088249305623782e-01  1.603541356166036e-02 -2.101427499571861e-18
 6.946518320407767e-02 -8.529119721532728e-02 -3.598797286550668e-19
 1.083195270748680e-01  1.915411324694648e-02 -2.124476747976303e-18
 1.073761103781074e-01 -2.388243957531177e-02 -1.665502576211108e-18
 1.069354288556064e-01  2.578398835454810e-02 -2.167964627438749e-18
 1.088085877020827e-01 -1.614593578205079e-02 -1.770484984936932e-18
 7.385376480858941e-02  8.152068095641429e-02 -2.151911223420360e-18
 6.059916792796684e-02 -9.180272788124551e-02 -1.351947989116481e-19
 1.096693914767090e-01 -8.522005229302361e-03 -1.864137131783576e-18
 6.617282246165498e-02 -8.787011760239213e-02 -2.747907718446357e-19
 1.025267980497588e-01 -3.985292563493810e-02 -1.415112336217829e-18
 1.093062268685938e-01 -1.233485985941565e-02 -1.818498488160519e-18
 1.063757254431286e-01 -2.800366112578937e-02 -1.605355478681747e-18
 1.099340519785306e-01 -3.808440045696075e-03 -1.917277251069904e-18
 1.028797384986237e-01  3.893275493019645e-02 -2.230887579727079e-18
 1.096803225567283e-01  8.380145813287408e-03 -2.037995125285437e-18
 1.093902221252023e-01 -1.156630033324475e-02 -1.827889953880716e-18
 1.091595087719762e-01  1.357209065180378e-02 -2.082071969867077e-18
 4.477049248543634e-02  1.004768779501603e-01 -1.829107738512608e-18
 1.051086450633234e-01 -3.243721216368986e-02 -1.537253145562970e-18
 9.616644795063317e-02 -5.340425346878365e-02 -1.162687348621279e-18
 1.097514057893056e-01 -7.391138428625847e-03 -1.877215919871783e-18
-5.941215113176983e-03  1.098394371934729e-01 -1.022829305755463e-18
 1.089382475249431e-01  1.524658080338567e-02 -2.095339140059208e-18
 7.296466192202704e-02 -8.231742288607091e-02 -4.527115777161180e-19
 1.095228810708374e-01  1.023418399009628e-02 -2.054242834988596e-18
 8.982605956006946e-02 -6.349235405866428e-02 -9.462010052799675e-19
 9.610142212001629e-02  5.352117960686559e-02 -2.260150118296036e-18
 1.094197566732952e-01 -1.128347683813727e-02 -1.831321465064645e-18
-4.527952340023714e-02  1.002485150046987e-01 -2.242139439730007e-19
 1.096569757280936e-01  8.680303806216155e-03 -2.040663654959294e-18
 1.099473449742459e-01  3.403135776616896e-03 -1.991610137599847e-18
 1.090042324183790e-01 -1.476744104034062e-02 -1.788130248740192e-18
 1.079477974830528e-01  2.114883019360056e-02 -2.138356368478014e-18
 1.099896912636239e-01  1.505926868290760e-03 -1.972870608000571e-18
 1.088784199937350e-01  1.566810963925700e-02 -2.098605493435689e-18
 1.088784199937350e-01  1.566810963925700e-02 -2.098605493435689e-18
 1.086262461520176e-01  1.733028121298670e-02 -2.111195968219092e-18
-4.491645405750141e-02 -1.004117132355598e-01  1.831035755026730e-18
 1.067181387009978e-01  2.666906207939278e-02 -2.173191500945184e-18
 1.042829425659459e-01  3.500096984067086e-02 -2.215461606417835e-18
 1.094424821304409e-01  1.106088175183417e-02 -2.061306059127083e-18
 8.477043698596801e-02 -7.009973618500964e-02 -7.883417199339566e-19
 1.085176166710503e-01  1.799796855300399e-02 -2.116123021894278e-18
 1.073743591275937e-01 -2.389031188449548e-02 -1.665390525502172e-18
 7.767163673107291e-02  7.789169947764764e-02 -2.182568342014434e-18
 1.000433849992125e-01 -4.573096454153647e-02 -1.310522324219404e-18
 1.095551820283088e-01  9.882413204479027e-03 -2.051203352022840e-18
 1.095747646051511e-01 -9.662865088867290e-03 -1.850731213113959e-18
 1.056717537274606e-01  3.055291253158775e-02 -2.194474984672265e-18
-1.720934154214664e-02 -1.086454718968336e-01  1.422553516731054e-18
 1.070475569602257e-01  2.531443360707789e-02 -2.165135576357268e-18
 1.087245473558064e-01 -1.670247892604355e-02 -1.763271108099696e-18
 1.060109592988721e-01  2.935432691329876e-02 -2.188196520618590e-18
 9.796114949759650e-02 -5.003611884538484e-02 -1.229232563155296e-18
 5.749615132236235e-02  9.377735645194922e-02 -1.986740867581746e-18
 8.604652685449457e-02 -6.852733189230904e-02 -8.272071442174073e-19
 9.634277516423642e-02  5.308549400404330e-02 -2.259968772317402e-18
 1.097353746290925e-01 -7.625454413518488e-03 -1.874523114628665e-18
 1.099283012420800e-01  3.970967895923160e-03 -1.997105500418448e-18
 1.089054841835124e-01 -1.547887317457813e-02 -1.779063199373267e-18
-2.542316421400269e-02  1.070217861995761e-01 -6.471744422060280e-19
 1.099999627152697e-01  9.056842270249209e-05 -1.958511106865723e-18
 1.066183546164374e-01 -2.706522600835830e-02 -1.619315434164259e-18
 4.823066258128073e-03 -1.098942129134634e-01  1.043290899031740e-18
 1.099806209839325e-01  2.064705303066662e-03 -1.978450436983118e-18
 7.403207723531915e-02  8.135878280937876e-02 -2.153421061104961e-18
 9.693282711025022e-02  5.200025988794923e-02 -2.259319064227851e-18
 1.013410346247781e-01 -4.277843733914840e-02 -1.363951691634575e-18
 1.099096872118942e-01 -4.456529701854568e-03 -1.910184765199699e-18
 1.582100820322538e-02 -1.088563075776200e-01  8.369053030142833e-19
 8.045297983219013e-02  7.501545198238249e-02 -2.202513262049682e-18
 7.715953666120780e-02 -7.839901722743506e-02 -5.676245722251715e-19
 9.795036716703533e-02  5.005722297374168e-02 -2.257463404860394e-18
 8.110089830495820e-02 -7.431449585463629e-02 -6.797327774176054e-19
 1.055782323415034e-01  3.087453409597401e-02 -2.196115204790949e-18
 1.079815960470953e-01 -2.097557901755907e-02 -1.706144852191684e-18
 1.097189965569696e-01  7.857594703955225e-03 -2.033314352431253e-18
 1.091926149498168e-01 -1.330311393700612e-02 -1.806528169636492e-18
 1.096236880705641e-01  9.091040303925881e-03 -2.044291429691727e-18
 1.096280343800259e-01  9.038477635741322e-03 -2.043828715131986e-18
 9.357830855283009e-02 -5.781954832399893e-02 -1.071262770106134e-18
 1.090756899217538e-01  1.423003401588855e-02 -2.087340442498563e-18
 9.798344161218887e-02 -4.999245112845244e-02 -1.230077947853710e-18
 4.329766777481507e-02  1.011202846379581e-01 -1.809507835924042e-18
 1.080108918001265e-01 -2.082419872507209e-02 -1.708221582575281e-18
 1.081625689690200e-01  2.002145534225537e-02 -2.130595116205017e-18
 1.068727165213183e-01 -2.604270460904300e-02 -1.634348143600620e-18
-3.186598648021019e-02  1.052832318350980e-01 -5.146537201744111e-19
 1.084560980876319e-01 -1.836504254299196e-02 -1.741411495952387e-18
 1.081352919438721e-01 -2.016825813533431e-02 -1.717174982798169e-18
 1.099228018045704e-01 -4.120393601715950e-03 -1.913871831340303e-18
-3.727433865119905e-02 -1.034921430743206e-01  1.726685493087433e-18
 1.086479542041016e-01 -1.719366299726084e-02 -1.756861303702877e-18
 9.238225416651295e-02 -5.971196793871161e-02 -1.030533631517131e-18
 7.585523299110190e-02  7.966168230627303e-02 -2.168429201356754e-18
 1.045050372722438e-01 -3.433215962806374e-02 -1.507041328095126e-18
 1.068729747139736e-01  2.604164502842133e-02 -2.169500510215132e-18
 1.091408088461487e-01  1.372165603738706e-02 -2.083275912384932e-18
 1.010974212781184e-01  4.335102548861541e-02 -2.244565243719494e-18
 9.491890077171312e-02 -5.559138670953977e-02 -1.118013758918530e-18
 1.087178243330276e-01  1.674618381282405e-02 -2.106824322587805e-18
 9.865885905484435e-02 -4.864596108616100e-02 -1.255932502956021e-18
 1.090187296737518e-01  1.466003343520546e-02 -2.090744854767698e-18
 1.093180818609170e-01 -1.222934905257703e-02 -1.819793547101261e-18
 9.936355382631903e-02  4.718987360657084e-02 -2.253151774050868e-18
 1.096079362035620e-01 -9.279025875371185e-03 -1.855265349757044e-18
 1.099996482845790e-01  2.781676991071245e-04 -1.960433025612114e-18
 1.099013026198435e-01 -4.658721118667122e-03 -1.907958108025270e-18
 1.099013026198435e-01 -4.658721118667122e-03 -1.907958108025270e-18
 1.040630886483052e-01  3.564931389206385e-02 -2.218210543305358e-18
 1.090652600480246e-01  1.430975368958853e-02 -2.087973921141735e-18
 1.099705118768162e-01 -2.546864258443877e-03 -1.930888331370402e-18
 1.090652600480258e-01  1.430975368957950e-02 -2.087973921141663e-18
 1.097453859132972e-01  7.479991359713702e-03 -2.029904245315897e-18
 8.749692511254424e-02 -6.666549404189365e-02 -8.721484188775691e-19
 1.069960461636119e-01  2.553127700202561e-02 -2.166446867397298e-18
 1.057366104817099e-01  3.032769697552207e-02 -2.193315179953873e-18
 7.026875908969163e-02  8.463038163682597e-02 -2.120062815128742e-18
 1.037034663878989e-01 -3.668229898921051e-02 -1.468629589862576e-18
 1.035692929438220e-01  3.705943279539907e-02 -2.223911319199087e-18
 1.066731616662891e-01 -2.684839995451609e-02 -1.622518599929102e-18
 1.080335345741419e-01  2.070640981477989e-02 -2.135336453611156e-18
-5.484893884190301e-02 -9.534985006761740e-02  1.955787364441593e-18
 9.784401899779183e-02 -5.026477838765115e-02 -1.224798692461649e-18
 7.486876432578417e-02 -8.058950383474335e-02 -5.043510918352872e-19
 9.554286295468237e-02  5.451202930017113e-02 -2.260390512326747e-18
 1.095870293455605e-01  9.522762163111931e-03 -2.048074829223094e-18
 1.070930344052609e-01  2.512134514458819e-02 -2.163960987930572e-18
 1.097211179133708e-01 -7.827916954087894e-03 -1.872189170310880e-18
 1.089415650550597e-01  1.522285792333758e-02 -2.095154435490278e-18
 9.900973064528173e-02 -4.792779191188229e-02 -1.269555608818001e-18
-2.176291137267152e-03  1.099784695151091e-01 -1.091259125469000e-18
 1.085211176953609e-01 -1.797684661306172e-02 -1.746557169589660e-18
-1.819872446982748e-02  1.084841298424393e-01 -7.907670147800303e-19
 1.095473448354945e-01  9.968913656621784e-03 -2.051952640550791e-18
 1.094759442491397e-01  1.072462730164411e-02 -2.058446665120326e-18
 1.099536068982190e-01 -3.194421711649443e-03 -1.923934069518716e-18
 1.096642624623143e-01 -8.587755154669533e-03 -1.863370298256234e-18
 9.994464619823086e-02 -4.594635672510262e-02 -1.306552073035717e-18
 1.098832370832128e-01 -5.066972282772662e-03 -1.903441977846378e-18
 9.564549640041875e-02  5.433174963423704e-02 -2.260364688842213e-18
 1.080981813366541e-01 -2.036622674203012e-02 -1.714480499758131e-18
 9.815501352661335e-02 -4.965474115923142e-02 -1.236601121982641e-18
 1.099859046653174e-01 -1.760901743893882e-03 -1.939237743722228e-18
 8.309890176846345e-02  7.207338291543683e-02 -2.219371908182399e-18
 1.099828315699774e-01 -1.943388754187768e-03 -1.937308066586483e-18
 9.365183244913035e-02 -5.770038369820376e-02 -1.073795588784215e-18
 1.044634714772413e-01  3.445842606567399e-02 -2.213099893539582e-18
 1.098814401809936e-01 -5.105791197320770e-03 -1.903011149582789e-18
 4.598569980574946e-02  9.992655009243247e-02 -1.845079383509582e-18
 1.005107681026181e-01 -4.469435641578984e-02 -1.329490735981173e-18
 8.130542662948487e-02  7.409067148162027e-02 -2.208181785943902e-18
 1.020286103814358e-01 -4.111158794832787e-02 -1.393314194366251e-18
 1.026054326105968e-01  3.965003403267398e-02 -2.233375761456676e-18
 1.020088761991633e-01 -4.116052935256902e-02 -1.392460145903364e-18
 5.640223145354487e-02  9.443933654500478e-02 -1.974074863618970e-18
 1.093487675890033e-01  1.195186289940042e-02 -2.068792804698689e-18
 1.098378494076976e-01  5.970497256666922e-03 -2.016040239940491e-18
 1.024081796459535e-01  4.015675212964866e-02 -2.235071754029198e-18
 1.099985640592762e-01  5.620541764295253e-04 -1.963330560956177e-18
 1.061487192102395e-01 -2.885219939667793e-02 -1.592597209500989e-18
 1.045381524059497e-01 -3.423119471403778e-02 -1.508668029214530e-18
 8.618593373766911e-02 -6.835191896184073e-02 -8.314903601321010e-19
 1.078605550991416e-01  2.158936436546875e-02 -2.141330114772295e-18
 1.074124220920566e-01 -2.371859144885724e-02 -1.667832266452989e-18
 1.040036305991075e-01  3.582240670591974e-02 -2.218930882178449e-18
 1.075655560330283e-01 -2.301415119671762e-02 -1.677795335285068e-18
 1.093911377112224e-01  1.155763774498458e-02 -2.065496311313607e-18
 9.515509363057854e-02  5.518612285852081e-02 -2.260415761089432e-18
 1.092436755173560e-01  1.287708660600528e-02 -2.076428903403380e-18
 1.076389793129998e-01 -2.266826266954602e-02 -1.682655869099884e-18
 1.068949049764429e-01 -2.595147953541729e-02 -1.635680318118949e-18
 1.098218232594060e-01  6.258365280144260e-03 -2.018712774881958e-18
 9.044247937246808e-02  6.261116453924659e-02 -2.252838774920457e-18
 1.091730705937553e-01  1.346256502791570e-02 -2.081187982664843e-18
 9.486277732976386e-02 -5.568710332997728e-02 -1.116031521818696e-18
 1.027536947501525e-01 -3.926421035997564e-02 -1.425199069240309e-18
 3.965474820953285e-02  1.026036107768069e-01 -1.759918374054739e-18
 6.392396650228015e-02 -8.951941971782038e-02 -2.178237174233994e-19
 1.046375851188604e-01  3.392603396350916e-02 -2.210728318035566e-18
 9.653510896629452e-02 -5.273492900218573e-02 -1.176125176897582e-18
 1.076157561968820e-01  2.277825757544210e-02 -2.149189072141412e-18
 8.767001162390833e-02 -6.643770813223249e-02 -8.775691172860099e-19
 1.091858766552526e-01 -1.335830599379614e-02 -1.805841175313173e-18
-2.210509611618345e-02  1.077560426412098e-01 -7.137676401450078e-19
 1.064989557091325e-01 -2.753129914958912e-02 -1.612401855969510e-18
 8.852060847921574e-02 -6.530009092236649e-02 -9.043951065223924e-19
 5.028433046748086e-02  9.783397216425947e-02 -1.900078165689174e-18
 1.081301843983693e-01 -2.019562383227062e-02 -1.716802915338602e-18
-2.374656186070784e-02 -1.074062419033247e-01  1.526158512172075e-18
 1.051005599789978e-01  3.246339926903850e-02 -2.203939467775841e-18
 1.090999753780761e-01  1.404262698013133e-02 -2.085847091949779e-18
 1.099894962216085e-01 -1.520105561036774e-03 -1.941775753055073e-18
 1.099894962216085e-01 -1.520105561036774e-03 -1.941775753055073e-18
 1.099997803146164e-01 -2.198425255788076e-04 -1.955318501098363e-18
 1.096169939781541e-01  9.171402902132274e-03 -2.044997996835425e-18
 1.091965915904099e-01 -1.327043273737304e-02 -1.806934726153438e-18
 1.099676352353190e-01  2.668183043148704e-03 -1.984419854649694e-18
 1.088582446982021e-01  1.580767412449628e-02 -2.099680424371759e-18
 1.098232769414717e-01  6.232803689891707e-03 -2.018476008834283e-18
 1.097776475793830e-01 -6.990571645918547e-03 -1.881798602006396e-18
 4.457407812332776e-02  1.005641663787623e-01 -1.826509167541847e-18
 1.099896825993166e-01  1.506559557902701e-03 -1.972876954464814e-18
 6.605754293771843e-02 -8.795681338606698e-02 -2.718484675226333e-19
 1.047068112149361e-02 -1.095005243679313e-01  9.387398490297494e-19
 1.022944714279061e-01  4.044553269874485e-02 -2.236015296094701e-18
 1.097167129341898e-01 -7.889417146817774e-03 -1.871478886312869e-18
 9.079690531788749e-02  6.209607060591271e-02 -2.253853804347676e-18
 1.077526144106489e-01 -2.212180118502900e-02 -1.690292834450962e-18
-5.824735323009034e-02  9.331262423535742e-02  7.782781448053972e-20
 1.099685075191583e-01 -2.631986703755394e-03 -1.929978059231972e-18
 1.099871995981352e-01  1.678071679010329e-03 -1.974594991235884e-18
 1.099259566159842e-01 -4.035351541154333e-03 -1.914801751251524e-18
 1.061571248037176e-01  2.882125697133717e-02 -2.185320610125271e-18
 1.098600065841024e-01 -5.547878273799730e-03 -1.898087429045977e-18
 1.053658606811708e-01  3.159169832275627e-02 -2.199704399674150e-18
 1.053658606811708e-01  3.159169832275627e-02 -2.199704399674150e-18
 9.218305262759063e-02  6.001903704874625e-02 -2.257181183907293e-18
 7.205754224255147e-03 -1.097637331091630e-01  9.995474919118219e-19
 1.067614295005571e-01  2.649522921202056e-02 -2.172175842798742e-18
 1.099097677380731e-01  4.454543272070814e-03 -2.001744235927875e-18
 1.094576363859795e-01  1.090989627790446e-02 -2.060024426285125e-18
 1.078559780296921e-01 -2.161221884162962e-02 -1.697368086810142e-18
 1.099672033544387e-01  2.685923752354364e-03 -1.984594448156657e-18
 1.082543580780444e-01  1.951906650202458e-02 -2.127066750060266e-18
 1.093962269439035e-01  1.150936707373095e-02 -2.065090916668048e-18
 7.963977438849951e-02 -7.587823360720004e-02 -6.376634970861995e-19
 1.000673038509575e-01  4.567860221153962e-02 -2.250148080620517e-18
 1.085263982540910e-01  1.794494028951769e-02 -2.115734454495872e-18
 1.099102042494151e-01  4.443759877826181e-03 -2.001641208709331e-18
 1.053671320666222e-01  3.158745763835585e-02 -2.199683454003127e-18
 1.053671320666222e-01  3.158745763835585e-02 -2.199683454003127e-18
 1.030635130361182e-01  3.844362470753545e-02 -2.229132431485195e-18
-1.099478126525434e-02 -1.094491424586285e-01  1.320215426679801e-18
 1.066844755486241e-01  2.680340793471907e-02 -2.173972779853296e-18
 1.053153737997919e-01  3.175959762670198e-02 -2.200531029752103e-18
 1.094686440843647e-01  1.079888708759455e-02 -2.059079742304383e-18
 1.037474722391491e-01 -3.655765315206813e-02 -1.470693417174017e-18
 1.097953932251616e-01 -6.706088765596742e-03 -1.885037365191600e-18
 7.069219568212434e-02  8.427700439408232e-02 -2.123967551587202e-18
 1.097534354629965e-01  7.360937716744156e-03 -2.028824263721921e-18
 7.905733629466341e-02 -7.648488463737409e-02 -6.210651974930344e-19
 1.035890338108988e-01  3.700421697758774e-02 -2.223695309006795e-18
 1.055219381008812e-01  3.106638986805086e-02 -2.197084629991243e-18
 1.099524145253112e-01 -3.235203247722469e-03 -1.923493834352124e-18
 1.058665040684831e-01  2.987111173555106e-02 -2.190935543796857e-18
 1.058665040684831e-01  2.987111173555106e-02 -2.190935543796857e-18
 9.160795141422133e-02  6.089321175377105e-02 -2.255928399341251e-18
-2.842007450563551e-03 -1.099632802059436e-01  1.180409670248852e-18
 1.077873322887327e-01  2.195201580899225e-02 -2.143753139359031e-18
 1.099736247098375e-01  2.408706744239822e-03 -1.981860419782295e-18
 1.095827262904593e-01  9.572152252770125e-03 -2.048505716453927e-18
 1.053177616383761e-01 -3.175167843566892e-02 -1.548018234479903e-18
 1.099328044976241e-01  3.844280854345014e-03 -1.995883977892101e-18
 1.039725482515836e-01  3.591252163343656e-02 -2.219303632871952e-18
 1.087173008574163e-01  1.674958191352734e-02 -2.106849920965171e-18
 8.057441456973349e-02 -7.488500328333200e-02 -6.645016147559565e-19
 9.952945967427165e-02  4.683894380691623e-02 -2.252498590306167e-18
 1.086384328497497e-01  1.725372156812415e-02 -2.110626222503023e-18
 1.099153328581519e-01  4.315043763579342e-03 -2.000409967104430e-18
 1.055398064652443e-01  3.100563257343281e-02 -2.196778359718430e-18
 1.055398064652443e-01  3.100563257343281e-02 -2.196778359718430e-18
 1.038168434841883e-01  3.636018439143963e-02 -2.221132253020168e-18
-1.202970017420437e-02 -1.093402319081072e-01  1.337514026818015e-18
 1.065522612539216e-01  2.732426799890467e-02 -2.176971516714066e-18
 1.051533548563447e-01  3.229197984725574e-02 -2.203117743307201e-18
 1.096094193513756e-01  9.261489591540379e-03 -2.045788805324306e-18
 9.645441597286232e-02 -5.288237550766760e-02 -1.173174189544647e-18
 1.006727400657506e-01  4.432831383725017e-02 -2.247048817728597e-18
 1.043640441790176e-01  3.475839873469407e-02 -2.214412576369194e-18
 1.096876644251621e-01  8.283494006333611e-03 -2.037132720386303e-18
 7.554024224157083e-02 -7.996043898131580e-02 -5.227642551622345e-19
 1.048473064266621e-01  3.327224571731750e-02 -2.207743122145507e-18
 1.047563262863481e-01  3.355759382000006e-02 -2.209055870119826e-18
 1.098844811144235e-01  5.039921647588195e-03 -2.007308780454250e-18
 1.052054322860296e-01  3.212190868409832e-02 -2.202297103869206e-18
 8.762251298119504e-02  6.650033999056118e-02 -2.242613974145969e-18
 1.556053710313262e-02 -1.088938459466923e-01  8.419263900472094e-19
 1.067338118698978e-01  2.660626624915997e-02 -2.172825219337680e-18
 1.097691604739783e-01 -7.122598461090699e-03 -1.880291036277612e-18
 1.095452895680342e-01  9.991473037318682e-03 -2.052147854056204e-18
 1.068413763553049e-01 -2.617098199349865e-02 -1.632472404436736e-18
 1.096246970652486e-01  9.078865201797109e-03 -2.044184291204205e-18
 1.076055322814566e-01  2.282650701321424e-02 -2.149502870816355e-18
 1.094820436365894e-01  1.066218181967781e-02 -2.057913606353061e-18
 8.026505241114062e-02 -7.521649660438044e-02 -6.555901726715392e-19
 9.988847672923525e-02  4.606834289089363e-02 -2.250970082575461e-18
 1.088211973186044e-01  1.606072894190335e-02 -2.101621168381374e-18
 1.098623304252419e-01  5.501668250165455e-03 -2.011658861120094e-18
 1.046920995212070e-01  3.375743322353771e-02 -2.209966155497084e-18
 1.046920995212070e-01  3.375743322353771e-02 -2.209966155497084e-18
 1.047975504621870e-01  3.342863169687482e-02 -2.208464464536000e-18
-1.124693169111505e-02 -1.094235190785569e-01  1.324439473361916e-18
 1.066712303474172e-01  2.685607224015054e-02 -2.174278172305243e-18
 1.067444101618028e-01  2.656371395736581e-02 -2.172576619244076e-18
 1.096279205357507e-01  9.039858351049717e-03 -2.043840875485532e-18
 1.043978783777182e-01 -3.465664424365265e-02 -1.501800346194102e-18
 1.099440177233870e-01 -3.508983733146280e-03 -1.920531408214718e-18
 9.184975376637959e-02  6.052786740878427e-02 -2.256477780204621e-18
 1.079719550190401e-01  2.102514992494253e-02 -2.137515510816109e-18
 8.128727469908818e-02 -7.411058609938870e-02 -6.851446663295372e-19
 9.959186476943963e-02  4.670610743516929e-02 -2.252244317950133e-18
 1.084989605314648e-01  1.811009562624057e-02 -2.116943078581447e-18
 1.098898470165223e-01  4.921536618297636e-03 -2.006187909912717e-18
 1.050956871815276e-01  3.247917079979767e-02 -2.204014797281579e-18
 1.050956871815276e-01  3.247917079979767e-02 -2.204014797281579e-18
 1.040436530454204e-01  3.570599754892864e-02 -2.218447067551129e-18
-1.082705451360857e-02 -1.094658617586290e-01  1.317402313796416e-18
 1.065088204355010e-01  2.749311130880107e-02 -2.177933239205422e-18
 1.050781465586640e-01  3.253587428971073e-02 -2.204285248734607e-18
 1.094736950543574e-01  1.074756210242496e-02 -2.058642284762703e-18
 1.056090322379524e-01 -3.076901541751162e-02 -1.563298247777667e-18
 1.087912440629682e-01 -1.626238651710189e-02 -1.768979845191224e-18
 7.675984330548716e-02  7.879039570732582e-02 -2.175575667668838e-18
 1.099660479464555e-01 -2.732818881263237e-03 -1.928898274207397e-18
 7.696438024888737e-02 -7.859061122618020e-02 -5.621829723404561e-19
 1.025885158649263e-01  3.969378304762188e-02 -2.233524213024269e-18
 1.063188591606167e-01  2.821879137711022e-02 -2.182008750807878e-18
 1.084850388321598e-01 -1.819330507589853e-02 -1.743691071110098e-18
 1.099374851857955e-01  3.708011734462717e-03 -1.994567160617329e-18
 1.099374851857955e-01  3.708011734462717e-03 -1.994567160617329e-18
 1.074944715881464e-01  2.334391950776711e-02 -2.152842638721259e-18
 9.672360433985379e-02 -5.238839913098456e-02 -1.183040145457675e-18
 1.073003599870319e-01  2.422050260942773e-02 -2.158394764166683e-18
 8.920903667018053e-02 -6.435641208440938e-02 -9.263424646159211e-19
 1.092680455324099e-01  1.266863155700357e-02 -2.074720796988145e-18
 1.244918318333358e-02 -1.092932652914522e-01  9.014005330770988e-19
 8.083126130077679e-02  7.460768858854611e-02 -2.205055611270777e-18
 1.071976369854105e-01  2.467116991032392e-02 -2.161197128622548e-18
 2.942569182083307e-02  1.059911725610453e-01 -1.612686080686292e-18
 1.051338285179484e-01 -3.235549568710906e-02 -1.538540922289541e-18
 1.099553220259252e-01  3.134829847857269e-03 -1.988995352799727e-18
 1.084728936260754e-01  1.826557823848095e-02 -2.118076714264691e-18
 1.094250866022397e-01 -1.123167049428867e-02 -1.831948608871260e-18
 1.099998870991048e-01 -1.576013456102764e-04 -1.955959906969444e-18
 1.004956650195879e-01 -4.472830549295032e-02 -1.328873144167948e-18
 9.137148675618489e-02  6.124746042052894e-02 -2.255360005048753e-18
 9.919718445404120e-02 -4.753860111941498e-02 -1.276890366958575e-18
 1.099696970581351e-01 -2.581807301469904e-03 -1.930514803626736e-18
 4.789301441408178e-02 -9.902655790409198e-02  1.651485885900893e-19
 6.059056295730977e-02  9.180840746095213e-02 -2.021579378153887e-18
 8.730066381893385e-02 -6.692229895015125e-02 -8.660171379063698e-19
 7.248941045535343e-02  8.273623977336186e-02 -2.140120335510077e-18
 1.091575818684054e-01 -1.358757964621723e-02 -1.802981932339927e-18
 8.473539445803113e-02  7.014209097283740e-02 -2.228651924545394e-18
 2.473848843875079e-02 -1.071821215957480e-01  6.610064522878598e-19
 9.837064367750697e-02 -4.922617659815647e-02 -1.244841862910526e-18
 1.220776815411820e-02 -1.093204939464473e-01  9.059765660309401e-19
 1.090555429905819e-01  1.438362065090979e-02 -2.088559950707434e-18
 8.968958639371723e-02 -6.368499110876799e-02 -9.417930267833677e-19
 1.099591179129554e-01  2.998731032402988e-03 -1.987664539249348e-18
 7.883642989978962e-02 -7.671256299104785e-02 -6.147945923146148e-19
 3.218018518415407e-02  1.051876213321390e-01 -1.653449378795409e-18
 8.822451701707121e-02 -6.569957836321663e-02 -8.950212174304921e-19
 5.224309283690341e-02  9.680216552760908e-02 -1.924335240183680e-18
 1.099099244128316e-01 -4.450675854920864e-03 -1.910249132624031e-18
 1.077836449824689e-01  2.197011320619511e-02 -2.143873463527681e-18
 1.096166899794740e-01 -9.175035582699997e-03 -1.856489596121773e-18
 1.074090314688458e-01  2.373394107442799e-02 -2.155329459795385e-18
 1.082775952297550e-01 -1.938974912837375e-02 -1.727706336752391e-18
 1.092239954284249e-01  1.304296065513287e-02 -2.077782968343073e-18
 1.098844509938308e-01 -5.040578318438862e-03 -1.903734769229189e-18
 9.927833800666801e-02 -4.736888855180909e-02 -1.280078326211450e-18
 1.087009203433779e-01  1.685556040309953e-02 -2.107647300659870e-18
 1.081694676087281e-01  1.998415065105992e-02 -2.130334593577313e-18
 9.758949916253812e-02 -5.075716356540130e-02 -1.215210129559150e-18
 1.095120580924192e-01 -1.034935420026456e-02 -1.842561849683140e-18
-1.622708288924033e-03  1.099880303388009e-01 -1.101209026583049e-18
 1.088097096980765e-01 -1.613837276246437e-02 -1.770582659472828e-18
 1.073903812306989e-01 -2.381818673041855e-02 -1.666416717695918e-18
 1.039480142243944e-01  3.598347313427416e-02 -2.219596021489325e-18
 1.099736734252472e-01 -2.406481530576491e-03 -1.932386976427763e-18
 1.055633398107397e-01  3.092541492045362e-02 -2.196372956429534e-18
 9.808098039481382e-02 -4.980081610568322e-02 -1.233782747082415e-18
 9.740486221848968e-02  5.111059397225751e-02 -2.258578497949318e-18
-1.767364465674834e-02 -1.085709090159373e-01  1.430050237981549e-18
 1.098586814519794e-01  5.574056837928301e-03 -2.012337689730789e-18
 9.914122435994316e-02 -4.765519523002022e-02 -1.274696528201325e-18
 9.253337000636341e-02  5.947752041961208e-02 -2.257851612889421e-18
 8.285735235573212e-02 -7.235094443473404e-02 -7.311657499627035e-19
 9.957934621276913e-02  4.673279156906199e-02 -2.252295705083670e-18
 1.098432855043387e-01 -5.869636241902542e-03 -1.894483911249181e-18
 1.099998177151001e-01 -2.002564472770887e-04 -1.955520406524071e-18
 1.032237665021847e-01 -3.801123556400644e-02 -1.446438417648229e-18
 1.059728395110896e-01 -2.949164773214298e-02 -1.582897121104131e-18
 9.802216419010849e-02 -4.991648352485752e-02 -1.231547601847830e-18
 8.280418213434337e-02 -7.241179062184865e-02 -7.295943499804342e-19
 6.347277931758888e-02  8.983989250717427e-02 -2.052646080272373e-18
 1.099999898875237e-01 -4.716719896093239e-05 -1.957096406951220e-18
 1.099191557865648e-01  4.216537817791389e-03 -1.999465887867117e-18
 5.600357927890576e-02 -9.467628587957641e-02 -2.388605253373795e-20
 7.604138856620521e-02  7.948400609508408e-02 -2.169916503344852e-18
 1.097521420968969e-01 -7.380196822748702e-03 -1.877341444369286e-18
 5.000779230337788e-02  9.797561282759185e-02 -1.896612145554032e-18
 1.098824603405124e-01 -5.083788893698140e-03 -1.903255370215229e-18
 8.740290868748504e-02  6.678870827443154e-02 -2.241668733146721e-18
 1.063696555708692e-01 -2.802670822152717e-02 -1.605010657528131e-18
 1.066483800605352e-01  2.694667011828369e-02 -2.174802384479564e-18
 1.088336013968020e-01 -1.597645789910879e-02 -1.772671457152630e-18
 6.246652181082669e-02  9.054244116908640e-02 -2.041956959917420e-18
 9.207498802293788e-02 -6.018468725993184e-02 -1.020208444671781e-18
 6.328211201656515e-02  8.997429798960847e-02 -2.050633895720805e-18
 1.089455322924713e-01 -1.519443955893251e-02 -1.782698355317455e-18
-2.013644551098659e-02  1.081412204581723e-01 -7.527596881011211e-19
 1.060047728014373e-01 -2.937665983932888e-02 -1.584646870924122e-18
 1.096183354101438e-01  9.155355913844474e-03 -2.044856992242554e-18
 6.129636614549392e-02 -9.133868565595588e-02 -1.523701381322435e-19
 9.350570953032594e-02  5.793688190807548e-02 -2.259326053530836e-18
 1.052485702656840e-01 -3.198028231628579e-02 -1.544438069640313e-18
 1.099910053334749e-01  1.406678972424621e-03 -1.971874257364952e-18
 1.094539111024763e-01 -1.094720714936796e-02 -1.835384332767730e-18
 1.097696667422178e-01  7.114791866415600e-03 -2.026584059502666e-18
 1.068314634135559e-01  2.621141783494417e-02 -2.170506121021139e-18
 1.099907693967920e-01  1.425007895309024e-03 -1.972058381614506e-18
 1.099961685146091e-01  9.181024483575821e-04 -1.966946196033209e-18
 1.007875936151497e-01  4.406655163803257e-02 -2.246403262136198e-18
 1.014226927093488e-01 -4.258447373849955e-02 -1.367397800190031e-18
 1.092235909545745e-01 -1.304634734275238e-02 -1.809717608070658e-18
 9.992236161851731e-02  4.599480023413763e-02 -2.250817480517373e-18
 1.099963627776030e-01 -8.945254037282642e-04 -1.948325560470660e-18
 1.086294801331735e-01 -1.730999844010464e-02 -1.755337231160167e-18
 1.079798496621276e-01 -2.098456735184930e-02 -1.706021421318393e-18
 1.089317755828003e-01 -1.529275215186577e-02 -1.781443412081030e-18
-4.732693111066595e-04  1.099989818869208e-01 -1.121777187472300e-18
 1.071688927063625e-01 -2.479573423176100e-02 -1.652431119743072e-18
 1.035961389519679e-01 -3.698432092447465e-02 -1.463616404446487e-18
 1.062936324651545e-01 -2.831366626494393e-02 -1.600709346025849e-18
 1.099999900964633e-01 -4.667738145021997e-05 -1.957101443366536e-18
 1.088585457297370e-01 -1.580560095683579e-02 -1.774870864326294e-18
 1.097412814298293e-01 -7.539970168307711e-03 -1.875506552759219e-18
 1.090352382038005e-01  1.453674068835392e-02 -2.089771855566836e-18
 1.096788439284016e-01 -8.399475848485291e-03 -1.865564294313207e-18
 1.099748904224158e-01  2.350207773285555e-03 -1.981281888971872e-18
 1.080204376051587e-01  2.077462537784918e-02 -2.135804267555241e-18
 9.485349575484664e-02 -5.570291144173039e-02 -1.115703922515952e-18
 1.099393861391398e-01  3.651215598822518e-03 -1.994017430688340e-18
 1.095204928772097e-01 -1.025970954428127e-02 -1.843633023014748e-18
 1.096077756668862e-01 -9.280922010097439e-03 -1.855243010719902e-18
-4.568665121519398e-03  1.099050831354373e-01 -1.047929958300292e-18
 1.074568020785693e-01 -2.351671080417384e-02 -1.670696311537997e-18
 1.034467359123329e-01 -3.740017151142529e-02 -1.456684885427509e-18
 1.065329474119680e-01 -2.739947290950728e-02 -1.614361245596372e-18
 1.099996501320232e-01 -2.774361772407990e-04 -1.954724430495132e-18
 1.097945655336409e-01  6.719626424065927e-03 -2.022966981828570e-18
 1.094650698532718e-01 -1.083505800714927e-02 -1.836735207744492e-18
 1.099640530754797e-01  2.811944382992491e-03 -1.985833201384905e-18
 1.099680137172857e-01 -2.652538232493316e-03 -1.929758111946621e-18
 1.047981692050848e-01 -3.342669189827786e-02 -1.521561312493440e-18
 1.071576554986550e-01 -2.484425221316875e-02 -1.651732635593922e-18
 1.098522856021518e-01  5.698714590436699e-03 -2.013504681076283e-18
 1.099995477058921e-01  3.154433374100788e-04 -1.960814229336794e-18
 1.096965506388058e-01  8.164972623829666e-03 -2.036073097008158e-18
 7.664966838266060e-03  1.097326217829877e-01 -1.263870054082970e-18
 9.834245192159900e-02 -4.928247305125786e-02 -1.243761731381077e-18
 1.084779319008342e-01 -1.823563244085442e-02 -1.743129696491107e-18
 1.041146328296836e-01 -3.549849617575549e-02 -1.488109931017717e-18
 1.099997270870942e-01 -2.450321708824832e-04 -1.955058739396296e-18
 1.080129961902267e-01 -2.081328071232483e-02 -1.708371211322098e-18
 1.099780310055638e-01 -2.198339404917705e-03 -1.934603109496461e-18
 1.099999310185806e-01 -1.231905331990806e-04 -1.956314247165966e-18
 1.099590174182654e-01 -3.002413763886730e-03 -1.926003168089102e-18
 1.089136772785535e-01  1.542111869038863e-02 -2.096695196600581e-18
 1.063151866541800e-01  2.823262450936547e-02 -2.182085524583854e-18
 9.476195942465138e-02 -5.585849126140706e-02 -1.112476398202169e-18
 1.086815523156172e-01 -1.697999370635156e-02 -1.759654596518717e-18
 9.933051152206811e-02  4.725938510776740e-02 -2.253277952255686e-18
 1.089400124645672e-01 -1.523396482272137e-02 -1.782194015668581e-18
 1.093450360329478e-01  1.198595406938140e-02 -2.069076671594726e-18
 1.071094889992233e-01 -2.505109511229433e-02 -1.648750219633058e-18
 1.099991157640701e-01  4.410568247570065e-04 -1.962097175367529e-18
 1.071490052302989e-01 -2.488153287394776e-02 -1.651195648503606e-18
 1.098499811687096e-01 -5.742964150514309e-03 -1.895904578306201e-18
 1.092270278824491e-01  1.301754124121193e-02 -2.077575759235785e-18
 1.095116408737431e-01 -1.035376806482968e-02 -1.842509073924146e-18
 1.096909715987044e-01  8.239584317923480e-03 -2.036740419387152e-18
 1.077419929759958e-01  2.217347400748091e-02 -2.145221674746220e-18
 9.204316703063305e-02 -6.023334129011064e-02 -1.019142249670795e-18
 1.098652620737660e-01  5.442810805335384e-03 -2.011106294438176e-18
 1.089100510987703e-01 -1.544670740524367e-02 -1.779474964672902e-18
 1.088146099331150e-01 -1.610529928638366e-02 -1.771009682952631e-18
-8.473275879900229e-04  1.099967364786728e-01 -1.115097303488242e-18
 1.073122747869867e-01 -2.416765772767863e-02 -1.661436032817305e-18
 1.037410071052861e-01 -3.657599547218014e-02 -1.470389901729124e-18
 1.062847443723852e-01 -2.834701242982579e-02 -1.600208552082467e-18
 1.099999713155662e-01 -7.943912494578389e-05 -1.956764494125059e-18
 1.089154608289287e-01 -1.540851687937739e-02 -1.779963631053780e-18
 1.097259502966442e-01 -7.759886049313318e-03 -1.872974161168379e-18
 1.091704347427815e-01  1.348392294816565e-02 -2.081360519424453e-18
 1.095235069628523e-01 -1.022748368651868e-02 -1.844017771245865e-18
 1.098863382043674e-01  4.999267549886682e-03 -2.006924123499609e-18
 1.073205387331906e-01  2.413093379912427e-02 -2.157833582036578e-18
 9.363768596254964e-02 -5.772333815346184e-02 -1.073307986491891e-18
 1.098683513158987e-01  5.380090996090559e-03 -2.010516847931235e-18
 1.087130343181540e-01 -1.677725154308171e-02 -1.762297958384111e-18
 1.080208547241438e-01 -2.077245639459607e-02 -1.708930518341504e-18
 3.270872189176570e-03  1.099513592236223e-01 -1.187919346078050e-18
 1.026119883166653e-01 -3.963306515651412e-02 -1.418887385182834e-18
 1.089901273752099e-01 -1.487118471190125e-02 -1.786813304133720e-18
 1.031191528650916e-01 -3.829412895452541e-02 -1.441670066368003e-18
 1.099999740515419e-01 -7.555567540865483e-05 -1.956804443848256e-18
 1.069115578309173e-01 -2.588278969057232e-02 -1.636682438731288e-18
 1.099004973980571e-01 -4.677678020087912e-03 -1.907749002867481e-18
 1.091054655176888e-01  1.399990693427587e-02 -2.085505862580869e-18
 1.095157975388021e-01 -1.030970850412640e-02 -1.843035742717769e-18
 1.099302118007985e-01  3.917720438156487e-03 -1.996592402804568e-18
 1.072054645279967e-01  2.463713407311022e-02 -2.160986723216776e-18
 9.395008894230442e-02 -5.721346683896235e-02 -1.084106312699188e-18
 1.098380936293087e-01  5.966002671738021e-03 -2.015998405927988e-18
 1.086646880645080e-01 -1.708758519636765e-02 -1.758249013578825e-18
 1.070979033574354e-01 -2.510057960369409e-02 -1.648035604144758e-18
 6.955561425470750e-03  1.097798714029875e-01 -1.251730811233930e-18
 9.774058990491319e-02 -5.046560298896225e-02 -1.220894648554555e-18
 1.099679417826512e-01  2.655518798162603e-03 -1.984295189508461e-18
 9.730826009580507e-02 -5.129427372648054e-02 -1.204686533104226e-18
 1.099886184482889e-01 -1.582343779555203e-03 -1.941120656945894e-18
 1.048264902772764e-01 -3.333777041357208e-02 -1.522978955708404e-18
 1.099290046443155e-01  3.951447571465252e-03 -1.996917454057648e-18
 1.089467089500945e-01  1.518600042616102e-02 -2.094867279844069e-18
 1.095735655745574e-01 -9.676452205128363e-03 -1.850570272250516e-18
 1.099884747719310e-01 -1.592299389016064e-03 -1.941015809783102e-18
 1.069590867920432e-01  2.568567212692981e-02 -2.167375485114549e-18
 9.513843060971622e-02 -5.521484420986964e-02 -1.125789391647438e-18
 1.098765360756986e-01  5.210261030472139e-03 -2.008917564292655e-18
 1.087646307789140e-01 -1.643943708058404e-02 -1.766687099833640e-18
 1.077330837449750e-01 -2.221672043300205e-02 -1.688970002166803e-18
 4.886892599429218e-03  1.098913931148460e-01 -1.216062226953715e-18
 9.807150991741302e-02 -4.981946349087599e-02 -1.233422613531481e-18
 1.099877599246000e-01  1.640934724023351e-03 -1.974223394192013e-18
 9.707243486843271e-02 -5.173917653687444e-02 -1.195918527124309e-18
 1.099579911114616e-01 -3.039768203613197e-03 -1.925601100436917e-18
 1.043106000839261e-01 -3.491845801479772e-02 -1.497557083457707e-18
 1.062327318148266e-01 -2.854131551206259e-02 -1.597286532992664e-18
 1.046359705874985e-01  3.393101323586015e-02 -2.210750745738677e-18
 1.097100342838089e-01 -7.981752780275266e-03 -1.870411316671881e-18
 1.091334475927370e-01 -1.378008042513924e-02 -1.800574558542612e-18
 1.002361660074377e-01 -4.530685405244269e-02 -1.318310673426493e-18
 1.092557043539744e-01  1.277462586993858e-02 -2.075590224057494e-18
-2.465626215582225e-02 -1.072010668627105e-01  1.540239615045349e-18
 1.085077717053187e-01  1.805722790315242e-02 -2.116556687281132e-18
 1.099735120361388e-01 -2.413845570289236e-03 -1.932308441483164e-18
 1.055617617753601e-01 -3.093080100615061e-02 -1.560794725358407e-18
 1.513792415835370e-02  1.089533994521323e-01 -1.388854017279770e-18
 9.572601878700082e-02 -5.418975297222461e-02 -1.146778664243199e-18
 1.099996316814014e-01  2.846576118774182e-04 -1.960499411634877e-18
 1.003554656031858e-01 -4.504198623026926e-02 -1.323155172692454e-18
 1.099941270996638e-01 -1.136663355163324e-03 -1.945797894425725e-18
 1.058175512790586e-01 -3.004406499300250e-02 -1.574457695102715e-18
 1.056193419634495e-01 -3.073360706470840e-02 -1.563845529602982e-18
 1.024638142169053e-01  4.001458204359368e-02 -2.234601091594719e-18
 1.097239144456916e-01 -7.788619820900729e-03 -1.872642701707323e-18
 1.076951796900321e-01  2.239973820230162e-02 -2.146713358888051e-18
 1.000759431677361e-01 -4.565967147371969e-02 -1.311834246038153e-18
 1.097341393117603e-01  7.643210680541110e-03 -2.031381117854699e-18
 9.617784053296639e-02 -5.338373338775827e-02 -1.163100929591640e-18
 1.085266259737954e-01 -1.794356304483245e-02 -1.746997172547499e-18
 1.360795075789421e-02  1.091550442085509e-01 -1.363698142220679e-18
 9.795927256473025e-02 -5.003979335078090e-02 -1.229161406687952e-18
 1.099984599783093e-01  5.820673502619282e-04 -1.963534336802134e-18
 9.971527148668166e-02 -4.644205671950076e-02 -1.297376939066849e-18
 1.099234088670785e-01  4.104166546457135e-03 -1.998387002516431e-18
 1.099190095826061e-01  4.220347423958678e-03 -1.999502428312723e-18
 7.734848500848621e-02 -7.821260682838767e-02 -5.729024325833759e-19
 1.047658583302410e-01  3.352782319697840e-02 -2.208919621874403e-18
 1.096169012214669e-01  9.172511466504250e-03 -2.045007736215741e-18
 1.063728268818040e-01 -2.801466939254732e-02 -1.605190789383497e-18
 1.081996658712494e-01  1.981999761225915e-02 -2.129185394839105e-18
 1.090489205340997e-01  1.443374276989721e-02 -2.088957082759445e-18
 1.071812588440174e-01  2.474222610461132e-02 -2.161635736643521e-18
 5.920758262035292e-02  9.270632211588403e-02 -2.006193340271754e-18
 9.387773154333995e-02 -5.733211595847967e-02 -1.081599549872380e-18
 1.094547707948443e-01 -1.093860824090852e-02 -1.835487982679579e-18
 9.931590610293752e-02 -4.729007078608002e-02 -1.281556719208038e-18
 1.099115153648148e-01  4.411211875442351e-03 -2.001330122671090e-18
 1.096685346587936e-01 -8.533024422380650e-03 -1.864008665480800e-18
 1.099607587287457e-01 -2.937948229381214e-03 -1.926696516734767e-18
 1.072051797243142e-01 -2.463837332855904e-02 -1.654693716627922e-18
 1.083097849481359e-01 -1.920912503183100e-02 -1.730135038164666e-18
 2.382010397322396e-02  1.073899559861385e-01 -1.527299949905626e-18
 7.260900982909876e-02 -8.263129970923731e-02 -4.431573541497367e-19
 1.094588132934784e-01  1.089808205068273e-02 -2.059923983865003e-18
 7.032910915680045e-02 -8.458023649299416e-02 -3.825591846621957e-19
 1.059113848006391e-01  2.971158981964631e-02 -2.190095220225084e-18
 9.460657258335230e-02 -5.612126534595292e-02 -1.107011195748730e-18
 1.098269171761116e-01  6.168327454951288e-03 -2.017878321260289e-18
 1.080642858569198e-01  2.054531874257188e-02 -2.134228557122496e-18
 1.097585377610421e-01 -7.284462132364842e-03 -1.878438902007788e-18
 1.096719614864224e-01 -8.488867045763687e-03 -1.864523350969746e-18
 1.028795455334302e-01  3.893326483657424e-02 -2.230889384784080e-18
 5.354051620588798e-02 -9.609065055668535e-02  3.447917615759851e-20
 9.764162737547474e-02  5.065681201446560e-02 -2.258129571571282e-18
 1.099038186394194e-01  4.598983417405994e-03 -2.003122434643331e-18
 1.093806546190667e-01 -1.165643149100115e-02 -1.826793623792627e-18
 1.094311501404207e-01 -1.117243836164150e-02 -1.832665105411647e-18
 1.062429498828166e-01  2.850325595782493e-02 -2.183580624890547e-18
 1.038598867101950e-01  3.623705192955714e-02 -2.220633117255442e-18
-1.877583058162895e-02 -1.083857379269521e-01  1.447762385577807e-18
 1.054165439825544e-01 -3.142216184119299e-02 -1.553161847430675e-18
 9.177489595115638e-02  6.064130995579155e-02 -2.256311177049153e-18
 1.055984350207503e-01 -3.080536513609848e-02 -1.562736177503072e-18
 9.209683360283986e-02  6.015125302377994e-02 -2.257005284629261e-18
 1.096495100733826e-01 -8.774106260305814e-03 -1.861193071983528e-18
 1.067462613533578e-01  2.655627396832211e-02 -2.172533120221292e-18
 1.032348555084552e-01 -3.798110856923941e-02 -1.446945303669212e-18
 8.260942289653053e-02 -7.263389875741312e-02 -7.238462966189437e-19
 7.764023625169345e-02  7.792299862544556e-02 -2.182331120401567e-18
 1.097374303878624e-01 -7.595812785278952e-03 -1.874864256270378e-18
 1.067452989074973e-01  2.656014234052628e-02 -2.172555738468285e-18
 5.192185782944178e-03 -1.098773917000006e-01  1.036549144928266e-18
 9.631176177085883e-02  5.314174013516408e-02 -2.259994760552787e-18
 1.089730788783209e-01  1.499560201456492e-02 -2.093380289659202e-18
 1.074306704137966e-01  2.363580027082167e-02 -2.154706189527348e-18
 9.696554642392237e-02 -5.193922223820952e-02 -1.191960922842767e-18
 1.096129073930117e-01  9.220115663645988e-03 -2.045425777106757e-18
 1.099682920261725e-01  2.640974980267746e-03 -1.984151990064192e-18
 1.050752743677195e-01  3.254514889424265e-02 -2.204329427863044e-18
 1.099609796091350e-01 -2.929669503434327e-03 -1.926785508466450e-18
 1.036314552475836e-01 -3.688524750178638e-02 -1.465262843481348e-18
 1.075844302026850e-01  2.292575795832238e-02 -2.150147101559095e-18
 1.052422063451960e-01 -3.200121878296448e-02 -1.544109701494566e-18
 9.600807451678381e-02  5.368844966638219e-02 -2.260207525444559e-18
 1.047896407978522e-01 -3.345341808331525e-02 -1.521134937471284e-18
 6.378057614584094e-02  8.962163860644677e-02 -2.055881212439899e-18
 9.540262668390125e-02 -5.475708923794378e-02 -1.135194341979276e-18
 7.918534712410770e-02  7.635234640032049e-02 -2.193690330411079e-18
 1.068287766403130e-01 -2.622236605522236e-02 -1.631720224911123e-18
 1.092412101349354e-01  1.289798465865327e-02 -2.076599748881684e-18
 1.094737092648532e-01 -1.074741735461803e-02 -1.837789432246459e-18
 1.078273294270040e-01  2.175470129972597e-02 -2.142437601240899e-18
 1.044164550762426e-01 -3.460063452179689e-02 -1.502706420248770e-18
 1.099808991280246e-01 -2.049835844950498e-03 -1.936179971288433e-18
 8.871958015940748e-02  6.502950173835287e-02 -2.247025264483449e-18
 1.046373776545971e-01  3.392667383592449e-02 -2.210731200418147e-18
 8.500009393904125e-02 -6.982108585774160e-02 -7.952917702455975e-19
 1.086355405419625e-01 -1.727192320373079e-02 -1.755836292585780e-18
 1.095532066378015e-01  9.904287726794159e-03 -2.051392950362831e-18
 1.095532066378015e-01  9.904287726794159e-03 -2.051392950362831e-18
 9.278781898219743e-02 -5.907978206228365e-02 -1.044246621412683e-18
 1.098723854541215e-01 -5.297066605293899e-03 -1.900884724585198e-18
 9.678784759853959e-02 -5.226961409118918e-02 -1.185403904010807e-18
 9.015342312047626e-02  6.302666340256584e-02 -2.251963773999220e-18
 1.059847147156522e-01  2.944894304795640e-02 -2.188701613366787e-18
 1.084912911691540e-01 -1.815598359907280e-02 -1.744185803521526e-18
 1.099600959248062e-01 -2.962651550113590e-03 -1.926430903701527e-18
 1.098671070960421e-01  5.405439699671146e-03 -2.010755154275556e-18
 1.099530852089701e-01 -3.212328287850077e-03 -1.923740801870725e-18
 1.091150917023754e-01  1.392468178387544e-02 -2.084904260926680e-18
 1.091522421501142e-01 -1.363040841658159e-02 -1.802446855626462e-18
 8.690442792299530e-02  6.743604679529244e-02 -2.239448841475497e-18
 1.099872178111891e-01  1.676877501191779e-03 -1.974583045615630e-18
 1.099941927308847e-01  1.130294422244074e-03 -1.969091230053432e-18
 1.079005088607771e-01 -2.138878649164828e-02 -1.700456252297064e-18
 8.643114810609925e-02  6.804158020696978e-02 -2.237247898417220e-18
 1.079005088608069e-01 -2.138878649149827e-02 -1.700456252299134e-18
 1.095250923248157e-01 -1.021049221343265e-02 -1.844220565866534e-18
 1.099997768347168e-01 -2.215768771338265e-04 -1.955300619337211e-18
 1.047163021476232e-01 -3.368228116573552e-02 -1.517478303676505e-18
 1.099945048737373e-01  1.099498786427236e-03 -1.968780371036989e-18
 1.099173828199216e-01 -4.262505603372188e-03 -1.912315244852691e-18
 1.099993848700771e-01  3.678698202015094e-04 -1.961349994544866e-18
-2.364019693902909e-02  1.074297030093814e-01 -6.830956687007565e-19
 1.027322026715584e-01 -3.932040862262023e-02 -1.424239175331598e-18
 1.027322026715584e-01 -3.932040862262023e-02 -1.424239175331598e-18
 1.888736315753239e-02  1.083663578466835e-01 -1.449548117522351e-18
 9.610156216435257e-02 -5.352092814564263e-02 -1.160333838735701e-18
 1.080258359253828e-01  2.074653640061983e-02 -2.135611733065870e-18
 5.116458658947170e-02 -9.737651194784307e-02  8.997343647058725e-20
 1.069580313100065e-01  2.569006691870715e-02 -2.167401856441690e-18
 1.018601458697598e-01 -4.152722821705328e-02 -1.386045614658318e-18
 1.090682341479035e-01 -1.428706757379086e-02 -1.794204898723944e-18
 1.091044947991835e-01  1.400746995766564e-02 -2.085566294805052e-18
 1.099832564953139e-01  1.919190111989782e-03 -1.977002223325100e-18
 1.029684900737581e-01  3.869741660537999e-02 -2.230049004077510e-18
 9.887935114559554e-02 -4.819620230916520e-02 -1.264477530772537e-18
 8.664518141929549e-02  6.776881684681628e-02 -2.238254332095287e-18
 1.047136362780697e-01 -3.369056807808522e-02 -1.517345716333841e-18
-2.815936857779519e-02  1.063346131854527e-01 -5.914199685998429e-19
 1.054366561175536e-01  3.135460965709354e-02 -2.198528289000293e-18
 3.663800089640014e-03  1.099389674724259e-01 -1.194784646026189e-18
 9.108301232098120e-02 -6.167564240878200e-02 -9.872360312510007e-19
 1.061483617058900e-01 -2.885351464129655e-02 -1.592577333623977e-18
 1.097474487547114e-01 -7.449663873757096e-03 -1.876544172032957e-18
 1.097474487547114e-01 -7.449663873757096e-03 -1.876544172032957e-18
 1.095477891816077e-01 -9.964029577534566e-03 -1.847156797557956e-18
 3.582909813631549e-02  1.040013256008703e-01 -1.706197379668617e-18
 1.099792204741142e-01 -2.138004655314405e-03 -1.935244195142448e-18
 1.099792204741142e-01 -2.138004655314405e-03 -1.935244195142448e-18
 1.081650385548626e-01 -2.000810921664150e-02 -1.719349831185827e-18
 1.091876222540109e-01 -1.334403036999695e-02 -1.806018917173912e-18
 1.071095921708380e-01  2.505065398341366e-02 -2.163529327118845e-18
 1.094391992044947e-01  1.109331679340758e-02 -2.061580893813297e-18
 1.072694285019531e-01 -2.435712850202875e-02 -1.658726788689107e-18
 1.095930478360261e-01  9.453246321261885e-03 -2.047467685418156e-18
 1.099994564526185e-01 -3.458035980968673e-04 -1.954018533325731e-18
 1.099994564526185e-01 -3.458035980968673e-04 -1.954018533325731e-18
 1.099857809511253e-01 -1.768612046509774e-03 -1.939156321522162e-18
 1.093047872494286e-01 -1.234761047154957e-02 -1.818341860512491e-18
 1.092841164126773e-01  1.252924179271650e-02 -2.073574618280813e-18
 1.095759529250647e-01 -9.649380320205733e-03 -1.850890911783665e-18
 4.537990435146402e-02  1.002031151264867e-01 -1.837140136038327e-18
 7.062627580544763e-02 -8.433225459960622e-02 -3.903955435179026e-19
 1.057678925934979e-01 -3.021841981855202e-02 -1.571782527063745e-18
 1.093595510132493e-01 -1.185278879338063e-02 -1.824400560002865e-18
 1.089066045827193e-01  1.547098827687410e-02 -2.097081721426537e-18
 1.076391575288560e-01  2.266741640500953e-02 -2.148466673997246e-18
 1.019915966919229e-01  4.120332758688440e-02 -2.238411346076211e-18
 1.071002906672577e-01  2.509039136778998e-02 -2.163772082956409e-18
 4.176294674046387e-02 -1.017637277204071e-01  3.023638805785436e-19
 1.096586959655403e-01 -8.658544862570977e-03 -1.862543897273374e-18
 1.093746301466220e-01 -1.171282546141688e-02 -1.826106983559519e-18
 1.011561625769513e-01 -4.321377989374869e-02 -1.356188686419135e-18
 7.048163793241186e-02  8.445317468493634e-02 -2.122030511009582e-18
 1.059401143400450e-01 -2.960898805461214e-02 -1.581109108462413e-18
 1.099949557859998e-01 -1.053423768436672e-03 -1.946667898402620e-18
 8.947879469561830e-02  6.398081978076986e-02 -2.249761566621241e-18
 1.074346306865095e-01 -2.361779264142330e-02 -1.669263166011706e-18
 1.026569757783406e-01  3.951639310520576e-02 -2.232919921627790e-18
 1.099021690672593e-01 -4.638236120716499e-03 -1.908184003402900e-18
 1.095117331307872e-01 -1.035279221713630e-02 -1.842520742228847e-18
 1.099984390462236e-01 -5.860097219264689e-04 -1.951532396703004e-18
 1.099942929665964e-01  1.120497558467560e-03 -1.968992354651104e-18
 1.093168681385900e-01 -1.224019364103687e-02 -1.819660523257777e-18
 1.099425697438171e-01  3.554062200622154e-03 -1.993075870857658e-18
 3.895398726698605e-03  1.099310050384331e-01 -1.198824408916750e-18
 1.048942286580360e-01 -3.312402140796952e-02 -1.526380634378944e-18
 1.034294072759831e-01 -3.744806684648456e-02 -1.455884394504594e-18
 1.057425194599021e-01 -3.030708792134599e-02 -1.570419949339619e-18
 1.099984708703796e-01  5.800053260268420e-04 -1.963513344089574e-18
 1.097541284992809e-01  7.350597075292777e-03 -2.028730350794832e-18
 1.097751828035128e-01 -7.029170680480287e-03 -1.881358147321499e-18
 1.093709577626430e-01 -1.174706763759040e-02 -1.825689803185056e-18
 1.099183690747464e-01  4.236996571606247e-03 -1.999662093655251e-18
 1.093509613861017e-01 -1.193177455097343e-02 -1.823436147375699e-18
 1.085333325000633e-01  1.790295328795396e-02 -2.115426456486028e-18
 1.099871376409448e-01 -1.682127685943714e-03 -1.940069060823339e-18
 1.094233235444313e-01  1.124883391692949e-02 -2.062896249454555e-18
 1.071551990313590e-01 -2.485484501158294e-02 -1.651580082672564e-18
 1.037038195332927e-01  3.668130060679741e-02 -2.222420209454584e-18
 1.099971993573721e-01 -7.849417395525251e-04 -1.949466380746351e-18
 1.022696298291618e-01 -4.050830550154116e-02 -1.403801930922389e-18
 1.093951197568192e-01 -1.151988599731553e-02 -1.828454003518115e-18
 1.099927413281392e-01  1.263667330043287e-03 -1.970435758787350e-18
 1.097017874669852e-01 -8.094308281030709e-03 -1.869108087847282e-18
 1.099818132596698e-01  2.000188019930776e-03 -1.977808763305128e-18
 3.668591220160116e-03  1.099388076998261e-01 -1.194868268303439e-18
 1.004708761418471e-01 -4.478395970980659e-02 -1.327860169658695e-18
 1.083820554973199e-01 -1.879707546869547e-02 -1.735654838370206e-18
 1.045247444671863e-01 -3.427211394223265e-02 -1.508008988745751e-18
 1.099989074526646e-01  4.902644389336112e-04 -1.962599058577530e-18
 1.099750977204225e-01 -2.340487424339328e-03 -1.933090388927181e-18
 1.096365984331265e-01 -8.933995971195112e-03 -1.859320485247587e-18
 1.099650438810737e-01  2.772927015539171e-03 -1.985449944675638e-18
 1.099799741876709e-01 -2.098875336743991e-03 -1.935659647907999e-18
 1.057327818843957e-01 -3.034104208801615e-02 -1.569897790840125e-18
 1.082320857304765e-01 -1.964218975651043e-02 -1.724302705177400e-18
 1.099061006257151e-01  4.544122054935425e-03 -2.002599364741695e-18
 1.099948951321951e-01 -1.059738107918874e-03 -1.946601941451453e-18
 1.099868543091729e-01 -1.700552608047024e-03 -1.939874709215122e-18
-2.082991211395767e-03  1.099802761753816e-01 -1.092938071720054e-18
 1.055170245366358e-01 -3.108307470207825e-02 -1.558434015921825e-18
 1.028485567104118e-01 -3.901505328184462e-02 -1.429447249444712e-18
 1.071644084660339e-01 -2.481510745745405e-02 -1.652152264481173e-18
 1.099991395769917e-01 -4.350773741075855e-04 -1.953095638528073e-18
 1.098199987253342e-01  6.290300467192790e-03 -2.019008427567549e-18
 1.097557989750673e-01 -7.325612011605821e-03 -1.877967361983800e-18
 1.099999876285994e-01 -5.216999081747647e-05 -1.957044964882013e-18
 1.099805753615944e-01 -2.067134038378797e-03 -1.935996476825068e-18
 1.055705856046014e-01 -3.090067078724167e-02 -1.561261332979042e-18
 1.076632886031122e-01 -2.255252285583460e-02 -1.684277666455521e-18
 1.098873578912447e-01  4.976803761598715e-03 -2.006711462779710e-18
 1.099954600221392e-01 -9.993870711361157e-04 -1.947232079320968e-18
 1.099804713520497e-01  2.072660411385102e-03 -1.978529509953386e-18
-8.255609508288106e-04  1.099969019978128e-01 -1.115486367409745e-18
 1.051250814458717e-01 -3.238390419635667e-02 -1.538093370595530e-18
 1.028105822604519e-01 -3.911501214708758e-02 -1.427744407781942e-18
 1.070119898068059e-01 -2.546436799899097e-02 -1.642768876422172e-18
 1.099999832190809e-01 -6.076019974099383e-05 -1.956956625133262e-18
 1.099934008137252e-01  1.204897269959630e-03 -1.969843654102140e-18
 1.081437267952981e-01 -2.012298076388995e-02 -1.717790299584366e-18
 1.093143584133462e-01  1.226258719351083e-02 -2.071373031617842e-18
 1.099999727830352e-01  7.738043354871346e-05 -1.958375784235881e-18
 1.014984895690092e-01 -4.240349767660308e-02 -1.370606159014006e-18
 1.082769697988440e-01 -1.939324137889781e-02 -1.727659324857789e-18
 1.098423384847139e-01  5.887331841292988e-03 -2.015265633989414e-18
 1.095659517399506e-01 -9.762285558146191e-03 -1.849552868460125e-18
 1.099564908601009e-01  3.093560688348566e-03 -1.988592127976077e-18
-6.491175993254563e-04  1.099980847394272e-01 -1.118638539559428e-18
 1.054403373911958e-01 -3.134222791747183e-02 -1.554406571547777e-18
 1.030123886372625e-01 -3.858040677916118e-02 -1.436828668929228e-18
 1.070896230721530e-01 -2.513588331975147e-02 -1.647525513733418e-18
 1.099994998125452e-01 -3.317242677678177e-04 -1.954163964971861e-18
 1.098091812895055e-01  6.476395952107640e-03 -2.020727981897799e-18
 1.095714189734151e-01 -9.700729052617643e-03 -1.850282635133763e-18
 1.099937665697890e-01  1.171031934123898e-03 -1.969502209144182e-18
 1.099859632780695e-01 -1.757236977503767e-03 -1.939276440949421e-18
 1.060992028976707e-01 -2.903375870394413e-02 -1.589850551726784e-18
 1.074664523715818e-01 -2.347257153927776e-02 -1.671321564925713e-18
 1.098012067560068e-01  6.610218977054608e-03 -2.021961048529069e-18
 1.099416014668651e-01  3.583889911949430e-03 -1.993365108112627e-18
 1.099239519771560e-01 -4.089594322651592e-03 -1.914208751437327e-18
-3.246539099260988e-03  1.099520803981304e-01 -1.071941647756796e-18
 1.056105464859086e-01 -3.076381756134450e-02 -1.563378601710195e-18
 1.026588521779926e-01 -3.951151818770095e-02 -1.420970234446402e-18
 1.072165945499777e-01 -2.458865293393818e-02 -1.655407716059430e-18
 1.099989070711835e-01 -4.903500230421830e-04 -1.952523594421044e-18
 1.098713778153845e-01  5.317926000706987e-03 -2.009931985354924e-18
 1.094081123574264e-01 -1.139583039469849e-02 -1.829959848595087e-18
 1.099559111022525e-01  3.114099175284673e-03 -1.988792835985825e-18
 1.099626783690307e-01 -2.865199104613904e-03 -1.927478149852772e-18
 1.058690765051245e-01 -2.986199323474652e-02 -1.577245369136682e-18
 1.087691742645788e-01 -1.640934885367643e-02 -1.767077102181993e-18
 1.099570285311521e-01  3.074390443543996e-03 -1.988404729172425e-18
 1.099468372331998e-01 -3.419500316747042e-03 -1.921500994351803e-18
 1.099996807465043e-01  2.650201257979173e-04 -1.960298516771183e-18
-4.999346243624552e-04  1.099988639276394e-01 -1.121301434426612e-18
 1.052880850531118e-01 -3.184994734451935e-02 -1.546480426905463e-18
 1.030459372862398e-01 -3.849071068193335e-02 -1.438347301971041e-18
 1.071595793285030e-01 -2.483595293396717e-02 -1.651852144519800e-18
 1.099995674762654e-01 -3.084720967714337e-04 -1.954404076738613e-18
 1.098537213579973e-01  5.670970269668152e-03 -2.013245169247009e-18
 1.093267166828589e-01 -1.215191422558005e-02 -1.820742828775238e-18
 1.099693145437686e-01  2.598049032184460e-03 -1.983729138461733e-18
 1.099548143367826e-01 -3.152586900249609e-03 -1.924385394817982e-18
 1.058711558242035e-01 -2.985462048740816e-02 -1.577358125400589e-18
 1.084863664393702e-01 -1.818538690219875e-02 -1.743796053822353e-18
 1.099112608648048e-01  4.417548540627804e-03 -2.001390700472684e-18
 1.099974268117517e-01  7.523927121385630e-04 -1.965265981589778e-18
 1.099999991529098e-01 -1.365136694316704e-05 -1.957440934838455e-18
-1.047740160772685e-03  1.099950100711640e-01 -1.111512984484806e-18
 1.052912938387300e-01 -3.183933796055104e-02 -1.546646538639305e-18
 1.030138106682354e-01 -3.857660964378432e-02 -1.436892989853257e-18
 1.047583326922516e-01 -3.355132980284815e-02 -1.519571765036793e-18
 1.099975214418563e-01 -7.384284991262305e-04 -1.949950019272391e-18
 1.093501589224407e-01  1.193912658601652e-02 -2.068686704143569e-18
 1.094574414732802e-01  1.091185163587775e-02 -2.060041048173991e-18
 1.061107628217261e-01 -2.899148173845795e-02 -1.590490654826882e-18
 1.099749751562344e-01 -2.346239413528484e-03 -1.933029108151869e-18
 1.092153847748422e-01  1.311486669711682e-02 -2.078368539951382e-18
 1.099683410167853e-01 -2.638934257608072e-03 -1.929903712531645e-18
 1.098262397997542e-01 -6.180376319194489e-03 -1.890987821192066e-18
 1.094888993562514e-01  1.059154935581237e-02 -2.057309889154785e-18
 1.096764886497658e-01  8.430174224638078e-03 -2.038440920090524e-18
 1.092106490634815e-01 -1.315424384497454e-02 -1.808378694316395e-18
 1.093522889290532e-01  1.191960175412055e-02 -2.068523999597085e-18
 1.076418375520914e-01 -2.265468623506245e-02 -1.682846227806337e-18
 8.857638895472604e-02  6.522440739279319e-02 -2.246479590987208e-18
 9.812983272496927e-02 -4.970448600850344e-02 -1.235641889325250e-18
 1.099523341290136e-01 -3.237934462233154e-03 -1.923464341367185e-18
 1.097810666478439e-01 -6.936671079244682e-03 -1.882413257150108e-18
 1.089602046400408e-01  1.508886360202147e-02 -2.094109406163904e-18
 8.241156561149611e-02  7.285831355076811e-02 -2.215204818520066e-18
 1.094886574266781e-01 -1.059404997644897e-02 -1.839631246713644e-18
 1.087142221408332e-01 -1.676955289545696e-02 -1.762398197913221e-18
 1.083944376766545e-01  1.872554086700327e-02 -2.121406445975884e-18
 1.047166396336403e-01  3.368123192281262e-02 -2.209619935387144e-18
-1.859927366921189e-03 -1.099842746495595e-01  1.163148093974380e-18
 1.093659871796328e-01  1.179325435256822e-02 -2.067469602653465e-18
 1.096064108005679e-01 -9.297027020348953e-03 -1.855053248165854e-18
 1.099999800662174e-01 -6.622259234957158e-05 -1.956900444924571e-18
 1.098755849417262e-01  5.230280462219177e-03 -2.009106330117776e-18
 1.099812138472497e-01 -2.032879899430467e-03 -1.936359788273060e-18
 1.053611628463663e-01  3.160736249137938e-02 -2.199781739742281e-18
 3.755407527092595e-02 -1.033909639695152e-01  3.939850302337221e-19
 1.084704777072611e-01  1.827991974704809e-02 -2.118181073898247e-18
 1.083077441200784e-01  1.922062859584958e-02 -2.124950477287456e-18
 1.062627234767545e-01 -2.842944950755749e-02 -1.598969652950587e-18
 9.715770467702285e-02  5.157887573311751e-02 -2.258991459658174e-18
 6.126694623547003e-03  1.098292475299260e-01 -1.237487459552943e-18
 1.013435595441520e-01 -4.277245537633872e-02 -1.364058088081459e-18
 1.099154819282373e-01  4.311244887883218e-03 -2.000373587916664e-18
 9.591502983697901e-02 -5.385449889629823e-02 -1.153586955180015e-18
 6.915537015399656e-02  8.554259043811854e-02 -2.109621344973528e-18
 1.091264271092672e-01 -1.383556671646532e-02 -1.799879519178142e-18
 1.072912764787984e-01  2.426070880147576e-02 -2.158646216319999e-18
 1.097339234512266e-01 -7.646309175040646e-03 -1.874283014088811e-18
 8.318143455453507e-02  7.197811435047155e-02 -2.219861827662545e-18
 1.094782960592942e-01 -1.070059306550291e-02 -1.838352162285594e-18
 1.099984906836485e-01  5.762354720576635e-04 -1.963474962810276e-18
 1.098432442942431e-01  5.870407389202133e-03 -2.015107861353412e-18
 1.069309125504367e-01  2.580271189489227e-02 -2.168076631976320e-18
 7.469611318871640e-02  8.074955525882747e-02 -2.158978781219477e-18
 5.692694556362034e-02 -9.412397605709488e-02 -4.599323978902081e-20
 1.091386665362382e-01  1.373868504230896e-02 -2.083412754264057e-18
 1.087518492757189e-01 -1.652377920184396e-02 -1.765593053081092e-18
 1.092976094858300e-01  1.241098548395602e-02 -2.072599702999311e-18
 4.768829653521818e-02  9.912530642358221e-02 -1.867146635612877e-18
 8.948393676863106e-02 -6.397362785076052e-02 -9.351676087267181e-19
 1.076828250280641e-01 -2.245905594577187e-02 -1.685585678988466e-18
 2.460923342682262e-02 -1.072118726174677e-01  6.636123803465535e-19
 1.028569958603667e-01  3.899279936835100e-02 -2.231099782140503e-18
 9.226511657193198e-02  5.989280644591437e-02 -2.257344636098139e-18
 1.098877344025792e-01 -4.968483457573260e-03 -1.904533949909848e-18
 1.079589546116002e-01 -2.109180217929259e-02 -1.704547770073111e-18
 1.082633858369081e-01  1.946893132990962e-02 -2.126712289117140e-18
 1.099830848623308e-01 -1.929000820452342e-03 -1.937460405018455e-18
 1.028982871247764e-01 -3.888370490047266e-02 -1.431681818392397e-18
 1.021289061271993e-01  4.086179796902813e-02 -2.237345838510062e-18
 1.098817962767661e-01  5.098121908234447e-03 -2.007858987101195e-18
 1.075325568579242e-01 -2.316784874772056e-02 -1.675628889098625e-18
 1.091507314762311e-01  1.364250043810325e-02 -2.082639202395719e-18
 1.098581732183537e-01  5.584064570379516e-03 -2.012431470922590e-18
-2.152990707318414e-02  1.078724390260089e-01 -7.251997458458361e-19
-1.091649693239929e-01 -1.352809936730385e-02  2.081717152436338e-18
-1.095120070033743e-01  1.034989478655935e-02  1.842555386164846e-18
-1.079267701297002e-01  2.125587658439003e-02  1.702289203917830e-18
-9.168313449963940e-02 -6.077995432970475e-02  2.256102693138803e-18
-9.730180870888294e-02  5.130651052234910e-02  1.204445994346182e-18
-7.798852633478882e-03 -1.097231876022623e-01  1.266155778733754e-18
-9.189695242012728e-02  6.045618360343988e-02  1.014250562448533e-18
-1.099992277070382e-01  4.121939532970386e-04  1.953332325743309e-18
-8.475091572865451e-02  7.012333622378839e-02  7.877518340490316e-19
-1.097561767932684e-01 -7.319949161351227e-03  2.028451906447397e-18
-9.507152336167689e-02  5.532996878446703e-02  1.123415834176205e-18
-3.489088696827883e-03 -1.099446508933729e-01  1.191733843473409e-18
-1.034120548702442e-01  3.749595854907000e-02  1.455083517899392e-18
-1.099062775684024e-01 -4.539840422002301e-03  2.002558521424888e-18
-1.077913376596071e-01 -2.193233971906640e-02  2.143622255035292e-18
-5.001789119610587e-02  9.797045758949215e-02 -1.164828245277661e-19
-9.125902113941696e-02 -6.141490910744240e-02  2.255079019673234e-18
-4.725622308637250e-02  9.933201588415971e-02 -1.796195196399032e-19
-1.087916497859283e-01 -1.625967210173345e-02  2.103139403488716e-18
-1.066691099869385e-01  2.686449282220654e-02  1.622281147092598e-18
-1.098565887888607e-01 -5.615149123143824e-03  2.012722656597309e-18
-1.024385235748207e-01  4.007928252614904e-02  1.411215651810501e-18
-9.671288785739911e-02  5.240817991766269e-02  1.182646192471989e-18
-9.921894789959942e-02  4.749316137820823e-02  1.277744550266600e-18
-3.907517478948350e-02 -1.028257298304820e-01  1.751886366291764e-18
-9.690823481709178e-02 -5.204607597730464e-02  2.259352158710797e-18
-1.099251616139323e-01  4.056950104552158e-03  1.914565685848929e-18
-1.920042487632131e-03  1.099832416181922e-01 -1.095868407479320e-18
-1.009477328327873e-01 -4.369845804968613e-02  2.245471102632658e-18
-1.046550580682597e-01  3.387209501535397e-02  1.514438123878769e-18
-8.140210457845266e-02 -7.398444005464000e-02  2.208810796046037e-18
-1.093281422523419e-01  1.213908199377763e-02  1.820900045004856e-18
-1.092942845819330e-01  1.244023141759832e-02  1.817203306442265e-18
-9.668463916231899e-02  5.246027592428527e-02  1.181608205703719e-18
-1.072476518208134e-01 -2.445283580531194e-02  2.159843898663944e-18
-1.097756402597857e-01 -7.022022896151858e-03  2.025737197904114e-18
-1.026475977530346e-01 -3.954074702798585e-02  2.233003256190436e-18
-9.509985820348126e-02  5.528125332947627e-02  1.124420620088233e-18
-1.084311637064433e-01  1.851169190718317e-02  1.739460989952789e-18
-4.292489333785471e-02  1.012790873375830e-01 -2.767061509803939e-19
-9.399977101274951e-02 -5.713180418602775e-02  2.259846585816136e-18
-1.095929976018180e-01  9.453828676672649e-03  1.853203464237093e-18
-8.628269345116314e-02 -6.822973553233647e-02  2.236539198366195e-18
-1.098922997412206e-01  4.866462533061900e-03  1.905663423494771e-18
-1.095302163691988e-01  1.015537798983692e-02  1.844878032974535e-18
-1.052656917844147e-01  3.192388029592527e-02  1.545322277759374e-18
-1.098487378561258e-01 -5.766696750838193e-03  2.014140036705994e-18
-1.073735618423785e-01  2.389389497928038e-02  1.665339521863453e-18
 3.679647663177986e-02 -1.036630083852810e-01  4.102625592597223e-19
-1.091455759197358e-01  1.368368580277831e-02  1.801780816316093e-18
-1.099455845931444e-01 -3.459541656303525e-03  1.992158359441421e-18
-1.057572159759332e-01  3.025576422799100e-02  1.571208823677822e-18
-3.666382102697484e-02  1.037100006156683e-01 -4.131061520808551e-19
-9.320324978610209e-02 -5.842220664532815e-02  2.258929956965984e-18
-1.071619987609836e-01  2.482551150632965e-02  1.652002483082699e-18
-8.408299576610019e-02 -7.092284415474279e-02  2.225063666931900e-18
-1.096818314120262e-01  8.360374280127932e-03  1.866019214558295e-18
-1.099879412637182e-01 -1.628734652677942e-03  1.974101270036793e-18
-1.099669251491386e-01 -2.697289981391932e-03  1.984706281035822e-18
-1.095552632157084e-01  9.881513129921532e-03  1.848137633433482e-18
-1.096793933210779e-01 -8.392298893644059e-03  2.038103456914402e-18
-9.516426179436697e-02 -5.517031155552000e-02  2.260416464105690e-18
-1.068126603903648e-01  2.628793602268087e-02  1.630759709423196e-18
-1.017385175690255e-01  4.182432357919334e-02  1.380828547043533e-18
-3.070617610156007e-02  1.056273200891698e-01 -5.388293111475412e-19
-9.317778987355681e-02 -5.846280419445559e-02  2.258893992521914e-18
-1.098701834115205e-01 -5.342545939794714e-03  2.010163690443832e-18
-8.359819137058103e-02 -7.149365286210847e-02  2.222300846527700e-18
-1.098755666534385e-01  5.230664640916816e-03  1.901623593883756e-18
-1.095764644328602e-01  9.643570002549607e-03  1.850959713578230e-18
-1.093690303151336e-01  1.176499927442996e-02  1.825471260903010e-18
-1.089057171980254e-01 -1.547723365410255e-02  2.097130098339653e-18
-1.098150790769112e-01 -6.375610349739310e-03  2.019797404608015e-18
-1.099886131278578e-01  1.582713559172737e-03  1.941116762911237e-18
-1.095623443971619e-01  9.802687906775694e-03  1.849073552037058e-18
-1.037328981077574e-01  3.659898701010144e-02  1.470009362745367e-18
-8.901106617846047e-02 -6.462994737560676e-02  2.248107329959078e-18
-1.097705019135983e-01  7.101894792001563e-03  1.880527631474617e-18
-1.097552307872669e-01  7.334119908602429e-03  1.877869834853167e-18
-1.021919621998690e-01  4.070384332886150e-02  1.400410662671415e-18
-1.079744045940847e-01 -2.101256653892782e-02  2.137429814205870e-18
-1.083859728692612e-01  1.877447429846536e-02  1.735956771490467e-18
-7.626368620500310e-02 -7.927073966114348e-02  2.171681319858348e-18
-1.812854277246392e-02  1.084958798155345e-01 -7.921367085054978e-19
-1.098496083021142e-01 -5.750091814229334e-03  2.013984917639105e-18
-1.045362862458962e-01  3.423689322815396e-02  1.508576268507906e-18
-4.620265747878048e-02  9.982642156212176e-02 -2.034488151031484e-19
-9.107557136965502e-02 -6.168662982924937e-02  2.254606143901703e-18
-1.075340157599583e-01  2.316107628192187e-02  1.675724436626401e-18
-8.521090865108406e-02 -6.956364745221864e-02  2.231170969782287e-18
-1.098315838489087e-01  6.084668375524175e-03  1.892066289274634e-18
-1.095796972268354e-01  9.606766140332864e-03  1.851395391317720e-18
-1.054115635243983e-01  3.143886568153671e-02  1.552901588345377e-18
-1.095683482587918e-01 -9.735351038359036e-03  2.049926650466135e-18
-1.071639779971493e-01  2.481696637033739e-02  1.652125504119303e-18
 3.723629748248881e-02 -1.035058363078892e-01  4.008205365849817e-19
-1.092150965881763e-01  1.311726637814821e-02  1.808837773362322e-18
-1.099442964869077e-01 -3.500238563140605e-03  1.992553581988158e-18
-1.059716155937987e-01  2.949604530170321e-02  1.582830156606279e-18
-2.934673183955308e-02  1.060130620741488e-01 -5.669856021603820e-19
-9.556208009525438e-02 -5.447833374717103e-02  2.260386294699817e-18
-1.037861862303156e-01  3.644760002752193e-02  1.472513134702099e-18
-8.128139238417172e-02 -7.411703752910175e-02  2.208024969439309e-18
-1.096420938955552e-01  8.866298336861369e-03  1.860113852156892e-18
-1.099704186339493e-01  2.550887193489932e-03  1.930845337806178e-18
-1.034226859652944e-01  3.746662551824050e-02  1.455574097152961e-18
-1.093283282825920e-01 -1.213740643357414e-02  2.070335455271180e-18
-1.065850672197866e-01  2.719601893207071e-02  1.617379195456401e-18
 3.948854669941885e-02 -1.026676905339152e-01  3.521274318364364e-19
-1.099998411196692e-01  1.869589459918069e-04  1.955657450031400e-18
-1.099087110929308e-01 -4.480538571492651e-03  2.001992523925366e-18
-1.098255790062452e-01  6.192107552598139e-03  1.890855527421752e-18
-1.044938962047234e-01  3.436605383160059e-02  1.506494808880508e-18
-9.144859327292865e-02 -6.113227288758724e-02  2.255548697433556e-18
-1.098212559638034e-01  6.268312255523312e-03  1.889995618085224e-18
-1.096391942456148e-01  8.902083192843835e-03  1.859694573031773e-18
-1.052603508023918e-01  3.194148632980916e-02  1.545046333010934e-18
-1.097021686893507e-01 -8.089139932848892e-03  2.035393923567081e-18
-1.073902000757864e-01  2.381900349894023e-02  1.666405101828309e-18
 3.565821030159328e-02 -1.040600405443286e-01  4.345987275823893e-19
-1.088706625572363e-01  1.572192209458951e-02  1.775946267636560e-18
-1.099836859706129e-01 -1.894418200285579e-03  1.976755343956510e-18
-1.057475764460156e-01  3.028943835388937e-02  1.570691287333732e-18
-3.121994242532546e-02  1.054766097054666e-01 -5.281377321297086e-19
-9.481053522180025e-02 -5.577600210624409e-02  2.260344728185147e-18
-1.035176288390493e-01  3.720350144194481e-02  1.459967223141865e-18
-8.053117646978473e-02 -7.493149949382005e-02  2.203042283169566e-18
-1.096786705286813e-01  8.401739763937929e-03  1.865537947549487e-18
-1.099801325395058e-01  2.090561310439708e-03  1.935747889567817e-18
-1.037233266134847e-01  3.662610430051704e-02  1.469560406279408e-18
-1.096206898828802e-01 -9.127121649313214e-03  2.044608796082058e-18
-1.067335642644921e-01  2.660725952437587e-02  1.626071166535211e-18
 3.757944110526109e-02 -1.033817469682931e-01  3.934389136149821e-19
-1.099994686307140e-01  3.419078246035315e-04  1.954058777706888e-18
-1.098823812591364e-01 -5.085497893201699e-03  2.007739690391748e-18
-1.098250182585642e-01  6.202045187354551e-03  1.890743442660822e-18
-1.067603159015869e-01  2.649971600967326e-02  1.627652214373901e-18
-9.182831958322947e-02 -6.056038079900284e-02  2.256430396621156e-18
-1.096520540839618e-01  8.742255725376352e-03  1.861565598362403e-18
-1.076601657741889e-01  2.256742576090911e-02  1.684068970053944e-18
-1.082140922968094e-01 -1.974107971661076e-02  2.128631277581239e-18
-1.099425808088311e-01  3.553719895208849e-03  1.920046188792360e-18
-1.099160343515729e-01 -4.297137701285995e-03  2.000238472731326e-18
-1.021208855458393e-01 -4.088183869805206e-02  2.237409013907962e-18
-1.040691036605206e-01  3.563175077505715e-02  1.485930542543066e-18
-1.056797408523470e-01  3.052527433751812e-02  1.567060942967868e-18
-1.462146511484073e-02 -1.090239091112379e-01  1.380387473678975e-18
-1.043625640405476e-01  3.476284261798192e-02  1.500080735722289e-18
-1.011643704217701e-01  4.319456166193654e-02  1.356532215158793e-18
-7.459626149662060e-02  8.084180707237909e-02  4.969092548250342e-19
-8.532525197617440e-02 -6.942334891952640e-02  2.231764329188961e-18
-1.007207388278170e-01 -4.421914483545153e-02  2.246781341119065e-18
-5.428342221510841e-02 -9.567293281078112e-02  1.949042879314406e-18
-1.031964084240755e-01 -3.808544719930915e-02  2.227817319655886e-18
-1.025499269293581e-01  3.979337239771562e-02  1.416135830097896e-18
-7.378947911542368e-02 -8.157887454405348e-02  2.151365100800650e-18
-1.043951948556642e-01  3.466472689994631e-02  1.501669543360913e-18
-7.596944597619057e-02 -7.955277039846333e-02  2.169342727376429e-18
-8.321860525351800e-02  7.193513564079181e-02  7.418669605031538e-19
-3.913084383844413e-02 -1.028045575861852e-01  1.752659526303585e-18
-8.091883908436669e-02  7.451269342359283e-02  6.744564083975677e-19
-6.936220567040155e-02 -8.537496368688471e-02  2.111579925735373e-18
-1.095158222509327e-01 -1.030944599394481e-02  2.054890504617336e-18
-1.041332682841860e-01  3.544379263642238e-02  1.489003630154174e-18
-8.506923389736956e-03  1.096705623877306e-01 -9.754343392048548e-19
-1.040263550383576e-01 -3.575636247485948e-02  2.218656710199435e-18
-5.878027380951458e-02  9.297784365577885e-02  9.075152072101796e-20
-7.629291340790476e-02 -7.924261078317593e-02  2.171912438794754e-18
-8.619997084602600e-02 -6.833421563275767e-02  2.236140546009876e-18
-1.098874762115416e-01 -4.974190573133272e-03  2.006686718868345e-18
-1.287804089767806e-02 -1.092435630261009e-01  1.351618024284105e-18
-1.055598625314986e-01  3.093728207731058e-02  1.560694335396610e-18
-1.033214531670963e-01 -3.774489787295099e-02  2.226543619400224e-18
-5.396174814168619e-02  9.585473247311888e-02 -2.455887879008458e-20
-8.941935570091589e-02 -6.406386521302819e-02  2.249557040457532e-18
-1.093915024849941e-01 -1.155418469973101e-02  2.065467324112402e-18
-1.031331073044517e-01 -3.825653117741352e-02  2.228448626448972e-18
-9.360550122748054e-02  5.777551505570590e-02  1.072199122023817e-18
-1.091825418497282e-01 -1.338553529868374e-02  2.080565082477448e-18
-1.098135731376157e-01 -6.401496289890807e-03  2.020036573253336e-18
-1.097352614969925e-01  7.627082285293658e-03  1.874504375516866e-18
-1.097352614969925e-01  7.627082285293658e-03  1.874504375516866e-18
-1.094776170978588e-01  1.070753727869209e-02  1.838268730089071e-18
-9.517684004506044e-02 -5.514860940256731e-02  2.260417327342846e-18
-1.099924519842634e-01 -1.288606413717036e-03  1.970686849593028e-18
-1.026915721618325e-01 -3.942639987281511e-02  2.232610957769245e-18
-9.593328361068805e-02 -5.382197595472737e-02  2.260248466163223e-18
-7.824210502159312e-02 -7.731864588693957e-02  2.186832588252929e-18
-1.099061819201333e-01 -4.542155406691758e-03  2.002580604876562e-18
-3.225029682734771e-02 -1.051661464281540e-01  1.654476452281008e-18
-8.101947667891250e-02  7.440325529622424e-02  6.773718114403447e-19
-1.092030676974155e-01  1.321703467021454e-02  1.807598621944643e-18
-3.358040181726585e-02  1.047490172449887e-01 -4.786547933743962e-19
-1.087363737576454e-01 -1.662531268991992e-02  2.105912524846620e-18
-1.082050555908790e-01  1.979055190172176e-02  1.722297304454230e-18
-1.065646247935481e-01 -2.727601038660653e-02  2.176695711213734e-18
-1.058562372982900e-01  2.990747440102708e-02  1.576549577674377e-18
-9.216701209523614e-02 -6.004366645564332e-02  2.257148781708913e-18
-1.078501973460074e-01  2.164104739672346e-02  1.696969009717523e-18
-1.095694675752288e-01 -9.722745254342323e-03  2.049817050185851e-18
-8.980951357576322e-03 -1.096327620408828e-01  1.286263545793316e-18
-7.582556796713009e-02  7.968991932774244e-02  5.306214579658095e-19
-1.048294073122723e-01  3.332859676850591e-02  1.523125123696255e-18
-1.099155935313498e-01  4.308398617938352e-03  1.911811868275171e-18
-1.098624229979592e-01  5.499819362256813e-03  1.898624219870635e-18
-1.098624229979592e-01  5.499819362256813e-03  1.898624219870635e-18
-1.099066013637946e-01 -4.531994777125773e-03  2.002483672599122e-18
-1.096266700948518e-01  9.055009879314934e-03  1.857900424680004e-18
-1.082331802961301e-01 -1.963615754126426e-02  2.127892934061686e-18
-1.091185585866935e-01  1.389748797309404e-02  1.799103271015394e-18
-1.099318681889394e-01  3.870963250872279e-03  1.916595984708922e-18
-9.611269077633429e-02 -5.350094084904217e-02  2.260142711592481e-18
-1.036133448858213e-01 -3.693609023126034e-02  2.223427976014329e-18
-2.281637831974789e-02  1.076076803967547e-01 -6.995851567184446e-19
-1.099714544893544e-01  2.505832695096015e-03  1.931326690692712e-18
-1.069864390642733e-01  2.557150477282263e-02  1.641213379049386e-18
 5.300269397174646e-02 -9.638835215801418e-02  4.710914015889444e-20
-1.087443548234314e-01  1.657302911466790e-02  1.764953655399749e-18
-1.086427395510563e-01 -1.722658244810311e-02  2.110424020790646e-18
-1.027830883470189e-01  3.918720135259567e-02  1.426513402934154e-18
-9.372586743925081e-02 -5.758004665472189e-02  2.259577673533862e-18
-1.078940005247070e-01  2.142159309609080e-02  1.700003352750328e-18
-1.089530893138144e-01 -1.514015617409402e-02  2.094509792991156e-18
-1.087844343851488e-01  1.630787648663067e-02  1.768391265939850e-18
-1.093670308505763e-01 -1.178357173903824e-02  2.067388690686237e-18
-9.897669540464019e-02 -4.799597656863594e-02  2.254549582076697e-18
-8.312670747993438e-02  7.204131108985579e-02  7.391406158339780e-19
-6.884648372880875e-02 -8.579138463842878e-02  2.106680612612606e-18
-1.096603525419385e-01 -8.637539023224859e-03  2.040284356779660e-18
-5.806615155968968e-02 -9.342548925773481e-02  1.993269394128630e-18
-7.660024739837404e-02  7.894556414712517e-02  5.520557815937341e-19
-1.036857172209462e-01 -3.673243858468876e-02  2.222623481359025e-18
-1.098543668412084e-01 -5.658452608016550e-03  2.013128041964551e-18
-1.092286962244706e-01 -1.300353494640158e-02  2.077461539781038e-18
-1.098799066653880e-01 -5.138687692940978e-03  2.008242157914179e-18
-1.098799066653880e-01 -5.138687692940978e-03  2.008242157914179e-18
-1.096534677723524e-01 -8.724506031727476e-03  2.041055388512159e-18
-9.824995525417374e-02  4.946661796153865e-02  1.240223620791678e-18
-1.082879931356662e-01  1.933159441561620e-02  1.728488898438789e-18
-8.636745712559568e-02 -6.812240710411192e-02  2.236944908451839e-18
-1.082879931356701e-01  1.933159441559396e-02  1.728488898439088e-18
-8.402522919654709e-02  7.099127311485337e-02  7.659196403209424e-19
-1.041157505857444e-01 -3.549521770558702e-02  2.217564442962217e-18
-1.053695503133764e-01 -3.157938990475907e-02  2.199643596556778e-18
-1.053695503133764e-01 -3.157938990475907e-02  2.199643596556778e-18
-1.099937865971968e-01 -1.169149267756543e-03  1.969483221842787e-18
-1.068206415348848e-01  2.625548594247675e-02  1.631235156196094e-18
-1.069999344933034e-01 -2.551497635563774e-02  2.166348581642250e-18
-1.018696352487570e-01  4.150394456295878e-02  1.386453720564450e-18
-1.092261437315005e-01 -1.302495779438695e-02  2.077636227104652e-18
-1.079897180385714e-01  2.093372393889345e-02  1.706719438446799e-18
 3.747034792697356e-02 -1.034213373836923e-01  3.957871339898218e-19
-8.530486714245371e-02 -6.944839553084207e-02  2.231658901589541e-18
-7.229919776861969e-02 -8.290250902122313e-02  2.138443629976649e-18
-1.027587440481579e-01  3.925099389372352e-02  1.425424721910913e-18
-1.088973373114144e-01  1.553608465746750e-02  1.778330388862953e-18
-1.054791031987998e-01  3.121151691887002e-02  1.556439463362679e-18
-1.096945878287449e-01 -8.191300329113730e-03  2.036308674069491e-18
-1.089368313978862e-01  1.525669574280314e-02  1.781903852846134e-18
-1.059857433202647e-01 -2.944524092023927e-02  2.188681880595414e-18
-1.747814243414909e-03  1.099861134206064e-01 -1.098962921253013e-18
-1.046317789217577e-01 -3.394393671435841e-02  2.210808934093661e-18
-1.099578778092700e-01  3.043863939404829e-03  1.925557001891871e-18
-9.105507035271859e-02 -6.171688717896773e-02  2.254552187127545e-18
-1.067844217849006e-01 -2.640241019423059e-02  2.171631336235530e-18
-7.564174831439698e-02 -7.986442206603256e-02  2.166713064263014e-18
-7.731846930923451e-02  7.824227951483087e-02  5.720633913372055e-19
-1.020842649589089e-01  4.097319669978451e-02  1.395726553764764e-18
-1.042074302991958e-01  3.522515394484774e-02  1.492569864805664e-18
-6.734010816031212e-02 -8.697878955789987e-02  2.092073016698658e-18
-1.069290244990916e-01  2.581053505204064e-02  1.637735669089314e-18
-1.099320139188981e-01  3.866822433880098e-03  1.916641123537722e-18
-1.090421253655059e-01  1.448498863559259e-02  1.791706694786553e-18
-6.977271840725947e-02 -8.503980107021208e-02  2.115441815433773e-18
 9.080749538230354e-02 -6.208058297400963e-02 -9.781722614743586e-19
-9.363195738391141e-03 -1.096007781248132e-01  1.292737417388747e-18
-9.225277123803390e-02  5.991182019353899e-02  1.026175919034283e-18
-9.225277123803390e-02  5.991182019353899e-02  1.026175919034283e-18
-6.179554465048081e-02 -9.100170691448808e-02  2.034734909674410e-18
-7.472344137791304e-02  8.072426716075880e-02  5.003802524112919e-19
-7.985296433256885e-02 -7.565384383692247e-02  2.198394514905395e-18
-3.852974054856637e-02  1.030313500506526e-01 -3.729270004235935e-19
-1.023189884615062e-01 -4.038346939298466e-02  2.235813928031732e-18
-9.616561416933225e-03  1.095788380414500e-01 -9.547445725495467e-19
-9.367359951680422e-02 -5.766503926613887e-02  2.259520771713412e-18
-1.045510257806232e-01  3.419185587562362e-02  1.509301318546792e-18
-9.828749647989790e-02 -4.939198351670059e-02  2.256627929366582e-18
-7.078434579816056e-02  8.419962226712421e-02  3.945713366256568e-19
-8.203342766938874e-02 -7.328380956808350e-02  2.212847219788365e-18
-8.531671327146173e-02  6.943384215607795e-02  8.049051773032477e-19
-1.099997987785309e-01 -2.104012421172196e-04  1.959739428103550e-18
-8.767017904544067e-02  6.643748720519414e-02  8.775743666969494e-19
-1.099996004129200e-01  2.964945157918802e-04  1.954527728179120e-18
 3.328304491943083e-02 -1.048438787955268e-01  4.849212820428049e-19
-1.043001346021912e-01 -3.494970560626739e-02  2.215240837824559e-18
-8.798008808943290e-02 -6.602654087392121e-02  2.244109335922301e-18
-9.943528978847697e-02 -4.703852830054926e-02  2.252873383027277e-18
-1.052454330968797e-01  3.199060506227058e-02  1.544276177514255e-18
-1.099683781827077e-01  2.637385042982369e-03  1.929920291561060e-18
-6.694062429546276e-02  8.728661305683517e-02  2.944500185794858e-19
-7.290349743151466e-02 -8.237159742443446e-02  2.143742939520613e-18
-9.811346072584390e-02  4.973679547777732e-02  1.235018562011905e-18
-9.697400238680551e-02 -5.192343267816370e-02  2.259262455718386e-18
-1.090458164722531e-01 -1.445717503178499e-02  2.089142600254849e-18
 2.252375665645043e-02  1.076693103260208e-01 -1.507100167425425e-18
-1.004696965290928e-01 -4.478660602626590e-02  2.248144201552347e-18
-8.770908878187671e-02 -6.638611108547354e-02  2.242981033286775e-18
-8.273745142725503e-02  7.248802750332350e-02  7.276234911860549e-19
-1.016399663833893e-01  4.206325276988743e-02  1.376619800500799e-18
-7.159504687502780e-02 -8.351137205771758e-02  2.132168271401020e-18
-9.006722419483841e-02  6.314978326040932e-02  9.540126081331528e-19
-1.057679918645794e-01  3.021807235636049e-02  1.571787863758849e-18
-9.152235985090974e-02  6.102178010612722e-02  1.001772942249061e-18
-1.084768823889541e-01 -1.824187455205721e-02  2.117904152290955e-18
-1.064412445868437e-01 -2.775358446766248e-02  2.179406913456017e-18
-1.088557477220824e-01 -1.582485980558148e-02  2.099812564333293e-18
-1.088557477220824e-01 -1.582485980558148e-02  2.099812564333293e-18
-2.100276563636966e-02  1.079763114559101e-01 -7.356481079943635e-19
-1.099970806439122e-01 -8.014049018131032e-04  1.965763403564325e-18
-1.099970806439122e-01 -8.014049018131032e-04  1.965763403564325e-18
-9.961697660761035e-02  4.665252374265265e-02  1.293465192237173e-18
-6.897303421760920e-02 -8.568967587064658e-02  2.107887708874625e-18
-1.080291655301399e-01  2.072919185259245e-02  1.709522946500010e-18
-1.098670133831084e-01  5.407344105552123e-03  1.899656060918994e-18
-7.448393575943163e-02 -8.094531063492699e-02  2.157214146148041e-18
-8.183577493363925e-02  7.350446204830503e-02  7.011335867154635e-19
-1.017231249081802e-01  4.186174696443899e-02  1.380170104594211e-18
-1.096179340688694e-01  9.160159958917620e-03  1.856664577807042e-18
-1.099476259973568e-01  3.394044423001195e-03  1.921776581411689e-18
-1.077416035031892e-01  2.217536639069408e-02  1.689546519188932e-18
-4.378810275472347e-02  1.009088799716940e-01 -2.575405635350030e-19
-1.077814302042022e-01 -2.198097593685628e-02  2.143945659517964e-18
-1.042852478047301e-01  3.499410079293373e-02  1.496328707341633e-18
-7.853370059820661e-02 -7.702245043071017e-02  2.188978578653153e-18
-1.581862764488635e-02  1.088566535377255e-01 -8.369512225039652e-19
-1.004288807695588e-01 -4.487805596696124e-02  2.248357451344132e-18
-1.084068329544902e-01  1.865364759979191e-02  1.737569452025909e-18
-2.616933772676350e-02 -1.068417791079059e-01  1.563475048530484e-18
-9.602636163318562e-02  5.365573474935015e-02  1.157610466699438e-18
-9.464673294818468e-02 -5.605350963351866e-02  2.260280960367921e-18
-8.372334166501350e-02  7.134705362131909e-02  7.568916761337818e-19
-6.091175865963609e-02 -9.159562029371389e-02  2.025109127969014e-18
-7.550833043590979e-02 -7.999057466215269e-02  2.165634906066228e-18
-9.953145931390991e-02  4.683469447795569e-02  1.290071571859239e-18
-1.066353809668862e-01  2.699806522784555e-02  1.620308491002437e-18
-7.294651667065585e-02  8.233350293542537e-02  4.522234446578341e-19
-9.042270289627430e-02 -6.263972222904626e-02  2.252780248824851e-18
-1.032675044814756e-01 -3.789224878742850e-02  2.227097515305161e-18
-2.598942727125279e-02 -1.068856850570375e-01  1.560724445047262e-18
-1.099989049655177e-01 -4.908221541181598e-04  1.962604744636702e-18
-1.022665052548522e-01  4.051619309559123e-02  1.403665283231898e-18
-1.090563156253364e-01  1.437776137745257e-02  1.793060948511780e-18
-1.096530735190643e-01 -8.729459766941543e-03  2.041099270134389e-18
-1.056803263343214e-01 -3.052324730220086e-02  2.194322744981709e-18
-9.866427690418127e-02 -4.863497160454622e-02  2.255555164060084e-18
-1.018684717320394e-01  4.150680024982226e-02  1.386403673251435e-18
-1.099995772025341e-01 -3.049840384138390e-04  1.960707288767102e-18
-7.690944930949747e-02 -7.864436792873220e-02  2.176737702589374e-18
-1.077471660591602e-01  2.214832287600427e-02  1.689923373796993e-18
-1.015786540328694e-01  4.221110096728825e-02  1.374009587568010e-18
-2.809978774466902e-02  1.063503734300191e-01 -5.926422113835866e-19
-9.149508008708065e-02 -6.106267534147723e-02  2.255660896239391e-18
-1.069982864045459e-01  2.552188681290478e-02  1.641934023114923e-18
-9.170379245011884e-02 -6.074878147144596e-02  2.256150036214880e-18
-1.099966105175642e-01 -8.635245492982052e-04  1.966393293916793e-18
-1.094415292636597e-01 -1.107030588698772e-02  2.061385931291276e-18
-1.032495682465800e-01  3.794109456637732e-02  1.447618263737597e-18
-1.056286123411795e-01  3.070173048668087e-02  1.564338027292178e-18
-1.048094452564815e-01  3.339131900702016e-02  1.522125426886317e-18
 1.628504894910248e-02  1.087878540128690e-01 -1.407567552020627e-18
-1.093286431681778e-01 -1.213456974948900e-02  2.070311913137300e-18
 9.808331790282895e-03 -1.095618392849065e-01  9.511571339554875e-19
 9.664774374014132e-02 -5.252821746394921e-02 -1.180253533016789e-18
-9.665833432641052e-02 -5.250872694365967e-02  2.259658451998444e-18
-1.075956474165901e-01  2.287305526170006e-02  1.679780556826034e-18
-5.451273269202591e-02  9.554246163066817e-02 -1.154498201152495e-20
-8.717255169748714e-02 -6.708909174037828e-02  2.240655586721813e-18
-1.086545029263540e-01  1.715222999574411e-02  1.757403555066115e-18
-8.590356960969296e-02 -6.870645332363327e-02  2.234690339499562e-18
-1.099979274157271e-01  6.752512453963900e-04  1.950606367393265e-18
-1.088709096598738e-01 -1.572021087109100e-02  2.099007159316182e-18
-1.099509683586817e-01  3.283984925079742e-03  1.922966884078047e-18
-1.070218273881375e-01  2.542299082530752e-02  1.643369083345112e-18
-1.076237162586252e-01 -2.274061781664901e-02  2.148943996087088e-18
-6.399625712480540e-02  8.946775438120570e-02  2.196410578477868e-19
-1.040354386756662e-01 -3.572992442703554e-02  2.218546723023493e-18
-1.084449060442783e-01  1.843101606118384e-02  1.740534466257431e-18
-5.226228824507943e-02  9.679180351345977e-02 -6.443085936770258e-20
-8.530423009098952e-02 -6.944917802669429e-02  2.231655604359458e-18
-1.076298453206073e-01  2.271159167170202e-02  1.682048129052873e-18
-9.317875366487356e-02 -5.846126807947958e-02  2.258895361314694e-18
-1.099705543158705e-01 -2.545031131467419e-03  1.983206462015161e-18
-1.097187315498193e-01 -7.861294238142724e-03  2.033347647682743e-18
-1.045710410147928e-01  3.413059303736877e-02  1.510286966921904e-18
-1.055185249266126e-01  3.107798090790015e-02  1.558513054035943e-18
-1.055693598775276e-01  3.090485811404133e-02  1.561196496441933e-18
 1.785975400461347e-02  1.085404495425307e-01 -1.433049315801880e-18
-1.095593433688832e-01 -9.836172049080400e-03  2.050802296968559e-18
-1.408486014951404e-02 -1.090945310937656e-01  1.371563563450937e-18
 9.984059208495535e-02 -4.617202802699406e-02 -1.302381615322744e-18
-9.953229206633417e-02 -4.683292470070510e-02  2.252487151971769e-18
-1.074590477877772e-01  2.350644695704088e-02  1.670841733912860e-18
-5.859523957568399e-02  9.309456428314257e-02  8.625935376828747e-20
-8.216985562061498e-02 -7.313080628085034e-02  2.213703064722990e-18
-1.056151542977096e-01 -3.074799477479719e-02  2.195472129486772e-18
-1.034683416161859e-01  3.734035729872197e-02  1.457683954006521e-18
 5.287173642927809e-02  9.646024822149754e-02 -1.932009626671703e-18
-1.098212006439968e-01 -6.269281387125607e-03  2.018813853731792e-18
-1.023111734539986e-01 -4.040326455208526e-02  2.235878238719798e-18
-1.097611257317527e-01  7.245362523596428e-03  1.878886692309951e-18
-1.094036254136124e-01  1.143882626662151e-02  1.829438231112861e-18
-1.098250506006327e-01  6.201472451639465e-03  1.890749902877921e-18
-1.099920641849028e-01  1.321293436065580e-03  1.943864175386385e-18
-7.552832617433962e-02 -7.997169465068581e-02  2.165796768824114e-18
-4.050079825162368e-02  1.022726030810854e-01 -3.300538279537545e-19
-1.033852760085372e-01 -3.756973122925611e-02  2.225879649363382e-18
-1.084436786856096e-01  1.843823617194018e-02  1.740438439930712e-18
-5.449286628694139e-02  9.555379387462064e-02 -1.201496307744118e-20
-8.516225500199806e-02 -6.962320247571657e-02  2.230917026292428e-18
-1.082427316669566e-01  1.958343793298760e-02  1.725095815959835e-18
-1.011748185887486e-01 -4.317008320044999e-02  2.244083504905278e-18
-1.096727501160655e-01 -8.478672182542031e-03  2.038872687323383e-18
-1.073085773327231e-01 -2.418406977386055e-02  2.158166667484819e-18
-1.093562785818160e-01  1.188294301661876e-02  1.824032499492409e-18
-1.099842169506350e-01 -1.863336189638750e-03  1.976445437011190e-18
-1.086757897622936e-01 -1.701683635526105e-02  2.108857123814144e-18
-1.059008633959859e-01  2.974906943056693e-02  1.578971305842289e-18
-8.049100141411608e-03  1.097051137682902e-01 -9.839368529038629e-19
-1.098538110441413e-01 -5.669232671010500e-03  2.013228912123937e-18
-1.031486632848337e-01  3.821456872126077e-02  1.443012691983449e-18
-5.256821740103289e-02  9.662599297951724e-02 -5.728284210997626e-20
-8.818667254139530e-02 -6.575036719347413e-02  2.244948168427244e-18
-1.096833238273642e-01  8.340771797713408e-03  1.866247182255239e-18
-9.129586041538285e-02 -6.136013258635371e-02  2.255171809677085e-18
-1.099952378649542e-01 -1.023546301891305e-03  1.968013031302799e-18
-1.097892942522034e-01 -6.805208858150382e-03  2.023752501508143e-18
-1.041898379542417e-01  3.527715503082443e-02  1.491722495774397e-18
-1.099431073307072e-01  3.537393174156966e-03  1.920223310004978e-18
-1.014401574787183e-01 -4.254285428474223e-02  2.242360977705427e-18
-9.315223806825697e-02  5.850350880823083e-02  1.056652892085712e-18
-3.077298993816481e-02  1.056078741868502e-01 -5.374404796445367e-19
-1.011450512461510e-01 -4.323978039275223e-02  2.244269872867890e-18
-1.086122451836852e-01  1.741781261120404e-02  1.753922763233193e-18
-5.318427931661795e-02  9.628827775784511e-02 -4.284938423650055e-20
-8.777132905148120e-02 -6.630379926170581e-02  2.243242949039589e-18
-1.091453459749396e-01  1.368551979322328e-02  1.801757880588571e-18
-8.456040730818784e-02 -7.035294958900683e-02  2.227704315163933e-18
-1.097244800414057e-01 -7.780647765007787e-03  2.032621335732672e-18
-1.039292172022724e-01 -3.603772761596999e-02  2.219818951149086e-18
-1.087240937983612e-01 -1.670543108468402e-02  2.106517175724569e-18
-5.279357883646559e-02  9.650304675831668e-02 -5.200903878561562e-20
-1.089501352814349e-01 -1.516139908309948e-02  2.094675485634354e-18
-1.098963980108604e-01  4.773018357237204e-03  1.906696462052602e-18
-1.025560788298483e-01 -3.977751494306687e-02  2.233807272101049e-18
-5.457122513441661e-02 -9.550906442494753e-02  1.952480987431509e-18
-7.914166329562779e-02  7.639762516467018e-02  6.234624564472416e-19
-1.030216478842210e-01  3.855567490291871e-02  1.437247559317690e-18
-4.498190006285632e-02  1.003824121384576e-01 -2.308862506880285e-19
-8.868705530126504e-02  6.507385206048828e-02  9.096817483853981e-19
-1.075418499784351e-01 -2.312467304019071e-02  2.151433115883068e-18
-1.099973667819720e-01  7.611182774628012e-04  1.949714137685404e-18
-8.207546246856133e-02 -7.323672890409391e-02  2.213111542461132e-18
-8.248252229763477e-02  7.277797410906779e-02  7.201076271892887e-19
-1.075793389374239e-01 -2.294963689880182e-02  2.150301843859582e-18
-1.088985149363136e-01  1.552782807302630e-02  1.778436179508507e-18
-1.011318047095266e-01 -4.327075312718916e-02  2.244352368542444e-18
-2.087626804303611e-02  1.080008399624525e-01 -7.381513050537427e-19
-1.096833414697491e-01 -8.340539792505576e-03  2.037641912967934e-18
-1.065370038323947e-01 -2.738369614234499e-02  2.177310595283587e-18
-1.094718341219712e-01  1.076650054435498e-02  1.837559988999952e-18
-9.441225997067709e-02 -5.644754350039729e-02  2.260156788884609e-18
-5.878095689578786e-02  9.297741180746805e-02  9.076811414058165e-20
-9.675057288695374e-02 -5.233857703497698e-02  2.259551718708335e-18
-1.099064155237581e-01 -4.536499390386747e-03  2.002526648618853e-18
 2.586902141913860e-02 -1.069148901267551e-01  6.381415630869630e-19
-1.094809258475310e-01  1.067365333741907e-02  1.838675758423819e-18
-9.617869023330197e-02 -5.338220251175957e-02  2.260097257374892e-18
-1.099945099053776e-01 -1.098995302878108e-03  1.968775287470465e-18
-8.780368890544514e-02 -6.626094033890380e-02  2.243378471378742e-18
-3.065296895394477e-02  1.056427730339774e-01 -5.399349692014227e-19
-9.560945635628730e-02 -5.439514551184838e-02  2.260374682879317e-18
-3.946498550339605e-02  1.026767496525709e-01 -3.526398105777415e-19
-1.075585901077287e-01 -2.304668509867695e-02  2.150929728683934e-18
-1.098873784539588e-01  4.976349718056672e-03  1.904446792410677e-18
-1.098226717453182e-01  6.243458234027959e-03  1.890276179648194e-18
-1.008263850015890e-01 -4.397772262761356e-02  2.246180915316913e-18
-1.082674119896930e-01  1.944652928041513e-02  1.726941718412862e-18
-1.099991056120843e-01  4.435814936342429e-04  1.953007657343197e-18
-1.099309193898157e-01  3.897815043048907e-03  1.916303207286619e-18
-1.088991294319456e-01 -1.552351793132955e-02  2.097488415318843e-18
-1.073017665066322e-01 -2.421427067983149e-02  2.158355764048009e-18
-1.095938281311306e-01 -9.444195866465839e-03  2.047388581565053e-18
-1.075714035260789e-01  2.298680368014368e-02  1.678180384197271e-18
-1.094253937076217e-01 -1.122867810260590e-02  2.062725996807766e-18
-1.098623612555534e-01  5.501052567848318e-03  1.898610450351411e-18
-1.067208661309150e-01 -2.665814570196688e-02  2.173127877001511e-18
-1.094172241358571e-01  1.130800877270548e-02  1.831024338824075e-18
-1.098851244638626e-01 -5.025875203523910e-03  2.007175907514844e-18
-1.098851244638626e-01 -5.025875203523910e-03  2.007175907514844e-18
-2.117302318160183e-02 -1.079430548453735e-01  1.485874879520067e-18
-1.081588296167765e-01  2.004164603841407e-02  1.718894757065553e-18
-1.097717541952105e-01 -7.082512330116379e-03  2.026289547709436e-18
-9.786647000540265e-02  5.022105184762254e-02  1.225647509236806e-18
-1.094703360888617e-01 -1.078172141133431e-02  2.058933482454930e-18
-1.039516178865605e-01  3.597306129267380e-02  1.480332901473196e-18
-1.092606402007474e-01 -1.273234082652536e-02  2.075243599878388e-18
-1.092606402007474e-01 -1.273234082652536e-02  2.075243599878388e-18
-1.090963395028193e-01 -1.407084599750661e-02  2.086072327364923e-18
-1.092343222077696e-01  1.295618971029482e-02  1.810834920443773e-18
-1.099968375362872e-01 -8.341055182692601e-04  1.966095064129036e-18

TENSORS stress double
0.000000000000000e+00 0.000000000000000e+00 0.000000000000000e+00
0.000000000000000e+00 0.000000000000000e+00 0.000000000000000e+00
0.000000000000000e+00 0.000000000000000e+00 0.000000000000000e+00

0.000000000000000e+00 0.000000000000000e+00 0.000000000000000e+00
0.000000000000000e+00 0.000000000000000e+00 0.000000000000000e+00
0.000000000000000e+00 0.000000000000000e+00 0.000000000000000e+00

0.000000000000000e+00 0.000000000000000e+00 0.000000000000000e+00
0.000000000000000e+00 0.000000000000000e+00 0.000000000000000e+00
0.000000000000000e+00 0.000000000000000e+00 0.000000000000000e+00

0.000000000000000e+00 0.000000000000000e+00 0.000000000000000e+00
0.000000000000000e+00 0.000000000000000e+00 0.000000000000000e+00
0.000000000000000e+00 0.000000000000000e+00 0.000000000000000e+00

0.000000000000000e+00 0.000000000000000e+00 0.000000000000000e+00
0.000000000000000e+00 0.000000000000000e+00 0.000000000000000e+00
0.000000000000000e+00 0.000000000000000e+00 0.000000000000000e+00

0.000000000000000e+00 0.000000000000000e+00 0.000000000000000e+00
0.000000000000000e+00 0.000000000000000e+00 0.000000000000000e+00
0.000000000000000e+00 0.000000000000000e+00 0.000000000000000e+00

0.000000000000000e+00 0.000000000000000e+00 0.000000000000000e+00
0.000000000000000e+00 0.000000000000000e+00 0.000000000000000e+00
0.000000000000000e+00 0.000000000000000e+00 0.000000000000000e+00

0.000000000000000e+00 0.000000000000000e+00 0.000000000000000e+00
0.000000000000000e+00 0.000000000000000e+00 0.000000000000000e+00
0.000000000000000e+00 0.000000000000000e+00 0.000000000000000e+00

0.000000000000000e+00 0.000000000000000e+00 0.000000000000000e+00
0.000000000000000e+00 0.000000000000000e+00 0.000000000000000e+00
0.000000000000000e+00 0.000000000000000e+00 0.000000000000000e+00

0.000000000000000e+00 0.000000000000000e+00 0.000000000000000e+00
0.000000000000000e+00 0.000000000000000e+00 0.000000000000000e+00
0.000000000000000e+00 0.000000000000000e+00 0.000000000000000e+00

0.000000000000000e+00 0.000000000000000e+00 0.000000000000000e+00
0.000000000000000e+00 0.000000000000000e+00 0.000000000000000e+00
0.000000000000000e+00 0.000000000000000e+00 0.000000000000000e+00

0.000000000000000e+00 0.000000000000000e+00 0.000000000000000e+00
0.000000000000000e+00 0.000000000000000e+00 0.000000000000000e+00
0.000000000000000e+00 0.000000000000000e+00 0.000000000000000e+00

0.000000000000000e+00 0.000000000000000e+00 0.000000000000000e+00
0.000000000000000e+00 0.000000000000000e+00 0.000000000000000e+00
0.000000000000000e+00 0.000000000000000e+00 0.000000000000000e+00

0.000000000000000e+00 0.000000000000000e+00 0.000000000000000e+00
0.000000000000000e+00 0.000000000000000e+00 0.000000000000000e+00
0.000000000000000e+00 0.000000000000000e+00 0.000000000000000e+00

0.000000000000000e+00 0.000000000000000e+00 0.000000000000000e+00
0.000000000000000e+00 0.000000000000000e+00 0.000000000000000e+00
0.000000000000000e+00 0.000000000000000e+00 0.000000000000000e+00

0.000000000000000e+00 0.000000000000000e+00 0.000000000000000e+00
0.000000000000000e+00 0.000000000000000e+00 0.000000000000000e+00
0.000000000000000e+00 0.000000000000000e+00 0.000000000000000e+00

0.000000000000000e+00 0.000000000000000e+00 0.000000000000000e+00
0.000000000000000e+00 0.000000000000000e+00 0.000000000000000e+00
0.000000000000000e+00 0.000000000000000e+00 0.000000000000000e+00

0.000000000000000e+00 0.000000000000000e+00 0.000000000000000e+00
0.000000000000000e+00 0.000000000000000e+00 0.000000000000000e+00
0.000000000000000e+00 0.000000000000000e+00 0.000000000000000e+00

0.000000000000000e+00 0.000000000000000e+00 0.000000000000000e+00
0.000000000000000e+00 0.000000000000000e+00 0.000000000000000e+00
0.000000000000000e+00 0.000000000000000e+00 0.000000000000000e+00

0.000000000000000e+00 0.000000000000000e+00 0.000000000000000e+00
0.000000000000000e+00 0.000000000000000e+00 0.000000000000000e+00
0.000000000000000e+00 0.000000000000000e+00 0.000000000000000e+00

0.000000000000000e+00 0.000000000000000e+00 0.000000000000000e+00
0.000000000000000e+00 0.000000000000000e+00 0.000000000000000e+00
0.000000000000000e+00 0.000000000000000e+00 0.000000000000000e+00

0.000000000000000e+00 0.000000000000000e+00 0.000000000000000e+00
0.000000000000000e+00 0.000000000000000e+00 0.000000000000000e+00
0.000000000000000e+00 0.000000000000000e+00 0.000000000000000e+00

0.000000000000000e+00 0.000000000000000e+00 0.000000000000000e+00
0.000000000000000e+00 0.000000000000000e+00 0.000000000000000e+00
0.000000000000000e+00 0.000000000000000e+00 0.000000000000000e+00

0.000000000000000e+00 0.000000000000000e+00 0.000000000000000e+00
0.000000000000000e+00 0.000000000000000e+00 0.000000000000000e+00
0.000000000000000e+00 0.000000000000000e+00 0.000000000000000e+00

0.000000000000000e+00 0.000000000000000e+00 0.000000000000000e+00
0.000000000000000e+00 0.000000000000000e+00 0.000000000000000e+00
0.000000000000000e+00 0.000000000000000e+00 0.000000000000000e+00

0.000000000000000e+00 0.000000000000000e+00 0.000000000000000e+00
0.000000000000000e+00 0.000000000000000e+00 0.000000000000000e+00
0.000000000000000e+00 0.000000000000000e+00 0.000000000000000e+00

0.000000000000000e+00 0.000000000000000e+00 0.000000000000000e+00
0.000000000000000e+00 0.000000000000000e+00 0.000000000000000e+00
0.000000000000000e+00 0.000000000000000e+00 0.000000000000000e+00

0.000000000000000e+00 0.000000000000000e+00 0.000000000000000e+00
0.000000000000000e+00 0.000000000000000e+00 0.000000000000000e+00
0.000000000000000e+00 0.000000000000000e+00 0.000000000000000e+00

0.000000000000000e+00 0.000000000000000e+00 0.000000000000000e+00
0.000000000000000e+00 0.000000000000000e+00 0.000000000000000e+00
0.000000000000000e+00 0.000000000000000e+00 0.000000000000000e+00

0.000000000000000e+00 0.000000000000000e+00 0.000000000000000e+00
0.000000000000000e+00 0.000000000000000e+00 0.000000000000000e+00
0.000000000000000e+00 0.000000000000000e+00 0.000000000000000e+00

0.000000000000000e+00 0.000000000000000e+00 0.000000000000000e+00
0.000000000000000e+00 0.000000000000000e+00 0.000000000000000e+00
0.000000000000000e+00 0.000000000000000e+00 0.000000000000000e+00

0.000000000000000e+00 0.000000000000000e+00 0.000000000000000e+00
0.000000000000000e+00 0.000000000000000e+00 0.000000000000000e+00
0.000000000000000e+00 0.000000000000000e+00 0.000000000000000e+00

0.000000000000000e+00 0.000000000000000e+00 0.000000000000000e+00
0.000000000000000e+00 0.000000000000000e+00 0.000000000000000e+00
0.000000000000000e+00 0.000000000000000e+00 0.000000000000000e+00

0.000000000000000e+00 0.000000000000000e+00 0.000000000000000e+00
0.000000000000000e+00 0.000000000000000e+00 0.000000000000000e+00
0.000000000000000e+00 0.000000000000000e+00 0.000000000000000e+00

0.000000000000000e+00 0.000000000000000e+00 0.000000000000000e+00
0.000000000000000e+00 0.000000000000000e+00 0.000000000000000e+00
0.000000000000000e+00 0.000000000000000e+00 0.000000000000000e+00

0.000000000000000e+00 0.000000000000000e+00 0.000000000000000e+00
0.000000000000000e+00 0.000000000000000e+00 0.000000000000000e+00
0.000000000000000e+00 0.000000000000000e+00 0.000000000000000e+00

0.000000000000000e+00 0.000000000000000e+00 0.000000000000000e+00
0.000000000000000e+00 0.000000000000000e+00 0.000000000000000e+00
0.000000000000000e+00 0.000000000000000e+00 0.000000000000000e+00

0.000000000000000e+00 0.000000000000000e+00 0.000000000000000e+00
0.000000000000000e+00 0.000000000000000e+00 0.000000000000000e+00
0.000000000000000e+00 0.000000000000000e+00 0.000000000000000e+00

0.000000000000000e+00 0.000000000000000e+00 0.000000000000000e+00
0.000000000000000e+00 0.000000000000000e+00 0.000000000000000e+00
0.000000000000000e+00 0.000000000000000e+00 0.000000000000000e+00

0.000000000000000e+00 0.000000000000000e+00 0.000000000000000e+00
0.000000000000000e+00 0.000000000000000e+00 0.000000000000000e+00
0.000000000000000e+00 0.000000000000000e+00 0.000000000000000e+00

0.000000000000000e+00 0.000000000000000e+00 0.000000000000000e+00
0.000000000000000e+00 0.000000000000000e+00 0.000000000000000e+00
0.000000000000000e+00 0.000000000000000e+00 0.000000000000000e+00

0.000000000000000e+00 0.000000000000000e+00 0.000000000000000e+00
0.000000000000000e+00 0.000000000000000e+00 0.000000000000000e+00
0.000000000000000e+00 0.000000000000000e+00 0.000000000000000e+00

0.000000000000000e+00 0.000000000000000e+00 0.000000000000000e+00
0.000000000000000e+00 0.000000000000000e+00 0.000000000000000e+00
0.000000000000000e+00 0.000000000000000e+00 0.000000000000000e+00

0.000000000000000e+00 0.000000000000000e+00 0.000000000000000e+00
0.000000000000000e+00 0.000000000000000e+00 0.000000000000000e+00
0.000000000000000e+00 0.000000000000000e+00 0.000000000000000e+00

0.000000000000000e+00 0.000000000000000e+00 0.000000000000000e+00
0.000000000000000e+00 0.000000000000000e+00 0.000000000000000e+00
0.000000000000000e+00 0.000000000000000e+00 0.000000000000000e+00

0.000000000000000e+00 0.000000000000000e+00 0.000000000000000e+00
0.000000000000000e+00 0.000000000000000e+00 0.000000000000000e+00
0.000000000000000e+00 0.000000000000000e+00 0.000000000000000e+00

0.000000000000000e+00 0.000000000000000e+00 0.000000000000000e+00
0.000000000000000e+00 0.000000000000000e+00 0.000000000000000e+00
0.000000000000000e+00 0.000000000000000e+00 0.000000000000000e+00

0.000000000000000e+00 0.000000000000000e+00 0.000000000000000e+00
0.000000000000000e+00 0.000000000000000e+00 0.000000000000000e+00
0.000000000000000e+00 0.000000000000000e+00 0.000000000000000e+00

0.000000000000000e+00 0.000000000000000e+00 0.000000000000000e+00
0.000000000000000e+00 0.000000000000000e+00 0.000000000000000e+00
0.000000000000000e+00 0.000000000000000e+00 0.000000000000000e+00

0.000000000000000e+00 0.000000000000000e+00 0.000000000000000e+00
0.000000000000000e+00 0.000000000000000e+00 0.000000000000000e+00
0.000000000000000e+00 0.000000000000000e+00 0.000000000000000e+00

0.000000000000000e+00 0.000000000000000e+00 0.000000000000000e+00
0.000000000000000e+00 0.000000000000000e+00 0.000000000000000e+00
0.000000000000000e+00 0.000000000000000e+00 0.000000000000000e+00

0.000000000000000e+00 0.000000000000000e+00 0.000000000000000e+00
0.000000000000000e+00 0.000000000000000e+00 0.000000000000000e+00
0.000000000000000e+00 0.000000000000000e+00 0.000000000000000e+00

0.000000000000000e+00 0.000000000000000e+00 0.000000000000000e+00
0.000000000000000e+00 0.000000000000000e+00 0.000000000000000e+00
0.000000000000000e+00 0.000000000000000e+00 0.000000000000000e+00

0.000000000000000e+00 0.000000000000000e+00 0.000000000000000e+00
0.000000000000000e+00 0.000000000000000e+00 0.000000000000000e+00
0.000000000000000e+00 0.000000000000000e+00 0.000000000000000e+00

0.000000000000000e+00 0.000000000000000e+00 0.000000000000000e+00
0.000000000000000e+00 0.000000000000000e+00 0.000000000000000e+00
0.000000000000000e+00 0.000000000000000e+00 0.000000000000000e+00

0.000000000000000e+00 0.000000000000000e+00 0.000000000000000e+00
0.000000000000000e+00 0.000000000000000e+00 0.000000000000000e+00
0.000000000000000e+00 0.000000000000000e+00 0.000000000000000e+00

0.000000000000000e+00 0.000000000000000e+00 0.000000000000000e+00
0.000000000000000e+00 0.000000000000000e+00 0.000000000000000e+00
0.000000000000000e+00 0.000000000000000e+00 0.000000000000000e+00

0.000000000000000e+00 0.000000000000000e+00 0.000000000000000e+00
0.000000000000000e+00 0.000000000000000e+00 0.000000000000000e+00
0.000000000000000e+00 0.000000000000000e+00 0.000000000000000e+00

0.000000000000000e+00 0.000000000000000e+00 0.000000000000000e+00
0.000000000000000e+00 0.000000000000000e+00 0.000000000000000e+00
0.000000000000000e+00 0.000000000000000e+00 0.000000000000000e+00

0.000000000000000e+00 0.000000000000000e+00 0.000000000000000e+00
0.000000000000000e+00 0.000000000000000e+00 0.000000000000000e+00
0.000000000000000e+00 0.000000000000000e+00 0.000000000000000e+00

0.000000000000000e+00 0.000000000000000e+00 0.000000000000000e+00
0.000000000000000e+00 0.000000000000000e+00 0.000000000000000e+00
0.000000000000000e+00 0.000000000000000e+00 0.000000000000000e+00

0.000000000000000e+00 0.000000000000000e+00 0.000000000000000e+00
0.000000000000000e+00 0.000000000000000e+00 0.000000000000000e+00
0.000000000000000e+00 0.000000000000000e+00 0.000000000000000e+00

0.000000000000000e+00 0.000000000000000e+00 0.000000000000000e+00
0.000000000000000e+00 0.000000000000000e+00 0.000000000000000e+00
0.000000000000000e+00 0.000000000000000e+00 0.000000000000000e+00

0.000000000000000e+00 0.000000000000000e+00 0.000000000000000e+00
0.000000000000000e+00 0.000000000000000e+00 0.000000000000000e+00
0.000000000000000e+00 0.000000000000000e+00 0.000000000000000e+00

0.000000000000000e+00 0.000000000000000e+00 0.000000000000000e+00
0.000000000000000e+00 0.000000000000000e+00 0.000000000000000e+00
0.000000000000000e+00 0.000000000000000e+00 0.000000000000000e+00

0.000000000000000e+00 0.000000000000000e+00 0.000000000000000e+00
0.000000000000000e+00 0.000000000000000e+00 0.000000000000000e+00
0.000000000000000e+00 0.000000000000000e+00 0.000000000000000e+00

0.000000000000000e+00 0.000000000000000e+00 0.000000000000000e+00
0.000000000000000e+00 0.000000000000000e+00 0.000000000000000e+00
0.000000000000000e+00 0.000000000000000e+00 0.000000000000000e+00

0.000000000000000e+00 0.000000000000000e+00 0.000000000000000e+00
0.000000000000000e+00 0.000000000000000e+00 0.000000000000000e+00
0.000000000000000e+00 0.000000000000000e+00 0.000000000000000e+00

0.000000000000000e+00 0.000000000000000e+00 0.000000000000000e+00
0.000000000000000e+00 0.000000000000000e+00 0.000000000000000e+00
0.000000000000000e+00 0.000000000000000e+00 0.000000000000000e+00

0.000000000000000e+00 0.000000000000000e+00 0.000000000000000e+00
0.000000000000000e+00 0.000000000000000e+00 0.000000000000000e+00
0.000000000000000e+00 0.000000000000000e+00 0.000000000000000e+00

0.000000000000000e+00 0.000000000000000e+00 0.000000000000000e+00
0.000000000000000e+00 0.000000000000000e+00 0.000000000000000e+00
0.000000000000000e+00 0.000000000000000e+00 0.000000000000000e+00

0.000000000000000e+00 0.000000000000000e+00 0.000000000000000e+00
0.000000000000000e+00 0.000000000000000e+00 0.000000000000000e+00
0.000000000000000e+00 0.000000000000000e+00 0.000000000000000e+00

0.000000000000000e+00 0.000000000000000e+00 0.000000000000000e+00
0.000000000000000e+00 0.000000000000000e+00 0.000000000000000e+00
0.000000000000000e+00 0.000000000000000e+00 0.000000000000000e+00

0.000000000000000e+00 0.000000000000000e+00 0.000000000000000e+00
0.000000000000000e+00 0.000000000000000e+00 0.000000000000000e+00
0.000000000000000e+00 0.000000000000000e+00 0.000000000000000e+00

0.000000000000000e+00 0.000000000000000e+00 0.000000000000000e+00
0.000000000000000e+00 0.000000000000000e+00 0.000000000000000e+00
0.000000000000000e+00 0.000000000000000e+00 0.000000000000000e+00

0.000000000000000e+00 0.000000000000000e+00 0.000000000000000e+00
0.000000000000000e+00 0.000000000000000e+00 0.000000000000000e+00
0.000000000000000e+00 0.000000000000000e+00 0.000000000000000e+00

0.000000000000000e+00 0.000000000000000e+00 0.000000000000000e+00
0.000000000000000e+00 0.000000000000000e+00 0.000000000000000e+00
0.000000000000000e+00 0.000000000000000e+00 0.000000000000000e+00

0.000000000000000e+00 0.000000000000000e+00 0.000000000000000e+00
0.000000000000000e+00 0.000000000000000e+00 0.000000000000000e+00
0.000000000000000e+00 0.000000000000000e+00 0.000000000000000e+00

0.000000000000000e+00 0.000000000000000e+00 0.000000000000000e+00
0.000000000000000e+00 0.000000000000000e+00 0.000000000000000e+00
0.000000000000000e+00 0.000000000000000e+00 0.000000000000000e+00

0.000000000000000e+00 0.000000000000000e+00 0.000000000000000e+00
0.000000000000000e+00 0.000000000000000e+00 0.000000000000000e+00
0.000000000000000e+00 0.000000000000000e+00 0.000000000000000e+00

0.000000000000000e+00 0.000000000000000e+00 0.000000000000000e+00
0.000000000000000e+00 0.000000000000000e+00 0.000000000000000e+00
0.000000000000000e+00 0.000000000000000e+00 0.000000000000000e+00

0.000000000000000e+00 0.000000000000000e+00 0.000000000000000e+00
0.000000000000000e+00 0.000000000000000e+00 0.000000000000000e+00
0.000000000000000e+00 0.000000000000000e+00 0.000000000000000e+00

0.000000000000000e+00 0.000000000000000e+00 0.000000000000000e+00
0.000000000000000e+00 0.000000000000000e+00 0.000000000000000e+00
0.000000000000000e+00 0.000000000000000e+00 0.000000000000000e+00

0.000000000000000e+00 0.000000000000000e+00 0.000000000000000e+00
0.000000000000000e+00 0.000000000000000e+00 0.000000000000000e+00
0.000000000000000e+00 0.000000000000000e+00 0.000000000000000e+00

0.000000000000000e+00 0.000000000000000e+00 0.000000000000000e+00
0.000000000000000e+00 0.000000000000000e+00 0.000000000000000e+00
0.000000000000000e+00 0.000000000000000e+00 0.000000000000000e+00

0.000000000000000e+00 0.000000000000000e+00 0.000000000000000e+00
0.000000000000000e+00 0.000000000000000e+00 0.000000000000000e+00
0.000000000000000e+00 0.000000000000000e+00 0.000000000000000e+00

0.000000000000000e+00 0.000000000000000e+00 0.000000000000000e+00
0.000000000000000e+00 0.000000000000000e+00 0.000000000000000e+00
0.000000000000000e+00 0.000000000000000e+00 0.000000000000000e+00

0.000000000000000e+00 0.000000000000000e+00 0.000000000000000e+00
0.000000000000000e+00 0.000000000000000e+00 0.000000000000000e+00
0.000000000000000e+00 0.000000000000000e+00 0.000000000000000e+00

0.000000000000000e+00 0.000000000000000e+00 0.000000000000000e+00
0.000000000000000e+00 0.000000000000000e+00 0.000000000000000e+00
0.000000000000000e+00 0.000000000000000e+00 0.000000000000000e+00

0.000000000000000e+00 0.000000000000000e+00 0.000000000000000e+00
0.000000000000000e+00 0.000000000000000e+00 0.000000000000000e+00
0.000000000000000e+00 0.000000000000000e+00 0.000000000000000e+00

0.000000000000000e+00 0.000000000000000e+00 0.000000000000000e+00
0.000000000000000e+00 0.000000000000000e+00 0.000000000000000e+00
0.000000000000000e+00 0.000000000000000e+00 0.000000000000000e+00

0.000000000000000e+00 0.000000000000000e+00 0.000000000000000e+00
0.000000000000000e+00 0.000000000000000e+00 0.000000000000000e+00
0.000000000000000e+00 0.000000000000000e+00 0.000000000000000e+00

0.000000000000000e+00 0.000000000000000e+00 0.000000000000000e+00
0.000000000000000e+00 0.000000000000000e+00 0.000000000000000e+00
0.000000000000000e+00 0.000000000000000e+00 0.000000000000000e+00

0.000000000000000e+00 0.000000000000000e+00 0.000000000000000e+00
0.000000000000000e+00 0.000000000000000e+00 0.000000000000000e+00
0.000000000000000e+00 0.000000000000000e+00 0.000000000000000e+00

0.000000000000000e+00 0.000000000000000e+00 0.000000000000000e+00
0.000000000000000e+00 0.000000000000000e+00 0.000000000000000e+00
0.000000000000000e+00 0.000000000000000e+00 0.000000000000000e+00

0.000000000000000e+00 0.000000000000000e+00 0.000000000000000e+00
0.000000000000000e+00 0.000000000000000e+00 0.000000000000000e+00
0.000000000000000e+00 0.000000000000000e+00 0.000000000000000e+00

0.000000000000000e+00 0.000000000000000e+00 0.000000000000000e+00
0.000000000000000e+00 0.000000000000000e+00 0.000000000000000e+00
0.000000000000000e+00 0.000000000000000e+00 0.000000000000000e+00

0.000000000000000e+00 0.000000000000000e+00 0.000000000000000e+00
0.000000000000000e+00 0.000000000000000e+00 0.000000000000000e+00
0.000000000000000e+00 0.000000000000000e+00 0.000000000000000e+00

0.000000000000000e+00 0.000000000000000e+00 0.000000000000000e+00
0.000000000000000e+00 0.000000000000000e+00 0.000000000000000e+00
0.000000000000000e+00 0.000000000000000e+00 0.000000000000000e+00

0.000000000000000e+00 0.000000000000000e+00 0.000000000000000e+00
0.000000000000000e+00 0.000000000000000e+00 0.000000000000000e+00
0.000000000000000e+00 0.000000000000000e+00 0.000000000000000e+00

0.000000000000000e+00 0.000000000000000e+00 0.000000000000000e+00
0.000000000000000e+00 0.000000000000000e+00 0.000000000000000e+00
0.000000000000000e+00 0.000000000000000e+00 0.000000000000000e+00

0.000000000000000e+00 0.000000000000000e+00 0.000000000000000e+00
0.000000000000000e+00 0.000000000000000e+00 0.000000000000000e+00
0.000000000000000e+00 0.000000000000000e+00 0.000000000000000e+00

0.000000000000000e+00 0.000000000000000e+00 0.000000000000000e+00
0.000000000000000e+00 0.000000000000000e+00 0.000000000000000e+00
0.000000000000000e+00 0.000000000000000e+00 0.000000000000000e+00

0.000000000000000e+00 0.000000000000000e+00 0.000000000000000e+00
0.000000000000000e+00 0.000000000000000e+00 0.000000000000000e+00
0.000000000000000e+00 0.000000000000000e+00 0.000000000000000e+00

0.000000000000000e+00 0.000000000000000e+00 0.000000000000000e+00
0.000000000000000e+00 0.000000000000000e+00 0.000000000000000e+00
0.000000000000000e+00 0.000000000000000e+00 0.000000000000000e+00

0.000000000000000e+00 0.000000000000000e+00 0.000000000000000e+00
0.000000000000000e+00 0.000000000000000e+00 0.000000000000000e+00
0.000000000000000e+00 0.000000000000000e+00 0.000000000000000e+00

0.000000000000000e+00 0.000000000000000e+00 0.000000000000000e+00
0.000000000000000e+00 0.000000000000000e+00 0.000000000000000e+00
0.000000000000000e+00 0.000000000000000e+00 0.000000000000000e+00

0.000000000000000e+00 0.000000000000000e+00 0.000000000000000e+00
0.000000000000000e+00 0.000000000000000e+00 0.000000000000000e+00
0.000000000000000e+00 0.000000000000000e+00 0.000000000000000e+00

0.000000000000000e+00 0.000000000000000e+00 0.000000000000000e+00
0.000000000000000e+00 0.000000000000000e+00 0.000000000000000e+00
0.000000000000000e+00 0.000000000000000e+00 0.000000000000000e+00

0.000000000000000e+00 0.000000000000000e+00 0.000000000000000e+00
0.000000000000000e+00 0.000000000000000e+00 0.000000000000000e+00
0.000000000000000e+00 0.000000000000000e+00 0.000000000000000e+00

0.000000000000000e+00 0.000000000000000e+00 0.000000000000000e+00
0.000000000000000e+00 0.000000000000000e+00 0.000000000000000e+00
0.000000000000000e+00 0.000000000000000e+00 0.000000000000000e+00

0.000000000000000e+00 0.000000000000000e+00 0.000000000000000e+00
0.000000000000000e+00 0.000000000000000e+00 0.000000000000000e+00
0.000000000000000e+00 0.000000000000000e+00 0.000000000000000e+00

0.000000000000000e+00 0.000000000000000e+00 0.000000000000000e+00
0.000000000000000e+00 0.000000000000000e+00 0.000000000000000e+00
0.000000000000000e+00 0.000000000000000e+00 0.000000000000000e+00

0.000000000000000e+00 0.000000000000000e+00 0.000000000000000e+00
0.000000000000000e+00 0.000000000000000e+00 0.000000000000000e+00
0.000000000000000e+00 0.000000000000000e+00 0.000000000000000e+00

0.000000000000000e+00 0.000000000000000e+00 0.000000000000000e+00
0.000000000000000e+00 0.000000000000000e+00 0.000000000000000e+00
0.000000000000000e+00 0.000000000000000e+00 0.000000000000000e+00

0.000000000000000e+00 0.000000000000000e+00 0.000000000000000e+00
0.000000000000000e+00 0.000000000000000e+00 0.000000000000000e+00
0.000000000000000e+00 0.000000000000000e+00 0.000000000000000e+00

0.000000000000000e+00 0.000000000000000e+00 0.000000000000000e+00
0.000000000000000e+00 0.000000000000000e+00 0.000000000000000e+00
0.000000000000000e+00 0.000000000000000e+00 0.000000000000000e+00

0.000000000000000e+00 0.000000000000000e+00 0.000000000000000e+00
0.000000000000000e+00 0.000000000000000e+00 0.000000000000000e+00
0.000000000000000e+00 0.000000000000000e+00 0.000000000000000e+00

0.000000000000000e+00 0.000000000000000e+00 0.000000000000000e+00
0.000000000000000e+00 0.000000000000000e+00 0.000000000000000e+00
0.000000000000000e+00 0.000000000000000e+00 0.000000000000000e+00

0.000000000000000e+00 0.000000000000000e+00 0.000000000000000e+00
0.000000000000000e+00 0.000000000000000e+00 0.000000000000000e+00
0.000000000000000e+00 0.000000000000000e+00 0.000000000000000e+00

0.000000000000000e+00 0.000000000000000e+00 0.000000000000000e+00
0.000000000000000e+00 0.000000000000000e+00 0.000000000000000e+00
0.000000000000000e+00 0.000000000000000e+00 0.000000000000000e+00

0.000000000000000e+00 0.000000000000000e+00 0.000000000000000e+00
0.000000000000000e+00 0.000000000000000e+00 0.000000000000000e+00
0.000000000000000e+00 0.000000000000000e+00 0.000000000000000e+00

0.000000000000000e+00 0.000000000000000e+00 0.000000000000000e+00
0.000000000000000e+00 0.000000000000000e+00 0.000000000000000e+00
0.000000000000000e+00 0.000000000000000e+00 0.000000000000000e+00

0.000000000000000e+00 0.000000000000000e+00 0.000000000000000e+00
0.000000000000000e+00 0.000000000000000e+00 0.000000000000000e+00
0.000000000000000e+00 0.000000000000000e+00 0.000000000000000e+00

0.000000000000000e+00 0.000000000000000e+00 0.000000000000000e+00
0.000000000000000e+00 0.000000000000000e+00 0.000000000000000e+00
0.000000000000000e+00 0.000000000000000e+00 0.000000000000000e+00

0.000000000000000e+00 0.000000000000000e+00 0.000000000000000e+00
0.000000000000000e+00 0.000000000000000e+00 0.000000000000000e+00
0.000000000000000e+00 0.000000000000000e+00 0.000000000000000e+00

0.000000000000000e+00 0.000000000000000e+00 0.000000000000000e+00
0.000000000000000e+00 0.000000000000000e+00 0.000000000000000e+00
0.000000000000000e+00 0.000000000000000e+00 0.000000000000000e+00

0.000000000000000e+00 0.000000000000000e+00 0.000000000000000e+00
0.000000000000000e+00 0.000000000000000e+00 0.000000000000000e+00
0.000000000000000e+00 0.000000000000000e+00 0.000000000000000e+00

0.000000000000000e+00 0.000000000000000e+00 0.000000000000000e+00
0.000000000000000e+00 0.000000000000000e+00 0.000000000000000e+00
0.000000000000000e+00 0.000000000000000e+00 0.000000000000000e+00

0.000000000000000e+00 0.000000000000000e+00 0.000000000000000e+00
0.000000000000000e+00 0.000000000000000e+00 0.000000000000000e+00
0.000000000000000e+00 0.000000000000000e+00 0.000000000000000e+00

0.000000000000000e+00 0.000000000000000e+00 0.000000000000000e+00
0.000000000000000e+00 0.000000000000000e+00 0.000000000000000e+00
0.000000000000000e+00 0.000000000000000e+00 0.000000000000000e+00

0.000000000000000e+00 0.000000000000000e+00 0.000000000000000e+00
0.000000000000000e+00 0.000000000000000e+00 0.000000000000000e+00
0.000000000000000e+00 0.000000000000000e+00 0.000000000000000e+00

0.000000000000000e+00 0.000000000000000e+00 0.000000000000000e+00
0.000000000000000e+00 0.000000000000000e+00 0.000000000000000e+00
0.000000000000000e+00 0.000000000000000e+00 0.000000000000000e+00

0.000000000000000e+00 0.000000000000000e+00 0.000000000000000e+00
0.000000000000000e+00 0.000000000000000e+00 0.000000000000000e+00
0.000000000000000e+00 0.000000000000000e+00 0.000000000000000e+00

0.000000000000000e+00 0.000000000000000e+00 0.000000000000000e+00
0.000000000000000e+00 0.000000000000000e+00 0.000000000000000e+00
0.000000000000000e+00 0.000000000000000e+00 0.000000000000000e+00

0.000000000000000e+00 0.000000000000000e+00 0.000000000000000e+00
0.000000000000000e+00 0.000000000000000e+00 0.000000000000000e+00
0.000000000000000e+00 0.000000000000000e+00 0.000000000000000e+00

0.000000000000000e+00 0.000000000000000e+00 0.000000000000000e+00
0.000000000000000e+00 0.000000000000000e+00 0.000000000000000e+00
0.000000000000000e+00 0.000000000000000e+00 0.000000000000000e+00

0.000000000000000e+00 0.000000000000000e+00 0.000000000000000e+00
0.000000000000000e+00 0.000000000000000e+00 0.000000000000000e+00
0.000000000000000e+00 0.000000000000000e+00 0.000000000000000e+00

0.000000000000000e+00 0.000000000000000e+00 0.000000000000000e+00
0.000000000000000e+00 0.000000000000000e+00 0.000000000000000e+00
0.000000000000000e+00 0.000000000000000e+00 0.000000000000000e+00

0.000000000000000e+00 0.000000000000000e+00 0.000000000000000e+00
0.000000000000000e+00 0.000000000000000e+00 0.000000000000000e+00
0.000000000000000e+00 0.000000000000000e+00 0.000000000000000e+00

0.000000000000000e+00 0.000000000000000e+00 0.000000000000000e+00
0.000000000000000e+00 0.000000000000000e+00 0.000000000000000e+00
0.000000000000000e+00 0.000000000000000e+00 0.000000000000000e+00

0.000000000000000e+00 0.000000000000000e+00 0.000000000000000e+00
0.000000000000000e+00 0.000000000000000e+00 0.000000000000000e+00
0.000000000000000e+00 0.000000000000000e+00 0.000000000000000e+00

0.000000000000000e+00 0.000000000000000e+00 0.000000000000000e+00
0.000000000000000e+00 0.000000000000000e+00 0.000000000000000e+00
0.000000000000000e+00 0.000000000000000e+00 0.000000000000000e+00

0.000000000000000e+00 0.000000000000000e+00 0.000000000000000e+00
0.000000000000000e+00 0.000000000000000e+00 0.000000000000000e+00
0.000000000000000e+00 0.000000000000000e+00 0.000000000000000e+00

0.000000000000000e+00 0.000000000000000e+00 0.000000000000000e+00
0.000000000000000e+00 0.000000000000000e+00 0.000000000000000e+00
0.000000000000000e+00 0.000000000000000e+00 0.000000000000000e+00

0.000000000000000e+00 0.000000000000000e+00 0.000000000000000e+00
0.000000000000000e+00 0.000000000000000e+00 0.000000000000000e+00
0.000000000000000e+00 0.000000000000000e+00 0.000000000000000e+00

0.000000000000000e+00 0.000000000000000e+00 0.000000000000000e+00
0.000000000000000e+00 0.000000000000000e+00 0.000000000000000e+00
0.000000000000000e+00 0.000000000000000e+00 0.000000000000000e+00

0.000000000000000e+00 0.000000000000000e+00 0.000000000000000e+00
0.000000000000000e+00 0.000000000000000e+00 0.000000000000000e+00
0.000000000000000e+00 0.000000000000000e+00 0.000000000000000e+00

0.000000000000000e+00 0.000000000000000e+00 0.000000000000000e+00
0.000000000000000e+00 0.000000000000000e+00 0.000000000000000e+00
0.000000000000000e+00 0.000000000000000e+00 0.000000000000000e+00

0.000000000000000e+00 0.000000000000000e+00 0.000000000000000e+00
0.000000000000000e+00 0.000000000000000e+00 0.000000000000000e+00
0.000000000000000e+00 0.000000000000000e+00 0.000000000000000e+00

0.000000000000000e+00 0.000000000000000e+00 0.000000000000000e+00
0.000000000000000e+00 0.000000000000000e+00 0.000000000000000e+00
0.000000000000000e+00 0.000000000000000e+00 0.000000000000000e+00

0.000000000000000e+00 0.000000000000000e+00 0.000000000000000e+00
0.000000000000000e+00 0.000000000000000e+00 0.000000000000000e+00
0.000000000000000e+00 0.000000000000000e+00 0.000000000000000e+00

0.000000000000000e+00 0.000000000000000e+00 0.000000000000000e+00
0.000000000000000e+00 0.000000000000000e+00 0.000000000000000e+00
0.000000000000000e+00 0.000000000000000e+00 0.000000000000000e+00

0.000000000000000e+00 0.000000000000000e+00 0.000000000000000e+00
0.000000000000000e+00 0.000000000000000e+00 0.000000000000000e+00
0.000000000000000e+00 0.000000000000000e+00 0.000000000000000e+00

0.000000000000000e+00 0.000000000000000e+00 0.000000000000000e+00
0.000000000000000e+00 0.000000000000000e+00 0.000000000000000e+00
0.000000000000000e+00 0.000000000000000e+00 0.000000000000000e+00

0.000000000000000e+00 0.000000000000000e+00 0.000000000000000e+00
0.000000000000000e+00 0.000000000000000e+00 0.000000000000000e+00
0.000000000000000e+00 0.000000000000000e+00 0.000000000000000e+00

0.000000000000000e+00 0.000000000000000e+00 0.000000000000000e+00
0.000000000000000e+00 0.000000000000000e+00 0.000000000000000e+00
0.000000000000000e+00 0.000000000000000e+00 0.000000000000000e+00

0.000000000000000e+00 0.000000000000000e+00 0.000000000000000e+00
0.000000000000000e+00 0.000000000000000e+00 0.000000000000000e+00
0.000000000000000e+00 0.000000000000000e+00 0.000000000000000e+00

0.000000000000000e+00 0.000000000000000e+00 0.000000000000000e+00
0.000000000000000e+00 0.000000000000000e+00 0.000000000000000e+00
0.000000000000000e+00 0.000000000000000e+00 0.000000000000000e+00

0.000000000000000e+00 0.000000000000000e+00 0.000000000000000e+00
0.000000000000000e+00 0.000000000000000e+00 0.000000000000000e+00
0.000000000000000e+00 0.000000000000000e+00 0.000000000000000e+00

0.000000000000000e+00 0.000000000000000e+00 0.000000000000000e+00
0.000000000000000e+00 0.000000000000000e+00 0.000000000000000e+00
0.000000000000000e+00 0.000000000000000e+00 0.000000000000000e+00

0.000000000000000e+00 0.000000000000000e+00 0.000000000000000e+00
0.000000000000000e+00 0.000000000000000e+00 0.000000000000000e+00
0.000000000000000e+00 0.000000000000000e+00 0.000000000000000e+00

0.000000000000000e+00 0.000000000000000e+00 0.000000000000000e+00
0.000000000000000e+00 0.000000000000000e+00 0.000000000000000e+00
0.000000000000000e+00 0.000000000000000e+00 0.000000000000000e+00

0.000000000000000e+00 0.000000000000000e+00 0.000000000000000e+00
0.000000000000000e+00 0.000000000000000e+00 0.000000000000000e+00
0.000000000000000e+00 0.000000000000000e+00 0.000000000000000e+00

0.000000000000000e+00 0.000000000000000e+00 0.000000000000000e+00
0.000000000000000e+00 0.000000000000000e+00 0.000000000000000e+00
0.000000000000000e+00 0.000000000000000e+00 0.000000000000000e+00

0.000000000000000e+00 0.000000000000000e+00 0.000000000000000e+00
0.000000000000000e+00 0.000000000000000e+00 0.000000000000000e+00
0.000000000000000e+00 0.000000000000000e+00 0.000000000000000e+00

0.000000000000000e+00 0.000000000000000e+00 0.000000000000000e+00
0.000000000000000e+00 0.000000000000000e+00 0.000000000000000e+00
0.000000000000000e+00 0.000000000000000e+00 0.000000000000000e+00

0.000000000000000e+00 0.000000000000000e+00 0.000000000000000e+00
0.000000000000000e+00 0.000000000000000e+00 0.000000000000000e+00
0.000000000000000e+00 0.000000000000000e+00 0.000000000000000e+00

0.000000000000000e+00 0.000000000000000e+00 0.000000000000000e+00
0.000000000000000e+00 0.000000000000000e+00 0.000000000000000e+00
0.000000000000000e+00 0.000000000000000e+00 0.000000000000000e+00

0.000000000000000e+00 0.000000000000000e+00 0.000000000000000e+00
0.000000000000000e+00 0.000000000000000e+00 0.000000000000000e+00
0.000000000000000e+00 0.000000000000000e+00 0.000000000000000e+00

0.000000000000000e+00 0.000000000000000e+00 0.000000000000000e+00
0.000000000000000e+00 0.000000000000000e+00 0.000000000000000e+00
0.000000000000000e+00 0.000000000000000e+00 0.000000000000000e+00

0.000000000000000e+00 0.000000000000000e+00 0.000000000000000e+00
0.000000000000000e+00 0.000000000000000e+00 0.000000000000000e+00
0.000000000000000e+00 0.000000000000000e+00 0.000000000000000e+00

0.000000000000000e+00 0.000000000000000e+00 0.000000000000000e+00
0.000000000000000e+00 0.000000000000000e+00 0.000000000000000e+00
0.000000000000000e+00 0.000000000000000e+00 0.000000000000000e+00

0.000000000000000e+00 0.000000000000000e+00 0.000000000000000e+00
0.000000000000000e+00 0.000000000000000e+00 0.000000000000000e+00
0.000000000000000e+00 0.000000000000000e+00 0.000000000000000e+00

0.000000000000000e+00 0.000000000000000e+00 0.000000000000000e+00
0.000000000000000e+00 0.000000000000000e+00 0.000000000000000e+00
0.000000000000000e+00 0.000000000000000e+00 0.000000000000000e+00

0.000000000000000e+00 0.000000000000000e+00 0.000000000000000e+00
0.000000000000000e+00 0.000000000000000e+00 0.000000000000000e+00
0.000000000000000e+00 0.000000000000000e+00 0.000000000000000e+00

0.000000000000000e+00 0.000000000000000e+00 0.000000000000000e+00
0.000000000000000e+00 0.000000000000000e+00 0.000000000000000e+00
0.000000000000000e+00 0.000000000000000e+00 0.000000000000000e+00

0.000000000000000e+00 0.000000000000000e+00 0.000000000000000e+00
0.000000000000000e+00 0.000000000000000e+00 0.000000000000000e+00
0.000000000000000e+00 0.000000000000000e+00 0.000000000000000e+00

0.000000000000000e+00 0.000000000000000e+00 0.000000000000000e+00
0.000000000000000e+00 0.000000000000000e+00 0.000000000000000e+00
0.000000000000000e+00 0.000000000000000e+00 0.000000000000000e+00

0.000000000000000e+00 0.000000000000000e+00 0.000000000000000e+00
0.000000000000000e+00 0.000000000000000e+00 0.000000000000000e+00
0.000000000000000e+00 0.000000000000000e+00 0.000000000000000e+00

0.000000000000000e+00 0.000000000000000e+00 0.000000000000000e+00
0.000000000000000e+00 0.000000000000000e+00 0.000000000000000e+00
0.000000000000000e+00 0.000000000000000e+00 0.000000000000000e+00

0.000000000000000e+00 0.000000000000000e+00 0.000000000000000e+00
0.000000000000000e+00 0.000000000000000e+00 0.000000000000000e+00
0.000000000000000e+00 0.000000000000000e+00 0.000000000000000e+00

0.000000000000000e+00 0.000000000000000e+00 0.000000000000000e+00
0.000000000000000e+00 0.000000000000000e+00 0.000000000000000e+00
0.000000000000000e+00 0.000000000000000e+00 0.000000000000000e+00

0.000000000000000e+00 0.000000000000000e+00 0.000000000000000e+00
0.000000000000000e+00 0.000000000000000e+00 0.000000000000000e+00
0.000000000000000e+00 0.000000000000000e+00 0.000000000000000e+00

0.000000000000000e+00 0.000000000000000e+00 0.000000000000000e+00
0.000000000000000e+00 0.000000000000000e+00 0.000000000000000e+00
0.000000000000000e+00 0.000000000000000e+00 0.000000000000000e+00

0.000000000000000e+00 0.000000000000000e+00 0.000000000000000e+00
0.000000000000000e+00 0.000000000000000e+00 0.000000000000000e+00
0.000000000000000e+00 0.000000000000000e+00 0.000000000000000e+00

0.000000000000000e+00 0.000000000000000e+00 0.000000000000000e+00
0.000000000000000e+00 0.000000000000000e+00 0.000000000000000e+00
0.000000000000000e+00 0.000000000000000e+00 0.000000000000000e+00

0.000000000000000e+00 0.000000000000000e+00 0.000000000000000e+00
0.000000000000000e+00 0.000000000000000e+00 0.000000000000000e+00
0.000000000000000e+00 0.000000000000000e+00 0.000000000000000e+00

0.000000000000000e+00 0.000000000000000e+00 0.000000000000000e+00
0.000000000000000e+00 0.000000000000000e+00 0.000000000000000e+00
0.000000000000000e+00 0.000000000000000e+00 0.000000000000000e+00

0.000000000000000e+00 0.000000000000000e+00 0.000000000000000e+00
0.000000000000000e+00 0.000000000000000e+00 0.000000000000000e+00
0.000000000000000e+00 0.000000000000000e+00 0.000000000000000e+00

0.000000000000000e+00 0.000000000000000e+00 0.000000000000000e+00
0.000000000000000e+00 0.000000000000000e+00 0.000000000000000e+00
0.000000000000000e+00 0.000000000000000e+00 0.000000000000000e+00

0.000000000000000e+00 0.000000000000000e+00 0.000000000000000e+00
0.000000000000000e+00 0.000000000000000e+00 0.000000000000000e+00
0.000000000000000e+00 0.000000000000000e+00 0.000000000000000e+00

0.000000000000000e+00 0.000000000000000e+00 0.000000000000000e+00
0.000000000000000e+00 0.000000000000000e+00 0.000000000000000e+00
0.000000000000000e+00 0.000000000000000e+00 0.000000000000000e+00

0.000000000000000e+00 0.000000000000000e+00 0.000000000000000e+00
0.000000000000000e+00 0.000000000000000e+00 0.000000000000000e+00
0.000000000000000e+00 0.000000000000000e+00 0.000000000000000e+00

0.000000000000000e+00 0.000000000000000e+00 0.000000000000000e+00
0.000000000000000e+00 0.000000000000000e+00 0.000000000000000e+00
0.000000000000000e+00 0.000000000000000e+00 0.000000000000000e+00

0.000000000000000e+00 0.000000000000000e+00 0.000000000000000e+00
0.000000000000000e+00 0.000000000000000e+00 0.000000000000000e+00
0.000000000000000e+00 0.000000000000000e+00 0.000000000000000e+00

0.000000000000000e+00 0.000000000000000e+00 0.000000000000000e+00
0.000000000000000e+00 0.000000000000000e+00 0.000000000000000e+00
0.000000000000000e+00 0.000000000000000e+00 0.000000000000000e+00

0.000000000000000e+00 0.000000000000000e+00 0.000000000000000e+00
0.000000000000000e+00 0.000000000000000e+00 0.000000000000000e+00
0.000000000000000e+00 0.000000000000000e+00 0.000000000000000e+00

0.000000000000000e+00 0.000000000000000e+00 0.000000000000000e+00
0.000000000000000e+00 0.000000000000000e+00 0.000000000000000e+00
0.000000000000000e+00 0.000000000000000e+00 0.000000000000000e+00

0.000000000000000e+00 0.000000000000000e+00 0.000000000000000e+00
0.000000000000000e+00 0.000000000000000e+00 0.000000000000000e+00
0.000000000000000e+00 0.000000000000000e+00 0.000000000000000e+00

0.000000000000000e+00 0.000000000000000e+00 0.000000000000000e+00
0.000000000000000e+00 0.000000000000000e+00 0.000000000000000e+00
0.000000000000000e+00 0.000000000000000e+00 0.000000000000000e+00

0.000000000000000e+00 0.000000000000000e+00 0.000000000000000e+00
0.000000000000000e+00 0.000000000000000e+00 0.000000000000000e+00
0.000000000000000e+00 0.000000000000000e+00 0.000000000000000e+00

0.000000000000000e+00 0.000000000000000e+00 0.000000000000000e+00
0.000000000000000e+00 0.000000000000000e+00 0.000000000000000e+00
0.000000000000000e+00 0.000000000000000e+00 0.000000000000000e+00

0.000000000000000e+00 0.000000000000000e+00 0.000000000000000e+00
0.000000000000000e+00 0.000000000000000e+00 0.000000000000000e+00
0.000000000000000e+00 0.000000000000000e+00 0.000000000000000e+00

0.000000000000000e+00 0.000000000000000e+00 0.000000000000000e+00
0.000000000000000e+00 0.000000000000000e+00 0.000000000000000e+00
0.000000000000000e+00 0.000000000000000e+00 0.000000000000000e+00

0.000000000000000e+00 0.000000000000000e+00 0.000000000000000e+00
0.000000000000000e+00 0.000000000000000e+00 0.000000000000000e+00
0.000000000000000e+00 0.000000000000000e+00 0.000000000000000e+00

0.000000000000000e+00 0.000000000000000e+00 0.000000000000000e+00
0.000000000000000e+00 0.000000000000000e+00 0.000000000000000e+00
0.000000000000000e+00 0.000000000000000e+00 0.000000000000000e+00

0.000000000000000e+00 0.000000000000000e+00 0.000000000000000e+00
0.000000000000000e+00 0.000000000000000e+00 0.000000000000000e+00
0.000000000000000e+00 0.000000000000000e+00 0.000000000000000e+00

0.000000000000000e+00 0.000000000000000e+00 0.000000000000000e+00
0.000000000000000e+00 0.000000000000000e+00 0.000000000000000e+00
0.000000000000000e+00 0.000000000000000e+00 0.000000000000000e+00

0.000000000000000e+00 0.000000000000000e+00 0.000000000000000e+00
0.000000000000000e+00 0.000000000000000e+00 0.000000000000000e+00
0.000000000000000e+00 0.000000000000000e+00 0.000000000000000e+00

0.000000000000000e+00 0.000000000000000e+00 0.000000000000000e+00
0.000000000000000e+00 0.000000000000000e+00 0.000000000000000e+00
0.000000000000000e+00 0.000000000000000e+00 0.000000000000000e+00

0.000000000000000e+00 0.000000000000000e+00 0.000000000000000e+00
0.000000000000000e+00 0.000000000000000e+00 0.000000000000000e+00
0.000000000000000e+00 0.000000000000000e+00 0.000000000000000e+00

0.000000000000000e+00 0.000000000000000e+00 0.000000000000000e+00
0.000000000000000e+00 0.000000000000000e+00 0.000000000000000e+00
0.000000000000000e+00 0.000000000000000e+00 0.000000000000000e+00

0.000000000000000e+00 0.000000000000000e+00 0.000000000000000e+00
0.000000000000000e+00 0.000000000000000e+00 0.000000000000000e+00
0.000000000000000e+00 0.000000000000000e+00 0.000000000000000e+00

0.000000000000000e+00 0.000000000000000e+00 0.000000000000000e+00
0.000000000000000e+00 0.000000000000000e+00 0.000000000000000e+00
0.000000000000000e+00 0.000000000000000e+00 0.000000000000000e+00

0.000000000000000e+00 0.000000000000000e+00 0.000000000000000e+00
0.000000000000000e+00 0.000000000000000e+00 0.000000000000000e+00
0.000000000000000e+00 0.000000000000000e+00 0.000000000000000e+00

0.000000000000000e+00 0.000000000000000e+00 0.000000000000000e+00
0.000000000000000e+00 0.000000000000000e+00 0.000000000000000e+00
0.000000000000000e+00 0.000000000000000e+00 0.000000000000000e+00

0.000000000000000e+00 0.000000000000000e+00 0.000000000000000e+00
0.000000000000000e+00 0.000000000000000e+00 0.000000000000000e+00
0.000000000000000e+00 0.000000000000000e+00 0.000000000000000e+00

0.000000000000000e+00 0.000000000000000e+00 0.000000000000000e+00
0.000000000000000e+00 0.000000000000000e+00 0.000000000000000e+00
0.000000000000000e+00 0.000000000000000e+00 0.000000000000000e+00

0.000000000000000e+00 0.000000000000000e+00 0.000000000000000e+00
0.000000000000000e+00 0.000000000000000e+00 0.000000000000000e+00
0.000000000000000e+00 0.000000000000000e+00 0.000000000000000e+00

0.000000000000000e+00 0.000000000000000e+00 0.000000000000000e+00
0.000000000000000e+00 0.000000000000000e+00 0.000000000000000e+00
0.000000000000000e+00 0.000000000000000e+00 0.000000000000000e+00

0.000000000000000e+00 0.000000000000000e+00 0.000000000000000e+00
0.000000000000000e+00 0.000000000000000e+00 0.000000000000000e+00
0.000000000000000e+00 0.000000000000000e+00 0.000000000000000e+00

0.000000000000000e+00 0.000000000000000e+00 0.000000000000000e+00
0.000000000000000e+00 0.000000000000000e+00 0.000000000000000e+00
0.000000000000000e+00 0.000000000000000e+00 0.000000000000000e+00

0.000000000000000e+00 0.000000000000000e+00 0.000000000000000e+00
0.000000000000000e+00 0.000000000000000e+00 0.000000000000000e+00
0.000000000000000e+00 0.000000000000000e+00 0.000000000000000e+00

0.000000000000000e+00 0.000000000000000e+00 0.000000000000000e+00
0.000000000000000e+00 0.000000000000000e+00 0.000000000000000e+00
0.000000000000000e+00 0.000000000000000e+00 0.000000000000000e+00

0.000000000000000e+00 0.000000000000000e+00 0.000000000000000e+00
0.000000000000000e+00 0.000000000000000e+00 0.000000000000000e+00
0.000000000000000e+00 0.000000000000000e+00 0.000000000000000e+00

0.000000000000000e+00 0.000000000000000e+00 0.000000000000000e+00
0.000000000000000e+00 0.000000000000000e+00 0.000000000000000e+00
0.000000000000000e+00 0.000000000000000e+00 0.000000000000000e+00

0.000000000000000e+00 0.000000000000000e+00 0.000000000000000e+00
0.000000000000000e+00 0.000000000000000e+00 0.000000000000000e+00
0.000000000000000e+00 0.000000000000000e+00 0.000000000000000e+00

0.000000000000000e+00 0.000000000000000e+00 0.000000000000000e+00
0.000000000000000e+00 0.000000000000000e+00 0.000000000000000e+00
0.000000000000000e+00 0.000000000000000e+00 0.000000000000000e+00

0.000000000000000e+00 0.000000000000000e+00 0.000000000000000e+00
0.000000000000000e+00 0.000000000000000e+00 0.000000000000000e+00
0.000000000000000e+00 0.000000000000000e+00 0.000000000000000e+00

0.000000000000000e+00 0.000000000000000e+00 0.000000000000000e+00
0.000000000000000e+00 0.000000000000000e+00 0.000000000000000e+00
0.000000000000000e+00 0.000000000000000e+00 0.000000000000000e+00

0.000000000000000e+00 0.000000000000000e+00 0.000000000000000e+00
0.000000000000000e+00 0.000000000000000e+00 0.000000000000000e+00
0.000000000000000e+00 0.000000000000000e+00 0.000000000000000e+00

0.000000000000000e+00 0.000000000000000e+00 0.000000000000000e+00
0.000000000000000e+00 0.000000000000000e+00 0.000000000000000e+00
0.000000000000000e+00 0.000000000000000e+00 0.000000000000000e+00

0.000000000000000e+00 0.000000000000000e+00 0.000000000000000e+00
0.000000000000000e+00 0.000000000000000e+00 0.000000000000000e+00
0.000000000000000e+00 0.000000000000000e+00 0.000000000000000e+00

0.000000000000000e+00 0.000000000000000e+00 0.000000000000000e+00
0.000000000000000e+00 0.000000000000000e+00 0.000000000000000e+00
0.000000000000000e+00 0.000000000000000e+00 0.000000000000000e+00

0.000000000000000e+00 0.000000000000000e+00 0.000000000000000e+00
0.000000000000000e+00 0.000000000000000e+00 0.000000000000000e+00
0.000000000000000e+00 0.000000000000000e+00 0.000000000000000e+00

0.000000000000000e+00 0.000000000000000e+00 0.000000000000000e+00
0.000000000000000e+00 0.000000000000000e+00 0.000000000000000e+00
0.000000000000000e+00 0.000000000000000e+00 0.000000000000000e+00

0.000000000000000e+00 0.000000000000000e+00 0.000000000000000e+00
0.000000000000000e+00 0.000000000000000e+00 0.000000000000000e+00
0.000000000000000e+00 0.000000000000000e+00 0.000000000000000e+00

0.000000000000000e+00 0.000000000000000e+00 0.000000000000000e+00
0.000000000000000e+00 0.000000000000000e+00 0.000000000000000e+00
0.000000000000000e+00 0.000000000000000e+00 0.000000000000000e+00

0.000000000000000e+00 0.000000000000000e+00 0.000000000000000e+00
0.000000000000000e+00 0.000000000000000e+00 0.000000000000000e+00
0.000000000000000e+00 0.000000000000000e+00 0.000000000000000e+00

0.000000000000000e+00 0.000000000000000e+00 0.000000000000000e+00
0.000000000000000e+00 0.000000000000000e+00 0.000000000000000e+00
0.000000000000000e+00 0.000000000000000e+00 0.000000000000000e+00

0.000000000000000e+00 0.000000000000000e+00 0.000000000000000e+00
0.000000000000000e+00 0.000000000000000e+00 0.000000000000000e+00
0.000000000000000e+00 0.000000000000000e+00 0.000000000000000e+00

0.000000000000000e+00 0.000000000000000e+00 0.000000000000000e+00
0.000000000000000e+00 0.000000000000000e+00 0.000000000000000e+00
0.000000000000000e+00 0.000000000000000e+00 0.000000000000000e+00

0.000000000000000e+00 0.000000000000000e+00 0.000000000000000e+00
0.000000000000000e+00 0.000000000000000e+00 0.000000000000000e+00
0.000000000000000e+00 0.000000000000000e+00 0.000000000000000e+00

0.000000000000000e+00 0.000000000000000e+00 0.000000000000000e+00
0.000000000000000e+00 0.000000000000000e+00 0.000000000000000e+00
0.000000000000000e+00 0.000000000000000e+00 0.000000000000000e+00

0.000000000000000e+00 0.000000000000000e+00 0.000000000000000e+00
0.000000000000000e+00 0.000000000000000e+00 0.000000000000000e+00
0.000000000000000e+00 0.000000000000000e+00 0.000000000000000e+00

0.000000000000000e+00 0.000000000000000e+00 0.000000000000000e+00
0.000000000000000e+00 0.000000000000000e+00 0.000000000000000e+00
0.000000000000000e+00 0.000000000000000e+00 0.000000000000000e+00

0.000000000000000e+00 0.000000000000000e+00 0.000000000000000e+00
0.000000000000000e+00 0.000000000000000e+00 0.000000000000000e+00
0.000000000000000e+00 0.000000000000000e+00 0.000000000000000e+00

0.000000000000000e+00 0.000000000000000e+00 0.000000000000000e+00
0.000000000000000e+00 0.000000000000000e+00 0.000000000000000e+00
0.000000000000000e+00 0.000000000000000e+00 0.000000000000000e+00

0.000000000000000e+00 0.000000000000000e+00 0.000000000000000e+00
0.000000000000000e+00 0.000000000000000e+00 0.000000000000000e+00
0.000000000000000e+00 0.000000000000000e+00 0.000000000000000e+00

0.000000000000000e+00 0.000000000000000e+00 0.000000000000000e+00
0.000000000000000e+00 0.000000000000000e+00 0.000000000000000e+00
0.000000000000000e+00 0.000000000000000e+00 0.000000000000000e+00

0.000000000000000e+00 0.000000000000000e+00 0.000000000000000e+00
0.000000000000000e+00 0.000000000000000e+00 0.000000000000000e+00
0.000000000000000e+00 0.000000000000000e+00 0.000000000000000e+00

0.000000000000000e+00 0.000000000000000e+00 0.000000000000000e+00
0.000000000000000e+00 0.000000000000000e+00 0.000000000000000e+00
0.000000000000000e+00 0.000000000000000e+00 0.000000000000000e+00

0.000000000000000e+00 0.000000000000000e+00 0.000000000000000e+00
0.000000000000000e+00 0.000000000000000e+00 0.000000000000000e+00
0.000000000000000e+00 0.000000000000000e+00 0.000000000000000e+00

0.000000000000000e+00 0.000000000000000e+00 0.000000000000000e+00
0.000000000000000e+00 0.000000000000000e+00 0.000000000000000e+00
0.000000000000000e+00 0.000000000000000e+00 0.000000000000000e+00

0.000000000000000e+00 0.000000000000000e+00 0.000000000000000e+00
0.000000000000000e+00 0.000000000000000e+00 0.000000000000000e+00
0.000000000000000e+00 0.000000000000000e+00 0.000000000000000e+00

0.000000000000000e+00 0.000000000000000e+00 0.000000000000000e+00
0.000000000000000e+00 0.000000000000000e+00 0.000000000000000e+00
0.000000000000000e+00 0.000000000000000e+00 0.000000000000000e+00

0.000000000000000e+00 0.000000000000000e+00 0.000000000000000e+00
0.000000000000000e+00 0.000000000000000e+00 0.000000000000000e+00
0.000000000000000e+00 0.000000000000000e+00 0.000000000000000e+00

0.000000000000000e+00 0.000000000000000e+00 0.000000000000000e+00
0.000000000000000e+00 0.000000000000000e+00 0.000000000000000e+00
0.000000000000000e+00 0.000000000000000e+00 0.000000000000000e+00

0.000000000000000e+00 0.000000000000000e+00 0.000000000000000e+00
0.000000000000000e+00 0.000000000000000e+00 0.000000000000000e+00
0.000000000000000e+00 0.000000000000000e+00 0.000000000000000e+00

0.000000000000000e+00 0.000000000000000e+00 0.000000000000000e+00
0.000000000000000e+00 0.000000000000000e+00 0.000000000000000e+00
0.000000000000000e+00 0.000000000000000e+00 0.000000000000000e+00

0.000000000000000e+00 0.000000000000000e+00 0.000000000000000e+00
0.000000000000000e+00 0.000000000000000e+00 0.000000000000000e+00
0.000000000000000e+00 0.000000000000000e+00 0.000000000000000e+00

0.000000000000000e+00 0.000000000000000e+00 0.000000000000000e+00
0.000000000000000e+00 0.000000000000000e+00 0.000000000000000e+00
0.000000000000000e+00 0.000000000000000e+00 0.000000000000000e+00

0.000000000000000e+00 0.000000000000000e+00 0.000000000000000e+00
0.000000000000000e+00 0.000000000000000e+00 0.000000000000000e+00
0.000000000000000e+00 0.000000000000000e+00 0.000000000000000e+00

0.000000000000000e+00 0.000000000000000e+00 0.000000000000000e+00
0.000000000000000e+00 0.000000000000000e+00 0.000000000000000e+00
0.000000000000000e+00 0.000000000000000e+00 0.000000000000000e+00

0.000000000000000e+00 0.000000000000000e+00 0.000000000000000e+00
0.000000000000000e+00 0.000000000000000e+00 0.000000000000000e+00
0.000000000000000e+00 0.000000000000000e+00 0.000000000000000e+00

0.000000000000000e+00 0.000000000000000e+00 0.000000000000000e+00
0.000000000000000e+00 0.000000000000000e+00 0.000000000000000e+00
0.000000000000000e+00 0.000000000000000e+00 0.000000000000000e+00

0.000000000000000e+00 0.000000000000000e+00 0.000000000000000e+00
0.000000000000000e+00 0.000000000000000e+00 0.000000000000000e+00
0.000000000000000e+00 0.000000000000000e+00 0.000000000000000e+00

0.000000000000000e+00 0.000000000000000e+00 0.000000000000000e+00
0.000000000000000e+00 0.000000000000000e+00 0.000000000000000e+00
0.000000000000000e+00 0.000000000000000e+00 0.000000000000000e+00

0.000000000000000e+00 0.000000000000000e+00 0.000000000000000e+00
0.000000000000000e+00 0.000000000000000e+00 0.000000000000000e+00
0.000000000000000e+00 0.000000000000000e+00 0.000000000000000e+00

0.000000000000000e+00 0.000000000000000e+00 0.000000000000000e+00
0.000000000000000e+00 0.000000000000000e+00 0.000000000000000e+00
0.000000000000000e+00 0.000000000000000e+00 0.000000000000000e+00

0.000000000000000e+00 0.000000000000000e+00 0.000000000000000e+00
0.000000000000000e+00 0.000000000000000e+00 0.000000000000000e+00
0.000000000000000e+00 0.000000000000000e+00 0.000000000000000e+00

0.000000000000000e+00 0.000000000000000e+00 0.000000000000000e+00
0.000000000000000e+00 0.000000000000000e+00 0.000000000000000e+00
0.000000000000000e+00 0.000000000000000e+00 0.000000000000000e+00

0.000000000000000e+00 0.000000000000000e+00 0.000000000000000e+00
0.000000000000000e+00 0.000000000000000e+00 0.000000000000000e+00
0.000000000000000e+00 0.000000000000000e+00 0.000000000000000e+00

0.000000000000000e+00 0.000000000000000e+00 0.000000000000000e+00
0.000000000000000e+00 0.000000000000000e+00 0.000000000000000e+00
0.000000000000000e+00 0.000000000000000e+00 0.000000000000000e+00

0.000000000000000e+00 0.000000000000000e+00 0.000000000000000e+00
0.000000000000000e+00 0.000000000000000e+00 0.000000000000000e+00
0.000000000000000e+00 0.000000000000000e+00 0.000000000000000e+00

0.000000000000000e+00 0.000000000000000e+00 0.000000000000000e+00
0.000000000000000e+00 0.000000000000000e+00 0.000000000000000e+00
0.000000000000000e+00 0.000000000000000e+00 0.000000000000000e+00

0.000000000000000e+00 0.000000000000000e+00 0.000000000000000e+00
0.000000000000000e+00 0.000000000000000e+00 0.000000000000000e+00
0.000000000000000e+00 0.000000000000000e+00 0.000000000000000e+00

0.000000000000000e+00 0.000000000000000e+00 0.000000000000000e+00
0.000000000000000e+00 0.000000000000000e+00 0.000000000000000e+00
0.000000000000000e+00 0.000000000000000e+00 0.000000000000000e+00

0.000000000000000e+00 0.000000000000000e+00 0.000000000000000e+00
0.000000000000000e+00 0.000000000000000e+00 0.000000000000000e+00
0.000000000000000e+00 0.000000000000000e+00 0.000000000000000e+00

0.000000000000000e+00 0.000000000000000e+00 0.000000000000000e+00
0.000000000000000e+00 0.000000000000000e+00 0.000000000000000e+00
0.000000000000000e+00 0.000000000000000e+00 0.000000000000000e+00

0.000000000000000e+00 0.000000000000000e+00 0.000000000000000e+00
0.000000000000000e+00 0.000000000000000e+00 0.000000000000000e+00
0.000000000000000e+00 0.000000000000000e+00 0.000000000000000e+00

0.000000000000000e+00 0.000000000000000e+00 0.000000000000000e+00
0.000000000000000e+00 0.000000000000000e+00 0.000000000000000e+00
0.000000000000000e+00 0.000000000000000e+00 0.000000000000000e+00

0.000000000000000e+00 0.000000000000000e+00 0.000000000000000e+00
0.000000000000000e+00 0.000000000000000e+00 0.000000000000000e+00
0.000000000000000e+00 0.000000000000000e+00 0.000000000000000e+00

0.000000000000000e+00 0.000000000000000e+00 0.000000000000000e+00
0.000000000000000e+00 0.000000000000000e+00 0.000000000000000e+00
0.000000000000000e+00 0.000000000000000e+00 0.000000000000000e+00

0.000000000000000e+00 0.000000000000000e+00 0.000000000000000e+00
0.000000000000000e+00 0.000000000000000e+00 0.000000000000000e+00
0.000000000000000e+00 0.000000000000000e+00 0.000000000000000e+00

0.000000000000000e+00 0.000000000000000e+00 0.000000000000000e+00
0.000000000000000e+00 0.000000000000000e+00 0.000000000000000e+00
0.000000000000000e+00 0.000000000000000e+00 0.000000000000000e+00

0.000000000000000e+00 0.000000000000000e+00 0.000000000000000e+00
0.000000000000000e+00 0.000000000000000e+00 0.000000000000000e+00
0.000000000000000e+00 0.000000000000000e+00 0.000000000000000e+00

0.000000000000000e+00 0.000000000000000e+00 0.000000000000000e+00
0.000000000000000e+00 0.000000000000000e+00 0.000000000000000e+00
0.000000000000000e+00 0.000000000000000e+00 0.000000000000000e+00

0.000000000000000e+00 0.000000000000000e+00 0.000000000000000e+00
0.000000000000000e+00 0.000000000000000e+00 0.000000000000000e+00
0.000000000000000e+00 0.000000000000000e+00 0.000000000000000e+00

0.000000000000000e+00 0.000000000000000e+00 0.000000000000000e+00
0.000000000000000e+00 0.000000000000000e+00 0.000000000000000e+00
0.000000000000000e+00 0.000000000000000e+00 0.000000000000000e+00

0.000000000000000e+00 0.000000000000000e+00 0.000000000000000e+00
0.000000000000000e+00 0.000000000000000e+00 0.000000000000000e+00
0.000000000000000e+00 0.000000000000000e+00 0.000000000000000e+00

0.000000000000000e+00 0.000000000000000e+00 0.000000000000000e+00
0.000000000000000e+00 0.000000000000000e+00 0.000000000000000e+00
0.000000000000000e+00 0.000000000000000e+00 0.000000000000000e+00

0.000000000000000e+00 0.000000000000000e+00 0.000000000000000e+00
0.000000000000000e+00 0.000000000000000e+00 0.000000000000000e+00
0.000000000000000e+00 0.000000000000000e+00 0.000000000000000e+00

0.000000000000000e+00 0.000000000000000e+00 0.000000000000000e+00
0.000000000000000e+00 0.000000000000000e+00 0.000000000000000e+00
0.000000000000000e+00 0.000000000000000e+00 0.000000000000000e+00

0.000000000000000e+00 0.000000000000000e+00 0.000000000000000e+00
0.000000000000000e+00 0.000000000000000e+00 0.000000000000000e+00
0.000000000000000e+00 0.000000000000000e+00 0.000000000000000e+00

0.000000000000000e+00 0.000000000000000e+00 0.000000000000000e+00
0.000000000000000e+00 0.000000000000000e+00 0.000000000000000e+00
0.000000000000000e+00 0.000000000000000e+00 0.000000000000000e+00

0.000000000000000e+00 0.000000000000000e+00 0.000000000000000e+00
0.000000000000000e+00 0.000000000000000e+00 0.000000000000000e+00
0.000000000000000e+00 0.000000000000000e+00 0.000000000000000e+00

0.000000000000000e+00 0.000000000000000e+00 0.000000000000000e+00
0.000000000000000e+00 0.000000000000000e+00 0.000000000000000e+00
0.000000000000000e+00 0.000000000000000e+00 0.000000000000000e+00

0.000000000000000e+00 0.000000000000000e+00 0.000000000000000e+00
0.000000000000000e+00 0.000000000000000e+00 0.000000000000000e+00
0.000000000000000e+00 0.000000000000000e+00 0.000000000000000e+00

0.000000000000000e+00 0.000000000000000e+00 0.000000000000000e+00
0.000000000000000e+00 0.000000000000000e+00 0.000000000000000e+00
0.000000000000000e+00 0.000000000000000e+00 0.000000000000000e+00

0.000000000000000e+00 0.000000000000000e+00 0.000000000000000e+00
0.000000000000000e+00 0.000000000000000e+00 0.000000000000000e+00
0.000000000000000e+00 0.000000000000000e+00 0.000000000000000e+00

0.000000000000000e+00 0.000000000000000e+00 0.000000000000000e+00
0.000000000000000e+00 0.000000000000000e+00 0.000000000000000e+00
0.000000000000000e+00 0.000000000000000e+00 0.000000000000000e+00

0.000000000000000e+00 0.000000000000000e+00 0.000000000000000e+00
0.000000000000000e+00 0.000000000000000e+00 0.000000000000000e+00
0.000000000000000e+00 0.000000000000000e+00 0.000000000000000e+00

0.000000000000000e+00 0.000000000000000e+00 0.000000000000000e+00
0.000000000000000e+00 0.000000000000000e+00 0.000000000000000e+00
0.000000000000000e+00 0.000000000000000e+00 0.000000000000000e+00

0.000000000000000e+00 0.000000000000000e+00 0.000000000000000e+00
0.000000000000000e+00 0.000000000000000e+00 0.000000000000000e+00
0.000000000000000e+00 0.000000000000000e+00 0.000000000000000e+00

0.000000000000000e+00 0.000000000000000e+00 0.000000000000000e+00
0.000000000000000e+00 0.000000000000000e+00 0.000000000000000e+00
0.000000000000000e+00 0.000000000000000e+00 0.000000000000000e+00

0.000000000000000e+00 0.000000000000000e+00 0.000000000000000e+00
0.000000000000000e+00 0.000000000000000e+00 0.000000000000000e+00
0.000000000000000e+00 0.000000000000000e+00 0.000000000000000e+00

0.000000000000000e+00 0.000000000000000e+00 0.000000000000000e+00
0.000000000000000e+00 0.000000000000000e+00 0.000000000000000e+00
0.000000000000000e+00 0.000000000000000e+00 0.000000000000000e+00

0.000000000000000e+00 0.000000000000000e+00 0.000000000000000e+00
0.000000000000000e+00 0.000000000000000e+00 0.000000000000000e+00
0.000000000000000e+00 0.000000000000000e+00 0.000000000000000e+00

0.000000000000000e+00 0.000000000000000e+00 0.000000000000000e+00
0.000000000000000e+00 0.000000000000000e+00 0.000000000000000e+00
0.000000000000000e+00 0.000000000000000e+00 0.000000000000000e+00

0.000000000000000e+00 0.000000000000000e+00 0.000000000000000e+00
0.000000000000000e+00 0.000000000000000e+00 0.000000000000000e+00
0.000000000000000e+00 0.000000000000000e+00 0.000000000000000e+00

0.000000000000000e+00 0.000000000000000e+00 0.000000000000000e+00
0.000000000000000e+00 0.000000000000000e+00 0.000000000000000e+00
0.000000000000000e+00 0.000000000000000e+00 0.000000000000000e+00

0.000000000000000e+00 0.000000000000000e+00 0.000000000000000e+00
0.000000000000000e+00 0.000000000000000e+00 0.000000000000000e+00
0.000000000000000e+00 0.000000000000000e+00 0.000000000000000e+00

0.000000000000000e+00 0.000000000000000e+00 0.000000000000000e+00
0.000000000000000e+00 0.000000000000000e+00 0.000000000000000e+00
0.000000000000000e+00 0.000000000000000e+00 0.000000000000000e+00

0.000000000000000e+00 0.000000000000000e+00 0.000000000000000e+00
0.000000000000000e+00 0.000000000000000e+00 0.000000000000000e+00
0.000000000000000e+00 0.000000000000000e+00 0.000000000000000e+00

0.000000000000000e+00 0.000000000000000e+00 0.000000000000000e+00
0.000000000000000e+00 0.000000000000000e+00 0.000000000000000e+00
0.000000000000000e+00 0.000000000000000e+00 0.000000000000000e+00

0.000000000000000e+00 0.000000000000000e+00 0.000000000000000e+00
0.000000000000000e+00 0.000000000000000e+00 0.000000000000000e+00
0.000000000000000e+00 0.000000000000000e+00 0.000000000000000e+00

0.000000000000000e+00 0.000000000000000e+00 0.000000000000000e+00
0.000000000000000e+00 0.000000000000000e+00 0.000000000000000e+00
0.000000000000000e+00 0.000000000000000e+00 0.000000000000000e+00

0.000000000000000e+00 0.000000000000000e+00 0.000000000000000e+00
0.000000000000000e+00 0.000000000000000e+00 0.000000000000000e+00
0.000000000000000e+00 0.000000000000000e+00 0.000000000000000e+00

0.000000000000000e+00 0.000000000000000e+00 0.000000000000000e+00
0.000000000000000e+00 0.000000000000000e+00 0.000000000000000e+00
0.000000000000000e+00 0.000000000000000e+00 0.000000000000000e+00

0.000000000000000e+00 0.000000000000000e+00 0.000000000000000e+00
0.000000000000000e+00 0.000000000000000e+00 0.000000000000000e+00
0.000000000000000e+00 0.000000000000000e+00 0.000000000000000e+00

0.000000000000000e+00 0.000000000000000e+00 0.000000000000000e+00
0.000000000000000e+00 0.000000000000000e+00 0.000000000000000e+00
0.000000000000000e+00 0.000000000000000e+00 0.000000000000000e+00

0.000000000000000e+00 0.000000000000000e+00 0.000000000000000e+00
0.000000000000000e+00 0.000000000000000e+00 0.000000000000000e+00
0.000000000000000e+00 0.000000000000000e+00 0.000000000000000e+00

0.000000000000000e+00 0.000000000000000e+00 0.000000000000000e+00
0.000000000000000e+00 0.000000000000000e+00 0.000000000000000e+00
0.000000000000000e+00 0.000000000000000e+00 0.000000000000000e+00

0.000000000000000e+00 0.000000000000000e+00 0.000000000000000e+00
0.000000000000000e+00 0.000000000000000e+00 0.000000000000000e+00
0.000000000000000e+00 0.000000000000000e+00 0.000000000000000e+00

0.000000000000000e+00 0.000000000000000e+00 0.000000000000000e+00
0.000000000000000e+00 0.000000000000000e+00 0.000000000000000e+00
0.000000000000000e+00 0.000000000000000e+00 0.000000000000000e+00

0.000000000000000e+00 0.000000000000000e+00 0.000000000000000e+00
0.000000000000000e+00 0.000000000000000e+00 0.000000000000000e+00
0.000000000000000e+00 0.000000000000000e+00 0.000000000000000e+00

0.000000000000000e+00 0.000000000000000e+00 0.000000000000000e+00
0.000000000000000e+00 0.000000000000000e+00 0.000000000000000e+00
0.000000000000000e+00 0.000000000000000e+00 0.000000000000000e+00

0.000000000000000e+00 0.000000000000000e+00 0.000000000000000e+00
0.000000000000000e+00 0.000000000000000e+00 0.000000000000000e+00
0.000000000000000e+00 0.000000000000000e+00 0.000000000000000e+00

0.000000000000000e+00 0.000000000000000e+00 0.000000000000000e+00
0.000000000000000e+00 0.000000000000000e+00 0.000000000000000e+00
0.000000000000000e+00 0.000000000000000e+00 0.000000000000000e+00

0.000000000000000e+00 0.000000000000000e+00 0.000000000000000e+00
0.000000000000000e+00 0.000000000000000e+00 0.000000000000000e+00
0.000000000000000e+00 0.000000000000000e+00 0.000000000000000e+00

0.000000000000000e+00 0.000000000000000e+00 0.000000000000000e+00
0.000000000000000e+00 0.000000000000000e+00 0.000000000000000e+00
0.000000000000000e+00 0.000000000000000e+00 0.000000000000000e+00

0.000000000000000e+00 0.000000000000000e+00 0.000000000000000e+00
0.000000000000000e+00 0.000000000000000e+00 0.000000000000000e+00
0.000000000000000e+00 0.000000000000000e+00 0.000000000000000e+00

0.000000000000000e+00 0.000000000000000e+00 0.000000000000000e+00
0.000000000000000e+00 0.000000000000000e+00 0.000000000000000e+00
0.000000000000000e+00 0.000000000000000e+00 0.000000000000000e+00

0.000000000000000e+00 0.000000000000000e+00 0.000000000000000e+00
0.000000000000000e+00 0.000000000000000e+00 0.000000000000000e+00
0.000000000000000e+00 0.000000000000000e+00 0.000000000000000e+00

0.000000000000000e+00 0.000000000000000e+00 0.000000000000000e+00
0.000000000000000e+00 0.000000000000000e+00 0.000000000000000e+00
0.000000000000000e+00 0.000000000000000e+00 0.000000000000000e+00

0.000000000000000e+00 0.000000000000000e+00 0.000000000000000e+00
0.000000000000000e+00 0.000000000000000e+00 0.000000000000000e+00
0.000000000000000e+00 0.000000000000000e+00 0.000000000000000e+00

0.000000000000000e+00 0.000000000000000e+00 0.000000000000000e+00
0.000000000000000e+00 0.000000000000000e+00 0.000000000000000e+00
0.000000000000000e+00 0.000000000000000e+00 0.000000000000000e+00

0.000000000000000e+00 0.000000000000000e+00 0.000000000000000e+00
0.000000000000000e+00 0.000000000000000e+00 0.000000000000000e+00
0.000000000000000e+00 0.000000000000000e+00 0.000000000000000e+00

0.000000000000000e+00 0.000000000000000e+00 0.000000000000000e+00
0.000000000000000e+00 0.000000000000000e+00 0.000000000000000e+00
0.000000000000000e+00 0.000000000000000e+00 0.000000000000000e+00

0.000000000000000e+00 0.000000000000000e+00 0.000000000000000e+00
0.000000000000000e+00 0.000000000000000e+00 0.000000000000000e+00
0.000000000000000e+00 0.000000000000000e+00 0.000000000000000e+00

0.000000000000000e+00 0.000000000000000e+00 0.000000000000000e+00
0.000000000000000e+00 0.000000000000000e+00 0.000000000000000e+00
0.000000000000000e+00 0.000000000000000e+00 0.000000000000000e+00

0.000000000000000e+00 0.000000000000000e+00 0.000000000000000e+00
0.000000000000000e+00 0.000000000000000e+00 0.000000000000000e+00
0.000000000000000e+00 0.000000000000000e+00 0.000000000000000e+00

0.000000000000000e+00 0.000000000000000e+00 0.000000000000000e+00
0.000000000000000e+00 0.000000000000000e+00 0.000000000000000e+00
0.000000000000000e+00 0.000000000000000e+00 0.000000000000000e+00

0.000000000000000e+00 0.000000000000000e+00 0.000000000000000e+00
0.000000000000000e+00 0.000000000000000e+00 0.000000000000000e+00
0.000000000000000e+00 0.000000000000000e+00 0.000000000000000e+00

0.000000000000000e+00 0.000000000000000e+00 0.000000000000000e+00
0.000000000000000e+00 0.000000000000000e+00 0.000000000000000e+00
0.000000000000000e+00 0.000000000000000e+00 0.000000000000000e+00

0.000000000000000e+00 0.000000000000000e+00 0.000000000000000e+00
0.000000000000000e+00 0.000000000000000e+00 0.000000000000000e+00
0.000000000000000e+00 0.000000000000000e+00 0.000000000000000e+00

0.000000000000000e+00 0.000000000000000e+00 0.000000000000000e+00
0.000000000000000e+00 0.000000000000000e+00 0.000000000000000e+00
0.000000000000000e+00 0.000000000000000e+00 0.000000000000000e+00

0.000000000000000e+00 0.000000000000000e+00 0.000000000000000e+00
0.000000000000000e+00 0.000000000000000e+00 0.000000000000000e+00
0.000000000000000e+00 0.000000000000000e+00 0.000000000000000e+00

0.000000000000000e+00 0.000000000000000e+00 0.000000000000000e+00
0.000000000000000e+00 0.000000000000000e+00 0.000000000000000e+00
0.000000000000000e+00 0.000000000000000e+00 0.000000000000000e+00

0.000000000000000e+00 0.000000000000000e+00 0.000000000000000e+00
0.000000000000000e+00 0.000000000000000e+00 0.000000000000000e+00
0.000000000000000e+00 0.000000000000000e+00 0.000000000000000e+00

0.000000000000000e+00 0.000000000000000e+00 0.000000000000000e+00
0.000000000000000e+00 0.000000000000000e+00 0.000000000000000e+00
0.000000000000000e+00 0.000000000000000e+00 0.000000000000000e+00

0.000000000000000e+00 0.000000000000000e+00 0.000000000000000e+00
0.000000000000000e+00 0.000000000000000e+00 0.000000000000000e+00
0.000000000000000e+00 0.000000000000000e+00 0.000000000000000e+00

0.000000000000000e+00 0.000000000000000e+00 0.000000000000000e+00
0.000000000000000e+00 0.000000000000000e+00 0.000000000000000e+00
0.000000000000000e+00 0.000000000000000e+00 0.000000000000000e+00

0.000000000000000e+00 0.000000000000000e+00 0.000000000000000e+00
0.000000000000000e+00 0.000000000000000e+00 0.000000000000000e+00
0.000000000000000e+00 0.000000000000000e+00 0.000000000000000e+00

0.000000000000000e+00 0.000000000000000e+00 0.000000000000000e+00
0.000000000000000e+00 0.000000000000000e+00 0.000000000000000e+00
0.000000000000000e+00 0.000000000000000e+00 0.000000000000000e+00

0.000000000000000e+00 0.000000000000000e+00 0.000000000000000e+00
0.000000000000000e+00 0.000000000000000e+00 0.000000000000000e+00
0.000000000000000e+00 0.000000000000000e+00 0.000000000000000e+00

0.000000000000000e+00 0.000000000000000e+00 0.000000000000000e+00
0.000000000000000e+00 0.000000000000000e+00 0.000000000000000e+00
0.000000000000000e+00 0.000000000000000e+00 0.000000000000000e+00

0.000000000000000e+00 0.000000000000000e+00 0.000000000000000e+00
0.000000000000000e+00 0.000000000000000e+00 0.000000000000000e+00
0.000000000000000e+00 0.000000000000000e+00 0.000000000000000e+00

0.000000000000000e+00 0.000000000000000e+00 0.000000000000000e+00
0.000000000000000e+00 0.000000000000000e+00 0.000000000000000e+00
0.000000000000000e+00 0.000000000000000e+00 0.000000000000000e+00

0.000000000000000e+00 0.000000000000000e+00 0.000000000000000e+00
0.000000000000000e+00 0.000000000000000e+00 0.000000000000000e+00
0.000000000000000e+00 0.000000000000000e+00 0.000000000000000e+00

0.000000000000000e+00 0.000000000000000e+00 0.000000000000000e+00
0.000000000000000e+00 0.000000000000000e+00 0.000000000000000e+00
0.000000000000000e+00 0.000000000000000e+00 0.000000000000000e+00

0.000000000000000e+00 0.000000000000000e+00 0.000000000000000e+00
0.000000000000000e+00 0.000000000000000e+00 0.000000000000000e+00
0.000000000000000e+00 0.000000000000000e+00 0.000000000000000e+00

0.000000000000000e+00 0.000000000000000e+00 0.000000000000000e+00
0.000000000000000e+00 0.000000000000000e+00 0.000000000000000e+00
0.000000000000000e+00 0.000000000000000e+00 0.000000000000000e+00

0.000000000000000e+00 0.000000000000000e+00 0.000000000000000e+00
0.000000000000000e+00 0.000000000000000e+00 0.000000000000000e+00
0.000000000000000e+00 0.000000000000000e+00 0.000000000000000e+00

0.000000000000000e+00 0.000000000000000e+00 0.000000000000000e+00
0.000000000000000e+00 0.000000000000000e+00 0.000000000000000e+00
0.000000000000000e+00 0.000000000000000e+00 0.000000000000000e+00

0.000000000000000e+00 0.000000000000000e+00 0.000000000000000e+00
0.000000000000000e+00 0.000000000000000e+00 0.000000000000000e+00
0.000000000000000e+00 0.000000000000000e+00 0.000000000000000e+00

0.000000000000000e+00 0.000000000000000e+00 0.000000000000000e+00
0.000000000000000e+00 0.000000000000000e+00 0.000000000000000e+00
0.000000000000000e+00 0.000000000000000e+00 0.000000000000000e+00

0.000000000000000e+00 0.000000000000000e+00 0.000000000000000e+00
0.000000000000000e+00 0.000000000000000e+00 0.000000000000000e+00
0.000000000000000e+00 0.000000000000000e+00 0.000000000000000e+00

0.000000000000000e+00 0.000000000000000e+00 0.000000000000000e+00
0.000000000000000e+00 0.000000000000000e+00 0.000000000000000e+00
0.000000000000000e+00 0.000000000000000e+00 0.000000000000000e+00

0.000000000000000e+00 0.000000000000000e+00 0.000000000000000e+00
0.000000000000000e+00 0.000000000000000e+00 0.000000000000000e+00
0.000000000000000e+00 0.000000000000000e+00 0.000000000000000e+00

0.000000000000000e+00 0.000000000000000e+00 0.000000000000000e+00
0.000000000000000e+00 0.000000000000000e+00 0.000000000000000e+00
0.000000000000000e+00 0.000000000000000e+00 0.000000000000000e+00

0.000000000000000e+00 0.000000000000000e+00 0.000000000000000e+00
0.000000000000000e+00 0.000000000000000e+00 0.000000000000000e+00
0.000000000000000e+00 0.000000000000000e+00 0.000000000000000e+00

0.000000000000000e+00 0.000000000000000e+00 0.000000000000000e+00
0.000000000000000e+00 0.000000000000000e+00 0.000000000000000e+00
0.000000000000000e+00 0.000000000000000e+00 0.000000000000000e+00

0.000000000000000e+00 0.000000000000000e+00 0.000000000000000e+00
0.000000000000000e+00 0.000000000000000e+00 0.000000000000000e+00
0.000000000000000e+00 0.000000000000000e+00 0.000000000000000e+00

0.000000000000000e+00 0.000000000000000e+00 0.000000000000000e+00
0.000000000000000e+00 0.000000000000000e+00 0.000000000000000e+00
0.000000000000000e+00 0.000000000000000e+00 0.000000000000000e+00

0.000000000000000e+00 0.000000000000000e+00 0.000000000000000e+00
0.000000000000000e+00 0.000000000000000e+00 0.000000000000000e+00
0.000000000000000e+00 0.000000000000000e+00 0.000000000000000e+00

0.000000000000000e+00 0.000000000000000e+00 0.000000000000000e+00
0.000000000000000e+00 0.000000000000000e+00 0.000000000000000e+00
0.000000000000000e+00 0.000000000000000e+00 0.000000000000000e+00

0.000000000000000e+00 0.000000000000000e+00 0.000000000000000e+00
0.000000000000000e+00 0.000000000000000e+00 0.000000000000000e+00
0.000000000000000e+00 0.000000000000000e+00 0.000000000000000e+00

0.000000000000000e+00 0.000000000000000e+00 0.000000000000000e+00
0.000000000000000e+00 0.000000000000000e+00 0.000000000000000e+00
0.000000000000000e+00 0.000000000000000e+00 0.000000000000000e+00

0.000000000000000e+00 0.000000000000000e+00 0.000000000000000e+00
0.000000000000000e+00 0.000000000000000e+00 0.000000000000000e+00
0.000000000000000e+00 0.000000000000000e+00 0.000000000000000e+00

0.000000000000000e+00 0.000000000000000e+00 0.000000000000000e+00
0.000000000000000e+00 0.000000000000000e+00 0.000000000000000e+00
0.000000000000000e+00 0.000000000000000e+00 0.000000000000000e+00

0.000000000000000e+00 0.000000000000000e+00 0.000000000000000e+00
0.000000000000000e+00 0.000000000000000e+00 0.000000000000000e+00
0.000000000000000e+00 0.000000000000000e+00 0.000000000000000e+00

0.000000000000000e+00 0.000000000000000e+00 0.000000000000000e+00
0.000000000000000e+00 0.000000000000000e+00 0.000000000000000e+00
0.000000000000000e+00 0.000000000000000e+00 0.000000000000000e+00

0.000000000000000e+00 0.000000000000000e+00 0.000000000000000e+00
0.000000000000000e+00 0.000000000000000e+00 0.000000000000000e+00
0.000000000000000e+00 0.000000000000000e+00 0.000000000000000e+00

0.000000000000000e+00 0.000000000000000e+00 0.000000000000000e+00
0.000000000000000e+00 0.000000000000000e+00 0.000000000000000e+00
0.000000000000000e+00 0.000000000000000e+00 0.000000000000000e+00

0.000000000000000e+00 0.000000000000000e+00 0.000000000000000e+00
0.000000000000000e+00 0.000000000000000e+00 0.000000000000000e+00
0.000000000000000e+00 0.000000000000000e+00 0.000000000000000e+00

0.000000000000000e+00 0.000000000000000e+00 0.000000000000000e+00
0.000000000000000e+00 0.000000000000000e+00 0.000000000000000e+00
0.000000000000000e+00 0.000000000000000e+00 0.000000000000000e+00

0.000000000000000e+00 0.000000000000000e+00 0.000000000000000e+00
0.000000000000000e+00 0.000000000000000e+00 0.000000000000000e+00
0.000000000000000e+00 0.000000000000000e+00 0.000000000000000e+00

0.000000000000000e+00 0.000000000000000e+00 0.000000000000000e+00
0.000000000000000e+00 0.000000000000000e+00 0.000000000000000e+00
0.000000000000000e+00 0.000000000000000e+00 0.000000000000000e+00

0.000000000000000e+00 0.000000000000000e+00 0.000000000000000e+00
0.000000000000000e+00 0.000000000000000e+00 0.000000000000000e+00
0.000000000000000e+00 0.000000000000000e+00 0.000000000000000e+00

0.000000000000000e+00 0.000000000000000e+00 0.000000000000000e+00
0.000000000000000e+00 0.000000000000000e+00 0.000000000000000e+00
0.000000000000000e+00 0.000000000000000e+00 0.000000000000000e+00

0.000000000000000e+00 0.000000000000000e+00 0.000000000000000e+00
0.000000000000000e+00 0.000000000000000e+00 0.000000000000000e+00
0.000000000000000e+00 0.000000000000000e+00 0.000000000000000e+00

0.000000000000000e+00 0.000000000000000e+00 0.000000000000000e+00
0.000000000000000e+00 0.000000000000000e+00 0.000000000000000e+00
0.000000000000000e+00 0.000000000000000e+00 0.000000000000000e+00

0.000000000000000e+00 0.000000000000000e+00 0.000000000000000e+00
0.000000000000000e+00 0.000000000000000e+00 0.000000000000000e+00
0.000000000000000e+00 0.000000000000000e+00 0.000000000000000e+00

0.000000000000000e+00 0.000000000000000e+00 0.000000000000000e+00
0.000000000000000e+00 0.000000000000000e+00 0.000000000000000e+00
0.000000000000000e+00 0.000000000000000e+00 0.000000000000000e+00

0.000000000000000e+00 0.000000000000000e+00 0.000000000000000e+00
0.000000000000000e+00 0.000000000000000e+00 0.000000000000000e+00
0.000000000000000e+00 0.000000000000000e+00 0.000000000000000e+00

0.000000000000000e+00 0.000000000000000e+00 0.000000000000000e+00
0.000000000000000e+00 0.000000000000000e+00 0.000000000000000e+00
0.000000000000000e+00 0.000000000000000e+00 0.000000000000000e+00

0.000000000000000e+00 0.000000000000000e+00 0.000000000000000e+00
0.000000000000000e+00 0.000000000000000e+00 0.000000000000000e+00
0.000000000000000e+00 0.000000000000000e+00 0.000000000000000e+00

0.000000000000000e+00 0.000000000000000e+00 0.000000000000000e+00
0.000000000000000e+00 0.000000000000000e+00 0.000000000000000e+00
0.000000000000000e+00 0.000000000000000e+00 0.000000000000000e+00

0.000000000000000e+00 0.000000000000000e+00 0.000000000000000e+00
0.000000000000000e+00 0.000000000000000e+00 0.000000000000000e+00
0.000000000000000e+00 0.000000000000000e+00 0.000000000000000e+00

0.000000000000000e+00 0.000000000000000e+00 0.000000000000000e+00
0.000000000000000e+00 0.000000000000000e+00 0.000000000000000e+00
0.000000000000000e+00 0.000000000000000e+00 0.000000000000000e+00

0.000000000000000e+00 0.000000000000000e+00 0.000000000000000e+00
0.000000000000000e+00 0.000000000000000e+00 0.000000000000000e+00
0.000000000000000e+00 0.000000000000000e+00 0.000000000000000e+00

0.000000000000000e+00 0.000000000000000e+00 0.000000000000000e+00
0.000000000000000e+00 0.000000000000000e+00 0.000000000000000e+00
0.000000000000000e+00 0.000000000000000e+00 0.000000000000000e+00

0.000000000000000e+00 0.000000000000000e+00 0.000000000000000e+00
0.000000000000000e+00 0.000000000000000e+00 0.000000000000000e+00
0.000000000000000e+00 0.000000000000000e+00 0.000000000000000e+00

0.000000000000000e+00 0.000000000000000e+00 0.000000000000000e+00
0.000000000000000e+00 0.000000000000000e+00 0.000000000000000e+00
0.000000000000000e+00 0.000000000000000e+00 0.000000000000000e+00

0.000000000000000e+00 0.000000000000000e+00 0.000000000000000e+00
0.000000000000000e+00 0.000000000000000e+00 0.000000000000000e+00
0.000000000000000e+00 0.000000000000000e+00 0.000000000000000e+00

0.000000000000000e+00 0.000000000000000e+00 0.000000000000000e+00
0.000000000000000e+00 0.000000000000000e+00 0.000000000000000e+00
0.000000000000000e+00 0.000000000000000e+00 0.000000000000000e+00

0.000000000000000e+00 0.000000000000000e+00 0.000000000000000e+00
0.000000000000000e+00 0.000000000000000e+00 0.000000000000000e+00
0.000000000000000e+00 0.000000000000000e+00 0.000000000000000e+00

0.000000000000000e+00 0.000000000000000e+00 0.000000000000000e+00
0.000000000000000e+00 0.000000000000000e+00 0.000000000000000e+00
0.000000000000000e+00 0.000000000000000e+00 0.000000000000000e+00

0.000000000000000e+00 0.000000000000000e+00 0.000000000000000e+00
0.000000000000000e+00 0.000000000000000e+00 0.000000000000000e+00
0.000000000000000e+00 0.000000000000000e+00 0.000000000000000e+00

0.000000000000000e+00 0.000000000000000e+00 0.000000000000000e+00
0.000000000000000e+00 0.000000000000000e+00 0.000000000000000e+00
0.000000000000000e+00 0.000000000000000e+00 0.000000000000000e+00

0.000000000000000e+00 0.000000000000000e+00 0.000000000000000e+00
0.000000000000000e+00 0.000000000000000e+00 0.000000000000000e+00
0.000000000000000e+00 0.000000000000000e+00 0.000000000000000e+00

0.000000000000000e+00 0.000000000000000e+00 0.000000000000000e+00
0.000000000000000e+00 0.000000000000000e+00 0.000000000000000e+00
0.000000000000000e+00 0.000000000000000e+00 0.000000000000000e+00

0.000000000000000e+00 0.000000000000000e+00 0.000000000000000e+00
0.000000000000000e+00 0.000000000000000e+00 0.000000000000000e+00
0.000000000000000e+00 0.000000000000000e+00 0.000000000000000e+00

0.000000000000000e+00 0.000000000000000e+00 0.000000000000000e+00
0.000000000000000e+00 0.000000000000000e+00 0.000000000000000e+00
0.000000000000000e+00 0.000000000000000e+00 0.000000000000000e+00

0.000000000000000e+00 0.000000000000000e+00 0.000000000000000e+00
0.000000000000000e+00 0.000000000000000e+00 0.000000000000000e+00
0.000000000000000e+00 0.000000000000000e+00 0.000000000000000e+00

0.000000000000000e+00 0.000000000000000e+00 0.000000000000000e+00
0.000000000000000e+00 0.000000000000000e+00 0.000000000000000e+00
0.000000000000000e+00 0.000000000000000e+00 0.000000000000000e+00

0.000000000000000e+00 0.000000000000000e+00 0.000000000000000e+00
0.000000000000000e+00 0.000000000000000e+00 0.000000000000000e+00
0.000000000000000e+00 0.000000000000000e+00 0.000000000000000e+00

0.000000000000000e+00 0.000000000000000e+00 0.000000000000000e+00
0.000000000000000e+00 0.000000000000000e+00 0.000000000000000e+00
0.000000000000000e+00 0.000000000000000e+00 0.000000000000000e+00

0.000000000000000e+00 0.000000000000000e+00 0.000000000000000e+00
0.000000000000000e+00 0.000000000000000e+00 0.000000000000000e+00
0.000000000000000e+00 0.000000000000000e+00 0.000000000000000e+00

0.000000000000000e+00 0.000000000000000e+00 0.000000000000000e+00
0.000000000000000e+00 0.000000000000000e+00 0.000000000000000e+00
0.000000000000000e+00 0.000000000000000e+00 0.000000000000000e+00

0.000000000000000e+00 0.000000000000000e+00 0.000000000000000e+00
0.000000000000000e+00 0.000000000000000e+00 0.000000000000000e+00
0.000000000000000e+00 0.000000000000000e+00 0.000000000000000e+00

0.000000000000000e+00 0.000000000000000e+00 0.000000000000000e+00
0.000000000000000e+00 0.000000000000000e+00 0.000000000000000e+00
0.000000000000000e+00 0.000000000000000e+00 0.000000000000000e+00

0.000000000000000e+00 0.000000000000000e+00 0.000000000000000e+00
0.000000000000000e+00 0.000000000000000e+00 0.000000000000000e+00
0.000000000000000e+00 0.000000000000000e+00 0.000000000000000e+00

0.000000000000000e+00 0.000000000000000e+00 0.000000000000000e+00
0.000000000000000e+00 0.000000000000000e+00 0.000000000000000e+00
0.000000000000000e+00 0.000000000000000e+00 0.000000000000000e+00

0.000000000000000e+00 0.000000000000000e+00 0.000000000000000e+00
0.000000000000000e+00 0.000000000000000e+00 0.000000000000000e+00
0.000000000000000e+00 0.000000000000000e+00 0.000000000000000e+00

0.000000000000000e+00 0.000000000000000e+00 0.000000000000000e+00
0.000000000000000e+00 0.000000000000000e+00 0.000000000000000e+00
0.000000000000000e+00 0.000000000000000e+00 0.000000000000000e+00

0.000000000000000e+00 0.000000000000000e+00 0.000000000000000e+00
0.000000000000000e+00 0.000000000000000e+00 0.000000000000000e+00
0.000000000000000e+00 0.000000000000000e+00 0.000000000000000e+00

0.000000000000000e+00 0.000000000000000e+00 0.000000000000000e+00
0.000000000000000e+00 0.000000000000000e+00 0.000000000000000e+00
0.000000000000000e+00 0.000000000000000e+00 0.000000000000000e+00

0.000000000000000e+00 0.000000000000000e+00 0.000000000000000e+00
0.000000000000000e+00 0.000000000000000e+00 0.000000000000000e+00
0.000000000000000e+00 0.000000000000000e+00 0.000000000000000e+00

0.000000000000000e+00 0.000000000000000e+00 0.000000000000000e+00
0.000000000000000e+00 0.000000000000000e+00 0.000000000000000e+00
0.000000000000000e+00 0.000000000000000e+00 0.000000000000000e+00

0.000000000000000e+00 0.000000000000000e+00 0.000000000000000e+00
0.000000000000000e+00 0.000000000000000e+00 0.000000000000000e+00
0.000000000000000e+00 0.000000000000000e+00 0.000000000000000e+00

0.000000000000000e+00 0.000000000000000e+00 0.000000000000000e+00
0.000000000000000e+00 0.000000000000000e+00 0.000000000000000e+00
0.000000000000000e+00 0.000000000000000e+00 0.000000000000000e+00

0.000000000000000e+00 0.000000000000000e+00 0.000000000000000e+00
0.000000000000000e+00 0.000000000000000e+00 0.000000000000000e+00
0.000000000000000e+00 0.000000000000000e+00 0.000000000000000e+00

0.000000000000000e+00 0.000000000000000e+00 0.000000000000000e+00
0.000000000000000e+00 0.000000000000000e+00 0.000000000000000e+00
0.000000000000000e+00 0.000000000000000e+00 0.000000000000000e+00

0.000000000000000e+00 0.000000000000000e+00 0.000000000000000e+00
0.000000000000000e+00 0.000000000000000e+00 0.000000000000000e+00
0.000000000000000e+00 0.000000000000000e+00 0.000000000000000e+00

0.000000000000000e+00 0.000000000000000e+00 0.000000000000000e+00
0.000000000000000e+00 0.000000000000000e+00 0.000000000000000e+00
0.000000000000000e+00 0.000000000000000e+00 0.000000000000000e+00

0.000000000000000e+00 0.000000000000000e+00 0.000000000000000e+00
0.000000000000000e+00 0.000000000000000e+00 0.000000000000000e+00
0.000000000000000e+00 0.000000000000000e+00 0.000000000000000e+00

0.000000000000000e+00 0.000000000000000e+00 0.000000000000000e+00
0.000000000000000e+00 0.000000000000000e+00 0.000000000000000e+00
0.000000000000000e+00 0.000000000000000e+00 0.000000000000000e+00

0.000000000000000e+00 0.000000000000000e+00 0.000000000000000e+00
0.000000000000000e+00 0.000000000000000e+00 0.000000000000000e+00
0.000000000000000e+00 0.000000000000000e+00 0.000000000000000e+00

0.000000000000000e+00 0.000000000000000e+00 0.000000000000000e+00
0.000000000000000e+00 0.000000000000000e+00 0.000000000000000e+00
0.000000000000000e+00 0.000000000000000e+00 0.000000000000000e+00

0.000000000000000e+00 0.000000000000000e+00 0.000000000000000e+00
0.000000000000000e+00 0.000000000000000e+00 0.000000000000000e+00
0.000000000000000e+00 0.000000000000000e+00 0.000000000000000e+00

0.000000000000000e+00 0.000000000000000e+00 0.000000000000000e+00
0.000000000000000e+00 0.000000000000000e+00 0.000000000000000e+00
0.000000000000000e+00 0.000000000000000e+00 0.000000000000000e+00

0.000000000000000e+00 0.000000000000000e+00 0.000000000000000e+00
0.000000000000000e+00 0.000000000000000e+00 0.000000000000000e+00
0.000000000000000e+00 0.000000000000000e+00 0.000000000000000e+00

0.000000000000000e+00 0.000000000000000e+00 0.000000000000000e+00
0.000000000000000e+00 0.000000000000000e+00 0.000000000000000e+00
0.000000000000000e+00 0.000000000000000e+00 0.000000000000000e+00

0.000000000000000e+00 0.000000000000000e+00 0.000000000000000e+00
0.000000000000000e+00 0.000000000000000e+00 0.000000000000000e+00
0.000000000000000e+00 0.000000000000000e+00 0.000000000000000e+00

0.000000000000000e+00 0.000000000000000e+00 0.000000000000000e+00
0.000000000000000e+00 0.000000000000000e+00 0.000000000000000e+00
0.000000000000000e+00 0.000000000000000e+00 0.000000000000000e+00

0.000000000000000e+00 0.000000000000000e+00 0.000000000000000e+00
0.000000000000000e+00 0.000000000000000e+00 0.000000000000000e+00
0.000000000000000e+00 0.000000000000000e+00 0.000000000000000e+00

0.000000000000000e+00 0.000000000000000e+00 0.000000000000000e+00
0.000000000000000e+00 0.000000000000000e+00 0.000000000000000e+00
0.000000000000000e+00 0.000000000000000e+00 0.000000000000000e+00

0.000000000000000e+00 0.000000000000000e+00 0.000000000000000e+00
0.000000000000000e+00 0.000000000000000e+00 0.000000000000000e+00
0.000000000000000e+00 0.000000000000000e+00 0.000000000000000e+00

0.000000000000000e+00 0.000000000000000e+00 0.000000000000000e+00
0.000000000000000e+00 0.000000000000000e+00 0.000000000000000e+00
0.000000000000000e+00 0.000000000000000e+00 0.000000000000000e+00

0.000000000000000e+00 0.000000000000000e+00 0.000000000000000e+00
0.000000000000000e+00 0.000000000000000e+00 0.000000000000000e+00
0.000000000000000e+00 0.000000000000000e+00 0.000000000000000e+00

0.000000000000000e+00 0.000000000000000e+00 0.000000000000000e+00
0.000000000000000e+00 0.000000000000000e+00 0.000000000000000e+00
0.000000000000000e+00 0.000000000000000e+00 0.000000000000000e+00

0.000000000000000e+00 0.000000000000000e+00 0.000000000000000e+00
0.000000000000000e+00 0.000000000000000e+00 0.000000000000000e+00
0.000000000000000e+00 0.000000000000000e+00 0.000000000000000e+00

0.000000000000000e+00 0.000000000000000e+00 0.000000000000000e+00
0.000000000000000e+00 0.000000000000000e+00 0.000000000000000e+00
0.000000000000000e+00 0.000000000000000e+00 0.000000000000000e+00

0.000000000000000e+00 0.000000000000000e+00 0.000000000000000e+00
0.000000000000000e+00 0.000000000000000e+00 0.000000000000000e+00
0.000000000000000e+00 0.000000000000000e+00 0.000000000000000e+00

0.000000000000000e+00 0.000000000000000e+00 0.000000000000000e+00
0.000000000000000e+00 0.000000000000000e+00 0.000000000000000e+00
0.000000000000000e+00 0.000000000000000e+00 0.000000000000000e+00

0.000000000000000e+00 0.000000000000000e+00 0.000000000000000e+00
0.000000000000000e+00 0.000000000000000e+00 0.000000000000000e+00
0.000000000000000e+00 0.000000000000000e+00 0.000000000000000e+00

0.000000000000000e+00 0.000000000000000e+00 0.000000000000000e+00
0.000000000000000e+00 0.000000000000000e+00 0.000000000000000e+00
0.000000000000000e+00 0.000000000000000e+00 0.000000000000000e+00

0.000000000000000e+00 0.000000000000000e+00 0.000000000000000e+00
0.000000000000000e+00 0.000000000000000e+00 0.000000000000000e+00
0.000000000000000e+00 0.000000000000000e+00 0.000000000000000e+00

0.000000000000000e+00 0.000000000000000e+00 0.000000000000000e+00
0.000000000000000e+00 0.000000000000000e+00 0.000000000000000e+00
0.000000000000000e+00 0.000000000000000e+00 0.000000000000000e+00

0.000000000000000e+00 0.000000000000000e+00 0.000000000000000e+00
0.000000000000000e+00 0.000000000000000e+00 0.000000000000000e+00
0.000000000000000e+00 0.000000000000000e+00 0.000000000000000e+00

0.000000000000000e+00 0.000000000000000e+00 0.000000000000000e+00
0.000000000000000e+00 0.000000000000000e+00 0.000000000000000e+00
0.000000000000000e+00 0.000000000000000e+00 0.000000000000000e+00

0.000000000000000e+00 0.000000000000000e+00 0.000000000000000e+00
0.000000000000000e+00 0.000000000000000e+00 0.000000000000000e+00
0.000000000000000e+00 0.000000000000000e+00 0.000000000000000e+00

0.000000000000000e+00 0.000000000000000e+00 0.000000000000000e+00
0.000000000000000e+00 0.000000000000000e+00 0.000000000000000e+00
0.000000000000000e+00 0.000000000000000e+00 0.000000000000000e+00

0.000000000000000e+00 0.000000000000000e+00 0.000000000000000e+00
0.000000000000000e+00 0.000000000000000e+00 0.000000000000000e+00
0.000000000000000e+00 0.000000000000000e+00 0.000000000000000e+00

0.000000000000000e+00 0.000000000000000e+00 0.000000000000000e+00
0.000000000000000e+00 0.000000000000000e+00 0.000000000000000e+00
0.000000000000000e+00 0.000000000000000e+00 0.000000000000000e+00

0.000000000000000e+00 0.000000000000000e+00 0.000000000000000e+00
0.000000000000000e+00 0.000000000000000e+00 0.000000000000000e+00
0.000000000000000e+00 0.000000000000000e+00 0.000000000000000e+00

0.000000000000000e+00 0.000000000000000e+00 0.000000000000000e+00
0.000000000000000e+00 0.000000000000000e+00 0.000000000000000e+00
0.000000000000000e+00 0.000000000000000e+00 0.000000000000000e+00

0.000000000000000e+00 0.000000000000000e+00 0.000000000000000e+00
0.000000000000000e+00 0.000000000000000e+00 0.000000000000000e+00
0.000000000000000e+00 0.000000000000000e+00 0.000000000000000e+00

0.000000000000000e+00 0.000000000000000e+00 0.000000000000000e+00
0.000000000000000e+00 0.000000000000000e+00 0.000000000000000e+00
0.000000000000000e+00 0.000000000000000e+00 0.000000000000000e+00

0.000000000000000e+00 0.000000000000000e+00 0.000000000000000e+00
0.000000000000000e+00 0.000000000000000e+00 0.000000000000000e+00
0.000000000000000e+00 0.000000000000000e+00 0.000000000000000e+00

0.000000000000000e+00 0.000000000000000e+00 0.000000000000000e+00
0.000000000000000e+00 0.000000000000000e+00 0.000000000000000e+00
0.000000000000000e+00 0.000000000000000e+00 0.000000000000000e+00

0.000000000000000e+00 0.000000000000000e+00 0.000000000000000e+00
0.000000000000000e+00 0.000000000000000e+00 0.000000000000000e+00
0.000000000000000e+00 0.000000000000000e+00 0.000000000000000e+00

0.000000000000000e+00 0.000000000000000e+00 0.000000000000000e+00
0.000000000000000e+00 0.000000000000000e+00 0.000000000000000e+00
0.000000000000000e+00 0.000000000000000e+00 0.000000000000000e+00

0.000000000000000e+00 0.000000000000000e+00 0.000000000000000e+00
0.000000000000000e+00 0.000000000000000e+00 0.000000000000000e+00
0.000000000000000e+00 0.000000000000000e+00 0.000000000000000e+00

0.000000000000000e+00 0.000000000000000e+00 0.000000000000000e+00
0.000000000000000e+00 0.000000000000000e+00 0.000000000000000e+00
0.000000000000000e+00 0.000000000000000e+00 0.000000000000000e+00

0.000000000000000e+00 0.000000000000000e+00 0.000000000000000e+00
0.000000000000000e+00 0.000000000000000e+00 0.000000000000000e+00
0.000000000000000e+00 0.000000000000000e+00 0.000000000000000e+00

0.000000000000000e+00 0.000000000000000e+00 0.000000000000000e+00
0.000000000000000e+00 0.000000000000000e+00 0.000000000000000e+00
0.000000000000000e+00 0.000000000000000e+00 0.000000000000000e+00

0.000000000000000e+00 0.000000000000000e+00 0.000000000000000e+00
0.000000000000000e+00 0.000000000000000e+00 0.000000000000000e+00
0.000000000000000e+00 0.000000000000000e+00 0.000000000000000e+00

0.000000000000000e+00 0.000000000000000e+00 0.000000000000000e+00
0.000000000000000e+00 0.000000000000000e+00 0.000000000000000e+00
0.000000000000000e+00 0.000000000000000e+00 0.000000000000000e+00

0.000000000000000e+00 0.000000000000000e+00 0.000000000000000e+00
0.000000000000000e+00 0.000000000000000e+00 0.000000000000000e+00
0.000000000000000e+00 0.000000000000000e+00 0.000000000000000e+00

0.000000000000000e+00 0.000000000000000e+00 0.000000000000000e+00
0.000000000000000e+00 0.000000000000000e+00 0.000000000000000e+00
0.000000000000000e+00 0.000000000000000e+00 0.000000000000000e+00

0.000000000000000e+00 0.000000000000000e+00 0.000000000000000e+00
0.000000000000000e+00 0.000000000000000e+00 0.000000000000000e+00
0.000000000000000e+00 0.000000000000000e+00 0.000000000000000e+00

0.000000000000000e+00 0.000000000000000e+00 0.000000000000000e+00
0.000000000000000e+00 0.000000000000000e+00 0.000000000000000e+00
0.000000000000000e+00 0.000000000000000e+00 0.000000000000000e+00

0.000000000000000e+00 0.000000000000000e+00 0.000000000000000e+00
0.000000000000000e+00 0.000000000000000e+00 0.000000000000000e+00
0.000000000000000e+00 0.000000000000000e+00 0.000000000000000e+00

0.000000000000000e+00 0.000000000000000e+00 0.000000000000000e+00
0.000000000000000e+00 0.000000000000000e+00 0.000000000000000e+00
0.000000000000000e+00 0.000000000000000e+00 0.000000000000000e+00

0.000000000000000e+00 0.000000000000000e+00 0.000000000000000e+00
0.000000000000000e+00 0.000000000000000e+00 0.000000000000000e+00
0.000000000000000e+00 0.000000000000000e+00 0.000000000000000e+00

0.000000000000000e+00 0.000000000000000e+00 0.000000000000000e+00
0.000000000000000e+00 0.000000000000000e+00 0.000000000000000e+00
0.000000000000000e+00 0.000000000000000e+00 0.000000000000000e+00

0.000000000000000e+00 0.000000000000000e+00 0.000000000000000e+00
0.000000000000000e+00 0.000000000000000e+00 0.000000000000000e+00
0.000000000000000e+00 0.000000000000000e+00 0.000000000000000e+00

0.000000000000000e+00 0.000000000000000e+00 0.000000000000000e+00
0.000000000000000e+00 0.000000000000000e+00 0.000000000000000e+00
0.000000000000000e+00 0.000000000000000e+00 0.000000000000000e+00

0.000000000000000e+00 0.000000000000000e+00 0.000000000000000e+00
0.000000000000000e+00 0.000000000000000e+00 0.000000000000000e+00
0.000000000000000e+00 0.000000000000000e+00 0.000000000000000e+00

0.000000000000000e+00 0.000000000000000e+00 0.000000000000000e+00
0.000000000000000e+00 0.000000000000000e+00 0.000000000000000e+00
0.000000000000000e+00 0.000000000000000e+00 0.000000000000000e+00

0.000000000000000e+00 0.000000000000000e+00 0.000000000000000e+00
0.000000000000000e+00 0.000000000000000e+00 0.000000000000000e+00
0.000000000000000e+00 0.000000000000000e+00 0.000000000000000e+00

0.000000000000000e+00 0.000000000000000e+00 0.000000000000000e+00
0.000000000000000e+00 0.000000000000000e+00 0.000000000000000e+00
0.000000000000000e+00 0.000000000000000e+00 0.000000000000000e+00

0.000000000000000e+00 0.000000000000000e+00 0.000000000000000e+00
0.000000000000000e+00 0.000000000000000e+00 0.000000000000000e+00
0.000000000000000e+00 0.000000000000000e+00 0.000000000000000e+00

0.000000000000000e+00 0.000000000000000e+00 0.000000000000000e+00
0.000000000000000e+00 0.000000000000000e+00 0.000000000000000e+00
0.000000000000000e+00 0.000000000000000e+00 0.000000000000000e+00

0.000000000000000e+00 0.000000000000000e+00 0.000000000000000e+00
0.000000000000000e+00 0.000000000000000e+00 0.000000000000000e+00
0.000000000000000e+00 0.000000000000000e+00 0.000000000000000e+00

0.000000000000000e+00 0.000000000000000e+00 0.000000000000000e+00
0.000000000000000e+00 0.000000000000000e+00 0.000000000000000e+00
0.000000000000000e+00 0.000000000000000e+00 0.000000000000000e+00

0.000000000000000e+00 0.000000000000000e+00 0.000000000000000e+00
0.000000000000000e+00 0.000000000000000e+00 0.000000000000000e+00
0.000000000000000e+00 0.000000000000000e+00 0.000000000000000e+00

0.000000000000000e+00 0.000000000000000e+00 0.000000000000000e+00
0.000000000000000e+00 0.000000000000000e+00 0.000000000000000e+00
0.000000000000000e+00 0.000000000000000e+00 0.000000000000000e+00

0.000000000000000e+00 0.000000000000000e+00 0.000000000000000e+00
0.000000000000000e+00 0.000000000000000e+00 0.000000000000000e+00
0.000000000000000e+00 0.000000000000000e+00 0.000000000000000e+00

0.000000000000000e+00 0.000000000000000e+00 0.000000000000000e+00
0.000000000000000e+00 0.000000000000000e+00 0.000000000000000e+00
0.000000000000000e+00 0.000000000000000e+00 0.000000000000000e+00

0.000000000000000e+00 0.000000000000000e+00 0.000000000000000e+00
0.000000000000000e+00 0.000000000000000e+00 0.000000000000000e+00
0.000000000000000e+00 0.000000000000000e+00 0.000000000000000e+00

0.000000000000000e+00 0.000000000000000e+00 0.000000000000000e+00
0.000000000000000e+00 0.000000000000000e+00 0.000000000000000e+00
0.000000000000000e+00 0.000000000000000e+00 0.000000000000000e+00

0.000000000000000e+00 0.000000000000000e+00 0.000000000000000e+00
0.000000000000000e+00 0.000000000000000e+00 0.000000000000000e+00
0.000000000000000e+00 0.000000000000000e+00 0.000000000000000e+00

0.000000000000000e+00 0.000000000000000e+00 0.000000000000000e+00
0.000000000000000e+00 0.000000000000000e+00 0.000000000000000e+00
0.000000000000000e+00 0.000000000000000e+00 0.000000000000000e+00

0.000000000000000e+00 0.000000000000000e+00 0.000000000000000e+00
0.000000000000000e+00 0.000000000000000e+00 0.000000000000000e+00
0.000000000000000e+00 0.000000000000000e+00 0.000000000000000e+00

0.000000000000000e+00 0.000000000000000e+00 0.000000000000000e+00
0.000000000000000e+00 0.000000000000000e+00 0.000000000000000e+00
0.000000000000000e+00 0.000000000000000e+00 0.000000000000000e+00

0.000000000000000e+00 0.000000000000000e+00 0.000000000000000e+00
0.000000000000000e+00 0.000000000000000e+00 0.000000000000000e+00
0.000000000000000e+00 0.000000000000000e+00 0.000000000000000e+00

0.000000000000000e+00 0.000000000000000e+00 0.000000000000000e+00
0.000000000000000e+00 0.000000000000000e+00 0.000000000000000e+00
0.000000000000000e+00 0.000000000000000e+00 0.000000000000000e+00

0.000000000000000e+00 0.000000000000000e+00 0.000000000000000e+00
0.000000000000000e+00 0.000000000000000e+00 0.000000000000000e+00
0.000000000000000e+00 0.000000000000000e+00 0.000000000000000e+00

0.000000000000000e+00 0.000000000000000e+00 0.000000000000000e+00
0.000000000000000e+00 0.000000000000000e+00 0.000000000000000e+00
0.000000000000000e+00 0.000000000000000e+00 0.000000000000000e+00

0.000000000000000e+00 0.000000000000000e+00 0.000000000000000e+00
0.000000000000000e+00 0.000000000000000e+00 0.000000000000000e+00
0.000000000000000e+00 0.000000000000000e+00 0.000000000000000e+00

0.000000000000000e+00 0.000000000000000e+00 0.000000000000000e+00
0.000000000000000e+00 0.000000000000000e+00 0.000000000000000e+00
0.000000000000000e+00 0.000000000000000e+00 0.000000000000000e+00

0.000000000000000e+00 0.000000000000000e+00 0.000000000000000e+00
0.000000000000000e+00 0.000000000000000e+00 0.000000000000000e+00
0.000000000000000e+00 0.000000000000000e+00 0.000000000000000e+00

0.000000000000000e+00 0.000000000000000e+00 0.000000000000000e+00
0.000000000000000e+00 0.000000000000000e+00 0.000000000000000e+00
0.000000000000000e+00 0.000000000000000e+00 0.000000000000000e+00

0.000000000000000e+00 0.000000000000000e+00 0.000000000000000e+00
0.000000000000000e+00 0.000000000000000e+00 0.000000000000000e+00
0.000000000000000e+00 0.000000000000000e+00 0.000000000000000e+00

0.000000000000000e+00 0.000000000000000e+00 0.000000000000000e+00
0.000000000000000e+00 0.000000000000000e+00 0.000000000000000e+00
0.000000000000000e+00 0.000000000000000e+00 0.000000000000000e+00

0.000000000000000e+00 0.000000000000000e+00 0.000000000000000e+00
0.000000000000000e+00 0.000000000000000e+00 0.000000000000000e+00
0.000000000000000e+00 0.000000000000000e+00 0.000000000000000e+00

0.000000000000000e+00 0.000000000000000e+00 0.000000000000000e+00
0.000000000000000e+00 0.000000000000000e+00 0.000000000000000e+00
0.000000000000000e+00 0.000000000000000e+00 0.000000000000000e+00

0.000000000000000e+00 0.000000000000000e+00 0.000000000000000e+00
0.000000000000000e+00 0.000000000000000e+00 0.000000000000000e+00
0.000000000000000e+00 0.000000000000000e+00 0.000000000000000e+00

0.000000000000000e+00 0.000000000000000e+00 0.000000000000000e+00
0.000000000000000e+00 0.000000000000000e+00 0.000000000000000e+00
0.000000000000000e+00 0.000000000000000e+00 0.000000000000000e+00

0.000000000000000e+00 0.000000000000000e+00 0.000000000000000e+00
0.000000000000000e+00 0.000000000000000e+00 0.000000000000000e+00
0.000000000000000e+00 0.000000000000000e+00 0.000000000000000e+00

0.000000000000000e+00 0.000000000000000e+00 0.000000000000000e+00
0.000000000000000e+00 0.000000000000000e+00 0.000000000000000e+00
0.000000000000000e+00 0.000000000000000e+00 0.000000000000000e+00

0.000000000000000e+00 0.000000000000000e+00 0.000000000000000e+00
0.000000000000000e+00 0.000000000000000e+00 0.000000000000000e+00
0.000000000000000e+00 0.000000000000000e+00 0.000000000000000e+00

0.000000000000000e+00 0.000000000000000e+00 0.000000000000000e+00
0.000000000000000e+00 0.000000000000000e+00 0.000000000000000e+00
0.000000000000000e+00 0.000000000000000e+00 0.000000000000000e+00

0.000000000000000e+00 0.000000000000000e+00 0.000000000000000e+00
0.000000000000000e+00 0.000000000000000e+00 0.000000000000000e+00
0.000000000000000e+00 0.000000000000000e+00 0.000000000000000e+00

0.000000000000000e+00 0.000000000000000e+00 0.000000000000000e+00
0.000000000000000e+00 0.000000000000000e+00 0.000000000000000e+00
0.000000000000000e+00 0.000000000000000e+00 0.000000000000000e+00

0.000000000000000e+00 0.000000000000000e+00 0.000000000000000e+00
0.000000000000000e+00 0.000000000000000e+00 0.000000000000000e+00
0.000000000000000e+00 0.000000000000000e+00 0.000000000000000e+00

0.000000000000000e+00 0.000000000000000e+00 0.000000000000000e+00
0.000000000000000e+00 0.000000000000000e+00 0.000000000000000e+00
0.000000000000000e+00 0.000000000000000e+00 0.000000000000000e+00

0.000000000000000e+00 0.000000000000000e+00 0.000000000000000e+00
0.000000000000000e+00 0.000000000000000e+00 0.000000000000000e+00
0.000000000000000e+00 0.000000000000000e+00 0.000000000000000e+00

0.000000000000000e+00 0.000000000000000e+00 0.000000000000000e+00
0.000000000000000e+00 0.000000000000000e+00 0.000000000000000e+00
0.000000000000000e+00 0.000000000000000e+00 0.000000000000000e+00

0.000000000000000e+00 0.000000000000000e+00 0.000000000000000e+00
0.000000000000000e+00 0.000000000000000e+00 0.000000000000000e+00
0.000000000000000e+00 0.000000000000000e+00 0.000000000000000e+00

0.000000000000000e+00 0.000000000000000e+00 0.000000000000000e+00
0.000000000000000e+00 0.000000000000000e+00 0.000000000000000e+00
0.000000000000000e+00 0.000000000000000e+00 0.000000000000000e+00

0.000000000000000e+00 0.000000000000000e+00 0.000000000000000e+00
0.000000000000000e+00 0.000000000000000e+00 0.000000000000000e+00
0.000000000000000e+00 0.000000000000000e+00 0.000000000000000e+00

0.000000000000000e+00 0.000000000000000e+00 0.000000000000000e+00
0.000000000000000e+00 0.000000000000000e+00 0.000000000000000e+00
0.000000000000000e+00 0.000000000000000e+00 0.000000000000000e+00

0.000000000000000e+00 0.000000000000000e+00 0.000000000000000e+00
0.000000000000000e+00 0.000000000000000e+00 0.000000000000000e+00
0.000000000000000e+00 0.000000000000000e+00 0.000000000000000e+00

0.000000000000000e+00 0.000000000000000e+00 0.000000000000000e+00
0.000000000000000e+00 0.000000000000000e+00 0.000000000000000e+00
0.000000000000000e+00 0.000000000000000e+00 0.000000000000000e+00

0.000000000000000e+00 0.000000000000000e+00 0.000000000000000e+00
0.000000000000000e+00 0.000000000000000e+00 0.000000000000000e+00
0.000000000000000e+00 0.000000000000000e+00 0.000000000000000e+00

0.000000000000000e+00 0.000000000000000e+00 0.000000000000000e+00
0.000000000000000e+00 0.000000000000000e+00 0.000000000000000e+00
0.000000000000000e+00 0.000000000000000e+00 0.000000000000000e+00

0.000000000000000e+00 0.000000000000000e+00 0.000000000000000e+00
0.000000000000000e+00 0.000000000000000e+00 0.000000000000000e+00
0.000000000000000e+00 0.000000000000000e+00 0.000000000000000e+00

0.000000000000000e+00 0.000000000000000e+00 0.000000000000000e+00
0.000000000000000e+00 0.000000000000000e+00 0.000000000000000e+00
0.000000000000000e+00 0.000000000000000e+00 0.000000000000000e+00

0.000000000000000e+00 0.000000000000000e+00 0.000000000000000e+00
0.000000000000000e+00 0.000000000000000e+00 0.000000000000000e+00
0.000000000000000e+00 0.000000000000000e+00 0.000000000000000e+00

0.000000000000000e+00 0.000000000000000e+00 0.000000000000000e+00
0.000000000000000e+00 0.000000000000000e+00 0.000000000000000e+00
0.000000000000000e+00 0.000000000000000e+00 0.000000000000000e+00

0.000000000000000e+00 0.000000000000000e+00 0.000000000000000e+00
0.000000000000000e+00 0.000000000000000e+00 0.000000000000000e+00
0.000000000000000e+00 0.000000000000000e+00 0.000000000000000e+00

0.000000000000000e+00 0.000000000000000e+00 0.000000000000000e+00
0.000000000000000e+00 0.000000000000000e+00 0.000000000000000e+00
0.000000000000000e+00 0.000000000000000e+00 0.000000000000000e+00

0.000000000000000e+00 0.000000000000000e+00 0.000000000000000e+00
0.000000000000000e+00 0.000000000000000e+00 0.000000000000000e+00
0.000000000000000e+00 0.000000000000000e+00 0.000000000000000e+00

0.000000000000000e+00 0.000000000000000e+00 0.000000000000000e+00
0.000000000000000e+00 0.000000000000000e+00 0.000000000000000e+00
0.000000000000000e+00 0.000000000000000e+00 0.000000000000000e+00

0.000000000000000e+00 0.000000000000000e+00 0.000000000000000e+00
0.000000000000000e+00 0.000000000000000e+00 0.000000000000000e+00
0.000000000000000e+00 0.000000000000000e+00 0.000000000000000e+00

0.000000000000000e+00 0.000000000000000e+00 0.000000000000000e+00
0.000000000000000e+00 0.000000000000000e+00 0.000000000000000e+00
0.000000000000000e+00 0.000000000000000e+00 0.000000000000000e+00

0.000000000000000e+00 0.000000000000000e+00 0.000000000000000e+00
0.000000000000000e+00 0.000000000000000e+00 0.000000000000000e+00
0.000000000000000e+00 0.000000000000000e+00 0.000000000000000e+00

0.000000000000000e+00 0.000000000000000e+00 0.000000000000000e+00
0.000000000000000e+00 0.000000000000000e+00 0.000000000000000e+00
0.000000000000000e+00 0.000000000000000e+00 0.000000000000000e+00

0.000000000000000e+00 0.000000000000000e+00 0.000000000000000e+00
0.000000000000000e+00 0.000000000000000e+00 0.000000000000000e+00
0.000000000000000e+00 0.000000000000000e+00 0.000000000000000e+00

0.000000000000000e+00 0.000000000000000e+00 0.000000000000000e+00
0.000000000000000e+00 0.000000000000000e+00 0.000000000000000e+00
0.000000000000000e+00 0.000000000000000e+00 0.000000000000000e+00

0.000000000000000e+00 0.000000000000000e+00 0.000000000000000e+00
0.000000000000000e+00 0.000000000000000e+00 0.000000000000000e+00
0.000000000000000e+00 0.000000000000000e+00 0.000000000000000e+00

0.000000000000000e+00 0.000000000000000e+00 0.000000000000000e+00
0.000000000000000e+00 0.000000000000000e+00 0.000000000000000e+00
0.000000000000000e+00 0.000000000000000e+00 0.000000000000000e+00

0.000000000000000e+00 0.000000000000000e+00 0.000000000000000e+00
0.000000000000000e+00 0.000000000000000e+00 0.000000000000000e+00
0.000000000000000e+00 0.000000000000000e+00 0.000000000000000e+00

0.000000000000000e+00 0.000000000000000e+00 0.000000000000000e+00
0.000000000000000e+00 0.000000000000000e+00 0.000000000000000e+00
0.000000000000000e+00 0.000000000000000e+00 0.000000000000000e+00

0.000000000000000e+00 0.000000000000000e+00 0.000000000000000e+00
0.000000000000000e+00 0.000000000000000e+00 0.000000000000000e+00
0.000000000000000e+00 0.000000000000000e+00 0.000000000000000e+00

0.000000000000000e+00 0.000000000000000e+00 0.000000000000000e+00
0.000000000000000e+00 0.000000000000000e+00 0.000000000000000e+00
0.000000000000000e+00 0.000000000000000e+00 0.000000000000000e+00

0.000000000000000e+00 0.000000000000000e+00 0.000000000000000e+00
0.000000000000000e+00 0.000000000000000e+00 0.000000000000000e+00
0.000000000000000e+00 0.000000000000000e+00 0.000000000000000e+00

0.000000000000000e+00 0.000000000000000e+00 0.000000000000000e+00
0.000000000000000e+00 0.000000000000000e+00 0.000000000000000e+00
0.000000000000000e+00 0.000000000000000e+00 0.000000000000000e+00

0.000000000000000e+00 0.000000000000000e+00 0.000000000000000e+00
0.000000000000000e+00 0.000000000000000e+00 0.000000000000000e+00
0.000000000000000e+00 0.000000000000000e+00 0.000000000000000e+00

0.000000000000000e+00 0.000000000000000e+00 0.000000000000000e+00
0.000000000000000e+00 0.000000000000000e+00 0.000000000000000e+00
0.000000000000000e+00 0.000000000000000e+00 0.000000000000000e+00

0.000000000000000e+00 0.000000000000000e+00 0.000000000000000e+00
0.000000000000000e+00 0.000000000000000e+00 0.000000000000000e+00
0.000000000000000e+00 0.000000000000000e+00 0.000000000000000e+00

0.000000000000000e+00 0.000000000000000e+00 0.000000000000000e+00
0.000000000000000e+00 0.000000000000000e+00 0.000000000000000e+00
0.000000000000000e+00 0.000000000000000e+00 0.000000000000000e+00

0.000000000000000e+00 0.000000000000000e+00 0.000000000000000e+00
0.000000000000000e+00 0.000000000000000e+00 0.000000000000000e+00
0.000000000000000e+00 0.000000000000000e+00 0.000000000000000e+00

0.000000000000000e+00 0.000000000000000e+00 0.000000000000000e+00
0.000000000000000e+00 0.000000000000000e+00 0.000000000000000e+00
0.000000000000000e+00 0.000000000000000e+00 0.000000000000000e+00

0.000000000000000e+00 0.000000000000000e+00 0.000000000000000e+00
0.000000000000000e+00 0.000000000000000e+00 0.000000000000000e+00
0.000000000000000e+00 0.000000000000000e+00 0.000000000000000e+00

0.000000000000000e+00 0.000000000000000e+00 0.000000000000000e+00
0.000000000000000e+00 0.000000000000000e+00 0.000000000000000e+00
0.000000000000000e+00 0.000000000000000e+00 0.000000000000000e+00

0.000000000000000e+00 0.000000000000000e+00 0.000000000000000e+00
0.000000000000000e+00 0.000000000000000e+00 0.000000000000000e+00
0.000000000000000e+00 0.000000000000000e+00 0.000000000000000e+00

0.000000000000000e+00 0.000000000000000e+00 0.000000000000000e+00
0.000000000000000e+00 0.000000000000000e+00 0.000000000000000e+00
0.000000000000000e+00 0.000000000000000e+00 0.000000000000000e+00

0.000000000000000e+00 0.000000000000000e+00 0.000000000000000e+00
0.000000000000000e+00 0.000000000000000e+00 0.000000000000000e+00
0.000000000000000e+00 0.000000000000000e+00 0.000000000000000e+00

0.000000000000000e+00 0.000000000000000e+00 0.000000000000000e+00
0.000000000000000e+00 0.000000000000000e+00 0.000000000000000e+00
0.000000000000000e+00 0.000000000000000e+00 0.000000000000000e+00

0.000000000000000e+00 0.000000000000000e+00 0.000000000000000e+00
0.000000000000000e+00 0.000000000000000e+00 0.000000000000000e+00
0.000000000000000e+00 0.000000000000000e+00 0.000000000000000e+00

0.000000000000000e+00 0.000000000000000e+00 0.000000000000000e+00
0.000000000000000e+00 0.000000000000000e+00 0.000000000000000e+00
0.000000000000000e+00 0.000000000000000e+00 0.000000000000000e+00

0.000000000000000e+00 0.000000000000000e+00 0.000000000000000e+00
0.000000000000000e+00 0.000000000000000e+00 0.000000000000000e+00
0.000000000000000e+00 0.000000000000000e+00 0.000000000000000e+00

0.000000000000000e+00 0.000000000000000e+00 0.000000000000000e+00
0.000000000000000e+00 0.000000000000000e+00 0.000000000000000e+00
0.000000000000000e+00 0.000000000000000e+00 0.000000000000000e+00

0.000000000000000e+00 0.000000000000000e+00 0.000000000000000e+00
0.000000000000000e+00 0.000000000000000e+00 0.000000000000000e+00
0.000000000000000e+00 0.000000000000000e+00 0.000000000000000e+00

0.000000000000000e+00 0.000000000000000e+00 0.000000000000000e+00
0.000000000000000e+00 0.000000000000000e+00 0.000000000000000e+00
0.000000000000000e+00 0.000000000000000e+00 0.000000000000000e+00

0.000000000000000e+00 0.000000000000000e+00 0.000000000000000e+00
0.000000000000000e+00 0.000000000000000e+00 0.000000000000000e+00
0.000000000000000e+00 0.000000000000000e+00 0.000000000000000e+00

0.000000000000000e+00 0.000000000000000e+00 0.000000000000000e+00
0.000000000000000e+00 0.000000000000000e+00 0.000000000000000e+00
0.000000000000000e+00 0.000000000000000e+00 0.000000000000000e+00

0.000000000000000e+00 0.000000000000000e+00 0.000000000000000e+00
0.000000000000000e+00 0.000000000000000e+00 0.000000000000000e+00
0.000000000000000e+00 0.000000000000000e+00 0.000000000000000e+00

0.000000000000000e+00 0.000000000000000e+00 0.000000000000000e+00
0.000000000000000e+00 0.000000000000000e+00 0.000000000000000e+00
0.000000000000000e+00 0.000000000000000e+00 0.000000000000000e+00

0.000000000000000e+00 0.000000000000000e+00 0.000000000000000e+00
0.000000000000000e+00 0.000000000000000e+00 0.000000000000000e+00
0.000000000000000e+00 0.000000000000000e+00 0.000000000000000e+00

0.000000000000000e+00 0.000000000000000e+00 0.000000000000000e+00
0.000000000000000e+00 0.000000000000000e+00 0.000000000000000e+00
0.000000000000000e+00 0.000000000000000e+00 0.000000000000000e+00

0.000000000000000e+00 0.000000000000000e+00 0.000000000000000e+00
0.000000000000000e+00 0.000000000000000e+00 0.000000000000000e+00
0.000000000000000e+00 0.000000000000000e+00 0.000000000000000e+00

0.000000000000000e+00 0.000000000000000e+00 0.000000000000000e+00
0.000000000000000e+00 0.000000000000000e+00 0.000000000000000e+00
0.000000000000000e+00 0.000000000000000e+00 0.000000000000000e+00

0.000000000000000e+00 0.000000000000000e+00 0.000000000000000e+00
0.000000000000000e+00 0.000000000000000e+00 0.000000000000000e+00
0.000000000000000e+00 0.000000000000000e+00 0.000000000000000e+00

0.000000000000000e+00 0.000000000000000e+00 0.000000000000000e+00
0.000000000000000e+00 0.000000000000000e+00 0.000000000000000e+00
0.000000000000000e+00 0.000000000000000e+00 0.000000000000000e+00

0.000000000000000e+00 0.000000000000000e+00 0.000000000000000e+00
0.000000000000000e+00 0.000000000000000e+00 0.000000000000000e+00
0.000000000000000e+00 0.000000000000000e+00 0.000000000000000e+00

0.000000000000000e+00 0.000000000000000e+00 0.000000000000000e+00
0.000000000000000e+00 0.000000000000000e+00 0.000000000000000e+00
0.000000000000000e+00 0.000000000000000e+00 0.000000000000000e+00

0.000000000000000e+00 0.000000000000000e+00 0.000000000000000e+00
0.000000000000000e+00 0.000000000000000e+00 0.000000000000000e+00
0.000000000000000e+00 0.000000000000000e+00 0.000000000000000e+00

0.000000000000000e+00 0.000000000000000e+00 0.000000000000000e+00
0.000000000000000e+00 0.000000000000000e+00 0.000000000000000e+00
0.000000000000000e+00 0.000000000000000e+00 0.000000000000000e+00

0.000000000000000e+00 0.000000000000000e+00 0.000000000000000e+00
0.000000000000000e+00 0.000000000000000e+00 0.000000000000000e+00
0.000000000000000e+00 0.000000000000000e+00 0.000000000000000e+00

0.000000000000000e+00 0.000000000000000e+00 0.000000000000000e+00
0.000000000000000e+00 0.000000000000000e+00 0.000000000000000e+00
0.000000000000000e+00 0.000000000000000e+00 0.000000000000000e+00

0.000000000000000e+00 0.000000000000000e+00 0.000000000000000e+00
0.000000000000000e+00 0.000000000000000e+00 0.000000000000000e+00
0.000000000000000e+00 0.000000000000000e+00 0.000000000000000e+00

0.000000000000000e+00 0.000000000000000e+00 0.000000000000000e+00
0.000000000000000e+00 0.000000000000000e+00 0.000000000000000e+00
0.000000000000000e+00 0.000000000000000e+00 0.000000000000000e+00

0.000000000000000e+00 0.000000000000000e+00 0.000000000000000e+00
0.000000000000000e+00 0.000000000000000e+00 0.000000000000000e+00
0.000000000000000e+00 0.000000000000000e+00 0.000000000000000e+00

0.000000000000000e+00 0.000000000000000e+00 0.000000000000000e+00
0.000000000000000e+00 0.000000000000000e+00 0.000000000000000e+00
0.000000000000000e+00 0.000000000000000e+00 0.000000000000000e+00

0.000000000000000e+00 0.000000000000000e+00 0.000000000000000e+00
0.000000000000000e+00 0.000000000000000e+00 0.000000000000000e+00
0.000000000000000e+00 0.000000000000000e+00 0.000000000000000e+00

0.000000000000000e+00 0.000000000000000e+00 0.000000000000000e+00
0.000000000000000e+00 0.000000000000000e+00 0.000000000000000e+00
0.000000000000000e+00 0.000000000000000e+00 0.000000000000000e+00

0.000000000000000e+00 0.000000000000000e+00 0.000000000000000e+00
0.000000000000000e+00 0.000000000000000e+00 0.000000000000000e+00
0.000000000000000e+00 0.000000000000000e+00 0.000000000000000e+00

0.000000000000000e+00 0.000000000000000e+00 0.000000000000000e+00
0.000000000000000e+00 0.000000000000000e+00 0.000000000000000e+00
0.000000000000000e+00 0.000000000000000e+00 0.000000000000000e+00

0.000000000000000e+00 0.000000000000000e+00 0.000000000000000e+00
0.000000000000000e+00 0.000000000000000e+00 0.000000000000000e+00
0.000000000000000e+00 0.000000000000000e+00 0.000000000000000e+00

0.000000000000000e+00 0.000000000000000e+00 0.000000000000000e+00
0.000000000000000e+00 0.000000000000000e+00 0.000000000000000e+00
0.000000000000000e+00 0.000000000000000e+00 0.000000000000000e+00

0.000000000000000e+00 0.000000000000000e+00 0.000000000000000e+00
0.000000000000000e+00 0.000000000000000e+00 0.000000000000000e+00
0.000000000000000e+00 0.000000000000000e+00 0.000000000000000e+00

0.000000000000000e+00 0.000000000000000e+00 0.000000000000000e+00
0.000000000000000e+00 0.000000000000000e+00 0.000000000000000e+00
0.000000000000000e+00 0.000000000000000e+00 0.000000000000000e+00

0.000000000000000e+00 0.000000000000000e+00 0.000000000000000e+00
0.000000000000000e+00 0.000000000000000e+00 0.000000000000000e+00
0.000000000000000e+00 0.000000000000000e+00 0.000000000000000e+00

0.000000000000000e+00 0.000000000000000e+00 0.000000000000000e+00
0.000000000000000e+00 0.000000000000000e+00 0.000000000000000e+00
0.000000000000000e+00 0.000000000000000e+00 0.000000000000000e+00

0.000000000000000e+00 0.000000000000000e+00 0.000000000000000e+00
0.000000000000000e+00 0.000000000000000e+00 0.000000000000000e+00
0.000000000000000e+00 0.000000000000000e+00 0.000000000000000e+00

0.000000000000000e+00 0.000000000000000e+00 0.000000000000000e+00
0.000000000000000e+00 0.000000000000000e+00 0.000000000000000e+00
0.000000000000000e+00 0.000000000000000e+00 0.000000000000000e+00

0.000000000000000e+00 0.000000000000000e+00 0.000000000000000e+00
0.000000000000000e+00 0.000000000000000e+00 0.000000000000000e+00
0.000000000000000e+00 0.000000000000000e+00 0.000000000000000e+00

0.000000000000000e+00 0.000000000000000e+00 0.000000000000000e+00
0.000000000000000e+00 0.000000000000000e+00 0.000000000000000e+00
0.000000000000000e+00 0.000000000000000e+00 0.000000000000000e+00

0.000000000000000e+00 0.000000000000000e+00 0.000000000000000e+00
0.000000000000000e+00 0.000000000000000e+00 0.000000000000000e+00
0.000000000000000e+00 0.000000000000000e+00 0.000000000000000e+00

0.000000000000000e+00 0.000000000000000e+00 0.000000000000000e+00
0.000000000000000e+00 0.000000000000000e+00 0.000000000000000e+00
0.000000000000000e+00 0.000000000000000e+00 0.000000000000000e+00

0.000000000000000e+00 0.000000000000000e+00 0.000000000000000e+00
0.000000000000000e+00 0.000000000000000e+00 0.000000000000000e+00
0.000000000000000e+00 0.000000000000000e+00 0.000000000000000e+00

0.000000000000000e+00 0.000000000000000e+00 0.000000000000000e+00
0.000000000000000e+00 0.000000000000000e+00 0.000000000000000e+00
0.000000000000000e+00 0.000000000000000e+00 0.000000000000000e+00

0.000000000000000e+00 0.000000000000000e+00 0.000000000000000e+00
0.000000000000000e+00 0.000000000000000e+00 0.000000000000000e+00
0.000000000000000e+00 0.000000000000000e+00 0.000000000000000e+00

0.000000000000000e+00 0.000000000000000e+00 0.000000000000000e+00
0.000000000000000e+00 0.000000000000000e+00 0.000000000000000e+00
0.000000000000000e+00 0.000000000000000e+00 0.000000000000000e+00

0.000000000000000e+00 0.000000000000000e+00 0.000000000000000e+00
0.000000000000000e+00 0.000000000000000e+00 0.000000000000000e+00
0.000000000000000e+00 0.000000000000000e+00 0.000000000000000e+00

0.000000000000000e+00 0.000000000000000e+00 0.000000000000000e+00
0.000000000000000e+00 0.000000000000000e+00 0.000000000000000e+00
0.000000000000000e+00 0.000000000000000e+00 0.000000000000000e+00

0.000000000000000e+00 0.000000000000000e+00 0.000000000000000e+00
0.000000000000000e+00 0.000000000000000e+00 0.000000000000000e+00
0.000000000000000e+00 0.000000000000000e+00 0.000000000000000e+00

0.000000000000000e+00 0.000000000000000e+00 0.000000000000000e+00
0.000000000000000e+00 0.000000000000000e+00 0.000000000000000e+00
0.000000000000000e+00 0.000000000000000e+00 0.000000000000000e+00

0.000000000000000e+00 0.000000000000000e+00 0.000000000000000e+00
0.000000000000000e+00 0.000000000000000e+00 0.000000000000000e+00
0.000000000000000e+00 0.000000000000000e+00 0.000000000000000e+00

0.000000000000000e+00 0.000000000000000e+00 0.000000000000000e+00
0.000000000000000e+00 0.000000000000000e+00 0.000000000000000e+00
0.000000000000000e+00 0.000000000000000e+00 0.000000000000000e+00

0.000000000000000e+00 0.000000000000000e+00 0.000000000000000e+00
0.000000000000000e+00 0.000000000000000e+00 0.000000000000000e+00
0.000000000000000e+00 0.000000000000000e+00 0.000000000000000e+00

0.000000000000000e+00 0.000000000000000e+00 0.000000000000000e+00
0.000000000000000e+00 0.000000000000000e+00 0.000000000000000e+00
0.000000000000000e+00 0.000000000000000e+00 0.000000000000000e+00

0.000000000000000e+00 0.000000000000000e+00 0.000000000000000e+00
0.000000000000000e+00 0.000000000000000e+00 0.000000000000000e+00
0.000000000000000e+00 0.000000000000000e+00 0.000000000000000e+00

0.000000000000000e+00 0.000000000000000e+00 0.000000000000000e+00
0.000000000000000e+00 0.000000000000000e+00 0.000000000000000e+00
0.000000000000000e+00 0.000000000000000e+00 0.000000000000000e+00

0.000000000000000e+00 0.000000000000000e+00 0.000000000000000e+00
0.000000000000000e+00 0.000000000000000e+00 0.000000000000000e+00
0.000000000000000e+00 0.000000000000000e+00 0.000000000000000e+00

0.000000000000000e+00 0.000000000000000e+00 0.000000000000000e+00
0.000000000000000e+00 0.000000000000000e+00 0.000000000000000e+00
0.000000000000000e+00 0.000000000000000e+00 0.000000000000000e+00

0.000000000000000e+00 0.000000000000000e+00 0.000000000000000e+00
0.000000000000000e+00 0.000000000000000e+00 0.000000000000000e+00
0.000000000000000e+00 0.000000000000000e+00 0.000000000000000e+00

0.000000000000000e+00 0.000000000000000e+00 0.000000000000000e+00
0.000000000000000e+00 0.000000000000000e+00 0.000000000000000e+00
0.000000000000000e+00 0.000000000000000e+00 0.000000000000000e+00

0.000000000000000e+00 0.000000000000000e+00 0.000000000000000e+00
0.000000000000000e+00 0.000000000000000e+00 0.000000000000000e+00
0.000000000000000e+00 0.000000000000000e+00 0.000000000000000e+00

0.000000000000000e+00 0.000000000000000e+00 0.000000000000000e+00
0.000000000000000e+00 0.000000000000000e+00 0.000000000000000e+00
0.000000000000000e+00 0.000000000000000e+00 0.000000000000000e+00

0.000000000000000e+00 0.000000000000000e+00 0.000000000000000e+00
0.000000000000000e+00 0.000000000000000e+00 0.000000000000000e+00
0.000000000000000e+00 0.000000000000000e+00 0.000000000000000e+00

0.000000000000000e+00 0.000000000000000e+00 0.000000000000000e+00
0.000000000000000e+00 0.000000000000000e+00 0.000000000000000e+00
0.000000000000000e+00 0.000000000000000e+00 0.000000000000000e+00

0.000000000000000e+00 0.000000000000000e+00 0.000000000000000e+00
0.000000000000000e+00 0.000000000000000e+00 0.000000000000000e+00
0.000000000000000e+00 0.000000000000000e+00 0.000000000000000e+00

0.000000000000000e+00 0.000000000000000e+00 0.000000000000000e+00
0.000000000000000e+00 0.000000000000000e+00 0.000000000000000e+00
0.000000000000000e+00 0.000000000000000e+00 0.000000000000000e+00

0.000000000000000e+00 0.000000000000000e+00 0.000000000000000e+00
0.000000000000000e+00 0.000000000000000e+00 0.000000000000000e+00
0.000000000000000e+00 0.000000000000000e+00 0.000000000000000e+00

0.000000000000000e+00 0.000000000000000e+00 0.000000000000000e+00
0.000000000000000e+00 0.000000000000000e+00 0.000000000000000e+00
0.000000000000000e+00 0.000000000000000e+00 0.000000000000000e+00

0.000000000000000e+00 0.000000000000000e+00 0.000000000000000e+00
0.000000000000000e+00 0.000000000000000e+00 0.000000000000000e+00
0.000000000000000e+00 0.000000000000000e+00 0.000000000000000e+00

0.000000000000000e+00 0.000000000000000e+00 0.000000000000000e+00
0.000000000000000e+00 0.000000000000000e+00 0.000000000000000e+00
0.000000000000000e+00 0.000000000000000e+00 0.000000000000000e+00

0.000000000000000e+00 0.000000000000000e+00 0.000000000000000e+00
0.000000000000000e+00 0.000000000000000e+00 0.000000000000000e+00
0.000000000000000e+00 0.000000000000000e+00 0.000000000000000e+00

0.000000000000000e+00 0.000000000000000e+00 0.000000000000000e+00
0.000000000000000e+00 0.000000000000000e+00 0.000000000000000e+00
0.000000000000000e+00 0.000000000000000e+00 0.000000000000000e+00

0.000000000000000e+00 0.000000000000000e+00 0.000000000000000e+00
0.000000000000000e+00 0.000000000000000e+00 0.000000000000000e+00
0.000000000000000e+00 0.000000000000000e+00 0.000000000000000e+00

0.000000000000000e+00 0.000000000000000e+00 0.000000000000000e+00
0.000000000000000e+00 0.000000000000000e+00 0.000000000000000e+00
0.000000000000000e+00 0.000000000000000e+00 0.000000000000000e+00

0.000000000000000e+00 0.000000000000000e+00 0.000000000000000e+00
0.000000000000000e+00 0.000000000000000e+00 0.000000000000000e+00
0.000000000000000e+00 0.000000000000000e+00 0.000000000000000e+00

0.000000000000000e+00 0.000000000000000e+00 0.000000000000000e+00
0.000000000000000e+00 0.000000000000000e+00 0.000000000000000e+00
0.000000000000000e+00 0.000000000000000e+00 0.000000000000000e+00

0.000000000000000e+00 0.000000000000000e+00 0.000000000000000e+00
0.000000000000000e+00 0.000000000000000e+00 0.000000000000000e+00
0.000000000000000e+00 0.000000000000000e+00 0.000000000000000e+00

0.000000000000000e+00 0.000000000000000e+00 0.000000000000000e+00
0.000000000000000e+00 0.000000000000000e+00 0.000000000000000e+00
0.000000000000000e+00 0.000000000000000e+00 0.000000000000000e+00

0.000000000000000e+00 0.000000000000000e+00 0.000000000000000e+00
0.000000000000000e+00 0.000000000000000e+00 0.000000000000000e+00
0.000000000000000e+00 0.000000000000000e+00 0.000000000000000e+00

0.000000000000000e+00 0.000000000000000e+00 0.000000000000000e+00
0.000000000000000e+00 0.000000000000000e+00 0.000000000000000e+00
0.000000000000000e+00 0.000000000000000e+00 0.000000000000000e+00

0.000000000000000e+00 0.000000000000000e+00 0.000000000000000e+00
0.000000000000000e+00 0.000000000000000e+00 0.000000000000000e+00
0.000000000000000e+00 0.000000000000000e+00 0.000000000000000e+00

0.000000000000000e+00 0.000000000000000e+00 0.000000000000000e+00
0.000000000000000e+00 0.000000000000000e+00 0.000000000000000e+00
0.000000000000000e+00 0.000000000000000e+00 0.000000000000000e+00

0.000000000000000e+00 0.000000000000000e+00 0.000000000000000e+00
0.000000000000000e+00 0.000000000000000e+00 0.000000000000000e+00
0.000000000000000e+00 0.000000000000000e+00 0.000000000000000e+00

0.000000000000000e+00 0.000000000000000e+00 0.000000000000000e+00
0.000000000000000e+00 0.000000000000000e+00 0.000000000000000e+00
0.000000000000000e+00 0.000000000000000e+00 0.000000000000000e+00

0.000000000000000e+00 0.000000000000000e+00 0.000000000000000e+00
0.000000000000000e+00 0.000000000000000e+00 0.000000000000000e+00
0.000000000000000e+00 0.000000000000000e+00 0.000000000000000e+00

0.000000000000000e+00 0.000000000000000e+00 0.000000000000000e+00
0.000000000000000e+00 0.000000000000000e+00 0.000000000000000e+00
0.000000000000000e+00 0.000000000000000e+00 0.000000000000000e+00

0.000000000000000e+00 0.000000000000000e+00 0.000000000000000e+00
0.000000000000000e+00 0.000000000000000e+00 0.000000000000000e+00
0.000000000000000e+00 0.000000000000000e+00 0.000000000000000e+00

0.000000000000000e+00 0.000000000000000e+00 0.000000000000000e+00
0.000000000000000e+00 0.000000000000000e+00 0.000000000000000e+00
0.000000000000000e+00 0.000000000000000e+00 0.000000000000000e+00

0.000000000000000e+00 0.000000000000000e+00 0.000000000000000e+00
0.000000000000000e+00 0.000000000000000e+00 0.000000000000000e+00
0.000000000000000e+00 0.000000000000000e+00 0.000000000000000e+00

0.000000000000000e+00 0.000000000000000e+00 0.000000000000000e+00
0.000000000000000e+00 0.000000000000000e+00 0.000000000000000e+00
0.000000000000000e+00 0.000000000000000e+00 0.000000000000000e+00

0.000000000000000e+00 0.000000000000000e+00 0.000000000000000e+00
0.000000000000000e+00 0.000000000000000e+00 0.000000000000000e+00
0.000000000000000e+00 0.000000000000000e+00 0.000000000000000e+00

0.000000000000000e+00 0.000000000000000e+00 0.000000000000000e+00
0.000000000000000e+00 0.000000000000000e+00 0.000000000000000e+00
0.000000000000000e+00 0.000000000000000e+00 0.000000000000000e+00

0.000000000000000e+00 0.000000000000000e+00 0.000000000000000e+00
0.000000000000000e+00 0.000000000000000e+00 0.000000000000000e+00
0.000000000000000e+00 0.000000000000000e+00 0.000000000000000e+00

0.000000000000000e+00 0.000000000000000e+00 0.000000000000000e+00
0.000000000000000e+00 0.000000000000000e+00 0.000000000000000e+00
0.000000000000000e+00 0.000000000000000e+00 0.000000000000000e+00

0.000000000000000e+00 0.000000000000000e+00 0.000000000000000e+00
0.000000000000000e+00 0.000000000000000e+00 0.000000000000000e+00
0.000000000000000e+00 0.000000000000000e+00 0.000000000000000e+00

0.000000000000000e+00 0.000000000000000e+00 0.000000000000000e+00
0.000000000000000e+00 0.000000000000000e+00 0.000000000000000e+00
0.000000000000000e+00 0.000000000000000e+00 0.000000000000000e+00

0.000000000000000e+00 0.000000000000000e+00 0.000000000000000e+00
0.000000000000000e+00 0.000000000000000e+00 0.000000000000000e+00
0.000000000000000e+00 0.000000000000000e+00 0.000000000000000e+00

0.000000000000000e+00 0.000000000000000e+00 0.000000000000000e+00
0.000000000000000e+00 0.000000000000000e+00 0.000000000000000e+00
0.000000000000000e+00 0.000000000000000e+00 0.000000000000000e+00

0.000000000000000e+00 0.000000000000000e+00 0.000000000000000e+00
0.000000000000000e+00 0.000000000000000e+00 0.000000000000000e+00
0.000000000000000e+00 0.000000000000000e+00 0.000000000000000e+00

0.000000000000000e+00 0.000000000000000e+00 0.000000000000000e+00
0.000000000000000e+00 0.000000000000000e+00 0.000000000000000e+00
0.000000000000000e+00 0.000000000000000e+00 0.000000000000000e+00

0.000000000000000e+00 0.000000000000000e+00 0.000000000000000e+00
0.000000000000000e+00 0.000000000000000e+00 0.000000000000000e+00
0.000000000000000e+00 0.000000000000000e+00 0.000000000000000e+00

0.000000000000000e+00 0.000000000000000e+00 0.000000000000000e+00
0.000000000000000e+00 0.000000000000000e+00 0.000000000000000e+00
0.000000000000000e+00 0.000000000000000e+00 0.000000000000000e+00

0.000000000000000e+00 0.000000000000000e+00 0.000000000000000e+00
0.000000000000000e+00 0.000000000000000e+00 0.000000000000000e+00
0.000000000000000e+00 0.000000000000000e+00 0.000000000000000e+00

0.000000000000000e+00 0.000000000000000e+00 0.000000000000000e+00
0.000000000000000e+00 0.000000000000000e+00 0.000000000000000e+00
0.000000000000000e+00 0.000000000000000e+00 0.000000000000000e+00

0.000000000000000e+00 0.000000000000000e+00 0.000000000000000e+00
0.000000000000000e+00 0.000000000000000e+00 0.000000000000000e+00
0.000000000000000e+00 0.000000000000000e+00 0.000000000000000e+00

0.000000000000000e+00 0.000000000000000e+00 0.000000000000000e+00
0.000000000000000e+00 0.000000000000000e+00 0.000000000000000e+00
0.000000000000000e+00 0.000000000000000e+00 0.000000000000000e+00

0.000000000000000e+00 0.000000000000000e+00 0.000000000000000e+00
0.000000000000000e+00 0.000000000000000e+00 0.000000000000000e+00
0.000000000000000e+00 0.000000000000000e+00 0.000000000000000e+00

0.000000000000000e+00 0.000000000000000e+00 0.000000000000000e+00
0.000000000000000e+00 0.000000000000000e+00 0.000000000000000e+00
0.000000000000000e+00 0.000000000000000e+00 0.000000000000000e+00

0.000000000000000e+00 0.000000000000000e+00 0.000000000000000e+00
0.000000000000000e+00 0.000000000000000e+00 0.000000000000000e+00
0.000000000000000e+00 0.000000000000000e+00 0.000000000000000e+00

0.000000000000000e+00 0.000000000000000e+00 0.000000000000000e+00
0.000000000000000e+00 0.000000000000000e+00 0.000000000000000e+00
0.000000000000000e+00 0.000000000000000e+00 0.000000000000000e+00

0.000000000000000e+00 0.000000000000000e+00 0.000000000000000e+00
0.000000000000000e+00 0.000000000000000e+00 0.000000000000000e+00
0.000000000000000e+00 0.000000000000000e+00 0.000000000000000e+00

0.000000000000000e+00 0.000000000000000e+00 0.000000000000000e+00
0.000000000000000e+00 0.000000000000000e+00 0.000000000000000e+00
0.000000000000000e+00 0.000000000000000e+00 0.000000000000000e+00

0.000000000000000e+00 0.000000000000000e+00 0.000000000000000e+00
0.000000000000000e+00 0.000000000000000e+00 0.000000000000000e+00
0.000000000000000e+00 0.000000000000000e+00 0.000000000000000e+00

0.000000000000000e+00 0.000000000000000e+00 0.000000000000000e+00
0.000000000000000e+00 0.000000000000000e+00 0.000000000000000e+00
0.000000000000000e+00 0.000000000000000e+00 0.000000000000000e+00

0.000000000000000e+00 0.000000000000000e+00 0.000000000000000e+00
0.000000000000000e+00 0.000000000000000e+00 0.000000000000000e+00
0.000000000000000e+00 0.000000000000000e+00 0.000000000000000e+00

0.000000000000000e+00 0.000000000000000e+00 0.000000000000000e+00
0.000000000000000e+00 0.000000000000000e+00 0.000000000000000e+00
0.000000000000000e+00 0.000000000000000e+00 0.000000000000000e+00

0.000000000000000e+00 0.000000000000000e+00 0.000000000000000e+00
0.000000000000000e+00 0.000000000000000e+00 0.000000000000000e+00
0.000000000000000e+00 0.000000000000000e+00 0.000000000000000e+00

0.000000000000000e+00 0.000000000000000e+00 0.000000000000000e+00
0.000000000000000e+00 0.000000000000000e+00 0.000000000000000e+00
0.000000000000000e+00 0.000000000000000e+00 0.000000000000000e+00

0.000000000000000e+00 0.000000000000000e+00 0.000000000000000e+00
0.000000000000000e+00 0.000000000000000e+00 0.000000000000000e+00
0.000000000000000e+00 0.000000000000000e+00 0.000000000000000e+00

0.000000000000000e+00 0.000000000000000e+00 0.000000000000000e+00
0.000000000000000e+00 0.000000000000000e+00 0.000000000000000e+00
0.000000000000000e+00 0.000000000000000e+00 0.000000000000000e+00

0.000000000000000e+00 0.000000000000000e+00 0.000000000000000e+00
0.000000000000000e+00 0.000000000000000e+00 0.000000000000000e+00
0.000000000000000e+00 0.000000000000000e+00 0.000000000000000e+00

0.000000000000000e+00 0.000000000000000e+00 0.000000000000000e+00
0.000000000000000e+00 0.000000000000000e+00 0.000000000000000e+00
0.000000000000000e+00 0.000000000000000e+00 0.000000000000000e+00

0.000000000000000e+00 0.000000000000000e+00 0.000000000000000e+00
0.000000000000000e+00 0.000000000000000e+00 0.000000000000000e+00
0.000000000000000e+00 0.000000000000000e+00 0.000000000000000e+00

0.000000000000000e+00 0.000000000000000e+00 0.000000000000000e+00
0.000000000000000e+00 0.000000000000000e+00 0.000000000000000e+00
0.000000000000000e+00 0.000000000000000e+00 0.000000000000000e+00

0.000000000000000e+00 0.000000000000000e+00 0.000000000000000e+00
0.000000000000000e+00 0.000000000000000e+00 0.000000000000000e+00
0.000000000000000e+00 0.000000000000000e+00 0.000000000000000e+00

0.000000000000000e+00 0.000000000000000e+00 0.000000000000000e+00
0.000000000000000e+00 0.000000000000000e+00 0.000000000000000e+00
0.000000000000000e+00 0.000000000000000e+00 0.000000000000000e+00

0.000000000000000e+00 0.000000000000000e+00 0.000000000000000e+00
0.000000000000000e+00 0.000000000000000e+00 0.000000000000000e+00
0.000000000000000e+00 0.000000000000000e+00 0.000000000000000e+00

0.000000000000000e+00 0.000000000000000e+00 0.000000000000000e+00
0.000000000000000e+00 0.000000000000000e+00 0.000000000000000e+00
0.000000000000000e+00 0.000000000000000e+00 0.000000000000000e+00

0.000000000000000e+00 0.000000000000000e+00 0.000000000000000e+00
0.000000000000000e+00 0.000000000000000e+00 0.000000000000000e+00
0.000000000000000e+00 0.000000000000000e+00 0.000000000000000e+00

0.000000000000000e+00 0.000000000000000e+00 0.000000000000000e+00
0.000000000000000e+00 0.000000000000000e+00 0.000000000000000e+00
0.000000000000000e+00 0.000000000000000e+00 0.000000000000000e+00

0.000000000000000e+00 0.000000000000000e+00 0.000000000000000e+00
0.000000000000000e+00 0.000000000000000e+00 0.000000000000000e+00
0.000000000000000e+00 0.000000000000000e+00 0.000000000000000e+00

0.000000000000000e+00 0.000000000000000e+00 0.000000000000000e+00
0.000000000000000e+00 0.000000000000000e+00 0.000000000000000e+00
0.000000000000000e+00 0.000000000000000e+00 0.000000000000000e+00

0.000000000000000e+00 0.000000000000000e+00 0.000000000000000e+00
0.000000000000000e+00 0.000000000000000e+00 0.000000000000000e+00
0.000000000000000e+00 0.000000000000000e+00 0.000000000000000e+00

0.000000000000000e+00 0.000000000000000e+00 0.000000000000000e+00
0.000000000000000e+00 0.000000000000000e+00 0.000000000000000e+00
0.000000000000000e+00 0.000000000000000e+00 0.000000000000000e+00

0.000000000000000e+00 0.000000000000000e+00 0.000000000000000e+00
0.000000000000000e+00 0.000000000000000e+00 0.000000000000000e+00
0.000000000000000e+00 0.000000000000000e+00 0.000000000000000e+00

0.000000000000000e+00 0.000000000000000e+00 0.000000000000000e+00
0.000000000000000e+00 0.000000000000000e+00 0.000000000000000e+00
0.000000000000000e+00 0.000000000000000e+00 0.000000000000000e+00

0.000000000000000e+00 0.000000000000000e+00 0.000000000000000e+00
0.000000000000000e+00 0.000000000000000e+00 0.000000000000000e+00
0.000000000000000e+00 0.000000000000000e+00 0.000000000000000e+00

0.000000000000000e+00 0.000000000000000e+00 0.000000000000000e+00
0.000000000000000e+00 0.000000000000000e+00 0.000000000000000e+00
0.000000000000000e+00 0.000000000000000e+00 0.000000000000000e+00

0.000000000000000e+00 0.000000000000000e+00 0.000000000000000e+00
0.000000000000000e+00 0.000000000000000e+00 0.000000000000000e+00
0.000000000000000e+00 0.000000000000000e+00 0.000000000000000e+00

0.000000000000000e+00 0.000000000000000e+00 0.000000000000000e+00
0.000000000000000e+00 0.000000000000000e+00 0.000000000000000e+00
0.000000000000000e+00 0.000000000000000e+00 0.000000000000000e+00

0.000000000000000e+00 0.000000000000000e+00 0.000000000000000e+00
0.000000000000000e+00 0.000000000000000e+00 0.000000000000000e+00
0.000000000000000e+00 0.000000000000000e+00 0.000000000000000e+00

0.000000000000000e+00 0.000000000000000e+00 0.000000000000000e+00
0.000000000000000e+00 0.000000000000000e+00 0.000000000000000e+00
0.000000000000000e+00 0.000000000000000e+00 0.000000000000000e+00

0.000000000000000e+00 0.000000000000000e+00 0.000000000000000e+00
0.000000000000000e+00 0.000000000000000e+00 0.000000000000000e+00
0.000000000000000e+00 0.000000000000000e+00 0.000000000000000e+00

0.000000000000000e+00 0.000000000000000e+00 0.000000000000000e+00
0.000000000000000e+00 0.000000000000000e+00 0.000000000000000e+00
0.000000000000000e+00 0.000000000000000e+00 0.000000000000000e+00

0.000000000000000e+00 0.000000000000000e+00 0.000000000000000e+00
0.000000000000000e+00 0.000000000000000e+00 0.000000000000000e+00
0.000000000000000e+00 0.000000000000000e+00 0.000000000000000e+00

0.000000000000000e+00 0.000000000000000e+00 0.000000000000000e+00
0.000000000000000e+00 0.000000000000000e+00 0.000000000000000e+00
0.000000000000000e+00 0.000000000000000e+00 0.000000000000000e+00

0.000000000000000e+00 0.000000000000000e+00 0.000000000000000e+00
0.000000000000000e+00 0.000000000000000e+00 0.000000000000000e+00
0.000000000000000e+00 0.000000000000000e+00 0.000000000000000e+00

0.000000000000000e+00 0.000000000000000e+00 0.000000000000000e+00
0.000000000000000e+00 0.000000000000000e+00 0.000000000000000e+00
0.000000000000000e+00 0.000000000000000e+00 0.000000000000000e+00

0.000000000000000e+00 0.000000000000000e+00 0.000000000000000e+00
0.000000000000000e+00 0.000000000000000e+00 0.000000000000000e+00
0.000000000000000e+00 0.000000000000000e+00 0.000000000000000e+00

0.000000000000000e+00 0.000000000000000e+00 0.000000000000000e+00
0.000000000000000e+00 0.000000000000000e+00 0.000000000000000e+00
0.000000000000000e+00 0.000000000000000e+00 0.000000000000000e+00

0.000000000000000e+00 0.000000000000000e+00 0.000000000000000e+00
0.000000000000000e+00 0.000000000000000e+00 0.000000000000000e+00
0.000000000000000e+00 0.000000000000000e+00 0.000000000000000e+00

0.000000000000000e+00 0.000000000000000e+00 0.000000000000000e+00
0.000000000000000e+00 0.000000000000000e+00 0.000000000000000e+00
0.000000000000000e+00 0.000000000000000e+00 0.000000000000000e+00

0.000000000000000e+00 0.000000000000000e+00 0.000000000000000e+00
0.000000000000000e+00 0.000000000000000e+00 0.000000000000000e+00
0.000000000000000e+00 0.000000000000000e+00 0.000000000000000e+00

0.000000000000000e+00 0.000000000000000e+00 0.000000000000000e+00
0.000000000000000e+00 0.000000000000000e+00 0.000000000000000e+00
0.000000000000000e+00 0.000000000000000e+00 0.000000000000000e+00

0.000000000000000e+00 0.000000000000000e+00 0.000000000000000e+00
0.000000000000000e+00 0.000000000000000e+00 0.000000000000000e+00
0.000000000000000e+00 0.000000000000000e+00 0.000000000000000e+00

0.000000000000000e+00 0.000000000000000e+00 0.000000000000000e+00
0.000000000000000e+00 0.000000000000000e+00 0.000000000000000e+00
0.000000000000000e+00 0.000000000000000e+00 0.000000000000000e+00

0.000000000000000e+00 0.000000000000000e+00 0.000000000000000e+00
0.000000000000000e+00 0.000000000000000e+00 0.000000000000000e+00
0.000000000000000e+00 0.000000000000000e+00 0.000000000000000e+00

0.000000000000000e+00 0.000000000000000e+00 0.000000000000000e+00
0.000000000000000e+00 0.000000000000000e+00 0.000000000000000e+00
0.000000000000000e+00 0.000000000000000e+00 0.000000000000000e+00

0.000000000000000e+00 0.000000000000000e+00 0.000000000000000e+00
0.000000000000000e+00 0.000000000000000e+00 0.000000000000000e+00
0.000000000000000e+00 0.000000000000000e+00 0.000000000000000e+00

0.000000000000000e+00 0.000000000000000e+00 0.000000000000000e+00
0.000000000000000e+00 0.000000000000000e+00 0.000000000000000e+00
0.000000000000000e+00 0.000000000000000e+00 0.000000000000000e+00

0.000000000000000e+00 0.000000000000000e+00 0.000000000000000e+00
0.000000000000000e+00 0.000000000000000e+00 0.000000000000000e+00
0.000000000000000e+00 0.000000000000000e+00 0.000000000000000e+00

0.000000000000000e+00 0.000000000000000e+00 0.000000000000000e+00
0.000000000000000e+00 0.000000000000000e+00 0.000000000000000e+00
0.000000000000000e+00 0.000000000000000e+00 0.000000000000000e+00

0.000000000000000e+00 0.000000000000000e+00 0.000000000000000e+00
0.000000000000000e+00 0.000000000000000e+00 0.000000000000000e+00
0.000000000000000e+00 0.000000000000000e+00 0.000000000000000e+00

0.000000000000000e+00 0.000000000000000e+00 0.000000000000000e+00
0.000000000000000e+00 0.000000000000000e+00 0.000000000000000e+00
0.000000000000000e+00 0.000000000000000e+00 0.000000000000000e+00

0.000000000000000e+00 0.000000000000000e+00 0.000000000000000e+00
0.000000000000000e+00 0.000000000000000e+00 0.000000000000000e+00
0.000000000000000e+00 0.000000000000000e+00 0.000000000000000e+00

0.000000000000000e+00 0.000000000000000e+00 0.000000000000000e+00
0.000000000000000e+00 0.000000000000000e+00 0.000000000000000e+00
0.000000000000000e+00 0.000000000000000e+00 0.000000000000000e+00

0.000000000000000e+00 0.000000000000000e+00 0.000000000000000e+00
0.000000000000000e+00 0.000000000000000e+00 0.000000000000000e+00
0.000000000000000e+00 0.000000000000000e+00 0.000000000000000e+00

0.000000000000000e+00 0.000000000000000e+00 0.000000000000000e+00
0.000000000000000e+00 0.000000000000000e+00 0.000000000000000e+00
0.000000000000000e+00 0.000000000000000e+00 0.000000000000000e+00

0.000000000000000e+00 0.000000000000000e+00 0.000000000000000e+00
0.000000000000000e+00 0.000000000000000e+00 0.000000000000000e+00
0.000000000000000e+00 0.000000000000000e+00 0.000000000000000e+00

0.000000000000000e+00 0.000000000000000e+00 0.000000000000000e+00
0.000000000000000e+00 0.000000000000000e+00 0.000000000000000e+00
0.000000000000000e+00 0.000000000000000e+00 0.000000000000000e+00

0.000000000000000e+00 0.000000000000000e+00 0.000000000000000e+00
0.000000000000000e+00 0.000000000000000e+00 0.000000000000000e+00
0.000000000000000e+00 0.000000000000000e+00 0.000000000000000e+00

0.000000000000000e+00 0.000000000000000e+00 0.000000000000000e+00
0.000000000000000e+00 0.000000000000000e+00 0.000000000000000e+00
0.000000000000000e+00 0.000000000000000e+00 0.000000000000000e+00

0.000000000000000e+00 0.000000000000000e+00 0.000000000000000e+00
0.000000000000000e+00 0.000000000000000e+00 0.000000000000000e+00
0.000000000000000e+00 0.000000000000000e+00 0.000000000000000e+00

0.000000000000000e+00 0.000000000000000e+00 0.000000000000000e+00
0.000000000000000e+00 0.000000000000000e+00 0.000000000000000e+00
0.000000000000000e+00 0.000000000000000e+00 0.000000000000000e+00

0.000000000000000e+00 0.000000000000000e+00 0.000000000000000e+00
0.000000000000000e+00 0.000000000000000e+00 0.000000000000000e+00
0.000000000000000e+00 0.000000000000000e+00 0.000000000000000e+00

0.000000000000000e+00 0.000000000000000e+00 0.000000000000000e+00
0.000000000000000e+00 0.000000000000000e+00 0.000000000000000e+00
0.000000000000000e+00 0.000000000000000e+00 0.000000000000000e+00

0.000000000000000e+00 0.000000000000000e+00 0.000000000000000e+00
0.000000000000000e+00 0.000000000000000e+00 0.000000000000000e+00
0.000000000000000e+00 0.000000000000000e+00 0.000000000000000e+00

0.000000000000000e+00 0.000000000000000e+00 0.000000000000000e+00
0.000000000000000e+00 0.000000000000000e+00 0.000000000000000e+00
0.000000000000000e+00 0.000000000000000e+00 0.000000000000000e+00

0.000000000000000e+00 0.000000000000000e+00 0.000000000000000e+00
0.000000000000000e+00 0.000000000000000e+00 0.000000000000000e+00
0.000000000000000e+00 0.000000000000000e+00 0.000000000000000e+00

0.000000000000000e+00 0.000000000000000e+00 0.000000000000000e+00
0.000000000000000e+00 0.000000000000000e+00 0.000000000000000e+00
0.000000000000000e+00 0.000000000000000e+00 0.000000000000000e+00

0.000000000000000e+00 0.000000000000000e+00 0.000000000000000e+00
0.000000000000000e+00 0.000000000000000e+00 0.000000000000000e+00
0.000000000000000e+00 0.000000000000000e+00 0.000000000000000e+00

0.000000000000000e+00 0.000000000000000e+00 0.000000000000000e+00
0.000000000000000e+00 0.000000000000000e+00 0.000000000000000e+00
0.000000000000000e+00 0.000000000000000e+00 0.000000000000000e+00

0.000000000000000e+00 0.000000000000000e+00 0.000000000000000e+00
0.000000000000000e+00 0.000000000000000e+00 0.000000000000000e+00
0.000000000000000e+00 0.000000000000000e+00 0.000000000000000e+00

0.000000000000000e+00 0.000000000000000e+00 0.000000000000000e+00
0.000000000000000e+00 0.000000000000000e+00 0.000000000000000e+00
0.000000000000000e+00 0.000000000000000e+00 0.000000000000000e+00

0.000000000000000e+00 0.000000000000000e+00 0.000000000000000e+00
0.000000000000000e+00 0.000000000000000e+00 0.000000000000000e+00
0.000000000000000e+00 0.000000000000000e+00 0.000000000000000e+00

0.000000000000000e+00 0.000000000000000e+00 0.000000000000000e+00
0.000000000000000e+00 0.000000000000000e+00 0.000000000000000e+00
0.000000000000000e+00 0.000000000000000e+00 0.000000000000000e+00

0.000000000000000e+00 0.000000000000000e+00 0.000000000000000e+00
0.000000000000000e+00 0.000000000000000e+00 0.000000000000000e+00
0.000000000000000e+00 0.000000000000000e+00 0.000000000000000e+00

0.000000000000000e+00 0.000000000000000e+00 0.000000000000000e+00
0.000000000000000e+00 0.000000000000000e+00 0.000000000000000e+00
0.000000000000000e+00 0.000000000000000e+00 0.000000000000000e+00

0.000000000000000e+00 0.000000000000000e+00 0.000000000000000e+00
0.000000000000000e+00 0.000000000000000e+00 0.000000000000000e+00
0.000000000000000e+00 0.000000000000000e+00 0.000000000000000e+00

0.000000000000000e+00 0.000000000000000e+00 0.000000000000000e+00
0.000000000000000e+00 0.000000000000000e+00 0.000000000000000e+00
0.000000000000000e+00 0.000000000000000e+00 0.000000000000000e+00

0.000000000000000e+00 0.000000000000000e+00 0.000000000000000e+00
0.000000000000000e+00 0.000000000000000e+00 0.000000000000000e+00
0.000000000000000e+00 0.000000000000000e+00 0.000000000000000e+00

0.000000000000000e+00 0.000000000000000e+00 0.000000000000000e+00
0.000000000000000e+00 0.000000000000000e+00 0.000000000000000e+00
0.000000000000000e+00 0.000000000000000e+00 0.000000000000000e+00

0.000000000000000e+00 0.000000000000000e+00 0.000000000000000e+00
0.000000000000000e+00 0.000000000000000e+00 0.000000000000000e+00
0.000000000000000e+00 0.000000000000000e+00 0.000000000000000e+00

0.000000000000000e+00 0.000000000000000e+00 0.000000000000000e+00
0.000000000000000e+00 0.000000000000000e+00 0.000000000000000e+00
0.000000000000000e+00 0.000000000000000e+00 0.000000000000000e+00

0.000000000000000e+00 0.000000000000000e+00 0.000000000000000e+00
0.000000000000000e+00 0.000000000000000e+00 0.000000000000000e+00
0.000000000000000e+00 0.000000000000000e+00 0.000000000000000e+00

0.000000000000000e+00 0.000000000000000e+00 0.000000000000000e+00
0.000000000000000e+00 0.000000000000000e+00 0.000000000000000e+00
0.000000000000000e+00 0.000000000000000e+00 0.000000000000000e+00

0.000000000000000e+00 0.000000000000000e+00 0.000000000000000e+00
0.000000000000000e+00 0.000000000000000e+00 0.000000000000000e+00
0.000000000000000e+00 0.000000000000000e+00 0.000000000000000e+00

0.000000000000000e+00 0.000000000000000e+00 0.000000000000000e+00
0.000000000000000e+00 0.000000000000000e+00 0.000000000000000e+00
0.000000000000000e+00 0.000000000000000e+00 0.000000000000000e+00

0.000000000000000e+00 0.000000000000000e+00 0.000000000000000e+00
0.000000000000000e+00 0.000000000000000e+00 0.000000000000000e+00
0.000000000000000e+00 0.000000000000000e+00 0.000000000000000e+00

0.000000000000000e+00 0.000000000000000e+00 0.000000000000000e+00
0.000000000000000e+00 0.000000000000000e+00 0.000000000000000e+00
0.000000000000000e+00 0.000000000000000e+00 0.000000000000000e+00

0.000000000000000e+00 0.000000000000000e+00 0.000000000000000e+00
0.000000000000000e+00 0.000000000000000e+00 0.000000000000000e+00
0.000000000000000e+00 0.000000000000000e+00 0.000000000000000e+00

0.000000000000000e+00 0.000000000000000e+00 0.000000000000000e+00
0.000000000000000e+00 0.000000000000000e+00 0.000000000000000e+00
0.000000000000000e+00 0.000000000000000e+00 0.000000000000000e+00

0.000000000000000e+00 0.000000000000000e+00 0.000000000000000e+00
0.000000000000000e+00 0.000000000000000e+00 0.000000000000000e+00
0.000000000000000e+00 0.000000000000000e+00 0.000000000000000e+00

0.000000000000000e+00 0.000000000000000e+00 0.000000000000000e+00
0.000000000000000e+00 0.000000000000000e+00 0.000000000000000e+00
0.000000000000000e+00 0.000000000000000e+00 0.000000000000000e+00

0.000000000000000e+00 0.000000000000000e+00 0.000000000000000e+00
0.000000000000000e+00 0.000000000000000e+00 0.000000000000000e+00
0.000000000000000e+00 0.000000000000000e+00 0.000000000000000e+00

0.000000000000000e+00 0.000000000000000e+00 0.000000000000000e+00
0.000000000000000e+00 0.000000000000000e+00 0.000000000000000e+00
0.000000000000000e+00 0.000000000000000e+00 0.000000000000000e+00

0.000000000000000e+00 0.000000000000000e+00 0.000000000000000e+00
0.000000000000000e+00 0.000000000000000e+00 0.000000000000000e+00
0.000000000000000e+00 0.000000000000000e+00 0.000000000000000e+00

0.000000000000000e+00 0.000000000000000e+00 0.000000000000000e+00
0.000000000000000e+00 0.000000000000000e+00 0.000000000000000e+00
0.000000000000000e+00 0.000000000000000e+00 0.000000000000000e+00

0.000000000000000e+00 0.000000000000000e+00 0.000000000000000e+00
0.000000000000000e+00 0.000000000000000e+00 0.000000000000000e+00
0.000000000000000e+00 0.000000000000000e+00 0.000000000000000e+00

0.000000000000000e+00 0.000000000000000e+00 0.000000000000000e+00
0.000000000000000e+00 0.000000000000000e+00 0.000000000000000e+00
0.000000000000000e+00 0.000000000000000e+00 0.000000000000000e+00

0.000000000000000e+00 0.000000000000000e+00 0.000000000000000e+00
0.000000000000000e+00 0.000000000000000e+00 0.000000000000000e+00
0.000000000000000e+00 0.000000000000000e+00 0.000000000000000e+00

0.000000000000000e+00 0.000000000000000e+00 0.000000000000000e+00
0.000000000000000e+00 0.000000000000000e+00 0.000000000000000e+00
0.000000000000000e+00 0.000000000000000e+00 0.000000000000000e+00

0.000000000000000e+00 0.000000000000000e+00 0.000000000000000e+00
0.000000000000000e+00 0.000000000000000e+00 0.000000000000000e+00
0.000000000000000e+00 0.000000000000000e+00 0.000000000000000e+00

0.000000000000000e+00 0.000000000000000e+00 0.000000000000000e+00
0.000000000000000e+00 0.000000000000000e+00 0.000000000000000e+00
0.000000000000000e+00 0.000000000000000e+00 0.000000000000000e+00

0.000000000000000e+00 0.000000000000000e+00 0.000000000000000e+00
0.000000000000000e+00 0.000000000000000e+00 0.000000000000000e+00
0.000000000000000e+00 0.000000000000000e+00 0.000000000000000e+00

0.000000000000000e+00 0.000000000000000e+00 0.000000000000000e+00
0.000000000000000e+00 0.000000000000000e+00 0.000000000000000e+00
0.000000000000000e+00 0.000000000000000e+00 0.000000000000000e+00

0.000000000000000e+00 0.000000000000000e+00 0.000000000000000e+00
0.000000000000000e+00 0.000000000000000e+00 0.000000000000000e+00
0.000000000000000e+00 0.000000000000000e+00 0.000000000000000e+00

0.000000000000000e+00 0.000000000000000e+00 0.000000000000000e+00
0.000000000000000e+00 0.000000000000000e+00 0.000000000000000e+00
0.000000000000000e+00 0.000000000000000e+00 0.000000000000000e+00

0.000000000000000e+00 0.000000000000000e+00 0.000000000000000e+00
0.000000000000000e+00 0.000000000000000e+00 0.000000000000000e+00
0.000000000000000e+00 0.000000000000000e+00 0.000000000000000e+00

0.000000000000000e+00 0.000000000000000e+00 0.000000000000000e+00
0.000000000000000e+00 0.000000000000000e+00 0.000000000000000e+00
0.000000000000000e+00 0.000000000000000e+00 0.000000000000000e+00

0.000000000000000e+00 0.000000000000000e+00 0.000000000000000e+00
0.000000000000000e+00 0.000000000000000e+00 0.000000000000000e+00
0.000000000000000e+00 0.000000000000000e+00 0.000000000000000e+00

0.000000000000000e+00 0.000000000000000e+00 0.000000000000000e+00
0.000000000000000e+00 0.000000000000000e+00 0.000000000000000e+00
0.000000000000000e+00 0.000000000000000e+00 0.000000000000000e+00

0.000000000000000e+00 0.000000000000000e+00 0.000000000000000e+00
0.000000000000000e+00 0.000000000000000e+00 0.000000000000000e+00
0.000000000000000e+00 0.000000000000000e+00 0.000000000000000e+00

0.000000000000000e+00 0.000000000000000e+00 0.000000000000000e+00
0.000000000000000e+00 0.000000000000000e+00 0.000000000000000e+00
0.000000000000000e+00 0.000000000000000e+00 0.000000000000000e+00

0.000000000000000e+00 0.000000000000000e+00 0.000000000000000e+00
0.000000000000000e+00 0.000000000000000e+00 0.000000000000000e+00
0.000000000000000e+00 0.000000000000000e+00 0.000000000000000e+00

0.000000000000000e+00 0.000000000000000e+00 0.000000000000000e+00
0.000000000000000e+00 0.000000000000000e+00 0.000000000000000e+00
0.000000000000000e+00 0.000000000000000e+00 0.000000000000000e+00

0.000000000000000e+00 0.000000000000000e+00 0.000000000000000e+00
0.000000000000000e+00 0.000000000000000e+00 0.000000000000000e+00
0.000000000000000e+00 0.000000000000000e+00 0.000000000000000e+00

0.000000000000000e+00 0.000000000000000e+00 0.000000000000000e+00
0.000000000000000e+00 0.000000000000000e+00 0.000000000000000e+00
0.000000000000000e+00 0.000000000000000e+00 0.000000000000000e+00

0.000000000000000e+00 0.000000000000000e+00 0.000000000000000e+00
0.000000000000000e+00 0.000000000000000e+00 0.000000000000000e+00
0.000000000000000e+00 0.000000000000000e+00 0.000000000000000e+00

0.000000000000000e+00 0.000000000000000e+00 0.000000000000000e+00
0.000000000000000e+00 0.000000000000000e+00 0.000000000000000e+00
0.000000000000000e+00 0.000000000000000e+00 0.000000000000000e+00

0.000000000000000e+00 0.000000000000000e+00 0.000000000000000e+00
0.000000000000000e+00 0.000000000000000e+00 0.000000000000000e+00
0.000000000000000e+00 0.000000000000000e+00 0.000000000000000e+00

0.000000000000000e+00 0.000000000000000e+00 0.000000000000000e+00
0.000000000000000e+00 0.000000000000000e+00 0.000000000000000e+00
0.000000000000000e+00 0.000000000000000e+00 0.000000000000000e+00

0.000000000000000e+00 0.000000000000000e+00 0.000000000000000e+00
0.000000000000000e+00 0.000000000000000e+00 0.000000000000000e+00
0.000000000000000e+00 0.000000000000000e+00 0.000000000000000e+00

0.000000000000000e+00 0.000000000000000e+00 0.000000000000000e+00
0.000000000000000e+00 0.000000000000000e+00 0.000000000000000e+00
0.000000000000000e+00 0.000000000000000e+00 0.000000000000000e+00

0.000000000000000e+00 0.000000000000000e+00 0.000000000000000e+00
0.000000000000000e+00 0.000000000000000e+00 0.000000000000000e+00
0.000000000000000e+00 0.000000000000000e+00 0.000000000000000e+00

0.000000000000000e+00 0.000000000000000e+00 0.000000000000000e+00
0.000000000000000e+00 0.000000000000000e+00 0.000000000000000e+00
0.000000000000000e+00 0.000000000000000e+00 0.000000000000000e+00

0.000000000000000e+00 0.000000000000000e+00 0.000000000000000e+00
0.000000000000000e+00 0.000000000000000e+00 0.000000000000000e+00
0.000000000000000e+00 0.000000000000000e+00 0.000000000000000e+00

0.000000000000000e+00 0.000000000000000e+00 0.000000000000000e+00
0.000000000000000e+00 0.000000000000000e+00 0.000000000000000e+00
0.000000000000000e+00 0.000000000000000e+00 0.000000000000000e+00

0.000000000000000e+00 0.000000000000000e+00 0.000000000000000e+00
0.000000000000000e+00 0.000000000000000e+00 0.000000000000000e+00
0.000000000000000e+00 0.000000000000000e+00 0.000000000000000e+00

0.000000000000000e+00 0.000000000000000e+00 0.000000000000000e+00
0.000000000000000e+00 0.000000000000000e+00 0.000000000000000e+00
0.000000000000000e+00 0.000000000000000e+00 0.000000000000000e+00

0.000000000000000e+00 0.000000000000000e+00 0.000000000000000e+00
0.000000000000000e+00 0.000000000000000e+00 0.000000000000000e+00
0.000000000000000e+00 0.000000000000000e+00 0.000000000000000e+00

0.000000000000000e+00 0.000000000000000e+00 0.000000000000000e+00
0.000000000000000e+00 0.000000000000000e+00 0.000000000000000e+00
0.000000000000000e+00 0.000000000000000e+00 0.000000000000000e+00

0.000000000000000e+00 0.000000000000000e+00 0.000000000000000e+00
0.000000000000000e+00 0.000000000000000e+00 0.000000000000000e+00
0.000000000000000e+00 0.000000000000000e+00 0.000000000000000e+00

0.000000000000000e+00 0.000000000000000e+00 0.000000000000000e+00
0.000000000000000e+00 0.000000000000000e+00 0.000000000000000e+00
0.000000000000000e+00 0.000000000000000e+00 0.000000000000000e+00

0.000000000000000e+00 0.000000000000000e+00 0.000000000000000e+00
0.000000000000000e+00 0.000000000000000e+00 0.000000000000000e+00
0.000000000000000e+00 0.000000000000000e+00 0.000000000000000e+00

0.000000000000000e+00 0.000000000000000e+00 0.000000000000000e+00
0.000000000000000e+00 0.000000000000000e+00 0.000000000000000e+00
0.000000000000000e+00 0.000000000000000e+00 0.000000000000000e+00

0.000000000000000e+00 0.000000000000000e+00 0.000000000000000e+00
0.000000000000000e+00 0.000000000000000e+00 0.000000000000000e+00
0.000000000000000e+00 0.000000000000000e+00 0.000000000000000e+00

0.000000000000000e+00 0.000000000000000e+00 0.000000000000000e+00
0.000000000000000e+00 0.000000000000000e+00 0.000000000000000e+00
0.000000000000000e+00 0.000000000000000e+00 0.000000000000000e+00

0.000000000000000e+00 0.000000000000000e+00 0.000000000000000e+00
0.000000000000000e+00 0.000000000000000e+00 0.000000000000000e+00
0.000000000000000e+00 0.000000000000000e+00 0.000000000000000e+00

0.000000000000000e+00 0.000000000000000e+00 0.000000000000000e+00
0.000000000000000e+00 0.000000000000000e+00 0.000000000000000e+00
0.000000000000000e+00 0.000000000000000e+00 0.000000000000000e+00

0.000000000000000e+00 0.000000000000000e+00 0.000000000000000e+00
0.000000000000000e+00 0.000000000000000e+00 0.000000000000000e+00
0.000000000000000e+00 0.000000000000000e+00 0.000000000000000e+00

0.000000000000000e+00 0.000000000000000e+00 0.000000000000000e+00
0.000000000000000e+00 0.000000000000000e+00 0.000000000000000e+00
0.000000000000000e+00 0.000000000000000e+00 0.000000000000000e+00

0.000000000000000e+00 0.000000000000000e+00 0.000000000000000e+00
0.000000000000000e+00 0.000000000000000e+00 0.000000000000000e+00
0.000000000000000e+00 0.000000000000000e+00 0.000000000000000e+00

0.000000000000000e+00 0.000000000000000e+00 0.000000000000000e+00
0.000000000000000e+00 0.000000000000000e+00 0.000000000000000e+00
0.000000000000000e+00 0.000000000000000e+00 0.000000000000000e+00

0.000000000000000e+00 0.000000000000000e+00 0.000000000000000e+00
0.000000000000000e+00 0.000000000000000e+00 0.000000000000000e+00
0.000000000000000e+00 0.000000000000000e+00 0.000000000000000e+00

0.000000000000000e+00 0.000000000000000e+00 0.000000000000000e+00
0.000000000000000e+00 0.000000000000000e+00 0.000000000000000e+00
0.000000000000000e+00 0.000000000000000e+00 0.000000000000000e+00

0.000000000000000e+00 0.000000000000000e+00 0.000000000000000e+00
0.000000000000000e+00 0.000000000000000e+00 0.000000000000000e+00
0.000000000000000e+00 0.000000000000000e+00 0.000000000000000e+00

0.000000000000000e+00 0.000000000000000e+00 0.000000000000000e+00
0.000000000000000e+00 0.000000000000000e+00 0.000000000000000e+00
0.000000000000000e+00 0.000000000000000e+00 0.000000000000000e+00

0.000000000000000e+00 0.000000000000000e+00 0.000000000000000e+00
0.000000000000000e+00 0.000000000000000e+00 0.000000000000000e+00
0.000000000000000e+00 0.000000000000000e+00 0.000000000000000e+00

0.000000000000000e+00 0.000000000000000e+00 0.000000000000000e+00
0.000000000000000e+00 0.000000000000000e+00 0.000000000000000e+00
0.000000000000000e+00 0.000000000000000e+00 0.000000000000000e+00

0.000000000000000e+00 0.000000000000000e+00 0.000000000000000e+00
0.000000000000000e+00 0.000000000000000e+00 0.000000000000000e+00
0.000000000000000e+00 0.000000000000000e+00 0.000000000000000e+00

0.000000000000000e+00 0.000000000000000e+00 0.000000000000000e+00
0.000000000000000e+00 0.000000000000000e+00 0.000000000000000e+00
0.000000000000000e+00 0.000000000000000e+00 0.000000000000000e+00

0.000000000000000e+00 0.000000000000000e+00 0.000000000000000e+00
0.000000000000000e+00 0.000000000000000e+00 0.000000000000000e+00
0.000000000000000e+00 0.000000000000000e+00 0.000000000000000e+00

0.000000000000000e+00 0.000000000000000e+00 0.000000000000000e+00
0.000000000000000e+00 0.000000000000000e+00 0.000000000000000e+00
0.000000000000000e+00 0.000000000000000e+00 0.000000000000000e+00

0.000000000000000e+00 0.000000000000000e+00 0.000000000000000e+00
0.000000000000000e+00 0.000000000000000e+00 0.000000000000000e+00
0.000000000000000e+00 0.000000000000000e+00 0.000000000000000e+00

0.000000000000000e+00 0.000000000000000e+00 0.000000000000000e+00
0.000000000000000e+00 0.000000000000000e+00 0.000000000000000e+00
0.000000000000000e+00 0.000000000000000e+00 0.000000000000000e+00

0.000000000000000e+00 0.000000000000000e+00 0.000000000000000e+00
0.000000000000000e+00 0.000000000000000e+00 0.000000000000000e+00
0.000000000000000e+00 0.000000000000000e+00 0.000000000000000e+00

0.000000000000000e+00 0.000000000000000e+00 0.000000000000000e+00
0.000000000000000e+00 0.000000000000000e+00 0.000000000000000e+00
0.000000000000000e+00 0.000000000000000e+00 0.000000000000000e+00

0.000000000000000e+00 0.000000000000000e+00 0.000000000000000e+00
0.000000000000000e+00 0.000000000000000e+00 0.000000000000000e+00
0.000000000000000e+00 0.000000000000000e+00 0.000000000000000e+00

0.000000000000000e+00 0.000000000000000e+00 0.000000000000000e+00
0.000000000000000e+00 0.000000000000000e+00 0.000000000000000e+00
0.000000000000000e+00 0.000000000000000e+00 0.000000000000000e+00

0.000000000000000e+00 0.000000000000000e+00 0.000000000000000e+00
0.000000000000000e+00 0.000000000000000e+00 0.000000000000000e+00
0.000000000000000e+00 0.000000000000000e+00 0.000000000000000e+00

0.000000000000000e+00 0.000000000000000e+00 0.000000000000000e+00
0.000000000000000e+00 0.000000000000000e+00 0.000000000000000e+00
0.000000000000000e+00 0.000000000000000e+00 0.000000000000000e+00

0.000000000000000e+00 0.000000000000000e+00 0.000000000000000e+00
0.000000000000000e+00 0.000000000000000e+00 0.000000000000000e+00
0.000000000000000e+00 0.000000000000000e+00 0.000000000000000e+00

0.000000000000000e+00 0.000000000000000e+00 0.000000000000000e+00
0.000000000000000e+00 0.000000000000000e+00 0.000000000000000e+00
0.000000000000000e+00 0.000000000000000e+00 0.000000000000000e+00

0.000000000000000e+00 0.000000000000000e+00 0.000000000000000e+00
0.000000000000000e+00 0.000000000000000e+00 0.000000000000000e+00
0.000000000000000e+00 0.000000000000000e+00 0.000000000000000e+00

0.000000000000000e+00 0.000000000000000e+00 0.000000000000000e+00
0.000000000000000e+00 0.000000000000000e+00 0.000000000000000e+00
0.000000000000000e+00 0.000000000000000e+00 0.000000000000000e+00

0.000000000000000e+00 0.000000000000000e+00 0.000000000000000e+00
0.000000000000000e+00 0.000000000000000e+00 0.000000000000000e+00
0.000000000000000e+00 0.000000000000000e+00 0.000000000000000e+00

0.000000000000000e+00 0.000000000000000e+00 0.000000000000000e+00
0.000000000000000e+00 0.000000000000000e+00 0.000000000000000e+00
0.000000000000000e+00 0.000000000000000e+00 0.000000000000000e+00

0.000000000000000e+00 0.000000000000000e+00 0.000000000000000e+00
0.000000000000000e+00 0.000000000000000e+00 0.000000000000000e+00
0.000000000000000e+00 0.000000000000000e+00 0.000000000000000e+00

0.000000000000000e+00 0.000000000000000e+00 0.000000000000000e+00
0.000000000000000e+00 0.000000000000000e+00 0.000000000000000e+00
0.000000000000000e+00 0.000000000000000e+00 0.000000000000000e+00

0.000000000000000e+00 0.000000000000000e+00 0.000000000000000e+00
0.000000000000000e+00 0.000000000000000e+00 0.000000000000000e+00
0.000000000000000e+00 0.000000000000000e+00 0.000000000000000e+00

0.000000000000000e+00 0.000000000000000e+00 0.000000000000000e+00
0.000000000000000e+00 0.000000000000000e+00 0.000000000000000e+00
0.000000000000000e+00 0.000000000000000e+00 0.000000000000000e+00

0.000000000000000e+00 0.000000000000000e+00 0.000000000000000e+00
0.000000000000000e+00 0.000000000000000e+00 0.000000000000000e+00
0.000000000000000e+00 0.000000000000000e+00 0.000000000000000e+00

0.000000000000000e+00 0.000000000000000e+00 0.000000000000000e+00
0.000000000000000e+00 0.000000000000000e+00 0.000000000000000e+00
0.000000000000000e+00 0.000000000000000e+00 0.000000000000000e+00

0.000000000000000e+00 0.000000000000000e+00 0.000000000000000e+00
0.000000000000000e+00 0.000000000000000e+00 0.000000000000000e+00
0.000000000000000e+00 0.000000000000000e+00 0.000000000000000e+00

0.000000000000000e+00 0.000000000000000e+00 0.000000000000000e+00
0.000000000000000e+00 0.000000000000000e+00 0.000000000000000e+00
0.000000000000000e+00 0.000000000000000e+00 0.000000000000000e+00

0.000000000000000e+00 0.000000000000000e+00 0.000000000000000e+00
0.000000000000000e+00 0.000000000000000e+00 0.000000000000000e+00
0.000000000000000e+00 0.000000000000000e+00 0.000000000000000e+00

0.000000000000000e+00 0.000000000000000e+00 0.000000000000000e+00
0.000000000000000e+00 0.000000000000000e+00 0.000000000000000e+00
0.000000000000000e+00 0.000000000000000e+00 0.000000000000000e+00

0.000000000000000e+00 0.000000000000000e+00 0.000000000000000e+00
0.000000000000000e+00 0.000000000000000e+00 0.000000000000000e+00
0.000000000000000e+00 0.000000000000000e+00 0.000000000000000e+00

0.000000000000000e+00 0.000000000000000e+00 0.000000000000000e+00
0.000000000000000e+00 0.000000000000000e+00 0.000000000000000e+00
0.000000000000000e+00 0.000000000000000e+00 0.000000000000000e+00

0.000000000000000e+00 0.000000000000000e+00 0.000000000000000e+00
0.000000000000000e+00 0.000000000000000e+00 0.000000000000000e+00
0.000000000000000e+00 0.000000000000000e+00 0.000000000000000e+00

0.000000000000000e+00 0.000000000000000e+00 0.000000000000000e+00
0.000000000000000e+00 0.000000000000000e+00 0.000000000000000e+00
0.000000000000000e+00 0.000000000000000e+00 0.000000000000000e+00

0.000000000000000e+00 0.000000000000000e+00 0.000000000000000e+00
0.000000000000000e+00 0.000000000000000e+00 0.000000000000000e+00
0.000000000000000e+00 0.000000000000000e+00 0.000000000000000e+00

0.000000000000000e+00 0.000000000000000e+00 0.000000000000000e+00
0.000000000000000e+00 0.000000000000000e+00 0.000000000000000e+00
0.000000000000000e+00 0.000000000000000e+00 0.000000000000000e+00

0.000000000000000e+00 0.000000000000000e+00 0.000000000000000e+00
0.000000000000000e+00 0.000000000000000e+00 0.000000000000000e+00
0.000000000000000e+00 0.000000000000000e+00 0.000000000000000e+00

0.000000000000000e+00 0.000000000000000e+00 0.000000000000000e+00
0.000000000000000e+00 0.000000000000000e+00 0.000000000000000e+00
0.000000000000000e+00 0.000000000000000e+00 0.000000000000000e+00

0.000000000000000e+00 0.000000000000000e+00 0.000000000000000e+00
0.000000000000000e+00 0.000000000000000e+00 0.000000000000000e+00
0.000000000000000e+00 0.000000000000000e+00 0.000000000000000e+00

0.000000000000000e+00 0.000000000000000e+00 0.000000000000000e+00
0.000000000000000e+00 0.000000000000000e+00 0.000000000000000e+00
0.000000000000000e+00 0.000000000000000e+00 0.000000000000000e+00

0.000000000000000e+00 0.000000000000000e+00 0.000000000000000e+00
0.000000000000000e+00 0.000000000000000e+00 0.000000000000000e+00
0.000000000000000e+00 0.000000000000000e+00 0.000000000000000e+00

0.000000000000000e+00 0.000000000000000e+00 0.000000000000000e+00
0.000000000000000e+00 0.000000000000000e+00 0.000000000000000e+00
0.000000000000000e+00 0.000000000000000e+00 0.000000000000000e+00

0.000000000000000e+00 0.000000000000000e+00 0.000000000000000e+00
0.000000000000000e+00 0.000000000000000e+00 0.000000000000000e+00
0.000000000000000e+00 0.000000000000000e+00 0.000000000000000e+00

0.000000000000000e+00 0.000000000000000e+00 0.000000000000000e+00
0.000000000000000e+00 0.000000000000000e+00 0.000000000000000e+00
0.000000000000000e+00 0.000000000000000e+00 0.000000000000000e+00

0.000000000000000e+00 0.000000000000000e+00 0.000000000000000e+00
0.000000000000000e+00 0.000000000000000e+00 0.000000000000000e+00
0.000000000000000e+00 0.000000000000000e+00 0.000000000000000e+00

0.000000000000000e+00 0.000000000000000e+00 0.000000000000000e+00
0.000000000000000e+00 0.000000000000000e+00 0.000000000000000e+00
0.000000000000000e+00 0.000000000000000e+00 0.000000000000000e+00

0.000000000000000e+00 0.000000000000000e+00 0.000000000000000e+00
0.000000000000000e+00 0.000000000000000e+00 0.000000000000000e+00
0.000000000000000e+00 0.000000000000000e+00 0.000000000000000e+00

0.000000000000000e+00 0.000000000000000e+00 0.000000000000000e+00
0.000000000000000e+00 0.000000000000000e+00 0.000000000000000e+00
0.000000000000000e+00 0.000000000000000e+00 0.000000000000000e+00

0.000000000000000e+00 0.000000000000000e+00 0.000000000000000e+00
0.000000000000000e+00 0.000000000000000e+00 0.000000000000000e+00
0.000000000000000e+00 0.000000000000000e+00 0.000000000000000e+00

0.000000000000000e+00 0.000000000000000e+00 0.000000000000000e+00
0.000000000000000e+00 0.000000000000000e+00 0.000000000000000e+00
0.000000000000000e+00 0.000000000000000e+00 0.000000000000000e+00

0.000000000000000e+00 0.000000000000000e+00 0.000000000000000e+00
0.000000000000000e+00 0.000000000000000e+00 0.000000000000000e+00
0.000000000000000e+00 0.000000000000000e+00 0.000000000000000e+00

0.000000000000000e+00 0.000000000000000e+00 0.000000000000000e+00
0.000000000000000e+00 0.000000000000000e+00 0.000000000000000e+00
0.000000000000000e+00 0.000000000000000e+00 0.000000000000000e+00

0.000000000000000e+00 0.000000000000000e+00 0.000000000000000e+00
0.000000000000000e+00 0.000000000000000e+00 0.000000000000000e+00
0.000000000000000e+00 0.000000000000000e+00 0.000000000000000e+00

0.000000000000000e+00 0.000000000000000e+00 0.000000000000000e+00
0.000000000000000e+00 0.000000000000000e+00 0.000000000000000e+00
0.000000000000000e+00 0.000000000000000e+00 0.000000000000000e+00

0.000000000000000e+00 0.000000000000000e+00 0.000000000000000e+00
0.000000000000000e+00 0.000000000000000e+00 0.000000000000000e+00
0.000000000000000e+00 0.000000000000000e+00 0.000000000000000e+00

0.000000000000000e+00 0.000000000000000e+00 0.000000000000000e+00
0.000000000000000e+00 0.000000000000000e+00 0.000000000000000e+00
0.000000000000000e+00 0.000000000000000e+00 0.000000000000000e+00

0.000000000000000e+00 0.000000000000000e+00 0.000000000000000e+00
0.000000000000000e+00 0.000000000000000e+00 0.000000000000000e+00
0.000000000000000e+00 0.000000000000000e+00 0.000000000000000e+00

0.000000000000000e+00 0.000000000000000e+00 0.000000000000000e+00
0.000000000000000e+00 0.000000000000000e+00 0.000000000000000e+00
0.000000000000000e+00 0.000000000000000e+00 0.000000000000000e+00

0.000000000000000e+00 0.000000000000000e+00 0.000000000000000e+00
0.000000000000000e+00 0.000000000000000e+00 0.000000000000000e+00
0.000000000000000e+00 0.000000000000000e+00 0.000000000000000e+00

0.000000000000000e+00 0.000000000000000e+00 0.000000000000000e+00
0.000000000000000e+00 0.000000000000000e+00 0.000000000000000e+00
0.000000000000000e+00 0.000000000000000e+00 0.000000000000000e+00

0.000000000000000e+00 0.000000000000000e+00 0.000000000000000e+00
0.000000000000000e+00 0.000000000000000e+00 0.000000000000000e+00
0.000000000000000e+00 0.000000000000000e+00 0.000000000000000e+00

0.000000000000000e+00 0.000000000000000e+00 0.000000000000000e+00
0.000000000000000e+00 0.000000000000000e+00 0.000000000000000e+00
0.000000000000000e+00 0.000000000000000e+00 0.000000000000000e+00

0.000000000000000e+00 0.000000000000000e+00 0.000000000000000e+00
0.000000000000000e+00 0.000000000000000e+00 0.000000000000000e+00
0.000000000000000e+00 0.000000000000000e+00 0.000000000000000e+00

0.000000000000000e+00 0.000000000000000e+00 0.000000000000000e+00
0.000000000000000e+00 0.000000000000000e+00 0.000000000000000e+00
0.000000000000000e+00 0.000000000000000e+00 0.000000000000000e+00

0.000000000000000e+00 0.000000000000000e+00 0.000000000000000e+00
0.000000000000000e+00 0.000000000000000e+00 0.000000000000000e+00
0.000000000000000e+00 0.000000000000000e+00 0.000000000000000e+00

0.000000000000000e+00 0.000000000000000e+00 0.000000000000000e+00
0.000000000000000e+00 0.000000000000000e+00 0.000000000000000e+00
0.000000000000000e+00 0.000000000000000e+00 0.000000000000000e+00

0.000000000000000e+00 0.000000000000000e+00 0.000000000000000e+00
0.000000000000000e+00 0.000000000000000e+00 0.000000000000000e+00
0.000000000000000e+00 0.000000000000000e+00 0.000000000000000e+00

0.000000000000000e+00 0.000000000000000e+00 0.000000000000000e+00
0.000000000000000e+00 0.000000000000000e+00 0.000000000000000e+00
0.000000000000000e+00 0.000000000000000e+00 0.000000000000000e+00

0.000000000000000e+00 0.000000000000000e+00 0.000000000000000e+00
0.000000000000000e+00 0.000000000000000e+00 0.000000000000000e+00
0.000000000000000e+00 0.000000000000000e+00 0.000000000000000e+00

0.000000000000000e+00 0.000000000000000e+00 0.000000000000000e+00
0.000000000000000e+00 0.000000000000000e+00 0.000000000000000e+00
0.000000000000000e+00 0.000000000000000e+00 0.000000000000000e+00

0.000000000000000e+00 0.000000000000000e+00 0.000000000000000e+00
0.000000000000000e+00 0.000000000000000e+00 0.000000000000000e+00
0.000000000000000e+00 0.000000000000000e+00 0.000000000000000e+00

0.000000000000000e+00 0.000000000000000e+00 0.000000000000000e+00
0.000000000000000e+00 0.000000000000000e+00 0.000000000000000e+00
0.000000000000000e+00 0.000000000000000e+00 0.000000000000000e+00

0.000000000000000e+00 0.000000000000000e+00 0.000000000000000e+00
0.000000000000000e+00 0.000000000000000e+00 0.000000000000000e+00
0.000000000000000e+00 0.000000000000000e+00 0.000000000000000e+00

0.000000000000000e+00 0.000000000000000e+00 0.000000000000000e+00
0.000000000000000e+00 0.000000000000000e+00 0.000000000000000e+00
0.000000000000000e+00 0.000000000000000e+00 0.000000000000000e+00

0.000000000000000e+00 0.000000000000000e+00 0.000000000000000e+00
0.000000000000000e+00 0.000000000000000e+00 0.000000000000000e+00
0.000000000000000e+00 0.000000000000000e+00 0.000000000000000e+00

0.000000000000000e+00 0.000000000000000e+00 0.000000000000000e+00
0.000000000000000e+00 0.000000000000000e+00 0.000000000000000e+00
0.000000000000000e+00 0.000000000000000e+00 0.000000000000000e+00

0.000000000000000e+00 0.000000000000000e+00 0.000000000000000e+00
0.000000000000000e+00 0.000000000000000e+00 0.000000000000000e+00
0.000000000000000e+00 0.000000000000000e+00 0.000000000000000e+00

0.000000000000000e+00 0.000000000000000e+00 0.000000000000000e+00
0.000000000000000e+00 0.000000000000000e+00 0.000000000000000e+00
0.000000000000000e+00 0.000000000000000e+00 0.000000000000000e+00

0.000000000000000e+00 0.000000000000000e+00 0.000000000000000e+00
0.000000000000000e+00 0.000000000000000e+00 0.000000000000000e+00
0.000000000000000e+00 0.000000000000000e+00 0.000000000000000e+00

0.000000000000000e+00 0.000000000000000e+00 0.000000000000000e+00
0.000000000000000e+00 0.000000000000000e+00 0.000000000000000e+00
0.000000000000000e+00 0.000000000000000e+00 0.000000000000000e+00

0.000000000000000e+00 0.000000000000000e+00 0.000000000000000e+00
0.000000000000000e+00 0.000000000000000e+00 0.000000000000000e+00
0.000000000000000e+00 0.000000000000000e+00 0.000000000000000e+00

0.000000000000000e+00 0.000000000000000e+00 0.000000000000000e+00
0.000000000000000e+00 0.000000000000000e+00 0.000000000000000e+00
0.000000000000000e+00 0.000000000000000e+00 0.000000000000000e+00

0.000000000000000e+00 0.000000000000000e+00 0.000000000000000e+00
0.000000000000000e+00 0.000000000000000e+00 0.000000000000000e+00
0.000000000000000e+00 0.000000000000000e+00 0.000000000000000e+00

0.000000000000000e+00 0.000000000000000e+00 0.000000000000000e+00
0.000000000000000e+00 0.000000000000000e+00 0.000000000000000e+00
0.000000000000000e+00 0.000000000000000e+00 0.000000000000000e+00

0.000000000000000e+00 0.000000000000000e+00 0.000000000000000e+00
0.000000000000000e+00 0.000000000000000e+00 0.000000000000000e+00
0.000000000000000e+00 0.000000000000000e+00 0.000000000000000e+00

0.000000000000000e+00 0.000000000000000e+00 0.000000000000000e+00
0.000000000000000e+00 0.000000000000000e+00 0.000000000000000e+00
0.000000000000000e+00 0.000000000000000e+00 0.000000000000000e+00

0.000000000000000e+00 0.000000000000000e+00 0.000000000000000e+00
0.000000000000000e+00 0.000000000000000e+00 0.000000000000000e+00
0.000000000000000e+00 0.000000000000000e+00 0.000000000000000e+00

0.000000000000000e+00 0.000000000000000e+00 0.000000000000000e+00
0.000000000000000e+00 0.000000000000000e+00 0.000000000000000e+00
0.000000000000000e+00 0.000000000000000e+00 0.000000000000000e+00

0.000000000000000e+00 0.000000000000000e+00 0.000000000000000e+00
0.000000000000000e+00 0.000000000000000e+00 0.000000000000000e+00
0.000000000000000e+00 0.000000000000000e+00 0.000000000000000e+00

0.000000000000000e+00 0.000000000000000e+00 0.000000000000000e+00
0.000000000000000e+00 0.000000000000000e+00 0.000000000000000e+00
0.000000000000000e+00 0.000000000000000e+00 0.000000000000000e+00

0.000000000000000e+00 0.000000000000000e+00 0.000000000000000e+00
0.000000000000000e+00 0.000000000000000e+00 0.000000000000000e+00
0.000000000000000e+00 0.000000000000000e+00 0.000000000000000e+00

0.000000000000000e+00 0.000000000000000e+00 0.000000000000000e+00
0.000000000000000e+00 0.000000000000000e+00 0.000000000000000e+00
0.000000000000000e+00 0.000000000000000e+00 0.000000000000000e+00

0.000000000000000e+00 0.000000000000000e+00 0.000000000000000e+00
0.000000000000000e+00 0.000000000000000e+00 0.000000000000000e+00
0.000000000000000e+00 0.000000000000000e+00 0.000000000000000e+00

0.000000000000000e+00 0.000000000000000e+00 0.000000000000000e+00
0.000000000000000e+00 0.000000000000000e+00 0.000000000000000e+00
0.000000000000000e+00 0.000000000000000e+00 0.000000000000000e+00

0.000000000000000e+00 0.000000000000000e+00 0.000000000000000e+00
0.000000000000000e+00 0.000000000000000e+00 0.000000000000000e+00
0.000000000000000e+00 0.000000000000000e+00 0.000000000000000e+00

0.000000000000000e+00 0.000000000000000e+00 0.000000000000000e+00
0.000000000000000e+00 0.000000000000000e+00 0.000000000000000e+00
0.000000000000000e+00 0.000000000000000e+00 0.000000000000000e+00

0.000000000000000e+00 0.000000000000000e+00 0.000000000000000e+00
0.000000000000000e+00 0.000000000000000e+00 0.000000000000000e+00
0.000000000000000e+00 0.000000000000000e+00 0.000000000000000e+00

0.000000000000000e+00 0.000000000000000e+00 0.000000000000000e+00
0.000000000000000e+00 0.000000000000000e+00 0.000000000000000e+00
0.000000000000000e+00 0.000000000000000e+00 0.000000000000000e+00

0.000000000000000e+00 0.000000000000000e+00 0.000000000000000e+00
0.000000000000000e+00 0.000000000000000e+00 0.000000000000000e+00
0.000000000000000e+00 0.000000000000000e+00 0.000000000000000e+00

0.000000000000000e+00 0.000000000000000e+00 0.000000000000000e+00
0.000000000000000e+00 0.000000000000000e+00 0.000000000000000e+00
0.000000000000000e+00 0.000000000000000e+00 0.000000000000000e+00

0.000000000000000e+00 0.000000000000000e+00 0.000000000000000e+00
0.000000000000000e+00 0.000000000000000e+00 0.000000000000000e+00
0.000000000000000e+00 0.000000000000000e+00 0.000000000000000e+00

0.000000000000000e+00 0.000000000000000e+00 0.000000000000000e+00
0.000000000000000e+00 0.000000000000000e+00 0.000000000000000e+00
0.000000000000000e+00 0.000000000000000e+00 0.000000000000000e+00

0.000000000000000e+00 0.000000000000000e+00 0.000000000000000e+00
0.000000000000000e+00 0.000000000000000e+00 0.000000000000000e+00
0.000000000000000e+00 0.000000000000000e+00 0.000000000000000e+00

0.000000000000000e+00 0.000000000000000e+00 0.000000000000000e+00
0.000000000000000e+00 0.000000000000000e+00 0.000000000000000e+00
0.000000000000000e+00 0.000000000000000e+00 0.000000000000000e+00

0.000000000000000e+00 0.000000000000000e+00 0.000000000000000e+00
0.000000000000000e+00 0.000000000000000e+00 0.000000000000000e+00
0.000000000000000e+00 0.000000000000000e+00 0.000000000000000e+00

0.000000000000000e+00 0.000000000000000e+00 0.000000000000000e+00
0.000000000000000e+00 0.000000000000000e+00 0.000000000000000e+00
0.000000000000000e+00 0.000000000000000e+00 0.000000000000000e+00

0.000000000000000e+00 0.000000000000000e+00 0.000000000000000e+00
0.000000000000000e+00 0.000000000000000e+00 0.000000000000000e+00
0.000000000000000e+00 0.000000000000000e+00 0.000000000000000e+00

0.000000000000000e+00 0.000000000000000e+00 0.000000000000000e+00
0.000000000000000e+00 0.000000000000000e+00 0.000000000000000e+00
0.000000000000000e+00 0.000000000000000e+00 0.000000000000000e+00

0.000000000000000e+00 0.000000000000000e+00 0.000000000000000e+00
0.000000000000000e+00 0.000000000000000e+00 0.000000000000000e+00
0.000000000000000e+00 0.000000000000000e+00 0.000000000000000e+00

0.000000000000000e+00 0.000000000000000e+00 0.000000000000000e+00
0.000000000000000e+00 0.000000000000000e+00 0.000000000000000e+00
0.000000000000000e+00 0.000000000000000e+00 0.000000000000000e+00

0.000000000000000e+00 0.000000000000000e+00 0.000000000000000e+00
0.000000000000000e+00 0.000000000000000e+00 0.000000000000000e+00
0.000000000000000e+00 0.000000000000000e+00 0.000000000000000e+00

0.000000000000000e+00 0.000000000000000e+00 0.000000000000000e+00
0.000000000000000e+00 0.000000000000000e+00 0.000000000000000e+00
0.000000000000000e+00 0.000000000000000e+00 0.000000000000000e+00

0.000000000000000e+00 0.000000000000000e+00 0.000000000000000e+00
0.000000000000000e+00 0.000000000000000e+00 0.000000000000000e+00
0.000000000000000e+00 0.000000000000000e+00 0.000000000000000e+00

0.000000000000000e+00 0.000000000000000e+00 0.000000000000000e+00
0.000000000000000e+00 0.000000000000000e+00 0.000000000000000e+00
0.000000000000000e+00 0.000000000000000e+00 0.000000000000000e+00

0.000000000000000e+00 0.000000000000000e+00 0.000000000000000e+00
0.000000000000000e+00 0.000000000000000e+00 0.000000000000000e+00
0.000000000000000e+00 0.000000000000000e+00 0.000000000000000e+00

0.000000000000000e+00 0.000000000000000e+00 0.000000000000000e+00
0.000000000000000e+00 0.000000000000000e+00 0.000000000000000e+00
0.000000000000000e+00 0.000000000000000e+00 0.000000000000000e+00

0.000000000000000e+00 0.000000000000000e+00 0.000000000000000e+00
0.000000000000000e+00 0.000000000000000e+00 0.000000000000000e+00
0.000000000000000e+00 0.000000000000000e+00 0.000000000000000e+00

0.000000000000000e+00 0.000000000000000e+00 0.000000000000000e+00
0.000000000000000e+00 0.000000000000000e+00 0.000000000000000e+00
0.000000000000000e+00 0.000000000000000e+00 0.000000000000000e+00

0.000000000000000e+00 0.000000000000000e+00 0.000000000000000e+00
0.000000000000000e+00 0.000000000000000e+00 0.000000000000000e+00
0.000000000000000e+00 0.000000000000000e+00 0.000000000000000e+00

0.000000000000000e+00 0.000000000000000e+00 0.000000000000000e+00
0.000000000000000e+00 0.000000000000000e+00 0.000000000000000e+00
0.000000000000000e+00 0.000000000000000e+00 0.000000000000000e+00

0.000000000000000e+00 0.000000000000000e+00 0.000000000000000e+00
0.000000000000000e+00 0.000000000000000e+00 0.000000000000000e+00
0.000000000000000e+00 0.000000000000000e+00 0.000000000000000e+00

0.000000000000000e+00 0.000000000000000e+00 0.000000000000000e+00
0.000000000000000e+00 0.000000000000000e+00 0.000000000000000e+00
0.000000000000000e+00 0.000000000000000e+00 0.000000000000000e+00

0.000000000000000e+00 0.000000000000000e+00 0.000000000000000e+00
0.000000000000000e+00 0.000000000000000e+00 0.000000000000000e+00
0.000000000000000e+00 0.000000000000000e+00 0.000000000000000e+00

0.000000000000000e+00 0.000000000000000e+00 0.000000000000000e+00
0.000000000000000e+00 0.000000000000000e+00 0.000000000000000e+00
0.000000000000000e+00 0.000000000000000e+00 0.000000000000000e+00

0.000000000000000e+00 0.000000000000000e+00 0.000000000000000e+00
0.000000000000000e+00 0.000000000000000e+00 0.000000000000000e+00
0.000000000000000e+00 0.000000000000000e+00 0.000000000000000e+00

0.000000000000000e+00 0.000000000000000e+00 0.000000000000000e+00
0.000000000000000e+00 0.000000000000000e+00 0.000000000000000e+00
0.000000000000000e+00 0.000000000000000e+00 0.000000000000000e+00

0.000000000000000e+00 0.000000000000000e+00 0.000000000000000e+00
0.000000000000000e+00 0.000000000000000e+00 0.000000000000000e+00
0.000000000000000e+00 0.000000000000000e+00 0.000000000000000e+00

0.000000000000000e+00 0.000000000000000e+00 0.000000000000000e+00
0.000000000000000e+00 0.000000000000000e+00 0.000000000000000e+00
0.000000000000000e+00 0.000000000000000e+00 0.000000000000000e+00

0.000000000000000e+00 0.000000000000000e+00 0.000000000000000e+00
0.000000000000000e+00 0.000000000000000e+00 0.000000000000000e+00
0.000000000000000e+00 0.000000000000000e+00 0.000000000000000e+00

0.000000000000000e+00 0.000000000000000e+00 0.000000000000000e+00
0.000000000000000e+00 0.000000000000000e+00 0.000000000000000e+00
0.000000000000000e+00 0.000000000000000e+00 0.000000000000000e+00

0.000000000000000e+00 0.000000000000000e+00 0.000000000000000e+00
0.000000000000000e+00 0.000000000000000e+00 0.000000000000000e+00
0.000000000000000e+00 0.000000000000000e+00 0.000000000000000e+00

0.000000000000000e+00 0.000000000000000e+00 0.000000000000000e+00
0.000000000000000e+00 0.000000000000000e+00 0.000000000000000e+00
0.000000000000000e+00 0.000000000000000e+00 0.000000000000000e+00

0.000000000000000e+00 0.000000000000000e+00 0.000000000000000e+00
0.000000000000000e+00 0.000000000000000e+00 0.000000000000000e+00
0.000000000000000e+00 0.000000000000000e+00 0.000000000000000e+00

0.000000000000000e+00 0.000000000000000e+00 0.000000000000000e+00
0.000000000000000e+00 0.000000000000000e+00 0.000000000000000e+00
0.000000000000000e+00 0.000000000000000e+00 0.000000000000000e+00

0.000000000000000e+00 0.000000000000000e+00 0.000000000000000e+00
0.000000000000000e+00 0.000000000000000e+00 0.000000000000000e+00
0.000000000000000e+00 0.000000000000000e+00 0.000000000000000e+00

0.000000000000000e+00 0.000000000000000e+00 0.000000000000000e+00
0.000000000000000e+00 0.000000000000000e+00 0.000000000000000e+00
0.000000000000000e+00 0.000000000000000e+00 0.000000000000000e+00

0.000000000000000e+00 0.000000000000000e+00 0.000000000000000e+00
0.000000000000000e+00 0.000000000000000e+00 0.000000000000000e+00
0.000000000000000e+00 0.000000000000000e+00 0.000000000000000e+00

0.000000000000000e+00 0.000000000000000e+00 0.000000000000000e+00
0.000000000000000e+00 0.000000000000000e+00 0.000000000000000e+00
0.000000000000000e+00 0.000000000000000e+00 0.000000000000000e+00

0.000000000000000e+00 0.000000000000000e+00 0.000000000000000e+00
0.000000000000000e+00 0.000000000000000e+00 0.000000000000000e+00
0.000000000000000e+00 0.000000000000000e+00 0.000000000000000e+00

0.000000000000000e+00 0.000000000000000e+00 0.000000000000000e+00
0.000000000000000e+00 0.000000000000000e+00 0.000000000000000e+00
0.000000000000000e+00 0.000000000000000e+00 0.000000000000000e+00

0.000000000000000e+00 0.000000000000000e+00 0.000000000000000e+00
0.000000000000000e+00 0.000000000000000e+00 0.000000000000000e+00
0.000000000000000e+00 0.000000000000000e+00 0.000000000000000e+00

0.000000000000000e+00 0.000000000000000e+00 0.000000000000000e+00
0.000000000000000e+00 0.000000000000000e+00 0.000000000000000e+00
0.000000000000000e+00 0.000000000000000e+00 0.000000000000000e+00

0.000000000000000e+00 0.000000000000000e+00 0.000000000000000e+00
0.000000000000000e+00 0.000000000000000e+00 0.000000000000000e+00
0.000000000000000e+00 0.000000000000000e+00 0.000000000000000e+00

0.000000000000000e+00 0.000000000000000e+00 0.000000000000000e+00
0.000000000000000e+00 0.000000000000000e+00 0.000000000000000e+00
0.000000000000000e+00 0.000000000000000e+00 0.000000000000000e+00

0.000000000000000e+00 0.000000000000000e+00 0.000000000000000e+00
0.000000000000000e+00 0.000000000000000e+00 0.000000000000000e+00
0.000000000000000e+00 0.000000000000000e+00 0.000000000000000e+00

0.000000000000000e+00 0.000000000000000e+00 0.000000000000000e+00
0.000000000000000e+00 0.000000000000000e+00 0.000000000000000e+00
0.000000000000000e+00 0.000000000000000e+00 0.000000000000000e+00

0.000000000000000e+00 0.000000000000000e+00 0.000000000000000e+00
0.000000000000000e+00 0.000000000000000e+00 0.000000000000000e+00
0.000000000000000e+00 0.000000000000000e+00 0.000000000000000e+00

0.000000000000000e+00 0.000000000000000e+00 0.000000000000000e+00
0.000000000000000e+00 0.000000000000000e+00 0.000000000000000e+00
0.000000000000000e+00 0.000000000000000e+00 0.000000000000000e+00

0.000000000000000e+00 0.000000000000000e+00 0.000000000000000e+00
0.000000000000000e+00 0.000000000000000e+00 0.000000000000000e+00
0.000000000000000e+00 0.000000000000000e+00 0.000000000000000e+00

0.000000000000000e+00 0.000000000000000e+00 0.000000000000000e+00
0.000000000000000e+00 0.000000000000000e+00 0.000000000000000e+00
0.000000000000000e+00 0.000000000000000e+00 0.000000000000000e+00

0.000000000000000e+00 0.000000000000000e+00 0.000000000000000e+00
0.000000000000000e+00 0.000000000000000e+00 0.000000000000000e+00
0.000000000000000e+00 0.000000000000000e+00 0.000000000000000e+00

0.000000000000000e+00 0.000000000000000e+00 0.000000000000000e+00
0.000000000000000e+00 0.000000000000000e+00 0.000000000000000e+00
0.000000000000000e+00 0.000000000000000e+00 0.000000000000000e+00

0.000000000000000e+00 0.000000000000000e+00 0.000000000000000e+00
0.000000000000000e+00 0.000000000000000e+00 0.000000000000000e+00
0.000000000000000e+00 0.000000000000000e+00 0.000000000000000e+00

0.000000000000000e+00 0.000000000000000e+00 0.000000000000000e+00
0.000000000000000e+00 0.000000000000000e+00 0.000000000000000e+00
0.000000000000000e+00 0.000000000000000e+00 0.000000000000000e+00

0.000000000000000e+00 0.000000000000000e+00 0.000000000000000e+00
0.000000000000000e+00 0.000000000000000e+00 0.000000000000000e+00
0.000000000000000e+00 0.000000000000000e+00 0.000000000000000e+00

0.000000000000000e+00 0.000000000000000e+00 0.000000000000000e+00
0.000000000000000e+00 0.000000000000000e+00 0.000000000000000e+00
0.000000000000000e+00 0.000000000000000e+00 0.000000000000000e+00

0.000000000000000e+00 0.000000000000000e+00 0.000000000000000e+00
0.000000000000000e+00 0.000000000000000e+00 0.000000000000000e+00
0.000000000000000e+00 0.000000000000000e+00 0.000000000000000e+00

0.000000000000000e+00 0.000000000000000e+00 0.000000000000000e+00
0.000000000000000e+00 0.000000000000000e+00 0.000000000000000e+00
0.000000000000000e+00 0.000000000000000e+00 0.000000000000000e+00

0.000000000000000e+00 0.000000000000000e+00 0.000000000000000e+00
0.000000000000000e+00 0.000000000000000e+00 0.000000000000000e+00
0.000000000000000e+00 0.000000000000000e+00 0.000000000000000e+00

0.000000000000000e+00 0.000000000000000e+00 0.000000000000000e+00
0.000000000000000e+00 0.000000000000000e+00 0.000000000000000e+00
0.000000000000000e+00 0.000000000000000e+00 0.000000000000000e+00

0.000000000000000e+00 0.000000000000000e+00 0.000000000000000e+00
0.000000000000000e+00 0.000000000000000e+00 0.000000000000000e+00
0.000000000000000e+00 0.000000000000000e+00 0.000000000000000e+00

0.000000000000000e+00 0.000000000000000e+00 0.000000000000000e+00
0.000000000000000e+00 0.000000000000000e+00 0.000000000000000e+00
0.000000000000000e+00 0.000000000000000e+00 0.000000000000000e+00

0.000000000000000e+00 0.000000000000000e+00 0.000000000000000e+00
0.000000000000000e+00 0.000000000000000e+00 0.000000000000000e+00
0.000000000000000e+00 0.000000000000000e+00 0.000000000000000e+00

0.000000000000000e+00 0.000000000000000e+00 0.000000000000000e+00
0.000000000000000e+00 0.000000000000000e+00 0.000000000000000e+00
0.000000000000000e+00 0.000000000000000e+00 0.000000000000000e+00

0.000000000000000e+00 0.000000000000000e+00 0.000000000000000e+00
0.000000000000000e+00 0.000000000000000e+00 0.000000000000000e+00
0.000000000000000e+00 0.000000000000000e+00 0.000000000000000e+00

0.000000000000000e+00 0.000000000000000e+00 0.000000000000000e+00
0.000000000000000e+00 0.000000000000000e+00 0.000000000000000e+00
0.000000000000000e+00 0.000000000000000e+00 0.000000000000000e+00

0.000000000000000e+00 0.000000000000000e+00 0.000000000000000e+00
0.000000000000000e+00 0.000000000000000e+00 0.000000000000000e+00
0.000000000000000e+00 0.000000000000000e+00 0.000000000000000e+00

0.000000000000000e+00 0.000000000000000e+00 0.000000000000000e+00
0.000000000000000e+00 0.000000000000000e+00 0.000000000000000e+00
0.000000000000000e+00 0.000000000000000e+00 0.000000000000000e+00

0.000000000000000e+00 0.000000000000000e+00 0.000000000000000e+00
0.000000000000000e+00 0.000000000000000e+00 0.000000000000000e+00
0.000000000000000e+00 0.000000000000000e+00 0.000000000000000e+00

0.000000000000000e+00 0.000000000000000e+00 0.000000000000000e+00
0.000000000000000e+00 0.000000000000000e+00 0.000000000000000e+00
0.000000000000000e+00 0.000000000000000e+00 0.000000000000000e+00

0.000000000000000e+00 0.000000000000000e+00 0.000000000000000e+00
0.000000000000000e+00 0.000000000000000e+00 0.000000000000000e+00
0.000000000000000e+00 0.000000000000000e+00 0.000000000000000e+00

0.000000000000000e+00 0.000000000000000e+00 0.000000000000000e+00
0.000000000000000e+00 0.000000000000000e+00 0.000000000000000e+00
0.000000000000000e+00 0.000000000000000e+00 0.000000000000000e+00

0.000000000000000e+00 0.000000000000000e+00 0.000000000000000e+00
0.000000000000000e+00 0.000000000000000e+00 0.000000000000000e+00
0.000000000000000e+00 0.000000000000000e+00 0.000000000000000e+00

0.000000000000000e+00 0.000000000000000e+00 0.000000000000000e+00
0.000000000000000e+00 0.000000000000000e+00 0.000000000000000e+00
0.000000000000000e+00 0.000000000000000e+00 0.000000000000000e+00

0.000000000000000e+00 0.000000000000000e+00 0.000000000000000e+00
0.000000000000000e+00 0.000000000000000e+00 0.000000000000000e+00
0.000000000000000e+00 0.000000000000000e+00 0.000000000000000e+00

0.000000000000000e+00 0.000000000000000e+00 0.000000000000000e+00
0.000000000000000e+00 0.000000000000000e+00 0.000000000000000e+00
0.000000000000000e+00 0.000000000000000e+00 0.000000000000000e+00

0.000000000000000e+00 0.000000000000000e+00 0.000000000000000e+00
0.000000000000000e+00 0.000000000000000e+00 0.000000000000000e+00
0.000000000000000e+00 0.000000000000000e+00 0.000000000000000e+00

0.000000000000000e+00 0.000000000000000e+00 0.000000000000000e+00
0.000000000000000e+00 0.000000000000000e+00 0.000000000000000e+00
0.000000000000000e+00 0.000000000000000e+00 0.000000000000000e+00

0.000000000000000e+00 0.000000000000000e+00 0.000000000000000e+00
0.000000000000000e+00 0.000000000000000e+00 0.000000000000000e+00
0.000000000000000e+00 0.000000000000000e+00 0.000000000000000e+00

0.000000000000000e+00 0.000000000000000e+00 0.000000000000000e+00
0.000000000000000e+00 0.000000000000000e+00 0.000000000000000e+00
0.000000000000000e+00 0.000000000000000e+00 0.000000000000000e+00

0.000000000000000e+00 0.000000000000000e+00 0.000000000000000e+00
0.000000000000000e+00 0.000000000000000e+00 0.000000000000000e+00
0.000000000000000e+00 0.000000000000000e+00 0.000000000000000e+00

0.000000000000000e+00 0.000000000000000e+00 0.000000000000000e+00
0.000000000000000e+00 0.000000000000000e+00 0.000000000000000e+00
0.000000000000000e+00 0.000000000000000e+00 0.000000000000000e+00

0.000000000000000e+00 0.000000000000000e+00 0.000000000000000e+00
0.000000000000000e+00 0.000000000000000e+00 0.000000000000000e+00
0.000000000000000e+00 0.000000000000000e+00 0.000000000000000e+00

0.000000000000000e+00 0.000000000000000e+00 0.000000000000000e+00
0.000000000000000e+00 0.000000000000000e+00 0.000000000000000e+00
0.000000000000000e+00 0.000000000000000e+00 0.000000000000000e+00

0.000000000000000e+00 0.000000000000000e+00 0.000000000000000e+00
0.000000000000000e+00 0.000000000000000e+00 0.000000000000000e+00
0.000000000000000e+00 0.000000000000000e+00 0.000000000000000e+00

0.000000000000000e+00 0.000000000000000e+00 0.000000000000000e+00
0.000000000000000e+00 0.000000000000000e+00 0.000000000000000e+00
0.000000000000000e+00 0.000000000000000e+00 0.000000000000000e+00

0.000000000000000e+00 0.000000000000000e+00 0.000000000000000e+00
0.000000000000000e+00 0.000000000000000e+00 0.000000000000000e+00
0.000000000000000e+00 0.000000000000000e+00 0.000000000000000e+00

0.000000000000000e+00 0.000000000000000e+00 0.000000000000000e+00
0.000000000000000e+00 0.000000000000000e+00 0.000000000000000e+00
0.000000000000000e+00 0.000000000000000e+00 0.000000000000000e+00

0.000000000000000e+00 0.000000000000000e+00 0.000000000000000e+00
0.000000000000000e+00 0.000000000000000e+00 0.000000000000000e+00
0.000000000000000e+00 0.000000000000000e+00 0.000000000000000e+00

0.000000000000000e+00 0.000000000000000e+00 0.000000000000000e+00
0.000000000000000e+00 0.000000000000000e+00 0.000000000000000e+00
0.000000000000000e+00 0.000000000000000e+00 0.000000000000000e+00

0.000000000000000e+00 0.000000000000000e+00 0.000000000000000e+00
0.000000000000000e+00 0.000000000000000e+00 0.000000000000000e+00
0.000000000000000e+00 0.000000000000000e+00 0.000000000000000e+00

0.000000000000000e+00 0.000000000000000e+00 0.000000000000000e+00
0.000000000000000e+00 0.000000000000000e+00 0.000000000000000e+00
0.000000000000000e+00 0.000000000000000e+00 0.000000000000000e+00

0.000000000000000e+00 0.000000000000000e+00 0.000000000000000e+00
0.000000000000000e+00 0.000000000000000e+00 0.000000000000000e+00
0.000000000000000e+00 0.000000000000000e+00 0.000000000000000e+00

0.000000000000000e+00 0.000000000000000e+00 0.000000000000000e+00
0.000000000000000e+00 0.000000000000000e+00 0.000000000000000e+00
0.000000000000000e+00 0.000000000000000e+00 0.000000000000000e+00

0.000000000000000e+00 0.000000000000000e+00 0.000000000000000e+00
0.000000000000000e+00 0.000000000000000e+00 0.000000000000000e+00
0.000000000000000e+00 0.000000000000000e+00 0.000000000000000e+00

0.000000000000000e+00 0.000000000000000e+00 0.000000000000000e+00
0.000000000000000e+00 0.000000000000000e+00 0.000000000000000e+00
0.000000000000000e+00 0.000000000000000e+00 0.000000000000000e+00

0.000000000000000e+00 0.000000000000000e+00 0.000000000000000e+00
0.000000000000000e+00 0.000000000000000e+00 0.000000000000000e+00
0.000000000000000e+00 0.000000000000000e+00 0.000000000000000e+00

0.000000000000000e+00 0.000000000000000e+00 0.000000000000000e+00
0.000000000000000e+00 0.000000000000000e+00 0.000000000000000e+00
0.000000000000000e+00 0.000000000000000e+00 0.000000000000000e+00

0.000000000000000e+00 0.000000000000000e+00 0.000000000000000e+00
0.000000000000000e+00 0.000000000000000e+00 0.000000000000000e+00
0.000000000000000e+00 0.000000000000000e+00 0.000000000000000e+00

0.000000000000000e+00 0.000000000000000e+00 0.000000000000000e+00
0.000000000000000e+00 0.000000000000000e+00 0.000000000000000e+00
0.000000000000000e+00 0.000000000000000e+00 0.000000000000000e+00

0.000000000000000e+00 0.000000000000000e+00 0.000000000000000e+00
0.000000000000000e+00 0.000000000000000e+00 0.000000000000000e+00
0.000000000000000e+00 0.000000000000000e+00 0.000000000000000e+00

0.000000000000000e+00 0.000000000000000e+00 0.000000000000000e+00
0.000000000000000e+00 0.000000000000000e+00 0.000000000000000e+00
0.000000000000000e+00 0.000000000000000e+00 0.000000000000000e+00

0.000000000000000e+00 0.000000000000000e+00 0.000000000000000e+00
0.000000000000000e+00 0.000000000000000e+00 0.000000000000000e+00
0.000000000000000e+00 0.000000000000000e+00 0.000000000000000e+00

0.000000000000000e+00 0.000000000000000e+00 0.000000000000000e+00
0.000000000000000e+00 0.000000000000000e+00 0.000000000000000e+00
0.000000000000000e+00 0.000000000000000e+00 0.000000000000000e+00

0.000000000000000e+00 0.000000000000000e+00 0.000000000000000e+00
0.000000000000000e+00 0.000000000000000e+00 0.000000000000000e+00
0.000000000000000e+00 0.000000000000000e+00 0.000000000000000e+00

0.000000000000000e+00 0.000000000000000e+00 0.000000000000000e+00
0.000000000000000e+00 0.000000000000000e+00 0.000000000000000e+00
0.000000000000000e+00 0.000000000000000e+00 0.000000000000000e+00

0.000000000000000e+00 0.000000000000000e+00 0.000000000000000e+00
0.000000000000000e+00 0.000000000000000e+00 0.000000000000000e+00
0.000000000000000e+00 0.000000000000000e+00 0.000000000000000e+00

0.000000000000000e+00 0.000000000000000e+00 0.000000000000000e+00
0.000000000000000e+00 0.000000000000000e+00 0.000000000000000e+00
0.000000000000000e+00 0.000000000000000e+00 0.000000000000000e+00

0.000000000000000e+00 0.000000000000000e+00 0.000000000000000e+00
0.000000000000000e+00 0.000000000000000e+00 0.000000000000000e+00
0.000000000000000e+00 0.000000000000000e+00 0.000000000000000e+00

0.000000000000000e+00 0.000000000000000e+00 0.000000000000000e+00
0.000000000000000e+00 0.000000000000000e+00 0.000000000000000e+00
0.000000000000000e+00 0.000000000000000e+00 0.000000000000000e+00

0.000000000000000e+00 0.000000000000000e+00 0.000000000000000e+00
0.000000000000000e+00 0.000000000000000e+00 0.000000000000000e+00
0.000000000000000e+00 0.000000000000000e+00 0.000000000000000e+00

0.000000000000000e+00 0.000000000000000e+00 0.000000000000000e+00
0.000000000000000e+00 0.000000000000000e+00 0.000000000000000e+00
0.000000000000000e+00 0.000000000000000e+00 0.000000000000000e+00

0.000000000000000e+00 0.000000000000000e+00 0.000000000000000e+00
0.000000000000000e+00 0.000000000000000e+00 0.000000000000000e+00
0.000000000000000e+00 0.000000000000000e+00 0.000000000000000e+00

0.000000000000000e+00 0.000000000000000e+00 0.000000000000000e+00
0.000000000000000e+00 0.000000000000000e+00 0.000000000000000e+00
0.000000000000000e+00 0.000000000000000e+00 0.000000000000000e+00

0.000000000000000e+00 0.000000000000000e+00 0.000000000000000e+00
0.000000000000000e+00 0.000000000000000e+00 0.000000000000000e+00
0.000000000000000e+00 0.000000000000000e+00 0.000000000000000e+00

0.000000000000000e+00 0.000000000000000e+00 0.000000000000000e+00
0.000000000000000e+00 0.000000000000000e+00 0.000000000000000e+00
0.000000000000000e+00 0.000000000000000e+00 0.000000000000000e+00

0.000000000000000e+00 0.000000000000000e+00 0.000000000000000e+00
0.000000000000000e+00 0.000000000000000e+00 0.000000000000000e+00
0.000000000000000e+00 0.000000000000000e+00 0.000000000000000e+00

0.000000000000000e+00 0.000000000000000e+00 0.000000000000000e+00
0.000000000000000e+00 0.000000000000000e+00 0.000000000000000e+00
0.000000000000000e+00 0.000000000000000e+00 0.000000000000000e+00

0.000000000000000e+00 0.000000000000000e+00 0.000000000000000e+00
0.000000000000000e+00 0.000000000000000e+00 0.000000000000000e+00
0.000000000000000e+00 0.000000000000000e+00 0.000000000000000e+00

0.000000000000000e+00 0.000000000000000e+00 0.000000000000000e+00
0.000000000000000e+00 0.000000000000000e+00 0.000000000000000e+00
0.000000000000000e+00 0.000000000000000e+00 0.000000000000000e+00

0.000000000000000e+00 0.000000000000000e+00 0.000000000000000e+00
0.000000000000000e+00 0.000000000000000e+00 0.000000000000000e+00
0.000000000000000e+00 0.000000000000000e+00 0.000000000000000e+00

0.000000000000000e+00 0.000000000000000e+00 0.000000000000000e+00
0.000000000000000e+00 0.000000000000000e+00 0.000000000000000e+00
0.000000000000000e+00 0.000000000000000e+00 0.000000000000000e+00

0.000000000000000e+00 0.000000000000000e+00 0.000000000000000e+00
0.000000000000000e+00 0.000000000000000e+00 0.000000000000000e+00
0.000000000000000e+00 0.000000000000000e+00 0.000000000000000e+00

0.000000000000000e+00 0.000000000000000e+00 0.000000000000000e+00
0.000000000000000e+00 0.000000000000000e+00 0.000000000000000e+00
0.000000000000000e+00 0.000000000000000e+00 0.000000000000000e+00

0.000000000000000e+00 0.000000000000000e+00 0.000000000000000e+00
0.000000000000000e+00 0.000000000000000e+00 0.000000000000000e+00
0.000000000000000e+00 0.000000000000000e+00 0.000000000000000e+00

0.000000000000000e+00 0.000000000000000e+00 0.000000000000000e+00
0.000000000000000e+00 0.000000000000000e+00 0.000000000000000e+00
0.000000000000000e+00 0.000000000000000e+00 0.000000000000000e+00

0.000000000000000e+00 0.000000000000000e+00 0.000000000000000e+00
0.000000000000000e+00 0.000000000000000e+00 0.000000000000000e+00
0.000000000000000e+00 0.000000000000000e+00 0.000000000000000e+00

0.000000000000000e+00 0.000000000000000e+00 0.000000000000000e+00
0.000000000000000e+00 0.000000000000000e+00 0.000000000000000e+00
0.000000000000000e+00 0.000000000000000e+00 0.000000000000000e+00

0.000000000000000e+00 0.000000000000000e+00 0.000000000000000e+00
0.000000000000000e+00 0.000000000000000e+00 0.000000000000000e+00
0.000000000000000e+00 0.000000000000000e+00 0.000000000000000e+00

0.000000000000000e+00 0.000000000000000e+00 0.000000000000000e+00
0.000000000000000e+00 0.000000000000000e+00 0.000000000000000e+00
0.000000000000000e+00 0.000000000000000e+00 0.000000000000000e+00

0.000000000000000e+00 0.000000000000000e+00 0.000000000000000e+00
0.000000000000000e+00 0.000000000000000e+00 0.000000000000000e+00
0.000000000000000e+00 0.000000000000000e+00 0.000000000000000e+00

0.000000000000000e+00 0.000000000000000e+00 0.000000000000000e+00
0.000000000000000e+00 0.000000000000000e+00 0.000000000000000e+00
0.000000000000000e+00 0.000000000000000e+00 0.000000000000000e+00

0.000000000000000e+00 0.000000000000000e+00 0.000000000000000e+00
0.000000000000000e+00 0.000000000000000e+00 0.000000000000000e+00
0.000000000000000e+00 0.000000000000000e+00 0.000000000000000e+00

0.000000000000000e+00 0.000000000000000e+00 0.000000000000000e+00
0.000000000000000e+00 0.000000000000000e+00 0.000000000000000e+00
0.000000000000000e+00 0.000000000000000e+00 0.000000000000000e+00

0.000000000000000e+00 0.000000000000000e+00 0.000000000000000e+00
0.000000000000000e+00 0.000000000000000e+00 0.000000000000000e+00
0.000000000000000e+00 0.000000000000000e+00 0.000000000000000e+00

0.000000000000000e+00 0.000000000000000e+00 0.000000000000000e+00
0.000000000000000e+00 0.000000000000000e+00 0.000000000000000e+00
0.000000000000000e+00 0.000000000000000e+00 0.000000000000000e+00

0.000000000000000e+00 0.000000000000000e+00 0.000000000000000e+00
0.000000000000000e+00 0.000000000000000e+00 0.000000000000000e+00
0.000000000000000e+00 0.000000000000000e+00 0.000000000000000e+00

0.000000000000000e+00 0.000000000000000e+00 0.000000000000000e+00
0.000000000000000e+00 0.000000000000000e+00 0.000000000000000e+00
0.000000000000000e+00 0.000000000000000e+00 0.000000000000000e+00

0.000000000000000e+00 0.000000000000000e+00 0.000000000000000e+00
0.000000000000000e+00 0.000000000000000e+00 0.000000000000000e+00
0.000000000000000e+00 0.000000000000000e+00 0.000000000000000e+00

0.000000000000000e+00 0.000000000000000e+00 0.000000000000000e+00
0.000000000000000e+00 0.000000000000000e+00 0.000000000000000e+00
0.000000000000000e+00 0.000000000000000e+00 0.000000000000000e+00

0.000000000000000e+00 0.000000000000000e+00 0.000000000000000e+00
0.000000000000000e+00 0.000000000000000e+00 0.000000000000000e+00
0.000000000000000e+00 0.000000000000000e+00 0.000000000000000e+00

0.000000000000000e+00 0.000000000000000e+00 0.000000000000000e+00
0.000000000000000e+00 0.000000000000000e+00 0.000000000000000e+00
0.000000000000000e+00 0.000000000000000e+00 0.000000000000000e+00

0.000000000000000e+00 0.000000000000000e+00 0.000000000000000e+00
0.000000000000000e+00 0.000000000000000e+00 0.000000000000000e+00
0.000000000000000e+00 0.000000000000000e+00 0.000000000000000e+00

0.000000000000000e+00 0.000000000000000e+00 0.000000000000000e+00
0.000000000000000e+00 0.000000000000000e+00 0.000000000000000e+00
0.000000000000000e+00 0.000000000000000e+00 0.000000000000000e+00

0.000000000000000e+00 0.000000000000000e+00 0.000000000000000e+00
0.000000000000000e+00 0.000000000000000e+00 0.000000000000000e+00
0.000000000000000e+00 0.000000000000000e+00 0.000000000000000e+00

0.000000000000000e+00 0.000000000000000e+00 0.000000000000000e+00
0.000000000000000e+00 0.000000000000000e+00 0.000000000000000e+00
0.000000000000000e+00 0.000000000000000e+00 0.000000000000000e+00

0.000000000000000e+00 0.000000000000000e+00 0.000000000000000e+00
0.000000000000000e+00 0.000000000000000e+00 0.000000000000000e+00
0.000000000000000e+00 0.000000000000000e+00 0.000000000000000e+00

0.000000000000000e+00 0.000000000000000e+00 0.000000000000000e+00
0.000000000000000e+00 0.000000000000000e+00 0.000000000000000e+00
0.000000000000000e+00 0.000000000000000e+00 0.000000000000000e+00

0.000000000000000e+00 0.000000000000000e+00 0.000000000000000e+00
0.000000000000000e+00 0.000000000000000e+00 0.000000000000000e+00
0.000000000000000e+00 0.000000000000000e+00 0.000000000000000e+00

0.000000000000000e+00 0.000000000000000e+00 0.000000000000000e+00
0.000000000000000e+00 0.000000000000000e+00 0.000000000000000e+00
0.000000000000000e+00 0.000000000000000e+00 0.000000000000000e+00

0.000000000000000e+00 0.000000000000000e+00 0.000000000000000e+00
0.000000000000000e+00 0.000000000000000e+00 0.000000000000000e+00
0.000000000000000e+00 0.000000000000000e+00 0.000000000000000e+00

0.000000000000000e+00 0.000000000000000e+00 0.000000000000000e+00
0.000000000000000e+00 0.000000000000000e+00 0.000000000000000e+00
0.000000000000000e+00 0.000000000000000e+00 0.000000000000000e+00

0.000000000000000e+00 0.000000000000000e+00 0.000000000000000e+00
0.000000000000000e+00 0.000000000000000e+00 0.000000000000000e+00
0.000000000000000e+00 0.000000000000000e+00 0.000000000000000e+00

0.000000000000000e+00 0.000000000000000e+00 0.000000000000000e+00
0.000000000000000e+00 0.000000000000000e+00 0.000000000000000e+00
0.000000000000000e+00 0.000000000000000e+00 0.000000000000000e+00

0.000000000000000e+00 0.000000000000000e+00 0.000000000000000e+00
0.000000000000000e+00 0.000000000000000e+00 0.000000000000000e+00
0.000000000000000e+00 0.000000000000000e+00 0.000000000000000e+00

0.000000000000000e+00 0.000000000000000e+00 0.000000000000000e+00
0.000000000000000e+00 0.000000000000000e+00 0.000000000000000e+00
0.000000000000000e+00 0.000000000000000e+00 0.000000000000000e+00

0.000000000000000e+00 0.000000000000000e+00 0.000000000000000e+00
0.000000000000000e+00 0.000000000000000e+00 0.000000000000000e+00
0.000000000000000e+00 0.000000000000000e+00 0.000000000000000e+00

0.000000000000000e+00 0.000000000000000e+00 0.000000000000000e+00
0.000000000000000e+00 0.000000000000000e+00 0.000000000000000e+00
0.000000000000000e+00 0.000000000000000e+00 0.000000000000000e+00

0.000000000000000e+00 0.000000000000000e+00 0.000000000000000e+00
0.000000000000000e+00 0.000000000000000e+00 0.000000000000000e+00
0.000000000000000e+00 0.000000000000000e+00 0.000000000000000e+00

0.000000000000000e+00 0.000000000000000e+00 0.000000000000000e+00
0.000000000000000e+00 0.000000000000000e+00 0.000000000000000e+00
0.000000000000000e+00 0.000000000000000e+00 0.000000000000000e+00

0.000000000000000e+00 0.000000000000000e+00 0.000000000000000e+00
0.000000000000000e+00 0.000000000000000e+00 0.000000000000000e+00
0.000000000000000e+00 0.000000000000000e+00 0.000000000000000e+00

0.000000000000000e+00 0.000000000000000e+00 0.000000000000000e+00
0.000000000000000e+00 0.000000000000000e+00 0.000000000000000e+00
0.000000000000000e+00 0.000000000000000e+00 0.000000000000000e+00

0.000000000000000e+00 0.000000000000000e+00 0.000000000000000e+00
0.000000000000000e+00 0.000000000000000e+00 0.000000000000000e+00
0.000000000000000e+00 0.000000000000000e+00 0.000000000000000e+00

0.000000000000000e+00 0.000000000000000e+00 0.000000000000000e+00
0.000000000000000e+00 0.000000000000000e+00 0.000000000000000e+00
0.000000000000000e+00 0.000000000000000e+00 0.000000000000000e+00

0.000000000000000e+00 0.000000000000000e+00 0.000000000000000e+00
0.000000000000000e+00 0.000000000000000e+00 0.000000000000000e+00
0.000000000000000e+00 0.000000000000000e+00 0.000000000000000e+00

0.000000000000000e+00 0.000000000000000e+00 0.000000000000000e+00
0.000000000000000e+00 0.000000000000000e+00 0.000000000000000e+00
0.000000000000000e+00 0.000000000000000e+00 0.000000000000000e+00

0.000000000000000e+00 0.000000000000000e+00 0.000000000000000e+00
0.000000000000000e+00 0.000000000000000e+00 0.000000000000000e+00
0.000000000000000e+00 0.000000000000000e+00 0.000000000000000e+00

0.000000000000000e+00 0.000000000000000e+00 0.000000000000000e+00
0.000000000000000e+00 0.000000000000000e+00 0.000000000000000e+00
0.000000000000000e+00 0.000000000000000e+00 0.000000000000000e+00

0.000000000000000e+00 0.000000000000000e+00 0.000000000000000e+00
0.000000000000000e+00 0.000000000000000e+00 0.000000000000000e+00
0.000000000000000e+00 0.000000000000000e+00 0.000000000000000e+00

0.000000000000000e+00 0.000000000000000e+00 0.000000000000000e+00
0.000000000000000e+00 0.000000000000000e+00 0.000000000000000e+00
0.000000000000000e+00 0.000000000000000e+00 0.000000000000000e+00

0.000000000000000e+00 0.000000000000000e+00 0.000000000000000e+00
0.000000000000000e+00 0.000000000000000e+00 0.000000000000000e+00
0.000000000000000e+00 0.000000000000000e+00 0.000000000000000e+00

0.000000000000000e+00 0.000000000000000e+00 0.000000000000000e+00
0.000000000000000e+00 0.000000000000000e+00 0.000000000000000e+00
0.000000000000000e+00 0.000000000000000e+00 0.000000000000000e+00

0.000000000000000e+00 0.000000000000000e+00 0.000000000000000e+00
0.000000000000000e+00 0.000000000000000e+00 0.000000000000000e+00
0.000000000000000e+00 0.000000000000000e+00 0.000000000000000e+00

0.000000000000000e+00 0.000000000000000e+00 0.000000000000000e+00
0.000000000000000e+00 0.000000000000000e+00 0.000000000000000e+00
0.000000000000000e+00 0.000000000000000e+00 0.000000000000000e+00

0.000000000000000e+00 0.000000000000000e+00 0.000000000000000e+00
0.000000000000000e+00 0.000000000000000e+00 0.000000000000000e+00
0.000000000000000e+00 0.000000000000000e+00 0.000000000000000e+00

0.000000000000000e+00 0.000000000000000e+00 0.000000000000000e+00
0.000000000000000e+00 0.000000000000000e+00 0.000000000000000e+00
0.000000000000000e+00 0.000000000000000e+00 0.000000000000000e+00

0.000000000000000e+00 0.000000000000000e+00 0.000000000000000e+00
0.000000000000000e+00 0.000000000000000e+00 0.000000000000000e+00
0.000000000000000e+00 0.000000000000000e+00 0.000000000000000e+00

0.000000000000000e+00 0.000000000000000e+00 0.000000000000000e+00
0.000000000000000e+00 0.000000000000000e+00 0.000000000000000e+00
0.000000000000000e+00 0.000000000000000e+00 0.000000000000000e+00

0.000000000000000e+00 0.000000000000000e+00 0.000000000000000e+00
0.000000000000000e+00 0.000000000000000e+00 0.000000000000000e+00
0.000000000000000e+00 0.000000000000000e+00 0.000000000000000e+00

0.000000000000000e+00 0.000000000000000e+00 0.000000000000000e+00
0.000000000000000e+00 0.000000000000000e+00 0.000000000000000e+00
0.000000000000000e+00 0.000000000000000e+00 0.000000000000000e+00

0.000000000000000e+00 0.000000000000000e+00 0.000000000000000e+00
0.000000000000000e+00 0.000000000000000e+00 0.000000000000000e+00
0.000000000000000e+00 0.000000000000000e+00 0.000000000000000e+00

0.000000000000000e+00 0.000000000000000e+00 0.000000000000000e+00
0.000000000000000e+00 0.000000000000000e+00 0.000000000000000e+00
0.000000000000000e+00 0.000000000000000e+00 0.000000000000000e+00

0.000000000000000e+00 0.000000000000000e+00 0.000000000000000e+00
0.000000000000000e+00 0.000000000000000e+00 0.000000000000000e+00
0.000000000000000e+00 0.000000000000000e+00 0.000000000000000e+00

0.000000000000000e+00 0.000000000000000e+00 0.000000000000000e+00
0.000000000000000e+00 0.000000000000000e+00 0.000000000000000e+00
0.000000000000000e+00 0.000000000000000e+00 0.000000000000000e+00

0.000000000000000e+00 0.000000000000000e+00 0.000000000000000e+00
0.000000000000000e+00 0.000000000000000e+00 0.000000000000000e+00
0.000000000000000e+00 0.000000000000000e+00 0.000000000000000e+00

0.000000000000000e+00 0.000000000000000e+00 0.000000000000000e+00
0.000000000000000e+00 0.000000000000000e+00 0.000000000000000e+00
0.000000000000000e+00 0.000000000000000e+00 0.000000000000000e+00

0.000000000000000e+00 0.000000000000000e+00 0.000000000000000e+00
0.000000000000000e+00 0.000000000000000e+00 0.000000000000000e+00
0.000000000000000e+00 0.000000000000000e+00 0.000000000000000e+00

0.000000000000000e+00 0.000000000000000e+00 0.000000000000000e+00
0.000000000000000e+00 0.000000000000000e+00 0.000000000000000e+00
0.000000000000000e+00 0.000000000000000e+00 0.000000000000000e+00

0.000000000000000e+00 0.000000000000000e+00 0.000000000000000e+00
0.000000000000000e+00 0.000000000000000e+00 0.000000000000000e+00
0.000000000000000e+00 0.000000000000000e+00 0.000000000000000e+00

0.000000000000000e+00 0.000000000000000e+00 0.000000000000000e+00
0.000000000000000e+00 0.000000000000000e+00 0.000000000000000e+00
0.000000000000000e+00 0.000000000000000e+00 0.000000000000000e+00

0.000000000000000e+00 0.000000000000000e+00 0.000000000000000e+00
0.000000000000000e+00 0.000000000000000e+00 0.000000000000000e+00
0.000000000000000e+00 0.000000000000000e+00 0.000000000000000e+00

0.000000000000000e+00 0.000000000000000e+00 0.000000000000000e+00
0.000000000000000e+00 0.000000000000000e+00 0.000000000000000e+00
0.000000000000000e+00 0.000000000000000e+00 0.000000000000000e+00

0.000000000000000e+00 0.000000000000000e+00 0.000000000000000e+00
0.000000000000000e+00 0.000000000000000e+00 0.000000000000000e+00
0.000000000000000e+00 0.000000000000000e+00 0.000000000000000e+00

0.000000000000000e+00 0.000000000000000e+00 0.000000000000000e+00
0.000000000000000e+00 0.000000000000000e+00 0.000000000000000e+00
0.000000000000000e+00 0.000000000000000e+00 0.000000000000000e+00

0.000000000000000e+00 0.000000000000000e+00 0.000000000000000e+00
0.000000000000000e+00 0.000000000000000e+00 0.000000000000000e+00
0.000000000000000e+00 0.000000000000000e+00 0.000000000000000e+00

0.000000000000000e+00 0.000000000000000e+00 0.000000000000000e+00
0.000000000000000e+00 0.000000000000000e+00 0.000000000000000e+00
0.000000000000000e+00 0.000000000000000e+00 0.000000000000000e+00

0.000000000000000e+00 0.000000000000000e+00 0.000000000000000e+00
0.000000000000000e+00 0.000000000000000e+00 0.000000000000000e+00
0.000000000000000e+00 0.000000000000000e+00 0.000000000000000e+00

0.000000000000000e+00 0.000000000000000e+00 0.000000000000000e+00
0.000000000000000e+00 0.000000000000000e+00 0.000000000000000e+00
0.000000000000000e+00 0.000000000000000e+00 0.000000000000000e+00

0.000000000000000e+00 0.000000000000000e+00 0.000000000000000e+00
0.000000000000000e+00 0.000000000000000e+00 0.000000000000000e+00
0.000000000000000e+00 0.000000000000000e+00 0.000000000000000e+00

0.000000000000000e+00 0.000000000000000e+00 0.000000000000000e+00
0.000000000000000e+00 0.000000000000000e+00 0.000000000000000e+00
0.000000000000000e+00 0.000000000000000e+00 0.000000000000000e+00

0.000000000000000e+00 0.000000000000000e+00 0.000000000000000e+00
0.000000000000000e+00 0.000000000000000e+00 0.000000000000000e+00
0.000000000000000e+00 0.000000000000000e+00 0.000000000000000e+00

0.000000000000000e+00 0.000000000000000e+00 0.000000000000000e+00
0.000000000000000e+00 0.000000000000000e+00 0.000000000000000e+00
0.000000000000000e+00 0.000000000000000e+00 0.000000000000000e+00

0.000000000000000e+00 0.000000000000000e+00 0.000000000000000e+00
0.000000000000000e+00 0.000000000000000e+00 0.000000000000000e+00
0.000000000000000e+00 0.000000000000000e+00 0.000000000000000e+00

0.000000000000000e+00 0.000000000000000e+00 0.000000000000000e+00
0.000000000000000e+00 0.000000000000000e+00 0.000000000000000e+00
0.000000000000000e+00 0.000000000000000e+00 0.000000000000000e+00

0.000000000000000e+00 0.000000000000000e+00 0.000000000000000e+00
0.000000000000000e+00 0.000000000000000e+00 0.000000000000000e+00
0.000000000000000e+00 0.000000000000000e+00 0.000000000000000e+00

0.000000000000000e+00 0.000000000000000e+00 0.000000000000000e+00
0.000000000000000e+00 0.000000000000000e+00 0.000000000000000e+00
0.000000000000000e+00 0.000000000000000e+00 0.000000000000000e+00

0.000000000000000e+00 0.000000000000000e+00 0.000000000000000e+00
0.000000000000000e+00 0.000000000000000e+00 0.000000000000000e+00
0.000000000000000e+00 0.000000000000000e+00 0.000000000000000e+00

0.000000000000000e+00 0.000000000000000e+00 0.000000000000000e+00
0.000000000000000e+00 0.000000000000000e+00 0.000000000000000e+00
0.000000000000000e+00 0.000000000000000e+00 0.000000000000000e+00

0.000000000000000e+00 0.000000000000000e+00 0.000000000000000e+00
0.000000000000000e+00 0.000000000000000e+00 0.000000000000000e+00
0.000000000000000e+00 0.000000000000000e+00 0.000000000000000e+00

0.000000000000000e+00 0.000000000000000e+00 0.000000000000000e+00
0.000000000000000e+00 0.000000000000000e+00 0.000000000000000e+00
0.000000000000000e+00 0.000000000000000e+00 0.000000000000000e+00

0.000000000000000e+00 0.000000000000000e+00 0.000000000000000e+00
0.000000000000000e+00 0.000000000000000e+00 0.000000000000000e+00
0.000000000000000e+00 0.000000000000000e+00 0.000000000000000e+00

0.000000000000000e+00 0.000000000000000e+00 0.000000000000000e+00
0.000000000000000e+00 0.000000000000000e+00 0.000000000000000e+00
0.000000000000000e+00 0.000000000000000e+00 0.000000000000000e+00

0.000000000000000e+00 0.000000000000000e+00 0.000000000000000e+00
0.000000000000000e+00 0.000000000000000e+00 0.000000000000000e+00
0.000000000000000e+00 0.000000000000000e+00 0.000000000000000e+00

0.000000000000000e+00 0.000000000000000e+00 0.000000000000000e+00
0.000000000000000e+00 0.000000000000000e+00 0.000000000000000e+00
0.000000000000000e+00 0.000000000000000e+00 0.000000000000000e+00

0.000000000000000e+00 0.000000000000000e+00 0.000000000000000e+00
0.000000000000000e+00 0.000000000000000e+00 0.000000000000000e+00
0.000000000000000e+00 0.000000000000000e+00 0.000000000000000e+00

0.000000000000000e+00 0.000000000000000e+00 0.000000000000000e+00
0.000000000000000e+00 0.000000000000000e+00 0.000000000000000e+00
0.000000000000000e+00 0.000000000000000e+00 0.000000000000000e+00

0.000000000000000e+00 0.000000000000000e+00 0.000000000000000e+00
0.000000000000000e+00 0.000000000000000e+00 0.000000000000000e+00
0.000000000000000e+00 0.000000000000000e+00 0.000000000000000e+00

0.000000000000000e+00 0.000000000000000e+00 0.000000000000000e+00
0.000000000000000e+00 0.000000000000000e+00 0.000000000000000e+00
0.000000000000000e+00 0.000000000000000e+00 0.000000000000000e+00

0.000000000000000e+00 0.000000000000000e+00 0.000000000000000e+00
0.000000000000000e+00 0.000000000000000e+00 0.000000000000000e+00
0.000000000000000e+00 0.000000000000000e+00 0.000000000000000e+00

0.000000000000000e+00 0.000000000000000e+00 0.000000000000000e+00
0.000000000000000e+00 0.000000000000000e+00 0.000000000000000e+00
0.000000000000000e+00 0.000000000000000e+00 0.000000000000000e+00

0.000000000000000e+00 0.000000000000000e+00 0.000000000000000e+00
0.000000000000000e+00 0.000000000000000e+00 0.000000000000000e+00
0.000000000000000e+00 0.000000000000000e+00 0.000000000000000e+00

0.000000000000000e+00 0.000000000000000e+00 0.000000000000000e+00
0.000000000000000e+00 0.000000000000000e+00 0.000000000000000e+00
0.000000000000000e+00 0.000000000000000e+00 0.000000000000000e+00

0.000000000000000e+00 0.000000000000000e+00 0.000000000000000e+00
0.000000000000000e+00 0.000000000000000e+00 0.000000000000000e+00
0.000000000000000e+00 0.000000000000000e+00 0.000000000000000e+00

0.000000000000000e+00 0.000000000000000e+00 0.000000000000000e+00
0.000000000000000e+00 0.000000000000000e+00 0.000000000000000e+00
0.000000000000000e+00 0.000000000000000e+00 0.000000000000000e+00

0.000000000000000e+00 0.000000000000000e+00 0.000000000000000e+00
0.000000000000000e+00 0.000000000000000e+00 0.000000000000000e+00
0.000000000000000e+00 0.000000000000000e+00 0.000000000000000e+00

0.000000000000000e+00 0.000000000000000e+00 0.000000000000000e+00
0.000000000000000e+00 0.000000000000000e+00 0.000000000000000e+00
0.000000000000000e+00 0.000000000000000e+00 0.000000000000000e+00

0.000000000000000e+00 0.000000000000000e+00 0.000000000000000e+00
0.000000000000000e+00 0.000000000000000e+00 0.000000000000000e+00
0.000000000000000e+00 0.000000000000000e+00 0.000000000000000e+00

0.000000000000000e+00 0.000000000000000e+00 0.000000000000000e+00
0.000000000000000e+00 0.000000000000000e+00 0.000000000000000e+00
0.000000000000000e+00 0.000000000000000e+00 0.000000000000000e+00

0.000000000000000e+00 0.000000000000000e+00 0.000000000000000e+00
0.000000000000000e+00 0.000000000000000e+00 0.000000000000000e+00
0.000000000000000e+00 0.000000000000000e+00 0.000000000000000e+00

0.000000000000000e+00 0.000000000000000e+00 0.000000000000000e+00
0.000000000000000e+00 0.000000000000000e+00 0.000000000000000e+00
0.000000000000000e+00 0.000000000000000e+00 0.000000000000000e+00

0.000000000000000e+00 0.000000000000000e+00 0.000000000000000e+00
0.000000000000000e+00 0.000000000000000e+00 0.000000000000000e+00
0.000000000000000e+00 0.000000000000000e+00 0.000000000000000e+00

0.000000000000000e+00 0.000000000000000e+00 0.000000000000000e+00
0.000000000000000e+00 0.000000000000000e+00 0.000000000000000e+00
0.000000000000000e+00 0.000000000000000e+00 0.000000000000000e+00

0.000000000000000e+00 0.000000000000000e+00 0.000000000000000e+00
0.000000000000000e+00 0.000000000000000e+00 0.000000000000000e+00
0.000000000000000e+00 0.000000000000000e+00 0.000000000000000e+00

0.000000000000000e+00 0.000000000000000e+00 0.000000000000000e+00
0.000000000000000e+00 0.000000000000000e+00 0.000000000000000e+00
0.000000000000000e+00 0.000000000000000e+00 0.000000000000000e+00

0.000000000000000e+00 0.000000000000000e+00 0.000000000000000e+00
0.000000000000000e+00 0.000000000000000e+00 0.000000000000000e+00
0.000000000000000e+00 0.000000000000000e+00 0.000000000000000e+00

0.000000000000000e+00 0.000000000000000e+00 0.000000000000000e+00
0.000000000000000e+00 0.000000000000000e+00 0.000000000000000e+00
0.000000000000000e+00 0.000000000000000e+00 0.000000000000000e+00

0.000000000000000e+00 0.000000000000000e+00 0.000000000000000e+00
0.000000000000000e+00 0.000000000000000e+00 0.000000000000000e+00
0.000000000000000e+00 0.000000000000000e+00 0.000000000000000e+00

0.000000000000000e+00 0.000000000000000e+00 0.000000000000000e+00
0.000000000000000e+00 0.000000000000000e+00 0.000000000000000e+00
0.000000000000000e+00 0.000000000000000e+00 0.000000000000000e+00

0.000000000000000e+00 0.000000000000000e+00 0.000000000000000e+00
0.000000000000000e+00 0.000000000000000e+00 0.000000000000000e+00
0.000000000000000e+00 0.000000000000000e+00 0.000000000000000e+00

0.000000000000000e+00 0.000000000000000e+00 0.000000000000000e+00
0.000000000000000e+00 0.000000000000000e+00 0.000000000000000e+00
0.000000000000000e+00 0.000000000000000e+00 0.000000000000000e+00

0.000000000000000e+00 0.000000000000000e+00 0.000000000000000e+00
0.000000000000000e+00 0.000000000000000e+00 0.000000000000000e+00
0.000000000000000e+00 0.000000000000000e+00 0.000000000000000e+00

0.000000000000000e+00 0.000000000000000e+00 0.000000000000000e+00
0.000000000000000e+00 0.000000000000000e+00 0.000000000000000e+00
0.000000000000000e+00 0.000000000000000e+00 0.000000000000000e+00

0.000000000000000e+00 0.000000000000000e+00 0.000000000000000e+00
0.000000000000000e+00 0.000000000000000e+00 0.000000000000000e+00
0.000000000000000e+00 0.000000000000000e+00 0.000000000000000e+00

0.000000000000000e+00 0.000000000000000e+00 0.000000000000000e+00
0.000000000000000e+00 0.000000000000000e+00 0.000000000000000e+00
0.000000000000000e+00 0.000000000000000e+00 0.000000000000000e+00

0.000000000000000e+00 0.000000000000000e+00 0.000000000000000e+00
0.000000000000000e+00 0.000000000000000e+00 0.000000000000000e+00
0.000000000000000e+00 0.000000000000000e+00 0.000000000000000e+00

0.000000000000000e+00 0.000000000000000e+00 0.000000000000000e+00
0.000000000000000e+00 0.000000000000000e+00 0.000000000000000e+00
0.000000000000000e+00 0.000000000000000e+00 0.000000000000000e+00

0.000000000000000e+00 0.000000000000000e+00 0.000000000000000e+00
0.000000000000000e+00 0.000000000000000e+00 0.000000000000000e+00
0.000000000000000e+00 0.000000000000000e+00 0.000000000000000e+00

0.000000000000000e+00 0.000000000000000e+00 0.000000000000000e+00
0.000000000000000e+00 0.000000000000000e+00 0.000000000000000e+00
0.000000000000000e+00 0.000000000000000e+00 0.000000000000000e+00

0.000000000000000e+00 0.000000000000000e+00 0.000000000000000e+00
0.000000000000000e+00 0.000000000000000e+00 0.000000000000000e+00
0.000000000000000e+00 0.000000000000000e+00 0.000000000000000e+00

0.000000000000000e+00 0.000000000000000e+00 0.000000000000000e+00
0.000000000000000e+00 0.000000000000000e+00 0.000000000000000e+00
0.000000000000000e+00 0.000000000000000e+00 0.000000000000000e+00

0.000000000000000e+00 0.000000000000000e+00 0.000000000000000e+00
0.000000000000000e+00 0.000000000000000e+00 0.000000000000000e+00
0.000000000000000e+00 0.000000000000000e+00 0.000000000000000e+00

0.000000000000000e+00 0.000000000000000e+00 0.000000000000000e+00
0.000000000000000e+00 0.000000000000000e+00 0.000000000000000e+00
0.000000000000000e+00 0.000000000000000e+00 0.000000000000000e+00

0.000000000000000e+00 0.000000000000000e+00 0.000000000000000e+00
0.000000000000000e+00 0.000000000000000e+00 0.000000000000000e+00
0.000000000000000e+00 0.000000000000000e+00 0.000000000000000e+00

0.000000000000000e+00 0.000000000000000e+00 0.000000000000000e+00
0.000000000000000e+00 0.000000000000000e+00 0.000000000000000e+00
0.000000000000000e+00 0.000000000000000e+00 0.000000000000000e+00

0.000000000000000e+00 0.000000000000000e+00 0.000000000000000e+00
0.000000000000000e+00 0.000000000000000e+00 0.000000000000000e+00
0.000000000000000e+00 0.000000000000000e+00 0.000000000000000e+00

0.000000000000000e+00 0.000000000000000e+00 0.000000000000000e+00
0.000000000000000e+00 0.000000000000000e+00 0.000000000000000e+00
0.000000000000000e+00 0.000000000000000e+00 0.000000000000000e+00

0.000000000000000e+00 0.000000000000000e+00 0.000000000000000e+00
0.000000000000000e+00 0.000000000000000e+00 0.000000000000000e+00
0.000000000000000e+00 0.000000000000000e+00 0.000000000000000e+00

0.000000000000000e+00 0.000000000000000e+00 0.000000000000000e+00
0.000000000000000e+00 0.000000000000000e+00 0.000000000000000e+00
0.000000000000000e+00 0.000000000000000e+00 0.000000000000000e+00

0.000000000000000e+00 0.000000000000000e+00 0.000000000000000e+00
0.000000000000000e+00 0.000000000000000e+00 0.000000000000000e+00
0.000000000000000e+00 0.000000000000000e+00 0.000000000000000e+00

0.000000000000000e+00 0.000000000000000e+00 0.000000000000000e+00
0.000000000000000e+00 0.000000000000000e+00 0.000000000000000e+00
0.000000000000000e+00 0.000000000000000e+00 0.000000000000000e+00

0.000000000000000e+00 0.000000000000000e+00 0.000000000000000e+00
0.000000000000000e+00 0.000000000000000e+00 0.000000000000000e+00
0.000000000000000e+00 0.000000000000000e+00 0.000000000000000e+00

0.000000000000000e+00 0.000000000000000e+00 0.000000000000000e+00
0.000000000000000e+00 0.000000000000000e+00 0.000000000000000e+00
0.000000000000000e+00 0.000000000000000e+00 0.000000000000000e+00

0.000000000000000e+00 0.000000000000000e+00 0.000000000000000e+00
0.000000000000000e+00 0.000000000000000e+00 0.000000000000000e+00
0.000000000000000e+00 0.000000000000000e+00 0.000000000000000e+00

0.000000000000000e+00 0.000000000000000e+00 0.000000000000000e+00
0.000000000000000e+00 0.000000000000000e+00 0.000000000000000e+00
0.000000000000000e+00 0.000000000000000e+00 0.000000000000000e+00

0.000000000000000e+00 0.000000000000000e+00 0.000000000000000e+00
0.000000000000000e+00 0.000000000000000e+00 0.000000000000000e+00
0.000000000000000e+00 0.000000000000000e+00 0.000000000000000e+00

0.000000000000000e+00 0.000000000000000e+00 0.000000000000000e+00
0.000000000000000e+00 0.000000000000000e+00 0.000000000000000e+00
0.000000000000000e+00 0.000000000000000e+00 0.000000000000000e+00

0.000000000000000e+00 0.000000000000000e+00 0.000000000000000e+00
0.000000000000000e+00 0.000000000000000e+00 0.000000000000000e+00
0.000000000000000e+00 0.000000000000000e+00 0.000000000000000e+00

0.000000000000000e+00 0.000000000000000e+00 0.000000000000000e+00
0.000000000000000e+00 0.000000000000000e+00 0.000000000000000e+00
0.000000000000000e+00 0.000000000000000e+00 0.000000000000000e+00

0.000000000000000e+00 0.000000000000000e+00 0.000000000000000e+00
0.000000000000000e+00 0.000000000000000e+00 0.000000000000000e+00
0.000000000000000e+00 0.000000000000000e+00 0.000000000000000e+00

0.000000000000000e+00 0.000000000000000e+00 0.000000000000000e+00
0.000000000000000e+00 0.000000000000000e+00 0.000000000000000e+00
0.000000000000000e+00 0.000000000000000e+00 0.000000000000000e+00

0.000000000000000e+00 0.000000000000000e+00 0.000000000000000e+00
0.000000000000000e+00 0.000000000000000e+00 0.000000000000000e+00
0.000000000000000e+00 0.000000000000000e+00 0.000000000000000e+00

0.000000000000000e+00 0.000000000000000e+00 0.000000000000000e+00
0.000000000000000e+00 0.000000000000000e+00 0.000000000000000e+00
0.000000000000000e+00 0.000000000000000e+00 0.000000000000000e+00

0.000000000000000e+00 0.000000000000000e+00 0.000000000000000e+00
0.000000000000000e+00 0.000000000000000e+00 0.000000000000000e+00
0.000000000000000e+00 0.000000000000000e+00 0.000000000000000e+00

0.000000000000000e+00 0.000000000000000e+00 0.000000000000000e+00
0.000000000000000e+00 0.000000000000000e+00 0.000000000000000e+00
0.000000000000000e+00 0.000000000000000e+00 0.000000000000000e+00

0.000000000000000e+00 0.000000000000000e+00 0.000000000000000e+00
0.000000000000000e+00 0.000000000000000e+00 0.000000000000000e+00
0.000000000000000e+00 0.000000000000000e+00 0.000000000000000e+00

0.000000000000000e+00 0.000000000000000e+00 0.000000000000000e+00
0.000000000000000e+00 0.000000000000000e+00 0.000000000000000e+00
0.000000000000000e+00 0.000000000000000e+00 0.000000000000000e+00

0.000000000000000e+00 0.000000000000000e+00 0.000000000000000e+00
0.000000000000000e+00 0.000000000000000e+00 0.000000000000000e+00
0.000000000000000e+00 0.000000000000000e+00 0.000000000000000e+00

0.000000000000000e+00 0.000000000000000e+00 0.000000000000000e+00
0.000000000000000e+00 0.000000000000000e+00 0.000000000000000e+00
0.000000000000000e+00 0.000000000000000e+00 0.000000000000000e+00

0.000000000000000e+00 0.000000000000000e+00 0.000000000000000e+00
0.000000000000000e+00 0.000000000000000e+00 0.000000000000000e+00
0.000000000000000e+00 0.000000000000000e+00 0.000000000000000e+00

0.000000000000000e+00 0.000000000000000e+00 0.000000000000000e+00
0.000000000000000e+00 0.000000000000000e+00 0.000000000000000e+00
0.000000000000000e+00 0.000000000000000e+00 0.000000000000000e+00

0.000000000000000e+00 0.000000000000000e+00 0.000000000000000e+00
0.000000000000000e+00 0.000000000000000e+00 0.000000000000000e+00
0.000000000000000e+00 0.000000000000000e+00 0.000000000000000e+00

0.000000000000000e+00 0.000000000000000e+00 0.000000000000000e+00
0.000000000000000e+00 0.000000000000000e+00 0.000000000000000e+00
0.000000000000000e+00 0.000000000000000e+00 0.000000000000000e+00

0.000000000000000e+00 0.000000000000000e+00 0.000000000000000e+00
0.000000000000000e+00 0.000000000000000e+00 0.000000000000000e+00
0.000000000000000e+00 0.000000000000000e+00 0.000000000000000e+00

0.000000000000000e+00 0.000000000000000e+00 0.000000000000000e+00
0.000000000000000e+00 0.000000000000000e+00 0.000000000000000e+00
0.000000000000000e+00 0.000000000000000e+00 0.000000000000000e+00

0.000000000000000e+00 0.000000000000000e+00 0.000000000000000e+00
0.000000000000000e+00 0.000000000000000e+00 0.000000000000000e+00
0.000000000000000e+00 0.000000000000000e+00 0.000000000000000e+00

0.000000000000000e+00 0.000000000000000e+00 0.000000000000000e+00
0.000000000000000e+00 0.000000000000000e+00 0.000000000000000e+00
0.000000000000000e+00 0.000000000000000e+00 0.000000000000000e+00

0.000000000000000e+00 0.000000000000000e+00 0.000000000000000e+00
0.000000000000000e+00 0.000000000000000e+00 0.000000000000000e+00
0.000000000000000e+00 0.000000000000000e+00 0.000000000000000e+00

0.000000000000000e+00 0.000000000000000e+00 0.000000000000000e+00
0.000000000000000e+00 0.000000000000000e+00 0.000000000000000e+00
0.000000000000000e+00 0.000000000000000e+00 0.000000000000000e+00

0.000000000000000e+00 0.000000000000000e+00 0.000000000000000e+00
0.000000000000000e+00 0.000000000000000e+00 0.000000000000000e+00
0.000000000000000e+00 0.000000000000000e+00 0.000000000000000e+00

0.000000000000000e+00 0.000000000000000e+00 0.000000000000000e+00
0.000000000000000e+00 0.000000000000000e+00 0.000000000000000e+00
0.000000000000000e+00 0.000000000000000e+00 0.000000000000000e+00

0.000000000000000e+00 0.000000000000000e+00 0.000000000000000e+00
0.000000000000000e+00 0.000000000000000e+00 0.000000000000000e+00
0.000000000000000e+00 0.000000000000000e+00 0.000000000000000e+00

0.000000000000000e+00 0.000000000000000e+00 0.000000000000000e+00
0.000000000000000e+00 0.000000000000000e+00 0.000000000000000e+00
0.000000000000000e+00 0.000000000000000e+00 0.000000000000000e+00

0.000000000000000e+00 0.000000000000000e+00 0.000000000000000e+00
0.000000000000000e+00 0.000000000000000e+00 0.000000000000000e+00
0.000000000000000e+00 0.000000000000000e+00 0.000000000000000e+00

0.000000000000000e+00 0.000000000000000e+00 0.000000000000000e+00
0.000000000000000e+00 0.000000000000000e+00 0.000000000000000e+00
0.000000000000000e+00 0.000000000000000e+00 0.000000000000000e+00

0.000000000000000e+00 0.000000000000000e+00 0.000000000000000e+00
0.000000000000000e+00 0.000000000000000e+00 0.000000000000000e+00
0.000000000000000e+00 0.000000000000000e+00 0.000000000000000e+00

0.000000000000000e+00 0.000000000000000e+00 0.000000000000000e+00
0.000000000000000e+00 0.000000000000000e+00 0.000000000000000e+00
0.000000000000000e+00 0.000000000000000e+00 0.000000000000000e+00

0.000000000000000e+00 0.000000000000000e+00 0.000000000000000e+00
0.000000000000000e+00 0.000000000000000e+00 0.000000000000000e+00
0.000000000000000e+00 0.000000000000000e+00 0.000000000000000e+00

0.000000000000000e+00 0.000000000000000e+00 0.000000000000000e+00
0.000000000000000e+00 0.000000000000000e+00 0.000000000000000e+00
0.000000000000000e+00 0.000000000000000e+00 0.000000000000000e+00

0.000000000000000e+00 0.000000000000000e+00 0.000000000000000e+00
0.000000000000000e+00 0.000000000000000e+00 0.000000000000000e+00
0.000000000000000e+00 0.000000000000000e+00 0.000000000000000e+00

0.000000000000000e+00 0.000000000000000e+00 0.000000000000000e+00
0.000000000000000e+00 0.000000000000000e+00 0.000000000000000e+00
0.000000000000000e+00 0.000000000000000e+00 0.000000000000000e+00

0.000000000000000e+00 0.000000000000000e+00 0.000000000000000e+00
0.000000000000000e+00 0.000000000000000e+00 0.000000000000000e+00
0.000000000000000e+00 0.000000000000000e+00 0.000000000000000e+00

0.000000000000000e+00 0.000000000000000e+00 0.000000000000000e+00
0.000000000000000e+00 0.000000000000000e+00 0.000000000000000e+00
0.000000000000000e+00 0.000000000000000e+00 0.000000000000000e+00

0.000000000000000e+00 0.000000000000000e+00 0.000000000000000e+00
0.000000000000000e+00 0.000000000000000e+00 0.000000000000000e+00
0.000000000000000e+00 0.000000000000000e+00 0.000000000000000e+00

0.000000000000000e+00 0.000000000000000e+00 0.000000000000000e+00
0.000000000000000e+00 0.000000000000000e+00 0.000000000000000e+00
0.000000000000000e+00 0.000000000000000e+00 0.000000000000000e+00

0.000000000000000e+00 0.000000000000000e+00 0.000000000000000e+00
0.000000000000000e+00 0.000000000000000e+00 0.000000000000000e+00
0.000000000000000e+00 0.000000000000000e+00 0.000000000000000e+00

0.000000000000000e+00 0.000000000000000e+00 0.000000000000000e+00
0.000000000000000e+00 0.000000000000000e+00 0.000000000000000e+00
0.000000000000000e+00 0.000000000000000e+00 0.000000000000000e+00

0.000000000000000e+00 0.000000000000000e+00 0.000000000000000e+00
0.000000000000000e+00 0.000000000000000e+00 0.000000000000000e+00
0.000000000000000e+00 0.000000000000000e+00 0.000000000000000e+00

0.000000000000000e+00 0.000000000000000e+00 0.000000000000000e+00
0.000000000000000e+00 0.000000000000000e+00 0.000000000000000e+00
0.000000000000000e+00 0.000000000000000e+00 0.000000000000000e+00

0.000000000000000e+00 0.000000000000000e+00 0.000000000000000e+00
0.000000000000000e+00 0.000000000000000e+00 0.000000000000000e+00
0.000000000000000e+00 0.000000000000000e+00 0.000000000000000e+00

0.000000000000000e+00 0.000000000000000e+00 0.000000000000000e+00
0.000000000000000e+00 0.000000000000000e+00 0.000000000000000e+00
0.000000000000000e+00 0.000000000000000e+00 0.000000000000000e+00

0.000000000000000e+00 0.000000000000000e+00 0.000000000000000e+00
0.000000000000000e+00 0.000000000000000e+00 0.000000000000000e+00
0.000000000000000e+00 0.000000000000000e+00 0.000000000000000e+00

0.000000000000000e+00 0.000000000000000e+00 0.000000000000000e+00
0.000000000000000e+00 0.000000000000000e+00 0.000000000000000e+00
0.000000000000000e+00 0.000000000000000e+00 0.000000000000000e+00

0.000000000000000e+00 0.000000000000000e+00 0.000000000000000e+00
0.000000000000000e+00 0.000000000000000e+00 0.000000000000000e+00
0.000000000000000e+00 0.000000000000000e+00 0.000000000000000e+00

0.000000000000000e+00 0.000000000000000e+00 0.000000000000000e+00
0.000000000000000e+00 0.000000000000000e+00 0.000000000000000e+00
0.000000000000000e+00 0.000000000000000e+00 0.000000000000000e+00

0.000000000000000e+00 0.000000000000000e+00 0.000000000000000e+00
0.000000000000000e+00 0.000000000000000e+00 0.000000000000000e+00
0.000000000000000e+00 0.000000000000000e+00 0.000000000000000e+00

0.000000000000000e+00 0.000000000000000e+00 0.000000000000000e+00
0.000000000000000e+00 0.000000000000000e+00 0.000000000000000e+00
0.000000000000000e+00 0.000000000000000e+00 0.000000000000000e+00

0.000000000000000e+00 0.000000000000000e+00 0.000000000000000e+00
0.000000000000000e+00 0.000000000000000e+00 0.000000000000000e+00
0.000000000000000e+00 0.000000000000000e+00 0.000000000000000e+00

0.000000000000000e+00 0.000000000000000e+00 0.000000000000000e+00
0.000000000000000e+00 0.000000000000000e+00 0.000000000000000e+00
0.000000000000000e+00 0.000000000000000e+00 0.000000000000000e+00

0.000000000000000e+00 0.000000000000000e+00 0.000000000000000e+00
0.000000000000000e+00 0.000000000000000e+00 0.000000000000000e+00
0.000000000000000e+00 0.000000000000000e+00 0.000000000000000e+00

0.000000000000000e+00 0.000000000000000e+00 0.000000000000000e+00
0.000000000000000e+00 0.000000000000000e+00 0.000000000000000e+00
0.000000000000000e+00 0.000000000000000e+00 0.000000000000000e+00

0.000000000000000e+00 0.000000000000000e+00 0.000000000000000e+00
0.000000000000000e+00 0.000000000000000e+00 0.000000000000000e+00
0.000000000000000e+00 0.000000000000000e+00 0.000000000000000e+00

0.000000000000000e+00 0.000000000000000e+00 0.000000000000000e+00
0.000000000000000e+00 0.000000000000000e+00 0.000000000000000e+00
0.000000000000000e+00 0.000000000000000e+00 0.000000000000000e+00

0.000000000000000e+00 0.000000000000000e+00 0.000000000000000e+00
0.000000000000000e+00 0.000000000000000e+00 0.000000000000000e+00
0.000000000000000e+00 0.000000000000000e+00 0.000000000000000e+00

0.000000000000000e+00 0.000000000000000e+00 0.000000000000000e+00
0.000000000000000e+00 0.000000000000000e+00 0.000000000000000e+00
0.000000000000000e+00 0.000000000000000e+00 0.000000000000000e+00

0.000000000000000e+00 0.000000000000000e+00 0.000000000000000e+00
0.000000000000000e+00 0.000000000000000e+00 0.000000000000000e+00
0.000000000000000e+00 0.000000000000000e+00 0.000000000000000e+00

0.000000000000000e+00 0.000000000000000e+00 0.000000000000000e+00
0.000000000000000e+00 0.000000000000000e+00 0.000000000000000e+00
0.000000000000000e+00 0.000000000000000e+00 0.000000000000000e+00

0.000000000000000e+00 0.000000000000000e+00 0.000000000000000e+00
0.000000000000000e+00 0.000000000000000e+00 0.000000000000000e+00
0.000000000000000e+00 0.000000000000000e+00 0.000000000000000e+00

0.000000000000000e+00 0.000000000000000e+00 0.000000000000000e+00
0.000000000000000e+00 0.000000000000000e+00 0.000000000000000e+00
0.000000000000000e+00 0.000000000000000e+00 0.000000000000000e+00

0.000000000000000e+00 0.000000000000000e+00 0.000000000000000e+00
0.000000000000000e+00 0.000000000000000e+00 0.000000000000000e+00
0.000000000000000e+00 0.000000000000000e+00 0.000000000000000e+00

0.000000000000000e+00 0.000000000000000e+00 0.000000000000000e+00
0.000000000000000e+00 0.000000000000000e+00 0.000000000000000e+00
0.000000000000000e+00 0.000000000000000e+00 0.000000000000000e+00

0.000000000000000e+00 0.000000000000000e+00 0.000000000000000e+00
0.000000000000000e+00 0.000000000000000e+00 0.000000000000000e+00
0.000000000000000e+00 0.000000000000000e+00 0.000000000000000e+00

0.000000000000000e+00 0.000000000000000e+00 0.000000000000000e+00
0.000000000000000e+00 0.000000000000000e+00 0.000000000000000e+00
0.000000000000000e+00 0.000000000000000e+00 0.000000000000000e+00

0.000000000000000e+00 0.000000000000000e+00 0.000000000000000e+00
0.000000000000000e+00 0.000000000000000e+00 0.000000000000000e+00
0.000000000000000e+00 0.000000000000000e+00 0.000000000000000e+00

0.000000000000000e+00 0.000000000000000e+00 0.000000000000000e+00
0.000000000000000e+00 0.000000000000000e+00 0.000000000000000e+00
0.000000000000000e+00 0.000000000000000e+00 0.000000000000000e+00

0.000000000000000e+00 0.000000000000000e+00 0.000000000000000e+00
0.000000000000000e+00 0.000000000000000e+00 0.000000000000000e+00
0.000000000000000e+00 0.000000000000000e+00 0.000000000000000e+00

0.000000000000000e+00 0.000000000000000e+00 0.000000000000000e+00
0.000000000000000e+00 0.000000000000000e+00 0.000000000000000e+00
0.000000000000000e+00 0.000000000000000e+00 0.000000000000000e+00

0.000000000000000e+00 0.000000000000000e+00 0.000000000000000e+00
0.000000000000000e+00 0.000000000000000e+00 0.000000000000000e+00
0.000000000000000e+00 0.000000000000000e+00 0.000000000000000e+00

0.000000000000000e+00 0.000000000000000e+00 0.000000000000000e+00
0.000000000000000e+00 0.000000000000000e+00 0.000000000000000e+00
0.000000000000000e+00 0.000000000000000e+00 0.000000000000000e+00

0.000000000000000e+00 0.000000000000000e+00 0.000000000000000e+00
0.000000000000000e+00 0.000000000000000e+00 0.000000000000000e+00
0.000000000000000e+00 0.000000000000000e+00 0.000000000000000e+00

0.000000000000000e+00 0.000000000000000e+00 0.000000000000000e+00
0.000000000000000e+00 0.000000000000000e+00 0.000000000000000e+00
0.000000000000000e+00 0.000000000000000e+00 0.000000000000000e+00

0.000000000000000e+00 0.000000000000000e+00 0.000000000000000e+00
0.000000000000000e+00 0.000000000000000e+00 0.000000000000000e+00
0.000000000000000e+00 0.000000000000000e+00 0.000000000000000e+00

0.000000000000000e+00 0.000000000000000e+00 0.000000000000000e+00
0.000000000000000e+00 0.000000000000000e+00 0.000000000000000e+00
0.000000000000000e+00 0.000000000000000e+00 0.000000000000000e+00

0.000000000000000e+00 0.000000000000000e+00 0.000000000000000e+00
0.000000000000000e+00 0.000000000000000e+00 0.000000000000000e+00
0.000000000000000e+00 0.000000000000000e+00 0.000000000000000e+00

0.000000000000000e+00 0.000000000000000e+00 0.000000000000000e+00
0.000000000000000e+00 0.000000000000000e+00 0.000000000000000e+00
0.000000000000000e+00 0.000000000000000e+00 0.000000000000000e+00

0.000000000000000e+00 0.000000000000000e+00 0.000000000000000e+00
0.000000000000000e+00 0.000000000000000e+00 0.000000000000000e+00
0.000000000000000e+00 0.000000000000000e+00 0.000000000000000e+00

0.000000000000000e+00 0.000000000000000e+00 0.000000000000000e+00
0.000000000000000e+00 0.000000000000000e+00 0.000000000000000e+00
0.000000000000000e+00 0.000000000000000e+00 0.000000000000000e+00

0.000000000000000e+00 0.000000000000000e+00 0.000000000000000e+00
0.000000000000000e+00 0.000000000000000e+00 0.000000000000000e+00
0.000000000000000e+00 0.000000000000000e+00 0.000000000000000e+00

0.000000000000000e+00 0.000000000000000e+00 0.000000000000000e+00
0.000000000000000e+00 0.000000000000000e+00 0.000000000000000e+00
0.000000000000000e+00 0.000000000000000e+00 0.000000000000000e+00

0.000000000000000e+00 0.000000000000000e+00 0.000000000000000e+00
0.000000000000000e+00 0.000000000000000e+00 0.000000000000000e+00
0.000000000000000e+00 0.000000000000000e+00 0.000000000000000e+00

0.000000000000000e+00 0.000000000000000e+00 0.000000000000000e+00
0.000000000000000e+00 0.000000000000000e+00 0.000000000000000e+00
0.000000000000000e+00 0.000000000000000e+00 0.000000000000000e+00

0.000000000000000e+00 0.000000000000000e+00 0.000000000000000e+00
0.000000000000000e+00 0.000000000000000e+00 0.000000000000000e+00
0.000000000000000e+00 0.000000000000000e+00 0.000000000000000e+00

0.000000000000000e+00 0.000000000000000e+00 0.000000000000000e+00
0.000000000000000e+00 0.000000000000000e+00 0.000000000000000e+00
0.000000000000000e+00 0.000000000000000e+00 0.000000000000000e+00

0.000000000000000e+00 0.000000000000000e+00 0.000000000000000e+00
0.000000000000000e+00 0.000000000000000e+00 0.000000000000000e+00
0.000000000000000e+00 0.000000000000000e+00 0.000000000000000e+00

0.000000000000000e+00 0.000000000000000e+00 0.000000000000000e+00
0.000000000000000e+00 0.000000000000000e+00 0.000000000000000e+00
0.000000000000000e+00 0.000000000000000e+00 0.000000000000000e+00

0.000000000000000e+00 0.000000000000000e+00 0.000000000000000e+00
0.000000000000000e+00 0.000000000000000e+00 0.000000000000000e+00
0.000000000000000e+00 0.000000000000000e+00 0.000000000000000e+00

0.000000000000000e+00 0.000000000000000e+00 0.000000000000000e+00
0.000000000000000e+00 0.000000000000000e+00 0.000000000000000e+00
0.000000000000000e+00 0.000000000000000e+00 0.000000000000000e+00

0.000000000000000e+00 0.000000000000000e+00 0.000000000000000e+00
0.000000000000000e+00 0.000000000000000e+00 0.000000000000000e+00
0.000000000000000e+00 0.000000000000000e+00 0.000000000000000e+00

0.000000000000000e+00 0.000000000000000e+00 0.000000000000000e+00
0.000000000000000e+00 0.000000000000000e+00 0.000000000000000e+00
0.000000000000000e+00 0.000000000000000e+00 0.000000000000000e+00

0.000000000000000e+00 0.000000000000000e+00 0.000000000000000e+00
0.000000000000000e+00 0.000000000000000e+00 0.000000000000000e+00
0.000000000000000e+00 0.000000000000000e+00 0.000000000000000e+00

0.000000000000000e+00 0.000000000000000e+00 0.000000000000000e+00
0.000000000000000e+00 0.000000000000000e+00 0.000000000000000e+00
0.000000000000000e+00 0.000000000000000e+00 0.000000000000000e+00

0.000000000000000e+00 0.000000000000000e+00 0.000000000000000e+00
0.000000000000000e+00 0.000000000000000e+00 0.000000000000000e+00
0.000000000000000e+00 0.000000000000000e+00 0.000000000000000e+00

0.000000000000000e+00 0.000000000000000e+00 0.000000000000000e+00
0.000000000000000e+00 0.000000000000000e+00 0.000000000000000e+00
0.000000000000000e+00 0.000000000000000e+00 0.000000000000000e+00

0.000000000000000e+00 0.000000000000000e+00 0.000000000000000e+00
0.000000000000000e+00 0.000000000000000e+00 0.000000000000000e+00
0.000000000000000e+00 0.000000000000000e+00 0.000000000000000e+00

0.000000000000000e+00 0.000000000000000e+00 0.000000000000000e+00
0.000000000000000e+00 0.000000000000000e+00 0.000000000000000e+00
0.000000000000000e+00 0.000000000000000e+00 0.000000000000000e+00

0.000000000000000e+00 0.000000000000000e+00 0.000000000000000e+00
0.000000000000000e+00 0.000000000000000e+00 0.000000000000000e+00
0.000000000000000e+00 0.000000000000000e+00 0.000000000000000e+00

0.000000000000000e+00 0.000000000000000e+00 0.000000000000000e+00
0.000000000000000e+00 0.000000000000000e+00 0.000000000000000e+00
0.000000000000000e+00 0.000000000000000e+00 0.000000000000000e+00

0.000000000000000e+00 0.000000000000000e+00 0.000000000000000e+00
0.000000000000000e+00 0.000000000000000e+00 0.000000000000000e+00
0.000000000000000e+00 0.000000000000000e+00 0.000000000000000e+00

0.000000000000000e+00 0.000000000000000e+00 0.000000000000000e+00
0.000000000000000e+00 0.000000000000000e+00 0.000000000000000e+00
0.000000000000000e+00 0.000000000000000e+00 0.000000000000000e+00

0.000000000000000e+00 0.000000000000000e+00 0.000000000000000e+00
0.000000000000000e+00 0.000000000000000e+00 0.000000000000000e+00
0.000000000000000e+00 0.000000000000000e+00 0.000000000000000e+00

0.000000000000000e+00 0.000000000000000e+00 0.000000000000000e+00
0.000000000000000e+00 0.000000000000000e+00 0.000000000000000e+00
0.000000000000000e+00 0.000000000000000e+00 0.000000000000000e+00

0.000000000000000e+00 0.000000000000000e+00 0.000000000000000e+00
0.000000000000000e+00 0.000000000000000e+00 0.000000000000000e+00
0.000000000000000e+00 0.000000000000000e+00 0.000000000000000e+00

0.000000000000000e+00 0.000000000000000e+00 0.000000000000000e+00
0.000000000000000e+00 0.000000000000000e+00 0.000000000000000e+00
0.000000000000000e+00 0.000000000000000e+00 0.000000000000000e+00

0.000000000000000e+00 0.000000000000000e+00 0.000000000000000e+00
0.000000000000000e+00 0.000000000000000e+00 0.000000000000000e+00
0.000000000000000e+00 0.000000000000000e+00 0.000000000000000e+00

0.000000000000000e+00 0.000000000000000e+00 0.000000000000000e+00
0.000000000000000e+00 0.000000000000000e+00 0.000000000000000e+00
0.000000000000000e+00 0.000000000000000e+00 0.000000000000000e+00

0.000000000000000e+00 0.000000000000000e+00 0.000000000000000e+00
0.000000000000000e+00 0.000000000000000e+00 0.000000000000000e+00
0.000000000000000e+00 0.000000000000000e+00 0.000000000000000e+00

0.000000000000000e+00 0.000000000000000e+00 0.000000000000000e+00
0.000000000000000e+00 0.000000000000000e+00 0.000000000000000e+00
0.000000000000000e+00 0.000000000000000e+00 0.000000000000000e+00

0.000000000000000e+00 0.000000000000000e+00 0.000000000000000e+00
0.000000000000000e+00 0.000000000000000e+00 0.000000000000000e+00
0.000000000000000e+00 0.000000000000000e+00 0.000000000000000e+00

0.000000000000000e+00 0.000000000000000e+00 0.000000000000000e+00
0.000000000000000e+00 0.000000000000000e+00 0.000000000000000e+00
0.000000000000000e+00 0.000000000000000e+00 0.000000000000000e+00

0.000000000000000e+00 0.000000000000000e+00 0.000000000000000e+00
0.000000000000000e+00 0.000000000000000e+00 0.000000000000000e+00
0.000000000000000e+00 0.000000000000000e+00 0.000000000000000e+00

0.000000000000000e+00 0.000000000000000e+00 0.000000000000000e+00
0.000000000000000e+00 0.000000000000000e+00 0.000000000000000e+00
0.000000000000000e+00 0.000000000000000e+00 0.000000000000000e+00

0.000000000000000e+00 0.000000000000000e+00 0.000000000000000e+00
0.000000000000000e+00 0.000000000000000e+00 0.000000000000000e+00
0.000000000000000e+00 0.000000000000000e+00 0.000000000000000e+00

0.000000000000000e+00 0.000000000000000e+00 0.000000000000000e+00
0.000000000000000e+00 0.000000000000000e+00 0.000000000000000e+00
0.000000000000000e+00 0.000000000000000e+00 0.000000000000000e+00

0.000000000000000e+00 0.000000000000000e+00 0.000000000000000e+00
0.000000000000000e+00 0.000000000000000e+00 0.000000000000000e+00
0.000000000000000e+00 0.000000000000000e+00 0.000000000000000e+00

0.000000000000000e+00 0.000000000000000e+00 0.000000000000000e+00
0.000000000000000e+00 0.000000000000000e+00 0.000000000000000e+00
0.000000000000000e+00 0.000000000000000e+00 0.000000000000000e+00

0.000000000000000e+00 0.000000000000000e+00 0.000000000000000e+00
0.000000000000000e+00 0.000000000000000e+00 0.000000000000000e+00
0.000000000000000e+00 0.000000000000000e+00 0.000000000000000e+00

0.000000000000000e+00 0.000000000000000e+00 0.000000000000000e+00
0.000000000000000e+00 0.000000000000000e+00 0.000000000000000e+00
0.000000000000000e+00 0.000000000000000e+00 0.000000000000000e+00

0.000000000000000e+00 0.000000000000000e+00 0.000000000000000e+00
0.000000000000000e+00 0.000000000000000e+00 0.000000000000000e+00
0.000000000000000e+00 0.000000000000000e+00 0.000000000000000e+00

0.000000000000000e+00 0.000000000000000e+00 0.000000000000000e+00
0.000000000000000e+00 0.000000000000000e+00 0.000000000000000e+00
0.000000000000000e+00 0.000000000000000e+00 0.000000000000000e+00

0.000000000000000e+00 0.000000000000000e+00 0.000000000000000e+00
0.000000000000000e+00 0.000000000000000e+00 0.000000000000000e+00
0.000000000000000e+00 0.000000000000000e+00 0.000000000000000e+00

0.000000000000000e+00 0.000000000000000e+00 0.000000000000000e+00
0.000000000000000e+00 0.000000000000000e+00 0.000000000000000e+00
0.000000000000000e+00 0.000000000000000e+00 0.000000000000000e+00

0.000000000000000e+00 0.000000000000000e+00 0.000000000000000e+00
0.000000000000000e+00 0.000000000000000e+00 0.000000000000000e+00
0.000000000000000e+00 0.000000000000000e+00 0.000000000000000e+00

0.000000000000000e+00 0.000000000000000e+00 0.000000000000000e+00
0.000000000000000e+00 0.000000000000000e+00 0.000000000000000e+00
0.000000000000000e+00 0.000000000000000e+00 0.000000000000000e+00

0.000000000000000e+00 0.000000000000000e+00 0.000000000000000e+00
0.000000000000000e+00 0.000000000000000e+00 0.000000000000000e+00
0.000000000000000e+00 0.000000000000000e+00 0.000000000000000e+00

0.000000000000000e+00 0.000000000000000e+00 0.000000000000000e+00
0.000000000000000e+00 0.000000000000000e+00 0.000000000000000e+00
0.000000000000000e+00 0.000000000000000e+00 0.000000000000000e+00

0.000000000000000e+00 0.000000000000000e+00 0.000000000000000e+00
0.000000000000000e+00 0.000000000000000e+00 0.000000000000000e+00
0.000000000000000e+00 0.000000000000000e+00 0.000000000000000e+00

0.000000000000000e+00 0.000000000000000e+00 0.000000000000000e+00
0.000000000000000e+00 0.000000000000000e+00 0.000000000000000e+00
0.000000000000000e+00 0.000000000000000e+00 0.000000000000000e+00

0.000000000000000e+00 0.000000000000000e+00 0.000000000000000e+00
0.000000000000000e+00 0.000000000000000e+00 0.000000000000000e+00
0.000000000000000e+00 0.000000000000000e+00 0.000000000000000e+00

0.000000000000000e+00 0.000000000000000e+00 0.000000000000000e+00
0.000000000000000e+00 0.000000000000000e+00 0.000000000000000e+00
0.000000000000000e+00 0.000000000000000e+00 0.000000000000000e+00

0.000000000000000e+00 0.000000000000000e+00 0.000000000000000e+00
0.000000000000000e+00 0.000000000000000e+00 0.000000000000000e+00
0.000000000000000e+00 0.000000000000000e+00 0.000000000000000e+00

0.000000000000000e+00 0.000000000000000e+00 0.000000000000000e+00
0.000000000000000e+00 0.000000000000000e+00 0.000000000000000e+00
0.000000000000000e+00 0.000000000000000e+00 0.000000000000000e+00

0.000000000000000e+00 0.000000000000000e+00 0.000000000000000e+00
0.000000000000000e+00 0.000000000000000e+00 0.000000000000000e+00
0.000000000000000e+00 0.000000000000000e+00 0.000000000000000e+00

0.000000000000000e+00 0.000000000000000e+00 0.000000000000000e+00
0.000000000000000e+00 0.000000000000000e+00 0.000000000000000e+00
0.000000000000000e+00 0.000000000000000e+00 0.000000000000000e+00

0.000000000000000e+00 0.000000000000000e+00 0.000000000000000e+00
0.000000000000000e+00 0.000000000000000e+00 0.000000000000000e+00
0.000000000000000e+00 0.000000000000000e+00 0.000000000000000e+00

0.000000000000000e+00 0.000000000000000e+00 0.000000000000000e+00
0.000000000000000e+00 0.000000000000000e+00 0.000000000000000e+00
0.000000000000000e+00 0.000000000000000e+00 0.000000000000000e+00

0.000000000000000e+00 0.000000000000000e+00 0.000000000000000e+00
0.000000000000000e+00 0.000000000000000e+00 0.000000000000000e+00
0.000000000000000e+00 0.000000000000000e+00 0.000000000000000e+00

0.000000000000000e+00 0.000000000000000e+00 0.000000000000000e+00
0.000000000000000e+00 0.000000000000000e+00 0.000000000000000e+00
0.000000000000000e+00 0.000000000000000e+00 0.000000000000000e+00

0.000000000000000e+00 0.000000000000000e+00 0.000000000000000e+00
0.000000000000000e+00 0.000000000000000e+00 0.000000000000000e+00
0.000000000000000e+00 0.000000000000000e+00 0.000000000000000e+00

0.000000000000000e+00 0.000000000000000e+00 0.000000000000000e+00
0.000000000000000e+00 0.000000000000000e+00 0.000000000000000e+00
0.000000000000000e+00 0.000000000000000e+00 0.000000000000000e+00

0.000000000000000e+00 0.000000000000000e+00 0.000000000000000e+00
0.000000000000000e+00 0.000000000000000e+00 0.000000000000000e+00
0.000000000000000e+00 0.000000000000000e+00 0.000000000000000e+00

0.000000000000000e+00 0.000000000000000e+00 0.000000000000000e+00
0.000000000000000e+00 0.000000000000000e+00 0.000000000000000e+00
0.000000000000000e+00 0.000000000000000e+00 0.000000000000000e+00

0.000000000000000e+00 0.000000000000000e+00 0.000000000000000e+00
0.000000000000000e+00 0.000000000000000e+00 0.000000000000000e+00
0.000000000000000e+00 0.000000000000000e+00 0.000000000000000e+00

0.000000000000000e+00 0.000000000000000e+00 0.000000000000000e+00
0.000000000000000e+00 0.000000000000000e+00 0.000000000000000e+00
0.000000000000000e+00 0.000000000000000e+00 0.000000000000000e+00

0.000000000000000e+00 0.000000000000000e+00 0.000000000000000e+00
0.000000000000000e+00 0.000000000000000e+00 0.000000000000000e+00
0.000000000000000e+00 0.000000000000000e+00 0.000000000000000e+00

0.000000000000000e+00 0.000000000000000e+00 0.000000000000000e+00
0.000000000000000e+00 0.000000000000000e+00 0.000000000000000e+00
0.000000000000000e+00 0.000000000000000e+00 0.000000000000000e+00

0.000000000000000e+00 0.000000000000000e+00 0.000000000000000e+00
0.000000000000000e+00 0.000000000000000e+00 0.000000000000000e+00
0.000000000000000e+00 0.000000000000000e+00 0.000000000000000e+00

0.000000000000000e+00 0.000000000000000e+00 0.000000000000000e+00
0.000000000000000e+00 0.000000000000000e+00 0.000000000000000e+00
0.000000000000000e+00 0.000000000000000e+00 0.000000000000000e+00

0.000000000000000e+00 0.000000000000000e+00 0.000000000000000e+00
0.000000000000000e+00 0.000000000000000e+00 0.000000000000000e+00
0.000000000000000e+00 0.000000000000000e+00 0.000000000000000e+00

0.000000000000000e+00 0.000000000000000e+00 0.000000000000000e+00
0.000000000000000e+00 0.000000000000000e+00 0.000000000000000e+00
0.000000000000000e+00 0.000000000000000e+00 0.000000000000000e+00

0.000000000000000e+00 0.000000000000000e+00 0.000000000000000e+00
0.000000000000000e+00 0.000000000000000e+00 0.000000000000000e+00
0.000000000000000e+00 0.000000000000000e+00 0.000000000000000e+00

0.000000000000000e+00 0.000000000000000e+00 0.000000000000000e+00
0.000000000000000e+00 0.000000000000000e+00 0.000000000000000e+00
0.000000000000000e+00 0.000000000000000e+00 0.000000000000000e+00

0.000000000000000e+00 0.000000000000000e+00 0.000000000000000e+00
0.000000000000000e+00 0.000000000000000e+00 0.000000000000000e+00
0.000000000000000e+00 0.000000000000000e+00 0.000000000000000e+00

0.000000000000000e+00 0.000000000000000e+00 0.000000000000000e+00
0.000000000000000e+00 0.000000000000000e+00 0.000000000000000e+00
0.000000000000000e+00 0.000000000000000e+00 0.000000000000000e+00

0.000000000000000e+00 0.000000000000000e+00 0.000000000000000e+00
0.000000000000000e+00 0.000000000000000e+00 0.000000000000000e+00
0.000000000000000e+00 0.000000000000000e+00 0.000000000000000e+00

0.000000000000000e+00 0.000000000000000e+00 0.000000000000000e+00
0.000000000000000e+00 0.000000000000000e+00 0.000000000000000e+00
0.000000000000000e+00 0.000000000000000e+00 0.000000000000000e+00

0.000000000000000e+00 0.000000000000000e+00 0.000000000000000e+00
0.000000000000000e+00 0.000000000000000e+00 0.000000000000000e+00
0.000000000000000e+00 0.000000000000000e+00 0.000000000000000e+00

0.000000000000000e+00 0.000000000000000e+00 0.000000000000000e+00
0.000000000000000e+00 0.000000000000000e+00 0.000000000000000e+00
0.000000000000000e+00 0.000000000000000e+00 0.000000000000000e+00

0.000000000000000e+00 0.000000000000000e+00 0.000000000000000e+00
0.000000000000000e+00 0.000000000000000e+00 0.000000000000000e+00
0.000000000000000e+00 0.000000000000000e+00 0.000000000000000e+00

0.000000000000000e+00 0.000000000000000e+00 0.000000000000000e+00
0.000000000000000e+00 0.000000000000000e+00 0.000000000000000e+00
0.000000000000000e+00 0.000000000000000e+00 0.000000000000000e+00

0.000000000000000e+00 0.000000000000000e+00 0.000000000000000e+00
0.000000000000000e+00 0.000000000000000e+00 0.000000000000000e+00
0.000000000000000e+00 0.000000000000000e+00 0.000000000000000e+00

0.000000000000000e+00 0.000000000000000e+00 0.000000000000000e+00
0.000000000000000e+00 0.000000000000000e+00 0.000000000000000e+00
0.000000000000000e+00 0.000000000000000e+00 0.000000000000000e+00

0.000000000000000e+00 0.000000000000000e+00 0.000000000000000e+00
0.000000000000000e+00 0.000000000000000e+00 0.000000000000000e+00
0.000000000000000e+00 0.000000000000000e+00 0.000000000000000e+00

0.000000000000000e+00 0.000000000000000e+00 0.000000000000000e+00
0.000000000000000e+00 0.000000000000000e+00 0.000000000000000e+00
0.000000000000000e+00 0.000000000000000e+00 0.000000000000000e+00

0.000000000000000e+00 0.000000000000000e+00 0.000000000000000e+00
0.000000000000000e+00 0.000000000000000e+00 0.000000000000000e+00
0.000000000000000e+00 0.000000000000000e+00 0.000000000000000e+00

0.000000000000000e+00 0.000000000000000e+00 0.000000000000000e+00
0.000000000000000e+00 0.000000000000000e+00 0.000000000000000e+00
0.000000000000000e+00 0.000000000000000e+00 0.000000000000000e+00

0.000000000000000e+00 0.000000000000000e+00 0.000000000000000e+00
0.000000000000000e+00 0.000000000000000e+00 0.000000000000000e+00
0.000000000000000e+00 0.000000000000000e+00 0.000000000000000e+00

0.000000000000000e+00 0.000000000000000e+00 0.000000000000000e+00
0.000000000000000e+00 0.000000000000000e+00 0.000000000000000e+00
0.000000000000000e+00 0.000000000000000e+00 0.000000000000000e+00

0.000000000000000e+00 0.000000000000000e+00 0.000000000000000e+00
0.000000000000000e+00 0.000000000000000e+00 0.000000000000000e+00
0.000000000000000e+00 0.000000000000000e+00 0.000000000000000e+00

0.000000000000000e+00 0.000000000000000e+00 0.000000000000000e+00
0.000000000000000e+00 0.000000000000000e+00 0.000000000000000e+00
0.000000000000000e+00 0.000000000000000e+00 0.000000000000000e+00

0.000000000000000e+00 0.000000000000000e+00 0.000000000000000e+00
0.000000000000000e+00 0.000000000000000e+00 0.000000000000000e+00
0.000000000000000e+00 0.000000000000000e+00 0.000000000000000e+00

0.000000000000000e+00 0.000000000000000e+00 0.000000000000000e+00
0.000000000000000e+00 0.000000000000000e+00 0.000000000000000e+00
0.000000000000000e+00 0.000000000000000e+00 0.000000000000000e+00

0.000000000000000e+00 0.000000000000000e+00 0.000000000000000e+00
0.000000000000000e+00 0.000000000000000e+00 0.000000000000000e+00
0.000000000000000e+00 0.000000000000000e+00 0.000000000000000e+00

0.000000000000000e+00 0.000000000000000e+00 0.000000000000000e+00
0.000000000000000e+00 0.000000000000000e+00 0.000000000000000e+00
0.000000000000000e+00 0.000000000000000e+00 0.000000000000000e+00

0.000000000000000e+00 0.000000000000000e+00 0.000000000000000e+00
0.000000000000000e+00 0.000000000000000e+00 0.000000000000000e+00
0.000000000000000e+00 0.000000000000000e+00 0.000000000000000e+00

0.000000000000000e+00 0.000000000000000e+00 0.000000000000000e+00
0.000000000000000e+00 0.000000000000000e+00 0.000000000000000e+00
0.000000000000000e+00 0.000000000000000e+00 0.000000000000000e+00

0.000000000000000e+00 0.000000000000000e+00 0.000000000000000e+00
0.000000000000000e+00 0.000000000000000e+00 0.000000000000000e+00
0.000000000000000e+00 0.000000000000000e+00 0.000000000000000e+00

0.000000000000000e+00 0.000000000000000e+00 0.000000000000000e+00
0.000000000000000e+00 0.000000000000000e+00 0.000000000000000e+00
0.000000000000000e+00 0.000000000000000e+00 0.000000000000000e+00

0.000000000000000e+00 0.000000000000000e+00 0.000000000000000e+00
0.000000000000000e+00 0.000000000000000e+00 0.000000000000000e+00
0.000000000000000e+00 0.000000000000000e+00 0.000000000000000e+00

0.000000000000000e+00 0.000000000000000e+00 0.000000000000000e+00
0.000000000000000e+00 0.000000000000000e+00 0.000000000000000e+00
0.000000000000000e+00 0.000000000000000e+00 0.000000000000000e+00

0.000000000000000e+00 0.000000000000000e+00 0.000000000000000e+00
0.000000000000000e+00 0.000000000000000e+00 0.000000000000000e+00
0.000000000000000e+00 0.000000000000000e+00 0.000000000000000e+00

0.000000000000000e+00 0.000000000000000e+00 0.000000000000000e+00
0.000000000000000e+00 0.000000000000000e+00 0.000000000000000e+00
0.000000000000000e+00 0.000000000000000e+00 0.000000000000000e+00

0.000000000000000e+00 0.000000000000000e+00 0.000000000000000e+00
0.000000000000000e+00 0.000000000000000e+00 0.000000000000000e+00
0.000000000000000e+00 0.000000000000000e+00 0.000000000000000e+00

0.000000000000000e+00 0.000000000000000e+00 0.000000000000000e+00
0.000000000000000e+00 0.000000000000000e+00 0.000000000000000e+00
0.000000000000000e+00 0.000000000000000e+00 0.000000000000000e+00

0.000000000000000e+00 0.000000000000000e+00 0.000000000000000e+00
0.000000000000000e+00 0.000000000000000e+00 0.000000000000000e+00
0.000000000000000e+00 0.000000000000000e+00 0.000000000000000e+00

0.000000000000000e+00 0.000000000000000e+00 0.000000000000000e+00
0.000000000000000e+00 0.000000000000000e+00 0.000000000000000e+00
0.000000000000000e+00 0.000000000000000e+00 0.000000000000000e+00

0.000000000000000e+00 0.000000000000000e+00 0.000000000000000e+00
0.000000000000000e+00 0.000000000000000e+00 0.000000000000000e+00
0.000000000000000e+00 0.000000000000000e+00 0.000000000000000e+00

0.000000000000000e+00 0.000000000000000e+00 0.000000000000000e+00
0.000000000000000e+00 0.000000000000000e+00 0.000000000000000e+00
0.000000000000000e+00 0.000000000000000e+00 0.000000000000000e+00

0.000000000000000e+00 0.000000000000000e+00 0.000000000000000e+00
0.000000000000000e+00 0.000000000000000e+00 0.000000000000000e+00
0.000000000000000e+00 0.000000000000000e+00 0.000000000000000e+00

0.000000000000000e+00 0.000000000000000e+00 0.000000000000000e+00
0.000000000000000e+00 0.000000000000000e+00 0.000000000000000e+00
0.000000000000000e+00 0.000000000000000e+00 0.000000000000000e+00

0.000000000000000e+00 0.000000000000000e+00 0.000000000000000e+00
0.000000000000000e+00 0.000000000000000e+00 0.000000000000000e+00
0.000000000000000e+00 0.000000000000000e+00 0.000000000000000e+00

0.000000000000000e+00 0.000000000000000e+00 0.000000000000000e+00
0.000000000000000e+00 0.000000000000000e+00 0.000000000000000e+00
0.000000000000000e+00 0.000000000000000e+00 0.000000000000000e+00

0.000000000000000e+00 0.000000000000000e+00 0.000000000000000e+00
0.000000000000000e+00 0.000000000000000e+00 0.000000000000000e+00
0.000000000000000e+00 0.000000000000000e+00 0.000000000000000e+00

0.000000000000000e+00 0.000000000000000e+00 0.000000000000000e+00
0.000000000000000e+00 0.000000000000000e+00 0.000000000000000e+00
0.000000000000000e+00 0.000000000000000e+00 0.000000000000000e+00

0.000000000000000e+00 0.000000000000000e+00 0.000000000000000e+00
0.000000000000000e+00 0.000000000000000e+00 0.000000000000000e+00
0.000000000000000e+00 0.000000000000000e+00 0.000000000000000e+00

0.000000000000000e+00 0.000000000000000e+00 0.000000000000000e+00
0.000000000000000e+00 0.000000000000000e+00 0.000000000000000e+00
0.000000000000000e+00 0.000000000000000e+00 0.000000000000000e+00

0.000000000000000e+00 0.000000000000000e+00 0.000000000000000e+00
0.000000000000000e+00 0.000000000000000e+00 0.000000000000000e+00
0.000000000000000e+00 0.000000000000000e+00 0.000000000000000e+00

0.000000000000000e+00 0.000000000000000e+00 0.000000000000000e+00
0.000000000000000e+00 0.000000000000000e+00 0.000000000000000e+00
0.000000000000000e+00 0.000000000000000e+00 0.000000000000000e+00

0.000000000000000e+00 0.000000000000000e+00 0.000000000000000e+00
0.000000000000000e+00 0.000000000000000e+00 0.000000000000000e+00
0.000000000000000e+00 0.000000000000000e+00 0.000000000000000e+00

0.000000000000000e+00 0.000000000000000e+00 0.000000000000000e+00
0.000000000000000e+00 0.000000000000000e+00 0.000000000000000e+00
0.000000000000000e+00 0.000000000000000e+00 0.000000000000000e+00

0.000000000000000e+00 0.000000000000000e+00 0.000000000000000e+00
0.000000000000000e+00 0.000000000000000e+00 0.000000000000000e+00
0.000000000000000e+00 0.000000000000000e+00 0.000000000000000e+00

0.000000000000000e+00 0.000000000000000e+00 0.000000000000000e+00
0.000000000000000e+00 0.000000000000000e+00 0.000000000000000e+00
0.000000000000000e+00 0.000000000000000e+00 0.000000000000000e+00

0.000000000000000e+00 0.000000000000000e+00 0.000000000000000e+00
0.000000000000000e+00 0.000000000000000e+00 0.000000000000000e+00
0.000000000000000e+00 0.000000000000000e+00 0.000000000000000e+00

0.000000000000000e+00 0.000000000000000e+00 0.000000000000000e+00
0.000000000000000e+00 0.000000000000000e+00 0.000000000000000e+00
0.000000000000000e+00 0.000000000000000e+00 0.000000000000000e+00

0.000000000000000e+00 0.000000000000000e+00 0.000000000000000e+00
0.000000000000000e+00 0.000000000000000e+00 0.000000000000000e+00
0.000000000000000e+00 0.000000000000000e+00 0.000000000000000e+00

0.000000000000000e+00 0.000000000000000e+00 0.000000000000000e+00
0.000000000000000e+00 0.000000000000000e+00 0.000000000000000e+00
0.000000000000000e+00 0.000000000000000e+00 0.000000000000000e+00

0.000000000000000e+00 0.000000000000000e+00 0.000000000000000e+00
0.000000000000000e+00 0.000000000000000e+00 0.000000000000000e+00
0.000000000000000e+00 0.000000000000000e+00 0.000000000000000e+00

0.000000000000000e+00 0.000000000000000e+00 0.000000000000000e+00
0.000000000000000e+00 0.000000000000000e+00 0.000000000000000e+00
0.000000000000000e+00 0.000000000000000e+00 0.000000000000000e+00

0.000000000000000e+00 0.000000000000000e+00 0.000000000000000e+00
0.000000000000000e+00 0.000000000000000e+00 0.000000000000000e+00
0.000000000000000e+00 0.000000000000000e+00 0.000000000000000e+00

0.000000000000000e+00 0.000000000000000e+00 0.000000000000000e+00
0.000000000000000e+00 0.000000000000000e+00 0.000000000000000e+00
0.000000000000000e+00 0.000000000000000e+00 0.000000000000000e+00

0.000000000000000e+00 0.000000000000000e+00 0.000000000000000e+00
0.000000000000000e+00 0.000000000000000e+00 0.000000000000000e+00
0.000000000000000e+00 0.000000000000000e+00 0.000000000000000e+00

0.000000000000000e+00 0.000000000000000e+00 0.000000000000000e+00
0.000000000000000e+00 0.000000000000000e+00 0.000000000000000e+00
0.000000000000000e+00 0.000000000000000e+00 0.000000000000000e+00

0.000000000000000e+00 0.000000000000000e+00 0.000000000000000e+00
0.000000000000000e+00 0.000000000000000e+00 0.000000000000000e+00
0.000000000000000e+00 0.000000000000000e+00 0.000000000000000e+00

0.000000000000000e+00 0.000000000000000e+00 0.000000000000000e+00
0.000000000000000e+00 0.000000000000000e+00 0.000000000000000e+00
0.000000000000000e+00 0.000000000000000e+00 0.000000000000000e+00

0.000000000000000e+00 0.000000000000000e+00 0.000000000000000e+00
0.000000000000000e+00 0.000000000000000e+00 0.000000000000000e+00
0.000000000000000e+00 0.000000000000000e+00 0.000000000000000e+00

0.000000000000000e+00 0.000000000000000e+00 0.000000000000000e+00
0.000000000000000e+00 0.000000000000000e+00 0.000000000000000e+00
0.000000000000000e+00 0.000000000000000e+00 0.000000000000000e+00

0.000000000000000e+00 0.000000000000000e+00 0.000000000000000e+00
0.000000000000000e+00 0.000000000000000e+00 0.000000000000000e+00
0.000000000000000e+00 0.000000000000000e+00 0.000000000000000e+00

0.000000000000000e+00 0.000000000000000e+00 0.000000000000000e+00
0.000000000000000e+00 0.000000000000000e+00 0.000000000000000e+00
0.000000000000000e+00 0.000000000000000e+00 0.000000000000000e+00

0.000000000000000e+00 0.000000000000000e+00 0.000000000000000e+00
0.000000000000000e+00 0.000000000000000e+00 0.000000000000000e+00
0.000000000000000e+00 0.000000000000000e+00 0.000000000000000e+00

0.000000000000000e+00 0.000000000000000e+00 0.000000000000000e+00
0.000000000000000e+00 0.000000000000000e+00 0.000000000000000e+00
0.000000000000000e+00 0.000000000000000e+00 0.000000000000000e+00

0.000000000000000e+00 0.000000000000000e+00 0.000000000000000e+00
0.000000000000000e+00 0.000000000000000e+00 0.000000000000000e+00
0.000000000000000e+00 0.000000000000000e+00 0.000000000000000e+00

0.000000000000000e+00 0.000000000000000e+00 0.000000000000000e+00
0.000000000000000e+00 0.000000000000000e+00 0.000000000000000e+00
0.000000000000000e+00 0.000000000000000e+00 0.000000000000000e+00

0.000000000000000e+00 0.000000000000000e+00 0.000000000000000e+00
0.000000000000000e+00 0.000000000000000e+00 0.000000000000000e+00
0.000000000000000e+00 0.000000000000000e+00 0.000000000000000e+00

0.000000000000000e+00 0.000000000000000e+00 0.000000000000000e+00
0.000000000000000e+00 0.000000000000000e+00 0.000000000000000e+00
0.000000000000000e+00 0.000000000000000e+00 0.000000000000000e+00

0.000000000000000e+00 0.000000000000000e+00 0.000000000000000e+00
0.000000000000000e+00 0.000000000000000e+00 0.000000000000000e+00
0.000000000000000e+00 0.000000000000000e+00 0.000000000000000e+00

0.000000000000000e+00 0.000000000000000e+00 0.000000000000000e+00
0.000000000000000e+00 0.000000000000000e+00 0.000000000000000e+00
0.000000000000000e+00 0.000000000000000e+00 0.000000000000000e+00

0.000000000000000e+00 0.000000000000000e+00 0.000000000000000e+00
0.000000000000000e+00 0.000000000000000e+00 0.000000000000000e+00
0.000000000000000e+00 0.000000000000000e+00 0.000000000000000e+00

0.000000000000000e+00 0.000000000000000e+00 0.000000000000000e+00
0.000000000000000e+00 0.000000000000000e+00 0.000000000000000e+00
0.000000000000000e+00 0.000000000000000e+00 0.000000000000000e+00

0.000000000000000e+00 0.000000000000000e+00 0.000000000000000e+00
0.000000000000000e+00 0.000000000000000e+00 0.000000000000000e+00
0.000000000000000e+00 0.000000000000000e+00 0.000000000000000e+00

0.000000000000000e+00 0.000000000000000e+00 0.000000000000000e+00
0.000000000000000e+00 0.000000000000000e+00 0.000000000000000e+00
0.000000000000000e+00 0.000000000000000e+00 0.000000000000000e+00

0.000000000000000e+00 0.000000000000000e+00 0.000000000000000e+00
0.000000000000000e+00 0.000000000000000e+00 0.000000000000000e+00
0.000000000000000e+00 0.000000000000000e+00 0.000000000000000e+00

0.000000000000000e+00 0.000000000000000e+00 0.000000000000000e+00
0.000000000000000e+00 0.000000000000000e+00 0.000000000000000e+00
0.000000000000000e+00 0.000000000000000e+00 0.000000000000000e+00

0.000000000000000e+00 0.000000000000000e+00 0.000000000000000e+00
0.000000000000000e+00 0.000000000000000e+00 0.000000000000000e+00
0.000000000000000e+00 0.000000000000000e+00 0.000000000000000e+00

0.000000000000000e+00 0.000000000000000e+00 0.000000000000000e+00
0.000000000000000e+00 0.000000000000000e+00 0.000000000000000e+00
0.000000000000000e+00 0.000000000000000e+00 0.000000000000000e+00

0.000000000000000e+00 0.000000000000000e+00 0.000000000000000e+00
0.000000000000000e+00 0.000000000000000e+00 0.000000000000000e+00
0.000000000000000e+00 0.000000000000000e+00 0.000000000000000e+00

0.000000000000000e+00 0.000000000000000e+00 0.000000000000000e+00
0.000000000000000e+00 0.000000000000000e+00 0.000000000000000e+00
0.000000000000000e+00 0.000000000000000e+00 0.000000000000000e+00

0.000000000000000e+00 0.000000000000000e+00 0.000000000000000e+00
0.000000000000000e+00 0.000000000000000e+00 0.000000000000000e+00
0.000000000000000e+00 0.000000000000000e+00 0.000000000000000e+00

0.000000000000000e+00 0.000000000000000e+00 0.000000000000000e+00
0.000000000000000e+00 0.000000000000000e+00 0.000000000000000e+00
0.000000000000000e+00 0.000000000000000e+00 0.000000000000000e+00

0.000000000000000e+00 0.000000000000000e+00 0.000000000000000e+00
0.000000000000000e+00 0.000000000000000e+00 0.000000000000000e+00
0.000000000000000e+00 0.000000000000000e+00 0.000000000000000e+00

0.000000000000000e+00 0.000000000000000e+00 0.000000000000000e+00
0.000000000000000e+00 0.000000000000000e+00 0.000000000000000e+00
0.000000000000000e+00 0.000000000000000e+00 0.000000000000000e+00

0.000000000000000e+00 0.000000000000000e+00 0.000000000000000e+00
0.000000000000000e+00 0.000000000000000e+00 0.000000000000000e+00
0.000000000000000e+00 0.000000000000000e+00 0.000000000000000e+00

0.000000000000000e+00 0.000000000000000e+00 0.000000000000000e+00
0.000000000000000e+00 0.000000000000000e+00 0.000000000000000e+00
0.000000000000000e+00 0.000000000000000e+00 0.000000000000000e+00

0.000000000000000e+00 0.000000000000000e+00 0.000000000000000e+00
0.000000000000000e+00 0.000000000000000e+00 0.000000000000000e+00
0.000000000000000e+00 0.000000000000000e+00 0.000000000000000e+00

0.000000000000000e+00 0.000000000000000e+00 0.000000000000000e+00
0.000000000000000e+00 0.000000000000000e+00 0.000000000000000e+00
0.000000000000000e+00 0.000000000000000e+00 0.000000000000000e+00

0.000000000000000e+00 0.000000000000000e+00 0.000000000000000e+00
0.000000000000000e+00 0.000000000000000e+00 0.000000000000000e+00
0.000000000000000e+00 0.000000000000000e+00 0.000000000000000e+00

0.000000000000000e+00 0.000000000000000e+00 0.000000000000000e+00
0.000000000000000e+00 0.000000000000000e+00 0.000000000000000e+00
0.000000000000000e+00 0.000000000000000e+00 0.000000000000000e+00

0.000000000000000e+00 0.000000000000000e+00 0.000000000000000e+00
0.000000000000000e+00 0.000000000000000e+00 0.000000000000000e+00
0.000000000000000e+00 0.000000000000000e+00 0.000000000000000e+00

0.000000000000000e+00 0.000000000000000e+00 0.000000000000000e+00
0.000000000000000e+00 0.000000000000000e+00 0.000000000000000e+00
0.000000000000000e+00 0.000000000000000e+00 0.000000000000000e+00

0.000000000000000e+00 0.000000000000000e+00 0.000000000000000e+00
0.000000000000000e+00 0.000000000000000e+00 0.000000000000000e+00
0.000000000000000e+00 0.000000000000000e+00 0.000000000000000e+00

0.000000000000000e+00 0.000000000000000e+00 0.000000000000000e+00
0.000000000000000e+00 0.000000000000000e+00 0.000000000000000e+00
0.000000000000000e+00 0.000000000000000e+00 0.000000000000000e+00

0.000000000000000e+00 0.000000000000000e+00 0.000000000000000e+00
0.000000000000000e+00 0.000000000000000e+00 0.000000000000000e+00
0.000000000000000e+00 0.000000000000000e+00 0.000000000000000e+00

0.000000000000000e+00 0.000000000000000e+00 0.000000000000000e+00
0.000000000000000e+00 0.000000000000000e+00 0.000000000000000e+00
0.000000000000000e+00 0.000000000000000e+00 0.000000000000000e+00

0.000000000000000e+00 0.000000000000000e+00 0.000000000000000e+00
0.000000000000000e+00 0.000000000000000e+00 0.000000000000000e+00
0.000000000000000e+00 0.000000000000000e+00 0.000000000000000e+00

0.000000000000000e+00 0.000000000000000e+00 0.000000000000000e+00
0.000000000000000e+00 0.000000000000000e+00 0.000000000000000e+00
0.000000000000000e+00 0.000000000000000e+00 0.000000000000000e+00

0.000000000000000e+00 0.000000000000000e+00 0.000000000000000e+00
0.000000000000000e+00 0.000000000000000e+00 0.000000000000000e+00
0.000000000000000e+00 0.000000000000000e+00 0.000000000000000e+00

0.000000000000000e+00 0.000000000000000e+00 0.000000000000000e+00
0.000000000000000e+00 0.000000000000000e+00 0.000000000000000e+00
0.000000000000000e+00 0.000000000000000e+00 0.000000000000000e+00

0.000000000000000e+00 0.000000000000000e+00 0.000000000000000e+00
0.000000000000000e+00 0.000000000000000e+00 0.000000000000000e+00
0.000000000000000e+00 0.000000000000000e+00 0.000000000000000e+00

0.000000000000000e+00 0.000000000000000e+00 0.000000000000000e+00
0.000000000000000e+00 0.000000000000000e+00 0.000000000000000e+00
0.000000000000000e+00 0.000000000000000e+00 0.000000000000000e+00

0.000000000000000e+00 0.000000000000000e+00 0.000000000000000e+00
0.000000000000000e+00 0.000000000000000e+00 0.000000000000000e+00
0.000000000000000e+00 0.000000000000000e+00 0.000000000000000e+00

0.000000000000000e+00 0.000000000000000e+00 0.000000000000000e+00
0.000000000000000e+00 0.000000000000000e+00 0.000000000000000e+00
0.000000000000000e+00 0.000000000000000e+00 0.000000000000000e+00

0.000000000000000e+00 0.000000000000000e+00 0.000000000000000e+00
0.000000000000000e+00 0.000000000000000e+00 0.000000000000000e+00
0.000000000000000e+00 0.000000000000000e+00 0.000000000000000e+00

0.000000000000000e+00 0.000000000000000e+00 0.000000000000000e+00
0.000000000000000e+00 0.000000000000000e+00 0.000000000000000e+00
0.000000000000000e+00 0.000000000000000e+00 0.000000000000000e+00

0.000000000000000e+00 0.000000000000000e+00 0.000000000000000e+00
0.000000000000000e+00 0.000000000000000e+00 0.000000000000000e+00
0.000000000000000e+00 0.000000000000000e+00 0.000000000000000e+00

0.000000000000000e+00 0.000000000000000e+00 0.000000000000000e+00
0.000000000000000e+00 0.000000000000000e+00 0.000000000000000e+00
0.000000000000000e+00 0.000000000000000e+00 0.000000000000000e+00

0.000000000000000e+00 0.000000000000000e+00 0.000000000000000e+00
0.000000000000000e+00 0.000000000000000e+00 0.000000000000000e+00
0.000000000000000e+00 0.000000000000000e+00 0.000000000000000e+00

0.000000000000000e+00 0.000000000000000e+00 0.000000000000000e+00
0.000000000000000e+00 0.000000000000000e+00 0.000000000000000e+00
0.000000000000000e+00 0.000000000000000e+00 0.000000000000000e+00

0.000000000000000e+00 0.000000000000000e+00 0.000000000000000e+00
0.000000000000000e+00 0.000000000000000e+00 0.000000000000000e+00
0.000000000000000e+00 0.000000000000000e+00 0.000000000000000e+00

0.000000000000000e+00 0.000000000000000e+00 0.000000000000000e+00
0.000000000000000e+00 0.000000000000000e+00 0.000000000000000e+00
0.000000000000000e+00 0.000000000000000e+00 0.000000000000000e+00

0.000000000000000e+00 0.000000000000000e+00 0.000000000000000e+00
0.000000000000000e+00 0.000000000000000e+00 0.000000000000000e+00
0.000000000000000e+00 0.000000000000000e+00 0.000000000000000e+00

0.000000000000000e+00 0.000000000000000e+00 0.000000000000000e+00
0.000000000000000e+00 0.000000000000000e+00 0.000000000000000e+00
0.000000000000000e+00 0.000000000000000e+00 0.000000000000000e+00

0.000000000000000e+00 0.000000000000000e+00 0.000000000000000e+00
0.000000000000000e+00 0.000000000000000e+00 0.000000000000000e+00
0.000000000000000e+00 0.000000000000000e+00 0.000000000000000e+00

0.000000000000000e+00 0.000000000000000e+00 0.000000000000000e+00
0.000000000000000e+00 0.000000000000000e+00 0.000000000000000e+00
0.000000000000000e+00 0.000000000000000e+00 0.000000000000000e+00

0.000000000000000e+00 0.000000000000000e+00 0.000000000000000e+00
0.000000000000000e+00 0.000000000000000e+00 0.000000000000000e+00
0.000000000000000e+00 0.000000000000000e+00 0.000000000000000e+00

0.000000000000000e+00 0.000000000000000e+00 0.000000000000000e+00
0.000000000000000e+00 0.000000000000000e+00 0.000000000000000e+00
0.000000000000000e+00 0.000000000000000e+00 0.000000000000000e+00

0.000000000000000e+00 0.000000000000000e+00 0.000000000000000e+00
0.000000000000000e+00 0.000000000000000e+00 0.000000000000000e+00
0.000000000000000e+00 0.000000000000000e+00 0.000000000000000e+00

0.000000000000000e+00 0.000000000000000e+00 0.000000000000000e+00
0.000000000000000e+00 0.000000000000000e+00 0.000000000000000e+00
0.000000000000000e+00 0.000000000000000e+00 0.000000000000000e+00

0.000000000000000e+00 0.000000000000000e+00 0.000000000000000e+00
0.000000000000000e+00 0.000000000000000e+00 0.000000000000000e+00
0.000000000000000e+00 0.000000000000000e+00 0.000000000000000e+00

0.000000000000000e+00 0.000000000000000e+00 0.000000000000000e+00
0.000000000000000e+00 0.000000000000000e+00 0.000000000000000e+00
0.000000000000000e+00 0.000000000000000e+00 0.000000000000000e+00

0.000000000000000e+00 0.000000000000000e+00 0.000000000000000e+00
0.000000000000000e+00 0.000000000000000e+00 0.000000000000000e+00
0.000000000000000e+00 0.000000000000000e+00 0.000000000000000e+00

0.000000000000000e+00 0.000000000000000e+00 0.000000000000000e+00
0.000000000000000e+00 0.000000000000000e+00 0.000000000000000e+00
0.000000000000000e+00 0.000000000000000e+00 0.000000000000000e+00

0.000000000000000e+00 0.000000000000000e+00 0.000000000000000e+00
0.000000000000000e+00 0.000000000000000e+00 0.000000000000000e+00
0.000000000000000e+00 0.000000000000000e+00 0.000000000000000e+00

0.000000000000000e+00 0.000000000000000e+00 0.000000000000000e+00
0.000000000000000e+00 0.000000000000000e+00 0.000000000000000e+00
0.000000000000000e+00 0.000000000000000e+00 0.000000000000000e+00

0.000000000000000e+00 0.000000000000000e+00 0.000000000000000e+00
0.000000000000000e+00 0.000000000000000e+00 0.000000000000000e+00
0.000000000000000e+00 0.000000000000000e+00 0.000000000000000e+00

0.000000000000000e+00 0.000000000000000e+00 0.000000000000000e+00
0.000000000000000e+00 0.000000000000000e+00 0.000000000000000e+00
0.000000000000000e+00 0.000000000000000e+00 0.000000000000000e+00

0.000000000000000e+00 0.000000000000000e+00 0.000000000000000e+00
0.000000000000000e+00 0.000000000000000e+00 0.000000000000000e+00
0.000000000000000e+00 0.000000000000000e+00 0.000000000000000e+00

0.000000000000000e+00 0.000000000000000e+00 0.000000000000000e+00
0.000000000000000e+00 0.000000000000000e+00 0.000000000000000e+00
0.000000000000000e+00 0.000000000000000e+00 0.000000000000000e+00

0.000000000000000e+00 0.000000000000000e+00 0.000000000000000e+00
0.000000000000000e+00 0.000000000000000e+00 0.000000000000000e+00
0.000000000000000e+00 0.000000000000000e+00 0.000000000000000e+00

0.000000000000000e+00 0.000000000000000e+00 0.000000000000000e+00
0.000000000000000e+00 0.000000000000000e+00 0.000000000000000e+00
0.000000000000000e+00 0.000000000000000e+00 0.000000000000000e+00

0.000000000000000e+00 0.000000000000000e+00 0.000000000000000e+00
0.000000000000000e+00 0.000000000000000e+00 0.000000000000000e+00
0.000000000000000e+00 0.000000000000000e+00 0.000000000000000e+00

0.000000000000000e+00 0.000000000000000e+00 0.000000000000000e+00
0.000000000000000e+00 0.000000000000000e+00 0.000000000000000e+00
0.000000000000000e+00 0.000000000000000e+00 0.000000000000000e+00

0.000000000000000e+00 0.000000000000000e+00 0.000000000000000e+00
0.000000000000000e+00 0.000000000000000e+00 0.000000000000000e+00
0.000000000000000e+00 0.000000000000000e+00 0.000000000000000e+00

0.000000000000000e+00 0.000000000000000e+00 0.000000000000000e+00
0.000000000000000e+00 0.000000000000000e+00 0.000000000000000e+00
0.000000000000000e+00 0.000000000000000e+00 0.000000000000000e+00

0.000000000000000e+00 0.000000000000000e+00 0.000000000000000e+00
0.000000000000000e+00 0.000000000000000e+00 0.000000000000000e+00
0.000000000000000e+00 0.000000000000000e+00 0.000000000000000e+00

0.000000000000000e+00 0.000000000000000e+00 0.000000000000000e+00
0.000000000000000e+00 0.000000000000000e+00 0.000000000000000e+00
0.000000000000000e+00 0.000000000000000e+00 0.000000000000000e+00

0.000000000000000e+00 0.000000000000000e+00 0.000000000000000e+00
0.000000000000000e+00 0.000000000000000e+00 0.000000000000000e+00
0.000000000000000e+00 0.000000000000000e+00 0.000000000000000e+00

0.000000000000000e+00 0.000000000000000e+00 0.000000000000000e+00
0.000000000000000e+00 0.000000000000000e+00 0.000000000000000e+00
0.000000000000000e+00 0.000000000000000e+00 0.000000000000000e+00

0.000000000000000e+00 0.000000000000000e+00 0.000000000000000e+00
0.000000000000000e+00 0.000000000000000e+00 0.000000000000000e+00
0.000000000000000e+00 0.000000000000000e+00 0.000000000000000e+00

0.000000000000000e+00 0.000000000000000e+00 0.000000000000000e+00
0.000000000000000e+00 0.000000000000000e+00 0.000000000000000e+00
0.000000000000000e+00 0.000000000000000e+00 0.000000000000000e+00

0.000000000000000e+00 0.000000000000000e+00 0.000000000000000e+00
0.000000000000000e+00 0.000000000000000e+00 0.000000000000000e+00
0.000000000000000e+00 0.000000000000000e+00 0.000000000000000e+00

0.000000000000000e+00 0.000000000000000e+00 0.000000000000000e+00
0.000000000000000e+00 0.000000000000000e+00 0.000000000000000e+00
0.000000000000000e+00 0.000000000000000e+00 0.000000000000000e+00

0.000000000000000e+00 0.000000000000000e+00 0.000000000000000e+00
0.000000000000000e+00 0.000000000000000e+00 0.000000000000000e+00
0.000000000000000e+00 0.000000000000000e+00 0.000000000000000e+00

0.000000000000000e+00 0.000000000000000e+00 0.000000000000000e+00
0.000000000000000e+00 0.000000000000000e+00 0.000000000000000e+00
0.000000000000000e+00 0.000000000000000e+00 0.000000000000000e+00

0.000000000000000e+00 0.000000000000000e+00 0.000000000000000e+00
0.000000000000000e+00 0.000000000000000e+00 0.000000000000000e+00
0.000000000000000e+00 0.000000000000000e+00 0.000000000000000e+00

0.000000000000000e+00 0.000000000000000e+00 0.000000000000000e+00
0.000000000000000e+00 0.000000000000000e+00 0.000000000000000e+00
0.000000000000000e+00 0.000000000000000e+00 0.000000000000000e+00

0.000000000000000e+00 0.000000000000000e+00 0.000000000000000e+00
0.000000000000000e+00 0.000000000000000e+00 0.000000000000000e+00
0.000000000000000e+00 0.000000000000000e+00 0.000000000000000e+00

0.000000000000000e+00 0.000000000000000e+00 0.000000000000000e+00
0.000000000000000e+00 0.000000000000000e+00 0.000000000000000e+00
0.000000000000000e+00 0.000000000000000e+00 0.000000000000000e+00

0.000000000000000e+00 0.000000000000000e+00 0.000000000000000e+00
0.000000000000000e+00 0.000000000000000e+00 0.000000000000000e+00
0.000000000000000e+00 0.000000000000000e+00 0.000000000000000e+00

0.000000000000000e+00 0.000000000000000e+00 0.000000000000000e+00
0.000000000000000e+00 0.000000000000000e+00 0.000000000000000e+00
0.000000000000000e+00 0.000000000000000e+00 0.000000000000000e+00

0.000000000000000e+00 0.000000000000000e+00 0.000000000000000e+00
0.000000000000000e+00 0.000000000000000e+00 0.000000000000000e+00
0.000000000000000e+00 0.000000000000000e+00 0.000000000000000e+00

0.000000000000000e+00 0.000000000000000e+00 0.000000000000000e+00
0.000000000000000e+00 0.000000000000000e+00 0.000000000000000e+00
0.000000000000000e+00 0.000000000000000e+00 0.000000000000000e+00

0.000000000000000e+00 0.000000000000000e+00 0.000000000000000e+00
0.000000000000000e+00 0.000000000000000e+00 0.000000000000000e+00
0.000000000000000e+00 0.000000000000000e+00 0.000000000000000e+00

0.000000000000000e+00 0.000000000000000e+00 0.000000000000000e+00
0.000000000000000e+00 0.000000000000000e+00 0.000000000000000e+00
0.000000000000000e+00 0.000000000000000e+00 0.000000000000000e+00

0.000000000000000e+00 0.000000000000000e+00 0.000000000000000e+00
0.000000000000000e+00 0.000000000000000e+00 0.000000000000000e+00
0.000000000000000e+00 0.000000000000000e+00 0.000000000000000e+00

0.000000000000000e+00 0.000000000000000e+00 0.000000000000000e+00
0.000000000000000e+00 0.000000000000000e+00 0.000000000000000e+00
0.000000000000000e+00 0.000000000000000e+00 0.000000000000000e+00

0.000000000000000e+00 0.000000000000000e+00 0.000000000000000e+00
0.000000000000000e+00 0.000000000000000e+00 0.000000000000000e+00
0.000000000000000e+00 0.000000000000000e+00 0.000000000000000e+00

0.000000000000000e+00 0.000000000000000e+00 0.000000000000000e+00
0.000000000000000e+00 0.000000000000000e+00 0.000000000000000e+00
0.000000000000000e+00 0.000000000000000e+00 0.000000000000000e+00

0.000000000000000e+00 0.000000000000000e+00 0.000000000000000e+00
0.000000000000000e+00 0.000000000000000e+00 0.000000000000000e+00
0.000000000000000e+00 0.000000000000000e+00 0.000000000000000e+00

0.000000000000000e+00 0.000000000000000e+00 0.000000000000000e+00
0.000000000000000e+00 0.000000000000000e+00 0.000000000000000e+00
0.000000000000000e+00 0.000000000000000e+00 0.000000000000000e+00

0.000000000000000e+00 0.000000000000000e+00 0.000000000000000e+00
0.000000000000000e+00 0.000000000000000e+00 0.000000000000000e+00
0.000000000000000e+00 0.000000000000000e+00 0.000000000000000e+00

0.000000000000000e+00 0.000000000000000e+00 0.000000000000000e+00
0.000000000000000e+00 0.000000000000000e+00 0.000000000000000e+00
0.000000000000000e+00 0.000000000000000e+00 0.000000000000000e+00

0.000000000000000e+00 0.000000000000000e+00 0.000000000000000e+00
0.000000000000000e+00 0.000000000000000e+00 0.000000000000000e+00
0.000000000000000e+00 0.000000000000000e+00 0.000000000000000e+00

0.000000000000000e+00 0.000000000000000e+00 0.000000000000000e+00
0.000000000000000e+00 0.000000000000000e+00 0.000000000000000e+00
0.000000000000000e+00 0.000000000000000e+00 0.000000000000000e+00

0.000000000000000e+00 0.000000000000000e+00 0.000000000000000e+00
0.000000000000000e+00 0.000000000000000e+00 0.000000000000000e+00
0.000000000000000e+00 0.000000000000000e+00 0.000000000000000e+00

0.000000000000000e+00 0.000000000000000e+00 0.000000000000000e+00
0.000000000000000e+00 0.000000000000000e+00 0.000000000000000e+00
0.000000000000000e+00 0.000000000000000e+00 0.000000000000000e+00

0.000000000000000e+00 0.000000000000000e+00 0.000000000000000e+00
0.000000000000000e+00 0.000000000000000e+00 0.000000000000000e+00
0.000000000000000e+00 0.000000000000000e+00 0.000000000000000e+00

0.000000000000000e+00 0.000000000000000e+00 0.000000000000000e+00
0.000000000000000e+00 0.000000000000000e+00 0.000000000000000e+00
0.000000000000000e+00 0.000000000000000e+00 0.000000000000000e+00

0.000000000000000e+00 0.000000000000000e+00 0.000000000000000e+00
0.000000000000000e+00 0.000000000000000e+00 0.000000000000000e+00
0.000000000000000e+00 0.000000000000000e+00 0.000000000000000e+00

0.000000000000000e+00 0.000000000000000e+00 0.000000000000000e+00
0.000000000000000e+00 0.000000000000000e+00 0.000000000000000e+00
0.000000000000000e+00 0.000000000000000e+00 0.000000000000000e+00

0.000000000000000e+00 0.000000000000000e+00 0.000000000000000e+00
0.000000000000000e+00 0.000000000000000e+00 0.000000000000000e+00
0.000000000000000e+00 0.000000000000000e+00 0.000000000000000e+00

0.000000000000000e+00 0.000000000000000e+00 0.000000000000000e+00
0.000000000000000e+00 0.000000000000000e+00 0.000000000000000e+00
0.000000000000000e+00 0.000000000000000e+00 0.000000000000000e+00

0.000000000000000e+00 0.000000000000000e+00 0.000000000000000e+00
0.000000000000000e+00 0.000000000000000e+00 0.000000000000000e+00
0.000000000000000e+00 0.000000000000000e+00 0.000000000000000e+00

0.000000000000000e+00 0.000000000000000e+00 0.000000000000000e+00
0.000000000000000e+00 0.000000000000000e+00 0.000000000000000e+00
0.000000000000000e+00 0.000000000000000e+00 0.000000000000000e+00

0.000000000000000e+00 0.000000000000000e+00 0.000000000000000e+00
0.000000000000000e+00 0.000000000000000e+00 0.000000000000000e+00
0.000000000000000e+00 0.000000000000000e+00 0.000000000000000e+00

0.000000000000000e+00 0.000000000000000e+00 0.000000000000000e+00
0.000000000000000e+00 0.000000000000000e+00 0.000000000000000e+00
0.000000000000000e+00 0.000000000000000e+00 0.000000000000000e+00

0.000000000000000e+00 0.000000000000000e+00 0.000000000000000e+00
0.000000000000000e+00 0.000000000000000e+00 0.000000000000000e+00
0.000000000000000e+00 0.000000000000000e+00 0.000000000000000e+00

0.000000000000000e+00 0.000000000000000e+00 0.000000000000000e+00
0.000000000000000e+00 0.000000000000000e+00 0.000000000000000e+00
0.000000000000000e+00 0.000000000000000e+00 0.000000000000000e+00

0.000000000000000e+00 0.000000000000000e+00 0.000000000000000e+00
0.000000000000000e+00 0.000000000000000e+00 0.000000000000000e+00
0.000000000000000e+00 0.000000000000000e+00 0.000000000000000e+00

0.000000000000000e+00 0.000000000000000e+00 0.000000000000000e+00
0.000000000000000e+00 0.000000000000000e+00 0.000000000000000e+00
0.000000000000000e+00 0.000000000000000e+00 0.000000000000000e+00

0.000000000000000e+00 0.000000000000000e+00 0.000000000000000e+00
0.000000000000000e+00 0.000000000000000e+00 0.000000000000000e+00
0.000000000000000e+00 0.000000000000000e+00 0.000000000000000e+00

0.000000000000000e+00 0.000000000000000e+00 0.000000000000000e+00
0.000000000000000e+00 0.000000000000000e+00 0.000000000000000e+00
0.000000000000000e+00 0.000000000000000e+00 0.000000000000000e+00

0.000000000000000e+00 0.000000000000000e+00 0.000000000000000e+00
0.000000000000000e+00 0.000000000000000e+00 0.000000000000000e+00
0.000000000000000e+00 0.000000000000000e+00 0.000000000000000e+00

0.000000000000000e+00 0.000000000000000e+00 0.000000000000000e+00
0.000000000000000e+00 0.000000000000000e+00 0.000000000000000e+00
0.000000000000000e+00 0.000000000000000e+00 0.000000000000000e+00

0.000000000000000e+00 0.000000000000000e+00 0.000000000000000e+00
0.000000000000000e+00 0.000000000000000e+00 0.000000000000000e+00
0.000000000000000e+00 0.000000000000000e+00 0.000000000000000e+00

0.000000000000000e+00 0.000000000000000e+00 0.000000000000000e+00
0.000000000000000e+00 0.000000000000000e+00 0.000000000000000e+00
0.000000000000000e+00 0.000000000000000e+00 0.000000000000000e+00

0.000000000000000e+00 0.000000000000000e+00 0.000000000000000e+00
0.000000000000000e+00 0.000000000000000e+00 0.000000000000000e+00
0.000000000000000e+00 0.000000000000000e+00 0.000000000000000e+00

0.000000000000000e+00 0.000000000000000e+00 0.000000000000000e+00
0.000000000000000e+00 0.000000000000000e+00 0.000000000000000e+00
0.000000000000000e+00 0.000000000000000e+00 0.000000000000000e+00

0.000000000000000e+00 0.000000000000000e+00 0.000000000000000e+00
0.000000000000000e+00 0.000000000000000e+00 0.000000000000000e+00
0.000000000000000e+00 0.000000000000000e+00 0.000000000000000e+00

0.000000000000000e+00 0.000000000000000e+00 0.000000000000000e+00
0.000000000000000e+00 0.000000000000000e+00 0.000000000000000e+00
0.000000000000000e+00 0.000000000000000e+00 0.000000000000000e+00

0.000000000000000e+00 0.000000000000000e+00 0.000000000000000e+00
0.000000000000000e+00 0.000000000000000e+00 0.000000000000000e+00
0.000000000000000e+00 0.000000000000000e+00 0.000000000000000e+00

0.000000000000000e+00 0.000000000000000e+00 0.000000000000000e+00
0.000000000000000e+00 0.000000000000000e+00 0.000000000000000e+00
0.000000000000000e+00 0.000000000000000e+00 0.000000000000000e+00

0.000000000000000e+00 0.000000000000000e+00 0.000000000000000e+00
0.000000000000000e+00 0.000000000000000e+00 0.000000000000000e+00
0.000000000000000e+00 0.000000000000000e+00 0.000000000000000e+00

0.000000000000000e+00 0.000000000000000e+00 0.000000000000000e+00
0.000000000000000e+00 0.000000000000000e+00 0.000000000000000e+00
0.000000000000000e+00 0.000000000000000e+00 0.000000000000000e+00

0.000000000000000e+00 0.000000000000000e+00 0.000000000000000e+00
0.000000000000000e+00 0.000000000000000e+00 0.000000000000000e+00
0.000000000000000e+00 0.000000000000000e+00 0.000000000000000e+00

0.000000000000000e+00 0.000000000000000e+00 0.000000000000000e+00
0.000000000000000e+00 0.000000000000000e+00 0.000000000000000e+00
0.000000000000000e+00 0.000000000000000e+00 0.000000000000000e+00

0.000000000000000e+00 0.000000000000000e+00 0.000000000000000e+00
0.000000000000000e+00 0.000000000000000e+00 0.000000000000000e+00
0.000000000000000e+00 0.000000000000000e+00 0.000000000000000e+00

0.000000000000000e+00 0.000000000000000e+00 0.000000000000000e+00
0.000000000000000e+00 0.000000000000000e+00 0.000000000000000e+00
0.000000000000000e+00 0.000000000000000e+00 0.000000000000000e+00

0.000000000000000e+00 0.000000000000000e+00 0.000000000000000e+00
0.000000000000000e+00 0.000000000000000e+00 0.000000000000000e+00
0.000000000000000e+00 0.000000000000000e+00 0.000000000000000e+00

0.000000000000000e+00 0.000000000000000e+00 0.000000000000000e+00
0.000000000000000e+00 0.000000000000000e+00 0.000000000000000e+00
0.000000000000000e+00 0.000000000000000e+00 0.000000000000000e+00

0.000000000000000e+00 0.000000000000000e+00 0.000000000000000e+00
0.000000000000000e+00 0.000000000000000e+00 0.000000000000000e+00
0.000000000000000e+00 0.000000000000000e+00 0.000000000000000e+00

0.000000000000000e+00 0.000000000000000e+00 0.000000000000000e+00
0.000000000000000e+00 0.000000000000000e+00 0.000000000000000e+00
0.000000000000000e+00 0.000000000000000e+00 0.000000000000000e+00

0.000000000000000e+00 0.000000000000000e+00 0.000000000000000e+00
0.000000000000000e+00 0.000000000000000e+00 0.000000000000000e+00
0.000000000000000e+00 0.000000000000000e+00 0.000000000000000e+00

0.000000000000000e+00 0.000000000000000e+00 0.000000000000000e+00
0.000000000000000e+00 0.000000000000000e+00 0.000000000000000e+00
0.000000000000000e+00 0.000000000000000e+00 0.000000000000000e+00

0.000000000000000e+00 0.000000000000000e+00 0.000000000000000e+00
0.000000000000000e+00 0.000000000000000e+00 0.000000000000000e+00
0.000000000000000e+00 0.000000000000000e+00 0.000000000000000e+00

0.000000000000000e+00 0.000000000000000e+00 0.000000000000000e+00
0.000000000000000e+00 0.000000000000000e+00 0.000000000000000e+00
0.000000000000000e+00 0.000000000000000e+00 0.000000000000000e+00

0.000000000000000e+00 0.000000000000000e+00 0.000000000000000e+00
0.000000000000000e+00 0.000000000000000e+00 0.000000000000000e+00
0.000000000000000e+00 0.000000000000000e+00 0.000000000000000e+00

0.000000000000000e+00 0.000000000000000e+00 0.000000000000000e+00
0.000000000000000e+00 0.000000000000000e+00 0.000000000000000e+00
0.000000000000000e+00 0.000000000000000e+00 0.000000000000000e+00

0.000000000000000e+00 0.000000000000000e+00 0.000000000000000e+00
0.000000000000000e+00 0.000000000000000e+00 0.000000000000000e+00
0.000000000000000e+00 0.000000000000000e+00 0.000000000000000e+00

0.000000000000000e+00 0.000000000000000e+00 0.000000000000000e+00
0.000000000000000e+00 0.000000000000000e+00 0.000000000000000e+00
0.000000000000000e+00 0.000000000000000e+00 0.000000000000000e+00

0.000000000000000e+00 0.000000000000000e+00 0.000000000000000e+00
0.000000000000000e+00 0.000000000000000e+00 0.000000000000000e+00
0.000000000000000e+00 0.000000000000000e+00 0.000000000000000e+00

0.000000000000000e+00 0.000000000000000e+00 0.000000000000000e+00
0.000000000000000e+00 0.000000000000000e+00 0.000000000000000e+00
0.000000000000000e+00 0.000000000000000e+00 0.000000000000000e+00

0.000000000000000e+00 0.000000000000000e+00 0.000000000000000e+00
0.000000000000000e+00 0.000000000000000e+00 0.000000000000000e+00
0.000000000000000e+00 0.000000000000000e+00 0.000000000000000e+00

0.000000000000000e+00 0.000000000000000e+00 0.000000000000000e+00
0.000000000000000e+00 0.000000000000000e+00 0.000000000000000e+00
0.000000000000000e+00 0.000000000000000e+00 0.000000000000000e+00

0.000000000000000e+00 0.000000000000000e+00 0.000000000000000e+00
0.000000000000000e+00 0.000000000000000e+00 0.000000000000000e+00
0.000000000000000e+00 0.000000000000000e+00 0.000000000000000e+00

0.000000000000000e+00 0.000000000000000e+00 0.000000000000000e+00
0.000000000000000e+00 0.000000000000000e+00 0.000000000000000e+00
0.000000000000000e+00 0.000000000000000e+00 0.000000000000000e+00

0.000000000000000e+00 0.000000000000000e+00 0.000000000000000e+00
0.000000000000000e+00 0.000000000000000e+00 0.000000000000000e+00
0.000000000000000e+00 0.000000000000000e+00 0.000000000000000e+00

0.000000000000000e+00 0.000000000000000e+00 0.000000000000000e+00
0.000000000000000e+00 0.000000000000000e+00 0.000000000000000e+00
0.000000000000000e+00 0.000000000000000e+00 0.000000000000000e+00

0.000000000000000e+00 0.000000000000000e+00 0.000000000000000e+00
0.000000000000000e+00 0.000000000000000e+00 0.000000000000000e+00
0.000000000000000e+00 0.000000000000000e+00 0.000000000000000e+00

0.000000000000000e+00 0.000000000000000e+00 0.000000000000000e+00
0.000000000000000e+00 0.000000000000000e+00 0.000000000000000e+00
0.000000000000000e+00 0.000000000000000e+00 0.000000000000000e+00

0.000000000000000e+00 0.000000000000000e+00 0.000000000000000e+00
0.000000000000000e+00 0.000000000000000e+00 0.000000000000000e+00
0.000000000000000e+00 0.000000000000000e+00 0.000000000000000e+00

0.000000000000000e+00 0.000000000000000e+00 0.000000000000000e+00
0.000000000000000e+00 0.000000000000000e+00 0.000000000000000e+00
0.000000000000000e+00 0.000000000000000e+00 0.000000000000000e+00

0.000000000000000e+00 0.000000000000000e+00 0.000000000000000e+00
0.000000000000000e+00 0.000000000000000e+00 0.000000000000000e+00
0.000000000000000e+00 0.000000000000000e+00 0.000000000000000e+00

0.000000000000000e+00 0.000000000000000e+00 0.000000000000000e+00
0.000000000000000e+00 0.000000000000000e+00 0.000000000000000e+00
0.000000000000000e+00 0.000000000000000e+00 0.000000000000000e+00

0.000000000000000e+00 0.000000000000000e+00 0.000000000000000e+00
0.000000000000000e+00 0.000000000000000e+00 0.000000000000000e+00
0.000000000000000e+00 0.000000000000000e+00 0.000000000000000e+00

0.000000000000000e+00 0.000000000000000e+00 0.000000000000000e+00
0.000000000000000e+00 0.000000000000000e+00 0.000000000000000e+00
0.000000000000000e+00 0.000000000000000e+00 0.000000000000000e+00

0.000000000000000e+00 0.000000000000000e+00 0.000000000000000e+00
0.000000000000000e+00 0.000000000000000e+00 0.000000000000000e+00
0.000000000000000e+00 0.000000000000000e+00 0.000000000000000e+00

0.000000000000000e+00 0.000000000000000e+00 0.000000000000000e+00
0.000000000000000e+00 0.000000000000000e+00 0.000000000000000e+00
0.000000000000000e+00 0.000000000000000e+00 0.000000000000000e+00

0.000000000000000e+00 0.000000000000000e+00 0.000000000000000e+00
0.000000000000000e+00 0.000000000000000e+00 0.000000000000000e+00
0.000000000000000e+00 0.000000000000000e+00 0.000000000000000e+00

0.000000000000000e+00 0.000000000000000e+00 0.000000000000000e+00
0.000000000000000e+00 0.000000000000000e+00 0.000000000000000e+00
0.000000000000000e+00 0.000000000000000e+00 0.000000000000000e+00

0.000000000000000e+00 0.000000000000000e+00 0.000000000000000e+00
0.000000000000000e+00 0.000000000000000e+00 0.000000000000000e+00
0.000000000000000e+00 0.000000000000000e+00 0.000000000000000e+00

0.000000000000000e+00 0.000000000000000e+00 0.000000000000000e+00
0.000000000000000e+00 0.000000000000000e+00 0.000000000000000e+00
0.000000000000000e+00 0.000000000000000e+00 0.000000000000000e+00

0.000000000000000e+00 0.000000000000000e+00 0.000000000000000e+00
0.000000000000000e+00 0.000000000000000e+00 0.000000000000000e+00
0.000000000000000e+00 0.000000000000000e+00 0.000000000000000e+00

0.000000000000000e+00 0.000000000000000e+00 0.000000000000000e+00
0.000000000000000e+00 0.000000000000000e+00 0.000000000000000e+00
0.000000000000000e+00 0.000000000000000e+00 0.000000000000000e+00

0.000000000000000e+00 0.000000000000000e+00 0.000000000000000e+00
0.000000000000000e+00 0.000000000000000e+00 0.000000000000000e+00
0.000000000000000e+00 0.000000000000000e+00 0.000000000000000e+00

0.000000000000000e+00 0.000000000000000e+00 0.000000000000000e+00
0.000000000000000e+00 0.000000000000000e+00 0.000000000000000e+00
0.000000000000000e+00 0.000000000000000e+00 0.000000000000000e+00

0.000000000000000e+00 0.000000000000000e+00 0.000000000000000e+00
0.000000000000000e+00 0.000000000000000e+00 0.000000000000000e+00
0.000000000000000e+00 0.000000000000000e+00 0.000000000000000e+00

0.000000000000000e+00 0.000000000000000e+00 0.000000000000000e+00
0.000000000000000e+00 0.000000000000000e+00 0.000000000000000e+00
0.000000000000000e+00 0.000000000000000e+00 0.000000000000000e+00

0.000000000000000e+00 0.000000000000000e+00 0.000000000000000e+00
0.000000000000000e+00 0.000000000000000e+00 0.000000000000000e+00
0.000000000000000e+00 0.000000000000000e+00 0.000000000000000e+00

0.000000000000000e+00 0.000000000000000e+00 0.000000000000000e+00
0.000000000000000e+00 0.000000000000000e+00 0.000000000000000e+00
0.000000000000000e+00 0.000000000000000e+00 0.000000000000000e+00

0.000000000000000e+00 0.000000000000000e+00 0.000000000000000e+00
0.000000000000000e+00 0.000000000000000e+00 0.000000000000000e+00
0.000000000000000e+00 0.000000000000000e+00 0.000000000000000e+00

0.000000000000000e+00 0.000000000000000e+00 0.000000000000000e+00
0.000000000000000e+00 0.000000000000000e+00 0.000000000000000e+00
0.000000000000000e+00 0.000000000000000e+00 0.000000000000000e+00

0.000000000000000e+00 0.000000000000000e+00 0.000000000000000e+00
0.000000000000000e+00 0.000000000000000e+00 0.000000000000000e+00
0.000000000000000e+00 0.000000000000000e+00 0.000000000000000e+00

0.000000000000000e+00 0.000000000000000e+00 0.000000000000000e+00
0.000000000000000e+00 0.000000000000000e+00 0.000000000000000e+00
0.000000000000000e+00 0.000000000000000e+00 0.000000000000000e+00

0.000000000000000e+00 0.000000000000000e+00 0.000000000000000e+00
0.000000000000000e+00 0.000000000000000e+00 0.000000000000000e+00
0.000000000000000e+00 0.000000000000000e+00 0.000000000000000e+00

0.000000000000000e+00 0.000000000000000e+00 0.000000000000000e+00
0.000000000000000e+00 0.000000000000000e+00 0.000000000000000e+00
0.000000000000000e+00 0.000000000000000e+00 0.000000000000000e+00

0.000000000000000e+00 0.000000000000000e+00 0.000000000000000e+00
0.000000000000000e+00 0.000000000000000e+00 0.000000000000000e+00
0.000000000000000e+00 0.000000000000000e+00 0.000000000000000e+00

0.000000000000000e+00 0.000000000000000e+00 0.000000000000000e+00
0.000000000000000e+00 0.000000000000000e+00 0.000000000000000e+00
0.000000000000000e+00 0.000000000000000e+00 0.000000000000000e+00

0.000000000000000e+00 0.000000000000000e+00 0.000000000000000e+00
0.000000000000000e+00 0.000000000000000e+00 0.000000000000000e+00
0.000000000000000e+00 0.000000000000000e+00 0.000000000000000e+00

0.000000000000000e+00 0.000000000000000e+00 0.000000000000000e+00
0.000000000000000e+00 0.000000000000000e+00 0.000000000000000e+00
0.000000000000000e+00 0.000000000000000e+00 0.000000000000000e+00

0.000000000000000e+00 0.000000000000000e+00 0.000000000000000e+00
0.000000000000000e+00 0.000000000000000e+00 0.000000000000000e+00
0.000000000000000e+00 0.000000000000000e+00 0.000000000000000e+00

0.000000000000000e+00 0.000000000000000e+00 0.000000000000000e+00
0.000000000000000e+00 0.000000000000000e+00 0.000000000000000e+00
0.000000000000000e+00 0.000000000000000e+00 0.000000000000000e+00

0.000000000000000e+00 0.000000000000000e+00 0.000000000000000e+00
0.000000000000000e+00 0.000000000000000e+00 0.000000000000000e+00
0.000000000000000e+00 0.000000000000000e+00 0.000000000000000e+00

0.000000000000000e+00 0.000000000000000e+00 0.000000000000000e+00
0.000000000000000e+00 0.000000000000000e+00 0.000000000000000e+00
0.000000000000000e+00 0.000000000000000e+00 0.000000000000000e+00

0.000000000000000e+00 0.000000000000000e+00 0.000000000000000e+00
0.000000000000000e+00 0.000000000000000e+00 0.000000000000000e+00
0.000000000000000e+00 0.000000000000000e+00 0.000000000000000e+00

0.000000000000000e+00 0.000000000000000e+00 0.000000000000000e+00
0.000000000000000e+00 0.000000000000000e+00 0.000000000000000e+00
0.000000000000000e+00 0.000000000000000e+00 0.000000000000000e+00

0.000000000000000e+00 0.000000000000000e+00 0.000000000000000e+00
0.000000000000000e+00 0.000000000000000e+00 0.000000000000000e+00
0.000000000000000e+00 0.000000000000000e+00 0.000000000000000e+00

0.000000000000000e+00 0.000000000000000e+00 0.000000000000000e+00
0.000000000000000e+00 0.000000000000000e+00 0.000000000000000e+00
0.000000000000000e+00 0.000000000000000e+00 0.000000000000000e+00

0.000000000000000e+00 0.000000000000000e+00 0.000000000000000e+00
0.000000000000000e+00 0.000000000000000e+00 0.000000000000000e+00
0.000000000000000e+00 0.000000000000000e+00 0.000000000000000e+00

0.000000000000000e+00 0.000000000000000e+00 0.000000000000000e+00
0.000000000000000e+00 0.000000000000000e+00 0.000000000000000e+00
0.000000000000000e+00 0.000000000000000e+00 0.000000000000000e+00

0.000000000000000e+00 0.000000000000000e+00 0.000000000000000e+00
0.000000000000000e+00 0.000000000000000e+00 0.000000000000000e+00
0.000000000000000e+00 0.000000000000000e+00 0.000000000000000e+00

0.000000000000000e+00 0.000000000000000e+00 0.000000000000000e+00
0.000000000000000e+00 0.000000000000000e+00 0.000000000000000e+00
0.000000000000000e+00 0.000000000000000e+00 0.000000000000000e+00

0.000000000000000e+00 0.000000000000000e+00 0.000000000000000e+00
0.000000000000000e+00 0.000000000000000e+00 0.000000000000000e+00
0.000000000000000e+00 0.000000000000000e+00 0.000000000000000e+00

0.000000000000000e+00 0.000000000000000e+00 0.000000000000000e+00
0.000000000000000e+00 0.000000000000000e+00 0.000000000000000e+00
0.000000000000000e+00 0.000000000000000e+00 0.000000000000000e+00

0.000000000000000e+00 0.000000000000000e+00 0.000000000000000e+00
0.000000000000000e+00 0.000000000000000e+00 0.000000000000000e+00
0.000000000000000e+00 0.000000000000000e+00 0.000000000000000e+00

0.000000000000000e+00 0.000000000000000e+00 0.000000000000000e+00
0.000000000000000e+00 0.000000000000000e+00 0.000000000000000e+00
0.000000000000000e+00 0.000000000000000e+00 0.000000000000000e+00

0.000000000000000e+00 0.000000000000000e+00 0.000000000000000e+00
0.000000000000000e+00 0.000000000000000e+00 0.000000000000000e+00
0.000000000000000e+00 0.000000000000000e+00 0.000000000000000e+00

0.000000000000000e+00 0.000000000000000e+00 0.000000000000000e+00
0.000000000000000e+00 0.000000000000000e+00 0.000000000000000e+00
0.000000000000000e+00 0.000000000000000e+00 0.000000000000000e+00

0.000000000000000e+00 0.000000000000000e+00 0.000000000000000e+00
0.000000000000000e+00 0.000000000000000e+00 0.000000000000000e+00
0.000000000000000e+00 0.000000000000000e+00 0.000000000000000e+00

0.000000000000000e+00 0.000000000000000e+00 0.000000000000000e+00
0.000000000000000e+00 0.000000000000000e+00 0.000000000000000e+00
0.000000000000000e+00 0.000000000000000e+00 0.000000000000000e+00

0.000000000000000e+00 0.000000000000000e+00 0.000000000000000e+00
0.000000000000000e+00 0.000000000000000e+00 0.000000000000000e+00
0.000000000000000e+00 0.000000000000000e+00 0.000000000000000e+00

0.000000000000000e+00 0.000000000000000e+00 0.000000000000000e+00
0.000000000000000e+00 0.000000000000000e+00 0.000000000000000e+00
0.000000000000000e+00 0.000000000000000e+00 0.000000000000000e+00

0.000000000000000e+00 0.000000000000000e+00 0.000000000000000e+00
0.000000000000000e+00 0.000000000000000e+00 0.000000000000000e+00
0.000000000000000e+00 0.000000000000000e+00 0.000000000000000e+00

0.000000000000000e+00 0.000000000000000e+00 0.000000000000000e+00
0.000000000000000e+00 0.000000000000000e+00 0.000000000000000e+00
0.000000000000000e+00 0.000000000000000e+00 0.000000000000000e+00

0.000000000000000e+00 0.000000000000000e+00 0.000000000000000e+00
0.000000000000000e+00 0.000000000000000e+00 0.000000000000000e+00
0.000000000000000e+00 0.000000000000000e+00 0.000000000000000e+00

0.000000000000000e+00 0.000000000000000e+00 0.000000000000000e+00
0.000000000000000e+00 0.000000000000000e+00 0.000000000000000e+00
0.000000000000000e+00 0.000000000000000e+00 0.000000000000000e+00

0.000000000000000e+00 0.000000000000000e+00 0.000000000000000e+00
0.000000000000000e+00 0.000000000000000e+00 0.000000000000000e+00
0.000000000000000e+00 0.000000000000000e+00 0.000000000000000e+00

0.000000000000000e+00 0.000000000000000e+00 0.000000000000000e+00
0.000000000000000e+00 0.000000000000000e+00 0.000000000000000e+00
0.000000000000000e+00 0.000000000000000e+00 0.000000000000000e+00

0.000000000000000e+00 0.000000000000000e+00 0.000000000000000e+00
0.000000000000000e+00 0.000000000000000e+00 0.000000000000000e+00
0.000000000000000e+00 0.000000000000000e+00 0.000000000000000e+00

0.000000000000000e+00 0.000000000000000e+00 0.000000000000000e+00
0.000000000000000e+00 0.000000000000000e+00 0.000000000000000e+00
0.000000000000000e+00 0.000000000000000e+00 0.000000000000000e+00

0.000000000000000e+00 0.000000000000000e+00 0.000000000000000e+00
0.000000000000000e+00 0.000000000000000e+00 0.000000000000000e+00
0.000000000000000e+00 0.000000000000000e+00 0.000000000000000e+00

0.000000000000000e+00 0.000000000000000e+00 0.000000000000000e+00
0.000000000000000e+00 0.000000000000000e+00 0.000000000000000e+00
0.000000000000000e+00 0.000000000000000e+00 0.000000000000000e+00

0.000000000000000e+00 0.000000000000000e+00 0.000000000000000e+00
0.000000000000000e+00 0.000000000000000e+00 0.000000000000000e+00
0.000000000000000e+00 0.000000000000000e+00 0.000000000000000e+00

0.000000000000000e+00 0.000000000000000e+00 0.000000000000000e+00
0.000000000000000e+00 0.000000000000000e+00 0.000000000000000e+00
0.000000000000000e+00 0.000000000000000e+00 0.000000000000000e+00

0.000000000000000e+00 0.000000000000000e+00 0.000000000000000e+00
0.000000000000000e+00 0.000000000000000e+00 0.000000000000000e+00
0.000000000000000e+00 0.000000000000000e+00 0.000000000000000e+00

0.000000000000000e+00 0.000000000000000e+00 0.000000000000000e+00
0.000000000000000e+00 0.000000000000000e+00 0.000000000000000e+00
0.000000000000000e+00 0.000000000000000e+00 0.000000000000000e+00

0.000000000000000e+00 0.000000000000000e+00 0.000000000000000e+00
0.000000000000000e+00 0.000000000000000e+00 0.000000000000000e+00
0.000000000000000e+00 0.000000000000000e+00 0.000000000000000e+00

0.000000000000000e+00 0.000000000000000e+00 0.000000000000000e+00
0.000000000000000e+00 0.000000000000000e+00 0.000000000000000e+00
0.000000000000000e+00 0.000000000000000e+00 0.000000000000000e+00

0.000000000000000e+00 0.000000000000000e+00 0.000000000000000e+00
0.000000000000000e+00 0.000000000000000e+00 0.000000000000000e+00
0.000000000000000e+00 0.000000000000000e+00 0.000000000000000e+00

0.000000000000000e+00 0.000000000000000e+00 0.000000000000000e+00
0.000000000000000e+00 0.000000000000000e+00 0.000000000000000e+00
0.000000000000000e+00 0.000000000000000e+00 0.000000000000000e+00

0.000000000000000e+00 0.000000000000000e+00 0.000000000000000e+00
0.000000000000000e+00 0.000000000000000e+00 0.000000000000000e+00
0.000000000000000e+00 0.000000000000000e+00 0.000000000000000e+00

0.000000000000000e+00 0.000000000000000e+00 0.000000000000000e+00
0.000000000000000e+00 0.000000000000000e+00 0.000000000000000e+00
0.000000000000000e+00 0.000000000000000e+00 0.000000000000000e+00

0.000000000000000e+00 0.000000000000000e+00 0.000000000000000e+00
0.000000000000000e+00 0.000000000000000e+00 0.000000000000000e+00
0.000000000000000e+00 0.000000000000000e+00 0.000000000000000e+00

0.000000000000000e+00 0.000000000000000e+00 0.000000000000000e+00
0.000000000000000e+00 0.000000000000000e+00 0.000000000000000e+00
0.000000000000000e+00 0.000000000000000e+00 0.000000000000000e+00

0.000000000000000e+00 0.000000000000000e+00 0.000000000000000e+00
0.000000000000000e+00 0.000000000000000e+00 0.000000000000000e+00
0.000000000000000e+00 0.000000000000000e+00 0.000000000000000e+00

0.000000000000000e+00 0.000000000000000e+00 0.000000000000000e+00
0.000000000000000e+00 0.000000000000000e+00 0.000000000000000e+00
0.000000000000000e+00 0.000000000000000e+00 0.000000000000000e+00

0.000000000000000e+00 0.000000000000000e+00 0.000000000000000e+00
0.000000000000000e+00 0.000000000000000e+00 0.000000000000000e+00
0.000000000000000e+00 0.000000000000000e+00 0.000000000000000e+00

0.000000000000000e+00 0.000000000000000e+00 0.000000000000000e+00
0.000000000000000e+00 0.000000000000000e+00 0.000000000000000e+00
0.000000000000000e+00 0.000000000000000e+00 0.000000000000000e+00

0.000000000000000e+00 0.000000000000000e+00 0.000000000000000e+00
0.000000000000000e+00 0.000000000000000e+00 0.000000000000000e+00
0.000000000000000e+00 0.000000000000000e+00 0.000000000000000e+00

0.000000000000000e+00 0.000000000000000e+00 0.000000000000000e+00
0.000000000000000e+00 0.000000000000000e+00 0.000000000000000e+00
0.000000000000000e+00 0.000000000000000e+00 0.000000000000000e+00

0.000000000000000e+00 0.000000000000000e+00 0.000000000000000e+00
0.000000000000000e+00 0.000000000000000e+00 0.000000000000000e+00
0.000000000000000e+00 0.000000000000000e+00 0.000000000000000e+00

0.000000000000000e+00 0.000000000000000e+00 0.000000000000000e+00
0.000000000000000e+00 0.000000000000000e+00 0.000000000000000e+00
0.000000000000000e+00 0.000000000000000e+00 0.000000000000000e+00

0.000000000000000e+00 0.000000000000000e+00 0.000000000000000e+00
0.000000000000000e+00 0.000000000000000e+00 0.000000000000000e+00
0.000000000000000e+00 0.000000000000000e+00 0.000000000000000e+00

0.000000000000000e+00 0.000000000000000e+00 0.000000000000000e+00
0.000000000000000e+00 0.000000000000000e+00 0.000000000000000e+00
0.000000000000000e+00 0.000000000000000e+00 0.000000000000000e+00

0.000000000000000e+00 0.000000000000000e+00 0.000000000000000e+00
0.000000000000000e+00 0.000000000000000e+00 0.000000000000000e+00
0.000000000000000e+00 0.000000000000000e+00 0.000000000000000e+00

0.000000000000000e+00 0.000000000000000e+00 0.000000000000000e+00
0.000000000000000e+00 0.000000000000000e+00 0.000000000000000e+00
0.000000000000000e+00 0.000000000000000e+00 0.000000000000000e+00

0.000000000000000e+00 0.000000000000000e+00 0.000000000000000e+00
0.000000000000000e+00 0.000000000000000e+00 0.000000000000000e+00
0.000000000000000e+00 0.000000000000000e+00 0.000000000000000e+00

0.000000000000000e+00 0.000000000000000e+00 0.000000000000000e+00
0.000000000000000e+00 0.000000000000000e+00 0.000000000000000e+00
0.000000000000000e+00 0.000000000000000e+00 0.000000000000000e+00

0.000000000000000e+00 0.000000000000000e+00 0.000000000000000e+00
0.000000000000000e+00 0.000000000000000e+00 0.000000000000000e+00
0.000000000000000e+00 0.000000000000000e+00 0.000000000000000e+00

0.000000000000000e+00 0.000000000000000e+00 0.000000000000000e+00
0.000000000000000e+00 0.000000000000000e+00 0.000000000000000e+00
0.000000000000000e+00 0.000000000000000e+00 0.000000000000000e+00

0.000000000000000e+00 0.000000000000000e+00 0.000000000000000e+00
0.000000000000000e+00 0.000000000000000e+00 0.000000000000000e+00
0.000000000000000e+00 0.000000000000000e+00 0.000000000000000e+00

0.000000000000000e+00 0.000000000000000e+00 0.000000000000000e+00
0.000000000000000e+00 0.000000000000000e+00 0.000000000000000e+00
0.000000000000000e+00 0.000000000000000e+00 0.000000000000000e+00

0.000000000000000e+00 0.000000000000000e+00 0.000000000000000e+00
0.000000000000000e+00 0.000000000000000e+00 0.000000000000000e+00
0.000000000000000e+00 0.000000000000000e+00 0.000000000000000e+00

0.000000000000000e+00 0.000000000000000e+00 0.000000000000000e+00
0.000000000000000e+00 0.000000000000000e+00 0.000000000000000e+00
0.000000000000000e+00 0.000000000000000e+00 0.000000000000000e+00

0.000000000000000e+00 0.000000000000000e+00 0.000000000000000e+00
0.000000000000000e+00 0.000000000000000e+00 0.000000000000000e+00
0.000000000000000e+00 0.000000000000000e+00 0.000000000000000e+00

0.000000000000000e+00 0.000000000000000e+00 0.000000000000000e+00
0.000000000000000e+00 0.000000000000000e+00 0.000000000000000e+00
0.000000000000000e+00 0.000000000000000e+00 0.000000000000000e+00

0.000000000000000e+00 0.000000000000000e+00 0.000000000000000e+00
0.000000000000000e+00 0.000000000000000e+00 0.000000000000000e+00
0.000000000000000e+00 0.000000000000000e+00 0.000000000000000e+00

0.000000000000000e+00 0.000000000000000e+00 0.000000000000000e+00
0.000000000000000e+00 0.000000000000000e+00 0.000000000000000e+00
0.000000000000000e+00 0.000000000000000e+00 0.000000000000000e+00

0.000000000000000e+00 0.000000000000000e+00 0.000000000000000e+00
0.000000000000000e+00 0.000000000000000e+00 0.000000000000000e+00
0.000000000000000e+00 0.000000000000000e+00 0.000000000000000e+00

0.000000000000000e+00 0.000000000000000e+00 0.000000000000000e+00
0.000000000000000e+00 0.000000000000000e+00 0.000000000000000e+00
0.000000000000000e+00 0.000000000000000e+00 0.000000000000000e+00

0.000000000000000e+00 0.000000000000000e+00 0.000000000000000e+00
0.000000000000000e+00 0.000000000000000e+00 0.000000000000000e+00
0.000000000000000e+00 0.000000000000000e+00 0.000000000000000e+00

0.000000000000000e+00 0.000000000000000e+00 0.000000000000000e+00
0.000000000000000e+00 0.000000000000000e+00 0.000000000000000e+00
0.000000000000000e+00 0.000000000000000e+00 0.000000000000000e+00

0.000000000000000e+00 0.000000000000000e+00 0.000000000000000e+00
0.000000000000000e+00 0.000000000000000e+00 0.000000000000000e+00
0.000000000000000e+00 0.000000000000000e+00 0.000000000000000e+00

0.000000000000000e+00 0.000000000000000e+00 0.000000000000000e+00
0.000000000000000e+00 0.000000000000000e+00 0.000000000000000e+00
0.000000000000000e+00 0.000000000000000e+00 0.000000000000000e+00

0.000000000000000e+00 0.000000000000000e+00 0.000000000000000e+00
0.000000000000000e+00 0.000000000000000e+00 0.000000000000000e+00
0.000000000000000e+00 0.000000000000000e+00 0.000000000000000e+00

0.000000000000000e+00 0.000000000000000e+00 0.000000000000000e+00
0.000000000000000e+00 0.000000000000000e+00 0.000000000000000e+00
0.000000000000000e+00 0.000000000000000e+00 0.000000000000000e+00

0.000000000000000e+00 0.000000000000000e+00 0.000000000000000e+00
0.000000000000000e+00 0.000000000000000e+00 0.000000000000000e+00
0.000000000000000e+00 0.000000000000000e+00 0.000000000000000e+00

0.000000000000000e+00 0.000000000000000e+00 0.000000000000000e+00
0.000000000000000e+00 0.000000000000000e+00 0.000000000000000e+00
0.000000000000000e+00 0.000000000000000e+00 0.000000000000000e+00

0.000000000000000e+00 0.000000000000000e+00 0.000000000000000e+00
0.000000000000000e+00 0.000000000000000e+00 0.000000000000000e+00
0.000000000000000e+00 0.000000000000000e+00 0.000000000000000e+00

0.000000000000000e+00 0.000000000000000e+00 0.000000000000000e+00
0.000000000000000e+00 0.000000000000000e+00 0.000000000000000e+00
0.000000000000000e+00 0.000000000000000e+00 0.000000000000000e+00

0.000000000000000e+00 0.000000000000000e+00 0.000000000000000e+00
0.000000000000000e+00 0.000000000000000e+00 0.000000000000000e+00
0.000000000000000e+00 0.000000000000000e+00 0.000000000000000e+00

0.000000000000000e+00 0.000000000000000e+00 0.000000000000000e+00
0.000000000000000e+00 0.000000000000000e+00 0.000000000000000e+00
0.000000000000000e+00 0.000000000000000e+00 0.000000000000000e+00

0.000000000000000e+00 0.000000000000000e+00 0.000000000000000e+00
0.000000000000000e+00 0.000000000000000e+00 0.000000000000000e+00
0.000000000000000e+00 0.000000000000000e+00 0.000000000000000e+00

0.000000000000000e+00 0.000000000000000e+00 0.000000000000000e+00
0.000000000000000e+00 0.000000000000000e+00 0.000000000000000e+00
0.000000000000000e+00 0.000000000000000e+00 0.000000000000000e+00

0.000000000000000e+00 0.000000000000000e+00 0.000000000000000e+00
0.000000000000000e+00 0.000000000000000e+00 0.000000000000000e+00
0.000000000000000e+00 0.000000000000000e+00 0.000000000000000e+00

0.000000000000000e+00 0.000000000000000e+00 0.000000000000000e+00
0.000000000000000e+00 0.000000000000000e+00 0.000000000000000e+00
0.000000000000000e+00 0.000000000000000e+00 0.000000000000000e+00

0.000000000000000e+00 0.000000000000000e+00 0.000000000000000e+00
0.000000000000000e+00 0.000000000000000e+00 0.000000000000000e+00
0.000000000000000e+00 0.000000000000000e+00 0.000000000000000e+00

0.000000000000000e+00 0.000000000000000e+00 0.000000000000000e+00
0.000000000000000e+00 0.000000000000000e+00 0.000000000000000e+00
0.000000000000000e+00 0.000000000000000e+00 0.000000000000000e+00

0.000000000000000e+00 0.000000000000000e+00 0.000000000000000e+00
0.000000000000000e+00 0.000000000000000e+00 0.000000000000000e+00
0.000000000000000e+00 0.000000000000000e+00 0.000000000000000e+00

0.000000000000000e+00 0.000000000000000e+00 0.000000000000000e+00
0.000000000000000e+00 0.000000000000000e+00 0.000000000000000e+00
0.000000000000000e+00 0.000000000000000e+00 0.000000000000000e+00

0.000000000000000e+00 0.000000000000000e+00 0.000000000000000e+00
0.000000000000000e+00 0.000000000000000e+00 0.000000000000000e+00
0.000000000000000e+00 0.000000000000000e+00 0.000000000000000e+00

0.000000000000000e+00 0.000000000000000e+00 0.000000000000000e+00
0.000000000000000e+00 0.000000000000000e+00 0.000000000000000e+00
0.000000000000000e+00 0.000000000000000e+00 0.000000000000000e+00

0.000000000000000e+00 0.000000000000000e+00 0.000000000000000e+00
0.000000000000000e+00 0.000000000000000e+00 0.000000000000000e+00
0.000000000000000e+00 0.000000000000000e+00 0.000000000000000e+00

0.000000000000000e+00 0.000000000000000e+00 0.000000000000000e+00
0.000000000000000e+00 0.000000000000000e+00 0.000000000000000e+00
0.000000000000000e+00 0.000000000000000e+00 0.000000000000000e+00

0.000000000000000e+00 0.000000000000000e+00 0.000000000000000e+00
0.000000000000000e+00 0.000000000000000e+00 0.000000000000000e+00
0.000000000000000e+00 0.000000000000000e+00 0.000000000000000e+00

0.000000000000000e+00 0.000000000000000e+00 0.000000000000000e+00
0.000000000000000e+00 0.000000000000000e+00 0.000000000000000e+00
0.000000000000000e+00 0.000000000000000e+00 0.000000000000000e+00

0.000000000000000e+00 0.000000000000000e+00 0.000000000000000e+00
0.000000000000000e+00 0.000000000000000e+00 0.000000000000000e+00
0.000000000000000e+00 0.000000000000000e+00 0.000000000000000e+00

0.000000000000000e+00 0.000000000000000e+00 0.000000000000000e+00
0.000000000000000e+00 0.000000000000000e+00 0.000000000000000e+00
0.000000000000000e+00 0.000000000000000e+00 0.000000000000000e+00

0.000000000000000e+00 0.000000000000000e+00 0.000000000000000e+00
0.000000000000000e+00 0.000000000000000e+00 0.000000000000000e+00
0.000000000000000e+00 0.000000000000000e+00 0.000000000000000e+00

0.000000000000000e+00 0.000000000000000e+00 0.000000000000000e+00
0.000000000000000e+00 0.000000000000000e+00 0.000000000000000e+00
0.000000000000000e+00 0.000000000000000e+00 0.000000000000000e+00

0.000000000000000e+00 0.000000000000000e+00 0.000000000000000e+00
0.000000000000000e+00 0.000000000000000e+00 0.000000000000000e+00
0.000000000000000e+00 0.000000000000000e+00 0.000000000000000e+00

0.000000000000000e+00 0.000000000000000e+00 0.000000000000000e+00
0.000000000000000e+00 0.000000000000000e+00 0.000000000000000e+00
0.000000000000000e+00 0.000000000000000e+00 0.000000000000000e+00

0.000000000000000e+00 0.000000000000000e+00 0.000000000000000e+00
0.000000000000000e+00 0.000000000000000e+00 0.000000000000000e+00
0.000000000000000e+00 0.000000000000000e+00 0.000000000000000e+00

0.000000000000000e+00 0.000000000000000e+00 0.000000000000000e+00
0.000000000000000e+00 0.000000000000000e+00 0.000000000000000e+00
0.000000000000000e+00 0.000000000000000e+00 0.000000000000000e+00

0.000000000000000e+00 0.000000000000000e+00 0.000000000000000e+00
0.000000000000000e+00 0.000000000000000e+00 0.000000000000000e+00
0.000000000000000e+00 0.000000000000000e+00 0.000000000000000e+00

0.000000000000000e+00 0.000000000000000e+00 0.000000000000000e+00
0.000000000000000e+00 0.000000000000000e+00 0.000000000000000e+00
0.000000000000000e+00 0.000000000000000e+00 0.000000000000000e+00

0.000000000000000e+00 0.000000000000000e+00 0.000000000000000e+00
0.000000000000000e+00 0.000000000000000e+00 0.000000000000000e+00
0.000000000000000e+00 0.000000000000000e+00 0.000000000000000e+00

0.000000000000000e+00 0.000000000000000e+00 0.000000000000000e+00
0.000000000000000e+00 0.000000000000000e+00 0.000000000000000e+00
0.000000000000000e+00 0.000000000000000e+00 0.000000000000000e+00

0.000000000000000e+00 0.000000000000000e+00 0.000000000000000e+00
0.000000000000000e+00 0.000000000000000e+00 0.000000000000000e+00
0.000000000000000e+00 0.000000000000000e+00 0.000000000000000e+00

0.000000000000000e+00 0.000000000000000e+00 0.000000000000000e+00
0.000000000000000e+00 0.000000000000000e+00 0.000000000000000e+00
0.000000000000000e+00 0.000000000000000e+00 0.000000000000000e+00

0.000000000000000e+00 0.000000000000000e+00 0.000000000000000e+00
0.000000000000000e+00 0.000000000000000e+00 0.000000000000000e+00
0.000000000000000e+00 0.000000000000000e+00 0.000000000000000e+00

0.000000000000000e+00 0.000000000000000e+00 0.000000000000000e+00
0.000000000000000e+00 0.000000000000000e+00 0.000000000000000e+00
0.000000000000000e+00 0.000000000000000e+00 0.000000000000000e+00

0.000000000000000e+00 0.000000000000000e+00 0.000000000000000e+00
0.000000000000000e+00 0.000000000000000e+00 0.000000000000000e+00
0.000000000000000e+00 0.000000000000000e+00 0.000000000000000e+00

0.000000000000000e+00 0.000000000000000e+00 0.000000000000000e+00
0.000000000000000e+00 0.000000000000000e+00 0.000000000000000e+00
0.000000000000000e+00 0.000000000000000e+00 0.000000000000000e+00

0.000000000000000e+00 0.000000000000000e+00 0.000000000000000e+00
0.000000000000000e+00 0.000000000000000e+00 0.000000000000000e+00
0.000000000000000e+00 0.000000000000000e+00 0.000000000000000e+00

0.000000000000000e+00 0.000000000000000e+00 0.000000000000000e+00
0.000000000000000e+00 0.000000000000000e+00 0.000000000000000e+00
0.000000000000000e+00 0.000000000000000e+00 0.000000000000000e+00

0.000000000000000e+00 0.000000000000000e+00 0.000000000000000e+00
0.000000000000000e+00 0.000000000000000e+00 0.000000000000000e+00
0.000000000000000e+00 0.000000000000000e+00 0.000000000000000e+00

0.000000000000000e+00 0.000000000000000e+00 0.000000000000000e+00
0.000000000000000e+00 0.000000000000000e+00 0.000000000000000e+00
0.000000000000000e+00 0.000000000000000e+00 0.000000000000000e+00

0.000000000000000e+00 0.000000000000000e+00 0.000000000000000e+00
0.000000000000000e+00 0.000000000000000e+00 0.000000000000000e+00
0.000000000000000e+00 0.000000000000000e+00 0.000000000000000e+00

0.000000000000000e+00 0.000000000000000e+00 0.000000000000000e+00
0.000000000000000e+00 0.000000000000000e+00 0.000000000000000e+00
0.000000000000000e+00 0.000000000000000e+00 0.000000000000000e+00

0.000000000000000e+00 0.000000000000000e+00 0.000000000000000e+00
0.000000000000000e+00 0.000000000000000e+00 0.000000000000000e+00
0.000000000000000e+00 0.000000000000000e+00 0.000000000000000e+00

0.000000000000000e+00 0.000000000000000e+00 0.000000000000000e+00
0.000000000000000e+00 0.000000000000000e+00 0.000000000000000e+00
0.000000000000000e+00 0.000000000000000e+00 0.000000000000000e+00

0.000000000000000e+00 0.000000000000000e+00 0.000000000000000e+00
0.000000000000000e+00 0.000000000000000e+00 0.000000000000000e+00
0.000000000000000e+00 0.000000000000000e+00 0.000000000000000e+00

0.000000000000000e+00 0.000000000000000e+00 0.000000000000000e+00
0.000000000000000e+00 0.000000000000000e+00 0.000000000000000e+00
0.000000000000000e+00 0.000000000000000e+00 0.000000000000000e+00

0.000000000000000e+00 0.000000000000000e+00 0.000000000000000e+00
0.000000000000000e+00 0.000000000000000e+00 0.000000000000000e+00
0.000000000000000e+00 0.000000000000000e+00 0.000000000000000e+00

0.000000000000000e+00 0.000000000000000e+00 0.000000000000000e+00
0.000000000000000e+00 0.000000000000000e+00 0.000000000000000e+00
0.000000000000000e+00 0.000000000000000e+00 0.000000000000000e+00

0.000000000000000e+00 0.000000000000000e+00 0.000000000000000e+00
0.000000000000000e+00 0.000000000000000e+00 0.000000000000000e+00
0.000000000000000e+00 0.000000000000000e+00 0.000000000000000e+00

0.000000000000000e+00 0.000000000000000e+00 0.000000000000000e+00
0.000000000000000e+00 0.000000000000000e+00 0.000000000000000e+00
0.000000000000000e+00 0.000000000000000e+00 0.000000000000000e+00

0.000000000000000e+00 0.000000000000000e+00 0.000000000000000e+00
0.000000000000000e+00 0.000000000000000e+00 0.000000000000000e+00
0.000000000000000e+00 0.000000000000000e+00 0.000000000000000e+00

0.000000000000000e+00 0.000000000000000e+00 0.000000000000000e+00
0.000000000000000e+00 0.000000000000000e+00 0.000000000000000e+00
0.000000000000000e+00 0.000000000000000e+00 0.000000000000000e+00

0.000000000000000e+00 0.000000000000000e+00 0.000000000000000e+00
0.000000000000000e+00 0.000000000000000e+00 0.000000000000000e+00
0.000000000000000e+00 0.000000000000000e+00 0.000000000000000e+00

0.000000000000000e+00 0.000000000000000e+00 0.000000000000000e+00
0.000000000000000e+00 0.000000000000000e+00 0.000000000000000e+00
0.000000000000000e+00 0.000000000000000e+00 0.000000000000000e+00

0.000000000000000e+00 0.000000000000000e+00 0.000000000000000e+00
0.000000000000000e+00 0.000000000000000e+00 0.000000000000000e+00
0.000000000000000e+00 0.000000000000000e+00 0.000000000000000e+00

0.000000000000000e+00 0.000000000000000e+00 0.000000000000000e+00
0.000000000000000e+00 0.000000000000000e+00 0.000000000000000e+00
0.000000000000000e+00 0.000000000000000e+00 0.000000000000000e+00

0.000000000000000e+00 0.000000000000000e+00 0.000000000000000e+00
0.000000000000000e+00 0.000000000000000e+00 0.000000000000000e+00
0.000000000000000e+00 0.000000000000000e+00 0.000000000000000e+00

0.000000000000000e+00 0.000000000000000e+00 0.000000000000000e+00
0.000000000000000e+00 0.000000000000000e+00 0.000000000000000e+00
0.000000000000000e+00 0.000000000000000e+00 0.000000000000000e+00

0.000000000000000e+00 0.000000000000000e+00 0.000000000000000e+00
0.000000000000000e+00 0.000000000000000e+00 0.000000000000000e+00
0.000000000000000e+00 0.000000000000000e+00 0.000000000000000e+00

0.000000000000000e+00 0.000000000000000e+00 0.000000000000000e+00
0.000000000000000e+00 0.000000000000000e+00 0.000000000000000e+00
0.000000000000000e+00 0.000000000000000e+00 0.000000000000000e+00

0.000000000000000e+00 0.000000000000000e+00 0.000000000000000e+00
0.000000000000000e+00 0.000000000000000e+00 0.000000000000000e+00
0.000000000000000e+00 0.000000000000000e+00 0.000000000000000e+00

0.000000000000000e+00 0.000000000000000e+00 0.000000000000000e+00
0.000000000000000e+00 0.000000000000000e+00 0.000000000000000e+00
0.000000000000000e+00 0.000000000000000e+00 0.000000000000000e+00

0.000000000000000e+00 0.000000000000000e+00 0.000000000000000e+00
0.000000000000000e+00 0.000000000000000e+00 0.000000000000000e+00
0.000000000000000e+00 0.000000000000000e+00 0.000000000000000e+00

0.000000000000000e+00 0.000000000000000e+00 0.000000000000000e+00
0.000000000000000e+00 0.000000000000000e+00 0.000000000000000e+00
0.000000000000000e+00 0.000000000000000e+00 0.000000000000000e+00

0.000000000000000e+00 0.000000000000000e+00 0.000000000000000e+00
0.000000000000000e+00 0.000000000000000e+00 0.000000000000000e+00
0.000000000000000e+00 0.000000000000000e+00 0.000000000000000e+00

0.000000000000000e+00 0.000000000000000e+00 0.000000000000000e+00
0.000000000000000e+00 0.000000000000000e+00 0.000000000000000e+00
0.000000000000000e+00 0.000000000000000e+00 0.000000000000000e+00

0.000000000000000e+00 0.000000000000000e+00 0.000000000000000e+00
0.000000000000000e+00 0.000000000000000e+00 0.000000000000000e+00
0.000000000000000e+00 0.000000000000000e+00 0.000000000000000e+00

0.000000000000000e+00 0.000000000000000e+00 0.000000000000000e+00
0.000000000000000e+00 0.000000000000000e+00 0.000000000000000e+00
0.000000000000000e+00 0.000000000000000e+00 0.000000000000000e+00

0.000000000000000e+00 0.000000000000000e+00 0.000000000000000e+00
0.000000000000000e+00 0.000000000000000e+00 0.000000000000000e+00
0.000000000000000e+00 0.000000000000000e+00 0.000000000000000e+00

0.000000000000000e+00 0.000000000000000e+00 0.000000000000000e+00
0.000000000000000e+00 0.000000000000000e+00 0.000000000000000e+00
0.000000000000000e+00 0.000000000000000e+00 0.000000000000000e+00

0.000000000000000e+00 0.000000000000000e+00 0.000000000000000e+00
0.000000000000000e+00 0.000000000000000e+00 0.000000000000000e+00
0.000000000000000e+00 0.000000000000000e+00 0.000000000000000e+00

0.000000000000000e+00 0.000000000000000e+00 0.000000000000000e+00
0.000000000000000e+00 0.000000000000000e+00 0.000000000000000e+00
0.000000000000000e+00 0.000000000000000e+00 0.000000000000000e+00

0.000000000000000e+00 0.000000000000000e+00 0.000000000000000e+00
0.000000000000000e+00 0.000000000000000e+00 0.000000000000000e+00
0.000000000000000e+00 0.000000000000000e+00 0.000000000000000e+00

0.000000000000000e+00 0.000000000000000e+00 0.000000000000000e+00
0.000000000000000e+00 0.000000000000000e+00 0.000000000000000e+00
0.000000000000000e+00 0.000000000000000e+00 0.000000000000000e+00

0.000000000000000e+00 0.000000000000000e+00 0.000000000000000e+00
0.000000000000000e+00 0.000000000000000e+00 0.000000000000000e+00
0.000000000000000e+00 0.000000000000000e+00 0.000000000000000e+00

0.000000000000000e+00 0.000000000000000e+00 0.000000000000000e+00
0.000000000000000e+00 0.000000000000000e+00 0.000000000000000e+00
0.000000000000000e+00 0.000000000000000e+00 0.000000000000000e+00

0.000000000000000e+00 0.000000000000000e+00 0.000000000000000e+00
0.000000000000000e+00 0.000000000000000e+00 0.000000000000000e+00
0.000000000000000e+00 0.000000000000000e+00 0.000000000000000e+00

0.000000000000000e+00 0.000000000000000e+00 0.000000000000000e+00
0.000000000000000e+00 0.000000000000000e+00 0.000000000000000e+00
0.000000000000000e+00 0.000000000000000e+00 0.000000000000000e+00

0.000000000000000e+00 0.000000000000000e+00 0.000000000000000e+00
0.000000000000000e+00 0.000000000000000e+00 0.000000000000000e+00
0.000000000000000e+00 0.000000000000000e+00 0.000000000000000e+00

0.000000000000000e+00 0.000000000000000e+00 0.000000000000000e+00
0.000000000000000e+00 0.000000000000000e+00 0.000000000000000e+00
0.000000000000000e+00 0.000000000000000e+00 0.000000000000000e+00

0.000000000000000e+00 0.000000000000000e+00 0.000000000000000e+00
0.000000000000000e+00 0.000000000000000e+00 0.000000000000000e+00
0.000000000000000e+00 0.000000000000000e+00 0.000000000000000e+00

0.000000000000000e+00 0.000000000000000e+00 0.000000000000000e+00
0.000000000000000e+00 0.000000000000000e+00 0.000000000000000e+00
0.000000000000000e+00 0.000000000000000e+00 0.000000000000000e+00

0.000000000000000e+00 0.000000000000000e+00 0.000000000000000e+00
0.000000000000000e+00 0.000000000000000e+00 0.000000000000000e+00
0.000000000000000e+00 0.000000000000000e+00 0.000000000000000e+00

0.000000000000000e+00 0.000000000000000e+00 0.000000000000000e+00
0.000000000000000e+00 0.000000000000000e+00 0.000000000000000e+00
0.000000000000000e+00 0.000000000000000e+00 0.000000000000000e+00

0.000000000000000e+00 0.000000000000000e+00 0.000000000000000e+00
0.000000000000000e+00 0.000000000000000e+00 0.000000000000000e+00
0.000000000000000e+00 0.000000000000000e+00 0.000000000000000e+00

0.000000000000000e+00 0.000000000000000e+00 0.000000000000000e+00
0.000000000000000e+00 0.000000000000000e+00 0.000000000000000e+00
0.000000000000000e+00 0.000000000000000e+00 0.000000000000000e+00

0.000000000000000e+00 0.000000000000000e+00 0.000000000000000e+00
0.000000000000000e+00 0.000000000000000e+00 0.000000000000000e+00
0.000000000000000e+00 0.000000000000000e+00 0.000000000000000e+00

0.000000000000000e+00 0.000000000000000e+00 0.000000000000000e+00
0.000000000000000e+00 0.000000000000000e+00 0.000000000000000e+00
0.000000000000000e+00 0.000000000000000e+00 0.000000000000000e+00

0.000000000000000e+00 0.000000000000000e+00 0.000000000000000e+00
0.000000000000000e+00 0.000000000000000e+00 0.000000000000000e+00
0.000000000000000e+00 0.000000000000000e+00 0.000000000000000e+00

0.000000000000000e+00 0.000000000000000e+00 0.000000000000000e+00
0.000000000000000e+00 0.000000000000000e+00 0.000000000000000e+00
0.000000000000000e+00 0.000000000000000e+00 0.000000000000000e+00

0.000000000000000e+00 0.000000000000000e+00 0.000000000000000e+00
0.000000000000000e+00 0.000000000000000e+00 0.000000000000000e+00
0.000000000000000e+00 0.000000000000000e+00 0.000000000000000e+00

0.000000000000000e+00 0.000000000000000e+00 0.000000000000000e+00
0.000000000000000e+00 0.000000000000000e+00 0.000000000000000e+00
0.000000000000000e+00 0.000000000000000e+00 0.000000000000000e+00

0.000000000000000e+00 0.000000000000000e+00 0.000000000000000e+00
0.000000000000000e+00 0.000000000000000e+00 0.000000000000000e+00
0.000000000000000e+00 0.000000000000000e+00 0.000000000000000e+00

0.000000000000000e+00 0.000000000000000e+00 0.000000000000000e+00
0.000000000000000e+00 0.000000000000000e+00 0.000000000000000e+00
0.000000000000000e+00 0.000000000000000e+00 0.000000000000000e+00

0.000000000000000e+00 0.000000000000000e+00 0.000000000000000e+00
0.000000000000000e+00 0.000000000000000e+00 0.000000000000000e+00
0.000000000000000e+00 0.000000000000000e+00 0.000000000000000e+00

0.000000000000000e+00 0.000000000000000e+00 0.000000000000000e+00
0.000000000000000e+00 0.000000000000000e+00 0.000000000000000e+00
0.000000000000000e+00 0.000000000000000e+00 0.000000000000000e+00

0.000000000000000e+00 0.000000000000000e+00 0.000000000000000e+00
0.000000000000000e+00 0.000000000000000e+00 0.000000000000000e+00
0.000000000000000e+00 0.000000000000000e+00 0.000000000000000e+00

0.000000000000000e+00 0.000000000000000e+00 0.000000000000000e+00
0.000000000000000e+00 0.000000000000000e+00 0.000000000000000e+00
0.000000000000000e+00 0.000000000000000e+00 0.000000000000000e+00

0.000000000000000e+00 0.000000000000000e+00 0.000000000000000e+00
0.000000000000000e+00 0.000000000000000e+00 0.000000000000000e+00
0.000000000000000e+00 0.000000000000000e+00 0.000000000000000e+00

0.000000000000000e+00 0.000000000000000e+00 0.000000000000000e+00
0.000000000000000e+00 0.000000000000000e+00 0.000000000000000e+00
0.000000000000000e+00 0.000000000000000e+00 0.000000000000000e+00

0.000000000000000e+00 0.000000000000000e+00 0.000000000000000e+00
0.000000000000000e+00 0.000000000000000e+00 0.000000000000000e+00
0.000000000000000e+00 0.000000000000000e+00 0.000000000000000e+00

0.000000000000000e+00 0.000000000000000e+00 0.000000000000000e+00
0.000000000000000e+00 0.000000000000000e+00 0.000000000000000e+00
0.000000000000000e+00 0.000000000000000e+00 0.000000000000000e+00

0.000000000000000e+00 0.000000000000000e+00 0.000000000000000e+00
0.000000000000000e+00 0.000000000000000e+00 0.000000000000000e+00
0.000000000000000e+00 0.000000000000000e+00 0.000000000000000e+00

0.000000000000000e+00 0.000000000000000e+00 0.000000000000000e+00
0.000000000000000e+00 0.000000000000000e+00 0.000000000000000e+00
0.000000000000000e+00 0.000000000000000e+00 0.000000000000000e+00

0.000000000000000e+00 0.000000000000000e+00 0.000000000000000e+00
0.000000000000000e+00 0.000000000000000e+00 0.000000000000000e+00
0.000000000000000e+00 0.000000000000000e+00 0.000000000000000e+00

0.000000000000000e+00 0.000000000000000e+00 0.000000000000000e+00
0.000000000000000e+00 0.000000000000000e+00 0.000000000000000e+00
0.000000000000000e+00 0.000000000000000e+00 0.000000000000000e+00

0.000000000000000e+00 0.000000000000000e+00 0.000000000000000e+00
0.000000000000000e+00 0.000000000000000e+00 0.000000000000000e+00
0.000000000000000e+00 0.000000000000000e+00 0.000000000000000e+00

0.000000000000000e+00 0.000000000000000e+00 0.000000000000000e+00
0.000000000000000e+00 0.000000000000000e+00 0.000000000000000e+00
0.000000000000000e+00 0.000000000000000e+00 0.000000000000000e+00

0.000000000000000e+00 0.000000000000000e+00 0.000000000000000e+00
0.000000000000000e+00 0.000000000000000e+00 0.000000000000000e+00
0.000000000000000e+00 0.000000000000000e+00 0.000000000000000e+00

0.000000000000000e+00 0.000000000000000e+00 0.000000000000000e+00
0.000000000000000e+00 0.000000000000000e+00 0.000000000000000e+00
0.000000000000000e+00 0.000000000000000e+00 0.000000000000000e+00

0.000000000000000e+00 0.000000000000000e+00 0.000000000000000e+00
0.000000000000000e+00 0.000000000000000e+00 0.000000000000000e+00
0.000000000000000e+00 0.000000000000000e+00 0.000000000000000e+00

0.000000000000000e+00 0.000000000000000e+00 0.000000000000000e+00
0.000000000000000e+00 0.000000000000000e+00 0.000000000000000e+00
0.000000000000000e+00 0.000000000000000e+00 0.000000000000000e+00

0.000000000000000e+00 0.000000000000000e+00 0.000000000000000e+00
0.000000000000000e+00 0.000000000000000e+00 0.000000000000000e+00
0.000000000000000e+00 0.000000000000000e+00 0.000000000000000e+00

0.000000000000000e+00 0.000000000000000e+00 0.000000000000000e+00
0.000000000000000e+00 0.000000000000000e+00 0.000000000000000e+00
0.000000000000000e+00 0.000000000000000e+00 0.000000000000000e+00

0.000000000000000e+00 0.000000000000000e+00 0.000000000000000e+00
0.000000000000000e+00 0.000000000000000e+00 0.000000000000000e+00
0.000000000000000e+00 0.000000000000000e+00 0.000000000000000e+00

0.000000000000000e+00 0.000000000000000e+00 0.000000000000000e+00
0.000000000000000e+00 0.000000000000000e+00 0.000000000000000e+00
0.000000000000000e+00 0.000000000000000e+00 0.000000000000000e+00

0.000000000000000e+00 0.000000000000000e+00 0.000000000000000e+00
0.000000000000000e+00 0.000000000000000e+00 0.000000000000000e+00
0.000000000000000e+00 0.000000000000000e+00 0.000000000000000e+00

0.000000000000000e+00 0.000000000000000e+00 0.000000000000000e+00
0.000000000000000e+00 0.000000000000000e+00 0.000000000000000e+00
0.000000000000000e+00 0.000000000000000e+00 0.000000000000000e+00

0.000000000000000e+00 0.000000000000000e+00 0.000000000000000e+00
0.000000000000000e+00 0.000000000000000e+00 0.000000000000000e+00
0.000000000000000e+00 0.000000000000000e+00 0.000000000000000e+00

0.000000000000000e+00 0.000000000000000e+00 0.000000000000000e+00
0.000000000000000e+00 0.000000000000000e+00 0.000000000000000e+00
0.000000000000000e+00 0.000000000000000e+00 0.000000000000000e+00

0.000000000000000e+00 0.000000000000000e+00 0.000000000000000e+00
0.000000000000000e+00 0.000000000000000e+00 0.000000000000000e+00
0.000000000000000e+00 0.000000000000000e+00 0.000000000000000e+00

0.000000000000000e+00 0.000000000000000e+00 0.000000000000000e+00
0.000000000000000e+00 0.000000000000000e+00 0.000000000000000e+00
0.000000000000000e+00 0.000000000000000e+00 0.000000000000000e+00

0.000000000000000e+00 0.000000000000000e+00 0.000000000000000e+00
0.000000000000000e+00 0.000000000000000e+00 0.000000000000000e+00
0.000000000000000e+00 0.000000000000000e+00 0.000000000000000e+00

0.000000000000000e+00 0.000000000000000e+00 0.000000000000000e+00
0.000000000000000e+00 0.000000000000000e+00 0.000000000000000e+00
0.000000000000000e+00 0.000000000000000e+00 0.000000000000000e+00

0.000000000000000e+00 0.000000000000000e+00 0.000000000000000e+00
0.000000000000000e+00 0.000000000000000e+00 0.000000000000000e+00
0.000000000000000e+00 0.000000000000000e+00 0.000000000000000e+00

0.000000000000000e+00 0.000000000000000e+00 0.000000000000000e+00
0.000000000000000e+00 0.000000000000000e+00 0.000000000000000e+00
0.000000000000000e+00 0.000000000000000e+00 0.000000000000000e+00

0.000000000000000e+00 0.000000000000000e+00 0.000000000000000e+00
0.000000000000000e+00 0.000000000000000e+00 0.000000000000000e+00
0.000000000000000e+00 0.000000000000000e+00 0.000000000000000e+00

0.000000000000000e+00 0.000000000000000e+00 0.000000000000000e+00
0.000000000000000e+00 0.000000000000000e+00 0.000000000000000e+00
0.000000000000000e+00 0.000000000000000e+00 0.000000000000000e+00

0.000000000000000e+00 0.000000000000000e+00 0.000000000000000e+00
0.000000000000000e+00 0.000000000000000e+00 0.000000000000000e+00
0.000000000000000e+00 0.000000000000000e+00 0.000000000000000e+00

0.000000000000000e+00 0.000000000000000e+00 0.000000000000000e+00
0.000000000000000e+00 0.000000000000000e+00 0.000000000000000e+00
0.000000000000000e+00 0.000000000000000e+00 0.000000000000000e+00

0.000000000000000e+00 0.000000000000000e+00 0.000000000000000e+00
0.000000000000000e+00 0.000000000000000e+00 0.000000000000000e+00
0.000000000000000e+00 0.000000000000000e+00 0.000000000000000e+00

0.000000000000000e+00 0.000000000000000e+00 0.000000000000000e+00
0.000000000000000e+00 0.000000000000000e+00 0.000000000000000e+00
0.000000000000000e+00 0.000000000000000e+00 0.000000000000000e+00

0.000000000000000e+00 0.000000000000000e+00 0.000000000000000e+00
0.000000000000000e+00 0.000000000000000e+00 0.000000000000000e+00
0.000000000000000e+00 0.000000000000000e+00 0.000000000000000e+00

0.000000000000000e+00 0.000000000000000e+00 0.000000000000000e+00
0.000000000000000e+00 0.000000000000000e+00 0.000000000000000e+00
0.000000000000000e+00 0.000000000000000e+00 0.000000000000000e+00

0.000000000000000e+00 0.000000000000000e+00 0.000000000000000e+00
0.000000000000000e+00 0.000000000000000e+00 0.000000000000000e+00
0.000000000000000e+00 0.000000000000000e+00 0.000000000000000e+00

0.000000000000000e+00 0.000000000000000e+00 0.000000000000000e+00
0.000000000000000e+00 0.000000000000000e+00 0.000000000000000e+00
0.000000000000000e+00 0.000000000000000e+00 0.000000000000000e+00

0.000000000000000e+00 0.000000000000000e+00 0.000000000000000e+00
0.000000000000000e+00 0.000000000000000e+00 0.000000000000000e+00
0.000000000000000e+00 0.000000000000000e+00 0.000000000000000e+00

0.000000000000000e+00 0.000000000000000e+00 0.000000000000000e+00
0.000000000000000e+00 0.000000000000000e+00 0.000000000000000e+00
0.000000000000000e+00 0.000000000000000e+00 0.000000000000000e+00

0.000000000000000e+00 0.000000000000000e+00 0.000000000000000e+00
0.000000000000000e+00 0.000000000000000e+00 0.000000000000000e+00
0.000000000000000e+00 0.000000000000000e+00 0.000000000000000e+00

0.000000000000000e+00 0.000000000000000e+00 0.000000000000000e+00
0.000000000000000e+00 0.000000000000000e+00 0.000000000000000e+00
0.000000000000000e+00 0.000000000000000e+00 0.000000000000000e+00

0.000000000000000e+00 0.000000000000000e+00 0.000000000000000e+00
0.000000000000000e+00 0.000000000000000e+00 0.000000000000000e+00
0.000000000000000e+00 0.000000000000000e+00 0.000000000000000e+00

0.000000000000000e+00 0.000000000000000e+00 0.000000000000000e+00
0.000000000000000e+00 0.000000000000000e+00 0.000000000000000e+00
0.000000000000000e+00 0.000000000000000e+00 0.000000000000000e+00

0.000000000000000e+00 0.000000000000000e+00 0.000000000000000e+00
0.000000000000000e+00 0.000000000000000e+00 0.000000000000000e+00
0.000000000000000e+00 0.000000000000000e+00 0.000000000000000e+00

0.000000000000000e+00 0.000000000000000e+00 0.000000000000000e+00
0.000000000000000e+00 0.000000000000000e+00 0.000000000000000e+00
0.000000000000000e+00 0.000000000000000e+00 0.000000000000000e+00

0.000000000000000e+00 0.000000000000000e+00 0.000000000000000e+00
0.000000000000000e+00 0.000000000000000e+00 0.000000000000000e+00
0.000000000000000e+00 0.000000000000000e+00 0.000000000000000e+00

0.000000000000000e+00 0.000000000000000e+00 0.000000000000000e+00
0.000000000000000e+00 0.000000000000000e+00 0.000000000000000e+00
0.000000000000000e+00 0.000000000000000e+00 0.000000000000000e+00

0.000000000000000e+00 0.000000000000000e+00 0.000000000000000e+00
0.000000000000000e+00 0.000000000000000e+00 0.000000000000000e+00
0.000000000000000e+00 0.000000000000000e+00 0.000000000000000e+00

0.000000000000000e+00 0.000000000000000e+00 0.000000000000000e+00
0.000000000000000e+00 0.000000000000000e+00 0.000000000000000e+00
0.000000000000000e+00 0.000000000000000e+00 0.000000000000000e+00

0.000000000000000e+00 0.000000000000000e+00 0.000000000000000e+00
0.000000000000000e+00 0.000000000000000e+00 0.000000000000000e+00
0.000000000000000e+00 0.000000000000000e+00 0.000000000000000e+00

0.000000000000000e+00 0.000000000000000e+00 0.000000000000000e+00
0.000000000000000e+00 0.000000000000000e+00 0.000000000000000e+00
0.000000000000000e+00 0.000000000000000e+00 0.000000000000000e+00

0.000000000000000e+00 0.000000000000000e+00 0.000000000000000e+00
0.000000000000000e+00 0.000000000000000e+00 0.000000000000000e+00
0.000000000000000e+00 0.000000000000000e+00 0.000000000000000e+00

0.000000000000000e+00 0.000000000000000e+00 0.000000000000000e+00
0.000000000000000e+00 0.000000000000000e+00 0.000000000000000e+00
0.000000000000000e+00 0.000000000000000e+00 0.000000000000000e+00

0.000000000000000e+00 0.000000000000000e+00 0.000000000000000e+00
0.000000000000000e+00 0.000000000000000e+00 0.000000000000000e+00
0.000000000000000e+00 0.000000000000000e+00 0.000000000000000e+00

0.000000000000000e+00 0.000000000000000e+00 0.000000000000000e+00
0.000000000000000e+00 0.000000000000000e+00 0.000000000000000e+00
0.000000000000000e+00 0.000000000000000e+00 0.000000000000000e+00

0.000000000000000e+00 0.000000000000000e+00 0.000000000000000e+00
0.000000000000000e+00 0.000000000000000e+00 0.000000000000000e+00
0.000000000000000e+00 0.000000000000000e+00 0.000000000000000e+00

0.000000000000000e+00 0.000000000000000e+00 0.000000000000000e+00
0.000000000000000e+00 0.000000000000000e+00 0.000000000000000e+00
0.000000000000000e+00 0.000000000000000e+00 0.000000000000000e+00

0.000000000000000e+00 0.000000000000000e+00 0.000000000000000e+00
0.000000000000000e+00 0.000000000000000e+00 0.000000000000000e+00
0.000000000000000e+00 0.000000000000000e+00 0.000000000000000e+00

0.000000000000000e+00 0.000000000000000e+00 0.000000000000000e+00
0.000000000000000e+00 0.000000000000000e+00 0.000000000000000e+00
0.000000000000000e+00 0.000000000000000e+00 0.000000000000000e+00

0.000000000000000e+00 0.000000000000000e+00 0.000000000000000e+00
0.000000000000000e+00 0.000000000000000e+00 0.000000000000000e+00
0.000000000000000e+00 0.000000000000000e+00 0.000000000000000e+00

0.000000000000000e+00 0.000000000000000e+00 0.000000000000000e+00
0.000000000000000e+00 0.000000000000000e+00 0.000000000000000e+00
0.000000000000000e+00 0.000000000000000e+00 0.000000000000000e+00

0.000000000000000e+00 0.000000000000000e+00 0.000000000000000e+00
0.000000000000000e+00 0.000000000000000e+00 0.000000000000000e+00
0.000000000000000e+00 0.000000000000000e+00 0.000000000000000e+00

0.000000000000000e+00 0.000000000000000e+00 0.000000000000000e+00
0.000000000000000e+00 0.000000000000000e+00 0.000000000000000e+00
0.000000000000000e+00 0.000000000000000e+00 0.000000000000000e+00

0.000000000000000e+00 0.000000000000000e+00 0.000000000000000e+00
0.000000000000000e+00 0.000000000000000e+00 0.000000000000000e+00
0.000000000000000e+00 0.000000000000000e+00 0.000000000000000e+00

0.000000000000000e+00 0.000000000000000e+00 0.000000000000000e+00
0.000000000000000e+00 0.000000000000000e+00 0.000000000000000e+00
0.000000000000000e+00 0.000000000000000e+00 0.000000000000000e+00

0.000000000000000e+00 0.000000000000000e+00 0.000000000000000e+00
0.000000000000000e+00 0.000000000000000e+00 0.000000000000000e+00
0.000000000000000e+00 0.000000000000000e+00 0.000000000000000e+00

0.000000000000000e+00 0.000000000000000e+00 0.000000000000000e+00
0.000000000000000e+00 0.000000000000000e+00 0.000000000000000e+00
0.000000000000000e+00 0.000000000000000e+00 0.000000000000000e+00

0.000000000000000e+00 0.000000000000000e+00 0.000000000000000e+00
0.000000000000000e+00 0.000000000000000e+00 0.000000000000000e+00
0.000000000000000e+00 0.000000000000000e+00 0.000000000000000e+00

0.000000000000000e+00 0.000000000000000e+00 0.000000000000000e+00
0.000000000000000e+00 0.000000000000000e+00 0.000000000000000e+00
0.000000000000000e+00 0.000000000000000e+00 0.000000000000000e+00

0.000000000000000e+00 0.000000000000000e+00 0.000000000000000e+00
0.000000000000000e+00 0.000000000000000e+00 0.000000000000000e+00
0.000000000000000e+00 0.000000000000000e+00 0.000000000000000e+00

0.000000000000000e+00 0.000000000000000e+00 0.000000000000000e+00
0.000000000000000e+00 0.000000000000000e+00 0.000000000000000e+00
0.000000000000000e+00 0.000000000000000e+00 0.000000000000000e+00

0.000000000000000e+00 0.000000000000000e+00 0.000000000000000e+00
0.000000000000000e+00 0.000000000000000e+00 0.000000000000000e+00
0.000000000000000e+00 0.000000000000000e+00 0.000000000000000e+00

0.000000000000000e+00 0.000000000000000e+00 0.000000000000000e+00
0.000000000000000e+00 0.000000000000000e+00 0.000000000000000e+00
0.000000000000000e+00 0.000000000000000e+00 0.000000000000000e+00

0.000000000000000e+00 0.000000000000000e+00 0.000000000000000e+00
0.000000000000000e+00 0.000000000000000e+00 0.000000000000000e+00
0.000000000000000e+00 0.000000000000000e+00 0.000000000000000e+00

0.000000000000000e+00 0.000000000000000e+00 0.000000000000000e+00
0.000000000000000e+00 0.000000000000000e+00 0.000000000000000e+00
0.000000000000000e+00 0.000000000000000e+00 0.000000000000000e+00

0.000000000000000e+00 0.000000000000000e+00 0.000000000000000e+00
0.000000000000000e+00 0.000000000000000e+00 0.000000000000000e+00
0.000000000000000e+00 0.000000000000000e+00 0.000000000000000e+00

0.000000000000000e+00 0.000000000000000e+00 0.000000000000000e+00
0.000000000000000e+00 0.000000000000000e+00 0.000000000000000e+00
0.000000000000000e+00 0.000000000000000e+00 0.000000000000000e+00

0.000000000000000e+00 0.000000000000000e+00 0.000000000000000e+00
0.000000000000000e+00 0.000000000000000e+00 0.000000000000000e+00
0.000000000000000e+00 0.000000000000000e+00 0.000000000000000e+00

0.000000000000000e+00 0.000000000000000e+00 0.000000000000000e+00
0.000000000000000e+00 0.000000000000000e+00 0.000000000000000e+00
0.000000000000000e+00 0.000000000000000e+00 0.000000000000000e+00

0.000000000000000e+00 0.000000000000000e+00 0.000000000000000e+00
0.000000000000000e+00 0.000000000000000e+00 0.000000000000000e+00
0.000000000000000e+00 0.000000000000000e+00 0.000000000000000e+00

0.000000000000000e+00 0.000000000000000e+00 0.000000000000000e+00
0.000000000000000e+00 0.000000000000000e+00 0.000000000000000e+00
0.000000000000000e+00 0.000000000000000e+00 0.000000000000000e+00

0.000000000000000e+00 0.000000000000000e+00 0.000000000000000e+00
0.000000000000000e+00 0.000000000000000e+00 0.000000000000000e+00
0.000000000000000e+00 0.000000000000000e+00 0.000000000000000e+00

0.000000000000000e+00 0.000000000000000e+00 0.000000000000000e+00
0.000000000000000e+00 0.000000000000000e+00 0.000000000000000e+00
0.000000000000000e+00 0.000000000000000e+00 0.000000000000000e+00

0.000000000000000e+00 0.000000000000000e+00 0.000000000000000e+00
0.000000000000000e+00 0.000000000000000e+00 0.000000000000000e+00
0.000000000000000e+00 0.000000000000000e+00 0.000000000000000e+00

0.000000000000000e+00 0.000000000000000e+00 0.000000000000000e+00
0.000000000000000e+00 0.000000000000000e+00 0.000000000000000e+00
0.000000000000000e+00 0.000000000000000e+00 0.000000000000000e+00

0.000000000000000e+00 0.000000000000000e+00 0.000000000000000e+00
0.000000000000000e+00 0.000000000000000e+00 0.000000000000000e+00
0.000000000000000e+00 0.000000000000000e+00 0.000000000000000e+00

0.000000000000000e+00 0.000000000000000e+00 0.000000000000000e+00
0.000000000000000e+00 0.000000000000000e+00 0.000000000000000e+00
0.000000000000000e+00 0.000000000000000e+00 0.000000000000000e+00

0.000000000000000e+00 0.000000000000000e+00 0.000000000000000e+00
0.000000000000000e+00 0.000000000000000e+00 0.000000000000000e+00
0.000000000000000e+00 0.000000000000000e+00 0.000000000000000e+00

0.000000000000000e+00 0.000000000000000e+00 0.000000000000000e+00
0.000000000000000e+00 0.000000000000000e+00 0.000000000000000e+00
0.000000000000000e+00 0.000000000000000e+00 0.000000000000000e+00

0.000000000000000e+00 0.000000000000000e+00 0.000000000000000e+00
0.000000000000000e+00 0.000000000000000e+00 0.000000000000000e+00
0.000000000000000e+00 0.000000000000000e+00 0.000000000000000e+00

0.000000000000000e+00 0.000000000000000e+00 0.000000000000000e+00
0.000000000000000e+00 0.000000000000000e+00 0.000000000000000e+00
0.000000000000000e+00 0.000000000000000e+00 0.000000000000000e+00

0.000000000000000e+00 0.000000000000000e+00 0.000000000000000e+00
0.000000000000000e+00 0.000000000000000e+00 0.000000000000000e+00
0.000000000000000e+00 0.000000000000000e+00 0.000000000000000e+00

0.000000000000000e+00 0.000000000000000e+00 0.000000000000000e+00
0.000000000000000e+00 0.000000000000000e+00 0.000000000000000e+00
0.000000000000000e+00 0.000000000000000e+00 0.000000000000000e+00

0.000000000000000e+00 0.000000000000000e+00 0.000000000000000e+00
0.000000000000000e+00 0.000000000000000e+00 0.000000000000000e+00
0.000000000000000e+00 0.000000000000000e+00 0.000000000000000e+00

0.000000000000000e+00 0.000000000000000e+00 0.000000000000000e+00
0.000000000000000e+00 0.000000000000000e+00 0.000000000000000e+00
0.000000000000000e+00 0.000000000000000e+00 0.000000000000000e+00

0.000000000000000e+00 0.000000000000000e+00 0.000000000000000e+00
0.000000000000000e+00 0.000000000000000e+00 0.000000000000000e+00
0.000000000000000e+00 0.000000000000000e+00 0.000000000000000e+00

0.000000000000000e+00 0.000000000000000e+00 0.000000000000000e+00
0.000000000000000e+00 0.000000000000000e+00 0.000000000000000e+00
0.000000000000000e+00 0.000000000000000e+00 0.000000000000000e+00

0.000000000000000e+00 0.000000000000000e+00 0.000000000000000e+00
0.000000000000000e+00 0.000000000000000e+00 0.000000000000000e+00
0.000000000000000e+00 0.000000000000000e+00 0.000000000000000e+00

0.000000000000000e+00 0.000000000000000e+00 0.000000000000000e+00
0.000000000000000e+00 0.000000000000000e+00 0.000000000000000e+00
0.000000000000000e+00 0.000000000000000e+00 0.000000000000000e+00

0.000000000000000e+00 0.000000000000000e+00 0.000000000000000e+00
0.000000000000000e+00 0.000000000000000e+00 0.000000000000000e+00
0.000000000000000e+00 0.000000000000000e+00 0.000000000000000e+00

0.000000000000000e+00 0.000000000000000e+00 0.000000000000000e+00
0.000000000000000e+00 0.000000000000000e+00 0.000000000000000e+00
0.000000000000000e+00 0.000000000000000e+00 0.000000000000000e+00

0.000000000000000e+00 0.000000000000000e+00 0.000000000000000e+00
0.000000000000000e+00 0.000000000000000e+00 0.000000000000000e+00
0.000000000000000e+00 0.000000000000000e+00 0.000000000000000e+00

0.000000000000000e+00 0.000000000000000e+00 0.000000000000000e+00
0.000000000000000e+00 0.000000000000000e+00 0.000000000000000e+00
0.000000000000000e+00 0.000000000000000e+00 0.000000000000000e+00

0.000000000000000e+00 0.000000000000000e+00 0.000000000000000e+00
0.000000000000000e+00 0.000000000000000e+00 0.000000000000000e+00
0.000000000000000e+00 0.000000000000000e+00 0.000000000000000e+00

0.000000000000000e+00 0.000000000000000e+00 0.000000000000000e+00
0.000000000000000e+00 0.000000000000000e+00 0.000000000000000e+00
0.000000000000000e+00 0.000000000000000e+00 0.000000000000000e+00

0.000000000000000e+00 0.000000000000000e+00 0.000000000000000e+00
0.000000000000000e+00 0.000000000000000e+00 0.000000000000000e+00
0.000000000000000e+00 0.000000000000000e+00 0.000000000000000e+00

0.000000000000000e+00 0.000000000000000e+00 0.000000000000000e+00
0.000000000000000e+00 0.000000000000000e+00 0.000000000000000e+00
0.000000000000000e+00 0.000000000000000e+00 0.000000000000000e+00

0.000000000000000e+00 0.000000000000000e+00 0.000000000000000e+00
0.000000000000000e+00 0.000000000000000e+00 0.000000000000000e+00
0.000000000000000e+00 0.000000000000000e+00 0.000000000000000e+00

0.000000000000000e+00 0.000000000000000e+00 0.000000000000000e+00
0.000000000000000e+00 0.000000000000000e+00 0.000000000000000e+00
0.000000000000000e+00 0.000000000000000e+00 0.000000000000000e+00

0.000000000000000e+00 0.000000000000000e+00 0.000000000000000e+00
0.000000000000000e+00 0.000000000000000e+00 0.000000000000000e+00
0.000000000000000e+00 0.000000000000000e+00 0.000000000000000e+00

0.000000000000000e+00 0.000000000000000e+00 0.000000000000000e+00
0.000000000000000e+00 0.000000000000000e+00 0.000000000000000e+00
0.000000000000000e+00 0.000000000000000e+00 0.000000000000000e+00

0.000000000000000e+00 0.000000000000000e+00 0.000000000000000e+00
0.000000000000000e+00 0.000000000000000e+00 0.000000000000000e+00
0.000000000000000e+00 0.000000000000000e+00 0.000000000000000e+00

0.000000000000000e+00 0.000000000000000e+00 0.000000000000000e+00
0.000000000000000e+00 0.000000000000000e+00 0.000000000000000e+00
0.000000000000000e+00 0.000000000000000e+00 0.000000000000000e+00

0.000000000000000e+00 0.000000000000000e+00 0.000000000000000e+00
0.000000000000000e+00 0.000000000000000e+00 0.000000000000000e+00
0.000000000000000e+00 0.000000000000000e+00 0.000000000000000e+00

0.000000000000000e+00 0.000000000000000e+00 0.000000000000000e+00
0.000000000000000e+00 0.000000000000000e+00 0.000000000000000e+00
0.000000000000000e+00 0.000000000000000e+00 0.000000000000000e+00

0.000000000000000e+00 0.000000000000000e+00 0.000000000000000e+00
0.000000000000000e+00 0.000000000000000e+00 0.000000000000000e+00
0.000000000000000e+00 0.000000000000000e+00 0.000000000000000e+00

0.000000000000000e+00 0.000000000000000e+00 0.000000000000000e+00
0.000000000000000e+00 0.000000000000000e+00 0.000000000000000e+00
0.000000000000000e+00 0.000000000000000e+00 0.000000000000000e+00

0.000000000000000e+00 0.000000000000000e+00 0.000000000000000e+00
0.000000000000000e+00 0.000000000000000e+00 0.000000000000000e+00
0.000000000000000e+00 0.000000000000000e+00 0.000000000000000e+00

0.000000000000000e+00 0.000000000000000e+00 0.000000000000000e+00
0.000000000000000e+00 0.000000000000000e+00 0.000000000000000e+00
0.000000000000000e+00 0.000000000000000e+00 0.000000000000000e+00

0.000000000000000e+00 0.000000000000000e+00 0.000000000000000e+00
0.000000000000000e+00 0.000000000000000e+00 0.000000000000000e+00
0.000000000000000e+00 0.000000000000000e+00 0.000000000000000e+00

0.000000000000000e+00 0.000000000000000e+00 0.000000000000000e+00
0.000000000000000e+00 0.000000000000000e+00 0.000000000000000e+00
0.000000000000000e+00 0.000000000000000e+00 0.000000000000000e+00

0.000000000000000e+00 0.000000000000000e+00 0.000000000000000e+00
0.000000000000000e+00 0.000000000000000e+00 0.000000000000000e+00
0.000000000000000e+00 0.000000000000000e+00 0.000000000000000e+00

0.000000000000000e+00 0.000000000000000e+00 0.000000000000000e+00
0.000000000000000e+00 0.000000000000000e+00 0.000000000000000e+00
0.000000000000000e+00 0.000000000000000e+00 0.000000000000000e+00

0.000000000000000e+00 0.000000000000000e+00 0.000000000000000e+00
0.000000000000000e+00 0.000000000000000e+00 0.000000000000000e+00
0.000000000000000e+00 0.000000000000000e+00 0.000000000000000e+00

0.000000000000000e+00 0.000000000000000e+00 0.000000000000000e+00
0.000000000000000e+00 0.000000000000000e+00 0.000000000000000e+00
0.000000000000000e+00 0.000000000000000e+00 0.000000000000000e+00

0.000000000000000e+00 0.000000000000000e+00 0.000000000000000e+00
0.000000000000000e+00 0.000000000000000e+00 0.000000000000000e+00
0.000000000000000e+00 0.000000000000000e+00 0.000000000000000e+00

0.000000000000000e+00 0.000000000000000e+00 0.000000000000000e+00
0.000000000000000e+00 0.000000000000000e+00 0.000000000000000e+00
0.000000000000000e+00 0.000000000000000e+00 0.000000000000000e+00

0.000000000000000e+00 0.000000000000000e+00 0.000000000000000e+00
0.000000000000000e+00 0.000000000000000e+00 0.000000000000000e+00
0.000000000000000e+00 0.000000000000000e+00 0.000000000000000e+00

0.000000000000000e+00 0.000000000000000e+00 0.000000000000000e+00
0.000000000000000e+00 0.000000000000000e+00 0.000000000000000e+00
0.000000000000000e+00 0.000000000000000e+00 0.000000000000000e+00

0.000000000000000e+00 0.000000000000000e+00 0.000000000000000e+00
0.000000000000000e+00 0.000000000000000e+00 0.000000000000000e+00
0.000000000000000e+00 0.000000000000000e+00 0.000000000000000e+00

0.000000000000000e+00 0.000000000000000e+00 0.000000000000000e+00
0.000000000000000e+00 0.000000000000000e+00 0.000000000000000e+00
0.000000000000000e+00 0.000000000000000e+00 0.000000000000000e+00

0.000000000000000e+00 0.000000000000000e+00 0.000000000000000e+00
0.000000000000000e+00 0.000000000000000e+00 0.000000000000000e+00
0.000000000000000e+00 0.000000000000000e+00 0.000000000000000e+00

0.000000000000000e+00 0.000000000000000e+00 0.000000000000000e+00
0.000000000000000e+00 0.000000000000000e+00 0.000000000000000e+00
0.000000000000000e+00 0.000000000000000e+00 0.000000000000000e+00

0.000000000000000e+00 0.000000000000000e+00 0.000000000000000e+00
0.000000000000000e+00 0.000000000000000e+00 0.000000000000000e+00
0.000000000000000e+00 0.000000000000000e+00 0.000000000000000e+00

0.000000000000000e+00 0.000000000000000e+00 0.000000000000000e+00
0.000000000000000e+00 0.000000000000000e+00 0.000000000000000e+00
0.000000000000000e+00 0.000000000000000e+00 0.000000000000000e+00

0.000000000000000e+00 0.000000000000000e+00 0.000000000000000e+00
0.000000000000000e+00 0.000000000000000e+00 0.000000000000000e+00
0.000000000000000e+00 0.000000000000000e+00 0.000000000000000e+00

0.000000000000000e+00 0.000000000000000e+00 0.000000000000000e+00
0.000000000000000e+00 0.000000000000000e+00 0.000000000000000e+00
0.000000000000000e+00 0.000000000000000e+00 0.000000000000000e+00

0.000000000000000e+00 0.000000000000000e+00 0.000000000000000e+00
0.000000000000000e+00 0.000000000000000e+00 0.000000000000000e+00
0.000000000000000e+00 0.000000000000000e+00 0.000000000000000e+00

0.000000000000000e+00 0.000000000000000e+00 0.000000000000000e+00
0.000000000000000e+00 0.000000000000000e+00 0.000000000000000e+00
0.000000000000000e+00 0.000000000000000e+00 0.000000000000000e+00

0.000000000000000e+00 0.000000000000000e+00 0.000000000000000e+00
0.000000000000000e+00 0.000000000000000e+00 0.000000000000000e+00
0.000000000000000e+00 0.000000000000000e+00 0.000000000000000e+00

0.000000000000000e+00 0.000000000000000e+00 0.000000000000000e+00
0.000000000000000e+00 0.000000000000000e+00 0.000000000000000e+00
0.000000000000000e+00 0.000000000000000e+00 0.000000000000000e+00

0.000000000000000e+00 0.000000000000000e+00 0.000000000000000e+00
0.000000000000000e+00 0.000000000000000e+00 0.000000000000000e+00
0.000000000000000e+00 0.000000000000000e+00 0.000000000000000e+00

0.000000000000000e+00 0.000000000000000e+00 0.000000000000000e+00
0.000000000000000e+00 0.000000000000000e+00 0.000000000000000e+00
0.000000000000000e+00 0.000000000000000e+00 0.000000000000000e+00

0.000000000000000e+00 0.000000000000000e+00 0.000000000000000e+00
0.000000000000000e+00 0.000000000000000e+00 0.000000000000000e+00
0.000000000000000e+00 0.000000000000000e+00 0.000000000000000e+00

0.000000000000000e+00 0.000000000000000e+00 0.000000000000000e+00
0.000000000000000e+00 0.000000000000000e+00 0.000000000000000e+00
0.000000000000000e+00 0.000000000000000e+00 0.000000000000000e+00

0.000000000000000e+00 0.000000000000000e+00 0.000000000000000e+00
0.000000000000000e+00 0.000000000000000e+00 0.000000000000000e+00
0.000000000000000e+00 0.000000000000000e+00 0.000000000000000e+00

0.000000000000000e+00 0.000000000000000e+00 0.000000000000000e+00
0.000000000000000e+00 0.000000000000000e+00 0.000000000000000e+00
0.000000000000000e+00 0.000000000000000e+00 0.000000000000000e+00

0.000000000000000e+00 0.000000000000000e+00 0.000000000000000e+00
0.000000000000000e+00 0.000000000000000e+00 0.000000000000000e+00
0.000000000000000e+00 0.000000000000000e+00 0.000000000000000e+00

0.000000000000000e+00 0.000000000000000e+00 0.000000000000000e+00
0.000000000000000e+00 0.000000000000000e+00 0.000000000000000e+00
0.000000000000000e+00 0.000000000000000e+00 0.000000000000000e+00

0.000000000000000e+00 0.000000000000000e+00 0.000000000000000e+00
0.000000000000000e+00 0.000000000000000e+00 0.000000000000000e+00
0.000000000000000e+00 0.000000000000000e+00 0.000000000000000e+00

0.000000000000000e+00 0.000000000000000e+00 0.000000000000000e+00
0.000000000000000e+00 0.000000000000000e+00 0.000000000000000e+00
0.000000000000000e+00 0.000000000000000e+00 0.000000000000000e+00

0.000000000000000e+00 0.000000000000000e+00 0.000000000000000e+00
0.000000000000000e+00 0.000000000000000e+00 0.000000000000000e+00
0.000000000000000e+00 0.000000000000000e+00 0.000000000000000e+00

0.000000000000000e+00 0.000000000000000e+00 0.000000000000000e+00
0.000000000000000e+00 0.000000000000000e+00 0.000000000000000e+00
0.000000000000000e+00 0.000000000000000e+00 0.000000000000000e+00

0.000000000000000e+00 0.000000000000000e+00 0.000000000000000e+00
0.000000000000000e+00 0.000000000000000e+00 0.000000000000000e+00
0.000000000000000e+00 0.000000000000000e+00 0.000000000000000e+00

0.000000000000000e+00 0.000000000000000e+00 0.000000000000000e+00
0.000000000000000e+00 0.000000000000000e+00 0.000000000000000e+00
0.000000000000000e+00 0.000000000000000e+00 0.000000000000000e+00

0.000000000000000e+00 0.000000000000000e+00 0.000000000000000e+00
0.000000000000000e+00 0.000000000000000e+00 0.000000000000000e+00
0.000000000000000e+00 0.000000000000000e+00 0.000000000000000e+00

0.000000000000000e+00 0.000000000000000e+00 0.000000000000000e+00
0.000000000000000e+00 0.000000000000000e+00 0.000000000000000e+00
0.000000000000000e+00 0.000000000000000e+00 0.000000000000000e+00

0.000000000000000e+00 0.000000000000000e+00 0.000000000000000e+00
0.000000000000000e+00 0.000000000000000e+00 0.000000000000000e+00
0.000000000000000e+00 0.000000000000000e+00 0.000000000000000e+00

0.000000000000000e+00 0.000000000000000e+00 0.000000000000000e+00
0.000000000000000e+00 0.000000000000000e+00 0.000000000000000e+00
0.000000000000000e+00 0.000000000000000e+00 0.000000000000000e+00

0.000000000000000e+00 0.000000000000000e+00 0.000000000000000e+00
0.000000000000000e+00 0.000000000000000e+00 0.000000000000000e+00
0.000000000000000e+00 0.000000000000000e+00 0.000000000000000e+00

0.000000000000000e+00 0.000000000000000e+00 0.000000000000000e+00
0.000000000000000e+00 0.000000000000000e+00 0.000000000000000e+00
0.000000000000000e+00 0.000000000000000e+00 0.000000000000000e+00

0.000000000000000e+00 0.000000000000000e+00 0.000000000000000e+00
0.000000000000000e+00 0.000000000000000e+00 0.000000000000000e+00
0.000000000000000e+00 0.000000000000000e+00 0.000000000000000e+00

0.000000000000000e+00 0.000000000000000e+00 0.000000000000000e+00
0.000000000000000e+00 0.000000000000000e+00 0.000000000000000e+00
0.000000000000000e+00 0.000000000000000e+00 0.000000000000000e+00

0.000000000000000e+00 0.000000000000000e+00 0.000000000000000e+00
0.000000000000000e+00 0.000000000000000e+00 0.000000000000000e+00
0.000000000000000e+00 0.000000000000000e+00 0.000000000000000e+00

0.000000000000000e+00 0.000000000000000e+00 0.000000000000000e+00
0.000000000000000e+00 0.000000000000000e+00 0.000000000000000e+00
0.000000000000000e+00 0.000000000000000e+00 0.000000000000000e+00

0.000000000000000e+00 0.000000000000000e+00 0.000000000000000e+00
0.000000000000000e+00 0.000000000000000e+00 0.000000000000000e+00
0.000000000000000e+00 0.000000000000000e+00 0.000000000000000e+00

0.000000000000000e+00 0.000000000000000e+00 0.000000000000000e+00
0.000000000000000e+00 0.000000000000000e+00 0.000000000000000e+00
0.000000000000000e+00 0.000000000000000e+00 0.000000000000000e+00

0.000000000000000e+00 0.000000000000000e+00 0.000000000000000e+00
0.000000000000000e+00 0.000000000000000e+00 0.000000000000000e+00
0.000000000000000e+00 0.000000000000000e+00 0.000000000000000e+00

0.000000000000000e+00 0.000000000000000e+00 0.000000000000000e+00
0.000000000000000e+00 0.000000000000000e+00 0.000000000000000e+00
0.000000000000000e+00 0.000000000000000e+00 0.000000000000000e+00

0.000000000000000e+00 0.000000000000000e+00 0.000000000000000e+00
0.000000000000000e+00 0.000000000000000e+00 0.000000000000000e+00
0.000000000000000e+00 0.000000000000000e+00 0.000000000000000e+00

0.000000000000000e+00 0.000000000000000e+00 0.000000000000000e+00
0.000000000000000e+00 0.000000000000000e+00 0.000000000000000e+00
0.000000000000000e+00 0.000000000000000e+00 0.000000000000000e+00

0.000000000000000e+00 0.000000000000000e+00 0.000000000000000e+00
0.000000000000000e+00 0.000000000000000e+00 0.000000000000000e+00
0.000000000000000e+00 0.000000000000000e+00 0.000000000000000e+00

0.000000000000000e+00 0.000000000000000e+00 0.000000000000000e+00
0.000000000000000e+00 0.000000000000000e+00 0.000000000000000e+00
0.000000000000000e+00 0.000000000000000e+00 0.000000000000000e+00

0.000000000000000e+00 0.000000000000000e+00 0.000000000000000e+00
0.000000000000000e+00 0.000000000000000e+00 0.000000000000000e+00
0.000000000000000e+00 0.000000000000000e+00 0.000000000000000e+00

0.000000000000000e+00 0.000000000000000e+00 0.000000000000000e+00
0.000000000000000e+00 0.000000000000000e+00 0.000000000000000e+00
0.000000000000000e+00 0.000000000000000e+00 0.000000000000000e+00

0.000000000000000e+00 0.000000000000000e+00 0.000000000000000e+00
0.000000000000000e+00 0.000000000000000e+00 0.000000000000000e+00
0.000000000000000e+00 0.000000000000000e+00 0.000000000000000e+00

0.000000000000000e+00 0.000000000000000e+00 0.000000000000000e+00
0.000000000000000e+00 0.000000000000000e+00 0.000000000000000e+00
0.000000000000000e+00 0.000000000000000e+00 0.000000000000000e+00

0.000000000000000e+00 0.000000000000000e+00 0.000000000000000e+00
0.000000000000000e+00 0.000000000000000e+00 0.000000000000000e+00
0.000000000000000e+00 0.000000000000000e+00 0.000000000000000e+00

0.000000000000000e+00 0.000000000000000e+00 0.000000000000000e+00
0.000000000000000e+00 0.000000000000000e+00 0.000000000000000e+00
0.000000000000000e+00 0.000000000000000e+00 0.000000000000000e+00

0.000000000000000e+00 0.000000000000000e+00 0.000000000000000e+00
0.000000000000000e+00 0.000000000000000e+00 0.000000000000000e+00
0.000000000000000e+00 0.000000000000000e+00 0.000000000000000e+00

0.000000000000000e+00 0.000000000000000e+00 0.000000000000000e+00
0.000000000000000e+00 0.000000000000000e+00 0.000000000000000e+00
0.000000000000000e+00 0.000000000000000e+00 0.000000000000000e+00

0.000000000000000e+00 0.000000000000000e+00 0.000000000000000e+00
0.000000000000000e+00 0.000000000000000e+00 0.000000000000000e+00
0.000000000000000e+00 0.000000000000000e+00 0.000000000000000e+00

0.000000000000000e+00 0.000000000000000e+00 0.000000000000000e+00
0.000000000000000e+00 0.000000000000000e+00 0.000000000000000e+00
0.000000000000000e+00 0.000000000000000e+00 0.000000000000000e+00

0.000000000000000e+00 0.000000000000000e+00 0.000000000000000e+00
0.000000000000000e+00 0.000000000000000e+00 0.000000000000000e+00
0.000000000000000e+00 0.000000000000000e+00 0.000000000000000e+00

0.000000000000000e+00 0.000000000000000e+00 0.000000000000000e+00
0.000000000000000e+00 0.000000000000000e+00 0.000000000000000e+00
0.000000000000000e+00 0.000000000000000e+00 0.000000000000000e+00

0.000000000000000e+00 0.000000000000000e+00 0.000000000000000e+00
0.000000000000000e+00 0.000000000000000e+00 0.000000000000000e+00
0.000000000000000e+00 0.000000000000000e+00 0.000000000000000e+00

0.000000000000000e+00 0.000000000000000e+00 0.000000000000000e+00
0.000000000000000e+00 0.000000000000000e+00 0.000000000000000e+00
0.000000000000000e+00 0.000000000000000e+00 0.000000000000000e+00

0.000000000000000e+00 0.000000000000000e+00 0.000000000000000e+00
0.000000000000000e+00 0.000000000000000e+00 0.000000000000000e+00
0.000000000000000e+00 0.000000000000000e+00 0.000000000000000e+00

0.000000000000000e+00 0.000000000000000e+00 0.000000000000000e+00
0.000000000000000e+00 0.000000000000000e+00 0.000000000000000e+00
0.000000000000000e+00 0.000000000000000e+00 0.000000000000000e+00

0.000000000000000e+00 0.000000000000000e+00 0.000000000000000e+00
0.000000000000000e+00 0.000000000000000e+00 0.000000000000000e+00
0.000000000000000e+00 0.000000000000000e+00 0.000000000000000e+00

0.000000000000000e+00 0.000000000000000e+00 0.000000000000000e+00
0.000000000000000e+00 0.000000000000000e+00 0.000000000000000e+00
0.000000000000000e+00 0.000000000000000e+00 0.000000000000000e+00

0.000000000000000e+00 0.000000000000000e+00 0.000000000000000e+00
0.000000000000000e+00 0.000000000000000e+00 0.000000000000000e+00
0.000000000000000e+00 0.000000000000000e+00 0.000000000000000e+00

0.000000000000000e+00 0.000000000000000e+00 0.000000000000000e+00
0.000000000000000e+00 0.000000000000000e+00 0.000000000000000e+00
0.000000000000000e+00 0.000000000000000e+00 0.000000000000000e+00

0.000000000000000e+00 0.000000000000000e+00 0.000000000000000e+00
0.000000000000000e+00 0.000000000000000e+00 0.000000000000000e+00
0.000000000000000e+00 0.000000000000000e+00 0.000000000000000e+00

0.000000000000000e+00 0.000000000000000e+00 0.000000000000000e+00
0.000000000000000e+00 0.000000000000000e+00 0.000000000000000e+00
0.000000000000000e+00 0.000000000000000e+00 0.000000000000000e+00

0.000000000000000e+00 0.000000000000000e+00 0.000000000000000e+00
0.000000000000000e+00 0.000000000000000e+00 0.000000000000000e+00
0.000000000000000e+00 0.000000000000000e+00 0.000000000000000e+00

0.000000000000000e+00 0.000000000000000e+00 0.000000000000000e+00
0.000000000000000e+00 0.000000000000000e+00 0.000000000000000e+00
0.000000000000000e+00 0.000000000000000e+00 0.000000000000000e+00

0.000000000000000e+00 0.000000000000000e+00 0.000000000000000e+00
0.000000000000000e+00 0.000000000000000e+00 0.000000000000000e+00
0.000000000000000e+00 0.000000000000000e+00 0.000000000000000e+00

0.000000000000000e+00 0.000000000000000e+00 0.000000000000000e+00
0.000000000000000e+00 0.000000000000000e+00 0.000000000000000e+00
0.000000000000000e+00 0.000000000000000e+00 0.000000000000000e+00

0.000000000000000e+00 0.000000000000000e+00 0.000000000000000e+00
0.000000000000000e+00 0.000000000000000e+00 0.000000000000000e+00
0.000000000000000e+00 0.000000000000000e+00 0.000000000000000e+00

0.000000000000000e+00 0.000000000000000e+00 0.000000000000000e+00
0.000000000000000e+00 0.000000000000000e+00 0.000000000000000e+00
0.000000000000000e+00 0.000000000000000e+00 0.000000000000000e+00

0.000000000000000e+00 0.000000000000000e+00 0.000000000000000e+00
0.000000000000000e+00 0.000000000000000e+00 0.000000000000000e+00
0.000000000000000e+00 0.000000000000000e+00 0.000000000000000e+00

0.000000000000000e+00 0.000000000000000e+00 0.000000000000000e+00
0.000000000000000e+00 0.000000000000000e+00 0.000000000000000e+00
0.000000000000000e+00 0.000000000000000e+00 0.000000000000000e+00

0.000000000000000e+00 0.000000000000000e+00 0.000000000000000e+00
0.000000000000000e+00 0.000000000000000e+00 0.000000000000000e+00
0.000000000000000e+00 0.000000000000000e+00 0.000000000000000e+00

0.000000000000000e+00 0.000000000000000e+00 0.000000000000000e+00
0.000000000000000e+00 0.000000000000000e+00 0.000000000000000e+00
0.000000000000000e+00 0.000000000000000e+00 0.000000000000000e+00

0.000000000000000e+00 0.000000000000000e+00 0.000000000000000e+00
0.000000000000000e+00 0.000000000000000e+00 0.000000000000000e+00
0.000000000000000e+00 0.000000000000000e+00 0.000000000000000e+00

0.000000000000000e+00 0.000000000000000e+00 0.000000000000000e+00
0.000000000000000e+00 0.000000000000000e+00 0.000000000000000e+00
0.000000000000000e+00 0.000000000000000e+00 0.000000000000000e+00

0.000000000000000e+00 0.000000000000000e+00 0.000000000000000e+00
0.000000000000000e+00 0.000000000000000e+00 0.000000000000000e+00
0.000000000000000e+00 0.000000000000000e+00 0.000000000000000e+00

0.000000000000000e+00 0.000000000000000e+00 0.000000000000000e+00
0.000000000000000e+00 0.000000000000000e+00 0.000000000000000e+00
0.000000000000000e+00 0.000000000000000e+00 0.000000000000000e+00

0.000000000000000e+00 0.000000000000000e+00 0.000000000000000e+00
0.000000000000000e+00 0.000000000000000e+00 0.000000000000000e+00
0.000000000000000e+00 0.000000000000000e+00 0.000000000000000e+00

0.000000000000000e+00 0.000000000000000e+00 0.000000000000000e+00
0.000000000000000e+00 0.000000000000000e+00 0.000000000000000e+00
0.000000000000000e+00 0.000000000000000e+00 0.000000000000000e+00

0.000000000000000e+00 0.000000000000000e+00 0.000000000000000e+00
0.000000000000000e+00 0.000000000000000e+00 0.000000000000000e+00
0.000000000000000e+00 0.000000000000000e+00 0.000000000000000e+00

0.000000000000000e+00 0.000000000000000e+00 0.000000000000000e+00
0.000000000000000e+00 0.000000000000000e+00 0.000000000000000e+00
0.000000000000000e+00 0.000000000000000e+00 0.000000000000000e+00

0.000000000000000e+00 0.000000000000000e+00 0.000000000000000e+00
0.000000000000000e+00 0.000000000000000e+00 0.000000000000000e+00
0.000000000000000e+00 0.000000000000000e+00 0.000000000000000e+00

0.000000000000000e+00 0.000000000000000e+00 0.000000000000000e+00
0.000000000000000e+00 0.000000000000000e+00 0.000000000000000e+00
0.000000000000000e+00 0.000000000000000e+00 0.000000000000000e+00

0.000000000000000e+00 0.000000000000000e+00 0.000000000000000e+00
0.000000000000000e+00 0.000000000000000e+00 0.000000000000000e+00
0.000000000000000e+00 0.000000000000000e+00 0.000000000000000e+00

0.000000000000000e+00 0.000000000000000e+00 0.000000000000000e+00
0.000000000000000e+00 0.000000000000000e+00 0.000000000000000e+00
0.000000000000000e+00 0.000000000000000e+00 0.000000000000000e+00

0.000000000000000e+00 0.000000000000000e+00 0.000000000000000e+00
0.000000000000000e+00 0.000000000000000e+00 0.000000000000000e+00
0.000000000000000e+00 0.000000000000000e+00 0.000000000000000e+00

0.000000000000000e+00 0.000000000000000e+00 0.000000000000000e+00
0.000000000000000e+00 0.000000000000000e+00 0.000000000000000e+00
0.000000000000000e+00 0.000000000000000e+00 0.000000000000000e+00

0.000000000000000e+00 0.000000000000000e+00 0.000000000000000e+00
0.000000000000000e+00 0.000000000000000e+00 0.000000000000000e+00
0.000000000000000e+00 0.000000000000000e+00 0.000000000000000e+00

0.000000000000000e+00 0.000000000000000e+00 0.000000000000000e+00
0.000000000000000e+00 0.000000000000000e+00 0.000000000000000e+00
0.000000000000000e+00 0.000000000000000e+00 0.000000000000000e+00

0.000000000000000e+00 0.000000000000000e+00 0.000000000000000e+00
0.000000000000000e+00 0.000000000000000e+00 0.000000000000000e+00
0.000000000000000e+00 0.000000000000000e+00 0.000000000000000e+00

0.000000000000000e+00 0.000000000000000e+00 0.000000000000000e+00
0.000000000000000e+00 0.000000000000000e+00 0.000000000000000e+00
0.000000000000000e+00 0.000000000000000e+00 0.000000000000000e+00

0.000000000000000e+00 0.000000000000000e+00 0.000000000000000e+00
0.000000000000000e+00 0.000000000000000e+00 0.000000000000000e+00
0.000000000000000e+00 0.000000000000000e+00 0.000000000000000e+00

0.000000000000000e+00 0.000000000000000e+00 0.000000000000000e+00
0.000000000000000e+00 0.000000000000000e+00 0.000000000000000e+00
0.000000000000000e+00 0.000000000000000e+00 0.000000000000000e+00

0.000000000000000e+00 0.000000000000000e+00 0.000000000000000e+00
0.000000000000000e+00 0.000000000000000e+00 0.000000000000000e+00
0.000000000000000e+00 0.000000000000000e+00 0.000000000000000e+00

0.000000000000000e+00 0.000000000000000e+00 0.000000000000000e+00
0.000000000000000e+00 0.000000000000000e+00 0.000000000000000e+00
0.000000000000000e+00 0.000000000000000e+00 0.000000000000000e+00

0.000000000000000e+00 0.000000000000000e+00 0.000000000000000e+00
0.000000000000000e+00 0.000000000000000e+00 0.000000000000000e+00
0.000000000000000e+00 0.000000000000000e+00 0.000000000000000e+00

0.000000000000000e+00 0.000000000000000e+00 0.000000000000000e+00
0.000000000000000e+00 0.000000000000000e+00 0.000000000000000e+00
0.000000000000000e+00 0.000000000000000e+00 0.000000000000000e+00

0.000000000000000e+00 0.000000000000000e+00 0.000000000000000e+00
0.000000000000000e+00 0.000000000000000e+00 0.000000000000000e+00
0.000000000000000e+00 0.000000000000000e+00 0.000000000000000e+00

0.000000000000000e+00 0.000000000000000e+00 0.000000000000000e+00
0.000000000000000e+00 0.000000000000000e+00 0.000000000000000e+00
0.000000000000000e+00 0.000000000000000e+00 0.000000000000000e+00

0.000000000000000e+00 0.000000000000000e+00 0.000000000000000e+00
0.000000000000000e+00 0.000000000000000e+00 0.000000000000000e+00
0.000000000000000e+00 0.000000000000000e+00 0.000000000000000e+00

0.000000000000000e+00 0.000000000000000e+00 0.000000000000000e+00
0.000000000000000e+00 0.000000000000000e+00 0.000000000000000e+00
0.000000000000000e+00 0.000000000000000e+00 0.000000000000000e+00

0.000000000000000e+00 0.000000000000000e+00 0.000000000000000e+00
0.000000000000000e+00 0.000000000000000e+00 0.000000000000000e+00
0.000000000000000e+00 0.000000000000000e+00 0.000000000000000e+00

0.000000000000000e+00 0.000000000000000e+00 0.000000000000000e+00
0.000000000000000e+00 0.000000000000000e+00 0.000000000000000e+00
0.000000000000000e+00 0.000000000000000e+00 0.000000000000000e+00

0.000000000000000e+00 0.000000000000000e+00 0.000000000000000e+00
0.000000000000000e+00 0.000000000000000e+00 0.000000000000000e+00
0.000000000000000e+00 0.000000000000000e+00 0.000000000000000e+00

0.000000000000000e+00 0.000000000000000e+00 0.000000000000000e+00
0.000000000000000e+00 0.000000000000000e+00 0.000000000000000e+00
0.000000000000000e+00 0.000000000000000e+00 0.000000000000000e+00

0.000000000000000e+00 0.000000000000000e+00 0.000000000000000e+00
0.000000000000000e+00 0.000000000000000e+00 0.000000000000000e+00
0.000000000000000e+00 0.000000000000000e+00 0.000000000000000e+00

0.000000000000000e+00 0.000000000000000e+00 0.000000000000000e+00
0.000000000000000e+00 0.000000000000000e+00 0.000000000000000e+00
0.000000000000000e+00 0.000000000000000e+00 0.000000000000000e+00

0.000000000000000e+00 0.000000000000000e+00 0.000000000000000e+00
0.000000000000000e+00 0.000000000000000e+00 0.000000000000000e+00
0.000000000000000e+00 0.000000000000000e+00 0.000000000000000e+00

0.000000000000000e+00 0.000000000000000e+00 0.000000000000000e+00
0.000000000000000e+00 0.000000000000000e+00 0.000000000000000e+00
0.000000000000000e+00 0.000000000000000e+00 0.000000000000000e+00

0.000000000000000e+00 0.000000000000000e+00 0.000000000000000e+00
0.000000000000000e+00 0.000000000000000e+00 0.000000000000000e+00
0.000000000000000e+00 0.000000000000000e+00 0.000000000000000e+00

0.000000000000000e+00 0.000000000000000e+00 0.000000000000000e+00
0.000000000000000e+00 0.000000000000000e+00 0.000000000000000e+00
0.000000000000000e+00 0.000000000000000e+00 0.000000000000000e+00

0.000000000000000e+00 0.000000000000000e+00 0.000000000000000e+00
0.000000000000000e+00 0.000000000000000e+00 0.000000000000000e+00
0.000000000000000e+00 0.000000000000000e+00 0.000000000000000e+00

0.000000000000000e+00 0.000000000000000e+00 0.000000000000000e+00
0.000000000000000e+00 0.000000000000000e+00 0.000000000000000e+00
0.000000000000000e+00 0.000000000000000e+00 0.000000000000000e+00

0.000000000000000e+00 0.000000000000000e+00 0.000000000000000e+00
0.000000000000000e+00 0.000000000000000e+00 0.000000000000000e+00
0.000000000000000e+00 0.000000000000000e+00 0.000000000000000e+00

0.000000000000000e+00 0.000000000000000e+00 0.000000000000000e+00
0.000000000000000e+00 0.000000000000000e+00 0.000000000000000e+00
0.000000000000000e+00 0.000000000000000e+00 0.000000000000000e+00

0.000000000000000e+00 0.000000000000000e+00 0.000000000000000e+00
0.000000000000000e+00 0.000000000000000e+00 0.000000000000000e+00
0.000000000000000e+00 0.000000000000000e+00 0.000000000000000e+00

0.000000000000000e+00 0.000000000000000e+00 0.000000000000000e+00
0.000000000000000e+00 0.000000000000000e+00 0.000000000000000e+00
0.000000000000000e+00 0.000000000000000e+00 0.000000000000000e+00

0.000000000000000e+00 0.000000000000000e+00 0.000000000000000e+00
0.000000000000000e+00 0.000000000000000e+00 0.000000000000000e+00
0.000000000000000e+00 0.000000000000000e+00 0.000000000000000e+00

0.000000000000000e+00 0.000000000000000e+00 0.000000000000000e+00
0.000000000000000e+00 0.000000000000000e+00 0.000000000000000e+00
0.000000000000000e+00 0.000000000000000e+00 0.000000000000000e+00

0.000000000000000e+00 0.000000000000000e+00 0.000000000000000e+00
0.000000000000000e+00 0.000000000000000e+00 0.000000000000000e+00
0.000000000000000e+00 0.000000000000000e+00 0.000000000000000e+00

 1.173157462903529e-17 -2.826944642617542e-19 -1.005723779990292e+00
-2.826944642617542e-19  1.513977406559178e-17  3.581543533704276e-01
-1.005723779990292e+00  3.581543533704276e-01  8.890529844219961e-18

 1.131219186339619e-17 -3.406211635573543e-19 -9.866550652005061e-01
-3.406211635573543e-19  1.297290330420687e-17  4.107660490926163e-01
-9.866550652005061e-01  4.107660490926163e-01  7.368510242701496e-18

 1.197015110619446e-17 -3.926780440543821e-19 -1.012138651612229e+00
-3.926780440543821e-19  1.403750424866954e-17  3.956826978111790e-01
-1.012138651612229e+00  3.956826978111790e-01  9.254084703332527e-18

 1.199037112519105e-17 -4.456284063440954e-19 -1.010753324002982e+00
-4.456284063440954e-19  1.214187164374287e-17  4.511199828285070e-01
-1.010753324002982e+00  4.511199828285070e-01  9.058818212059722e-18

 1.090627598283822e-17 -2.065590944214072e-19 -9.644980756670127e-01
-2.065590944214072e-19  1.103742964334400e-17  4.635444749922997e-01
-9.644980756670127e-01  4.635444749922997e-01  6.023224217371348e-18

 1.179825409465903e-17 -3.910649837832566e-19 -9.882367226537069e-01
-3.910649837832566e-19  1.471418615280731e-17  3.667329126647369e-01
-9.882367226537069e-01  3.667329126647369e-01  9.397191427749991e-18

 1.013116977658332e-17 -2.566713191131710e-19 -9.155881602853237e-01
-2.566713191131710e-19  1.190295904340817e-17  4.206097619967598e-01
-9.155881602853237e-01  4.206097619967598e-01  4.661352452656138e-18

 1.058222382972120e-17 -2.675952355857999e-19 -9.271735821150175e-01
-2.675952355857999e-19  1.460420989631896e-17  3.415571732181585e-01
-9.271735821150175e-01  3.415571732181585e-01  6.595893467446745e-18

 1.109350139789081e-17 -9.240512736712232e-20 -9.515751907281742e-01
-9.240512736712232e-20  1.588335629426950e-17  3.013500756604470e-01
-9.515751907281742e-01  3.013500756604470e-01  8.099338908297595e-18

 8.694076218102588e-18 -2.756517886107346e-20 -8.594311037832459e-01
-2.756517886107346e-20  1.177128703178777e-17  4.072476029696386e-01
-8.594311037832459e-01  4.072476029696386e-01  4.819210043160215e-19

 1.129655843386303e-17 -4.485101894614199e-19 -9.679583964969947e-01
-4.485101894614199e-19  1.118860739940712e-17  4.580730631649592e-01
-9.679583964969947e-01  4.580730631649592e-01  7.205010625413702e-18

 1.183797817252222e-17 -2.972459699790944e-19 -1.002392395291702e+00
-2.972459699790944e-19  1.079082002370561e-17  4.744608209574347e-01
-1.002392395291702e+00  4.744608209574347e-01  8.276026730320236e-18

 1.124441850093015e-17 -2.471959198896345e-19 -9.824536927384707e-01
-2.471959198896345e-19  1.423386665639073e-17  3.804575972682308e-01
-9.824536927384707e-01  3.804575972682308e-01  7.123063839958945e-18

 1.137800331986353e-17 -2.281567066269304e-19 -9.959041849148544e-01
-2.281567066269304e-19  1.350340512492026e-17  4.069843680019566e-01
-9.959041849148544e-01  4.069843680019566e-01  7.267529086156142e-18

 1.210784347534060e-17 -2.221153314289363e-19 -1.032360673099421e+00
-2.221153314289363e-19  1.442207077920438e-17  3.964622751397475e-01
-1.032360673099421e+00  3.964622751397475e-01  9.158002408923018e-18

 1.037818849379302e-17 -1.620294414495912e-19 -9.678729711720226e-01
-1.620294414495912e-19  9.752192333126850e-18  5.231906112960498e-01
-9.678729711720226e-01  5.231906112960498e-01  3.388306193666957e-18

 1.242083779475776e-17 -1.530454515742011e-19 -1.047587687097650e+00
-1.530454515742011e-19  1.652649408070727e-17  3.441001334119598e-01
-1.047587687097650e+00  3.441001334119598e-01  1.021497333272094e-17

 1.154300831977962e-17 -2.825064533327857e-19 -1.011469431367830e+00
-2.825064533327857e-19  1.333167996220561e-17  4.343321446491523e-01
-1.011469431367830e+00  4.343321446491523e-01  7.213299548104670e-18

 1.100148196568461e-17 -3.497852984267203e-19 -9.913190513904306e-01
-3.497852984267203e-19  1.026478109564279e-17  5.218676543887479e-01
-9.913190513904306e-01  5.218676543887479e-01  5.212956347524320e-18

 1.348857819992248e-17 -3.746208577184116e-19 -1.087344406435406e+00
-3.746208577184116e-19  1.648190124133867e-17  3.579950563971099e-01
-1.087344406435406e+00  3.579950563971099e-01  1.299005081945743e-17

 1.284150167181256e-17 -3.023896828414160e-19 -1.062327677001144e+00
-3.023896828414160e-19  1.595250967799716e-17  3.651337356578896e-01
-1.062327677001144e+00  3.651337356578896e-01  1.123091341795609e-17

 1.280267107954172e-17 -2.204512330510751e-19 -1.060681818759561e+00
-2.204512330510751e-19  1.519039168421343e-17  3.798569123713573e-01
-1.060681818759561e+00  3.798569123713573e-01  1.107365001260145e-17

 1.193309327168203e-17 -1.984628084683322e-19 -1.024658773466435e+00
-1.984628084683322e-19  1.363984287685990e-17  4.134450526655038e-01
-1.024658773466435e+00  4.134450526655038e-01  8.548951537003475e-18

 1.148929484652251e-17 -1.899966482775476e-19 -1.003678024055184e+00
-1.899966482775476e-19  1.312482305743107e-17  4.174205975153270e-01
-1.003678024055184e+00  4.174205975153270e-01  7.461159782753085e-18

 1.164780084766885e-17 -2.008438111328800e-19 -1.006166519162157e+00
-2.008438111328800e-19  1.330001306387981e-17  4.074389683094594e-01
-1.006166519162157e+00  4.074389683094594e-01  8.020670774179133e-18

 1.152805396198930e-17 -1.858217999525806e-19 -9.988802434676674e-01
-1.858217999525806e-19  1.296201731455319e-17  4.080292843097137e-01
-9.988802434676674e-01  4.080292843097137e-01  7.904230517550375e-18

 9.922639033059510e-18 -1.034068797123032e-19 -9.309969827508457e-01
-1.034068797123032e-19  1.096012942757678e-17  4.454638512912503e-01
-9.309969827508457e-01  4.454638512912503e-01  3.443488795315111e-18

 1.165061164395804e-17 -2.084655228649584e-19 -9.931592725291605e-01
-2.084655228649584e-19  1.672265538413325e-17  2.929934295831638e-01
-9.931592725291605e-01  2.929934295831638e-01  9.281356574345057e-18

 1.231049254444112e-17 -1.075425269900670e-19 -1.022972680936119e+00
-1.075425269900670e-19  1.523146154160879e-17  3.302752479186315e-01
-1.022972680936119e+00  3.302752479186315e-01  1.087302174642229e-17

 9.601550930484739e-18 -3.501711995259725e-19 -9.106181406781120e-01
-3.501711995259725e-19  7.709410803189665e-18  5.366712750920027e-01
-9.106181406781120e-01  5.366712750920027e-01  2.172937606914097e-18

 1.165155555495113e-17 -2.830285372269057e-19 -9.940045051883325e-01
-2.830285372269057e-19  1.300113601808230e-17  3.960089017812432e-01
-9.940045051883325e-01  3.960089017812432e-01  8.834564409358517e-18

 1.255402407791810e-17 -4.183849642534501e-19 -1.024337288618690e+00
-4.183849642534501e-19  1.617019800468725e-17  3.155140536686476e-01
-1.024337288618690e+00  3.155140536686476e-01  1.189990876187026e-17

 8.857602639499279e-18 -2.072164721927615e-19 -8.771107026390615e-01
-2.072164721927615e-19  9.293381884213507e-18  4.779765651779188e-01
-8.771107026390615e-01  4.779765651779188e-01  6.160690476997597e-19

 1.174155242054602e-17 -2.842367279436443e-19 -9.875193601845141e-01
-2.842367279436443e-19  1.398954413101760e-17  3.595609554172690e-01
-9.875193601845141e-01  3.595609554172690e-01  9.256347863209507e-18

 1.169859645084467e-17 -2.848764539787608e-19 -9.886739068586752e-01
-2.848764539787608e-19  1.424588894125292e-17  3.524710720675768e-01
-9.886739068586752e-01  3.524710720675768e-01  9.394465151601451e-18

 1.189301258263568e-17 -7.477732740200985e-19 -9.210350397191354e-01
-7.477732740200985e-19  1.222125874255869e-17  4.051644750311824e-01
-9.210350397191354e-01  4.051644750311824e-01  4.186337427595433e-18

-1.638957884564763e-17  7.294446719327623e-18 -9.776365894898441e-01
 7.294446719327623e-18  1.170980091928135e-17  3.696319147244627e-01
-9.776365894898441e-01  3.696319147244627e-01  7.577072460769288e-18

 8.590733918641931e-17 -2.068618297742109e-17 -9.708927246872624e-01
-2.068618297742109e-17  1.626405284872673e-17  4.651744747120792e-01
-9.708927246872624e-01  4.651744747120792e-01  6.412764369444210e-18

-5.315620456613247e-17  1.729311988476635e-17 -1.006484778145467e+00
 1.729311988476635e-17  6.284473574730104e-18  4.553410270585045e-01
-1.006484778145467e+00  4.553410270585045e-01  8.357330518126750e-18

 4.695767570542806e-17 -1.001961609200690e-17 -9.480395889725358e-01
-1.001961609200690e-17  1.377165178207912e-17  4.426661242338972e-01
-9.480395889725358e-01  4.426661242338972e-01  4.652258157471878e-18

-7.753182722046674e-18  4.917927345072464e-18 -1.005766661978182e+00
 4.917927345072464e-18  1.577209571452702e-17  2.906956784448754e-01
-1.005766661978182e+00  2.906956784448754e-01  1.047184363551606e-17

 1.675821195886983e-17 -1.767463709683876e-18 -9.716166233462326e-01
-1.767463709683876e-18  1.455830993143249e-17  3.625116622821165e-01
-9.716166233462326e-01  3.625116622821165e-01  7.509668515538947e-18

 9.357378707739908e-18  6.015829501439043e-20 -9.618533235714017e-01
 6.015829501439043e-20  1.058328715641170e-17  4.600097042284180e-01
-9.618533235714017e-01  4.600097042284180e-01  6.268135034155720e-18

 1.171538995693146e-17 -3.751765827017665e-19 -9.821499834009727e-01
-3.751765827017665e-19  1.372797752178210e-17  3.773557470487428e-01
-9.821499834009727e-01  3.773557470487428e-01  8.254320437646387e-18

 1.254999009102430e-17 -1.937040500159460e-19 -1.033883062828118e+00
-1.937040500159460e-19  1.648982738685678e-17  3.030647786579169e-01
-1.033883062828118e+00  3.030647786579169e-01  1.224819436178855e-17

 1.170304622634749e-17 -1.849158513273874e-19 -9.822067599724241e-01
-1.849158513273874e-19  1.009278366460766e-17  4.603923841135395e-01
-9.822067599724241e-01  4.603923841135395e-01  7.516672885002831e-18

 6.591326391512546e-18  1.078974074494661e-18 -8.530384461380124e-01
 1.078974074494661e-18  6.401167710735678e-18  5.105670231671180e-01
-8.530384461380124e-01  5.105670231671180e-01 -1.421283865905615e-18

 2.453152483082015e-17 -5.947239066316069e-18 -9.311030787850650e-01
-5.947239066316069e-18  1.738276056600795e-17  3.242026764062748e-01
-9.311030787850650e-01  3.242026764062748e-01  6.902822406760803e-18

 5.292445817818057e-17 -1.449342116212491e-17 -1.136690313335305e+00
-1.449342116212491e-17  3.022113750880789e-17  6.449112496249422e-02
-1.136690313335305e+00  6.449112496249422e-02  2.121643903282755e-17

-8.081252035821492e-17  3.529789946034643e-17 -1.012544467034725e+00
 3.529789946034643e-17  5.714693575886578e-18  1.954529849789753e-01
-1.012544467034725e+00  1.954529849789753e-01  1.200631244724175e-17

-6.485201097328070e-17  2.392221890398501e-17 -5.209231411126155e-01
 2.392221890398501e-17 -7.395323328456940e-18  6.668877487761237e-01
-5.209231411126155e-01  6.668877487761237e-01 -2.169408635345612e-17

-1.372779040081153e-16  5.499383423811573e-17 -8.928442822648224e-01
 5.499383423811573e-17 -1.101655892954033e-17  4.687748755092165e-01
-8.928442822648224e-01  4.687748755092165e-01  3.032730597963575e-18

 1.297765577146900e-16 -4.569675221173169e-17 -9.499682260590117e-01
-4.569675221173169e-17  2.862320644627110e-17  4.401046626388387e-01
-9.499682260590117e-01  4.401046626388387e-01  5.285800163389472e-18

 2.471791985645888e-17 -5.023682359014890e-18 -1.021212275898139e+00
-5.023682359014890e-18  1.636446309267941e-17  3.657256329032419e-01
-1.021212275898139e+00  3.657256329032419e-01  9.101920814281771e-18

 1.066228361463814e-17  1.086292348510501e-18 -1.114720099433823e+00
 1.086292348510501e-18  1.560823418925155e-17  3.461664839369362e-01
-1.114720099433823e+00  3.461664839369362e-01  1.441491251109401e-17

 1.256844822808865e-17 -4.477539961907703e-19 -1.035922165637315e+00
-4.477539961907703e-19  8.376066323518936e-18  5.646754014092538e-01
-1.035922165637315e+00  5.646754014092538e-01  7.108267730744844e-18

 1.050583123164977e-17  1.766845799797484e-19 -9.915548593541389e-01
 1.766845799797484e-19  9.770968660059948e-18  5.048819247374853e-01
-9.915548593541389e-01  5.048819247374853e-01  4.475333570780456e-18

 1.367359629614755e-17 -9.033405059920772e-19 -1.088700410191898e+00
-9.033405059920772e-19  1.924423724700478e-17  2.891397991305287e-01
-1.088700410191898e+00  2.891397991305287e-01  1.475580873318440e-17

 1.024710564772453e-17 -3.694597348208779e-19 -9.546695925122712e-01
-3.694597348208779e-19  1.356115153567657e-17  4.033516715101552e-01
-9.546695925122712e-01  4.033516715101552e-01  4.869398480634764e-18

 1.004949456540360e-17 -2.857698219979884e-19 -9.468627529115806e-01
-2.857698219979884e-19  1.200182389814613e-17  4.397233633595883e-01
-9.468627529115806e-01  4.397233633595883e-01  4.069676997630080e-18

 1.146210754087608e-17 -2.123445973536499e-19 -1.005872388437437e+00
-2.123445973536499e-19  1.390882082118731e-17  3.906025722762875e-01
-1.005872388437437e+00  3.906025722762875e-01  8.149421653466033e-18

 1.327685422917951e-17 -1.014133429347362e-19 -1.086124865613173e+00
-1.014133429347362e-19  1.476207339617304e-17  3.711355814626314e-01
-1.086124865613173e+00  3.711355814626314e-01  1.325823814907561e-17

 8.154668928862265e-18  4.021809971294075e-20 -8.852032835531533e-01
 4.021809971294075e-20  6.234961250866683e-18  5.832342194527962e-01
-8.852032835531533e-01  5.832342194527962e-01 -2.342083536314963e-18

 7.809958569734907e-18  7.642678700797738e-20 -8.718109022752781e-01
 7.642678700797738e-20  6.778503838386975e-18  5.651254602693256e-01
-8.718109022752781e-01  5.651254602693256e-01 -3.120641129520407e-18

 1.513725428741981e-17 -4.838069766680495e-19 -1.152958210391899e+00
-4.838069766680495e-19  1.817041828385591e-17  2.924319645342407e-01
-1.152958210391899e+00  2.924319645342407e-01  1.895043103091878e-17

 1.134756579122344e-17 -3.890321337420748e-19 -9.993282127989538e-01
-3.890321337420748e-19  1.493004987248293e-17  3.621775428771954e-01
-9.993282127989538e-01  3.621775428771954e-01  8.183064146466633e-18

 1.136003092001959e-17 -2.486982577486231e-19 -1.002429689457685e+00
-2.486982577486231e-19  1.360032853719776e-17  3.892390674127669e-01
-1.002429689457685e+00  3.892390674127669e-01  8.095901589240312e-18

 1.047276106816627e-17 -1.903360823600449e-19 -9.691163084461454e-01
-1.903360823600449e-19  1.053199342798672e-17  4.653935170771135e-01
-9.691163084461454e-01  4.653935170771135e-01  5.276785768870923e-18

 1.014305941318534e-17 -2.022979048394299e-19 -9.516881001082810e-01
-2.022979048394299e-19  1.131618915567035e-17  4.397660519565714e-01
-9.516881001082810e-01  4.397660519565714e-01  4.568990632697247e-18

 1.164955120769243e-17 -2.812034771021708e-19 -1.008128653364266e+00
-2.812034771021708e-19  1.620492489767585e-17  3.137882310127459e-01
-1.008128653364266e+00  3.137882310127459e-01  9.736373744123119e-18

 1.112508752633601e-17 -2.283277853486083e-19 -9.884449238027911e-01
-2.283277853486083e-19  1.346557056753278e-17  3.832782955508126e-01
-9.884449238027911e-01  3.832782955508126e-01  7.768719636792861e-18

 1.109721748752186e-17 -2.502251920901230e-19 -9.893588991811250e-01
-2.502251920901230e-19  1.038816650636830e-17  4.678075416148313e-01
-9.893588991811250e-01  4.678075416148313e-01  7.175047112173210e-18

 1.125285745347712e-17 -2.307190046731703e-19 -9.927480714759008e-01
-2.307190046731703e-19  1.258377517534460e-17  4.041811973907354e-01
-9.927480714759008e-01  4.041811973907354e-01  8.052400631990997e-18

 1.212030248340838e-17 -3.470784569099395e-19 -1.023098229316448e+00
-3.470784569099395e-19  1.528568415190146e-17  3.343018033888707e-01
-1.023098229316448e+00  3.343018033888707e-01  1.105870766213082e-17

 8.799895018127754e-18 -1.418067054384154e-19 -8.919031151994048e-01
-1.418067054384154e-19  9.116045632406627e-18  4.766441653011222e-01
-8.919031151994048e-01  4.766441653011222e-01  1.052737589210585e-18

 1.126644129694190e-17 -2.812350322676010e-19 -9.871938344611565e-01
-2.812350322676010e-19  1.359352325257233e-17  3.654038399551655e-01
-9.871938344611565e-01  3.654038399551655e-01  8.799865503223039e-18

 1.221324641765590e-17 -3.508126111084644e-19 -1.023541755404952e+00
-3.508126111084644e-19  1.549903584426499e-17  3.167321745821498e-01
-1.023541755404952e+00  3.167321745821498e-01  1.180105964380870e-17

 9.463528577043145e-18 -2.737553417344793e-19 -9.146017827292536e-01
-2.737553417344793e-19  1.088809624392920e-17  4.294551737384804e-01
-9.146017827292536e-01  4.294551737384804e-01  3.473036032533058e-18

 1.062177433519866e-17 -1.577089185286681e-19 -9.675537054519253e-01
-1.577089185286681e-19  1.358560510359568e-17  3.605558579252204e-01
-9.675537054519253e-01  3.605558579252204e-01  7.003404094383431e-18

 1.096226500978350e-17 -3.207280246879789e-19 -9.817799613973284e-01
-3.207280246879789e-19  1.198861042427749e-17  4.161668362837735e-01
-9.817799613973284e-01  4.161668362837735e-01  7.421232269428979e-18

 1.111052130655270e-17 -3.512723541782414e-19 -9.919502770114568e-01
-3.512723541782414e-19  1.052189044736272e-17  4.614094149787180e-01
-9.919502770114568e-01  4.614094149787180e-01  7.566918555899142e-18

 1.057761727715550e-17 -1.823158669302387e-19 -9.720518659351429e-01
-1.823158669302387e-19  1.132657738816408e-17  4.310659282718775e-01
-9.720518659351429e-01  4.310659282718775e-01  6.334439362100901e-18

 1.198438107218612e-17 -1.590136657306440e-19 -1.025191047878344e+00
-1.590136657306440e-19  1.733243392789705e-17  2.696334037954593e-01
-1.025191047878344e+00  2.696334037954593e-01  1.136333099588834e-17

 1.230810878983914e-17 -1.441270260126677e-19 -1.038705912840377e+00
-1.441270260126677e-19  1.548347655250164e-17  3.193842509837815e-01
-1.038705912840377e+00  3.193842509837815e-01  1.191446904637675e-17

 9.615512597122862e-18 -4.578358752414229e-19 -9.264488376798815e-01
-4.578358752414229e-19  8.172970925549824e-18  5.227416691470993e-01
-9.264488376798815e-01  5.227416691470993e-01  3.473306976038155e-18

 1.159992037827807e-17 -2.917110979777918e-19 -1.008362830489817e+00
-2.917110979777918e-19  1.297656147524668e-17  3.893862806924834e-01
-1.008362830489817e+00  3.893862806924834e-01  9.790120846879681e-18

 1.242429395390772e-17 -4.227588598452854e-19 -1.026670488982360e+00
-4.227588598452854e-19  1.543863981796648e-17  3.242834971160549e-01
-1.026670488982360e+00  3.242834971160549e-01  1.189615436139588e-17

 9.941441479651076e-18 -4.032507499533836e-19 -8.869099887747240e-01
-4.032507499533836e-19  9.092225358001254e-18  4.695926643224086e-01
-8.869099887747240e-01  4.695926643224086e-01  1.352245650684697e-18

 1.197803443206303e-17 -4.042671608292277e-19 -9.959441575501222e-01
-4.042671608292277e-19  1.434067715082606e-17  3.380751792618157e-01
-9.959441575501222e-01  3.380751792618157e-01  1.027220997305046e-17

 1.395419576145234e-17 -8.236992149488656e-19 -1.004662275960831e+00
-8.236992149488656e-19  1.528946700737462e-17  3.141103835112564e-01
-1.004662275960831e+00  3.141103835112564e-01  1.114823139659101e-17

-2.773104588854658e-17  7.968634769894228e-18 -9.035131459585518e-01
 7.968634769894228e-18  9.511239078631897e-18  4.053229741848637e-01
-9.035131459585518e-01  4.053229741848637e-01  3.298916306151350e-18

-2.518411026187551e-16  5.781855962385723e-17 -9.706188076408038e-01
 5.781855962385723e-17  2.507934603837120e-19  3.677261104903862e-01
-9.706188076408038e-01  3.677261104903862e-01  7.284899204069301e-18

-1.445465320986566e-17  5.074309303081343e-18 -9.655963922669866e-01
 5.074309303081343e-18  9.044786571591798e-18  4.599661238349990e-01
-9.655963922669866e-01  4.599661238349990e-01  6.216983391686557e-18

 1.017836920874013e-16 -2.030672434975311e-17 -9.981700565775993e-01
-2.030672434975311e-17  1.491823417780290e-17  4.524694665306774e-01
-9.981700565775993e-01  4.524694665306774e-01  7.886792029083428e-18

 6.419085385996468e-17 -1.215260725815566e-17 -9.691514616830794e-01
-1.215260725815566e-17  1.434845755003257e-17  4.150284804908682e-01
-9.691514616830794e-01  4.150284804908682e-01  6.287346909804442e-18

-5.947521517854660e-18  3.590787871110208e-18 -1.011533284061170e+00
 3.590787871110208e-18  1.547808506236234e-17  2.955906391466411e-01
-1.011533284061170e+00  2.955906391466411e-01  1.043450785621447e-17

 1.664657950064694e-17 -1.541546566821928e-18 -9.847115954128061e-01
-1.541546566821928e-18  1.375252468712306e-17  3.685049923618375e-01
-9.847115954128061e-01  3.685049923618375e-01  7.979841534604798e-18

 1.158334258888154e-17 -4.631100002213939e-19 -9.876956983463389e-01
-4.631100002213939e-19  1.073760133659521e-17  4.464181533111629e-01
-9.876956983463389e-01  4.464181533111629e-01  7.691707359758993e-18

 1.103919491765289e-17 -2.353399116496754e-19 -9.934397770270158e-01
-2.353399116496754e-19  1.256536815747541e-17  3.911912560949263e-01
-9.934397770270158e-01  3.911912560949263e-01  8.611592183345946e-18

 1.187724944613498e-17 -2.564627168687902e-19 -1.028690709790482e+00
-2.564627168687902e-19  1.496793416255619e-17  3.275633160074778e-01
-1.028690709790482e+00  3.275633160074778e-01  1.181612066818285e-17

 9.845358266202313e-18 -7.019303439384269e-21 -9.389515880727841e-01
-7.019303439384269e-21  9.067303389615638e-18  4.582043815097939e-01
-9.389515880727841e-01  4.582043815097939e-01  4.827244083807486e-18

 8.165646101656143e-18  1.029624687136185e-19 -8.891115439682182e-01
 1.029624687136185e-19  8.408584408105446e-18  4.615681035549209e-01
-8.891115439682182e-01  4.615681035549209e-01  1.973300463799623e-18

 9.769620203970198e-18 -4.254943611097957e-19 -9.481922486933850e-01
-4.254943611097957e-19  1.341849926198286e-17  3.477875562105545e-01
-9.481922486933850e-01  3.477875562105545e-01  7.912571773141452e-18

 1.192397396204456e-17 -6.494372331756395e-19 -8.973791140430601e-01
-6.494372331756395e-19  1.476959221718614e-17  2.960440835445246e-01
-8.973791140430601e-01  2.960440835445246e-01  4.594082225178441e-18

 2.501810736889139e-17 -2.034748465979442e-18 -9.456199463756095e-01
-2.034748465979442e-18  1.476974808893193e-17  2.914187039425504e-01
-9.456199463756095e-01  2.914187039425504e-01  6.973367923582909e-18

 7.083533302893601e-17 -9.505970270840800e-18 -8.702714235698487e-01
-9.505970270840800e-18  1.003970053307210e-17  4.723321944884933e-01
-8.702714235698487e-01  4.723321944884933e-01  1.266048610011854e-18

-3.037292982815507e-17  5.510855934326600e-18 -9.890165874193748e-01
 5.510855934326600e-18  1.006705589532360e-17  4.290844711604992e-01
-9.890165874193748e-01  4.290844711604992e-01  8.497634365012070e-18

-4.439948089545286e-17  7.600290839970477e-18 -1.001727142769421e+00
 7.600290839970477e-18  9.141038068395463e-18  4.500180406440912e-01
-1.001727142769421e+00  4.500180406440912e-01  8.468794855470607e-18

-1.990338271888443e-17  4.126020821094892e-18 -9.711622155733336e-01
 4.126020821094892e-18  1.028536899165263e-17  4.252897602561569e-01
-9.711622155733336e-01  4.252897602561569e-01  6.338588417679267e-18

 9.967228829545589e-18  1.073366500229660e-19 -1.021498690156141e+00
 1.073366500229660e-19  1.679175505215009e-17  2.663288780288529e-01
-1.021498690156141e+00  2.663288780288529e-01  1.100927792775384e-17

 1.058088568443102e-17  4.363742853646430e-20 -1.028642973594596e+00
 4.363742853646430e-20  1.486235478633905e-17  3.203156586924755e-01
-1.028642973594596e+00  3.203156586924755e-01  1.105553462940836e-17

 8.806743331009866e-18 -4.927457457423879e-19 -9.196583172676499e-01
-4.927457457423879e-19  8.048551303606396e-18  5.164525805474551e-01
-9.196583172676499e-01  5.164525805474551e-01  2.915409933992799e-18

 1.152592084057583e-17 -2.739124099870482e-19 -1.027538498202820e+00
-2.739124099870482e-19  1.398852525235888e-17  3.555540957721359e-01
-1.027538498202820e+00  3.555540957721359e-01  1.077461858782532e-17

 1.282690800807342e-17 -1.395454998353969e-19 -1.081743076232755e+00
-1.395454998353969e-19  1.680470578585227e-17  2.782635200150422e-01
-1.081743076232755e+00  2.782635200150422e-01  1.468501057974587e-17

 8.440821616211340e-18 -1.163056858985070e-19 -9.058702519280959e-01
-1.163056858985070e-19  6.632764536722876e-18  5.376470914206114e-01
-9.058702519280959e-01  5.376470914206114e-01  9.284017722363339e-19

 9.567050780732053e-18 -9.176109053812595e-20 -9.506193360768423e-01
-9.176109053812595e-20  9.131786266272620e-18  4.677745770738536e-01
-9.506193360768423e-01  4.677745770738536e-01  4.583110616845215e-18

 1.307595694283424e-17 -5.487866113015064e-19 -1.080311297930775e+00
-5.487866113015064e-19  1.628325082847647e-17  2.974915825680861e-01
-1.080311297930775e+00  2.974915825680861e-01  1.555121169116939e-17

 8.952631372586244e-18 -2.746314602002337e-19 -9.162041974618348e-01
-2.746314602002337e-19  1.126834552351003e-17  4.017180077946017e-01
-9.162041974618348e-01  4.017180077946017e-01  3.752564655376333e-18

 9.721272036009271e-18 -1.366023891814008e-19 -9.537703143632824e-01
-1.366023891814008e-19  1.294096948701622e-17  3.525628525629193e-01
-9.537703143632824e-01  3.525628525629193e-01  6.255145967666070e-18

 1.008808316048988e-17 -2.514904788809291e-19 -9.705572772659885e-01
-2.514904788809291e-19  1.113075673585320e-17  4.105377377778500e-01
-9.705572772659885e-01  4.105377377778500e-01  6.766145707789185e-18

 1.028974404620246e-17 -2.969972434045093e-19 -9.836144839376225e-01
-2.969972434045093e-19  9.543774169242492e-18  4.589207503519078e-01
-9.836144839376225e-01  4.589207503519078e-01  7.053913823515573e-18

 9.740674323120918e-18 -1.432467159452822e-19 -9.638798707550580e-01
-1.432467159452822e-19  1.020617606368931e-17  4.322673976672404e-01
-9.638798707550580e-01  4.322673976672404e-01  5.795090310707460e-18

 1.130961009328643e-17 -1.719384014901443e-19 -1.022966599843552e+00
-1.719384014901443e-19  1.651657929669300e-17  2.646666568875412e-01
-1.022966599843552e+00  2.646666568875412e-01  1.136015929656558e-17

 1.122656866612267e-17 -1.574141939555981e-19 -1.021482125037513e+00
-1.574141939555981e-19  1.419396947133850e-17  3.261493519228050e-01
-1.021482125037513e+00  3.261493519228050e-01  1.084510621107156e-17

 8.741587487724598e-18 -4.592560750413206e-19 -9.164585178595227e-01
-4.592560750413206e-19  7.297186491898862e-18  5.168285552958709e-01
-9.164585178595227e-01  5.168285552958709e-01  2.926669406603032e-18

 1.107891854203480e-17 -3.220930732745312e-19 -1.011930197479850e+00
-3.220930732745312e-19  1.269330907377694e-17  3.699731455100759e-01
-1.011930197479850e+00  3.699731455100759e-01  1.028797766585476e-17

 1.174928702947099e-17 -3.238617373291134e-19 -1.037359953566086e+00
-3.238617373291134e-19  1.493161712970023e-17  3.089527935430644e-01
-1.037359953566086e+00  3.089527935430644e-01  1.265526909215588e-17

 9.466918485340815e-18  2.279109196575504e-20 -9.505486970674970e-01
 2.279109196575504e-20  8.245619478035193e-18  4.588617414410248e-01
-9.505486970674970e-01  4.588617414410248e-01  5.637915003750356e-18

 7.129544729379875e-18  3.130356792710810e-19 -8.571490580275590e-01
 3.130356792710810e-19  5.721710062583117e-18  4.979947483371001e-01
-8.571490580275590e-01  4.979947483371001e-01 -6.620048672234411e-19

 8.923330685999455e-18 -3.885280257895908e-19 -9.102256139986818e-01
-3.885280257895908e-19  1.096603127645238e-17  3.819896237825290e-01
-9.102256139986818e-01  3.819896237825290e-01  5.121997920151861e-18

 7.998713798478451e-18 -2.302551551216771e-19 -8.735359067932265e-01
-2.302551551216771e-19  1.471872243347781e-17  2.686624439407238e-01
-8.735359067932265e-01  2.686624439407238e-01  3.224534146317341e-18

 1.016082424490478e-17  5.629590973862154e-19 -9.840006253763874e-01
 5.629590973862154e-19  1.568437998385616e-17  2.182701674069892e-01
-9.840006253763874e-01  2.182701674069892e-01  9.091686158032109e-18

 6.555138876467837e-18 -8.873325609306235e-19 -8.153865351797435e-01
-8.873325609306235e-19  6.192015893034448e-18  5.304480332440416e-01
-8.153865351797435e-01  5.304480332440416e-01 -1.634767050001215e-18

 9.960482670682419e-18 -7.366947494598917e-19 -9.676244959885199e-01
-7.366947494598917e-19  8.512137578667603e-18  4.827077200846062e-01
-9.676244959885199e-01  4.827077200846062e-01  7.334188628845232e-18

 1.037895909084509e-17 -3.496450345844602e-19 -1.000384408592111e+00
-3.496450345844602e-19  9.356370836210042e-18  4.537337626188476e-01
-1.000384408592111e+00  4.537337626188476e-01  8.342649749915634e-18

 9.824950371276354e-18 -2.642697382631886e-19 -9.788964834830176e-01
-2.642697382631886e-19  1.114679973764963e-17  4.014943878556980e-01
-9.788964834830176e-01  4.014943878556980e-01  7.139573930806775e-18

 1.060152787054647e-17 -2.558040600951726e-19 -1.009672051546280e+00
-2.558040600951726e-19  1.505294742469657e-17  2.990738516573985e-01
-1.009672051546280e+00  2.990738516573985e-01  1.018314288964407e-17

 9.641381222661385e-18 -2.695133789047232e-19 -9.720584376573824e-01
-2.695133789047232e-19  1.185190531370902e-17  3.835052653421672e-01
-9.720584376573824e-01  3.835052653421672e-01  7.023954029491952e-18

 9.699261285595068e-18 -3.257324730090434e-19 -9.756958388056668e-01
-3.257324730090434e-19  9.957035552660734e-18  4.387258830562076e-01
-9.756958388056668e-01  4.387258830562076e-01  6.949590423540077e-18

 1.024767666748661e-17 -2.231088163578730e-19 -9.983944399016000e-01
-2.231088163578730e-19  1.286843407097333e-17  3.575256438314888e-01
-9.983944399016000e-01  3.575256438314888e-01  9.019843283325011e-18

 1.180232868171628e-17 -6.353544971435408e-20 -1.065480162856397e+00
-6.353544971435408e-20  1.563113192314050e-17  2.806364990448195e-01
-1.065480162856397e+00  2.806364990448195e-01  1.382314451860531e-17

 7.229943266995777e-18 -4.621976787661545e-21 -8.830202448996064e-01
-4.621976787661545e-21  4.886222578233257e-18  5.519736734502626e-01
-8.830202448996064e-01  5.519736734502626e-01 -3.226055424551376e-19

 8.188399610639628e-18  2.830742576223895e-20 -9.204066329182010e-01
 2.830742576223895e-20  7.237127206847798e-18  4.842465302668586e-01
-9.204066329182010e-01  4.842465302668586e-01  2.813069844877159e-18

 1.281566869610039e-17 -7.018989525966840e-19 -1.089793140930112e+00
-7.018989525966840e-19  1.643566531014309e-17  2.712125950315819e-01
-1.089793140930112e+00  2.712125950315819e-01  1.699719957718406e-17

 7.797882128577142e-18 -2.790261949817671e-19 -8.946860946103241e-01
-2.790261949817671e-19  1.016076885045591e-17  4.000754507851735e-01
-8.946860946103241e-01  4.000754507851735e-01  2.764983021460140e-18

 8.690044094411583e-18 -1.045232476081127e-19 -9.404855728595668e-01
-1.045232476081127e-19  1.175201035507233e-17  3.522952636374332e-01
-9.404855728595668e-01  3.522952636374332e-01  5.621433935216563e-18

 9.088933339793729e-18 -2.270992902907599e-19 -9.600847553684643e-01
-2.270992902907599e-19  9.951464137500878e-18  4.107474212628992e-01
-9.600847553684643e-01  4.107474212628992e-01  6.251733710421737e-18

 9.318662419062089e-18 -2.778255334247831e-19 -9.754949076881944e-01
-2.778255334247831e-19  8.424859021146033e-18  4.582094799920687e-01
-9.754949076881944e-01  4.582094799920687e-01  6.624209851217362e-18

 8.817026656211349e-18 -1.352759861053803e-19 -9.599399728895101e-01
-1.352759861053803e-19  9.240209616943201e-18  4.289996102560684e-01
-9.599399728895101e-01  4.289996102560684e-01  5.593927203248605e-18

 1.021346735804439e-17 -1.401543751879471e-19 -1.014283770832712e+00
-1.401543751879471e-19  1.516420767171696e-17  2.711944439243683e-01
-1.014283770832712e+00  2.711944439243683e-01  1.062915767904309e-17

 1.042273509841952e-17 -1.127830054583216e-19 -1.027630911333811e+00
-1.127830054583216e-19  1.329238460864999e-17  3.209918376657749e-01
-1.027630911333811e+00  3.209918376657749e-01  1.112227007911364e-17

 7.882821622104281e-18 -4.147902401003317e-19 -9.194161923579544e-01
-4.147902401003317e-19  6.134934610751724e-18  5.190641022449674e-01
-9.194161923579544e-01  5.190641022449674e-01  2.895731601564288e-18

 1.017279005886599e-17 -3.015440482973688e-19 -9.999395712158745e-01
-3.015440482973688e-19  1.080810388689445e-17  3.899535035975474e-01
-9.999395712158745e-01  3.899535035975474e-01  9.051642120542755e-18

 1.011887211915395e-17 -3.062497330294597e-19 -1.021155017257681e+00
-3.062497330294597e-19  1.326511015880249e-17  3.246152540631712e-01
-1.021155017257681e+00  3.246152540631712e-01  1.128779820166503e-17

 5.706040546795939e-18  4.801583891844561e-20 -8.808336053829887e-01
 4.801583891844561e-20  6.636279235574238e-18  4.748221033711796e-01
-8.808336053829887e-01  4.748221033711796e-01  5.571773336277224e-19

 2.221876781042291e-17 -1.728867383623576e-18 -9.710622122699512e-01
-1.728867383623576e-18  1.182632721322803e-17  3.505896973580442e-01
-9.710622122699512e-01  3.505896973580442e-01  8.064044553488908e-18

 3.624480168626776e-17 -3.167493272794337e-18 -1.029541735030149e+00
-3.167493272794337e-18  1.505348400952793e-17  2.717596951533601e-01
-1.029541735030149e+00  2.717596951533601e-01  1.260706109330240e-17

-1.112460311184842e-16  1.294749206452085e-17 -9.220654566263246e-01
 1.294749206452085e-17  7.696107105575147e-18  4.114834229148747e-01
-9.220654566263246e-01  4.114834229148747e-01  3.739167439125896e-18

 4.243462402022935e-20  6.941568394335358e-19 -9.711643648330903e-01
 6.941568394335358e-19  8.910046266480878e-18  4.261105775833693e-01
-9.711643648330903e-01  4.261105775833693e-01  6.119622078387499e-18

 3.550913454574900e-18  3.371626968603407e-19 -9.861575105647626e-01
 3.371626968603407e-19  9.327762264257106e-18  4.202126788824060e-01
-9.861575105647626e-01  4.202126788824060e-01  6.633705123448790e-18

 6.730091487077108e-18  4.347766510496438e-20 -1.009655381831729e+00
 4.347766510496438e-20  1.089819587521875e-17  3.828110486775907e-01
-1.009655381831729e+00  3.828110486775907e-01  8.217806679370165e-18

 9.602194877815834e-18 -2.923967538317186e-19 -1.013922201373340e+00
-2.923967538317186e-19  1.068088467490131e-17  3.918683411632347e-01
-1.013922201373340e+00  3.918683411632347e-01  8.173548971064782e-18

 9.162649109806144e-18 -4.780139641124220e-19 -9.946626570503999e-01
-4.780139641124220e-19  8.888004331657259e-18  4.409716740788594e-01
-9.946626570503999e-01  4.409716740788594e-01  6.338062988779384e-18

 9.517986726891819e-18 -7.118751999917286e-19 -9.924546570769992e-01
-7.118751999917286e-19  9.530516246480729e-18  4.246896660964457e-01
-9.924546570769992e-01  4.246896660964457e-01  6.365188136282082e-18

 1.248044662599782e-17 -2.023533118010306e-18 -1.001391452877485e+00
-2.023533118010306e-18  1.147296658870642e-17  3.868662328321849e-01
-1.001391452877485e+00  3.868662328321849e-01  7.417260911645977e-18

 4.866104109066284e-18  1.928774350674403e-18 -1.047048843591514e+00
 1.928774350674403e-18  1.110476383645444e-17  3.467221353558065e-01
-1.047048843591514e+00  3.467221353558065e-01  1.064335567082153e-17

 5.851004021608205e-18  1.222972961408065e-18 -1.026588698170738e+00
 1.222972961408065e-18  9.921539845706238e-18  3.854853991165838e-01
-1.026588698170738e+00  3.854853991165838e-01  8.902487226946276e-18

 4.670873686720319e-18  1.304322172245189e-18 -9.953197194197150e-01
 1.304322172245189e-18  7.415312130543724e-18  4.485387001538586e-01
-9.953197194197150e-01  4.485387001538586e-01  6.115255515561718e-18

 8.289873615923129e-18 -4.753566876579849e-19 -9.882972073204466e-01
-4.753566876579849e-19  9.136243392691945e-18  4.197717760634952e-01
-9.882972073204466e-01  4.197717760634952e-01  5.844066719293257e-18

 7.966609367906280e-18 -1.004598855182128e-19 -1.012694713169846e+00
-1.004598855182128e-19  1.124948529071552e-17  3.567081011322897e-01
-1.012694713169846e+00  3.567081011322897e-01  7.989830667611876e-18

 8.954329399707778e-18 -4.819625064861519e-19 -1.023541867547963e+00
-4.819625064861519e-19  1.018975681472731e-17  3.901277306748110e-01
-1.023541867547963e+00  3.901277306748110e-01  8.392484690536304e-18

 7.198122029981493e-18 -3.243471907636629e-19 -9.774214787349169e-01
-3.243471907636629e-19  5.929265287204694e-18  5.010952591209547e-01
-9.774214787349169e-01  5.010952591209547e-01  4.450964725092532e-18

 7.330093159963864e-18 -2.921846083385978e-19 -9.831562414465385e-01
-2.921846083385978e-19  7.733099505495486e-18  4.460959635241922e-01
-9.831562414465385e-01  4.460959635241922e-01  5.404422503300808e-18

 6.388479942589880e-18 -3.160695866770596e-19 -9.461491801215265e-01
-3.160695866770596e-19  8.950927688492331e-18  4.070695827299031e-01
-9.461491801215265e-01  4.070695827299031e-01  3.426650701453512e-18

 1.033601645088099e-17  2.562386455891715e-19 -1.127051992794212e+00
 2.562386455891715e-19  1.591908137084316e-17  2.068990794693087e-01
-1.127051992794212e+00  2.068990794693087e-01  1.555781134096569e-17

 9.262271376225631e-18  1.208205109506382e-19 -1.086483981187419e+00
 1.208205109506382e-19  1.304298833412588e-17  2.892697217144972e-01
-1.086483981187419e+00  2.892697217144972e-01  1.209190565278583e-17

 4.583101402507711e-18 -6.046634860312943e-19 -8.888981306211231e-01
-6.046634860312943e-19  4.715055811258726e-18  5.398939328172226e-01
-8.888981306211231e-01  5.398939328172226e-01 -1.945414173756669e-18

 9.035910339419838e-18 -4.611889576753859e-19 -1.089983184510964e+00
-4.611889576753859e-19  7.613790732610187e-18  4.763969846809528e-01
-1.089983184510964e+00  4.763969846809528e-01  1.074720473523140e-17

 3.022456475007418e-18 -7.734468458452175e-20 -8.656221255599166e-01
-7.734468458452175e-20 -7.003922251015181e-19  6.797950410442294e-01
-8.656221255599166e-01  6.797950410442294e-01 -7.119915679123588e-18

 8.861706039317166e-18 -3.433906339261243e-19 -1.097812311239753e+00
-3.433906339261243e-19  1.066580448621779e-17  3.913064662473533e-01
-1.097812311239753e+00  3.913064662473533e-01  1.084669784084926e-17

 1.187252472955048e-17 -4.749989341216803e-19 -1.221140974949370e+00
-4.749989341216803e-19  1.777097602301611e-17  2.083363986052723e-01
-1.221140974949370e+00  2.083363986052723e-01  2.045508779853860e-17

 6.687212203690481e-18 -4.565131138169117e-19 -1.021636481057499e+00
-4.565131138169117e-19  8.999309807069345e-18  4.353881528697951e-01
-1.021636481057499e+00  4.353881528697951e-01  4.907484109760821e-18

 8.673633290376868e-18 -4.438056737072983e-19 -1.118313188270964e+00
-4.438056737072983e-19  8.515049171415209e-18  4.564422892368513e-01
-1.118313188270964e+00  4.564422892368513e-01  1.070883186293905e-17

 7.634745029645862e-18 -2.615642066030958e-19 -1.085387007593732e+00
-2.615642066030958e-19  7.327928936703336e-18  4.678877632905775e-01
-1.085387007593732e+00  4.678877632905775e-01  8.392189560134460e-18

 7.125765915090871e-18 -5.729131403827629e-19 -1.055479426972920e+00
-5.729131403827629e-19  9.204214872004466e-18  4.086592081102917e-01
-1.055479426972920e+00  4.086592081102917e-01  8.097986064790646e-18

 4.839506846635340e-18 -5.008399527795229e-19 -9.670716877134176e-01
-5.008399527795229e-19  7.403332292206086e-18  4.258813255566004e-01
-9.670716877134176e-01  4.258813255566004e-01  2.642314830973743e-18

 6.993612514157692e-18 -2.238685232791619e-19 -1.075697305675488e+00
-2.238685232791619e-19  9.441675702912609e-18  3.587189766972510e-01
-1.075697305675488e+00  3.587189766972510e-01  9.470096092447954e-18

 2.349792768727982e-18 -6.546233042410840e-19 -8.931038116608274e-01
-6.546233042410840e-19 -1.018110351178029e-18  6.501874524767837e-01
-8.931038116608274e-01  6.501874524767837e-01 -4.642962525449293e-18

 6.291153265669893e-18 -5.208724062496761e-19 -1.060974218268027e+00
-5.208724062496761e-19  4.860145916015120e-18  4.903206069575048e-01
-1.060974218268027e+00  4.903206069575048e-01  7.469736251052797e-18

 9.801183955952548e-18 -7.371394699170150e-19 -1.201704432595275e+00
-7.371394699170150e-19  1.133729708785947e-17  3.273181751187175e-01
-1.201704432595275e+00  3.273181751187175e-01  1.852602333492931e-17

 4.696169080497385e-18 -6.561095037798951e-19 -1.002680472935957e+00
-6.561095037798951e-19  6.155353452005663e-18  4.470065280073740e-01
-1.002680472935957e+00  4.470065280073740e-01  3.893522178950897e-18

 5.722817390487630e-18 -6.514652371173874e-19 -1.050185913629554e+00
-6.514652371173874e-19  8.784032992177971e-18  3.706473170021306e-01
-1.050185913629554e+00  3.706473170021306e-01  7.711302252013924e-18

 5.599609833982526e-18 -4.684100501692996e-19 -1.059036907250866e+00
-4.684100501692996e-19  8.927867600462792e-18  3.553917903730264e-01
-1.059036907250866e+00  3.553917903730264e-01  7.805716629413125e-18

 3.572473485324425e-18 -7.293457014302773e-19 -9.862991782020756e-01
-7.293457014302773e-19  3.220419138103899e-18  5.127927642124246e-01
-9.862991782020756e-01  5.127927642124246e-01  1.731087751137540e-18

 1.926004580453455e-18 -8.066294690154155e-19 -9.286573266095367e-01
-8.066294690154155e-19 -1.341010996540419e-19  6.016692224339754e-01
-9.286573266095367e-01  6.016692224339754e-01 -3.047725505517959e-18

 5.014233545707197e-18 -7.554924677975601e-19 -1.069868113452372e+00
-7.554924677975601e-19  6.518837978747212e-18  4.169746707404429e-01
-1.069868113452372e+00  4.169746707404429e-01  7.555267568381659e-18

 3.872330269757314e-18 -6.838991579347962e-19 -1.049554695934298e+00
-6.838991579347962e-19  6.316250022746780e-18  4.056209278208284e-01
-1.049554695934298e+00  4.056209278208284e-01  5.538316259523460e-18

 5.829225524895082e-18 -7.158567217057372e-19 -1.157756183330486e+00
-7.158567217057372e-19  6.739525794997394e-18  3.963614869678359e-01
-1.157756183330486e+00  3.963614869678359e-01  1.200360119375692e-17

 5.802246840006240e-19 -9.015551229805523e-19 -9.560445069308511e-01
-9.015551229805523e-19 -3.494591738203644e-18  6.706565689791585e-01
-9.560445069308511e-01  6.706565689791585e-01 -3.516784032582709e-18

 2.185242887989952e-18 -5.051395053389312e-19 -1.037858240069992e+00
-5.051395053389312e-19 -1.425184126354598e-18  5.908327262374313e-01
-1.037858240069992e+00  5.908327262374313e-01  1.950488372569106e-18

 3.883446943954686e-18 -1.173251232738911e-18 -1.098818849616758e+00
-1.173251232738911e-18  5.491339541466342e-18  4.014034258011044e-01
-1.098818849616758e+00  4.014034258011044e-01  9.025066479210677e-18

-7.212235128168692e-20 -1.225341054592655e-18 -9.590244050364916e-01
-1.225341054592655e-18  2.970974118318221e-18  4.142098905099605e-01
-9.590244050364916e-01  4.142098905099605e-01  3.267767609363531e-19

 1.126185178089924e-19 -1.273994485533775e-18 -9.945998051845650e-01
-1.273994485533775e-18  2.821651170272890e-19  4.673757538202134e-01
-9.945998051845650e-01  4.673757538202134e-01  2.142006733521988e-18

 1.157067522317014e-19 -1.383145304848819e-18 -1.022521680202880e+00
-1.383145304848819e-18 -1.207462556727357e-18  4.913408106910196e-01
-1.022521680202880e+00  4.913408106910196e-01  3.585919696626265e-18

-2.361716258082715e-18 -1.623358590456038e-18 -9.668608114705427e-01
-1.623358590456038e-18 -6.266048023946747e-19  4.278821947628463e-01
-9.668608114705427e-01  4.278821947628463e-01  3.282704581084556e-19

-1.704960055638057e-18 -2.094740044923916e-18 -1.007800778247488e+00
-2.094740044923916e-18 -2.041447842371229e-18  4.299748786114078e-01
-1.007800778247488e+00  4.299748786114078e-01  2.036383882545236e-18

 2.609248931825233e-17 -8.675953182660555e-18 -1.087795899282944e+00
-8.675953182660555e-18 -1.304889825975726e-18  4.110030857465944e-01
-1.087795899282944e+00  4.110030857465944e-01  6.480511949352473e-18

-8.800742813172258e-17  1.675233640454798e-17 -9.715273622394285e-01
 1.675233640454798e-17 -1.276600393468287e-17  5.157924874973041e-01
-9.715273622394285e-01  5.157924874973041e-01 -2.506748949718440e-18

-1.363612391021893e-17 -6.310801883140310e-19 -1.022125777990767e+00
-6.310801883140310e-19 -6.257699756148993e-18  4.172452495322619e-01
-1.022125777990767e+00  4.172452495322619e-01  1.922489504852651e-18

-1.846455372024742e-17 -5.227506604289802e-19 -9.645929392919693e-01
-5.227506604289802e-19 -9.237354962681438e-18  4.365131214865382e-01
-9.645929392919693e-01  4.365131214865382e-01 -2.045252868523958e-18

-1.072905119585574e-17 -2.894515711750731e-18 -9.098579478634260e-01
-2.894515711750731e-18 -1.227154124492185e-17  4.958072968634967e-01
-9.098579478634260e-01  4.958072968634967e-01 -6.372605946161871e-18

-1.125988479053923e-17 -3.217814353824109e-18 -9.680996494413175e-01
-3.217814353824109e-18 -1.077566627121973e-17  4.137452443672789e-01
-9.680996494413175e-01  4.137452443672789e-01 -2.069214170729095e-18

-1.247573141015587e-17 -3.604774738878646e-18 -9.770379726623384e-01
-3.604774738878646e-18 -1.081364704036382e-17  3.668787024494859e-01
-9.770379726623384e-01  3.668787024494859e-01 -1.843081422250405e-18

-1.444589301314691e-17 -3.872193499049997e-18 -1.000483876343543e+00
-3.872193499049997e-18 -1.392281857596720e-17  3.702389541362764e-01
-1.000483876343543e+00  3.702389541362764e-01 -2.454293313985005e-18

-1.149678417701453e-17 -3.787080927366242e-18 -1.254935433782836e+00
-3.787080927366242e-18 -1.522140150386208e-17  3.215034823976785e-01
-1.254935433782836e+00  3.215034823976785e-01  1.186770839887771e-17

-2.259200780087680e-17 -2.914402615720887e-18 -8.706659930634021e-01
-2.914402615720887e-18 -3.314040239605643e-17  7.233694787935023e-01
-8.706659930634021e-01  7.233694787935023e-01 -1.670748215240242e-17

-1.928808677034846e-17 -4.920899543825532e-18 -1.065755418422758e+00
-4.920899543825532e-18 -2.341075333826761e-17  4.361392014461679e-01
-1.065755418422758e+00  4.361392014461679e-01 -2.128792888902296e-18

-1.611936525452366e-17 -8.749862746984726e-18 -1.224123810161104e+00
-8.749862746984726e-18 -1.248723638318552e-17  1.727411112760207e-01
-1.224123810161104e+00  1.727411112760207e-01  1.215164913416794e-17

-2.769120148879214e-17 -8.312127879837654e-18 -9.105930926243583e-01
-8.312127879837654e-18 -2.895136339636484e-17  4.320254736249364e-01
-9.105930926243583e-01  4.320254736249364e-01 -1.249258679983084e-17

-3.106214022711785e-17 -9.389979842997309e-18 -9.492384490639448e-01
-9.389979842997309e-18 -3.454735011449247e-17  4.410892349456437e-01
-9.492384490639448e-01  4.410892349456437e-01 -1.205064424893917e-17

-3.416680948677840e-17 -1.001597671778768e-17 -9.137076367650147e-01
-1.001597671778768e-17 -3.941780272679423e-17  4.968462868336210e-01
-9.137076367650147e-01  4.968462868336210e-01 -1.595109872284318e-17

-3.524166413780548e-17 -1.141598162094700e-17 -9.987581723110250e-01
-1.141598162094700e-17 -3.946926368957764e-17  4.191704000028124e-01
-9.987581723110250e-01  4.191704000028124e-01 -1.085226666013147e-17

-4.549372793007538e-17 -1.615150229465467e-17 -9.579802993595032e-01
-1.615150229465467e-17 -4.923776534325682e-17  4.122020810604297e-01
-9.579802993595032e-01  4.122020810604297e-01 -1.753492519671796e-17

-5.637793964377325e-17 -1.940601287920455e-17 -9.415121484540524e-01
-1.940601287920455e-17 -6.456022433662893e-17  4.980898447907464e-01
-9.415121484540524e-01  4.980898447907464e-01 -2.383414719956599e-17

-5.013124603396062e-17 -2.795715508328581e-17 -1.024897346415595e+00
-2.795715508328581e-17 -6.629509491346844e-17  4.233629407367014e-01
-1.024897346415595e+00  4.233629407367014e-01 -2.077168434436507e-17

-8.449115691153601e-17 -1.940118822516117e-17 -1.046153199512728e+00
-1.940118822516117e-17 -7.954783400267408e-17  4.046270129060758e-01
-1.046153199512728e+00  4.046270129060758e-01 -2.241962490972669e-17

-3.745454393633706e-16  9.817185007149819e-17 -9.771611269395384e-01
 9.817185007149819e-17 -1.485971191195872e-16  4.716913845914359e-01
-9.771611269395384e-01  4.716913845914359e-01 -3.216049056188291e-17

-1.305144026259242e-16 -3.099009085017133e-17 -9.624078732755627e-01
-3.099009085017133e-17 -1.158177112970668e-16  4.392015357069523e-01
-9.624078732755627e-01  4.392015357069523e-01 -4.130123557861759e-17

-1.267763614866008e-16 -5.381025020095866e-17 -1.120884131304830e+00
-5.381025020095866e-17 -1.246316256889248e-16  2.540202724063941e-01
-1.120884131304830e+00  2.540202724063941e-01 -4.076883243247308e-17

-1.421348858173935e-16 -5.852789633932772e-17 -1.076235946632419e+00
-5.852789633932772e-17 -1.667193193738057e-16  5.129125863138163e-01
-1.076235946632419e+00  5.129125863138163e-01 -5.213093294945408e-17

-1.656127833562271e-16 -6.195395077564592e-17 -9.465354914724315e-01
-6.195395077564592e-17 -2.068595169631418e-16  7.535697843402931e-01
-9.465354914724315e-01  7.535697843402931e-01 -7.018975468608722e-17

-1.746450781779453e-16 -7.388289620400501e-17 -1.169893485413899e+00
-7.388289620400501e-17 -2.021544339414597e-16  4.894865950588068e-01
-1.169893485413899e+00  4.894865950588068e-01 -5.861915181101532e-17

-1.917904086173924e-16 -8.629295136810579e-17 -1.143575426299577e+00
-8.629295136810579e-17 -2.034593307106851e-16  4.114643507394449e-01
-1.143575426299577e+00  4.114643507394449e-01 -6.455390008616555e-17

-2.123268319517771e-16 -9.666947945177779e-17 -9.783638825735894e-01
-9.666947945177779e-17 -2.149823881721048e-16  4.556805688785382e-01
-9.783638825735894e-01  4.556805688785382e-01 -8.103082751007486e-17

-2.329881684260340e-16 -1.109610022727559e-16 -9.549043655957312e-01
-1.109610022727559e-16 -2.143565437618130e-16  3.953783365275631e-01
-9.549043655957312e-01  3.953783365275631e-01 -8.792462268874992e-17

-2.716410530824061e-16 -1.340225750200011e-16 -1.012250058297033e+00
-1.340225750200011e-16 -2.301577759077725e-16  2.793414428299625e-01
-1.012250058297033e+00  2.793414428299625e-01 -9.719647982136909e-17

-2.989754680810942e-16 -1.458942883095893e-16 -9.876636742888317e-01
-1.458942883095893e-16 -2.634414561610563e-16  3.518278604692220e-01
-9.876636742888317e-01  3.518278604692220e-01 -1.097742555393134e-16

-3.282168971435057e-16 -1.569139163959988e-16 -9.779749789235443e-01
-1.569139163959988e-16 -3.103303998459960e-16  4.489860824894619e-01
-9.779749789235443e-01  4.489860824894619e-01 -1.218946178144794e-16

-3.830516990333592e-16 -1.792410001529941e-16 -1.034103863662859e+00
-1.792410001529941e-16 -3.880564377232578e-16  5.145785095060971e-01
-1.034103863662859e+00  5.145785095060971e-01 -1.395253895737869e-16

-4.394164351455573e-16 -2.034177344730656e-16 -1.082611967330496e+00
-2.034177344730656e-16 -4.522808725209655e-16  5.043224897225029e-01
-1.082611967330496e+00  5.043224897225029e-01 -1.577164469594620e-16

-5.748573487281218e-16 -2.616496847710620e-16 -1.136089088905858e+00
-2.616496847710620e-16 -5.500529634568774e-16  4.323572482041632e-01
-1.136089088905858e+00  4.323572482041632e-01 -1.969042720122213e-16

-8.650622354434174e-16 -3.973669758490629e-16 -1.111808783867199e+00
-3.973669758490629e-16 -7.203217401650943e-16  4.130052042259942e-01
-1.111808783867199e+00  4.130052042259942e-01 -2.941264333043093e-16

-1.251470243469990e-15 -5.669815085575159e-16 -1.077870427619594e+00
-5.669815085575159e-16 -8.906076232408336e-16  4.386160740335101e-01
-1.077870427619594e+00  4.386160740335101e-01 -4.287033392388311e-16

-1.791859889205222e-15 -7.550293137321728e-16 -1.052535481181773e+00
-7.550293137321728e-16 -9.732367806247838e-16  4.261322000324453e-01
-1.052535481181773e+00  4.261322000324453e-01 -6.046274810578896e-16

-2.432342925336044e-15 -9.288991855776903e-16 -1.033859294442957e+00
-9.288991855776903e-16 -9.666752408723690e-16  4.137179237750207e-01
-1.033859294442957e+00  4.137179237750207e-01 -8.270363180211798e-16

-3.469652204745015e-15 -1.122185648165847e-15 -1.018048366674662e+00
-1.122185648165847e-15 -9.000311031656510e-16  4.146691791190570e-01
-1.018048366674662e+00  4.146691791190570e-01 -1.208249344699936e-15

-5.223329537786865e-15 -1.246047359009296e-15 -9.858015348361857e-01
-1.246047359009296e-15 -8.321888807355893e-16  4.760153549427028e-01
-9.858015348361857e-01  4.760153549427028e-01 -1.921433596432213e-15

-7.817550906647380e-15 -1.118491075930454e-15 -9.784438114323257e-01
-1.118491075930454e-15  4.665254951972572e-17  4.477096590796760e-01
-9.784438114323257e-01  4.477096590796760e-01 -3.132039679147876e-15

-1.067702589263550e-14 -5.330523887864548e-16 -1.073951667351589e+00
-5.330523887864548e-16  2.617012482890436e-15  3.079153478609268e-01
-1.073951667351589e+00  3.079153478609268e-01 -4.629600661065089e-15

-1.551021339717290e-14  8.691293471293147e-16 -9.779876593362695e-01
 8.691293471293147e-16  4.973279807332376e-15  4.118528534683714e-01
-9.779876593362695e-01  4.118528534683714e-01 -7.230340391519769e-15

 1.949529932579584e-14  2.917323476830727e-14 -1.044720560000608e+00
 2.917323476830727e-14  5.369419365267227e-14  4.342687757535101e-01
-1.044720560000608e+00  4.342687757535101e-01  1.210989743522617e-15

-6.405309291665626e-13 -1.442356625134717e-13 -9.933827261853325e-01
-1.442356625134717e-13 -2.559707250899359e-13  4.927360525975618e-01
-9.933827261853325e-01  4.927360525975618e-01 -2.103009179140769e-13

 2.038479765820167e-14  5.029800821995830e-15 -9.957388039010104e-01
 5.029800821995830e-15  3.862248340349771e-14  3.956492504454142e-01
-9.957388039010104e-01  3.956492504454142e-01 -2.588951148954692e-15

-6.471193966749750e-15 -1.241514716539565e-14 -1.064175049760147e+00
-1.241514716539565e-14  8.120595560611348e-15  4.084925206081169e-01
-1.064175049760147e+00  4.084925206081169e-01 -8.691225782897782e-15

-6.492433140996031e-13 -1.454606259900547e-13 -1.009792324894783e+00
-1.454606259900547e-13 -3.073676826791193e-13  4.150979425851934e-01
-1.009792324894783e+00  4.150979425851934e-01 -1.662303883233791e-13

-3.647274706229078e-15 -1.026124409453096e-14 -1.021556049744600e+00
-1.026124409453096e-14  6.697724655588241e-15  5.115021804988868e-01
-1.021556049744600e+00  5.115021804988868e-01 -5.079652671628090e-15

-2.882715020401386e-15 -8.232349215430979e-15 -1.045929734318171e+00
-8.232349215430979e-15  5.034500844228488e-15  4.597950536592291e-01
-1.045929734318171e+00  4.597950536592291e-01 -3.732278512223210e-15

-2.190559490782605e-15 -5.189276392286437e-15 -1.049196279408681e+00
-5.189276392286437e-15  3.221560969173440e-15  3.917889729815714e-01
-1.049196279408681e+00  3.917889729815714e-01 -2.266388329961145e-15

-1.621010005003134e-15 -2.647271823126890e-15 -9.804676454391242e-01
-2.647271823126890e-15  2.076387685104329e-15  4.368871928511913e-01
-9.804676454391242e-01  4.368871928511913e-01 -1.238945764842616e-15

-1.174786504790494e-15 -1.445628274743109e-15 -8.895126412494937e-01
-1.445628274743109e-15  1.306764956896871e-15  4.473854882610064e-01
-8.895126412494937e-01  4.473854882610064e-01 -7.606347042008293e-16

-8.858344553368580e-16 -8.647734499140828e-16 -9.201679299362990e-01
-8.647734499140828e-16  8.938867712447576e-16  3.298255719387751e-01
-9.201679299362990e-01  3.298255719387751e-01 -5.120340069311448e-16

-7.925596273408462e-16 -6.272708967928220e-16 -9.146857267246734e-01
-6.272708967928220e-16  7.712448003462037e-16  4.098079805404947e-01
-9.146857267246734e-01  4.098079805404947e-01 -4.194659003832092e-16

-6.358493226252846e-16 -3.631523129540001e-16 -9.733193187955649e-01
-3.631523129540001e-16  5.785864440670897e-16  4.139082059548430e-01
-9.733193187955649e-01  4.139082059548430e-01 -2.999707988670198e-16

-5.026227974161209e-16 -2.138436589248624e-16 -1.084211849581993e+00
-2.138436589248624e-16  4.278879725213336e-16  3.870092578659005e-01
-1.084211849581993e+00  3.870092578659005e-01 -2.166903841611789e-16

-4.588642939422130e-16 -1.604669704473059e-16 -9.945113051395047e-01
-1.604669704473059e-16  3.711847455052231e-16  5.869849639084365e-01
-9.945113051395047e-01  5.869849639084365e-01 -1.963762155061646e-16

-3.685658404727336e-16 -1.148771133325919e-16 -1.103818257881767e+00
-1.148771133325919e-16  2.850370614822797e-16  4.123202383772439e-01
-1.103818257881767e+00  4.123202383772439e-01 -1.492217073982535e-16

-2.640019521863996e-16 -8.520906720820631e-17 -9.873449336190235e-01
-8.520906720820631e-17  1.983372493188387e-16  4.123269660652799e-01
-9.873449336190235e-01  4.123269660652799e-01 -1.173142493822511e-16

-2.217077625574501e-16 -5.474774926019227e-17 -9.496263544113760e-01
-5.474774926019227e-17  1.460512551196672e-16  3.665144485620749e-01
-9.496263544113760e-01  3.665144485620749e-01 -9.127982170119462e-17

-1.885919700269604e-16 -4.069187381226232e-17 -9.221042412455995e-01
-4.069187381226232e-17  1.152229061247599e-16  4.295120733497594e-01
-9.221042412455995e-01  4.295120733497594e-01 -7.870815453301150e-17

-1.549189441723432e-16 -2.753267101183179e-17 -9.118650527134231e-01
-2.753267101183179e-17  8.805882979386696e-17  4.544722899641638e-01
-9.118650527134231e-01  4.544722899641638e-01 -6.521893538703980e-17

-1.016423823582723e-16 -1.983711151516837e-17 -9.750499622196236e-01
-1.983711151516837e-17  7.330142415996383e-17  4.342617754114615e-01
-9.750499622196236e-01  4.342617754114615e-01 -5.012891984200274e-17

-9.153847870021426e-17 -9.016456357117213e-18 -1.180856711694231e+00
-9.016456357117213e-18  5.310570675493116e-17  3.668592100092442e-01
-1.180856711694231e+00  3.668592100092442e-01 -2.854565088144370e-17

-7.854198911654128e-17 -6.695928596533341e-18 -1.272528193013580e+00
-6.695928596533341e-18  4.583528711957227e-17  4.432594210946562e-01
-1.272528193013580e+00  4.432594210946562e-01 -1.954031500710309e-17

-7.708343014901259e-17 -5.241463210867199e-18 -1.068702218867264e+00
-5.241463210867199e-18  3.138483539308993e-17  7.690275949046154e-01
-1.068702218867264e+00  7.690275949046154e-01 -3.285788844062140e-17

-6.209647991189047e-17 -3.952613868610865e-18 -1.286546771707786e+00
-3.952613868610865e-18  3.806900651841412e-17  4.335777033429143e-01
-1.286546771707786e+00  4.335777033429143e-01 -1.354223637647006e-17

-4.720346157411070e-17 -2.433177024425656e-18 -1.276605551426947e+00
-2.433177024425656e-18  2.764449537341122e-17  5.192344602288452e-01
-1.276605551426947e+00  5.192344602288452e-01 -8.685877087822270e-18

-4.376368511763672e-17 -1.141196992352579e-18 -1.150223560430654e+00
-1.141196992352579e-18  1.967237838612935e-17  6.145612068623566e-01
-1.150223560430654e+00  6.145612068623566e-01 -1.518097283676752e-17

-2.927903895551216e-17 -2.788232586930584e-18 -1.243451273726396e+00
-2.788232586930584e-18  3.675621783901680e-17  3.676168742303543e-01
-1.243451273726396e+00  3.676168742303543e-01 -3.695375456833538e-18

-2.578410481953313e-17 -1.639958578224999e-18 -1.114216903644666e+00
-1.639958578224999e-18  2.906381732391567e-17  4.257574192576332e-01
-1.114216903644666e+00  4.257574192576332e-01 -8.612514086391212e-18

-2.629369201823036e-17 -7.809470408219290e-19 -1.118014945703755e+00
-7.809470408219290e-19  1.621095226108786e-17  4.762687265854398e-01
-1.118014945703755e+00  4.762687265854398e-01 -4.539178047173642e-18

-2.337947924942253e-17 -5.265192163630266e-19 -1.072502511437966e+00
-5.265192163630266e-19  1.468822836885335e-17  4.577202403169570e-01
-1.072502511437966e+00  4.577202403169570e-01 -4.609953667781198e-18

-2.120761963263094e-17 -1.011302189891476e-18 -1.006010274974419e+00
-1.011302189891476e-18  1.553912290743996e-17  4.046322960205821e-01
-1.006010274974419e+00  4.046322960205821e-01 -5.150060352191351e-18

-1.936086061132635e-17 -8.361738089528855e-19 -1.000664759674598e+00
-8.361738089528855e-19  1.505685018186045e-17  3.865618170445934e-01
-1.000664759674598e+00  3.865618170445934e-01 -3.868322946249287e-18

-1.851842980882777e-17 -4.929659923188009e-19 -9.533211619585119e-01
-4.929659923188009e-19  1.172177213314788e-17  4.370068801251846e-01
-9.533211619585119e-01  4.370068801251846e-01 -6.291305362744955e-18

-1.563490015228466e-17 -4.147222597814083e-19 -9.611054140319109e-01
-4.147222597814083e-19  1.198220735622175e-17  4.034192910528933e-01
-9.611054140319109e-01  4.034192910528933e-01 -3.681264830070836e-18

-1.345050180588056e-17 -1.434839132484382e-19 -9.579297662862412e-01
-1.434839132484382e-19  9.588917386261796e-18  4.342454670699453e-01
-9.579297662862412e-01  4.342454670699453e-01 -2.797365972788330e-18

-1.423354663454462e-17  1.073051369925600e-19 -8.095329371161215e-01
 1.073051369925600e-19  5.862361115801456e-18  4.834684035717582e-01
-8.095329371161215e-01  4.834684035717582e-01 -1.064973211397330e-17

-6.376142978007322e-18 -1.240365850879654e-18 -1.046571492196742e+00
-1.240365850879654e-18  1.992163353167033e-17  1.656419575548974e-01
-1.046571492196742e+00  1.656419575548974e-01  9.662422608135989e-18

-1.004651544099651e-17 -6.718407686039164e-20 -8.947751068615327e-01
-6.718407686039164e-20  1.572529483281823e-17  2.216611606130638e-01
-8.947751068615327e-01  2.216611606130638e-01 -2.291122287038611e-18

-1.074998028402512e-17  4.114539757658496e-19 -8.351682677460834e-01
 4.114539757658496e-19  9.146455299140995e-18  3.750622379303178e-01
-8.351682677460834e-01  3.750622379303178e-01 -8.098560910160360e-18

-6.491437787492848e-18 -5.540174031367052e-19 -9.580464799205072e-01
-5.540174031367052e-19  8.671256603956529e-18  4.488295102988056e-01
-9.580464799205072e-01  4.488295102988056e-01  9.397056464116880e-19

-4.179793519347395e-18 -3.699798660672374e-19 -1.015817714769623e+00
-3.699798660672374e-19  5.640006336859694e-18  5.437537666281864e-01
-1.015817714769623e+00  5.437537666281864e-01  2.671047215672000e-18

-5.611016706264738e-18  2.440876636104409e-19 -9.453340407656485e-01
 2.440876636104409e-19  5.024323092640033e-18  5.321481556945539e-01
-9.453340407656485e-01  5.321481556945539e-01 -3.007341275249512e-18

-5.443492415642269e-19 -2.817974064939402e-19 -1.101699516930242e+00
-2.817974064939402e-19  1.542706513880649e-17  2.758894645534088e-01
-1.101699516930242e+00  2.758894645534088e-01  1.090304875999641e-17

-5.312138367508106e-18  7.257856758296951e-19 -8.871663250435678e-01
 7.257856758296951e-19  2.870344218988597e-18  5.423484116891406e-01
-8.871663250435678e-01  5.423484116891406e-01 -5.357893433392437e-18

-4.423046574792251e-18 -1.975627225395838e-19 -8.581559654750153e-01
-1.975627225395838e-19  7.990393833211372e-18  4.236300862388965e-01
-8.581559654750153e-01  4.236300862388965e-01 -4.040785180014146e-18

 4.767943965359754e-19 -1.312827548878362e-19 -1.024213720120127e+00
-1.312827548878362e-19  1.904683939597746e-17  1.274261414018949e-01
-1.024213720120127e+00  1.274261414018949e-01  8.325835143094214e-18

-6.337667120882225e-18 -6.698889845056187e-19 -7.244245612214343e-01
-6.698889845056187e-19  4.087848498959417e-18  5.367895489914561e-01
-7.244245612214343e-01  5.367895489914561e-01 -1.200688111357556e-17

-8.638780642956215e-20 -2.114366358878242e-19 -9.694189078026145e-01
-2.114366358878242e-19  9.132850944069467e-18  4.189886514069074e-01
-9.694189078026145e-01  4.189886514069074e-01  2.812435205553865e-18

 2.106352943618715e-18 -3.376703773417896e-19 -1.037347099797923e+00
-3.376703773417896e-19  9.987132715184310e-18  4.262970202218072e-01
-1.037347099797923e+00  4.262970202218072e-01  6.525903884444404e-18

 2.082456940649825e-18 -5.536079788808701e-19 -1.023121508872589e+00
-5.536079788808701e-19  7.384135938693211e-18  5.129806552762450e-01
-1.023121508872589e+00  5.129806552762450e-01  4.944969945818547e-18

 3.513437784410797e-18 -1.541192898649103e-19 -1.064019363916672e+00
-1.541192898649103e-19  1.097567792049593e-17  4.031931398368996e-01
-1.064019363916672e+00  4.031931398368996e-01  8.033759710869040e-18

 2.869943028904528e-18 -2.041399532453123e-19 -1.007093689618514e+00
-2.041399532453123e-19  1.255097659269972e-17  3.520466713507951e-01
-1.007093689618514e+00  3.520466713507951e-01  5.463756832725425e-18

 4.183652311283534e-18 -9.127675960591313e-20 -1.047389057599781e+00
-9.127675960591313e-20  1.365545608588094e-17  3.200194166643651e-01
-1.047389057599781e+00  3.200194166643651e-01  8.448556365815679e-18

 3.279420554578963e-18 -2.833500508213703e-19 -9.963856986637246e-01
-2.833500508213703e-19  9.747696329372217e-18  4.325604630265862e-01
-9.963856986637246e-01  4.325604630265862e-01  4.456169544425755e-18

 4.923046207472027e-18 -2.224262830206669e-19 -1.040359431362581e+00
-2.224262830206669e-19  1.091763254273690e-17  4.039062798836650e-01
-1.040359431362581e+00  4.039062798836650e-01  7.808837129584611e-18

 4.036001707059424e-18 -1.691825544224754e-19 -9.827507372246034e-01
-1.691825544224754e-19  9.920918668718116e-18  4.206656971848740e-01
-9.827507372246034e-01  4.206656971848740e-01  4.277347321982749e-18

 6.280696438885315e-18 -1.912463540429998e-19 -1.058704497442053e+00
-1.912463540429998e-19  1.403384491483489e-17  3.127601319981904e-01
-1.058704497442053e+00  3.127601319981904e-01  1.078826661276598e-17

 5.205128487474089e-18 -1.887763947491786e-19 -1.004923795034177e+00
-1.887763947491786e-19  1.103512787255496e-17  3.872882426353013e-01
-1.004923795034177e+00  3.872882426353013e-01  6.874227476420254e-18

 3.787784318346878e-18 -1.569162510106111e-19 -9.377583297992705e-01
-1.569162510106111e-19  7.490042256485057e-18  4.738322224635353e-01
-9.377583297992705e-01  4.738322224635353e-01  1.923509449130244e-18

 5.957150515618152e-18 -2.662967843467020e-19 -1.006471106626257e+00
-2.662967843467020e-19  1.266081957179701e-17  3.397064924379476e-01
-1.006471106626257e+00  3.397064924379476e-01  8.249788344418790e-18

 6.142228012143809e-18 -2.113273490551945e-19 -1.006210026094731e+00
-2.113273490551945e-19  1.259386058370731e-17  3.361198282313707e-01
-1.006210026094731e+00  3.361198282313707e-01  8.429674465735355e-18

 4.794367227687173e-18 -1.874202934184621e-19 -9.458511560469520e-01
-1.874202934184621e-19  9.371932606140138e-18  4.167693276104575e-01
-9.458511560469520e-01  4.167693276104575e-01  3.755907334487055e-18

 5.841585350843743e-18 -1.416514745463752e-19 -9.766422753468983e-01
-1.416514745463752e-19  9.933336245978455e-18  3.992137472204667e-01
-9.766422753468983e-01  3.992137472204667e-01  6.193913415346044e-18

 6.473395259410359e-18 -1.554118511210578e-19 -9.901269170206830e-01
-1.554118511210578e-19  1.094119702587379e-17  3.696436512623018e-01
-9.901269170206830e-01  3.696436512623018e-01  7.694538435517553e-18

 6.009119227511257e-18 -9.051454190344825e-20 -9.645717919039917e-01
-9.051454190344825e-20  9.514332136118376e-18  3.998452444544768e-01
-9.645717919039917e-01  3.998452444544768e-01  5.892155179400351e-18

 5.244354479702659e-18 -5.035414416595332e-20 -9.191831502679240e-01
-5.035414416595332e-20  8.327906758001974e-18  4.168105275847176e-01
-9.191831502679240e-01  4.168105275847176e-01  3.345252571822789e-18

 3.267517909470312e-18 -1.278601683561935e-19 -8.247769807618982e-01
-1.278601683561935e-19  8.093032953945888e-18  4.144790306019099e-01
-8.247769807618982e-01  4.144790306019099e-01 -2.451438300317346e-18

 8.269704900385738e-18 -2.984086367424405e-20 -1.026607071817711e+00
-2.984086367424405e-20  1.651447473840856e-17  1.981577697052016e-01
-1.026607071817711e+00  1.981577697052016e-01  1.242933356278495e-17

 8.794478273476423e-18  2.007126059996133e-19 -1.052188519176077e+00
 2.007126059996133e-19  1.638956424975008e-17  1.938526671782315e-01
-1.052188519176077e+00  1.938526671782315e-01  1.357815773565398e-17

 2.767884726042509e-18 -2.767020692466797e-19 -7.968576233122103e-01
-2.767020692466797e-19  6.253624844174052e-18  4.736569398008458e-01
-7.968576233122103e-01  4.736569398008458e-01 -4.937350466492576e-18

 6.051340257126406e-18 -4.350683361105357e-19 -9.311318970501746e-01
-4.350683361105357e-19  7.548286278273572e-18  4.628320233438800e-01
-9.311318970501746e-01  4.628320233438800e-01  3.711733625948221e-18

 7.082172237452808e-18 -2.863183862292604e-19 -9.761403945077309e-01
-2.863183862292604e-19  9.335397131590732e-18  4.218708459525093e-01
-9.761403945077309e-01  4.218708459525093e-01  6.038505622960263e-18

 7.908256134637995e-18 -2.157689537641129e-19 -1.010442652106424e+00
-2.157689537641129e-19  1.175979862747076e-17  3.640038803959215e-01
-1.010442652106424e+00  3.640038803959215e-01  8.328117443197281e-18

 8.213003824260571e-18 -2.203103654614776e-19 -1.020026361388173e+00
-2.203103654614776e-19  1.159200672326216e-17  3.752383801863337e-01
-1.020026361388173e+00  3.752383801863337e-01  8.643338061318291e-18

 7.450605040677177e-18 -1.917180385037586e-19 -9.858476847319819e-01
-1.917180385037586e-19  8.780821444566135e-18  4.504567523698186e-01
-9.858476847319819e-01  4.504567523698186e-01  5.690132451061796e-18

 7.486030089505289e-18 -2.347830113633832e-19 -9.801446637086270e-01
-2.347830113633832e-19  1.011856395927821e-17  4.147572057980676e-01
-9.801446637086270e-01  4.147572057980676e-01  5.861639808494927e-18

 8.162349396091970e-18 -3.559297971141977e-19 -9.966808453081544e-01
-3.559297971141977e-19  1.294084480887877e-17  3.434044653781134e-01
-9.966808453081544e-01  3.434044653781134e-01  8.079453179197741e-18

 9.091830483240981e-18 -2.430235254358118e-19 -1.029388928534976e+00
-2.430235254358118e-19  1.287059480273158e-17  3.408733043243588e-01
-1.029388928534976e+00  3.408733043243588e-01  1.033352465326862e-17

 7.991774602125619e-18 -2.558866213007645e-19 -9.819066353561418e-01
-2.558866213007645e-19  9.957716820794362e-18  4.167514007928204e-01
-9.819066353561418e-01  4.167514007928204e-01  6.683528000452545e-18

 8.101824823474076e-18 -1.490356468894692e-19 -9.825180937561758e-01
-1.490356468894692e-19  9.206325714555642e-18  4.296696735765501e-01
-9.825180937561758e-01  4.296696735765501e-01  6.783507721900653e-18

 6.735817938348854e-18 -1.708763099632251e-19 -9.151009618968047e-01
-1.708763099632251e-19  9.118184955198844e-18  4.206478506972783e-01
-9.151009618968047e-01  4.206478506972783e-01  3.006456444736274e-18

 7.998910274567860e-18 -2.885409865315926e-19 -9.545915847696484e-01
-2.885409865315926e-19  1.413676336637401e-17  2.896576844601543e-01
-9.545915847696484e-01  2.896576844601543e-01  7.281671057894119e-18

 8.310021767262048e-18 -1.469680585597725e-19 -9.672041367321917e-01
-1.469680585597725e-19  1.273682877449801e-17  3.220622120272327e-01
-9.672041367321917e-01  3.220622120272327e-01  7.747074431979480e-18

 6.519084463445099e-18 -4.478410848229163e-19 -8.872825415236114e-01
-4.478410848229163e-19  6.740047662119398e-18  4.926917454928951e-01
-8.872825415236114e-01  4.926917454928951e-01  1.556603363524334e-18

 9.548001225593701e-18 -2.487534026821916e-19 -1.010841388970454e+00
-2.487534026821916e-19  1.341983301445953e-17  3.186237957647689e-01
-1.010841388970454e+00  3.186237957647689e-01  1.061703820425291e-17

 9.732876455388360e-18 -1.565783225591511e-19 -1.019899035293286e+00
-1.565783225591511e-19  1.387090929489902e-17  3.060857980385488e-01
-1.019899035293286e+00  3.060857980385488e-01  1.096169654120093e-17

 8.516152058522164e-18 -1.877608981459410e-19 -9.694994727607849e-01
-1.877608981459410e-19  8.150157312091482e-18  4.595235449286145e-01
-9.694994727607849e-01  4.595235449286145e-01  6.366555151727997e-18

 7.755123021795528e-18 -5.309764538077775e-20 -9.346266969150694e-01
-5.309764538077775e-20  8.548360354694106e-18  4.379815518630763e-01
-9.346266969150694e-01  4.379815518630763e-01  4.174864477791076e-18

 9.374528494466304e-18 -5.656341237721676e-19 -9.840862605961282e-01
-5.656341237721676e-19  1.405247498051929e-17  3.110303646016879e-01
-9.840862605961282e-01  3.110303646016879e-01  9.438823551023796e-18

 9.112073179319675e-18 -3.717150447515170e-19 -9.755010247568798e-01
-3.717150447515170e-19  1.484428586430256e-17  2.799384089641320e-01
-9.755010247568798e-01  2.799384089641320e-01  8.912799707791975e-18

 8.024915620374352e-18 -2.243879462667615e-19 -9.336333994009560e-01
-2.243879462667615e-19  1.320402811429894e-17  3.152582038637835e-01
-9.336333994009560e-01  3.152582038637835e-01  5.594440640679763e-18

 6.462067227587507e-18 -1.726351368923145e-19 -8.723505994561591e-01
-1.726351368923145e-19  1.062062040258646e-17  3.805834519353075e-01
-8.723505994561591e-01  3.805834519353075e-01  6.515268764570845e-19

 8.531597754504404e-18 -1.926551642025051e-19 -9.607611286146106e-01
-1.926551642025051e-19  1.137071771666223e-17  3.737583317763385e-01
-9.607611286146106e-01  3.737583317763385e-01  6.193004513712705e-18

 9.057395678194888e-18 -4.418890727489707e-19 -9.804709681659119e-01
-4.418890727489707e-19  9.589549437617947e-18  4.421414598507101e-01
-9.804709681659119e-01  4.421414598507101e-01  6.822437143352494e-18

 9.655469233448009e-18 -2.890732446717513e-19 -1.011062871784703e+00
-2.890732446717513e-19  9.478831424046486e-18  4.470078479397924e-01
-1.011062871784703e+00  4.470078479397924e-01  8.215599477446118e-18

 9.012342878479098e-18 -2.233132445012725e-19 -9.810766491656551e-01
-2.233132445012725e-19  1.051907042683022e-17  4.139418954136775e-01
-9.810766491656551e-01  4.139418954136775e-01  6.460482611191074e-18

 1.048933025010542e-17 -3.991501557788570e-19 -1.031165808226574e+00
-3.991501557788570e-19  1.568422307682108e-17  2.846775574270836e-01
-1.031165808226574e+00  2.846775574270836e-01  1.148396948474612e-17

 9.998940561411974e-18 -2.649601005263423e-19 -1.010741570924168e+00
-2.649601005263423e-19  1.295483383767516e-17  3.493503709530209e-01
-1.010741570924168e+00  3.493503709530209e-01  9.604564221469568e-18

 8.681119021098556e-18  4.662301074683131e-20 -9.595040393003998e-01
 4.662301074683131e-20  7.259975009245753e-18  4.827315046278673e-01
-9.595040393003998e-01  4.827315046278673e-01  5.245912841327535e-18

 1.021486489333909e-17 -4.987972392698131e-19 -9.980737825585991e-01
-4.987972392698131e-19  1.298963912706756e-17  3.437991647144665e-01
-9.980737825585991e-01  3.437991647144665e-01  1.036480698403563e-17

 1.016867433278976e-17 -7.129344532146475e-19 -9.841322846354081e-01
-7.129344532146475e-19  1.460817205308478e-17  3.012206329907136e-01
-9.841322846354081e-01  3.012206329907136e-01  1.062214656846480e-17

 5.187207478088765e-18 -1.190931270656946e-19 -7.872700825255033e-01
-1.190931270656946e-19  5.295718081010876e-18  5.042977876000675e-01
-7.872700825255033e-01  5.042977876000675e-01 -4.281547594387733e-18

 8.966399923894379e-18 -4.028288105392232e-19 -9.294522954565066e-01
-4.028288105392232e-19  1.294597950343279e-17  3.186038888088368e-01
-9.294522954565066e-01  3.186038888088368e-01  7.387454423848710e-18

 8.259041140792665e-18 -2.342614553799140e-19 -9.048415723036043e-01
-2.342614553799140e-19  1.319118457225856e-17  3.046401307838237e-01
-9.048415723036043e-01  3.046401307838237e-01  5.369597012028804e-18

 8.374501467139768e-18 -8.005922833463745e-20 -9.158428783600201e-01
-8.005922833463745e-20  1.145022022961144e-17  3.510305623218566e-01
-9.158428783600201e-01  3.510305623218566e-01  5.013827546760724e-18

 7.587267723003626e-18 -1.942024588380170e-19 -8.827624493171298e-01
-1.942024588380170e-19  9.713796693872298e-18  4.040674129872899e-01
-8.827624493171298e-01  4.040674129872899e-01  2.317739956901826e-18

 6.824969415693916e-18 -3.433125796915386e-19 -8.522133298955978e-01
-3.433125796915386e-19  8.223951079691887e-18  4.534409699594980e-01
-8.522133298955978e-01  4.534409699594980e-01 -2.988429083612900e-19

 1.014058642717835e-17 -3.407899824790692e-19 -9.958755083725378e-01
-3.407899824790692e-19  1.166392412426018e-17  3.834335037191089e-01
-9.958755083725378e-01  3.834335037191089e-01  8.946840349917437e-18

 1.031548170422605e-17 -4.975203288367525e-19 -1.005731578563026e+00
-4.975203288367525e-19  1.021671704421311e-17  4.412465805755094e-01
-1.005731578563026e+00  4.412465805755094e-01  8.640837390130785e-18

 1.066548857420744e-17 -2.594783447542927e-19 -1.028604915269278e+00
-2.594783447542927e-19  1.020827581531485e-17  4.389843833091452e-01
-1.028604915269278e+00  4.389843833091452e-01  9.447702684690129e-18

 9.426037638419557e-18 -1.898661446972663e-19 -9.747041505494763e-01
-1.898661446972663e-19  1.052262527736213e-17  4.224555818509115e-01
-9.747041505494763e-01  4.224555818509115e-01  6.037295723577396e-18

 1.065244037941514e-17 -4.656945747152708e-19 -1.012468205524880e+00
-4.656945747152708e-19  1.572971637639028e-17  2.943973493129506e-01
-1.012468205524880e+00  2.943973493129506e-01  1.045360723993666e-17

 9.585959705912158e-18 -3.191390940754341e-19 -9.698249395933606e-01
-3.191390940754341e-19  1.299728120943613e-17  3.576955761589593e-01
-9.698249395933606e-01  3.576955761589593e-01  7.042879206856218e-18

 9.256624272176219e-18 -3.738505674584395e-19 -9.542467651010341e-01
-3.738505674584395e-19  1.036317183318202e-17  4.318248454995882e-01
-9.542467651010341e-01  4.318248454995882e-01  5.579844230695833e-18

 1.095260980170533e-17 -2.940694684819869e-19 -1.021232595166143e+00
-2.940694684819869e-19  1.420843503828253e-17  3.319102635195689e-01
-1.021232595166143e+00  3.319102635195689e-01  1.077567013609916e-17

 1.100849810666571e-17 -2.462065672980447e-19 -1.024086565950024e+00
-2.462065672980447e-19  1.396742393827100e-17  3.384385787172455e-01
-1.024086565950024e+00  3.384385787172455e-01  1.076034866699385e-17

 1.084404598744052e-17 -3.112390760584806e-20 -1.020614381410428e+00
-3.112390760584806e-20  1.000315966759400e-17  4.345642182161508e-01
-1.020614381410428e+00  4.345642182161508e-01  9.705492968781364e-18

 6.023904686532101e-18  8.756876150206659e-19 -8.374942642477440e-01
 8.756876150206659e-19  4.829202589050599e-18  5.153026270174669e-01
-8.374942642477440e-01  5.153026270174669e-01 -3.157639076237722e-18

 7.237734733125785e-18 -3.121533182438434e-19 -8.520288948902863e-01
-3.121533182438434e-19  1.153769806516361e-17  3.764674005838555e-01
-8.520288948902863e-01  3.764674005838555e-01  5.943851008593501e-19

 1.649791797546402e-17 -7.035645007265345e-19 -1.214112449803187e+00
-7.035645007265345e-19  2.704235400079118e-17 -1.058386524268408e-02
-1.214112449803187e+00 -1.058386524268408e-02  2.618913416699908e-17

 1.262818215177416e-17  3.928426904361095e-20 -1.073617781642857e+00
 3.928426904361095e-20  2.125818069989119e-17  1.074502102872006e-01
-1.073617781642857e+00  1.074502102872006e-01  1.593267599399711e-17

 3.614456643635993e-19 -9.459320455509199e-19 -5.566824511628438e-01
-9.459320455509199e-19  3.121284240808544e-18  6.099054051472719e-01
-5.566824511628438e-01  6.099054051472719e-01 -1.897506203543953e-17

 9.154216572634698e-18 -7.226534359583303e-19 -9.279656048261637e-01
-7.226534359583303e-19  1.014624517811712e-17  4.416585766806471e-01
-9.279656048261637e-01  4.416585766806471e-01  5.430851068219086e-18

 1.044554518363192e-17 -6.058955454536058e-19 -9.896340731601733e-01
-6.058955454536058e-19  1.006755420700026e-17  4.548089503081555e-01
-9.896340731601733e-01  4.548089503081555e-01  8.044766549529129e-18

 1.084139128859593e-17 -3.323145366037524e-19 -1.015879621958658e+00
-3.323145366037524e-19  1.016927560680559e-17  4.496021982461414e-01
-1.015879621958658e+00  4.496021982461414e-01  8.860656064808915e-18

 1.003905372331433e-17 -2.449455765481298e-19 -9.808398974107185e-01
-2.449455765481298e-19  1.118451089079765e-17  4.163360478781328e-01
-9.808398974107185e-01  4.163360478781328e-01  6.710333050320673e-18

 1.132084593403489e-17 -3.955232540951624e-19 -1.024919617567115e+00
-3.955232540951624e-19  1.616641654725836e-17  2.908078466444077e-01
-1.024919617567115e+00  2.908078466444077e-01  1.124326138356708e-17

 1.056496013541761e-17 -2.943249198956418e-19 -9.945005910000657e-01
-2.943249198956418e-19  1.329510525600521e-17  3.606719194978478e-01
-9.945005910000657e-01  3.606719194978478e-01  8.640780693569204e-18

 9.562792246280614e-18 -1.831551580873214e-19 -9.557159869621203e-01
-1.831551580873214e-19  8.825702941387492e-18  4.727738615593404e-01
-9.557159869621203e-01  4.727738615593404e-01  5.309885727929526e-18

 1.129520481552125e-17 -4.494463436759164e-19 -1.012479034906409e+00
-4.494463436759164e-19  1.481791777755452e-17  3.222469489514716e-01
-1.012479034906409e+00  3.222469489514716e-01  1.108280394504806e-17

 1.163077543033483e-17 -3.692363988427714e-19 -1.027357461073088e+00
-3.692363988427714e-19  1.636280846228403e-17  2.761626874387678e-01
-1.027357461073088e+00  2.761626874387678e-01  1.253808561875331e-17

 6.059738897760741e-18 -1.567745285951537e-19 -8.189596320280181e-01
-1.567745285951537e-19  5.557625679221583e-18  5.430298381558083e-01
-8.189596320280181e-01  5.430298381558083e-01 -3.521697984566519e-18

 9.819382343987047e-18 -1.973963680350789e-19 -9.810050910369683e-01
-1.973963680350789e-19  1.226516289310962e-17  3.753104748334212e-01
-9.810050910369683e-01  3.753104748334212e-01  8.904999308999729e-18

 1.222887770836808e-17 -5.478890103078313e-19 -9.889114910120330e-01
-5.478890103078313e-19  1.361443183944482e-17  3.421003581021709e-01
-9.889114910120330e-01  3.421003581021709e-01  9.864241969208606e-18

 3.421579428260626e-18  4.554715446384180e-19 -9.302544116978944e-01
 4.554715446384180e-19  1.220714308850191e-17  3.696263093232603e-01
-9.302544116978944e-01  3.696263093232603e-01  5.500468577261040e-18

 9.037371923554130e-18  2.514555182551978e-19 -1.061214902832281e+00
 2.514555182551978e-19  1.767477167698852e-17  2.288947294274058e-01
-1.061214902832281e+00  2.288947294274058e-01  1.509681851998885e-17

 4.584155161662859e-18  4.558038142097708e-19 -9.311819540140812e-01
 4.558038142097708e-19  1.325742911839055e-17  3.397601744780950e-01
-9.311819540140812e-01  3.397601744780950e-01  5.074832732577376e-18

-4.811262394649195e-18  1.583810861996935e-18 -9.650965074194426e-01
 1.583810861996935e-18  1.183982552661033e-17  3.889159122808932e-01
-9.650965074194426e-01  3.889159122808932e-01  6.676302775604794e-18

-3.408122158331509e-17  5.072388074740844e-18 -9.814924992113253e-01
 5.072388074740844e-18  9.477770809327853e-18  4.590280460389100e-01
-9.814924992113253e-01  4.590280460389100e-01  7.008454273886373e-18

 2.009690183188050e-17 -1.406364854842486e-18 -1.017359667626543e+00
-1.406364854842486e-18  1.084126192156122e-17  4.433634374824593e-01
-1.017359667626543e+00  4.433634374824593e-01  8.865372319380527e-18

 8.882432668672379e-18 -7.804016234066402e-20 -9.758037284470154e-01
-7.804016234066402e-20  1.139993482577773e-17  4.182451507246018e-01
-9.758037284470154e-01  4.182451507246018e-01  6.355280294551086e-18

 1.027075973446204e-17 -2.538850218322563e-19 -1.019957188580254e+00
-2.538850218322563e-19  1.630663190149086e-17  2.947276788206006e-01
-1.019957188580254e+00  2.947276788206006e-01  1.090461243682163e-17

 1.079441034324274e-17 -3.026479509788195e-19 -9.899054250154067e-01
-3.026479509788195e-19  1.344074925457646e-17  3.646401591150316e-01
-9.899054250154067e-01  3.646401591150316e-01  8.299392450487314e-18

 9.860866737903498e-18 -2.226743619790011e-19 -9.527404054647628e-01
-2.226743619790011e-19  9.128491498019508e-18  4.742662549936384e-01
-9.527404054647628e-01  4.742662549936384e-01  5.070820168365001e-18

 1.167940895057899e-17 -4.347708140017270e-19 -1.016433616093733e+00
-4.347708140017270e-19  1.541700974899948e-17  3.153120958808346e-01
-1.016433616093733e+00  3.153120958808346e-01  1.120671979520092e-17

 1.225561219489174e-17 -2.827824560066749e-19 -1.043658515705258e+00
-2.827824560066749e-19  1.716825485926964e-17  2.628489468309347e-01
-1.043658515705258e+00  2.628489468309347e-01  1.331013804235048e-17

 7.391788832959124e-18 -2.907656203071548e-19 -8.481726033542035e-01
-2.907656203071548e-19  5.972160842676197e-18  5.498763129194870e-01
-8.481726033542035e-01  5.498763129194870e-01 -1.818616696373168e-18

 1.028045016835495e-17 -2.458288738097451e-19 -9.526766360245351e-01
-2.458288738097451e-19  1.002481524467708e-17  4.431652704757751e-01
-9.526766360245351e-01  4.431652704757751e-01  5.972362555879155e-18

 1.097090469686977e-17 -3.448776974346753e-19 -9.839147806869675e-01
-3.448776974346753e-19  1.284446755686352e-17  3.713306337072587e-01
-9.839147806869675e-01  3.713306337072587e-01  8.952375754909036e-18

 1.074206300969248e-17 -3.636218323062449e-19 -9.706293411899078e-01
-3.636218323062449e-19  1.500034357580589e-17  3.113158069633193e-01
-9.706293411899078e-01  3.113158069633193e-01  8.689119308432674e-18

 1.201126345573869e-17  5.289540274439210e-21 -1.090352226076236e+00
 5.289540274439210e-21  1.976756613473497e-17  1.834443364392877e-01
-1.090352226076236e+00  1.834443364392877e-01  1.732036327486191e-17

 9.860221813527778e-18 -3.630269068717595e-19 -8.861144354303387e-01
-3.630269068717595e-19  1.258014661456631e-17  3.669143976067749e-01
-8.861144354303387e-01  3.669143976067749e-01  1.884478889411961e-18

-1.449365100037645e-17  3.097160300135179e-18 -9.602979754913379e-01
 3.097160300135179e-18  1.161682268840322e-17  3.967292283462107e-01
-9.602979754913379e-01  3.967292283462107e-01  6.378604399091808e-18

-3.610999393166250e-17  5.982252531459436e-18 -9.845431272396870e-01
 5.982252531459436e-18  9.552690844603179e-18  4.597836836089421e-01
-9.845431272396870e-01  4.597836836089421e-01  7.228331248849651e-18

-7.349874773741771e-18  2.329017949423093e-18 -1.022037286874418e+00
 2.329017949423093e-18  1.067956140936112e-17  4.421140258178140e-01
-1.022037286874418e+00  4.421140258178140e-01  9.187875561689712e-18

 1.398622994941125e-17 -7.231150216036372e-19 -9.816576274351522e-01
-7.231150216036372e-19  1.186370652810163e-17  4.155944367272307e-01
-9.816576274351522e-01  4.155944367272307e-01  6.777440547080488e-18

 1.154569989040095e-17 -3.707189529251165e-19 -1.027682656079921e+00
-3.707189529251165e-19  1.676321804361988e-17  2.902546802630122e-01
-1.027682656079921e+00  2.902546802630122e-01  1.152402902493998e-17

 1.216604217338300e-17 -4.034776599736398e-19 -1.004439323109969e+00
-4.034776599736398e-19  1.399437702626874e-17  3.560142282288002e-01
-1.004439323109969e+00  3.560142282288002e-01  9.445779749611435e-18

 9.881575935089560e-18 -3.092094183529904e-20 -9.536503578526748e-01
-3.092094183529904e-20  8.572702879375099e-18  4.848213376201330e-01
-9.536503578526748e-01  4.848213376201330e-01  5.155419144089186e-18

 1.172911424159184e-17 -5.140858134286256e-19 -1.001883220279940e+00
-5.140858134286256e-19  1.467144014125402e-17  3.354568277628365e-01
-1.001883220279940e+00  3.354568277628365e-01  1.076368875291687e-17

 1.237894565920721e-17 -5.947449358992069e-19 -1.019887243729579e+00
-5.947449358992069e-19  1.709870477003593e-17  2.692544134588242e-01
-1.019887243729579e+00  2.692544134588242e-01  1.295832990001175e-17

 6.651594359745249e-18 -2.776437674107442e-20 -7.987284044579449e-01
-2.776437674107442e-20  5.124608538506505e-18  5.453610973300972e-01
-7.987284044579449e-01  5.453610973300972e-01 -4.187428948110247e-18

 1.035673272602211e-17 -4.160935561391915e-19 -9.367675226923480e-01
-4.160935561391915e-19  1.301449867290734e-17  3.549008118632905e-01
-9.367675226923480e-01  3.549008118632905e-01  7.301018491783338e-18

 1.128652515296346e-17 -4.813235584801445e-19 -9.726077922338763e-01
-4.813235584801445e-19  1.644485280259050e-17  2.684144988130157e-01
-9.726077922338763e-01  2.684144988130157e-01  1.034701671253967e-17

 9.830603362050118e-18 -2.358810415855322e-19 -9.212863311176622e-01
-2.358810415855322e-19  1.277812762978427e-17  3.554928362850689e-01
-9.212863311176622e-01  3.554928362850689e-01  5.713278620928882e-18

 9.924819574636737e-18 -2.409103755907246e-19 -9.260163423066446e-01
-2.409103755907246e-19  1.214868824993609e-17  3.745918041262127e-01
-9.260163423066446e-01  3.745918041262127e-01  5.753580095710568e-18

 7.411538500559338e-18 -4.105657546861311e-19 -8.234142617373689e-01
-4.105657546861311e-19  8.220407167540161e-18  4.844748837740912e-01
-8.234142617373689e-01  4.844748837740912e-01 -2.089057124375982e-18

 1.092506773950995e-17 -2.366691750232708e-19 -9.779263653164683e-01
-2.366691750232708e-19  1.301031922597508e-17  3.692259355346640e-01
-9.779263653164683e-01  3.692259355346640e-01  8.090815796059015e-18

 1.149080879266572e-17 -3.663147427439350e-19 -1.004176631324673e+00
-3.663147427439350e-19  1.241287278089976e-17  4.027030804554642e-01
-1.004176631324673e+00  4.027030804554642e-01  9.091351451420857e-18

 1.146272483864962e-17 -3.901255749819204e-19 -1.008975447215691e+00
-3.901255749819204e-19  1.089853903649153e-17  4.518074195968576e-01
-1.008975447215691e+00  4.518074195968576e-01  8.623285652688690e-18

 1.094482978561100e-17 -2.245449031656861e-19 -9.891316130837164e-01
-2.245449031656861e-19  1.196787627435751e-17  4.165390269477893e-01
-9.891316130837164e-01  4.165390269477893e-01  7.353694906344841e-18

 1.226821913297756e-17 -2.372199118113294e-19 -1.037003989401897e+00
-2.372199118113294e-19  1.768450113479968e-17  2.651392246455463e-01
-1.037003989401897e+00  2.651392246455463e-01  1.205195577880842e-17

 1.267386114874537e-17 -1.881254649745776e-19 -1.055262877994511e+00
-1.881254649745776e-19  1.605622421522441e-17  3.084806189530481e-01
-1.055262877994511e+00  3.084806189530481e-01  1.294390428291519e-17

 1.046291428830021e-17 -4.122793087881854e-19 -9.612816473660605e-01
-4.122793087881854e-19  8.910969898460162e-18  5.042131705801511e-01
-9.612816473660605e-01  5.042131705801511e-01  5.699125395672934e-18

 9.921675348921927e-18  2.175441702723882e-20 -9.426850156010497e-01
 2.175441702723882e-20  9.192106186624430e-18  4.716642860149474e-01
-9.426850156010497e-01  4.716642860149474e-01  4.441420966603731e-18

 9.888960401603384e-18 -4.694549398439989e-19 -9.227442858956093e-01
-4.694549398439989e-19  1.301066823219007e-17  3.802915648067836e-01
-9.227442858956093e-01  3.802915648067836e-01  5.075685810926872e-18

 1.166198998211848e-17 -1.616751479588444e-19 -9.972609269314853e-01
-1.616751479588444e-19  1.841164868152615e-17  2.236194784048633e-01
-9.972609269314853e-01  2.236194784048633e-01  1.090262609157166e-17

 1.136572002623467e-17  2.156027601150800e-20 -9.908546991691551e-01
 2.156027601150800e-20  1.569810908069018e-17  2.885264499041938e-01
-9.908546991691551e-01  2.885264499041938e-01  9.612249296900711e-18

 7.844492597882838e-18 -7.116071652975243e-19 -8.359023815670427e-01
-7.116071652975243e-19  6.930553719518699e-18  5.484150257911553e-01
-8.359023815670427e-01  5.484150257911553e-01 -1.469908635344598e-18

 1.007355149753298e-17 -3.244117208359118e-19 -9.405419637947270e-01
-3.244117208359118e-19  9.695259379740882e-18  4.715836028649429e-01
-9.405419637947270e-01  4.715836028649429e-01  4.675857258089643e-18

 1.269137236772707e-17 -2.595816326404680e-19 -1.048857643895177e+00
-2.595816326404680e-19  1.663434115776110e-17  2.934193172028270e-01
-1.048857643895177e+00  2.934193172028270e-01  1.289935573019803e-17

 1.139969756182333e-17 -2.013965189150880e-19 -1.002818966143536e+00
-2.013965189150880e-19  1.462579618643442e-17  3.468304250898167e-01
-1.002818966143536e+00  3.468304250898167e-01  8.890062099059292e-18

 1.016690692208385e-17 -4.581238569400016e-19 -9.497158356192472e-01
-4.581238569400016e-19  1.041190537438281e-17  4.728943690275154e-01
-9.497158356192472e-01  4.728943690275154e-01  4.282123039827458e-18

 1.199547035555111e-17 -2.790771244883074e-19 -1.038244076419893e+00
-2.790771244883074e-19  1.333843691536277e-17  4.001321872331519e-01
-1.038244076419893e+00  4.001321872331519e-01  1.031970405464788e-17

 1.093543625174436e-17 -3.896067483484734e-19 -9.760964768061495e-01
-3.896067483484734e-19  1.100335290631620e-17  4.599825755016051e-01
-9.760964768061495e-01  4.599825755016051e-01  5.453404702963879e-18

 1.101279465787914e-17 -1.391873656177734e-19 -1.011841704859832e+00
-1.391873656177734e-19  1.412274345518133e-17  3.776265454350409e-01
-1.011841704859832e+00  3.776265454350409e-01  8.817236879713220e-18

 5.499425257240160e-18  1.903351844970746e-18 -1.026886233486441e+00
 1.903351844970746e-18  1.427483846072325e-17  3.546068776254723e-01
-1.026886233486441e+00  3.546068776254723e-01  1.010379032722922e-17

 3.568070728357633e-17 -8.902788577504708e-18 -9.791982261829597e-01
-8.902788577504708e-18  1.429882379855293e-17  4.519610638049077e-01
-9.791982261829597e-01  4.519610638049077e-01  6.266518317782264e-18

-2.386070819541738e-17  1.135574159357213e-17 -9.415901557777449e-01
 1.135574159357213e-17  7.175611819640755e-18  4.505139509738306e-01
-9.415901557777449e-01  4.505139509738306e-01  3.748700955244386e-18

 1.614587097296065e-17 -1.955177787786646e-18 -9.961762999658768e-01
-1.955177787786646e-18  1.572733553795628e-17  3.486096088689536e-01
-9.961762999658768e-01  3.486096088689536e-01  8.277091022881539e-18

 1.681413332607105e-17 -2.118569678599747e-18 -9.985178266073546e-01
-2.118569678599747e-18  1.529624406889100e-17  3.624655045060137e-01
-9.985178266073546e-01  3.624655045060137e-01  7.900779973632740e-18

 1.064196807316107e-17 -2.570048816319392e-19 -9.967365985584412e-01
-2.570048816319392e-19  1.182029727191376e-17  4.541742013012032e-01
-9.967365985584412e-01  4.541742013012032e-01  6.966348559122871e-18

 1.238938226518604e-17 -2.826405310159837e-19 -1.058054732539378e+00
-2.826405310159837e-19  1.417314780913819e-17  3.997662848705869e-01
-1.058054732539378e+00  3.997662848705869e-01  1.061073470530731e-17

 1.215360453236558e-17 -2.664713469774723e-19 -1.046785870837622e+00
-2.664713469774723e-19  1.324690153997457e-17  4.206127283882018e-01
-1.046785870837622e+00  4.206127283882018e-01  9.716894630162941e-18

 1.118205050470956e-17 -8.521813350990561e-20 -1.003998963910269e+00
-8.521813350990561e-20  1.194324260338324e-17  4.341282515145851e-01
-1.003998963910269e+00  4.341282515145851e-01  7.431222677855578e-18

 3.826360745879847e-18  5.393749300560798e-19 -7.114282521079616e-01
 5.393749300560798e-19  4.543210950575729e-18  5.818620011806876e-01
-7.114282521079616e-01  5.818620011806876e-01 -1.301307263411588e-17

 1.507601978587317e-17 -1.821920442859338e-19 -1.143199007955744e+00
-1.821920442859338e-19  2.442244633146543e-17  9.645751441045884e-02
-1.143199007955744e+00  9.645751441045884e-02  1.928121326291842e-17

 1.723980210893522e-17  7.570403989052601e-19 -1.252117226931022e+00
 7.570403989052601e-19  2.707789077717687e-17 -6.741152488785060e-03
-1.252117226931022e+00 -6.741152488785060e-03  2.466372359748944e-17

 3.196475575457969e-18 -9.791157715170522e-19 -6.529367637205200e-01
-9.791157715170522e-19  6.326194302191093e-18  6.036088830718487e-01
-6.529367637205200e-01  6.036088830718487e-01 -1.399136017856451e-17

 1.203508111583742e-17 -7.882417367099383e-19 -1.031222252239854e+00
-7.882417367099383e-19  1.341810774758860e-17  4.476925574457317e-01
-1.031222252239854e+00  4.476925574457317e-01  9.765238548473053e-18

 1.523604800560960e-17 -3.402152405932167e-19 -1.187676655429237e+00
-3.402152405932167e-19  1.481552034884768e-17  4.301651059915098e-01
-1.187676655429237e+00  4.301651059915098e-01  1.757489781441211e-17

 5.916137582906954e-18  7.564108076475747e-19 -8.388996291552535e-01
 7.564108076475747e-19  2.925920334157922e-18  6.984855946215379e-01
-8.388996291552535e-01  6.984855946215379e-01 -8.778675736107026e-18

 1.312303222730268e-17 -6.773452566214181e-20 -1.102220380291467e+00
-6.773452566214181e-20  1.488186346866184e-17  4.093934674530946e-01
-1.102220380291467e+00  4.093934674530946e-01  1.171849451979916e-17

 2.241105212224659e-17 -1.266839738126186e-18 -1.444405466843027e+00
-1.266839738126186e-18  2.969603039636125e-17  6.547687683353827e-02
-1.444405466843027e+00  6.547687683353827e-02  3.819752136576340e-17

 1.022819319838263e-17 -6.569031973015480e-19 -9.647828447490582e-01
-6.569031973015480e-19  1.261763257547500e-17  4.738607640660414e-01
-9.647828447490582e-01  4.738607640660414e-01  3.291332852738757e-18

 1.021685333056232e-17 -2.909944545262408e-19 -9.670836600270848e-01
-2.909944545262408e-19  1.091909165816506e-17  4.924108898325825e-01
-9.670836600270848e-01  4.924108898325825e-01  3.432693079890408e-18

 1.175572709379687e-17 -4.866757331808126e-19 -1.014992265532780e+00
-4.866757331808126e-19  1.564718845982562e-17  3.596399282385710e-01
-1.014992265532780e+00  3.596399282385710e-01  8.890514306003669e-18

 1.099350886081870e-17 -3.318256246861750e-19 -9.836118232601377e-01
-3.318256246861750e-19  1.319789349716485e-17  4.105081356308736e-01
-9.836118232601377e-01  4.105081356308736e-01  6.450824231783567e-18

 1.149435539643513e-17 -2.795921339658302e-19 -1.002638964947090e+00
-2.795921339658302e-19  1.278770076432899e-17  4.156434846073324e-01
-1.002638964947090e+00  4.156434846073324e-01  8.013289685063011e-18

 1.062741248257697e-17 -2.255299432341437e-19 -9.627550303685697e-01
-2.255299432341437e-19  1.132670212262027e-17  4.432066797260990e-01
-9.627550303685697e-01  4.432066797260990e-01  5.545486070619636e-18

 1.110292638708521e-17 -3.167597794166294e-19 -9.748327957452200e-01
-3.167597794166294e-19  1.272191899102547e-17  4.042895343020915e-01
-9.748327957452200e-01  4.042895343020915e-01  7.328084733141176e-18

 1.007476511043446e-17 -2.533978307417546e-19 -9.216793720306550e-01
-2.533978307417546e-19  1.103297668373448e-17  4.279249684794927e-01
-9.216793720306550e-01  4.279249684794927e-01  4.769408705398201e-18

 9.912703839497658e-18 -4.438647584631251e-19 -8.991713647828665e-01
-4.438647584631251e-19  1.330380159285448e-17  3.632748097690463e-01
-8.991713647828665e-01  3.632748097690463e-01  5.087209198006930e-18

 1.085317248209164e-17 -3.260769427191790e-19 -9.361352747697088e-01
-3.260769427191790e-19  1.554963701934838e-17  2.984310673505185e-01
-9.361352747697088e-01  2.984310673505185e-01  8.100700984854126e-18

 9.055686031778751e-18 -3.105417127058728e-19 -8.627755995933750e-01
-3.105417127058728e-19  1.060798502605469e-17  4.269568040099861e-01
-8.627755995933750e-01  4.269568040099861e-01  2.237372687290999e-18

 1.076726057171602e-17 -3.078654741589414e-19 -9.351715278349411e-01
-3.078654741589414e-19  1.140144223877002e-17  4.181297057062023e-01
-9.351715278349411e-01  4.181297057062023e-01  6.731604774483854e-18

 1.049602195434867e-17 -2.045309097228195e-19 -9.283861689111137e-01
-2.045309097228195e-19  1.113815830066780e-17  4.247190815566768e-01
-9.283861689111137e-01  4.247190815566768e-01  5.769063864548679e-18

 1.040104464152637e-17 -1.876363458720545e-19 -9.250119234668317e-01
-1.876363458720545e-19  1.347905510733177e-17  3.633070068487529e-01
-9.250119234668317e-01  3.633070068487529e-01  5.790008337916358e-18

 1.128550105741398e-17  1.123322326854913e-20 -9.711180379987735e-01
 1.123322326854913e-20  1.505572151476182e-17  3.216668057167459e-01
-9.711180379987735e-01  3.216668057167459e-01  8.173838412744340e-18

 1.148192033583016e-17 -3.279144735037494e-19 -9.807320504781630e-01
-3.279144735037494e-19  1.153780830694299e-17  4.389193949626304e-01
-9.807320504781630e-01  4.389193949626304e-01  7.768111663303496e-18

 1.160022380870316e-17 -1.254107716728365e-19 -9.963919250897987e-01
-1.254107716728365e-19  9.849398801924436e-18  4.832134337846645e-01
-9.963919250897987e-01  4.832134337846645e-01  7.586954506705308e-18

 1.268205403812652e-17  1.609033493666844e-20 -1.043896710227729e+00
 1.609033493666844e-20  1.190471845879965e-17  4.236785415419966e-01
-1.043896710227729e+00  4.236785415419966e-01  1.105192550104553e-17

 1.057097357343178e-17  1.502372754299924e-19 -9.608541155356294e-01
 1.502372754299924e-19  1.011903055497571e-17  4.590903805350415e-01
-9.608541155356294e-01  4.590903805350415e-01  5.067761715683873e-18

 1.034856630552982e-17 -4.045434394878225e-19 -9.352573724320722e-01
-4.045434394878225e-19  1.331503233014071e-17  3.878134276496972e-01
-9.352573724320722e-01  3.878134276496972e-01  5.011489051719335e-18

 1.022289577003234e-17 -2.560081790003632e-19 -9.336560992877824e-01
-2.560081790003632e-19  1.594612485125065e-17  3.101716453216772e-01
-9.336560992877824e-01  3.101716453216772e-01  5.200171970719319e-18

 9.410444753705648e-18 -1.873096010794037e-19 -9.115429034431394e-01
-1.873096010794037e-19  1.142884150140834e-17  4.352321210118652e-01
-9.115429034431394e-01  4.352321210118652e-01  2.000653918717738e-18

 1.108918832436076e-17 -3.365711217461644e-19 -9.922679987290851e-01
-3.365711217461644e-19  1.196422817353635e-17  4.529790054788652e-01
-9.922679987290851e-01  4.529790054788652e-01  6.157112226003699e-18

 1.326782415416475e-17 -3.384970571569452e-19 -1.105748758574456e+00
-3.384970571569452e-19  1.415815593585956e-17  4.351722292082362e-01
-1.105748758574456e+00  4.351722292082362e-01  1.155804601310405e-17

 1.515186144318660e-17 -2.475800523658662e-19 -1.196735681003861e+00
-2.475800523658662e-19  1.601360391732716e-17  4.026853883291321e-01
-1.196735681003861e+00  4.026853883291321e-01  1.673367347286460e-17

 1.209745490948366e-17 -1.724774883360764e-19 -1.077218380952683e+00
-1.724774883360764e-19  1.239599440082886e-17  4.930710039522926e-01
-1.077218380952683e+00  4.930710039522926e-01  7.599070623295004e-18

 1.149868173589465e-17 -2.497490260370578e-19 -1.050216088814061e+00
-2.497490260370578e-19  1.343122883632693e-17  4.666517397925468e-01
-1.050216088814061e+00  4.666517397925468e-01  6.136006647798611e-18

 1.251315134544684e-17 -3.130157464942726e-19 -1.092718540802596e+00
-3.130157464942726e-19  1.576889990790411e-17  4.101985323531538e-01
-1.092718540802596e+00  4.101985323531538e-01  9.398952432469294e-18

 1.615952898657474e-17 -2.415426486300184e-20 -1.253712635931254e+00
-2.415426486300184e-20  1.973836497653648e-17  3.110908930222476e-01
-1.253712635931254e+00  3.110908930222476e-01  1.971956007730180e-17

 1.018804402854066e-17 -4.858782660355765e-19 -1.007619941531435e+00
-4.858782660355765e-19  8.743185922910419e-18  6.211788291927699e-01
-1.007619941531435e+00  6.211788291927699e-01  1.687852812551831e-18

 9.545187521068852e-18 -3.905342175662594e-19 -9.823500234484100e-01
-3.905342175662594e-19  7.196356759491197e-18  6.573588852752009e-01
-9.823500234484100e-01  6.573588852752009e-01 -1.264838407177541e-19

 1.320878691871627e-17 -6.318872992333099e-19 -1.110664900581451e+00
-6.318872992333099e-19  1.600317226560391e-17  4.200678284868247e-01
-1.110664900581451e+00  4.200678284868247e-01  1.145612886691812e-17

 1.305937600395136e-17 -5.073363628243720e-19 -1.095999456490626e+00
-5.073363628243720e-19  1.888693049268861e-17  3.270824407941936e-01
-1.095999456490626e+00  3.270824407941936e-01  1.183353765539068e-17

 1.604650805712727e-17 -1.241993654468255e-19 -1.220544440840953e+00
-1.241993654468255e-19  2.395662577847437e-17  1.784528644941190e-01
-1.220544440840953e+00  1.784528644941190e-01  2.077615816380519e-17

 1.389049049874058e-17  2.835261872588044e-19 -1.142448970142236e+00
 2.835261872588044e-19  1.979875928147801e-17  2.722684326368155e-01
-1.142448970142236e+00  2.722684326368155e-01  1.378321450299873e-17

 1.305746020041195e-17 -6.025507572809716e-19 -1.094530261808147e+00
-6.025507572809716e-19  1.047190958913892e-17  5.676733450228063e-01
-1.094530261808147e+00  5.676733450228063e-01  1.100707669212649e-17

 9.071800186318371e-18  1.058750538731014e-18 -9.656915271190462e-01
 1.058750538731014e-18  3.835996133229578e-18  6.712216892745567e-01
-9.656915271190462e-01  6.712216892745567e-01  1.024120553544715e-18

 1.705514242551020e-17 -1.486032665057428e-18 -1.205900875528558e+00
-1.486032665057428e-18  2.018983248852273e-17  3.075115871669948e-01
-1.205900875528558e+00  3.075115871669948e-01  2.222730428845997e-17

 1.437961861412812e-17 -1.836806972409434e-18 -1.077337730315038e+00
-1.836806972409434e-18  2.027331511307682e-17  2.930820092476062e-01
-1.077337730315038e+00  2.930820092476062e-01  1.560303750520543e-17

 7.515885292197244e-18 -7.237002439949767e-19 -8.148871174078985e-01
-7.237002439949767e-19  1.007699398977493e-17  4.928005533061201e-01
-8.148871174078985e-01  4.928005533061201e-01 -3.527800821634948e-18

 9.230397707803914e-18 -4.699238100137024e-19 -8.837797761719065e-01
-4.699238100137024e-19  1.215906373526305e-17  4.203140658270131e-01
-8.837797761719065e-01  4.203140658270131e-01  2.196279602209901e-18

 9.673744644574353e-18 -2.970149775801866e-19 -9.017636475345691e-01
-2.970149775801866e-19  1.261813252483401e-17  3.959619957447714e-01
-9.017636475345691e-01  3.959619957447714e-01  3.669480846585793e-18

 1.007367586002925e-17 -2.581526262351150e-19 -9.204174109914526e-01
-2.581526262351150e-19  1.140600575483110e-17  4.285232024231736e-01
-9.204174109914526e-01  4.285232024231736e-01  4.326275362579630e-18

 1.111691628757563e-17 -2.824725488118730e-19 -9.700472686269117e-01
-2.824725488118730e-19  1.249794910679983e-17  4.109862869928165e-01
-9.700472686269117e-01  4.109862869928165e-01  6.941808283791201e-18

 1.112227557125101e-17 -3.200142304218195e-19 -9.735658025936603e-01
-3.200142304218195e-19  1.218597513430903e-17  4.245421603434175e-01
-9.735658025936603e-01  4.245421603434175e-01  6.760912035290944e-18

 1.077543279129421e-17 -2.575616825940083e-19 -1.022593435875417e+00
-2.575616825940083e-19  1.647071869938202e-17  3.521553222468946e-01
-1.022593435875417e+00  3.521553222468946e-01  1.091199777341983e-17

 7.941940614486228e-18  1.083918364171224e-19 -8.823752459486915e-01
 1.083918364171224e-19  1.135019912050605e-17  4.477983258162270e-01
-8.823752459486915e-01  4.477983258162270e-01  9.196842604688540e-19

 9.327671297663146e-18  3.609014276292866e-19 -9.494277656542106e-01
 3.609014276292866e-19  9.411116972787755e-18  5.184120400369792e-01
-9.494277656542106e-01  5.184120400369792e-01  2.557938196730877e-18

 1.093037956891588e-17  1.483278983600509e-19 -9.843220060728917e-01
 1.483278983600509e-19  9.719941553150761e-18  5.243497257223629e-01
-9.843220060728917e-01  5.243497257223629e-01  4.069313941511086e-18

 1.349358679313159e-17 -2.843383821020316e-20 -1.103337275142642e+00
-2.843383821020316e-20  1.549746521271419e-17  3.961061273572422e-01
-1.103337275142642e+00  3.961061273572422e-01  1.291838590881419e-17

 1.107464497589757e-17 -6.348983517124598e-20 -1.006837797483405e+00
-6.348983517124598e-20  1.116887532220917e-17  5.118230862405037e-01
-1.006837797483405e+00  5.118230862405037e-01  5.223681823064129e-18

 1.309854611193489e-17 -1.560197798061542e-19 -1.089176455140614e+00
-1.560197798061542e-19  1.389732136220330e-17  4.469467122791941e-01
-1.089176455140614e+00  4.469467122791941e-01  1.156991601562708e-17

 1.198642876995271e-17 -1.810427558204353e-19 -1.031828191392321e+00
-1.810427558204353e-19  1.369667574102853e-17  4.433530301781275e-01
-1.031828191392321e+00  4.433530301781275e-01  7.971973382557832e-18

 1.403323530085431e-17 -3.875535328334651e-19 -1.063462968502976e+00
-3.875535328334651e-19  1.707081439754162e-17  3.470749094037562e-01
-1.063462968502976e+00  3.470749094037562e-01  1.093953194435138e-17

 1.306058781583735e-17 -3.548041711639954e-19 -1.062621085460970e+00
-3.548041711639954e-19  1.507939180315553e-17  4.070018337722048e-01
-1.062621085460970e+00  4.070018337722048e-01  1.114443551272661e-17

 4.174719302207177e-18 -1.654637330362048e-19 -8.103880314213671e-01
-1.654637330362048e-19  3.764508406548206e-18  7.155821921905126e-01
-8.103880314213671e-01  7.155821921905126e-01 -6.016249125360166e-18

-1.726468471941198e-17  6.534031186901064e-18 -8.939535641297061e-01
 6.534031186901064e-18  8.661377954556288e-18  5.170548992896938e-01
-8.939535641297061e-01  5.170548992896938e-01  1.821485565441037e-19

 9.815094399093723e-17 -2.106990872983431e-17 -1.237257219607149e+00
-2.106990872983431e-17  3.107588762658843e-17  9.960345710261756e-02
-1.237257219607149e+00  9.960345710261756e-02  2.379581863949233e-17

 3.485108732689244e-17 -6.312807395137094e-18 -9.699625852432979e-01
-6.312807395137094e-18  1.624122678189509e-17  3.899370838038840e-01
-9.699625852432979e-01  3.899370838038840e-01  5.423273804285054e-18

-1.332610247439600e-17  6.451949576307112e-18 -9.463903729505091e-01
 6.451949576307112e-18  7.471998900561395e-18  5.325377924750337e-01
-9.463903729505091e-01  5.325377924750337e-01  2.497397767147099e-18

 6.454699066095908e-18  1.384808360552990e-18 -1.029420643016277e+00
 1.384808360552990e-18  1.366402006732204e-17  4.285719826701626e-01
-1.029420643016277e+00  4.285719826701626e-01  9.202193011683712e-18

 1.109547027772358e-17 -2.497451020455799e-20 -1.019613531291216e+00
-2.497451020455799e-20  1.414168746224129e-17  4.347570218329759e-01
-1.019613531291216e+00  4.347570218329759e-01  8.338107943540283e-18

 1.185779343362767e-17 -3.013634808021182e-19 -1.028434432795014e+00
-3.013634808021182e-19  1.293306119873232e-17  4.818799720128422e-01
-1.028434432795014e+00  4.818799720128422e-01  8.051526233235272e-18

 1.184999713504744e-17 -3.206442509667057e-19 -1.040734887768883e+00
-3.206442509667057e-19  1.365915369101096e-17  4.720946267791643e-01
-1.040734887768883e+00  4.720946267791643e-01  8.340463482212482e-18

 1.121120623029498e-17 -3.488366293577728e-19 -1.024861234934781e+00
-3.488366293577728e-19  1.337474643643106e-17  4.881959084154607e-01
-1.024861234934781e+00  4.881959084154607e-01  6.408750780451701e-18

 1.297127074815921e-17 -4.044557946559154e-19 -1.105827053498257e+00
-4.044557946559154e-19  1.566381777077612e-17  4.404588578627087e-01
-1.105827053498257e+00  4.404588578627087e-01  1.160708166150287e-17

 1.221927660194830e-17 -3.966868474163724e-19 -1.086743723587660e+00
-3.966868474163724e-19  1.342949059826799e-17  5.084967792309620e-01
-1.086743723587660e+00  5.084967792309620e-01  8.926741794194599e-18

 1.126855762883511e-17 -4.116705101268084e-19 -1.061677697729862e+00
-4.116705101268084e-19  1.141119569682871e-17  5.715803694987609e-01
-1.061677697729862e+00  5.715803694987609e-01  5.661494044742801e-18

 1.204486240510722e-17 -3.381048285344337e-19 -1.106083308284783e+00
-3.381048285344337e-19  1.419774037069528e-17  5.034085426353861e-01
-1.106083308284783e+00  5.034085426353861e-01  8.065103180484444e-18

 1.220922058457119e-17 -4.239456954851288e-19 -1.125996757147248e+00
-4.239456954851288e-19  1.485965114753849e-17  5.079405778667631e-01
-1.125996757147248e+00  5.079405778667631e-01  8.121176472046719e-18

 1.348103253497779e-17 -4.445849371787930e-19 -1.190636913832066e+00
-4.445849371787930e-19  1.611179778028052e-17  5.044694019548768e-01
-1.190636913832066e+00  5.044694019548768e-01  1.117693890847103e-17

 1.707402968781462e-17 -5.313626245093474e-19 -1.348885270866929e+00
-5.313626245093474e-19  1.936423444292156e-17  4.624100531194302e-01
-1.348885270866929e+00  4.624100531194302e-01  2.068549457957340e-17

 1.320148791636322e-17  3.083462272842894e-19 -1.229900837972126e+00
 3.083462272842894e-19  9.712815199473478e-18  7.247698575587987e-01
-1.229900837972126e+00  7.247698575587987e-01  8.863192789041732e-18

 1.279797114977524e-17 -3.933048443230660e-19 -1.197751804719542e+00
-3.933048443230660e-19  8.210297409555776e-18  7.967577458632933e-01
-1.197751804719542e+00  7.967577458632933e-01  7.709668026760849e-18

 1.768931794292898e-17  3.598436824737863e-19 -1.382606704104184e+00
 3.598436824737863e-19  2.041925498954854e-17  3.990932403834919e-01
-1.382606704104184e+00  3.990932403834919e-01  2.241391895079954e-17

 1.718456478648433e-17  5.456283395514475e-19 -1.352425649370802e+00
 5.456283395514475e-19  2.211427649190594e-17  3.237856322078627e-01
-1.352425649370802e+00  3.237856322078627e-01  2.178815282361408e-17

 1.241416030768184e-17  1.696143737626966e-19 -1.149651145187915e+00
 1.696143737626966e-19  1.539774045217973e-17  5.075609110159419e-01
-1.149651145187915e+00  5.075609110159419e-01  7.691271555688342e-18

 1.111367037870781e-17  3.853151081702245e-21 -1.090244085922400e+00
 3.853151081702245e-21  1.304386187547936e-17  5.691964677581559e-01
-1.090244085922400e+00  5.691964677581559e-01  3.956392926142586e-18

 1.303245255047318e-17 -3.848176006488939e-20 -1.160216119050937e+00
-3.848176006488939e-20  1.648858117766557e-17  4.694256890816537e-01
-1.160216119050937e+00  4.694256890816537e-01  1.025598733055418e-17

 1.326977672552054e-17 -1.573938762152970e-19 -1.168166555342920e+00
-1.573938762152970e-19  1.602156048015584e-17  4.890337240237918e-01
-1.168166555342920e+00  4.890337240237918e-01  1.073911569003863e-17

 1.409622082998843e-17 -6.311613491397565e-20 -1.213300566618037e+00
-6.311613491397565e-20  1.443365136580869e-17  5.428255831722499e-01
-1.213300566618037e+00  5.428255831722499e-01  1.265934179306308e-17

 1.306281833384820e-17 -2.184690797476290e-19 -1.165918302177485e+00
-2.184690797476290e-19  1.280125197105335e-17  5.866840005208251e-01
-1.165918302177485e+00  5.866840005208251e-01  9.530558768862176e-18

 1.333951510014049e-17  4.776015767264848e-20 -1.176820298457804e+00
 4.776015767264848e-20  1.599174954915060e-17  4.766221756265157e-01
-1.176820298457804e+00  4.766221756265157e-01  1.132892158484068e-17

 1.053970750778613e-17  4.150136555836627e-19 -1.115070754713070e+00
 4.150136555836627e-19  1.413921009833167e-17  5.174559878342067e-01
-1.115070754713070e+00  5.174559878342067e-01  7.354064051813262e-18

 2.208272932614328e-17 -3.445738405706325e-18 -1.126936548718861e+00
-3.445738405706325e-18  1.623189798388700e-17  5.095034020715933e-01
-1.126936548718861e+00  5.095034020715933e-01  8.109327436922251e-18

 1.031241035880829e-16 -3.359314452193737e-17 -1.214326677171108e+00
-3.359314452193737e-17  3.057796860840443e-17  4.662839678276490e-01
-1.214326677171108e+00  4.662839678276490e-01  1.370864225883806e-17

 4.895520788372263e-17 -1.997834089223994e-18 -1.356078499151292e+00
-1.997834089223994e-18  1.582813599245207e-17  4.833225750481058e-01
-1.356078499151292e+00  4.833225750481058e-01  2.126458546785435e-17

-1.460965424030421e-16  4.649832690408460e-17 -1.133021839094575e+00
 4.649832690408460e-17 -5.393558706459960e-18  7.534414440756311e-01
-1.133021839094575e+00  7.534414440756311e-01  2.469410319941472e-18

-1.777998344413193e-16  7.620774986255136e-17 -1.186708404665911e+00
 7.620774986255136e-17 -2.126160195059756e-17  7.487081953530271e-01
-1.186708404665911e+00  7.487081953530271e-01  6.338114051841197e-18

 1.622965881343839e-16 -5.415184046082706e-17 -1.318401280738609e+00
-5.415184046082706e-17  3.537061312874426e-17  5.881675057747231e-01
-1.318401280738609e+00  5.881675057747231e-01  1.761969006632283e-17

 9.081883731985275e-17 -3.097303993884846e-17 -1.262202508935376e+00
-3.097303993884846e-17  2.917413898547673e-17  5.182881028943578e-01
-1.262202508935376e+00  5.182881028943578e-01  1.464450533135492e-17

 3.212755794364817e-17 -6.285280539045944e-18 -1.343541465502691e+00
-6.285280539045944e-18  2.431363711230091e-17  3.590395869730995e-01
-1.343541465502691e+00  3.590395869730995e-01  2.114782261383617e-17

 8.670763992144142e-18  1.334973949194464e-18 -1.180794547263992e+00
 1.334973949194464e-18  1.621917156958678e-17  4.887357405664065e-01
-1.180794547263992e+00  4.887357405664065e-01  1.010406162260926e-17

 8.725692880439144e-18  1.527582377207641e-18 -1.156556265624080e+00
 1.527582377207641e-18  1.457025485020759e-17  5.246250273360733e-01
-1.156556265624080e+00  5.246250273360733e-01  8.808676088262027e-18

-1.995278900336014e-17  1.173931335110233e-17 -1.170931860566665e+00
 1.173931335110233e-17  1.079551262442870e-17  5.337940292089010e-01
-1.170931860566665e+00  5.337940292089010e-01  9.641524173489698e-18

-1.892156162250542e-17  1.170404053361458e-17 -1.221438230298705e+00
 1.170404053361458e-17  1.181408507444424e-17  5.240177133896373e-01
-1.221438230298705e+00  5.240177133896373e-01  1.239690652703373e-17

 3.335572799279232e-17 -6.982366689400409e-18 -1.241550804194903e+00
-6.982366689400409e-18  1.628061727613216e-17  6.032345514744395e-01
-1.241550804194903e+00  6.032345514744395e-01  1.200490390385164e-17

-2.705521956220410e-17  1.479266885700571e-17 -1.256426676193019e+00
 1.479266885700571e-17  9.195412714188096e-18  5.868945016983771e-01
-1.256426676193019e+00  5.868945016983771e-01  1.319034664493577e-17

 3.742476491714373e-18  4.295129431572059e-18 -1.310016155038074e+00
 4.295129431572059e-18  1.604483004865714e-17  4.971621973314445e-01
-1.310016155038074e+00  4.971621973314445e-01  1.758529612195331e-17

 1.807903652957024e-17 -1.629879873809939e-18 -1.218510787440563e+00
-1.629879873809939e-18  1.762817334710546e-17  4.985862717886072e-01
-1.218510787440563e+00  4.985862717886072e-01  1.171861707953750e-17

 1.540460405512771e-17 -5.481216444618632e-19 -1.250052232304112e+00
-5.481216444618632e-19  1.896163117714881e-17  4.614462015935654e-01
-1.250052232304112e+00  4.614462015935654e-01  1.445994773104955e-17

 1.589901747322044e-17  3.636700011747215e-20 -1.335527092278564e+00
 3.636700011747215e-20  1.806344509852116e-17  4.956955162621293e-01
-1.335527092278564e+00  4.956955162621293e-01  1.937753223768004e-17

 1.157628802392541e-17  2.070645156244692e-19 -1.161982047894784e+00
 2.070645156244692e-19  8.568670973766065e-18  7.536846827279240e-01
-1.161982047894784e+00  7.536846827279240e-01  4.970605411322055e-18

 1.120279510694265e-17 -2.154675846072578e-19 -1.134366485172596e+00
-2.154675846072578e-19  7.571071035317612e-18  7.937977179390121e-01
-1.134366485172596e+00  7.937977179390121e-01  3.757015818206100e-18

 1.478151082333745e-17 -2.983460254018720e-19 -1.257722575552968e+00
-2.983460254018720e-19  1.431434251185972e-17  5.948036195489602e-01
-1.257722575552968e+00  5.948036195489602e-01  1.423552061702424e-17

 1.490116353795757e-17  3.646446304328769e-19 -1.259946807282260e+00
 3.646446304328769e-19  1.870649536100387e-17  4.207016243147382e-01
-1.259946807282260e+00  4.207016243147382e-01  1.529706098639245e-17

 1.572183231902264e-17  4.824755627317327e-19 -1.288820301360597e+00
 4.824755627317327e-19  2.183250500481576e-17  3.201719152099201e-01
-1.288820301360597e+00  3.201719152099201e-01  1.856136758029942e-17

 1.060592375542265e-17  8.174432592753403e-20 -1.072576533393324e+00
 8.174432592753403e-20  1.423255584501397e-17  5.303765095806122e-01
-1.072576533393324e+00  5.303765095806122e-01  3.264498898022213e-18

 1.238980796609458e-17 -2.226234762983774e-19 -1.140944538493655e+00
-2.226234762983774e-19  1.636718411693958e-17  4.925929589411264e-01
-1.140944538493655e+00  4.925929589411264e-01  8.621393430475062e-18

 1.440180816550720e-17 -3.685631117493691e-19 -1.233164374891743e+00
-3.685631117493691e-19  1.786701662732945e-17  4.892915278611357e-01
-1.233164374891743e+00  4.892915278611357e-01  1.382138138706520e-17

 1.877404651818090e-17 -4.916441652612726e-19 -1.436314703169799e+00
-4.916441652612726e-19  1.877537572420622e-17  5.335640870528240e-01
-1.436314703169799e+00  5.335640870528240e-01  2.597337616848518e-17

 8.687974825953258e-18 -3.221817949469800e-18 -9.936023343699488e-01
-3.221817949469800e-18  4.147038020785147e-18  1.070934908866085e+00
-9.936023343699488e-01  1.070934908866085e+00  3.602195985976245e-18

 1.396782214764001e-17 -6.068787613115474e-19 -1.216921575665209e+00
-6.068787613115474e-19  1.522053180713562e-17  5.773885787253042e-01
-1.216921575665209e+00  5.773885787253042e-01  1.331128565745865e-17

 1.839390894313699e-17  2.950113966140447e-18 -1.435270519815582e+00
 2.950113966140447e-18  2.638561809385415e-17  7.131023782470153e-02
-1.435270519815582e+00  7.131023782470153e-02  2.072135448361412e-17

 9.692136130137789e-18  7.447714276397980e-19 -1.040201182982361e+00
 7.447714276397980e-19  1.310054456629079e-17  5.053152129406897e-01
-1.040201182982361e+00  5.053152129406897e-01  6.439797717621899e-19

 1.167194649149634e-17  1.758136278406584e-20 -1.114082063710224e+00
 1.758136278406584e-20  1.117067821685905e-17  5.973226729780238e-01
-1.114082063710224e+00  5.973226729780238e-01  6.614626057377990e-18

 1.211122526976218e-17 -2.051508269374077e-19 -1.127784854422436e+00
-2.051508269374077e-19  1.282459134077118e-17  5.610825577231094e-01
-1.127784854422436e+00  5.610825577231094e-01  8.046375021408986e-18

 1.533236269080821e-17 -2.169464818962336e-19 -1.254577858337469e+00
-2.169464818962336e-19  1.891362452752940e-17  3.986547238462209e-01
-1.254577858337469e+00  3.986547238462209e-01  1.803655007610693e-17

 1.417193182797740e-17 -2.395891759158958e-19 -1.208599649669985e+00
-2.395891759158958e-19  1.561160073065733e-17  4.868900125191049e-01
-1.208599649669985e+00  4.868900125191049e-01  1.426761405734840e-17

 8.052132326143582e-18 -1.632508592720389e-19 -9.675095956819975e-01
-1.632508592720389e-19  5.696757971615710e-18  7.465436252254670e-01
-9.675095956819975e-01  7.465436252254670e-01 -4.363115359335380e-18

 1.300831551890538e-17 -7.568555653711742e-20 -1.164411493612282e+00
-7.568555653711742e-20  1.422324207702996e-17  5.119537164829853e-01
-1.164411493612282e+00  5.119537164829853e-01  1.087863892774934e-17

 1.588144538828942e-17  3.035137798717542e-20 -1.275934075803038e+00
 3.035137798717542e-20  2.002664625640438e-17  3.523429775537542e-01
-1.275934075803038e+00  3.523429775537542e-01  1.971649673458186e-17

 1.105781238859127e-17  2.883614245686507e-20 -1.086073514716073e+00
 2.883614245686507e-20  1.235087523969539e-17  5.541515216174329e-01
-1.086073514716073e+00  5.541515216174329e-01  5.193307857491044e-18

 1.246097959132688e-17 -3.260141832498825e-20 -1.141066597424909e+00
-3.260141832498825e-20  1.358096374355636e-17  5.289283730405026e-01
-1.141066597424909e+00  5.289283730405026e-01  9.199170179100694e-18

 1.104455412743003e-17  2.303414642634292e-19 -1.160047366445938e+00
 2.303414642634292e-19  1.450852062660684e-17  5.103170091280671e-01
-1.160047366445938e+00  5.103170091280671e-01  1.051452709245026e-17

 1.153631394729384e-17  2.116230489454400e-19 -1.184684672047462e+00
 2.116230489454400e-19  1.519925505367670e-17  5.037408854721961e-01
-1.184684672047462e+00  5.037408854721961e-01  1.182363687691756e-17

-8.513727036113480e-22  2.138745574642097e-18 -1.186929228847498e+00
 2.138745574642097e-18  1.333060226472675e-17  5.563425727334885e-01
-1.186929228847498e+00  5.563425727334885e-01  1.097765882650285e-17

 5.808813507618064e-17 -7.304922805997051e-18 -1.230331292493920e+00
-7.304922805997051e-18  1.670447416492134e-17  5.111323148498372e-01
-1.230331292493920e+00  5.111323148498372e-01  1.431781175031852e-17

 2.379793116988912e-18  1.883719991033463e-18 -1.230281525925389e+00
 1.883719991033463e-18  1.573294758594742e-17  4.953517742479370e-01
-1.230281525925389e+00  4.953517742479370e-01  1.444234906828410e-17

-4.274007862899264e-17  8.037859296310853e-18 -1.167856006699783e+00
 8.037859296310853e-18  1.457179883809066e-17  4.988362746619515e-01
-1.167856006699783e+00  4.988362746619515e-01  1.023218687000681e-17

 3.939821285919917e-17 -4.240382321929435e-18 -1.209891281612991e+00
-4.240382321929435e-18  1.863709421663899e-17  4.535904294530448e-01
-1.209891281612991e+00  4.535904294530448e-01  1.337791107897994e-17

 7.610181735623730e-17 -9.295119637182031e-18 -1.317000833099238e+00
-9.295119637182031e-18  1.953721790517875e-17  4.698510123452318e-01
-1.317000833099238e+00  4.698510123452318e-01  1.969438207838299e-17

 3.610595812800921e-17 -3.717666833624992e-18 -1.117464062149429e+00
-3.717666833624992e-18  8.056036460269765e-18  7.549720674317977e-01
-1.117464062149429e+00  7.549720674317977e-01  2.900608796322442e-18

-3.806661293186419e-18  1.705058583892222e-18 -1.079718275370630e+00
 1.705058583892222e-18  5.504890611180138e-18  8.178108877283103e-01
-1.079718275370630e+00  8.178108877283103e-01  5.606068581910132e-19

 1.637885820596583e-17 -7.298045793768297e-19 -1.240493914538875e+00
-7.298045793768297e-19  1.365085877572561e-17  5.990996431032583e-01
-1.240493914538875e+00  5.990996431032583e-01  1.359671875437938e-17

 1.327436820982982e-17  4.490005573353091e-19 -1.257002779322800e+00
 4.490005573353091e-19  1.832753478027235e-17  4.209253344032285e-01
-1.257002779322800e+00  4.209253344032285e-01  1.529315830808042e-17

 1.518698700793875e-17  4.306487673935151e-19 -1.296121529825089e+00
 4.306487673935151e-19  2.167688458473484e-17  3.181275599799673e-01
-1.296121529825089e+00  3.181275599799673e-01  1.898898653356012e-17

 1.031876400157641e-17 -3.839868063197510e-20 -1.076747465458628e+00
-3.839868063197510e-20  1.381091490790314e-17  5.385698644104736e-01
-1.076747465458628e+00  5.385698644104736e-01  3.192882988769507e-18

 1.219784377381788e-17 -3.414188988896247e-19 -1.152109118349905e+00
-3.414188988896247e-19  1.596197822671037e-17  5.034010685164785e-01
-1.152109118349905e+00  5.034010685164785e-01  8.720557376253328e-18

 1.428227385483869e-17 -4.649595289529356e-19 -1.252907226580440e+00
-4.649595289529356e-19  1.749096327698400e-17  5.024156371419239e-01
-1.252907226580440e+00  5.024156371419239e-01  1.420581784370538e-17

 1.832522613709550e-17 -5.305620440201621e-19 -1.446552148853129e+00
-5.305620440201621e-19  1.777766542044957e-17  5.645521858887866e-01
-1.446552148853129e+00  5.645521858887866e-01  2.550916055705674e-17

 8.194297735353047e-18 -3.292356388866979e-18 -9.969329973429178e-01
-3.292356388866979e-18  3.888435045510768e-18  1.076285145723209e+00
-9.969329973429178e-01  1.076285145723209e+00  2.825990336175967e-18

 1.432324383959033e-17 -1.698602983880833e-19 -1.263782280218217e+00
-1.698602983880833e-19  1.605737699298442e-17  5.308284075193774e-01
-1.263782280218217e+00  5.308284075193774e-01  1.430985645333585e-17

 1.772707926521224e-17  2.728622704082238e-18 -1.428527060393189e+00
 2.728622704082238e-18  2.591364897343070e-17  8.965354931130633e-02
-1.428527060393189e+00  8.965354931130633e-02  1.987429631768909e-17

 9.275268095862462e-18  6.089112255035079e-19 -1.047603894476998e+00
 6.089112255035079e-19  1.285779794372245e-17  5.210388655001712e-01
-1.047603894476998e+00  5.210388655001712e-01  2.260281774717426e-19

 1.269223812780711e-17  9.881891084024793e-22 -1.184494909947518e+00
 9.881891084024793e-22  1.359264240587184e-17  5.496346095274871e-01
-1.184494909947518e+00  5.496346095274871e-01  1.024782163894144e-17

 1.231126220353077e-17 -3.882889640294557e-20 -1.179036764152564e+00
-3.882889640294557e-20  1.053374872192402e-17  6.504540368850836e-01
-1.179036764152564e+00  6.504540368850836e-01  8.423860887977956e-18

 1.293121519126601e-17 -2.412035251856935e-19 -1.199387516073037e+00
-2.412035251856935e-19  1.164041852139824e-17  6.291069193037063e-01
-1.199387516073037e+00  6.291069193037063e-01  1.038650632204893e-17

 1.629812798257635e-17 -1.258522124519424e-19 -1.328966252677152e+00
-1.258522124519424e-19  1.769500261889213e-17  4.543869435415450e-01
-1.328966252677152e+00  4.543869435415450e-01  2.085310712053959e-17

 1.079819661034149e-17 -3.581275614040447e-19 -1.100547930807989e+00
-3.581275614040447e-19  1.098386956377586e-17  6.307443326135732e-01
-1.100547930807989e+00  6.307443326135732e-01  4.657865873231155e-18

 1.297888792617158e-17 -2.659208522775688e-20 -1.187449492046823e+00
-2.659208522775688e-20  1.612493956555994e-17  4.670340459891457e-01
-1.187449492046823e+00  4.670340459891457e-01  1.169740920768294e-17

 1.514626728404160e-17  1.388157375322095e-20 -1.271295091165219e+00
 1.388157375322095e-20  2.008822325007836e-17  3.567202642753525e-01
-1.271295091165219e+00  3.567202642753525e-01  1.847515065371223e-17

 1.022270609177646e-17  3.926435011355418e-21 -1.077768604543512e+00
 3.926435011355418e-21  1.130259816301743e-17  5.903980320197735e-01
-1.077768604543512e+00  5.903980320197735e-01  3.396849574755964e-18

 1.218465877340764e-17 -8.894438180138206e-20 -1.159212233728457e+00
-8.894438180138206e-20  1.316325228557121e-17  5.523027170369806e-01
-1.159212233728457e+00  5.523027170369806e-01  9.159492024078037e-18

 1.273809785028817e-17 -1.530285964428730e-19 -1.186680588445549e+00
-1.530285964428730e-19  1.431210954297071e-17  5.328553800223584e-01
-1.186680588445549e+00  5.328553800223584e-01  1.076610570490743e-17

 1.336915909196769e-17 -1.699113784465617e-19 -1.221390641309249e+00
-1.699113784465617e-19  1.516026277449027e-17  5.259650585524921e-01
-1.221390641309249e+00  5.259650585524921e-01  1.243053979088473e-17

 1.315623815883664e-17 -1.055119043256725e-19 -1.225820025978354e+00
-1.055119043256725e-19  1.334107402092863e-17  5.882411441059446e-01
-1.225820025978354e+00  5.882411441059446e-01  1.139916580440295e-17

 1.413650689468690e-17 -1.408577458676198e-19 -1.265618431887983e+00
-1.408577458676198e-19  1.525125928338346e-17  5.394991006080916e-01
-1.265618431887983e+00  5.394991006080916e-01  1.447347897040748e-17

 1.449448767730667e-17 -1.126957474581206e-19 -1.279512164819345e+00
-1.126957474581206e-19  1.660100779387236e-17  5.001294532182190e-01
-1.279512164819345e+00  5.001294532182190e-01  1.572500206462392e-17

 1.301299515175366e-17 -1.962744399572867e-19 -1.216632312186108e+00
-1.962744399572867e-19  1.648801593700701e-17  5.008579721039190e-01
-1.216632312186108e+00  5.008579721039190e-01  1.158129565737483e-17

 1.428018454072557e-17 -4.153231654288354e-19 -1.266861432815422e+00
-4.153231654288354e-19  1.842679906244437e-17  4.691863463264950e-01
-1.266861432815422e+00  4.691863463264950e-01  1.514199238146599e-17

 1.669784172998367e-17 -2.869219348621902e-19 -1.379690847998203e+00
-2.869219348621902e-19  1.826002990341928e-17  4.939766960509575e-01
-1.379690847998203e+00  4.939766960509575e-01  2.163612010216379e-17

 1.142920927092609e-17  4.078451182129782e-20 -1.188549194192273e+00
 4.078451182129782e-20  7.740571377326103e-18  7.844156254040168e-01
-1.188549194192273e+00  7.844156254040168e-01  5.775107056750878e-18

 1.259318661355331e-17 -4.641990949261891e-19 -1.221575459118138e+00
-4.641990949261891e-19  9.347030619995085e-18  7.550099523811189e-01
-1.221575459118138e+00  7.550099523811189e-01  9.267800596173549e-18

 1.657233973330542e-17 -8.514046206597595e-20 -1.376761698927241e+00
-8.514046206597595e-20  1.723245259411922e-17  5.065881351008070e-01
-1.376761698927241e+00  5.065881351008070e-01  2.137175685717791e-17

 1.307561553626198e-17  5.191965497813311e-20 -1.227135677255510e+00
 5.191965497813311e-20  1.531670591321184e-17  5.238175733322861e-01
-1.227135677255510e+00  5.238175733322861e-01  1.161751409871030e-17

 1.515687276755056e-17  4.574353005922616e-19 -1.308344012445403e+00
 4.574353005922616e-19  1.989541667859699e-17  3.671234656176986e-01
-1.308344012445403e+00  3.671234656176986e-01  1.839771951169838e-17

 1.172703733891567e-17  9.678590807995925e-20 -1.158312554249342e+00
 9.678590807995925e-20  1.516033140350057e-17  4.933565658129448e-01
-1.158312554249342e+00  4.933565658129448e-01  8.585347618172683e-18

 1.129981484198052e-17 -1.020643162171217e-19 -1.136104796832192e+00
-1.020643162171217e-19  1.355750965118626e-17  5.376302075169952e-01
-1.136104796832192e+00  5.376302075169952e-01  7.440299204003574e-18

 1.180773404721183e-17 -1.656423286997524e-19 -1.158889352522260e+00
-1.656423286997524e-19  1.361533584899792e-17  5.406408966299090e-01
-1.158889352522260e+00  5.406408966299090e-01  8.917970192335246e-18

 1.282095976983606e-17 -1.841920777404029e-19 -1.207373992663165e+00
-1.841920777404029e-19  1.469856129751096e-17  5.260505757749598e-01
-1.207373992663165e+00  5.260505757749598e-01  1.170118631349035e-17

 1.272510581930356e-17 -7.312246699067469e-20 -1.217076971568872e+00
-7.312246699067469e-20  1.248303575602284e-17  5.980209143485816e-01
-1.217076971568872e+00  5.980209143485816e-01  1.094359875217710e-17

 1.325078975275476e-17 -1.408963042161787e-19 -1.237340811506295e+00
-1.408963042161787e-19  1.370556473140151e-17  5.676629021507887e-01
-1.237340811506295e+00  5.676629021507887e-01  1.267585232151143e-17

 1.430222392803601e-17 -8.290575670475728e-20 -1.277873577689104e+00
-8.290575670475728e-20  1.636687942935197e-17  4.900355905346040e-01
-1.277873577689104e+00  4.900355905346040e-01  1.611707908802012e-17

 1.244736072942574e-17 -1.803908922841958e-19 -1.196928328004435e+00
-1.803908922841958e-19  1.619429431224314e-17  4.886318368290547e-01
-1.196928328004435e+00  4.886318368290547e-01  1.097343669898785e-17

 1.378247104812674e-17 -4.757562577860267e-19 -1.247558662997579e+00
-4.757562577860267e-19  1.832864244570131e-17  4.530429244642922e-01
-1.247558662997579e+00  4.530429244642922e-01  1.476324905782598e-17

 1.605548518335678e-17 -3.119905150195866e-19 -1.356036164194526e+00
-3.119905150195866e-19  1.771134004842238e-17  4.876226867107868e-01
-1.356036164194526e+00  4.876226867107868e-01  2.076053591993183e-17

 1.049877866836761e-17  1.155252475109668e-19 -1.156699802431524e+00
 1.155252475109668e-19  6.824118785774692e-18  7.828596933249810e-01
-1.156699802431524e+00  7.828596933249810e-01  4.027024403367637e-18

 1.188398419583423e-17 -3.976655735788966e-19 -1.200966549380010e+00
-3.976655735788966e-19  8.607038965201410e-18  7.531716037715909e-01
-1.200966549380010e+00  7.531716037715909e-01  8.136624199175154e-18

 1.599219183832557e-17 -1.804660504362718e-19 -1.360377391033349e+00
-1.804660504362718e-19  1.651695913242648e-17  5.148668898882243e-01
-1.360377391033349e+00  5.148668898882243e-01  2.069888746331085e-17

 1.241106847878965e-17 -9.027077074100756e-20 -1.207353840288779e+00
-9.027077074100756e-20  1.437785982420440e-17  5.409228730148404e-01
-1.207353840288779e+00  5.409228730148404e-01  1.069078343211142e-17

 1.474554563925896e-17  3.906847623691898e-19 -1.302542162217271e+00
 3.906847623691898e-19  1.943438574121160e-17  3.701031457256291e-01
-1.302542162217271e+00  3.701031457256291e-01  1.821007022163417e-17

 1.149028804912433e-17  5.405733283137429e-20 -1.161372416691434e+00
 5.405733283137429e-20  1.516238969052832e-17  4.833644319236447e-01
-1.161372416691434e+00  4.833644319236447e-01  8.974957673978233e-18

 1.087053685875066e-17 -1.595575287316349e-19 -1.132139172214660e+00
-1.595575287316349e-19  1.327984519972125e-17  5.363059467747016e-01
-1.132139172214660e+00  5.363059467747016e-01  7.221704006997629e-18

 1.142545632684254e-17 -2.281156538862905e-19 -1.158748563236254e+00
-2.281156538862905e-19  1.330142402337818e-17  5.418302694103903e-01
-1.158748563236254e+00  5.418302694103903e-01  8.821068259861632e-18

 1.243780014099482e-17 -2.362991256461429e-19 -1.209633126690746e+00
-2.362991256461429e-19  1.426184036070995e-17  5.318429351780694e-01
-1.209633126690746e+00  5.318429351780694e-01  1.156959678436471e-17

 1.243447791541367e-17 -1.594929073454654e-19 -1.224321782413065e+00
-1.594929073454654e-19  1.245939867542371e-17  5.945420049201293e-01
-1.224321782413065e+00  5.945420049201293e-01  1.113520204884324e-17

 1.326055176173147e-17 -2.024937858460801e-19 -1.258253411229805e+00
-2.024937858460801e-19  1.408084565367339e-17  5.536208369648177e-01
-1.258253411229805e+00  5.536208369648177e-01  1.375860678832735e-17

 1.391247574662451e-17 -1.543073941598368e-19 -1.283952346832116e+00
-1.543073941598368e-19  1.591673560057860e-17  4.996288219861379e-01
-1.283952346832116e+00  4.996288219861379e-01  1.593730936428184e-17

 1.213605445801206e-17 -2.082390025523758e-19 -1.209418265326365e+00
-2.082390025523758e-19  1.554453642529364e-17  5.026645221087809e-01
-1.209418265326365e+00  5.026645221087809e-01  1.104084441895951e-17

 1.326737104838694e-17 -4.031942864884205e-19 -1.253393231831454e+00
-4.031942864884205e-19  1.758202782895782e-17  4.633665711208250e-01
-1.253393231831454e+00  4.633665711208250e-01  1.438044957465150e-17

 1.508764379753420e-17 -2.660681414324216e-19 -1.341324466214080e+00
-2.660681414324216e-19  1.691664126358289e-17  4.975755146897176e-01
-1.341324466214080e+00  4.975755146897176e-01  1.919911636168293e-17

 1.071656728215428e-17  4.407879119129846e-20 -1.184488588144450e+00
 4.407879119129846e-20  7.999307429172777e-18  7.411577976224059e-01
-1.184488588144450e+00  7.411577976224059e-01  5.834203322291294e-18

 1.112921152774377e-17 -3.173750045813591e-19 -1.192376528469890e+00
-3.173750045813591e-19  8.153088185616484e-18  7.502812819279803e-01
-1.192376528469890e+00  7.502812819279803e-01  7.062426141818287e-18

 1.453274375540572e-17 -3.671128646829473e-19 -1.320491377435478e+00
-3.671128646829473e-19  1.441429310854682e-17  5.691552029573120e-01
-1.320491377435478e+00  5.691552029573120e-01  1.763758659775214e-17

 1.271583587534341e-17 -6.430385067387850e-20 -1.240887571074778e+00
-6.430385067387850e-20  1.502493563512928e-17  5.121217061618759e-01
-1.240887571074778e+00  5.121217061618759e-01  1.285872732333306e-17

 1.490012554439033e-17  3.882575509570828e-19 -1.329034975347418e+00
 3.882575509570828e-19  1.993862409669287e-17  3.467968100888779e-01
-1.329034975347418e+00  3.467968100888779e-01  1.991793268660604e-17

 1.091286097714815e-17  3.113858078055133e-20 -1.157322878428765e+00
 3.113858078055133e-20  1.446448749169195e-17  4.927147199415978e-01
-1.157322878428765e+00  4.927147199415978e-01  8.405716964224509e-18

 1.060291475088890e-17 -1.541579753695181e-19 -1.140927840806182e+00
-1.541579753695181e-19  1.309378451151249e-17  5.303095958503559e-01
-1.140927840806182e+00  5.303095958503559e-01  7.656251315921709e-18

 1.107457970454777e-17 -2.164883801220305e-19 -1.163019358178222e+00
-2.164883801220305e-19  1.325170267865942e-17  5.295009519228757e-01
-1.163019358178222e+00  5.295009519228757e-01  9.131296733182812e-18

 1.198609256673376e-17 -2.248069034001169e-19 -1.208096479598293e+00
-2.248069034001169e-19  1.418529320282503e-17  5.166093930539275e-01
-1.208096479598293e+00  5.166093930539275e-01  1.169800335748102e-17

 1.203822703132312e-17 -1.469700164888088e-19 -1.222739755339411e+00
-1.469700164888088e-19  1.251861812340660e-17  5.714486483370321e-01
-1.222739755339411e+00  5.714486483370321e-01  1.154591795687527e-17

 1.276317545460319e-17 -1.921860701735111e-19 -1.251130771676504e+00
-1.921860701735111e-19  1.388107156254004e-17  5.356068393580112e-01
-1.251130771676504e+00  5.356068393580112e-01  1.390235966852357e-17

 1.346994783877784e-17 -1.569940006471828e-19 -1.277996482862014e+00
-1.569940006471828e-19  1.569424732616621e-17  4.811263172502396e-01
-1.277996482862014e+00  4.811263172502396e-01  1.625927341337552e-17

 1.170994024992423e-17 -1.700151900686057e-19 -1.202541995281947e+00
-1.700151900686057e-19  1.529507142261160e-17  4.799544307794088e-01
-1.202541995281947e+00  4.799544307794088e-01  1.148011334567065e-17

 1.207530312506323e-17 -3.326816955533925e-19 -1.214136034862231e+00
-3.326816955533925e-19  1.640577484221986e-17  4.570257695207593e-01
-1.214136034862231e+00  4.570257695207593e-01  1.267523484748367e-17

 1.570712225520275e-17 -5.478743863336552e-19 -1.362874442005862e+00
-5.478743863336552e-19  1.889252594917929e-17  4.124202202467920e-01
-1.362874442005862e+00  4.124202202467920e-01  2.297006285388392e-17

 9.927147291591299e-18 -2.304580977673436e-19 -1.150095777940491e+00
-2.304580977673436e-19  7.083803555785591e-18  7.267929937143747e-01
-1.150095777940491e+00  7.267929937143747e-01  5.567270222855928e-18

 8.324264354195573e-18 -8.240667870792835e-19 -1.071974609436626e+00
-8.240667870792835e-19  4.367916461744050e-18  8.173816156642438e-01
-1.071974609436626e+00  8.173816156642438e-01  1.129455913072594e-18

 1.512635386966033e-17 -1.912491644190210e-19 -1.346438967158175e+00
-1.912491644190210e-19  1.590441415707536e-17  4.627382490414862e-01
-1.346438967158175e+00  4.627382490414862e-01  2.146805623435327e-17

 1.117892330597687e-17 -2.884663939793742e-19 -1.178308257133554e+00
-2.884663939793742e-19  1.233695989206083e-17  5.435303348187884e-01
-1.178308257133554e+00  5.435303348187884e-01  1.029446580008989e-17

 1.198410055258821e-17  7.531579669952193e-20 -1.209563055291857e+00
 7.531579669952193e-20  1.470484088662380e-17  4.477588965239342e-01
-1.209563055291857e+00  4.477588965239342e-01  1.313840754722799e-17

 9.614845667643391e-18 -6.605391204971757e-20 -1.091224226803776e+00
-6.605391204971757e-20  1.222918151747034e-17  4.824500417755140e-01
-1.091224226803776e+00  4.824500417755140e-01  6.744850435768551e-18

 8.246789121161293e-18 -1.375045493936538e-19 -1.029200493464818e+00
-1.375045493936538e-19  1.076149944908442e-17  5.019574886757575e-01
-1.029200493464818e+00  5.019574886757575e-01  3.752526192513418e-18

 5.603628871715489e-18  4.694766628503824e-19 -9.855133815957724e-01
 4.694766628503824e-19  1.029526998999907e-17  4.972024844844121e-01
-9.855133815957724e-01  4.972024844844121e-01  1.844224934326280e-18

 2.271238121640039e-17 -6.679900587483375e-18 -1.066859159948857e+00
-6.679900587483375e-18  1.384698046730439e-17  5.083981575611647e-01
-1.066859159948857e+00  5.083981575611647e-01  6.513909621560039e-18

 4.211006258152884e-17 -1.528745155647365e-17 -1.088929920964417e+00
-1.528745155647365e-17  1.528516961931058e-17  5.878170387531695e-01
-1.088929920964417e+00  5.878170387531695e-01  5.853365220651134e-18

-6.700944103410458e-17  3.504843954989920e-17 -1.133456650579086e+00
 3.504843954989920e-17 -4.194534013269397e-18  5.089122914361347e-01
-1.133456650579086e+00  5.089122914361347e-01  9.047758536626470e-18

 5.524173973120872e-17 -2.130628339293775e-17 -1.178818111692702e+00
-2.130628339293775e-17  2.463518474501776e-17  4.687759533177646e-01
-1.178818111692702e+00  4.687759533177646e-01  1.124032440961937e-17

-8.223241824776859e-18  8.404827044230295e-18 -1.197769295076139e+00
 8.404827044230295e-18  4.633637141522089e-18  6.607821225309943e-01
-1.197769295076139e+00  6.607821225309943e-01  7.873589641950228e-18

 3.184326565875139e-18  2.125993909585445e-18 -1.145167275205976e+00
 2.125993909585445e-18  4.043595474906984e-18  7.801456615184690e-01
-1.145167275205976e+00  7.801456615184690e-01  3.651079988980781e-18

 1.279280301456321e-17  3.041881254956258e-19 -1.356069001330736e+00
 3.041881254956258e-19  1.762692415951361e-17  4.193247541904006e-01
-1.356069001330736e+00  4.193247541904006e-01  2.014140031030314e-17

 1.890724880306405e-17 -7.599231724404305e-19 -1.516366839514116e+00
-7.599231724404305e-19  2.581155477476578e-17  2.100045728557736e-01
-1.516366839514116e+00  2.100045728557736e-01  3.311692133962828e-17

 1.415509462486523e-17 -3.685297877727961e-19 -1.378930850280647e+00
-3.685297877727961e-19  1.851608898162349e-17  4.057166286479348e-01
-1.378930850280647e+00  4.057166286479348e-01  2.299516295548203e-17

 8.438179256787446e-18 -8.200583713172606e-19 -1.136003024741883e+00
-8.200583713172606e-19  5.782398705290460e-18  7.620650028101132e-01
-1.136003024741883e+00  7.620650028101132e-01  5.051939857811177e-18

 1.018837689684939e-17 -4.535762246568356e-19 -1.195300285309500e+00
-4.535762246568356e-19  1.138350320427430e-17  5.522866134932228e-01
-1.195300285309500e+00  5.522866134932228e-01  1.102502911929361e-17

 7.226698405179967e-18  3.432559409850095e-19 -1.071093421792884e+00
 3.432559409850095e-19  1.194693785850193e-17  4.552101785776924e-01
-1.071093421792884e+00  4.552101785776924e-01  3.542699811755885e-18

 8.227281088216442e-18 -2.711092973022503e-19 -1.093972953046695e+00
-2.711092973022503e-19  1.316367928951913e-17  4.341272863966305e-01
-1.093972953046695e+00  4.341272863966305e-01  7.326687652902441e-18

 8.057543308644429e-18 -5.033458079798244e-19 -1.086467198786613e+00
-5.033458079798244e-19  1.266289301477625e-17  4.590813075159992e-01
-1.086467198786613e+00  4.590813075159992e-01  6.819099917221839e-18

 1.002072864139672e-17 -7.076386613535533e-19 -1.176827912277027e+00
-7.076386613535533e-19  1.378796460976936e-17  4.555645339575068e-01
-1.176827912277027e+00  4.555645339575068e-01  1.220150164050185e-17

 1.126640558144724e-17 -6.232635496244155e-19 -1.227074915618419e+00
-6.232635496244155e-19  1.356072175807784e-17  4.693551892249258e-01
-1.227074915618419e+00  4.693551892249258e-01  1.447748429081693e-17

 5.429988772967641e-18  2.112777915141333e-19 -1.036380696552287e+00
 2.112777915141333e-19  5.005479799164110e-18  6.781479606441442e-01
-1.036380696552287e+00  6.781479606441442e-01 -1.711185237671810e-18

 8.523333629866616e-18 -4.693086545674285e-20 -1.166466229787072e+00
-4.693086545674285e-20  8.670913035900379e-18  6.063192295078839e-01
-1.166466229787072e+00  6.063192295078839e-01  7.216518954576423e-18

 1.009477440740506e-17 -1.018316505591512e-19 -1.251978913269010e+00
-1.018316505591512e-19  1.320666586440095e-17  4.992175342856102e-01
-1.251978913269010e+00  4.992175342856102e-01  1.382642838140940e-17

 1.331028806749895e-17 -1.642547819523845e-18 -1.249400978520969e+00
-1.642547819523845e-18  1.483116921689969e-17  4.808988495405825e-01
-1.249400978520969e+00  4.808988495405825e-01  1.348517373927477e-17

 5.788925108469771e-18  7.349853515189539e-19 -1.227169228270335e+00
 7.349853515189539e-19  1.304776433373844e-17  5.095287179822875e-01
-1.227169228270335e+00  5.095287179822875e-01  1.114235800034607e-17

-5.363899958380594e-17  3.905353094265198e-17 -1.288802159256933e+00
 3.905353094265198e-17 -3.731234127466392e-18  4.911661047630682e-01
-1.288802159256933e+00  4.911661047630682e-01  1.459270728014667e-17

-5.188105155259409e-17  3.882819331379952e-17 -1.374047048629829e+00
 3.882819331379952e-17 -4.249328706192784e-18  5.403493281874775e-01
-1.374047048629829e+00  5.403493281874775e-01  2.034951945420064e-17

-1.925964218679516e-16  4.603360405954977e-17 -8.714297805157090e-01
 4.603360405954977e-17 -1.785053292212885e-17  9.800064257916171e-01
-8.714297805157090e-01  9.800064257916171e-01 -8.074072417278729e-18

-1.185361879250163e-17  2.787878490267763e-18 -1.264498598238389e+00
 2.787878490267763e-18  1.423732025657807e-17  4.268567313417541e-01
-1.264498598238389e+00  4.268567313417541e-01  1.424753360473305e-17

 2.681334073334880e-17 -5.385138568067317e-18 -1.448874340906156e+00
-5.385138568067317e-18  2.750380164429856e-17  6.967540247255191e-02
-1.448874340906156e+00  6.967540247255191e-02  2.462675869922283e-17

 6.135253381258229e-19  1.905560555000929e-18 -1.066324374697680e+00
 1.905560555000929e-18  9.627132310161540e-18  4.768050237383655e-01
-1.066324374697680e+00  4.768050237383655e-01  2.589506336606159e-18

 4.340474588417487e-18  4.938403734211116e-19 -1.087005022751889e+00
 4.938403734211116e-19  6.878285606523735e-18  5.718550813291075e-01
-1.087005022751889e+00  5.718550813291075e-01  4.990642519630058e-18

 6.962909798819797e-18 -1.313363706105832e-19 -1.093119885513918e+00
-1.313363706105832e-19  1.056183317289959e-17  4.642597954924283e-01
-1.093119885513918e+00  4.642597954924283e-01  7.450793998678346e-18

 2.510042771442021e-17 -2.536915691518348e-18 -1.043241455904056e+00
-2.536915691518348e-18  1.209360624839826e-17  4.187767079217821e-01
-1.043241455904056e+00  4.187767079217821e-01  5.209347900233985e-18

-9.801225575530525e-18  1.202409964470216e-18 -1.125229559504663e+00
 1.202409964470216e-18  1.514404224934987e-17  3.493263234675388e-01
-1.125229559504663e+00  3.493263234675388e-01  1.214897062391755e-17

-3.187681866149291e-17  3.938570096807225e-18 -1.063478965338272e+00
 3.938570096807225e-18  8.879866573940488e-18  4.897062898657135e-01
-1.063478965338272e+00  4.897062898657135e-01  5.411760018086377e-18

-7.277758068765586e-17  8.524553124936685e-18 -1.010214302301867e+00
 8.524553124936685e-18  4.208108448223174e-18  5.950154007079157e-01
-1.010214302301867e+00  5.950154007079157e-01 -9.275444117027376e-21

 5.262659180581949e-17 -7.767997510945939e-18 -1.141245638092073e+00
-7.767997510945939e-18  1.404810247471601e-17  4.149857798789264e-01
-1.141245638092073e+00  4.149857798789264e-01  1.066487696260806e-17

 4.024332689772431e-18 -3.021124331021857e-19 -1.140413154907390e+00
-3.021124331021857e-19  1.299095879497916e-17  4.047491838024385e-01
-1.140413154907390e+00  4.047491838024385e-01  1.078860185106424e-17

 7.243621133792213e-19 -1.480635852403519e-18 -9.361558965698310e-01
-1.480635852403519e-18  3.533724520871140e-18  6.691284675233249e-01
-9.361558965698310e-01  6.691284675233249e-01 -2.286922342265857e-18

 2.857680768022160e-18 -6.477340740533538e-19 -1.043402016203096e+00
-6.477340740533538e-19  9.819094148210575e-18  4.530360620102505e-01
-1.043402016203096e+00  4.530360620102505e-01  5.042531407291922e-18

 4.972462767137081e-18  2.580589956543241e-19 -1.156505158694636e+00
 2.580589956543241e-19  1.647133228514065e-17  2.266264957912582e-01
-1.156505158694636e+00  2.266264957912582e-01  1.257879508581171e-17

 1.210773481568532e-18 -5.734871149488068e-19 -1.006263550452015e+00
-5.734871149488068e-19  9.263251491612375e-18  4.286575455692501e-01
-1.006263550452015e+00  4.286575455692501e-01  3.619537336359146e-18

-2.331294034475418e-19 -8.085778857779858e-19 -9.613268776642382e-01
-8.085778857779858e-19  6.930749751963382e-18  4.887069116441534e-01
-9.613268776642382e-01  4.887069116441534e-01  7.962736002466820e-19

 2.029358908845333e-18 -8.703789380057317e-19 -1.068463456151258e+00
-8.703789380057317e-19  1.347025990951290e-17  3.131135490640701e-01
-1.068463456151258e+00  3.131135490640701e-01  9.575449118707837e-18

-1.637896757758928e-18 -7.369990454333738e-19 -9.422706242492571e-01
-7.369990454333738e-19  7.224197620982623e-18  4.641970662850362e-01
-9.422706242492571e-01  4.641970662850362e-01 -1.592173021696663e-19

-3.244903791971712e-18 -6.498925799898417e-19 -8.985450815103666e-01
-6.498925799898417e-19  4.165718270073570e-18  5.364653639952700e-01
-8.985450815103666e-01  5.364653639952700e-01 -3.878176326537177e-18

 2.571314456340931e-18 -5.361310665806338e-19 -1.153941267992396e+00
-5.361310665806338e-19  1.496859433991255e-17  2.531721748650720e-01
-1.153941267992396e+00  2.531721748650720e-01  1.498696574961056e-17

-2.435664513130258e-18 -9.282282474869221e-19 -9.795655577668260e-01
-9.282282474869221e-19  8.601835094296915e-18  4.230934443209610e-01
-9.795655577668260e-01  4.230934443209610e-01  2.339365441893716e-18

-3.717600305139979e-18 -1.101264399016117e-18 -9.642376034774465e-01
-1.101264399016117e-18  8.448631055144060e-18  4.252747370949667e-01
-9.642376034774465e-01  4.252747370949667e-01  9.921785832201435e-19

-2.938868747922046e-18 -1.166344217466709e-18 -1.031298697064802e+00
-1.166344217466709e-18  1.158723349709716e-17  3.436398774751498e-01
-1.031298697064802e+00  3.436398774751498e-01  5.720994440503646e-18

-2.500282130793718e-18 -1.292095937319896e-18 -1.073941533058283e+00
-1.292095937319896e-18  1.172368804450228e-17  3.430517877125800e-01
-1.073941533058283e+00  3.430517877125800e-01  8.401636962412271e-18

-5.381132062215054e-18 -1.467037050123608e-18 -9.835865012341148e-01
-1.467037050123608e-18  5.991151230959404e-18  4.938155946035721e-01
-9.835865012341148e-01  4.938155946035721e-01  1.124970128137831e-18

-1.029626463080913e-17 -2.331150499772313e-18 -8.118482693517117e-01
-2.331150499772313e-18  2.505386152850072e-18  5.963194941804667e-01
-8.118482693517117e-01  5.963194941804667e-01 -8.756726682053393e-18

-6.998410892843576e-18 -8.115106488135504e-19 -9.967564671640025e-01
-8.115106488135504e-19  1.237112245820395e-17  2.715728208680624e-01
-9.967564671640025e-01  2.715728208680624e-01  2.196167875944331e-18

-5.920341857513659e-18 -1.067224038418620e-18 -1.059654854012715e+00
-1.067224038418620e-18  1.804505941712418e-17  1.293889766632403e-01
-1.059654854012715e+00  1.293889766632403e-01  7.204376388582680e-18

-8.493972485223187e-18 -1.822143099055374e-18 -9.854396615432380e-01
-1.822143099055374e-18  1.125385450017819e-17  3.338000280738983e-01
-9.854396615432380e-01  3.338000280738983e-01  2.086060941185088e-18

-1.550238398222640e-17 -7.047208994513241e-19 -7.632213884041663e-01
-7.047208994513241e-19 -2.128995380054974e-18  6.369623576090664e-01
-7.632213884041663e-01  6.369623576090664e-01 -1.683243186504549e-17

-1.147105387785491e-17 -1.573926339117821e-18 -9.527823536698680e-01
-1.573926339117821e-18  3.118807747680905e-18  5.427573917128404e-01
-9.527823536698680e-01  5.427573917128404e-01 -3.155938824484515e-18

-1.433092644073228e-17 -2.503870327808032e-18 -8.969340911679071e-01
-2.503870327808032e-18  5.662190023454364e-18  5.008896281320721e-01
-8.969340911679071e-01  5.008896281320721e-01 -5.291060190180512e-18

-8.656696647544805e-18 -1.452699754310088e-18 -1.205061507926464e+00
-1.452699754310088e-18  2.050286864885788e-17  6.779139421427373e-02
-1.205061507926464e+00  6.779139421427373e-02  1.473110880415891e-17

-1.427755133480229e-17 -2.025181077971198e-18 -1.021275011747278e+00
-2.025181077971198e-18  1.448957125670471e-17  2.413224635330071e-01
-1.021275011747278e+00  2.413224635330071e-01  2.062116605080931e-18

-2.009438543509685e-17 -1.969526378671911e-18 -8.670535128276721e-01
-1.969526378671911e-18  3.693105521901866e-18  5.161772371584806e-01
-8.670535128276721e-01  5.161772371584806e-01 -1.130180190872169e-17

-1.913971383507178e-17 -2.618706353077543e-18 -9.666602255095056e-01
-2.618706353077543e-18  5.813402410266945e-18  4.917378248978028e-01
-9.666602255095056e-01  4.917378248978028e-01 -4.629075446885225e-18

-2.266809994244507e-17 -2.846731780780614e-18 -9.090745628109247e-01
-2.846731780780614e-18  7.172897116064696e-18  4.562470049069474e-01
-9.090745628109247e-01  4.562470049069474e-01 -9.334180570428738e-18

-2.594181361667463e-17 -3.174919700585388e-18 -9.290231281857452e-01
-3.174919700585388e-18  1.053042652556622e-17  3.805457388789834e-01
-9.290231281857452e-01  3.805457388789834e-01 -9.327955386726551e-18

-2.933469792789553e-17 -3.560289688736490e-18 -9.570559591271204e-01
-3.560289688736490e-18  7.685749914550689e-18  4.780991861680629e-01
-9.570559591271204e-01  4.780991861680629e-01 -1.054362532743176e-17

-3.114339531773281e-17 -4.051697803706920e-18 -1.006904196079566e+00
-4.051697803706920e-18  1.069457436516929e-17  4.233891191814386e-01
-1.006904196079566e+00  4.233891191814386e-01 -7.977782709575463e-18

-3.680506315760207e-17 -4.786456320358906e-18 -9.672477345346443e-01
-4.786456320358906e-18  1.174743494958167e-17  4.204257420771633e-01
-9.672477345346443e-01  4.204257420771633e-01 -1.263947293021173e-17

-4.417470547434584e-17 -5.874509666270330e-18 -9.622497096465080e-01
-5.874509666270330e-18  1.403974110781312e-17  4.068378956833331e-01
-9.622497096465080e-01  4.068378956833331e-01 -1.588286620493322e-17

-7.708578067939224e-17 -5.385946509159732e-18 -1.011597841437314e+00
-5.385946509159732e-18  1.541869126815136e-17  4.594298943937123e-01
-1.011597841437314e+00  4.594298943937123e-01 -1.807599989954676e-17

-4.958684015628686e-17 -1.139274703797956e-17 -9.355916177711955e-01
-1.139274703797956e-17  1.942484576353420e-17  4.346379768837394e-01
-9.355916177711955e-01  4.346379768837394e-01 -2.679489049862643e-17

-1.335905669864118e-16 -5.077433876573396e-18 -9.574276896385026e-01
-5.077433876573396e-18  2.573527133186208e-17  3.112648543045833e-01
-9.574276896385026e-01  3.112648543045833e-01 -2.705036562613649e-17

-4.000865919576591e-17 -1.680736832503847e-17 -1.179234787383793e+00
-1.680736832503847e-17  3.532323272865944e-17  1.821030424084007e-01
-1.179234787383793e+00  1.821030424084007e-01 -1.284515337415341e-17

-8.835286515952831e-17 -1.240682796407944e-17 -9.648920043910159e-01
-1.240682796407944e-17  2.653532874321347e-17  4.113309168751013e-01
-9.648920043910159e-01  4.113309168751013e-01 -3.169365071367613e-17

-8.713371796787677e-17 -1.351729668203125e-17 -8.337622957771671e-01
-1.351729668203125e-17  2.133353155401231e-17  5.919554336932921e-01
-8.337622957771671e-01  5.919554336932921e-01 -4.648218056017332e-17

-9.786542840140867e-17 -1.652258685960440e-17 -1.035555859141958e+00
-1.652258685960440e-17  3.472840462443614e-17  4.269377782859288e-01
-1.035555859141958e+00  4.269377782859288e-01 -3.612095362686826e-17

-1.022628314139606e-16 -2.184658169390701e-17 -1.412415358989891e+00
-2.184658169390701e-17  5.536379503887567e-17  1.418178550011257e-01
-1.412415358989891e+00  1.418178550011257e-01 -1.529652192906676e-17

-1.154904033019178e-16 -2.034016163701294e-17 -1.212550794474235e+00
-2.034016163701294e-17  4.861019863733969e-17  3.634440939263180e-01
-1.212550794474235e+00  3.634440939263180e-01 -3.456440106246713e-17

-1.319251225728006e-16 -2.020015789696879e-17 -1.055639198796599e+00
-2.020015789696879e-17  4.517362517072584e-17  5.939561488582502e-01
-1.055639198796599e+00  5.939561488582502e-01 -5.283607920068031e-17

-1.560210708053841e-16 -3.069345774316976e-17 -1.227366900849657e+00
-3.069345774316976e-17  7.046947928563041e-17  3.689114312880254e-01
-1.227366900849657e+00  3.689114312880254e-01 -5.004447269942246e-17

-1.960353340733045e-16 -4.274248994874609e-17 -8.942973134590116e-01
-4.274248994874609e-17  8.021923733808465e-17  5.961037800940676e-01
-8.942973134590116e-01  5.961037800940676e-01 -8.337265662187804e-17

-2.072905108568859e-16 -4.843090854860707e-17 -9.196564207163490e-01
-4.843090854860707e-17  8.901663746302251e-17  4.854945340554243e-01
-9.196564207163490e-01  4.854945340554243e-01 -8.693413326636444e-17

-2.180636225889207e-16 -5.671380626461799e-17 -1.035523803438170e+00
-5.671380626461799e-17  1.019756848079353e-16  2.741096992346062e-01
-1.035523803438170e+00  2.741096992346062e-01 -8.618021793875946e-17

-2.413594049744292e-16 -7.168345610096965e-17 -1.071594057581378e+00
-7.168345610096965e-17  1.202141407385748e-16  1.745975744690269e-01
-1.071594057581378e+00  1.745975744690269e-01 -9.282292286212714e-17

-2.691306951916809e-16 -8.035949077286878e-17 -8.815666244546844e-01
-8.035949077286878e-17  1.287599171185808e-16  3.802758628712038e-01
-8.815666244546844e-01  3.802758628712038e-01 -1.154511196922025e-16

-3.060765363753573e-16 -9.507033439853309e-17 -7.712000916351573e-01
-9.507033439853309e-17  1.467639486866768e-16  5.280728087895441e-01
-7.712000916351573e-01  5.280728087895441e-01 -1.386994861676551e-16

-3.416237992702398e-16 -1.285112843321498e-16 -9.278709051996710e-01
-1.285112843321498e-16  2.292505679079146e-16  4.116008008430128e-01
-9.278709051996710e-01  4.116008008430128e-01 -1.636347244135214e-16

-5.104983019142112e-16 -1.998501581806517e-16 -1.040417289726649e+00
-1.998501581806517e-16  3.247627272109712e-16  3.989131001795276e-01
-1.040417289726649e+00  3.989131001795276e-01 -2.143140418908661e-16

-6.729515557357806e-16 -2.792869503757423e-16 -1.010340606817949e+00
-2.792869503757423e-16  4.790460873765584e-16  5.233535738193640e-01
-1.010340606817949e+00  5.233535738193640e-01 -2.888336046056763e-16

-7.682512123248328e-16 -3.587983885441102e-16 -1.061146135000782e+00
-3.587983885441102e-16  5.741562608107856e-16  4.714721843453176e-01
-1.061146135000782e+00  4.714721843453176e-01 -3.333069891941166e-16

-8.990037177145922e-16 -4.840002932801138e-16 -1.085016288853485e+00
-4.840002932801138e-16  7.077448675192852e-16  3.908812471614429e-01
-1.085016288853485e+00  3.908812471614429e-01 -3.994930404145468e-16

-1.025664156713534e-15 -6.417084333989112e-16 -1.036612946088920e+00
-6.417084333989112e-16  8.424957069009756e-16  3.951877163121592e-01
-1.036612946088920e+00  3.951877163121592e-01 -4.812882478328009e-16

-1.229828288455906e-15 -8.604067444648823e-16 -1.053022213482790e+00
-8.604067444648823e-16  1.096428475997712e-15  3.700989613935757e-01
-1.053022213482790e+00  3.700989613935757e-01 -6.006662246479203e-16

-1.594740844624903e-15 -1.485599436759832e-15 -1.019237576007417e+00
-1.485599436759832e-15  1.511505521672053e-15  4.250286562629833e-01
-1.019237576007417e+00  4.250286562629833e-01 -8.683963831210756e-16

-2.001055680519442e-15 -2.161639304012015e-15 -1.022485372953392e+00
-2.161639304012015e-15  1.905701377638232e-15  4.204383380007148e-01
-1.022485372953392e+00  4.204383380007148e-01 -1.156291672573350e-15

-2.478062056943597e-15 -3.558949391350763e-15 -9.991860213232683e-01
-3.558949391350763e-15  2.477557407986208e-15  4.407253893669775e-01
-9.991860213232683e-01  4.407253893669775e-01 -1.719539859295695e-15

-3.517598803432486e-15 -7.613642507484612e-15 -9.839542493945331e-01
-7.613642507484612e-15  2.821070073548377e-15  4.357029268178318e-01
-9.839542493945331e-01  4.357029268178318e-01 -3.567105677239742e-15

-7.055161982925611e-15 -1.275416509642380e-14 -9.699982246014839e-01
-1.275416509642380e-14  1.906613829539643e-15  4.541840871542185e-01
-9.699982246014839e-01  4.541840871542185e-01 -7.619184870030147e-15

-1.048232636876281e-14 -1.107087298162822e-14 -9.580002084529984e-01
-1.107087298162822e-14  1.044855522263868e-14  4.264214604217280e-01
-9.580002084529984e-01  4.264214604217280e-01 -1.300908700973664e-14

 1.160946999975458e-13  2.246317542232328e-14 -1.008842623853268e+00
 2.246317542232328e-14  8.116848113268532e-14  3.999348825794439e-01
-1.008842623853268e+00  3.999348825794439e-01  2.910415114850589e-14

-6.260336707496123e-13 -1.343809324787187e-13 -1.029268567267206e+00
-1.343809324787187e-13 -3.280942778639953e-13  4.529370218790741e-01
-1.029268567267206e+00  4.529370218790741e-01 -1.656972178454583e-13

-1.122043061720853e-14  1.722134567134706e-14 -1.142337878623371e+00
 1.722134567134706e-14  3.499696964586657e-14  4.402731556674022e-01
-1.142337878623371e+00  4.402731556674022e-01 -8.692373956918371e-15

-6.727972959229120e-13 -1.251029736744536e-13 -1.097772305339858e+00
-1.251029736744536e-13 -3.150607418980417e-13  4.713322368098259e-01
-1.097772305339858e+00  4.713322368098259e-01 -1.704319772201931e-13

-1.795327767809722e-14 -1.322715797515969e-15 -1.090092853293908e+00
-1.322715797515969e-15 -6.029649127917326e-16  5.198016544153359e-01
-1.090092853293908e+00  5.198016544153359e-01 -7.506234318468115e-15

-1.072893903495030e-14 -2.007370687002816e-15 -1.091549530290999e+00
-2.007370687002816e-15  6.849272932288241e-17  3.940032796557996e-01
-1.091549530290999e+00  3.940032796557996e-01 -4.201561983602617e-15

-7.178914250829224e-15 -1.939654541067522e-15 -1.110171491862267e+00
-1.939654541067522e-15 -1.452149146749034e-16  3.119218619401101e-01
-1.110171491862267e+00  3.119218619401101e-01 -2.670248157901644e-15

-4.791245503306151e-15 -1.696325455509406e-15 -1.027583483369062e+00
-1.696325455509406e-15 -1.515964079778772e-15  5.017117356920382e-01
-1.027583483369062e+00  5.017117356920382e-01 -1.728635203529688e-15

-4.135678716399123e-15 -1.518867051913026e-15 -8.846271485187805e-01
-1.518867051913026e-15 -1.786434822675149e-15  6.457777073534108e-01
-8.846271485187805e-01  6.457777073534108e-01 -1.467678034535593e-15

-3.511813639375591e-15 -1.399521651311244e-15 -1.102267066848408e+00
-1.399521651311244e-15 -1.413231521323444e-15  4.404755717675173e-01
-1.102267066848408e+00  4.404755717675173e-01 -1.226494303309082e-15

-2.600546344834239e-15 -1.110580086948939e-15 -1.136136505328789e+00
-1.110580086948939e-15 -1.191783785593755e-15  3.859411941808772e-01
-1.136136505328789e+00  3.859411941808772e-01 -9.294114796810477e-16

-2.019681614937309e-15 -9.572902603932000e-16 -1.112204947735862e+00
-9.572902603932000e-16 -1.076795797304232e-15  4.122453698297684e-01
-1.112204947735862e+00  4.122453698297684e-01 -7.239442194373499e-16

-1.357537299347766e-15 -6.713396567923467e-16 -1.007198370534763e+00
-6.713396567923467e-16 -9.849932826251524e-16  5.944505116349975e-01
-1.007198370534763e+00  5.944505116349975e-01 -4.803565749682423e-16

-1.095449737519509e-15 -5.496294681333603e-16 -5.805418519247142e-01
-5.496294681333603e-16 -8.375440561710142e-16  8.612639384661145e-01
-5.805418519247142e-01  8.612639384661145e-01 -4.130141598424658e-16

-1.106530141115595e-15 -5.759780670761239e-16 -1.014189259322580e+00
-5.759780670761239e-16 -6.867470093504316e-16  4.703498602027200e-01
-1.014189259322580e+00  4.703498602027200e-01 -3.882703287910231e-16

-1.017019979856281e-15 -5.339755198368545e-16 -1.160701302498414e+00
-5.339755198368545e-16 -4.637175789691654e-16  1.664580067612363e-01
-1.160701302498414e+00  1.664580067612363e-01 -3.471553971894917e-16

-9.304992132481375e-16 -4.938527138869959e-16 -1.231955654835895e+00
-4.938527138869959e-16 -3.231993456479012e-16  1.582003751935010e-02
-1.231955654835895e+00  1.582003751935010e-02 -3.094165094040927e-16

-8.049779470167402e-16 -4.313719591829500e-16 -8.680578668009631e-01
-4.313719591829500e-16 -3.636058494493937e-16  3.147493806107253e-01
-8.680578668009631e-01  3.147493806107253e-01 -2.880673193035831e-16

-5.681217267181561e-16 -3.080065182883716e-16 -8.911035614050425e-01
-3.080065182883716e-16 -3.838787800433176e-16  4.499014273780024e-01
-8.911035614050425e-01  4.499014273780024e-01 -2.086147848282008e-16

-3.866803764444895e-16 -2.055655102334268e-16 -9.600627096236400e-01
-2.055655102334268e-16 -3.186257552178930e-16  4.249404360420376e-01
-9.600627096236400e-01  4.249404360420376e-01 -1.426650517699323e-16

-2.971980315950127e-16 -1.538039321490397e-16 -8.841579534689701e-01
-1.538039321490397e-16 -2.597333308080075e-16  4.552088470039615e-01
-8.841579534689701e-01  4.552088470039615e-01 -1.150815868579304e-16

-2.441675376188261e-16 -1.288110327200478e-16 -1.089774327294590e+00
-1.288110327200478e-16 -2.045979555021862e-16  2.198802668015019e-01
-1.089774327294590e+00  2.198802668015019e-01 -8.128642653794366e-17

-2.232620642197347e-16 -1.155505217295289e-16 -1.066385061512182e+00
-1.155505217295289e-16 -1.934128488280563e-16  2.502885498669883e-01
-1.066385061512182e+00  2.502885498669883e-01 -7.544729103996496e-17

-2.133079094150253e-16 -1.023395461875532e-16 -8.115847521940847e-01
-1.023395461875532e-16 -2.089384772551558e-16  4.911086419372656e-01
-8.115847521940847e-01  4.911086419372656e-01 -9.019791773403120e-17

-1.969144526054589e-16 -9.592649256048617e-17 -9.777081084038256e-01
-9.592649256048617e-17 -1.926534962122595e-16  3.861578709819118e-01
-9.777081084038256e-01  3.861578709819118e-01 -7.347942888690500e-17

-1.851771605746099e-16 -8.792981512763677e-17 -9.644968554065044e-01
-8.792981512763677e-17 -1.876547406532128e-16  4.201957326116696e-01
-9.644968554065044e-01  4.201957326116696e-01 -7.067552245922954e-17

-1.602094138251907e-16 -7.409110061775441e-17 -1.013388223302200e+00
-7.409110061775441e-17 -1.680950059434156e-16  4.080856616012980e-01
-1.013388223302200e+00  4.080856616012980e-01 -5.860946933965447e-17

-1.383253777703796e-16 -6.237934009781233e-17 -1.016676196513776e+00
-6.237934009781233e-17 -1.478458606855547e-16  4.155157481895276e-01
-1.016676196513776e+00  4.155157481895276e-01 -5.006449632824343e-17

-1.148458590922617e-16 -5.116832488094644e-17 -9.879672632493814e-01
-5.116832488094644e-17 -1.209308481654031e-16  4.226866739945508e-01
-9.879672632493814e-01  4.226866739945508e-01 -4.197515196961014e-17

-9.919046916324692e-17 -4.409740618521553e-17 -9.415340664057700e-01
-4.409740618521553e-17 -9.893890116028391e-17  3.954629664120182e-01
-9.415340664057700e-01  3.954629664120182e-01 -3.800633188080245e-17

-8.760850316712344e-17 -3.939358745444030e-17 -9.434310527137179e-01
-3.939358745444030e-17 -8.265690110140699e-17  3.386682837260883e-01
-9.434310527137179e-01  3.386682837260883e-01 -3.262618199748257e-17

-7.495162188189546e-17 -3.191132552233169e-17 -9.364867055173055e-01
-3.191132552233169e-17 -7.715281712582441e-17  4.590905452039903e-01
-9.364867055173055e-01  4.590905452039903e-01 -2.921650802507573e-17

-6.577999078614522e-17 -2.723970443129685e-17 -9.226361864483362e-01
-2.723970443129685e-17 -7.114943603622001e-17  5.295938060746128e-01
-9.226361864483362e-01  5.295938060746128e-01 -2.642159930239563e-17

-5.841449190827885e-17 -2.501203391471440e-17 -9.494380295609610e-01
-2.501203391471440e-17 -5.587678980409987e-17  3.765943319563589e-01
-9.494380295609610e-01  3.765943319563589e-01 -2.099681438637441e-17

-5.305047823030602e-17 -2.294545508624625e-17 -9.089233431128976e-01
-2.294545508624625e-17 -4.684919795452807e-17  3.439383630179362e-01
-9.089233431128976e-01  3.439383630179362e-01 -2.040483722603507e-17

-4.642306505590930e-17 -1.862089200617273e-17 -9.093132013570238e-01
-1.862089200617273e-17 -4.711718847549919e-17  4.780238118194831e-01
-9.093132013570238e-01  4.780238118194831e-01 -1.940466103386098e-17

-4.754899617933606e-17 -1.583491992452360e-17 -7.368963813245089e-01
-1.583491992452360e-17 -5.415363031129615e-17  6.948399137626249e-01
-7.368963813245089e-01  6.948399137626249e-01 -3.226765104127015e-17

-3.809332934267010e-17 -1.572991958394316e-17 -1.015710012530320e+00
-1.572991958394316e-17 -3.884869414464729e-17  4.245240352600428e-01
-1.015710012530320e+00  4.245240352600428e-01 -1.047421908472643e-17

-3.491285448485144e-17 -1.492610835080553e-17 -1.033708654410722e+00
-1.492610835080553e-17 -3.269467152529325e-17  3.644875693056031e-01
-1.033708654410722e+00  3.644875693056031e-01 -8.018462555910296e-18

-3.072733634112825e-17 -1.346526014103325e-17 -1.005169874899575e+00
-1.346526014103325e-17 -2.753118378263221e-17  3.956658764431624e-01
-1.005169874899575e+00  3.956658764431624e-01 -8.987451826188038e-18

-2.654974741066850e-17 -9.345319624700962e-18 -1.061113363829852e+00
-9.345319624700962e-18 -3.022216500362852e-17  5.291887043386613e-01
-1.061113363829852e+00  5.291887043386613e-01 -8.183276819710471e-18

-2.168123341638063e-17 -7.941933295840044e-18 -1.162359512189835e+00
-7.941933295840044e-18 -2.786556080580279e-17  5.588573259173004e-01
-1.162359512189835e+00  5.588573259173004e-01 -1.839449605365183e-18

-1.834913923465152e-17 -8.073664028203846e-18 -1.197458783973733e+00
-8.073664028203846e-18 -1.986191636914447e-17  4.409878287761928e-01
-1.197458783973733e+00  4.409878287761928e-01  2.459521350954382e-18

-1.854049047452907e-17 -7.686377338600617e-18 -1.104232577170171e+00
-7.686377338600617e-18 -1.825571665191851e-17  4.465910958559459e-01
-1.104232577170171e+00  4.465910958559459e-01 -2.910850933819505e-18

-1.726211562887334e-17 -7.168485048584850e-18 -1.049824762953642e+00
-7.168485048584850e-18 -1.628077090786997e-17  4.590852499632685e-01
-1.049824762953642e+00  4.590852499632685e-01 -5.286825460992816e-18

-1.534845861363165e-17 -6.426145561054479e-18 -1.096062063498664e+00
-6.426145561054479e-18 -1.120725050794889e-17  3.880381727421203e-01
-1.096062063498664e+00  3.880381727421203e-01 -4.024754358769755e-19

-5.533292567036062e-18 -7.650528637860039e-18 -1.191321520295934e+00
-7.650528637860039e-18 -6.234152054001127e-18  3.202404011312610e-01
-1.191321520295934e+00  3.202404011312610e-01  7.197969224057190e-18

-1.366005207392445e-17 -5.271589878651685e-18 -9.864579302342129e-01
-5.271589878651685e-18 -1.588601061483928e-17  5.602709055841071e-01
-9.864579302342129e-01  5.602709055841071e-01 -9.753868275672664e-18

-3.853422949585544e-17  2.745557589624255e-18 -1.182696919909428e+00
 2.745557589624255e-18 -9.477277133945215e-18  4.235583434275604e-01
-1.182696919909428e+00  4.235583434275604e-01  5.111076524779341e-18

 4.467115970965952e-17 -1.628714281337171e-17 -1.225607929879604e+00
-1.628714281337171e-17 -2.770573061186143e-18  4.274630298671386e-01
-1.225607929879604e+00  4.274630298671386e-01  7.944143496047195e-18

-2.751243012325146e-17  2.400853468703026e-18 -1.253651455679872e+00
 2.400853468703026e-18 -6.798740022272755e-18  4.641671014600304e-01
-1.253651455679872e+00  4.641671014600304e-01  1.031233194874015e-17

 7.802762202284426e-17 -2.325028965585907e-17 -1.154663805857023e+00
-2.325028965585907e-17  1.393771824056185e-18  4.441825887205537e-01
-1.154663805857023e+00  4.441825887205537e-01  7.470204950424380e-18

 3.404751809132438e-17 -1.263790464423492e-17 -9.930924154084195e-01
-1.263790464423492e-17 -1.151514225389240e-18  4.224203210737267e-01
-9.930924154084195e-01  4.224203210737267e-01 -1.175870619479232e-18

-2.239126935284252e-17  2.405072379886997e-18 -1.121275295521932e+00
 2.405072379886997e-18  1.335759078607785e-18  2.527405692250128e-01
-1.121275295521932e+00  2.527405692250128e-01  8.970640243858547e-18

-1.740150417300482e-18 -3.527201510921396e-18 -9.749291579303849e-01
-3.527201510921396e-18 -1.639281674597577e-18  3.818951075530964e-01
-9.749291579303849e-01  3.818951075530964e-01 -1.290108841572216e-22

-3.167926292558826e-18 -3.213450653002410e-18 -9.201649701521504e-01
-3.213450653002410e-18 -3.409980718469959e-18  4.442852937881975e-01
-9.201649701521504e-01  4.442852937881975e-01 -2.255295132820205e-18

-4.487696894625162e-18 -2.610490566341897e-18 -9.026548481263839e-01
-2.610490566341897e-18 -3.758907919759972e-18  4.645715139892047e-01
-9.026548481263839e-01  4.645715139892047e-01 -2.619938481905840e-18

-4.375901183713193e-18 -2.577274713412525e-18 -8.610472854106307e-01
-2.577274713412525e-18 -2.945716539295870e-18  4.609932281919659e-01
-8.610472854106307e-01  4.609932281919659e-01 -4.515148228482070e-18

 7.533100141871689e-19 -3.010524401824427e-18 -1.036746969949054e+00
-3.010524401824427e-18  6.593586862249554e-18  2.633115877639809e-01
-1.036746969949054e+00  2.633115877639809e-01  9.741166671469224e-18

-1.011601190650287e-18 -1.951006497399924e-18 -9.657538111421623e-01
-1.951006497399924e-18 -4.012577972286391e-19  4.344484103068462e-01
-9.657538111421623e-01  4.344484103068462e-01  2.505216855001247e-18

-4.070237441411544e-18 -1.066833824895067e-18 -8.432739312331977e-01
-1.066833824895067e-18 -8.809307350387499e-18  6.451412620411009e-01
-8.432739312331977e-01  6.451412620411009e-01 -8.310199213257527e-18

 5.853894758716436e-19 -1.782644290639539e-18 -9.974277495389404e-01
-1.782644290639539e-18 -9.435643167865426e-19  4.889702548886697e-01
-9.974277495389404e-01  4.889702548886697e-01  4.394002289841948e-18

 1.142852455227984e-19 -1.554809432161642e-18 -9.566846295630923e-01
-1.554809432161642e-18  3.945701760957287e-18  3.610147414102422e-01
-9.566846295630923e-01  3.610147414102422e-01  2.553100059393950e-18

 2.403588829752088e-19 -2.123976901269811e-18 -9.296302615552793e-01
-2.123976901269811e-18  6.279329605509650e-18  3.395516177527942e-01
-9.296302615552793e-01  3.395516177527942e-01  1.857643972681080e-18

 1.427080639053912e-18 -1.519071786740735e-18 -9.778135080618185e-01
-1.519071786740735e-18  3.441420586336539e-18  4.296578144777592e-01
-9.778135080618185e-01  4.296578144777592e-01  3.140518751713857e-18

 9.463626250984052e-19 -8.710820511007879e-19 -9.658956933282624e-01
-8.710820511007879e-19 -6.809378494194886e-19  5.546221788852438e-01
-9.658956933282624e-01  5.546221788852438e-01 -2.805027810003569e-19

 2.425720842076494e-18 -1.903060227819987e-18 -9.930346303431195e-01
-1.903060227819987e-18  4.844013485724761e-18  4.721418202081188e-01
-9.930346303431195e-01  4.721418202081188e-01  2.724423787783671e-18

 1.371151266904617e-17 -2.904917571926938e-18 -1.421224985344551e+00
-2.904917571926938e-18  2.101133224723620e-17  1.084468451892338e-01
-1.421224985344551e+00  1.084468451892338e-01  3.349670342124610e-17

 3.683090150241483e-18 -7.666169271936089e-19 -1.068657118798796e+00
-7.666169271936089e-19  6.121550416146040e-19  5.977124246807773e-01
-1.068657118798796e+00  5.977124246807773e-01  5.598482436707338e-18

 4.035003230949885e-18 -1.294983446581046e-18 -1.061070273858448e+00
-1.294983446581046e-18  6.294586159802053e-19  6.311584845812029e-01
-1.061070273858448e+00  6.311584845812029e-01  5.918815851575955e-18

 5.449404622039961e-18 -3.291266232918039e-19 -1.105141040616763e+00
-3.291266232918039e-19  1.083760017962942e-17  3.033014162132672e-01
-1.105141040616763e+00  3.033014162132672e-01  8.898271388502633e-18

 4.805880133022086e-18 -9.511058350247362e-19 -1.050293312698926e+00
-9.511058350247362e-19  6.307036865464234e-18  4.548237600614994e-01
-1.050293312698926e+00  4.548237600614994e-01  6.223045006527824e-18

 5.735621618043312e-18 -1.344378320050374e-18 -1.066184793631224e+00
-1.344378320050374e-18  5.672355451628144e-18  4.934509804633030e-01
-1.066184793631224e+00  4.934509804633030e-01  8.430448054355341e-18

 3.458156085922780e-18 -1.288661872870628e-18 -9.505313175786273e-01
-1.288661872870628e-18  5.299398786381410e-18  4.902791391661758e-01
-9.505313175786273e-01  4.902791391661758e-01  1.806137200048899e-18

 1.039894120007351e-17 -1.201611513135651e-18 -1.214268068148239e+00
-1.201611513135651e-18  1.867058940588337e-17  1.412333828368950e-01
-1.214268068148239e+00  1.412333828368950e-01  2.090626547821291e-17

 2.333364451156087e-18 -8.169834557977365e-19 -8.932449117432291e-01
-8.169834557977365e-19  3.989912452091334e-18  5.097145480096013e-01
-8.932449117432291e-01  5.097145480096013e-01 -2.512145706742292e-18

-1.307629795986063e-18 -4.397998558132769e-19 -7.578071450914433e-01
-4.397998558132769e-19 -4.649099684413504e-18  7.335492914635814e-01
-7.578071450914433e-01  7.335492914635814e-01 -1.335411519606298e-17

 1.209414686561358e-17 -8.344810057837330e-19 -1.284069900907243e+00
-8.344810057837330e-19  1.650958593859914e-17  2.190555216210898e-01
-1.284069900907243e+00  2.190555216210898e-01  2.506585179502026e-17

 9.034173481588893e-18 -9.912612167415881e-19 -1.150659657363581e+00
-9.912612167415881e-19  1.166768566092749e-17  3.559022840143799e-01
-1.150659657363581e+00  3.559022840143799e-01  1.535948124631327e-17

 4.559531989578600e-19 -9.232458879182136e-19 -8.179998991458468e-01
-9.232458879182136e-19 -1.359331834856357e-18  7.033905133412518e-01
-8.179998991458468e-01  7.033905133412518e-01 -9.722911871757877e-18

 1.037303309398011e-17 -7.873557849236414e-19 -1.208995732792183e+00
-7.873557849236414e-19  1.341185807684180e-17  3.199300083705907e-01
-1.208995732792183e+00  3.199300083705907e-01  1.845712271260862e-17

 1.231283641676769e-17 -6.655008346036814e-19 -1.296511980265554e+00
-6.655008346036814e-19  1.734537754276736e-17  2.191141675560248e-01
-1.296511980265554e+00  2.191141675560248e-01  2.474899098820232e-17

 3.746437073153208e-18  4.876508337156242e-20 -1.030278427993043e+00
 4.876508337156242e-20  7.338871130607169e-18  4.882659806219927e-01
-1.030278427993043e+00  4.882659806219927e-01  4.491132890155632e-18

 2.933277170132161e-17 -1.094089854756360e-17 -1.086965934933541e+00
-1.094089854756360e-17  1.208042102272137e-17  5.218406609520412e-01
-1.086965934933541e+00  5.218406609520412e-01  6.873279509224269e-18

 3.010285920138718e-17 -1.091575240672610e-17 -1.126402772219306e+00
-1.091575240672610e-17  1.347049829515821e-17  5.083761238176271e-01
-1.126402772219306e+00  5.083761238176271e-01  8.182393732553571e-18

 1.576821440487920e-16 -6.758114596521108e-17 -1.161490060755062e+00
-6.758114596521108e-17  4.008771957843484e-17  4.937218421685954e-01
-1.161490060755062e+00  4.937218421685954e-01  9.573194870803570e-18

 5.743396925102245e-17 -2.224982984283857e-17 -1.194106523277192e+00
-2.224982984283857e-17  1.930814414487274e-17  5.252543288983653e-01
-1.194106523277192e+00  5.252543288983653e-01  1.055273755731072e-17

 7.505621193958602e-18  1.893834967245723e-19 -1.186339065761262e+00
 1.893834967245723e-19  9.896544632041207e-18  5.142707840739055e-01
-1.186339065761262e+00  5.142707840739055e-01  9.950353080884434e-18

 1.018413923868650e-17 -6.012103863822142e-19 -1.205168134005075e+00
-6.012103863822142e-19  1.316702600244460e-17  4.365605021815588e-01
-1.205168134005075e+00  4.365605021815588e-01  1.208827764946563e-17

 1.003847586885272e-17 -8.886310690026060e-19 -1.172629934232641e+00
-8.886310690026060e-19  1.162593530611473e-17  4.894116834586110e-01
-1.172629934232641e+00  4.894116834586110e-01  9.382799771417565e-18

 8.847678240809815e-18 -5.268011144282420e-19 -1.158449617312604e+00
-5.268011144282420e-19  1.051060898591655e-17  5.225206911474209e-01
-1.158449617312604e+00  5.225206911474209e-01  8.003892966407210e-18

 1.341868832170007e-17 -6.089428138022750e-19 -1.353778918073957e+00
-6.089428138022750e-19  1.619765661794858e-17  3.947507035269658e-01
-1.353778918073957e+00  3.947507035269658e-01  2.261243057423205e-17

 1.337305437456440e-17 -7.868897640404841e-19 -1.333529078553145e+00
-7.868897640404841e-19  1.202275085182750e-17  5.192722659403844e-01
-1.333529078553145e+00  5.192722659403844e-01  2.024609353431466e-17

 8.903543403041784e-18 -1.662114387307435e-18 -1.134771359458178e+00
-1.662114387307435e-18  2.610579366457964e-18  8.114517904420652e-01
-1.134771359458178e+00  8.114517904420652e-01  7.871475171904690e-18

 5.547399748185902e-18 -1.583290148195174e-18 -9.621108818936179e-01
-1.583290148195174e-18  4.732796271008883e-18  6.933843230635583e-01
-9.621108818936179e-01  6.933843230635583e-01  1.278365954565325e-19

 1.786087993432602e-17  2.642135405757237e-18 -1.522891846023395e+00
 2.642135405757237e-18  2.395292540912045e-17 -1.941958333357596e-02
-1.522891846023395e+00 -1.941958333357596e-02  2.986383933594732e-17

 7.918372673921265e-18  9.827367648392214e-19 -1.071764595569741e+00
 9.827367648392214e-19  1.531011923485639e-17  2.550643085821089e-01
-1.071764595569741e+00  2.550643085821089e-01  5.059512880673272e-18

 6.312424015128790e-18 -3.579836853505625e-19 -9.757797656371173e-01
-3.579836853505625e-19  8.599243067107572e-18  4.937444234394235e-01
-9.757797656371173e-01  4.937444234394235e-01  7.443767670247339e-19

 6.714805648320428e-18 -4.139458092132606e-20 -1.003400607029838e+00
-4.139458092132606e-20  6.286127290563389e-18  5.630201092925867e-01
-1.003400607029838e+00  5.630201092925867e-01  1.267770339132998e-18

 1.210799302763605e-17 -3.333570364176163e-19 -1.218838512771038e+00
-3.333570364176163e-19  1.301319956012543e-17  4.279737287496826e-01
-1.218838512771038e+00  4.279737287496826e-01  1.645965366693317e-17

 1.240759708664436e-17 -2.244192121237996e-19 -1.234047183429777e+00
-2.244192121237996e-19  1.324223629333553e-17  4.294183986455098e-01
-1.234047183429777e+00  4.294183986455098e-01  1.701597628054747e-17

 5.627839365834065e-18  3.381347452984929e-19 -9.786730185812238e-01
 3.381347452984929e-19  3.661184877095348e-18  6.670910635016845e-01
-9.786730185812238e-01  6.670910635016845e-01 -3.339462901565154e-18

 9.687611230822785e-18  8.055467870759307e-20 -1.136256700040893e+00
 8.055467870759307e-20  9.093529374735964e-18  5.467000532127796e-01
-1.136256700040893e+00  5.467000532127796e-01  8.311895609730684e-18

 1.111781725552910e-17 -1.578886557541690e-19 -1.188358733345820e+00
-1.578886557541690e-19  1.268686526690383e-17  4.692843978155044e-01
-1.188358733345820e+00  4.692843978155044e-01  1.263008971377566e-17

 1.010672466370352e-17 -2.578174835618624e-19 -1.144925333302444e+00
-2.578174835618624e-19  1.216502234945970e-17  4.938691886731451e-01
-1.144925333302444e+00  4.938691886731451e-01  9.320690620717441e-18

 1.029376827970492e-17 -4.138131333432515e-19 -1.151971827942712e+00
-4.138131333432515e-19  1.348490169827752e-17  4.774762373311232e-01
-1.151971827942712e+00  4.774762373311232e-01  9.733525438761013e-18

 1.214561476285785e-17 -6.639241990264752e-19 -1.230576152344137e+00
-6.639241990264752e-19  1.598416324616045e-17  4.544483847778608e-01
-1.230576152344137e+00  4.544483847778608e-01  1.431652784304521e-17

 1.639589466602884e-17 -7.349877944810664e-19 -1.427232961809770e+00
-7.349877944810664e-19  1.679613772773858e-17  5.014058470849589e-01
-1.427232961809770e+00  5.014058470849589e-01  2.550328264856439e-17

 6.700752772854120e-18 -2.608369152374170e-18 -1.024184407145755e+00
-2.608369152374170e-18  8.197752085804368e-19  1.062915314813059e+00
-1.024184407145755e+00  1.062915314813059e+00  2.385682038360414e-18

 1.128289719738271e-17 -1.302550570141361e-18 -1.198234740425172e+00
-1.302550570141361e-18  1.111367385690124e-17  6.583883077535371e-01
-1.198234740425172e+00  6.583883077535371e-01  1.210667038067209e-17

 1.478504758617081e-17  2.213171464768077e-18 -1.377125080871672e+00
 2.213171464768077e-18  2.250663498648515e-17  1.478848039289916e-01
-1.377125080871672e+00  1.478848039289916e-01  1.824989735114243e-17

 7.958320353827483e-18  3.155828741815039e-19 -1.061098538314601e+00
 3.155828741815039e-19  1.091641575983190e-17  5.285567470914561e-01
-1.061098538314601e+00  5.285567470914561e-01  1.423387214189862e-18

 1.012012173475820e-17 -2.105139000050441e-19 -1.147325931425249e+00
-2.105139000050441e-19  1.063143138555845e-17  5.750569930864666e-01
-1.147325931425249e+00  5.750569930864666e-01  7.905407913506080e-18

 1.112839138261958e-17 -3.526421095917994e-19 -1.185751789078492e+00
-3.526421095917994e-19  1.156125987464357e-17  5.686916591389681e-01
-1.185751789078492e+00  5.686916591389681e-01  1.022777130756298e-17

 1.325626048430952e-17 -4.365933705071562e-19 -1.261890190060829e+00
-4.365933705071562e-19  1.446816183745076e-17  4.994459092787151e-01
-1.261890190060829e+00  4.994459092787151e-01  1.591437953126385e-17

 1.180063832249332e-17 -5.460105026022764e-19 -1.198994126195217e+00
-5.460105026022764e-19  1.131075305346536e-17  5.900437537339288e-01
-1.198994126195217e+00  5.900437537339288e-01  1.094279311026025e-17

 1.472228252191559e-17 -2.071601902702509e-18 -1.017497715355127e+00
-2.071601902702509e-18  5.383666212301754e-18  7.629933320420060e-01
-1.017497715355127e+00  7.629933320420060e-01 -2.338879069946954e-18

 6.240061382667647e-18  8.229390134061946e-19 -1.212279597536023e+00
 8.229390134061946e-19  1.453841860142364e-17  4.864316177648514e-01
-1.212279597536023e+00  4.864316177648514e-01  1.225671683221043e-17

 2.641114627198437e-17 -3.169522008201536e-18 -1.288072780862282e+00
-3.169522008201536e-18  1.991081762352586e-17  3.718991126211447e-01
-1.288072780862282e+00  3.718991126211447e-01  1.813173268990613e-17

-7.256736737400190e-17  1.525086366446532e-17 -1.093287069675931e+00
 1.525086366446532e-17  7.660041491482636e-18  6.167495859345050e-01
-1.093287069675931e+00  6.167495859345050e-01  2.197892772688457e-18

 4.604077934634538e-17 -1.027312115297748e-17 -1.218436252281032e+00
-1.027312115297748e-17  1.615769688286918e-17  5.718594185148121e-01
-1.218436252281032e+00  5.718594185148121e-01  1.000483553159505e-17

 4.646383404332552e-17 -3.625028878578895e-18 -1.371424032938321e+00
-3.625028878578895e-18  1.770489568952937e-17  5.593580166615880e-01
-1.371424032938321e+00  5.593580166615880e-01  1.773578530592176e-17

 5.142166950171963e-17 -3.573630241069831e-18 -1.618940009160029e+00
-3.573630241069831e-18  1.927474569744217e-17  6.253578515195581e-01
-1.618940009160029e+00  6.253578515195581e-01  3.210857195098898e-17

 8.715263324916783e-18 -2.720309407352771e-18 -1.076709016759267e+00
-2.720309407352771e-18  4.888856574664826e-18  1.119077052267260e+00
-1.076709016759267e+00  1.119077052267260e+00  1.265652482565109e-17

 1.441633529372032e-17 -4.331105750832740e-19 -1.367694455181587e+00
-4.331105750832740e-19  1.593423457064063e-17  6.531937464544164e-01
-1.367694455181587e+00  6.531937464544164e-01  1.981955541237127e-17

 1.804472018849660e-17  2.940642490900267e-18 -1.563870539581525e+00
 2.940642490900267e-18  2.578349159573738e-17  1.415991708305454e-01
-1.563870539581525e+00  1.415991708305454e-01  2.271994320597837e-17

 9.480957352941527e-18  7.423498624771735e-19 -1.181492336156078e+00
 7.423498624771735e-19  1.270363158946605e-17  5.889468471675098e-01
-1.181492336156078e+00  5.889468471675098e-01  4.557113549726345e-18

 1.192050816432680e-17  6.955969841744971e-20 -1.259024503417383e+00
 6.955969841744971e-20  1.073679207535011e-17  6.734201746152654e-01
-1.259024503417383e+00  6.734201746152654e-01  1.082789517619684e-17

 1.231706720136170e-17 -6.574112438201405e-20 -1.246073952265933e+00
-6.574112438201405e-20  1.251126129149207e-17  6.044434388583124e-01
-1.246073952265933e+00  6.044434388583124e-01  1.149398564489519e-17

 1.576180926400950e-17 -3.174183286457784e-20 -1.363935801833760e+00
-3.174183286457784e-20  1.886718683221310e-17  4.167278102997524e-01
-1.363935801833760e+00  4.167278102997524e-01  2.203923697619757e-17

 1.268158823238299e-17 -2.925795673884299e-20 -1.233985089053989e+00
-2.925795673884299e-20  1.300309125966146e-17  5.677638377909479e-01
-1.233985089053989e+00  5.677638377909479e-01  1.264212151793524e-17

 6.672331210084740e-18 -1.020623772337534e-19 -9.872207845954181e-01
-1.020623772337534e-19  3.701797625909821e-18  8.136890853705842e-01
-9.872207845954181e-01  8.136890853705842e-01 -5.354793221492028e-18

 1.231072376264850e-17  1.196413953940013e-19 -1.203397292461241e+00
 1.196413953940013e-19  1.447015146256242e-17  5.008941151612738e-01
-1.203397292461241e+00  5.008941151612738e-01  1.194380112089847e-17

 1.397651908448932e-17  1.665864006669190e-20 -1.259737476185679e+00
 1.665864006669190e-20  1.936960989851922e-17  3.687025270303071e-01
-1.259737476185679e+00  3.687025270303071e-01  1.733600224999873e-17

 8.934676946739840e-18  1.343920487178844e-19 -1.063750851801224e+00
 1.343920487178844e-19  1.064435916996131e-17  6.018264682431401e-01
-1.063750851801224e+00  6.018264682431401e-01  1.835319871961402e-18

 1.133028993704963e-17 -8.226487047876480e-20 -1.161264675604726e+00
-8.226487047876480e-20  1.359632393688070e-17  5.470638310470259e-01
-1.161264675604726e+00  5.470638310470259e-01  8.714292737295971e-18

 1.396108389920960e-17 -4.113021813589740e-19 -1.274027861966164e+00
-4.113021813589740e-19  1.720496603085327e-17  4.994442533205249e-01
-1.274027861966164e+00  4.994442533205249e-01  1.569491164616189e-17

 1.810287088280103e-17 -6.996426663691965e-19 -1.467072155234704e+00
-6.996426663691965e-19  1.802593061987370e-17  5.544180342440541e-01
-1.467072155234704e+00  5.544180342440541e-01  2.681955510423864e-17

 6.371025020758023e-18 -2.757796717072537e-18 -9.833278367414343e-01
-2.757796717072537e-18  7.940607424675512e-19  1.159111998369748e+00
-9.833278367414343e-01  1.159111998369748e+00 -9.418872626983040e-19

 1.205368585515785e-17 -1.373590650962215e-18 -1.202622914778315e+00
-1.373590650962215e-18  1.149655555105995e-17  7.327930263188678e-01
-1.202622914778315e+00  7.327930263188678e-01  1.112782453661252e-17

 1.633951188281503e-17  2.324965443115186e-18 -1.414878967537478e+00
 2.324965443115186e-18  2.348358500646774e-17  1.879643369923293e-01
-1.414878967537478e+00  1.879643369923293e-01  1.910488900550584e-17

 9.893022053752660e-18  3.738687017803119e-19 -1.114557627196292e+00
 3.738687017803119e-19  1.243559641739768e-17  5.548486238425125e-01
-1.114557627196292e+00  5.548486238425125e-01  3.758995204637427e-18

 1.169530328235680e-17 -1.122725673736134e-19 -1.181441885009525e+00
-1.122725673736134e-19  1.178796675931205e-17  6.029328568453214e-01
-1.181441885009525e+00  6.029328568453214e-01  8.995059853359912e-18

 1.229499363394450e-17 -2.043378825093263e-19 -1.202490548394741e+00
-2.043378825093263e-19  1.306622366735782e-17  5.753882792645054e-01
-1.202490548394741e+00  5.753882792645054e-01  1.069547468580781e-17

 1.445874505048936e-17 -2.119096504889146e-19 -1.286606758661038e+00
-2.119096504889146e-19  1.676038487639205e-17  4.790997272505983e-01
-1.286606758661038e+00  4.790997272505983e-01  1.733851954763876e-17

 1.234457937357589e-17 -2.719226680505967e-19 -1.200964136373648e+00
-2.719226680505967e-19  1.246899103912722e-17  5.974020060452429e-01
-1.200964136373648e+00  5.974020060452429e-01  1.069775318272719e-17

 7.510837823303713e-18 -4.108106856377598e-19 -1.005705795234756e+00
-4.108106856377598e-19  5.398323422671328e-18  7.931144778042247e-01
-1.005705795234756e+00  7.931144778042247e-01 -3.865320178616980e-18

 1.271993326548324e-17 -1.373642421853425e-19 -1.215690825068627e+00
-1.373642421853425e-19  1.533455459991002e-17  5.132471615735020e-01
-1.215690825068627e+00  5.132471615735020e-01  1.215425001657908e-17

 1.490370826750209e-17 -1.841799727453566e-19 -1.301924317132189e+00
-1.841799727453566e-19  2.032839713279881e-17  3.875709644622110e-01
-1.301924317132189e+00  3.875709644622110e-01  1.886088340289330e-17

 9.776125125521945e-18 -1.234943530089492e-19 -1.108494892391318e+00
-1.234943530089492e-19  1.182157719816905e-17  6.273461387181751e-01
-1.108494892391318e+00  6.273461387181751e-01  3.008517271992380e-18

 1.259080182590590e-17 -3.954062747492800e-19 -1.233047350056739e+00
-3.954062747492800e-19  1.526438124948378e-17  5.787146718457143e-01
-1.233047350056739e+00  5.787146718457143e-01  1.085712973672749e-17

 1.549021873977006e-17 -5.991627307277058e-19 -1.381693677280951e+00
-5.991627307277058e-19  1.859059849708047e-17  5.673101791625196e-01
-1.381693677280951e+00  5.673101791625196e-01  1.835293127230816e-17

 2.028776081770917e-17 -5.526742429486372e-19 -1.622808339288430e+00
-5.526742429486372e-19  1.997637989034900e-17  6.353602332385573e-01
-1.622808339288430e+00  6.353602332385573e-01  3.242961830202938e-17

 9.084463661182537e-18 -2.500018074041403e-18 -1.058770561322265e+00
-2.500018074041403e-18  5.739859046742170e-18  1.116141548364552e+00
-1.058770561322265e+00  1.116141548364552e+00  1.232059995858176e-17

 1.516234087575099e-17 -2.175613496866477e-19 -1.375107465428277e+00
-2.175613496866477e-19  1.723822751055651e-17  6.485738401660740e-01
-1.375107465428277e+00  6.485738401660740e-01  2.052849627413848e-17

 1.892950932221369e-17  2.973271379933648e-18 -1.573069190860525e+00
 2.973271379933648e-18  2.692972493916211e-17  1.531892318930861e-01
-1.573069190860525e+00  1.531892318930861e-01  2.360732922163921e-17

 1.053811049397976e-17  7.680918070481314e-19 -1.190495545131076e+00
 7.680918070481314e-19  1.360328591401089e-17  6.090980999539010e-01
-1.190495545131076e+00  6.090980999539010e-01  5.327964479093320e-18

 1.261384082974701e-17  4.056400386678063e-20 -1.261939099635065e+00
 4.056400386678063e-20  1.147631541082345e-17  6.985314428452680e-01
-1.261939099635065e+00  6.985314428452680e-01  1.097231909915344e-17

 1.496914421055237e-17 -2.292806293551648e-21 -1.329843064234407e+00
-2.292806293551648e-21  1.714393990569458e-17  5.151314727708785e-01
-1.329843064234407e+00  5.151314727708785e-01  1.768030782631052e-17

 1.705665447122791e-17 -3.437112562468391e-20 -1.399433494106812e+00
-3.437112562468391e-20  2.038261940358455e-17  4.198849791101491e-01
-1.399433494106812e+00  4.198849791101491e-01  2.392658296147681e-17

 1.117193181565333e-17  9.798646606380920e-20 -1.175224255162430e+00
 9.798646606380920e-20  1.040384047204575e-17  6.796717071575282e-01
-1.175224255162430e+00  6.796717071575282e-01  6.779351469970808e-18

 7.606912214478931e-18 -1.087002594537444e-19 -1.025217670987656e+00
-1.087002594537444e-19  4.807733657267020e-18  8.327590793743748e-01
-1.025217670987656e+00  8.327590793743748e-01 -3.584779416503073e-18

 1.311545698418924e-17  1.680290945826266e-19 -1.226099379156336e+00
 1.680290945826266e-19  1.535104446434211e-17  5.190134379588790e-01
-1.226099379156336e+00  5.190134379588790e-01  1.238018977752224e-17

 1.576513599502601e-17  1.808389528866000e-20 -1.294242314226608e+00
 1.808389528866000e-20  2.103248278773667e-17  3.616079485463658e-01
-1.294242314226608e+00  3.616079485463658e-01  1.859659956050498e-17

-1.117785174340016e-17  2.584026687771200e-18 -1.103779475745834e+00
 2.584026687771200e-18  1.250176124335285e-17  5.873313254035075e-01
-1.103779475745834e+00  5.873313254035075e-01  3.705061326190627e-18

 5.734963693405595e-17 -5.387272844683329e-18 -1.188428953028941e+00
-5.387272844683329e-18  1.530161013878311e-17  5.619722048611162e-01
-1.188428953028941e+00  5.619722048611162e-01  9.160984868505545e-18

 6.175005349509771e-17 -5.574393829520798e-18 -1.409064227072945e+00
-5.574393829520798e-18  1.968938040671636e-17  5.297765707905719e-01
-1.409064227072945e+00  5.297765707905719e-01  2.167643469673568e-17

 1.052725663044838e-17 -2.431520026670357e-18 -1.092899676504136e+00
-2.431520026670357e-18  3.090693120528091e-18  1.140895621100040e+00
-1.092899676504136e+00  1.140895621100040e+00  3.417858327285747e-18

 1.413020159050293e-17 -1.148330129818990e-18 -1.287412456564797e+00
-1.148330129818990e-18  1.372848637542850e-17  7.143607485522608e-01
-1.287412456564797e+00  7.143607485522608e-01  1.525461010251919e-17

 1.806192611445274e-17  2.500796226866951e-18 -1.476339229548658e+00
 2.500796226866951e-18  2.538472974108270e-17  1.677025104755616e-01
-1.476339229548658e+00  1.677025104755616e-01  2.282160360684722e-17

 1.146969685740793e-17  3.434213149375126e-19 -1.125694754528118e+00
 3.434213149375126e-19  1.361639903734144e-17  5.424763911038386e-01
-1.125694754528118e+00  5.424763911038386e-01  4.152447641854641e-18

 1.691482833236450e-17 -1.008729617570823e-18 -1.178669956379127e+00
-1.008729617570823e-18  1.323837982522947e-17  5.773215163866257e-01
-1.178669956379127e+00  5.773215163866257e-01  9.112910610980392e-18

 1.885952464296129e-17 -1.269638071648433e-18 -1.205917591159083e+00
-1.269638071648433e-18  1.422984000291469e-17  5.506586720446125e-01
-1.205917591159083e+00  5.506586720446125e-01  1.143225588946430e-17

 6.896648007881489e-17 -1.192707235321162e-17 -1.277075786610588e+00
-1.192707235321162e-17  1.935194014758949e-17  4.750616487519866e-01
-1.277075786610588e+00  4.750616487519866e-01  1.718036881488953e-17

-3.752911845899689e-17  1.008340803529182e-17 -1.184730202928038e+00
 1.008340803529182e-17  1.039357743263295e-17  5.871820842838825e-01
-1.184730202928038e+00  5.871820842838825e-01  1.029903785035601e-17

-1.618052313049312e-16  3.813225373808801e-17 -1.007039249844626e+00
 3.813225373808801e-17 -2.245077392096265e-18  7.479607070712665e-01
-1.007039249844626e+00  7.479607070712665e-01 -2.300103870298485e-18

 2.995154854155017e-17 -3.904849505102731e-18 -1.194270481854954e+00
-3.904849505102731e-18  1.704778240998874e-17  4.609270354368745e-01
-1.194270481854954e+00  4.609270354368745e-01  1.241694156540919e-17

 2.919706721466865e-17 -3.262502385157533e-18 -1.254357519260668e+00
-3.262502385157533e-18  2.121820797844415e-17  3.420763347532518e-01
-1.254357519260668e+00  3.420763347532518e-01  1.775133204822407e-17

 4.732354147690141e-17 -4.429739068015916e-18 -1.045823273909202e+00
-4.429739068015916e-18  1.241662797253074e-17  5.705753052242915e-01
-1.045823273909202e+00  5.705753052242915e-01  1.680031971260313e-18

-2.019034123049456e-17  4.504653201717834e-18 -1.150174373167776e+00
 4.504653201717834e-18  1.454543622896534e-17  5.096074791580135e-01
-1.150174373167776e+00  5.096074791580135e-01  9.141253799504841e-18

 2.837269908623323e-17 -2.191469881424162e-18 -1.264216331481614e+00
-2.191469881424162e-18  1.840699205468935e-17  4.806600480377709e-01
-1.264216331481614e+00  4.806600480377709e-01  1.574377488046841e-17

 3.269612450209871e-17 -2.253736600196772e-18 -1.470583571550468e+00
-2.253736600196772e-18  1.930848806185136e-17  5.309176903780954e-01
-1.470583571550468e+00  5.309176903780954e-01  2.779873944348086e-17

 1.002104580544150e-17 -3.413537230855901e-18 -1.055552819943746e+00
-3.413537230855901e-18  5.477926596690018e-18  1.056703177251860e+00
-1.055552819943746e+00  1.056703177251860e+00  7.896030887180345e-18

 1.471499672301108e-17 -4.074374125197705e-19 -1.258893389953271e+00
-4.074374125197705e-19  1.616605702806902e-17  5.445643538231276e-01
-1.258893389953271e+00  5.445643538231276e-01  1.524951646031772e-17

 1.799310151618624e-17  3.151869224447370e-18 -1.434998818859699e+00
 3.151869224447370e-18  2.609740190738962e-17  6.592164891822300e-02
-1.434998818859699e+00  6.592164891822300e-02  1.963341723645365e-17

 9.132977583164835e-18  8.512568131811800e-19 -1.036491678389880e+00
 8.512568131811800e-19  1.244529111579661e-17  5.172556442288671e-01
-1.036491678389880e+00  5.172556442288671e-01 -2.032116839879441e-19

 1.154186014463833e-17  5.539382944091283e-20 -1.122944031631876e+00
 5.539382944091283e-20  1.080494108442139e-17  6.061851551800125e-01
-1.122944031631876e+00  6.061851551800125e-01  6.677383353811846e-18

 1.220377536912318e-17 -1.649448199756235e-19 -1.144727739870579e+00
-1.649448199756235e-19  1.264265996368605e-17  5.658899128837264e-01
-1.144727739870579e+00  5.658899128837264e-01  8.665582071504923e-18

 1.488612513126162e-17 -1.475995262595769e-19 -1.250253231052685e+00
-1.475995262595769e-19  1.776208713948228e-17  4.271890573645437e-01
-1.250253231052685e+00  4.271890573645437e-01  1.707784865867287e-17

 1.293293943887994e-17 -1.877388567509075e-19 -1.171027700615125e+00
-1.877388567509075e-19  1.356894061531293e-17  5.384129728943433e-01
-1.171027700615125e+00  5.384129728943433e-01  1.095387282599383e-17

 7.060102427990388e-18 -2.285173030885121e-19 -9.360641049954591e-01
-2.285173030885121e-19  4.727887326877982e-18  7.736858817946533e-01
-9.360641049954591e-01  7.736858817946533e-01 -6.796132071269324e-18

 1.266012859114579e-17 -3.915326226054726e-20 -1.157911864108655e+00
-3.915326226054726e-20  1.483038549382952e-17  4.921675965305535e-01
-1.157911864108655e+00  4.921675965305535e-01  1.033212936323434e-17

 1.520302636166454e-17 -7.544244185771231e-20 -1.255978920133301e+00
-7.544244185771231e-20  2.045413367825484e-17  3.461622386970364e-01
-1.255978920133301e+00  3.461622386970364e-01  1.818782682550596e-17

 1.002425282675780e-17  3.579572171461095e-20 -1.055498004648201e+00
 3.579572171461095e-20  1.207723668482146e-17  5.695664097075656e-01
-1.055498004648201e+00  5.695664097075656e-01  2.274388186604568e-18

 1.262524996361666e-17 -1.960002719909084e-19 -1.162952381130781e+00
-1.960002719909084e-19  1.543637538021291e-17  5.092273957362105e-01
-1.162952381130781e+00  5.092273957362105e-01  9.665369372855010e-18

 1.520658266190317e-17 -3.795093776687778e-19 -1.281011683247028e+00
-3.795093776687778e-19  1.851190729972677e-17  4.782523583746336e-01
-1.281011683247028e+00  4.782523583746336e-01  1.637973555494270e-17

 1.948776528470301e-17 -5.220966033430032e-19 -1.484980404925326e+00
-5.220966033430032e-19  1.935492543507991e-17  5.347328806841347e-01
-1.484980404925326e+00  5.347328806841347e-01  2.838755064068438e-17

 9.422224045735767e-18 -3.425358113091427e-18 -1.041768098367552e+00
-3.425358113091427e-18  5.177161622475916e-18  1.074813319927257e+00
-1.041768098367552e+00  1.074813319927257e+00  6.746607947526082e-18

 1.456904034706790e-17 -3.822390174731720e-19 -1.259345778907895e+00
-3.822390174731720e-19  1.628380387267565e-17  5.435417166612334e-01
-1.259345778907895e+00  5.435417166612334e-01  1.494677634976613e-17

 1.786817999625055e-17  3.067334265510624e-18 -1.423319899834924e+00
 3.067334265510624e-18  2.627170522665608e-17  6.212032910634487e-02
-1.423319899834924e+00  6.212032910634487e-02  1.890307647971263e-17

 9.610936435163661e-18  8.462121083352383e-19 -1.047098119649483e+00
 8.462121083352383e-19  1.300049808010562e-17  5.020358844739145e-01
-1.047098119649483e+00  5.020358844739145e-01  5.026987985791876e-19

 1.213190762163492e-17  2.028847191187632e-19 -1.142913421390296e+00
 2.028847191187632e-19  1.153044156671781e-17  5.816091984818844e-01
-1.142913421390296e+00  5.816091984818844e-01  7.930288131077034e-18

 1.237629419376851e-17 -5.401586582130064e-20 -1.141977541303377e+00
-5.401586582130064e-20  1.229206253515870e-17  5.689815342753950e-01
-1.141977541303377e+00  5.689815342753950e-01  8.504238798434304e-18

 1.595426230828673e-17 -2.790381862878561e-20 -1.278915564840617e+00
-2.790381862878561e-20  1.870332072192995e-17  3.916266078851970e-01
-1.278915564840617e+00  3.916266078851970e-01  1.967965595713743e-17

 1.393167873570940e-17 -1.026393472001668e-19 -1.191375107872999e+00
-1.026393472001668e-19  1.478575068976632e-17  4.917203046878321e-01
-1.191375107872999e+00  4.917203046878321e-01  1.353918997563189e-17

 8.747882601124298e-18 -3.023552337766741e-19 -9.735339684920363e-01
-3.023552337766741e-19  6.785030825781139e-18  7.019469859015751e-01
-9.735339684920363e-01  7.019469859015751e-01 -1.923683460337342e-18

 1.392726694180448e-17  2.196761764420151e-19 -1.177497759063731e+00
 2.196761764420151e-19  1.743835355615490e-17  3.845772546530518e-01
-1.177497759063731e+00  3.845772546530518e-01  1.414905887728554e-17

 1.490665137252836e-17  1.469445628827543e-19 -1.207044524195436e+00
 1.469445628827543e-19  2.047185407552913e-17  3.014000670924297e-01
-1.207044524195436e+00  3.014000670924297e-01  1.750797909533319e-17

 9.384266262848433e-18  3.356357412431020e-19 -9.869889389719879e-01
 3.356357412431020e-19  9.614129320506764e-18  5.784913559848252e-01
-9.869889389719879e-01  5.784913559848252e-01  4.322659845395336e-19

 1.144167276105101e-17  1.959312459449724e-19 -1.065793985794651e+00
 1.959312459449724e-19  1.177282996720962e-17  5.303736548123997e-01
-1.065793985794651e+00  5.303736548123997e-01  6.531938927323249e-18

 1.261222886918660e-17  6.673037096831519e-20 -1.106914343132765e+00
 6.673037096831519e-20  1.517341994870842e-17  4.468945117239283e-01
-1.106914343132765e+00  4.468945117239283e-01  1.032001631705421e-17

 1.305190656952070e-17 -4.680660728800373e-20 -1.126469279479257e+00
-4.680660728800373e-20  1.644408558221052e-17  4.254187424976081e-01
-1.126469279479257e+00  4.254187424976081e-01  1.150814105051072e-17

 1.517221676039362e-17  1.738311734093282e-20 -1.226338479521514e+00
 1.738311734093282e-20  1.641434413136484e-17  4.459062303367116e-01
-1.226338479521514e+00  4.459062303367116e-01  1.690835914169921e-17

 1.597017147770613e-17 -4.525688068957880e-19 -1.253646840948113e+00
-4.525688068957880e-19  1.422857719274516e-17  5.279130807349944e-01
-1.253646840948113e+00  5.279130807349944e-01  1.901407853712799e-17

 1.441816507170654e-17 -1.157806275362321e-18 -1.174895855174937e+00
-1.157806275362321e-18  1.141914951435505e-17  6.247894764238098e-01
-1.174895855174937e+00  6.247894764238098e-01  1.496952976168171e-17

 1.316744357410435e-17 -1.707743830152124e-18 -1.091944541982376e+00
-1.707743830152124e-18  1.262979093635607e-17  5.748667207099103e-01
-1.091944541982376e+00  5.748667207099103e-01  1.412653553562904e-17

 2.442901283011623e-19 -1.934592551716065e-18 -5.352023635657488e-01
-1.934592551716065e-18  2.937214798391860e-18  7.793160618995922e-01
-5.352023635657488e-01  7.793160618995922e-01 -1.873656950449872e-17

 1.065394070308706e-17  2.293214187338680e-18 -1.023741302511392e+00
 2.293214187338680e-18  1.855245620479441e-17  1.656684505401838e-01
-1.023741302511392e+00  1.656684505401838e-01  2.728055469357744e-18

 1.006319467219750e-17 -1.918994991040852e-19 -9.383470474226318e-01
-1.918994991040852e-19  2.037874074802869e-17  2.039817576741438e-01
-9.383470474226318e-01  2.039817576741438e-01  1.443701998938274e-18

 1.079287233123627e-17 -4.629798616696364e-20 -9.999304575261889e-01
-4.629798616696364e-20  1.269857046136242e-17  4.395812663885456e-01
-9.999304575261889e-01  4.395812663885456e-01  6.405595608854932e-18

 5.466994634722054e-18  2.070966987963021e-18 -8.483843926986913e-01
 2.070966987963021e-18  2.747649078780781e-18  6.386798437824299e-01
-8.483843926986913e-01  6.386798437824299e-01 -7.193973245184865e-18

 9.100664520202995e-18  1.480701968034917e-18 -9.991922074301172e-01
 1.480701968034917e-18  4.210641239389855e-18  6.540482595374182e-01
-9.991922074301172e-01  6.540482595374182e-01  9.661262551046946e-19

 1.357587097242138e-17 -6.604747489135173e-20 -1.147077057578764e+00
-6.604747489135173e-20  1.568412212963825e-17  4.231129549522135e-01
-1.147077057578764e+00  4.231129549522135e-01  1.282834155546570e-17

 1.314265276382203e-17 -5.941586501626226e-20 -1.129463479151163e+00
-5.941586501626226e-20  1.396547728055376e-17  4.710561071953872e-01
-1.129463479151163e+00  4.710561071953872e-01  1.110364365262624e-17

 1.339050235473303e-17 -9.725985251215288e-20 -1.134903005861066e+00
-9.725985251215288e-20  1.390540283707723e-17  4.711955079890823e-01
-1.134903005861066e+00  4.711955079890823e-01  1.186512135643490e-17

 1.203222288100927e-17 -2.026863169050271e-19 -1.069617084931149e+00
-2.026863169050271e-19  1.260044921303004e-17  4.977664857170571e-01
-1.069617084931149e+00  4.977664857170571e-01  8.168042480231818e-18

 1.389187326416664e-17  5.976408498333757e-20 -1.139527879818687e+00
 5.976408498333757e-20  1.788768249893853e-17  3.348336096959056e-01
-1.139527879818687e+00  3.348336096959056e-01  1.442278263511182e-17

 1.197527569374032e-17 -6.660785158687900e-20 -1.055564968646351e+00
-6.660785158687900e-20  1.282144816585062e-17  4.644649500003806e-01
-1.055564968646351e+00  4.644649500003806e-01  8.510082718149727e-18

 1.004426118924061e-17 -3.187933110364872e-19 -9.673851368694262e-01
-3.187933110364872e-19  8.495544606313505e-18  5.744619473159829e-01
-9.673851368694262e-01  5.744619473159829e-01  2.899403126068037e-18

 8.464706057995969e-18 -1.139777448081925e-19 -8.933857568339280e-01
-1.139777448081925e-19  1.182422230973089e-17  4.566397116958029e-01
-8.933857568339280e-01  4.566397116958029e-01 -6.724587434909858e-19

 1.813611922169097e-17 -4.376886773061538e-19 -1.269498209402092e+00
-4.376886773061538e-19  2.653342862513593e-17  8.496036041867845e-02
-1.269498209402092e+00  8.496036041867845e-02  2.729879706954579e-17

 1.147252391459233e-17 -2.567700831783096e-19 -1.007624838433611e+00
-2.567700831783096e-19  1.548889856430093e-17  3.650870474002850e-01
-1.007624838433611e+00  3.650870474002850e-01  8.032869324832432e-18

 9.154745660493561e-18  5.429873056236036e-19 -9.381250878537171e-01
 5.429873056236036e-19  9.518309112234466e-18  4.990712255364210e-01
-9.381250878537171e-01  4.990712255364210e-01  9.151997829385341e-19

 1.525433973765780e-17 -1.102332225016525e-19 -1.169464704469396e+00
-1.102332225016525e-19  1.906878615773421e-17  2.870381570738545e-01
-1.169464704469396e+00  2.870381570738545e-01  1.853834051961571e-17

 1.382548169749863e-17 -2.335670818518944e-19 -1.112077893538648e+00
-2.335670818518944e-19  1.673842418398554e-17  3.638477874460277e-01
-1.112077893538648e+00  3.638477874460277e-01  1.359929668927037e-17

 1.329732817520156e-17  2.642144891971255e-19 -1.109693741391062e+00
 2.642144891971255e-19  8.871038911178938e-18  5.728432214877559e-01
-1.109693741391062e+00  5.728432214877559e-01  1.173675752321479e-17

 4.601449248143799e-18 -1.400257260566157e-18 -7.194667647754112e-01
-1.400257260566157e-18 -2.384449213185247e-18  9.312415484341222e-01
-7.194667647754112e-01  9.312415484341222e-01 -1.097057961102363e-17

 1.329523572256145e-17 -7.856012508585948e-19 -1.065961541859620e+00
-7.856012508585948e-19  1.053112899923401e-17  5.461265931020113e-01
-1.065961541859620e+00  5.461265931020113e-01  1.260653620920699e-17

 1.961412827147678e-17  1.102558416926564e-18 -1.354317382027358e+00
 1.102558416926564e-18  2.144712110259588e-17  1.728441746612541e-01
-1.354317382027358e+00  1.728441746612541e-01  2.980127910802984e-17

 1.452954273247043e-17  1.218317954762941e-18 -1.135410945335321e+00
 1.218317954762941e-18  1.767849417395500e-17  2.402361929640236e-01
-1.135410945335321e+00  2.402361929640236e-01  1.603427948663086e-17

 7.120586889009669e-18  2.837743143431334e-19 -7.912573609727134e-01
 2.837743143431334e-19  9.574640879872881e-18  4.517406187570305e-01
-7.912573609727134e-01  4.517406187570305e-01 -4.117715334286766e-18

 6.786128301019218e-18  4.174797752507815e-19 -7.824990794129300e-01
 4.174797752507815e-19  1.239098919991449e-17  3.644946562457120e-01
-7.824990794129300e-01  3.644946562457120e-01 -3.482856430507612e-18

 1.496975434205553e-17 -1.666971666424652e-19 -1.096058995532994e+00
-1.666971666424652e-19  2.388599809032048e-17  9.033165185260533e-02
-1.096058995532994e+00  9.033165185260533e-02  1.974687220034197e-17

 7.869834163003236e-18 -3.265276310461943e-19 -7.986645093013063e-01
-3.265276310461943e-19  1.264136146158491e-17  3.810948778851181e-01
-7.986645093013063e-01  3.810948778851181e-01 -8.743153686036239e-19

 6.468971669919078e-18  1.438682420853579e-19 -7.329384685567617e-01
 1.438682420853579e-19  6.920970621534188e-18  5.089201464584290e-01
-7.329384685567617e-01  5.089201464584290e-01 -7.016564570954357e-18

 1.189535086404505e-17  2.837406325882463e-19 -1.015337318818987e+00
 2.837406325882463e-19  1.442033436994089e-17  3.403912125336844e-01
-1.015337318818987e+00  3.403912125336844e-01  1.294065453444577e-17

 8.773056167874121e-18  7.161764328112149e-19 -9.105228085542142e-01
 7.161764328112149e-19  8.895763789034285e-18  4.799619151584563e-01
-9.105228085542142e-01  4.799619151584563e-01  3.157789991984906e-18

 2.392397350697724e-18  2.531465382718409e-18 -9.891608753249377e-01
 2.531465382718409e-18  1.239814557049198e-17  4.073405333984115e-01
-9.891608753249377e-01  4.073405333984115e-01  8.401878611328801e-18

-9.307640726218075e-17  2.906625211112988e-17 -1.008290006610364e+00
 2.906625211112988e-17  5.353212361299695e-18  4.074831713245669e-01
-1.008290006610364e+00  4.074831713245669e-01  9.055229305276709e-18

-2.293784140771029e-16  6.691539294805639e-17 -1.006349646423863e+00
 6.691539294805639e-17 -5.372325494287760e-18  4.180504810459825e-01
-1.006349646423863e+00  4.180504810459825e-01  8.395158148193652e-18

-1.061894107564324e-16  3.273605419905109e-17 -1.006009503322115e+00
 3.273605419905109e-17  4.204411236255644e-18  4.182909019395479e-01
-1.006009503322115e+00  4.182909019395479e-01  8.044622242335410e-18

-7.861987912904715e-18  5.622767373222824e-18 -1.044307398378627e+00
 5.622767373222824e-18  1.276053590363306e-17  3.970911339550259e-01
-1.044307398378627e+00  3.970911339550259e-01  1.050322827078659e-17

 1.321370464634054e-17 -7.334628602945835e-19 -9.814804261311405e-01
-7.334628602945835e-19  1.133725824965345e-17  4.792215860024346e-01
-9.814804261311405e-01  4.792215860024346e-01  5.774015245517006e-18

 1.255334438740104e-17  7.162485302600585e-20 -1.044264184039998e+00
 7.162485302600585e-20  1.579716230754083e-17  3.470682196560572e-01
-1.044264184039998e+00  3.470682196560572e-01  1.108916130792997e-17

 1.315122365740472e-17 -5.233270050711866e-20 -1.059088782399667e+00
-5.233270050711866e-20  1.708270769642401e-17  3.143864430559528e-01
-1.059088782399667e+00  3.143864430559528e-01  1.269920991826638e-17

 1.012015370596518e-17 -1.566183696257525e-19 -9.368886468101282e-01
-1.566183696257525e-19  8.845390163841276e-18  5.288417484113755e-01
-9.368886468101282e-01  5.288417484113755e-01  3.478438711008199e-18

 8.404869505059983e-18 -5.571005167812378e-19 -8.519367406150561e-01
-5.571005167812378e-19  1.154207935542760e-17  4.598856822651057e-01
-8.519367406150561e-01  4.598856822651057e-01 -6.462270559560469e-19

 1.838165929143391e-17 -2.482659782319964e-18 -1.207159268376505e+00
-2.482659782319964e-18  2.772302284699198e-17  1.182523668090888e-01
-1.207159268376505e+00  1.182523668090888e-01  2.379567921357537e-17

 1.063710389484690e-17 -2.231177419573230e-20 -9.619676867390786e-01
-2.231177419573230e-20  1.320407036086881e-17  4.191655358278001e-01
-9.619676867390786e-01  4.191655358278001e-01  5.495148544198149e-18

 8.910624929756513e-18  2.198461714144973e-18 -9.629025946071760e-01
 2.198461714144973e-18  4.602168368822382e-18  5.952994706947015e-01
-9.629025946071760e-01  5.952994706947015e-01  2.286550132460537e-18

 1.256463755299814e-17  1.999065190002996e-19 -1.059113623906844e+00
 1.999065190002996e-19  1.589846929855205e-17  3.681205376285850e-01
-1.059113623906844e+00  3.681205376285850e-01  1.064097764985371e-17

 1.152912681783255e-17 -9.367474652527231e-20 -1.009801938201837e+00
-9.367474652527231e-20  1.527893237389961e-17  3.933527688801991e-01
-1.009801938201837e+00  3.933527688801991e-01  7.734442536850560e-18

 1.246693240755712e-17 -1.760163135169123e-20 -1.057706296809948e+00
-1.760163135169123e-20  1.470938349672291e-17  4.212870520782087e-01
-1.057706296809948e+00  4.212870520782087e-01  9.913733722349633e-18

 1.176628329138399e-17 -6.370147449793774e-20 -1.036046517720688e+00
-6.370147449793774e-20  1.286835350948859e-17  4.826400805165351e-01
-1.036046517720688e+00  4.826400805165351e-01  7.440461037814721e-18

 1.338060761776854e-17 -1.832721918639653e-19 -1.100108141042598e+00
-1.832721918639653e-19  1.750642643287316e-17  3.701381534710589e-01
-1.100108141042598e+00  3.701381534710589e-01  1.251975238160261e-17

 1.204716681765769e-17  4.031396161234476e-20 -1.059524787369190e+00
 4.031396161234476e-20  1.332074139605790e-17  4.822820227380404e-01
-1.059524787369190e+00  4.822820227380404e-01  7.955223844225698e-18

 9.300433741167251e-18 -4.962410902619967e-20 -9.535685278276522e-01
-4.962410902619967e-20  7.681993050509466e-18  6.390531945931864e-01
-9.535685278276522e-01  6.390531945931864e-01 -5.544574214895348e-19

 1.553368180000607e-17 -2.124730798216324e-20 -1.202034127954548e+00
-2.124730798216324e-20  1.768632337991098e-17  3.754528683850410e-01
-1.202034127954548e+00  3.754528683850410e-01  1.815858095957800e-17

 1.484567855804040e-17 -7.397236281903859e-20 -1.167122268077781e+00
-7.397236281903859e-20  1.936436343650647e-17  3.190535243219285e-01
-1.167122268077781e+00  3.190535243219285e-01  1.680469281998664e-17

 1.177089260178116e-17 -5.426582858253225e-19 -1.033036233880748e+00
-5.426582858253225e-19  1.207650270530416e-17  5.181667567995375e-01
-1.033036233880748e+00  5.181667567995375e-01  7.829327441152582e-18

 1.101576224192668e-17 -1.602671821496739e-19 -1.003736085585332e+00
-1.602671821496739e-19  1.289744894920152e-17  4.603722673807839e-01
-1.003736085585332e+00  4.603722673807839e-01  6.500399674355631e-18

 1.182509008807633e-17  7.530371915487156e-19 -1.077005723970886e+00
 7.530371915487156e-19  1.906629665072020e-17  2.555415686897535e-01
-1.077005723970886e+00  2.555415686897535e-01  1.229879183018813e-17

 1.314941969883427e-17 -7.231763240212426e-19 -9.633018659031719e-01
-7.231763240212426e-19  1.150417061171651e-17  4.727746988363518e-01
-9.633018659031719e-01  4.727746988363518e-01  4.607379262657911e-18

 5.234323283791792e-17 -1.043441890353461e-17 -9.919554515780983e-01
-1.043441890353461e-17  1.403576371846774e-17  4.725290039666117e-01
-9.919554515780983e-01  4.725290039666117e-01  7.274687645159701e-18

-3.000118314588253e-17  9.956673054779817e-18 -9.487300541026371e-01
 9.956673054779817e-18  9.303410285671943e-18  4.468076062141792e-01
-9.487300541026371e-01  4.468076062141792e-01  4.962378756986724e-18

-2.446622999254126e-17 -5.804353180478694e-20  1.033242726004528e+00
-5.804353180478694e-20 -1.330945915120703e-17  3.854755350061091e-01
 1.033242726004528e+00  3.854755350061091e-01 -3.586680533485388e-17

-2.606969165962290e-17 -2.820186581953596e-19  1.047684585880394e+00
-2.820186581953596e-19 -1.168603206464315e-17  6.131383311966031e-01
 1.047684585880394e+00  6.131383311966031e-01 -3.795753341709766e-17

-2.303579296125845e-17 -8.430121924592680e-19  9.749253801505134e-01
-8.430121924592680e-19 -1.443060771510282e-17  2.824597955727762e-01
 9.749253801505134e-01  2.824597955727762e-01 -3.387394362522628e-17

-2.355110218843489e-17 -6.419723089415498e-19  1.054102628159866e+00
-6.419723089415498e-19 -1.538468310759622e-17  1.894883253738884e-01
 1.054102628159866e+00  1.894883253738884e-01 -3.641757601833614e-17

-2.056204987174416e-17 -2.508833475706878e-19  7.835280258493663e-01
-2.508833475706878e-19 -8.637830891620835e-18  5.190719640571817e-01
 7.835280258493663e-01  5.190719640571817e-01 -2.686630629206402e-17

-1.875976364981257e-17  2.182772549624517e-19  6.483821990111697e-01
 2.182772549624517e-19 -5.802356869813476e-18  6.195049538409223e-01
 6.483821990111697e-01  6.195049538409223e-01 -2.183073650550394e-17

-2.197440883851600e-17 -3.928029351158097e-19  9.586640104800123e-01
-3.928029351158097e-19 -1.342952066082856e-17  2.330295792500871e-01
 9.586640104800123e-01  2.330295792500871e-01 -3.272353708345091e-17

-2.166547379525825e-17 -1.476038234422330e-19  9.474532920263697e-01
-1.476038234422330e-19 -1.344832724381131e-17  2.108224109341441e-01
 9.474532920263697e-01  2.108224109341441e-01 -3.189576510240793e-17

-2.136864435535267e-17 -4.071173103910436e-19  8.451534057669169e-01
-4.071173103910436e-19 -9.896421285520330e-18  4.705702685909846e-01
 8.451534057669169e-01  4.705702685909846e-01 -2.944659849929550e-17

-2.244707451652912e-17 -2.949839307871771e-19  9.212176717524008e-01
-2.949839307871771e-19 -1.108203484896033e-17  4.247799027659862e-01
 9.212176717524008e-01  4.247799027659862e-01 -3.190701340394899e-17

-2.300698371217149e-17 -1.981757406440452e-19  9.535922798401640e-01
-1.981757406440452e-19 -1.199902119382924e-17  3.976253621546768e-01
 9.535922798401640e-01  3.976253621546768e-01 -3.289796205236499e-17

-2.375217056401018e-17 -2.747347841468652e-19  9.731900912163465e-01
-2.747347841468652e-19 -1.182938081120212e-17  4.514292024895191e-01
 9.731900912163465e-01  4.514292024895191e-01 -3.387684604739400e-17

-2.400038518761593e-17 -2.006636495491947e-19  9.925348582605412e-01
-2.006636495491947e-19 -1.258132780707422e-17  4.230306749459562e-01
 9.925348582605412e-01  4.230306749459562e-01 -3.443042848352223e-17

-2.437907570488443e-17 -1.914400669304921e-19  1.018570998537430e+00
-1.914400669304921e-19 -1.380299823963616e-17  3.751731032324011e-01
 1.018570998537430e+00  3.751731032324011e-01 -3.525276645189102e-17

-2.604330093523913e-17 -1.531963519740162e-19  1.132364345890186e+00
-1.531963519740162e-19 -1.501727387768909e-17  3.447490777324697e-01
 1.132364345890186e+00  3.447490777324697e-01 -3.933206607920915e-17

-2.436415864149247e-17  6.846353255744813e-20  9.723481442612777e-01
 6.846353255744813e-20 -1.112469114226463e-17  5.434554562098894e-01
 9.723481442612777e-01  5.434554562098894e-01 -3.366718720585505e-17

-2.376644418538964e-17 -1.237605684046373e-19  9.728410370419339e-01
-1.237605684046373e-19 -1.222231578375906e-17  4.406717234008507e-01
 9.728410370419339e-01  4.406717234008507e-01 -3.342759122571264e-17

-2.373973024415110e-17 -5.206286717142658e-19  1.031112410447172e+00
-5.206286717142658e-19 -1.569906584427228e-17  2.209541862047913e-01
 1.031112410447172e+00  2.209541862047913e-01 -3.504971345173943e-17

-2.390982999239114e-17  2.199091889417791e-19  1.076659903107729e+00
 2.199091889417791e-19 -1.545875781454772e-17  1.786293566258224e-01
 1.076659903107729e+00  1.786293566258224e-01 -3.509975030813923e-17

-2.280012619792095e-17 -4.676600109566318e-19  8.842784376177398e-01
-4.676600109566318e-19 -1.097420516739807e-17  5.149108835120159e-01
 8.842784376177398e-01  5.149108835120159e-01 -3.074597234290506e-17

-2.255284885966563e-17 -9.190859887946302e-19  7.932291759448632e-01
-9.190859887946302e-19 -8.508754317366406e-18  7.305025298216404e-01
 7.932291759448632e-01  7.305025298216404e-01 -2.914159984272552e-17

-2.429943117357499e-17 -4.452814460393531e-19  9.951256481082047e-01
-4.452814460393531e-19 -1.277954617866654e-17  4.512271016372592e-01
 9.951256481082047e-01  4.512271016372592e-01 -3.445245591533225e-17

-2.613834129826887e-17 -3.889245322172585e-19  1.181704209314032e+00
-3.889245322172585e-19 -1.649100914720599e-17  2.373379929379552e-01
 1.181704209314032e+00  2.373379929379552e-01 -4.074548264938667e-17

-2.521119843573439e-17 -4.145799784765786e-19  1.092709294690727e+00
-4.145799784765786e-19 -1.473339268581327e-17  3.358727520659432e-01
 1.092709294690727e+00  3.358727520659432e-01 -3.761811181200455e-17

-2.365938868032930e-17 -5.241710453759152e-19  9.266771109919041e-01
-5.241710453759152e-19 -1.113635108114743e-17  5.511004896756722e-01
 9.266771109919041e-01  5.511004896756722e-01 -3.203436823059592e-17

-2.480207287123965e-17 -4.894220540873707e-19  1.044916185345214e+00
-4.894220540873707e-19 -1.338027726093004e-17  4.192792464032179e-01
 1.044916185345214e+00  4.192792464032179e-01 -3.602489634559954e-17

-2.415945405119006e-17 -4.869217125244231e-19  1.007961150785654e+00
-4.869217125244231e-19 -1.341062787922561e-17  4.068677388585650e-01
 1.007961150785654e+00  4.068677388585650e-01 -3.461121875635371e-17

-2.381660036604641e-17 -4.857824904480508e-19  9.879261856555519e-01
-4.857824904480508e-19 -1.326610917946625e-17  4.090555383567249e-01
 9.879261856555519e-01  4.090555383567249e-01 -3.383063260966554e-17

-2.411212686263932e-17 -5.283913508722238e-19  9.972512596620463e-01
-5.283913508722238e-19 -1.305381021076798e-17  4.379405274134425e-01
 9.972512596620463e-01  4.379405274134425e-01 -3.430773461091293e-17

-2.436384480101781e-17 -5.205753034358897e-19  1.016072371951289e+00
-5.205753034358897e-19 -1.342028072777449e-17  4.279332801219268e-01
 1.016072371951289e+00  4.279332801219268e-01 -3.500392529727442e-17

-2.545757415067504e-17 -4.292329425410121e-19  1.113462545388108e+00
-4.292329425410121e-19 -1.513571714107771e-17  3.356417760541990e-01
 1.113462545388108e+00  3.356417760541990e-01 -3.835772235316568e-17

-2.445900990478868e-17 -4.848174692806270e-19  1.002002318642862e+00
-4.848174692806270e-19 -1.235657459500230e-17  4.997636197182163e-01
 1.002002318642862e+00  4.997636197182163e-01 -3.467764928550238e-17

-2.402518493889373e-17 -3.568740977420738e-19  9.820755664934882e-01
-3.568740977420738e-19 -1.210474371156630e-17  4.919997040189327e-01
 9.820755664934882e-01  4.919997040189327e-01 -3.382471341537743e-17

-2.382138732580086e-17 -5.041465285805175e-19  1.004061967894680e+00
-5.041465285805175e-19 -1.459499152183616e-17  3.279617873235621e-01
 1.004061967894680e+00  3.279617873235621e-01 -3.463425731573730e-17

-2.353238243637294e-17 -4.192038710100229e-19  9.876249405136933e-01
-4.192038710100229e-19 -1.330749855844365e-17  3.831666125283299e-01
 9.876249405136933e-01  3.831666125283299e-01 -3.402190415163597e-17

-2.252388852473043e-17 -5.638898002382788e-19  9.171687472779321e-01
-5.638898002382788e-19 -1.098121796632600e-17  5.181272361651003e-01
 9.171687472779321e-01  5.181272361651003e-01 -3.170172761115435e-17

-2.287287891868407e-17 -2.658339243450980e-19  9.300074418925874e-01
-2.658339243450980e-19 -1.198580870678767e-17  4.293212187622923e-01
 9.300074418925874e-01  4.293212187622923e-01 -3.191671687712770e-17

-3.459730143236544e-17  3.468650413444787e-18  9.325777651531860e-01
 3.468650413444787e-18 -1.480692124964519e-17  2.662113718623350e-01
 9.325777651531860e-01  2.662113718623350e-01 -3.070165457641976e-17

 1.480913371651204e-17 -1.054286423897642e-17  1.388864598735690e+00
-1.054286423897642e-17 -1.643636404269841e-17 -7.785630007832581e-02
 1.388864598735690e+00 -7.785630007832581e-02 -4.390400150311941e-17

 8.970782370883866e-18 -9.298289584151909e-18  9.671340394105347e-01
-9.298289584151909e-18 -1.015067695770376e-17  4.453211408287046e-01
 9.671340394105347e-01  4.453211408287046e-01 -3.386343817505666e-17

 2.518278907084639e-17 -1.384521123973781e-17  6.147405796636081e-01
-1.384521123973781e-17 -3.278147647775477e-18  9.054975613756066e-01
 6.147405796636081e-01  9.054975613756066e-01 -2.562651760042071e-17

-1.296989986720063e-16  2.758880504532414e-17  1.084286294461438e+00
 2.758880504532414e-17 -2.078217174965708e-17  4.687283648175354e-01
 1.084286294461438e+00  4.687283648175354e-01 -3.848574528315175e-17

 8.138844525719943e-17 -2.940046498858273e-17  1.112440663437577e+00
-2.940046498858273e-17 -7.689694463775028e-18  3.098399703323294e-01
 1.112440663437577e+00  3.098399703323294e-01 -3.892307160703758e-17

-2.832760253880561e-18 -5.978703999025417e-18  9.829183308355989e-01
-5.978703999025417e-18 -1.207958118712588e-17  3.736462166772498e-01
 9.829183308355989e-01  3.736462166772498e-01 -3.404551191441600e-17

-2.875284379062954e-17  1.243538938160365e-18  9.379990966558251e-01
 1.243538938160365e-18 -1.290916975851188e-17  4.097542649802138e-01
 9.379990966558251e-01  4.097542649802138e-01 -3.233283094725516e-17

-2.250025924009477e-17 -5.775877924933218e-19  9.800898505099948e-01
-5.775877924933218e-19 -1.331892794549680e-17  3.526999417197536e-01
 9.800898505099948e-01  3.526999417197536e-01 -3.381469808123770e-17

-2.214234543893484e-17 -5.800365477914834e-19  9.436163132857116e-01
-5.800365477914834e-19 -1.225694410668319e-17  4.074034889124133e-01
 9.436163132857116e-01  4.074034889124133e-01 -3.252039688445600e-17

-2.271833813254574e-17 -4.403987057445199e-19  9.462881892808385e-01
-4.403987057445199e-19 -1.212774070410725e-17  4.158460219401193e-01
 9.462881892808385e-01  4.158460219401193e-01 -3.263807454858656e-17

-2.519125271051047e-17  3.079209586750621e-19  9.972088604018035e-01
 3.079209586750621e-19 -1.332870471260069e-17  3.622607494237181e-01
 9.972088604018035e-01  3.622607494237181e-01 -3.442584246523824e-17

-2.110478088074204e-17 -7.425482625579308e-19  8.841266804571010e-01
-7.425482625579308e-19 -1.035122161074297e-17  5.000003411005929e-01
 8.841266804571010e-01  5.000003411005929e-01 -3.043218232855322e-17

-3.900286171256268e-17  6.020900652970358e-18  8.906200343838734e-01
 6.020900652970358e-18 -1.347157743707695e-17  4.601575521711431e-01
 8.906200343838734e-01  4.601575521711431e-01 -3.063625966141253e-17

-1.448736412937491e-17 -3.151441405227199e-18  9.025154386640628e-01
-3.151441405227199e-18 -1.146603616632093e-17  3.687013889017188e-01
 9.025154386640628e-01  3.687013889017188e-01 -3.093160866799475e-17

-1.664021294431296e-16  5.496183802868867e-17  9.047491593722565e-01
 5.496183802868867e-17 -3.384401168179388e-17  3.084486410530398e-01
 9.047491593722565e-01  3.084486410530398e-01 -2.990847132471123e-17

-1.346363012565569e-16  4.167020861924076e-17  1.360680941150476e+00
 4.167020861924076e-17 -3.437686217290371e-17 -2.447029552588897e-02
 1.360680941150476e+00 -2.447029552588897e-02 -4.365705961804020e-17

 5.608827580186092e-17 -3.081306841782561e-17  9.631909395488507e-01
-3.081306841782561e-17 -8.493729752924921e-19  4.723127099578002e-01
 9.631909395488507e-01  4.723127099578002e-01 -3.413313908541343e-17

-9.001831389423050e-17  2.493090633663221e-17  6.367596566090418e-01
 2.493090633663221e-17 -1.694205991047030e-17  8.868795977753090e-01
 6.367596566090418e-01  8.868795977753090e-01 -2.615605771807167e-17

-5.590215675586105e-17  1.109082416816111e-17  1.086983020057507e+00
 1.109082416816111e-17 -1.785850917391731e-17  4.594331622829372e-01
 1.086983020057507e+00  4.594331622829372e-01 -3.865500467999268e-17

-3.041243931714627e-17  1.392710634341396e-18  1.112665464886925e+00
 1.392710634341396e-18 -1.650666576148973e-17  3.034269185923545e-01
 1.112665464886925e+00  3.034269185923545e-01 -3.909059557378578e-17

-2.460196070011806e-17 -8.926421000283267e-20  1.005134854698747e+00
-8.926421000283267e-20 -1.455199867360076e-17  3.464857266607106e-01
 1.005134854698747e+00  3.464857266607106e-01 -3.500380370934745e-17

-2.426914797429057e-17 -8.936361087362326e-20  9.791780312713596e-01
-8.936361087362326e-20 -1.322236654920272e-17  4.114990910496414e-01
 9.791780312713596e-01  4.114990910496414e-01 -3.398839001522639e-17

-2.434729006030492e-17 -1.821128439224526e-19  1.001143820127284e+00
-1.821128439224526e-19 -1.333127671729684e-17  4.049676536025406e-01
 1.001143820127284e+00  4.049676536025406e-01 -3.473065919051029e-17

-2.461224144707324e-17 -2.114606399422347e-19  1.025061630820792e+00
-2.114606399422347e-19 -1.360490531721148e-17  3.901218645258558e-01
 1.025061630820792e+00  3.901218645258558e-01 -3.553749701098322e-17

-2.432425582886948e-17 -1.799032397971846e-19  9.988294754022754e-01
-1.799032397971846e-19 -1.250023931179792e-17  4.415694738008891e-01
 9.988294754022754e-01  4.415694738008891e-01 -3.450352903711005e-17

-2.319356255746095e-17 -1.984514839606954e-19  9.229585206800837e-01
-1.984514839606954e-19 -1.147046609291917e-17  4.728185191488683e-01
 9.229585206800837e-01  4.728185191488683e-01 -3.169334981752590e-17

-2.331842995888255e-17 -3.848961487581932e-19  9.556081825907802e-01
-3.848961487581932e-19 -1.289993136315328e-17  3.876876223628604e-01
 9.556081825907802e-01  3.876876223628604e-01 -3.293635398434824e-17

-2.208331179202363e-17 -2.778815390244442e-19  8.683857442345815e-01
-2.778815390244442e-19 -1.167689339277629e-17  4.288083934432291e-01
 8.683857442345815e-01  4.288083934432291e-01 -2.955665880219394e-17

-2.372084630939528e-17  2.678537202010370e-19  1.022971514202957e+00
 2.678537202010370e-19 -1.441028814143635e-17  2.647784890180944e-01
 1.022971514202957e+00  2.647784890180944e-01 -3.341484728559451e-17

-2.872751240273076e-17  6.131211216831028e-19  1.449851766660858e+00
 6.131211216831028e-19 -1.940320301071325e-17  1.167538864917129e-05
 1.449851766660858e+00  1.167538864917129e-05 -4.680602193361481e-17

-2.398863843299175e-17 -9.359666637703281e-19  8.898172985886913e-01
-9.359666637703281e-19 -1.111699705471301e-17  6.282003101176560e-01
 8.898172985886913e-01  6.282003101176560e-01 -3.254148259261311e-17

-2.337979907158784e-17 -1.169511384385200e-18  7.718474695322090e-01
-1.169511384385200e-18 -8.568728620726250e-18  8.450498447462019e-01
 7.718474695322090e-01  8.450498447462019e-01 -2.997124133509591e-17

-2.690887522159816e-17 -5.429387192396930e-19  1.156039090174140e+00
-5.429387192396930e-19 -1.505766008522455e-17  4.106958197840699e-01
 1.156039090174140e+00  4.106958197840699e-01 -4.060851531349537e-17

-2.593975938240067e-17 -5.331197195918409e-19  1.111532281518140e+00
-5.331197195918409e-19 -1.568389933984274e-17  3.409685879000242e-01
 1.111532281518140e+00  3.409685879000242e-01 -3.871623267070345e-17

-2.451058849012047e-17 -4.311835434258580e-19  1.015028242663952e+00
-4.311835434258580e-19 -1.419959513549434e-17  3.853876046238558e-01
 1.015028242663952e+00  3.853876046238558e-01 -3.508794424248869e-17

-2.374387014272338e-17 -3.804974018958615e-19  9.650907325653497e-01
-3.804974018958615e-19 -1.307749543159576e-17  4.176351919409153e-01
 9.650907325653497e-01  4.176351919409153e-01 -3.322328920002011e-17

-2.370048348759831e-17 -4.067568083448347e-19  9.741033316481021e-01
-4.067568083448347e-19 -1.338547846663989e-17  3.871941648418287e-01
 9.741033316481021e-01  3.871941648418287e-01 -3.354089047419845e-17

-2.310498430816623e-17 -3.719858743018720e-19  9.297937118570541e-01
-3.719858743018720e-19 -1.252210457748344e-17  4.236607436559047e-01
 9.297937118570541e-01  4.236607436559047e-01 -3.193165379845023e-17

-2.298487910165465e-17 -3.431731534159735e-19  9.279957105698160e-01
-3.431731534159735e-19 -1.277297652176959e-17  4.034872707456519e-01
 9.279957105698160e-01  4.034872707456519e-01 -3.181602176759776e-17

-2.396059578032305e-17 -2.532742906072650e-19  1.006639413141789e+00
-2.532742906072650e-19 -1.414992171036177e-17  3.340564651779311e-01
 1.006639413141789e+00  3.340564651779311e-01 -3.446436383925973e-17

-2.430181367784878e-17 -4.429362901621948e-19  9.885568949614340e-01
-4.429362901621948e-19 -1.266965318677789e-17  4.633854478760985e-01
 9.885568949614340e-01  4.633854478760985e-01 -3.438398405122171e-17

-2.353611779261768e-17 -3.476862200890596e-19  9.095801037064153e-01
-3.476862200890596e-19 -1.115701727620001e-17  5.494456088077183e-01
 9.095801037064153e-01  5.494456088077183e-01 -3.155060249550929e-17

-2.459948162091663e-17 -3.646261995682800e-19  1.032736098623942e+00
-3.646261995682800e-19 -1.465766587185421e-17  3.473313446897531e-01
 1.032736098623942e+00  3.473313446897531e-01 -3.580245490908747e-17

-2.399581804886919e-17 -3.166239534477259e-19  9.828325720562280e-01
-3.166239534477259e-19 -1.389498008064573e-17  3.792066084491835e-01
 9.828325720562280e-01  3.792066084491835e-01 -3.400948368979980e-17

-2.378971582265846e-17 -3.052940525111603e-19  9.559793999091474e-01
-3.052940525111603e-19 -1.308920974046416e-17  4.274576557439921e-01
 9.559793999091474e-01  4.274576557439921e-01 -3.310121348059154e-17

-2.435503650897023e-17 -2.848872437133740e-19  1.001269563842858e+00
-2.848872437133740e-19 -1.365562574640228e-17  3.985636062284010e-01
 1.001269563842858e+00  3.985636062284010e-01 -3.472097295100889e-17

-2.424419464535779e-17 -2.628745807859831e-19  9.872148473115324e-01
-2.628745807859831e-19 -1.319695973713101e-17  4.204606131985943e-01
 9.872148473115324e-01  4.204606131985943e-01 -3.422828094183320e-17

-2.427308069656017e-17 -2.526674280028025e-19  9.977439516944081e-01
-2.526674280028025e-19 -1.340837106337457e-17  4.003116200353430e-01
 9.977439516944081e-01  4.003116200353430e-01 -3.455509020691408e-17

-2.365642395862229e-17 -2.758225339215169e-19  9.566253174458834e-01
-2.758225339215169e-19 -1.301591420043605e-17  4.041116217343423e-01
 9.566253174458834e-01  4.041116217343423e-01 -3.304420475568228e-17

-2.395888617479453e-17 -3.250940734959507e-19  9.943160511271374e-01
-3.250940734959507e-19 -1.409142744735130e-17  3.367575734552816e-01
 9.943160511271374e-01  3.367575734552816e-01 -3.438668514591540e-17

-2.325626319252318e-17 -3.080465662774910e-19  9.364613473299003e-01
-3.080465662774910e-19 -1.265161756955623e-17  4.090220877936502e-01
 9.364613473299003e-01  4.090220877936502e-01 -3.229704136979047e-17

-2.337316395314081e-17 -2.808517044320025e-19  9.431116980913611e-01
-2.808517044320025e-19 -1.262278144769766e-17  4.078248597724576e-01
 9.431116980913611e-01  4.078248597724576e-01 -3.252781883259608e-17

-2.383504475662501e-17 -3.036306850366148e-19  9.941469622947710e-01
-3.036306850366148e-19 -1.338586957603824e-17  3.630495425518370e-01
 9.941469622947710e-01  3.630495425518370e-01 -3.430400097312541e-17

-2.390994520138678e-17  7.651270613526127e-20  8.600758310656076e-01
 7.651270613526127e-20 -1.040470442838375e-17  5.256253192607022e-01
 8.600758310656076e-01  5.256253192607022e-01 -2.955899185246716e-17

-2.270974064642173e-17 -2.752668478233077e-19  8.918215587405182e-01
-2.752668478233077e-19 -1.140363951801693e-17  4.574014104775782e-01
 8.918215587405182e-01  4.574014104775782e-01 -3.065004702462505e-17

-3.411832734235454e-17  2.318484116352933e-18  8.960590128605342e-01
 2.318484116352933e-18 -1.340941193133989e-17  3.675075055564601e-01
 8.960590128605342e-01  3.675075055564601e-01 -3.066621538023267e-17

-2.195802992607131e-17  1.645126984949245e-19  8.754524886505590e-01
 1.645126984949245e-19 -1.300335561010308e-17  3.209096848101266e-01
 8.754524886505590e-01  3.209096848101266e-01 -2.879337064999622e-17

 1.900352921804245e-16 -4.716451964864277e-17  1.356509670522279e+00
-4.716451964864277e-17 -8.694931913875468e-18 -4.814443534505573e-02
 1.356509670522279e+00 -4.814443534505573e-02 -4.310149269219630e-17

-1.003834906053107e-16  1.637238832984289e-17  9.767803752807622e-01
 1.637238832984289e-17 -1.670593806309685e-17  4.412943840431587e-01
 9.767803752807622e-01  4.412943840431587e-01 -3.430955402476208e-17

-6.701124360209105e-17  8.743232054546696e-18  6.166873175597070e-01
 8.743232054546696e-18 -9.370657792685566e-18  8.966909477582727e-01
 6.166873175597070e-01  8.966909477582727e-01 -2.569330885740416e-17

-6.257614748763404e-17  7.560393792380706e-18  1.084748220872119e+00
 7.560393792380706e-18 -1.548620316123547e-17  4.615655620152478e-01
 1.084748220872119e+00  4.615655620152478e-01 -3.854770869213407e-17

-1.691345539243882e-17 -2.487424610165630e-18  1.113967866024736e+00
-2.487424610165630e-18 -1.560667893902051e-17  3.020077597168324e-01
 1.113967866024736e+00  3.020077597168324e-01 -3.902711908504265e-17

-1.050238776014221e-16  1.760749604919742e-17  9.852516321536436e-01
 1.760749604919742e-17 -1.819861196920964e-17  3.656535981365687e-01
 9.852516321536436e-01  3.656535981365687e-01 -3.417865526552220e-17

-9.107309955869858e-18 -3.506511020216597e-18  9.407672302160526e-01
-3.506511020216597e-18 -1.239155006180161e-17  4.037832593861289e-01
 9.407672302160526e-01  4.037832593861289e-01 -3.247600839132182e-17

-1.723785494125416e-17 -1.804357185449525e-18  9.815896056399425e-01
-1.804357185449525e-18 -1.363213735096791e-17  3.501624018861377e-01
 9.815896056399425e-01  3.501624018861377e-01 -3.390878462737408e-17

-2.557752640016230e-17  1.517541682481582e-19  9.432833935723465e-01
 1.517541682481582e-19 -1.299588376248057e-17  4.058923312620488e-01
 9.432833935723465e-01  4.058923312620488e-01 -3.253554576792116e-17

-2.356340155286805e-17 -2.988795338277953e-19  9.445289016064623e-01
-2.988795338277953e-19 -1.281278579680427e-17  4.087864799253493e-01
 9.445289016064623e-01  4.087864799253493e-01 -3.258100125504094e-17

-2.417722656289335e-17 -2.941126204103947e-19  9.953827254444244e-01
-2.941126204103947e-19 -1.369125270967972e-17  3.573155159675087e-01
 9.953827254444244e-01  3.573155159675087e-01 -3.435528727169665e-17

-2.247382611431419e-17 -3.142292137558247e-19  8.657765102478941e-01
-3.142292137558247e-19 -1.072834458033752e-17  5.150894722076441e-01
 8.657765102478941e-01  5.150894722076441e-01 -2.977251694215900e-17

-2.307748171633213e-17 -2.691818788866475e-19  8.883061229814472e-01
-2.691818788866475e-19 -1.156865648120709e-17  4.601603825704187e-01
 8.883061229814472e-01  4.601603825704187e-01 -3.054445885406744e-17

-2.368894398790829e-17 -1.233329791882159e-19  8.925850310566641e-01
-1.233329791882159e-19 -1.295776772983949e-17  3.735978418450833e-01
 8.925850310566641e-01  3.735978418450833e-01 -3.059633441326437e-17

-2.501986864288558e-17  5.705382011996963e-19  8.533381279052521e-01
 5.705382011996963e-19 -1.301134956772707e-17  3.382975680984008e-01
 8.533381279052521e-01  3.382975680984008e-01 -2.820577266230932e-17

-5.936649880451293e-17  5.477734013817199e-18  1.323559786287816e+00
 5.477734013817199e-18 -2.003633063814537e-17 -3.908421491666626e-02
 1.323559786287816e+00 -3.908421491666626e-02 -4.224981177702720e-17

-3.666494810853574e-17  1.398333779422355e-18  9.268891008323210e-01
 1.398333779422355e-18 -1.307487257720202e-17  4.599105311028919e-01
 9.268891008323210e-01  4.599105311028919e-01 -3.273897178154333e-17

-7.518847956553949e-17  6.456007861586779e-18  6.039198171369657e-01
 6.456007861586779e-18 -8.610710980214913e-18  8.783302748207360e-01
 6.039198171369657e-01  8.783302748207360e-01 -2.500894687813586e-17

 6.409521248856362e-18 -5.171673144956325e-18  1.084236939572329e+00
-5.171673144956325e-18 -1.355511448005820e-17  4.471135890400165e-01
 1.084236939572329e+00  4.471135890400165e-01 -3.863782525605935e-17

-1.695119319451911e-16  2.020230454316699e-17  1.091944101106053e+00
 2.020230454316699e-17 -1.865181461161453e-17  3.342888183175626e-01
 1.091944101106053e+00  3.342888183175626e-01 -3.831514382283011e-17

 7.347591061807935e-18 -4.821721475407745e-18  1.005292566066239e+00
-4.821721475407745e-18 -1.398199267569284e-17  3.639587231434180e-01
 1.005292566066239e+00  3.639587231434180e-01 -3.500592028198795e-17

-2.385620331178655e-17 -2.260710385992496e-19  9.493349548299573e-01
-2.260710385992496e-19 -1.367633272561336e-17  3.919003194912144e-01
 9.493349548299573e-01  3.919003194912144e-01 -3.290896425479195e-17

-2.568595751401023e-17 -6.659151184736316e-20  9.926456897992924e-01
-6.659151184736316e-20 -1.472621527829655e-17  3.272305157644773e-01
 9.926456897992924e-01  3.272305157644773e-01 -3.443561596493677e-17

-2.368970132458393e-17 -2.368178364883740e-19  9.363636288143686e-01
-2.368178364883740e-19 -1.318337996982041e-17  4.062382812550183e-01
 9.363636288143686e-01  4.062382812550183e-01 -3.240129397566307e-17

-2.399701218710876e-17 -2.151516182987699e-19  9.463370278572831e-01
-2.151516182987699e-19 -1.312055374668557e-17  4.096544130144621e-01
 9.463370278572831e-01  4.096544130144621e-01 -3.274294111946545e-17

-2.447325119589017e-17 -2.414297137794565e-19  1.000583667006455e+00
-2.414297137794565e-19 -1.404554278838785e-17  3.570561458226682e-01
 1.000583667006455e+00  3.570561458226682e-01 -3.461471194575248e-17

-2.320894588622785e-17 -2.141378411100683e-19  8.738101812191077e-01
-2.141378411100683e-19 -1.113347635576293e-17  5.137543973645834e-01
 8.738101812191077e-01  5.137543973645834e-01 -3.011300156540652e-17

-2.330147128558572e-17 -2.645531515961146e-19  8.985592934873821e-01
-2.645531515961146e-19 -1.195362258156160e-17  4.601454037382602e-01
 8.985592934873821e-01  4.601454037382602e-01 -3.094275283853881e-17

-2.302763606558811e-17 -2.752510372638777e-19  9.032399521587859e-01
-2.752510372638777e-19 -1.324556758886407e-17  3.787462465299644e-01
 9.032399521587859e-01  3.787462465299644e-01 -3.098208817980527e-17

-2.214640181542871e-17  8.186141595936407e-20  8.471911001793286e-01
 8.186141595936407e-20 -1.296635373414249e-17  3.596662649145228e-01
 8.471911001793286e-01  3.596662649145228e-01 -2.803579946331907e-17

-2.711203681626970e-17  7.511727939217330e-19  1.313244338437809e+00
 7.511727939217330e-19 -1.956463023125081e-17 -2.860644644237608e-02
 1.313244338437809e+00 -2.860644644237608e-02 -4.191517743613758e-17

-2.404470709299562e-17 -5.271247303302081e-19  9.117757176728938e-01
-5.271247303302081e-19 -1.290424044070876e-17  4.821320903633430e-01
 9.117757176728938e-01  4.821320903633430e-01 -3.227762051750434e-17

-2.220684955176952e-17 -1.331695620855107e-18  6.444541711066301e-01
-1.331695620855107e-18 -8.324319165447911e-18  8.586569443497184e-01
 6.444541711066301e-01  8.586569443497184e-01 -2.619128552194077e-17

-2.685708909045246e-17 -5.694037125535822e-19  1.100453918188313e+00
-5.694037125535822e-19 -1.479591936879350e-17  4.455028768840476e-01
 1.100453918188313e+00  4.455028768840476e-01 -3.916531498170237e-17

-2.627026818225343e-17 -3.725414310819291e-19  1.079621418493771e+00
-3.725414310819291e-19 -1.544301151831587e-17  3.779196229780367e-01
 1.079621418493771e+00  3.779196229780367e-01 -3.781518807902895e-17

-2.530205726562114e-17 -3.186665171229362e-19  1.023434623613463e+00
-3.186665171229362e-19 -1.505918972618274e-17  3.694045731556543e-01
 1.023434623613463e+00  3.694045731556543e-01 -3.559673876937023e-17

-2.429172753479555e-17 -3.272600708867601e-19  9.586909722862934e-01
-3.272600708867601e-19 -1.434370676496518e-17  3.787557011020803e-01
 9.586909722862934e-01  3.787557011020803e-01 -3.322116021506072e-17

-2.458549258607339e-17 -3.510863671045336e-19  9.991422280829474e-01
-3.510863671045336e-19 -1.534487522280178e-17  3.124075186376623e-01
 9.991422280829474e-01  3.124075186376623e-01 -3.463052048490429e-17

-2.385161342437095e-17 -3.169774490522267e-19  9.249853662107945e-01
-3.169774490522267e-19 -1.331129346211240e-17  4.200742603311519e-01
 9.249853662107945e-01  4.200742603311519e-01 -3.199895407282515e-17

-2.406748618000962e-17 -3.054306009742032e-19  9.436792204124638e-01
-3.054306009742032e-19 -1.335565842126149e-17  4.171626037859917e-01
 9.436792204124638e-01  4.171626037859917e-01 -3.267697017891362e-17

-2.463088762602032e-17 -3.072369418054871e-19  9.973521819703787e-01
-3.072369418054871e-19 -1.448906958108262e-17  3.499837130598158e-01
 9.973521819703787e-01  3.499837130598158e-01 -3.456373860806026e-17

-2.334240977815078e-17 -2.657610156862549e-19  8.767599988930415e-01
-2.657610156862549e-19 -1.178861599042177e-17  4.940617182616322e-01
 8.767599988930415e-01  4.940617182616322e-01 -3.030100169578313e-17

-2.328788934577511e-17 -2.829742820834243e-19  8.828219537610813e-01
-2.829742820834243e-19 -1.223550605559615e-17  4.603748010864993e-01
 8.828219537610813e-01  4.603748010864993e-01 -3.049963547534302e-17

-2.312324417961645e-17 -2.563599002748664e-19  8.934388753426140e-01
-2.563599002748664e-19 -1.361595334501550e-17  3.745331927586186e-01
 8.934388753426140e-01  3.745331927586186e-01 -3.078837373199578e-17

-2.237122131673153e-17  1.195776668723642e-19  8.489479013922338e-01
 1.195776668723642e-19 -1.359473298268906e-17  3.432098385142358e-01
 8.489479013922338e-01  3.432098385142358e-01 -2.828543831262441e-17

-2.739462293969586e-17  8.014130604064257e-19  1.311943202614926e+00
 8.014130604064257e-19 -2.005327351268635e-17 -3.575347061009489e-02
 1.311943202614926e+00 -3.575347061009489e-02 -4.213910612754489e-17

-2.413677573693393e-17 -4.665752881770585e-19  8.946609440201814e-01
-4.665752881770585e-19 -1.319896080370581e-17  4.831892396838485e-01
 8.946609440201814e-01  4.831892396838485e-01 -3.198120220408607e-17

-2.236885123132835e-17 -1.196398803568335e-18  6.395245240785978e-01
-1.196398803568335e-18 -8.782438670085412e-18  8.421166093894221e-01
 6.395245240785978e-01  8.421166093894221e-01 -2.613140199340211e-17

-2.709489835309230e-17 -4.276163870173454e-19  1.096379689338930e+00
-4.276163870173454e-19 -1.529105999683682e-17  4.293576072013096e-01
 1.096379689338930e+00  4.293576072013096e-01 -3.922194911002263e-17

-2.658188048844911e-17 -2.247236674035652e-19  1.078313830986356e+00
-2.247236674035652e-19 -1.592439651229239e-17  3.638577968196977e-01
 1.078313830986356e+00  3.638577968196977e-01 -3.800951405441363e-17

-2.571765653245791e-17 -1.493767090250126e-19  1.027887799876783e+00
-1.493767090250126e-19 -1.544490236094267e-17  3.594665640206354e-01
 1.027887799876783e+00  3.594665640206354e-01 -3.598176033201743e-17

-2.413394565087669e-17 -1.176256707419090e-19  9.140537028312734e-01
-1.176256707419090e-19 -1.378709997621524e-17  4.107344891590706e-01
 9.140537028312734e-01  4.107344891590706e-01 -3.178595096058063e-17

-2.492761557683572e-17 -3.200018118811717e-19  1.003892488897479e+00
-3.200018118811717e-19 -1.628129953017976e-17  2.676917110890155e-01
 1.003892488897479e+00  2.676917110890155e-01 -3.503902466104068e-17

-2.426423338752923e-17 -1.990088267710253e-19  9.430917179577747e-01
-1.990088267710253e-19 -1.442768822722915e-17  3.573614987341163e-01
 9.430917179577747e-01  3.573614987341163e-01 -3.277031329218522e-17

-2.454236598869854e-17 -1.521279225717674e-19  9.437786720618754e-01
-1.521279225717674e-19 -1.270967994615346e-17  4.558997041619677e-01
 9.437786720618754e-01  4.558997041619677e-01 -3.283121333979754e-17

-2.346638740045593e-17 -8.419756549731129e-20  8.648800992614489e-01
-8.419756549731129e-20 -1.167862291213165e-17  4.823195192851271e-01
 8.648800992614489e-01  4.823195192851271e-01 -2.984506861597231e-17

-2.346177840382833e-17 -3.358856218469167e-19  8.901663937199853e-01
-3.358856218469167e-19 -1.344765652950943e-17  3.854566388523268e-01
 8.901663937199853e-01  3.854566388523268e-01 -3.092503886932554e-17

-2.319340943000436e-17 -3.316058900776235e-19  8.862886917859440e-01
-3.316058900776235e-19 -1.415909470447507e-17  3.326489198742941e-01
 8.862886917859440e-01  3.326489198742941e-01 -3.069585055673410e-17

-2.269104523764424e-17 -2.423397962900880e-19  8.466952310899029e-01
-2.423397962900880e-19 -1.331718812172278e-17  3.709296207589136e-01
 8.466952310899029e-01  3.709296207589136e-01 -2.916431668662112e-17

-2.233959453205709e-17 -1.594653244472570e-19  8.076891674986989e-01
-1.594653244472570e-19 -1.222783665774575e-17  4.318588220010089e-01
 8.076891674986989e-01  4.318588220010089e-01 -2.759672303434951e-17

-2.258429480328809e-17  2.056010703273377e-19  8.292897755163691e-01
 2.056010703273377e-19 -1.289395538067252e-17  3.878287339614278e-01
 8.292897755163691e-01  3.878287339614278e-01 -2.735080590667542e-17

-2.823321990071587e-17  9.130661305974528e-19  1.344751917086798e+00
 9.130661305974528e-19 -2.020709316042007e-17 -3.307195297238567e-02
 1.344751917086798e+00 -3.307195297238567e-02 -4.287893264422583e-17

-2.526027365614839e-17 -5.665553608601812e-19  9.394636606438894e-01
-5.665553608601812e-19 -1.389792540253433e-17  4.825734177360091e-01
 9.394636606438894e-01  4.825734177360091e-01 -3.366427404505623e-17

-2.363270970022070e-17 -1.325168453536960e-18  6.893854847112904e-01
-1.325168453536960e-18 -9.663470537350767e-18  8.444758713702333e-01
 6.893854847112904e-01  8.444758713702333e-01 -2.811644205830229e-17

-2.806284840234528e-17 -5.318752947853341e-19  1.132167192946554e+00
-5.318752947853341e-19 -1.635033751360090e-17  4.143531931737231e-01
 1.132167192946554e+00  4.143531931737231e-01 -4.048573808523259e-17

-2.731753624835987e-17 -3.272884685154805e-19  1.096574015453514e+00
-3.272884685154805e-19 -1.680097891846955e-17  3.577268204891888e-01
 1.096574015453514e+00  3.577268204891888e-01 -3.864486984337659e-17

-2.633288120897749e-17 -2.258440177481219e-19  1.034974161816957e+00
-2.258440177481219e-19 -1.607610160247490e-17  3.671007880137230e-01
 1.034974161816957e+00  3.671007880137230e-01 -3.622541715987691e-17

-2.469180732230100e-17 -1.717012200048254e-19  9.160772178673895e-01
-1.717012200048254e-19 -1.431144170749898e-17  4.255998530621710e-01
 9.160772178673895e-01  4.255998530621710e-01 -3.187166776116916e-17

-2.547545090309262e-17 -3.380246497647641e-19  1.004870124773703e+00
-3.380246497647641e-19 -1.692323633618105e-17  2.749477911900142e-01
 1.004870124773703e+00  2.749477911900142e-01 -3.509587096059335e-17

-2.471800750065543e-17 -2.369253928265797e-19  9.395854796758625e-01
-2.369253928265797e-19 -1.518810665927634e-17  3.613401977773366e-01
 9.395854796758625e-01  3.613401977773366e-01 -3.270693939415294e-17

-2.515347317897600e-17 -2.462411556201762e-19  9.482899014240033e-01
-2.462411556201762e-19 -1.416445032649426e-17  4.356527477766367e-01
 9.482899014240033e-01  4.356527477766367e-01 -3.319286093741420e-17

-2.582145751910558e-17 -6.367219869959922e-20  9.050766910976662e-01
-6.367219869959922e-20 -1.335896234659173e-17  4.761548952685722e-01
 9.050766910976662e-01  4.761548952685722e-01 -3.159248123205466e-17

-2.181787142352666e-17 -5.414512752162430e-19  9.130084490687354e-01
-5.414512752162430e-19 -1.389269714161873e-17  4.388613264475453e-01
 9.130084490687354e-01  4.388613264475453e-01 -3.188803283478993e-17

-2.749445418054374e-17  2.204852836189592e-19  8.812012674107840e-01
 2.204852836189592e-19 -1.390802940347891e-17  4.303081335526435e-01
 8.812012674107840e-01  4.303081335526435e-01 -3.066842127095389e-17

 1.655971418542782e-17 -4.136845941514297e-18  8.719075556210510e-01
-4.136845941514297e-18 -1.450658017887673e-17  3.338781943708586e-01
 8.719075556210510e-01  3.338781943708586e-01 -2.914391894081562e-17

-6.919135921825754e-17  5.414737092320965e-18  1.356689925747608e+00
 5.414737092320965e-18 -2.250464707586036e-17 -8.344758484891363e-02
 1.356689925747608e+00 -8.344758484891363e-02 -4.327867646475667e-17

 4.545305668253314e-17 -8.193115385069655e-18  8.993413392276316e-01
-8.193115385069655e-18 -1.369959697554601e-17  4.872927946878345e-01
 8.993413392276316e-01  4.872927946878345e-01 -3.244226689809494e-17

-7.717041874407833e-17  4.623919739371103e-18  6.908088844999616e-01
 4.623919739371103e-18 -1.120978349034671e-17  8.418946144372282e-01
 6.908088844999616e-01  8.418946144372282e-01 -2.841132818634055e-17

-3.162136472211133e-17 -7.993935539147811e-20  1.106409487315376e+00
-7.993935539147811e-20 -1.706468865637759e-17  4.272575406312008e-01
 1.106409487315376e+00  4.272575406312008e-01 -3.983677924769963e-17

-2.246477106005907e-17 -9.103843323352635e-19  1.081276248256937e+00
-9.103843323352635e-19 -1.768853764002621e-17  3.595097623559505e-01
 1.081276248256937e+00  3.595097623559505e-01 -3.841010652466991e-17

-2.561908173827534e-17 -5.338773526105436e-19  1.055432929989171e+00
-5.338773526105436e-19 -1.774813481739632e-17  3.398294100536976e-01
 1.055432929989171e+00  3.398294100536976e-01 -3.728706162598258e-17

-2.352218547637190e-17 -1.247140366137196e-18  9.598269375691866e-01
-1.247140366137196e-18 -1.461200287315617e-17  4.741285225763221e-01
 9.598269375691866e-01  4.741285225763221e-01 -3.377935872931849e-17

-1.135331909039968e-17 -7.262573129057151e-18  1.023752482047188e+00
-7.262573129057151e-18 -1.416371211945766e-17  3.478264735030661e-01
 1.023752482047188e+00  3.478264735030661e-01 -3.613287762838171e-17

-2.711452410210482e-17 -4.802006878722987e-19  1.091688916173881e+00
-4.802006878722987e-19 -1.887703757371677e-17  2.537322788912324e-01
 1.091688916173881e+00  2.537322788912324e-01 -3.849931687521382e-17

-3.591160348893134e-17  4.385095229294690e-18  9.156461460460185e-01
 4.385095229294690e-18 -1.723056076979976e-17  4.686993380531610e-01
 9.156461460460185e-01  4.686993380531610e-01 -3.233362914521283e-17

-2.533870678939275e-17 -7.001354281244718e-19  9.703707014411656e-01
-7.001354281244718e-19 -1.620675345910286e-17  4.029841616670453e-01
 9.703707014411656e-01  4.029841616670453e-01 -3.421264242795392e-17

-2.736286832083198e-17  1.069584032153882e-19  1.006621672199324e+00
 1.069584032153882e-19 -1.768026157001968e-17  3.503055265096981e-01
 1.006621672199324e+00  3.503055265096981e-01 -3.541685536965038e-17

-2.809071825188982e-17  6.917780502200679e-20  1.025549740504190e+00
 6.917780502200679e-20 -1.780513804379103e-17  3.933418583761301e-01
 1.025549740504190e+00  3.933418583761301e-01 -3.633649822274286e-17

-2.972332652531155e-17 -1.380699625243567e-19  1.129410980235953e+00
-1.380699625243567e-19 -1.833806060366289e-17  4.304384958026343e-01
 1.129410980235953e+00  4.304384958026343e-01 -4.048110671295810e-17

-2.711277578512734e-17  6.892749401488210e-20  8.689316129604204e-01
 6.892749401488210e-20 -1.371589595929719e-17  6.930667444521348e-01
 8.689316129604204e-01  6.930667444521348e-01 -3.150360179634394e-17

-2.887035056608774e-17  1.655512688860754e-19  1.045003569442998e+00
 1.655512688860754e-19 -1.680683129788883e-17  5.011355726930317e-01
 1.045003569442998e+00  5.011355726930317e-01 -3.732099349793655e-17

-2.810946211439505e-17 -7.281356136743039e-20  1.018599212321467e+00
-7.281356136743039e-20 -1.797285606898580e-17  4.024758818646456e-01
 1.018599212321467e+00  4.024758818646456e-01 -3.640787256434273e-17

-2.712732554197212e-17 -1.071441461254945e-19  9.547374450772609e-01
-1.071441461254945e-19 -1.726095099037252e-17  4.065111779313359e-01
 9.547374450772609e-01  4.065111779313359e-01 -3.414976694039616e-17

-2.656490798073632e-17 -2.350195643414833e-20  9.166846970116299e-01
-2.350195643414833e-20 -1.675029927771285e-17  4.168950463346617e-01
 9.166846970116299e-01  4.168950463346617e-01 -3.276978759831177e-17

-2.576547723535559e-17  1.589268813253379e-19  8.439539879204674e-01
 1.589268813253379e-19 -1.530228493380459e-17  4.804966761299779e-01
 8.439539879204674e-01  4.804966761299779e-01 -2.997653738960394e-17

-2.550516454657031e-17  5.740421903711187e-19  8.369197039670816e-01
 5.740421903711187e-19 -1.609829600843154e-17  4.132408022530616e-01
 8.369197039670816e-01  4.132408022530616e-01 -2.865615795612292e-17

-2.874689081321289e-17  1.558955362329565e-18  1.148517237841327e+00
 1.558955362329565e-18 -2.084945545714136e-17  9.987402299572840e-02
 1.148517237841327e+00  9.987402299572840e-02 -3.600014338758283e-17

-3.464881618933563e-17  2.169098991885120e-18  1.673242667269450e+00
 2.169098991885120e-18 -2.658157494573464e-17 -2.346803435879213e-01
 1.673242667269450e+00 -2.346803435879213e-01 -5.074729284509333e-17

-3.049883568648917e-17 -8.370550412744765e-19  1.002904194067547e+00
-8.370550412744765e-19 -1.786219795811199e-17  6.460724695818545e-01
 1.002904194067547e+00  6.460724695818545e-01 -4.002759003242936e-17

-3.211045614249869e-17 -6.160870648073759e-19  1.038199892101231e+00
-6.160870648073759e-19 -1.725744128941349e-17  8.019627144551351e-01
 1.038199892101231e+00  8.019627144551351e-01 -4.286200138118466e-17

-3.302736108406168e-17 -3.573428329347422e-19  1.234317590655352e+00
-3.573428329347422e-19 -2.254282105299464e-17  3.785506986520241e-01
 1.234317590655352e+00  3.785506986520241e-01 -4.513268216372385e-17

-3.184115516596590e-17 -2.490399540038322e-19  1.171626534447683e+00
-2.490399540038322e-19 -2.269807794987650e-17  3.203873778158766e-01
 1.171626534447683e+00  3.203873778158766e-01 -4.257577527911799e-17

-3.070800765416889e-17  5.695476849307778e-20  1.088047772622891e+00
 5.695476849307778e-20 -2.067720452532158e-17  3.932933646271899e-01
 1.088047772622891e+00  3.932933646271899e-01 -3.936576496889280e-17

-2.950566739086762e-17  2.110752294092288e-19  9.895860604365770e-01
 2.110752294092288e-19 -1.864208119904223e-17  4.746619427595207e-01
 9.895860604365770e-01  4.746619427595207e-01 -3.574397773888851e-17

-2.970366844420911e-17  7.984986536087946e-20  1.027981182626066e+00
 7.984986536087946e-20 -2.066691133067823e-17  3.508431773524979e-01
 1.027981182626066e+00  3.508431773524979e-01 -3.713512079765480e-17

-2.920030674516292e-17  1.941717387238210e-19  9.529222904385558e-01
 1.941717387238210e-19 -1.844895762231934e-17  4.786507915328980e-01
 9.529222904385558e-01  4.786507915328980e-01 -3.455981347801759e-17

-2.954176798834613e-17  2.564705490587760e-19  9.642761599361925e-01
 2.564705490587760e-19 -1.860207101373189e-17  4.857248411275561e-01
 9.642761599361925e-01  4.857248411275561e-01 -3.504340444922912e-17

-3.045800651742869e-17  4.334909511829582e-19  1.040591656180881e+00
 4.334909511829582e-19 -2.120953363407051e-17  3.487362413232631e-01
 1.040591656180881e+00  3.487362413232631e-01 -3.757447635588008e-17

-3.173308524747116e-17  2.819913404126216e-19  1.050832601176384e+00
 2.819913404126216e-19 -2.007187676270708e-17  5.019921078425778e-01
 1.050832601176384e+00  5.019921078425778e-01 -3.879918059625285e-17

-3.282577612429455e-17  3.780095828906035e-19  1.121834196840172e+00
 3.780095828906035e-19 -2.223101390363622e-17  4.055410532871207e-01
 1.121834196840172e+00  4.055410532871207e-01 -4.133650075999004e-17

-3.440727432969052e-17  3.084413864830444e-19  1.270225624799247e+00
 3.084413864830444e-19 -2.594626658048291e-17  2.051892302549472e-01
 1.270225624799247e+00  2.051892302549472e-01 -4.644234396380945e-17

-3.222043948964411e-17  3.966861041774032e-19  1.026795984629812e+00
 3.966861041774032e-19 -2.127099836588120e-17  4.903436948693687e-01
 1.026795984629812e+00  4.903436948693687e-01 -3.827431964729380e-17

-3.288810467302092e-17  5.365582403851765e-19  1.060100034506474e+00
 5.365582403851765e-19 -2.161624904538463e-17  4.757204928284093e-01
 1.060100034506474e+00  4.757204928284093e-01 -3.940419307656382e-17

-3.262445545633305e-17  6.569180650455602e-19  1.027853533286347e+00
 6.569180650455602e-19 -2.259512736284481e-17  4.211438960642545e-01
 1.027853533286347e+00  4.211438960642545e-01 -3.828081380830583e-17

-3.441950399206306e-17  8.999282604465683e-19  1.132488577530684e+00
 8.999282604465683e-19 -2.469258861185622e-17  3.387607327619463e-01
 1.132488577530684e+00  3.387607327619463e-01 -4.190266767187340e-17

-3.370385166664772e-17  8.255651230520705e-19  9.678850563129595e-01
 8.255651230520705e-19 -2.035698186828028e-17  6.562316152112758e-01
 9.678850563129595e-01  6.562316152112758e-01 -3.714846344973519e-17

-3.248248725927272e-17  1.121655638386478e-18  8.651516711128415e-01
 1.121655638386478e-18 -1.967551317773956e-17  6.754207942414997e-01
 8.651516711128415e-01  6.754207942414997e-01 -3.332037752454209e-17

-3.590187660191321e-17  6.309410418147688e-19  1.181533406182959e+00
 6.309410418147688e-19 -2.695860520392072e-17  2.862336758009023e-01
 1.181533406182959e+00  2.862336758009023e-01 -4.433701711559250e-17

-3.428903734398403e-17  8.984011445571597e-19  1.018981788624404e+00
 8.984011445571597e-19 -2.465702465863768e-17  4.029839528586313e-01
 1.018981788624404e+00  4.029839528586313e-01 -3.870745542244865e-17

-3.472023604739961e-17  1.044177938637115e-18  1.014971343409707e+00
 1.044177938637115e-18 -2.412210258554391e-17  4.574039573794844e-01
 1.014971343409707e+00  4.574039573794844e-01 -3.878540359388836e-17

-3.617243896777551e-17  1.168644668846401e-18  1.119207837108147e+00
 1.168644668846401e-18 -2.603652858273647e-17  3.652733954710934e-01
 1.119207837108147e+00  3.652733954710934e-01 -4.255592961259379e-17

-3.595612900759622e-17  1.291103707455752e-18  1.063287114299544e+00
 1.291103707455752e-18 -2.493671866991385e-17  4.440932816393360e-01
 1.063287114299544e+00  4.440932816393360e-01 -4.071258615603202e-17

-3.567569732086357e-17  1.623435796297371e-18  1.004615547274734e+00
 1.623435796297371e-18 -2.346429622224890e-17  5.225384718247783e-01
 1.004615547274734e+00  5.225384718247783e-01 -3.868109056358736e-17

-3.396778027557890e-17  1.984577068371438e-18  8.575261486697311e-01
 1.984577068371438e-18 -2.199225123364466e-17  5.793791291006296e-01
 8.575261486697311e-01  5.793791291006296e-01 -3.350564186942605e-17

-3.598401230125225e-17  1.614504654703148e-18  1.042990165112311e+00
 1.614504654703148e-18 -2.861048311915183e-17  2.294357606479409e-01
 1.042990165112311e+00  2.294357606479409e-01 -3.998425134493339e-17

-3.643449105037709e-17  2.193483226775862e-18  1.021174744713212e+00
 2.193483226775862e-18 -2.820904451803733e-17  2.653075227687927e-01
 1.021174744713212e+00  2.653075227687927e-01 -3.907188200413275e-17

-3.888732620429809e-17  1.659262265210824e-18  1.045662609035286e+00
 1.659262265210824e-18 -2.713255753207022e-17  5.094167188802342e-01
 1.045662609035286e+00  5.094167188802342e-01 -4.234745705745459e-17

-4.013631857770434e-17  3.035935665018473e-18  1.131636015407311e+00
 3.035935665018473e-18 -2.757693986954403e-17  4.891639876693151e-01
 1.131636015407311e+00  4.891639876693151e-01 -4.560628328703676e-17

-6.523451932766271e-17  8.307277319679076e-18  1.019970107156309e+00
 8.307277319679076e-18 -3.066909795320901e-17  3.702041134863319e-01
 1.019970107156309e+00  3.702041134863319e-01 -4.069782408413040e-17

-1.840528036212574e-16  3.527290152573098e-17  1.065119941125079e+00
 3.527290152573098e-17 -4.016336713791970e-17  1.838177756044908e-01
 1.065119941125079e+00  1.838177756044908e-01 -4.110019640722492e-17

 7.730996391551303e-19 -5.777329008215525e-18  8.116389790888278e-01
-5.777329008215525e-18 -2.526972149201407e-17  5.024975242363381e-01
 8.116389790888278e-01  5.024975242363381e-01 -3.451791451418441e-17

-4.242251117828298e-17  4.044795108990299e-18  8.959656680504489e-01
 4.044795108990299e-18 -2.801093206237903e-17  5.562200345693636e-01
 8.959656680504489e-01  5.562200345693636e-01 -3.784015464947452e-17

-4.297385278683848e-17  4.427099831511208e-18  9.349458066269275e-01
 4.427099831511208e-18 -3.035306990056106e-17  4.653987122161160e-01
 9.349458066269275e-01  4.653987122161160e-01 -3.942029746173044e-17

-4.312933226692241e-17  4.776180840319690e-18  9.361827730709649e-01
 4.776180840319690e-18 -3.302383627884046e-17  3.741654479045832e-01
 9.361827730709649e-01  3.741654479045832e-01 -4.002444389184091e-17

-4.550097945418807e-17  5.498132498238670e-18  9.456821338206406e-01
 5.498132498238670e-18 -3.434464585942649e-17  4.005942134202775e-01
 9.456821338206406e-01  4.005942134202775e-01 -4.096955655073732e-17

-4.671572029063153e-17  5.752798389109195e-18  9.375077142068560e-01
 5.752798389109195e-18 -3.504371161607325e-17  4.530824966325387e-01
 9.375077142068560e-01  4.530824966325387e-01 -4.133258064602493e-17

-4.843271154099193e-17  6.242157763561418e-18  9.355148672831466e-01
 6.242157763561418e-18 -3.677060630313885e-17  4.728923973792863e-01
 9.355148672831466e-01  4.728923973792863e-01 -4.196897452207665e-17

-5.092634725553367e-17  6.904865155664520e-18  1.038640079573191e+00
 6.904865155664520e-18 -4.034211867315769e-17  3.465603456285107e-01
 1.038640079573191e+00  3.465603456285107e-01 -4.606389714876209e-17

-5.169122953365829e-17  7.310645402456380e-18  9.853340642422757e-01
 7.310645402456380e-18 -4.117771966017981e-17  3.912455657219745e-01
 9.853340642422757e-01  3.912455657219745e-01 -4.467569240889530e-17

-5.445403523181315e-17  7.903951926729854e-18  1.077831005366246e+00
 7.903951926729854e-18 -4.403662475131343e-17  3.400082693459461e-01
 1.077831005366246e+00  3.400082693459461e-01 -4.855353571069739e-17

-5.539267982077503e-17  7.994128008693088e-18  1.017369170616380e+00
 7.994128008693088e-18 -4.432538961399811e-17  4.516886919133543e-01
 1.017369170616380e+00  4.516886919133543e-01 -4.730036272695282e-17

-5.812745085798399e-17  8.776739119441530e-18  1.065531318196047e+00
 8.776739119441530e-18 -4.679121150090026e-17  4.544406388105027e-01
 1.065531318196047e+00  4.544406388105027e-01 -4.987319073585496e-17

-5.818664468324851e-17  9.427633717608751e-18  9.415333373996806e-01
 9.427633717608751e-18 -4.670798336152472e-17  5.432771686707116e-01
 9.415333373996806e-01  5.432771686707116e-01 -4.598099220706953e-17

-6.051352748864378e-17  1.117275266740646e-17  9.301887027914009e-01
 1.117275266740646e-17 -5.069032755174048e-17  3.955940852371028e-01
 9.301887027914009e-01  3.955940852371028e-01 -4.652990279545653e-17

-6.540193400653032e-17  1.287012874805688e-17  9.991694260898502e-01
 1.287012874805688e-17 -5.686707886832856e-17  3.191813241657422e-01
 9.991694260898502e-01  3.191813241657422e-01 -5.025151509236762e-17

-6.537727511526347e-17  1.139365666255803e-17  7.547941845078507e-01
 1.139365666255803e-17 -5.632964709771615e-17  7.161195214972712e-01
 7.547941845078507e-01  7.161195214972712e-01 -4.534420861361929e-17

-7.224122977096768e-17  1.302259627394166e-17  1.047727750311061e+00
 1.302259627394166e-17 -6.349523233404278e-17  5.251554604805122e-01
 1.047727750311061e+00  5.251554604805122e-01 -5.593399046528249e-17

-8.399647405308052e-17  1.838763118037209e-17  1.103740207607017e+00
 1.838763118037209e-17 -7.351996472310875e-17  3.986267919693259e-01
 1.103740207607017e+00  3.986267919693259e-01 -5.985908665029315e-17

-8.938356501043824e-17  2.099339682121339e-17  1.043191265448890e+00
 2.099339682121339e-17 -8.022859662299192e-17  4.501440421613505e-01
 1.043191265448890e+00  4.501440421613505e-01 -6.054018211542017e-17

-3.729858768174347e-17 -1.517111202325206e-18  1.002304722215144e+00
-1.517111202325206e-18 -7.424925284381456e-17  4.669390263618295e-01
 1.002304722215144e+00  4.669390263618295e-01 -6.150445892102046e-17

-9.673359876235958e-17  2.680872099107532e-17  9.503502633793693e-01
 2.680872099107532e-17 -9.645175539918574e-17  4.063497294028315e-01
 9.503502633793693e-01  4.063497294028315e-01 -6.495480064861191e-17

-1.180952437659397e-16  3.552764831957223e-17  1.120972745276693e+00
 3.552764831957223e-17 -1.166236261447656e-16  3.089954732422346e-01
 1.120972745276693e+00  3.089954732422346e-01 -7.662604733601258e-17

-1.237609465035770e-16  3.472846605504112e-17  1.032790277867382e+00
 3.472846605504112e-17 -1.309427427249698e-16  5.547374672421590e-01
 1.032790277867382e+00  5.547374672421590e-01 -7.907402636640449e-17

-1.406180407944174e-16  4.203734673307851e-17  9.989011760324082e-01
 4.203734673307851e-17 -1.450007962734201e-16  5.985185901546983e-01
 9.989011760324082e-01  5.985185901546983e-01 -8.168090762476959e-17

-1.566074033933002e-16  5.211275797475260e-17  1.139063621360947e+00
 5.211275797475260e-17 -1.589856528461928e-16  3.731592467578985e-01
 1.139063621360947e+00  3.731592467578985e-01 -9.189724735526572e-17

-1.835525375796457e-16  6.703888155176832e-17  1.102531300673367e+00
 6.703888155176832e-17 -1.862570667239048e-16  3.710885720165447e-01
 1.102531300673367e+00  3.710885720165447e-01 -1.010619938873028e-16

-2.205127092542934e-16  8.455015113685487e-17  1.107469433708562e+00
 8.455015113685487e-17 -2.275516420509378e-16  4.822716353265865e-01
 1.107469433708562e+00  4.822716353265865e-01 -1.155480670155515e-16

-2.602456527255315e-16  1.095588067038974e-16  1.080135950007669e+00
 1.095588067038974e-16 -2.528432940185976e-16  4.470773727326406e-01
 1.080135950007669e+00  4.470773727326406e-01 -1.286548973774871e-16

-3.291961825467915e-16  1.543392698975963e-16  9.955583194435916e-01
 1.543392698975963e-16 -2.829744543172070e-16  4.408188682762151e-01
 9.955583194435916e-01  4.408188682762151e-01 -1.494561570898443e-16

-4.487109492422073e-16  2.252515098166181e-16  9.757567546502548e-01
 2.252515098166181e-16 -2.952560767865720e-16  3.348666423120225e-01
 9.757567546502548e-01  3.348666423120225e-01 -1.879402852990649e-16

-5.321145742965198e-16  2.704653633041451e-16  1.075047119711739e+00
 2.704653633041451e-16 -3.302692571384834e-16  2.345818395328905e-01
 1.075047119711739e+00  2.345818395328905e-01 -2.179904691741982e-16

-6.930298967564500e-16  3.296004534503170e-16  1.023729295818578e+00
 3.296004534503170e-16 -4.789784194818827e-16  5.172845280665789e-01
 1.023729295818578e+00  5.172845280665789e-01 -2.617016083648372e-16

-9.753326307607545e-16  5.164495825578827e-16  1.105136086686284e+00
 5.164495825578827e-16 -6.308107200688151e-16  4.290943043513871e-01
 1.105136086686284e+00  4.290943043513871e-01 -4.016125436003562e-16

-1.749399735725884e-15  7.805674792088395e-16  1.032364211287091e+00
 7.805674792088395e-16 -5.516199263256677e-16  3.940219691036925e-01
 1.032364211287091e+00  3.940219691036925e-01 -6.266151398011956e-16

-2.333356647368762e-15  9.590080108747712e-16  1.002024861496538e+00
 9.590080108747712e-16 -5.265801445385698e-16  4.392991938442900e-01
 1.002024861496538e+00  4.392991938442900e-01 -8.345950042500572e-16

-3.610876637107693e-15  1.196426869595568e-15  1.010384415894641e+00
 1.196426869595568e-15 -2.889539120939858e-16  4.403561463411541e-01
 1.010384415894641e+00  4.403561463411541e-01 -1.321264240902326e-15

-5.171305373232867e-15  1.263786292396249e-15  9.780494892800672e-01
 1.263786292396249e-15  3.496067648682254e-16  4.638512720829481e-01
 9.780494892800672e-01  4.638512720829481e-01 -2.054734126169937e-15

-7.649705860810686e-15  1.137954989367865e-15  1.012887823170465e+00
 1.137954989367865e-15  1.453085644579065e-15  3.952996040315755e-01
 1.012887823170465e+00  3.952996040315755e-01 -3.205785465330214e-15

-1.093650445598523e-14  5.742074336280357e-16  1.044523829384430e+00
 5.742074336280357e-16  3.125710356817449e-15  3.784676928810635e-01
 1.044523829384430e+00  3.784676928810635e-01 -4.994271272320432e-15

-1.589943860736867e-14 -6.561415797113212e-16  9.988605599341336e-01
-6.561415797113212e-16  4.704302468904162e-15  4.722032972628661e-01
 9.988605599341336e-01  4.722032972628661e-01 -7.795931627645794e-15

 2.400775387426521e-14 -2.765252264782065e-14  1.053937611919347e+00
-2.765252264782065e-14  6.005302614052312e-14  4.307092437917950e-01
 1.053937611919347e+00  4.307092437917950e-01  2.895503401729809e-15

-6.286444051189474e-13  1.402396057915743e-13  9.490156723440596e-01
 1.402396057915743e-13 -2.296647646275528e-13  5.039616933856569e-01
 9.490156723440596e-01  5.039616933856569e-01 -2.218589459780715e-13

 8.445052903762731e-14 -3.739492552478063e-14  1.030924844201879e+00
-3.739492552478063e-14  9.789060891935364e-14  3.902507303265941e-01
 1.030924844201879e+00  3.902507303265941e-01  1.913535934262937e-14

-6.416214155998997e-13  1.323459549867463e-13  9.748308043111577e-01
 1.323459549867463e-13 -2.612597224212489e-13  3.670847101138867e-01
 9.748308043111577e-01  3.670847101138867e-01 -1.551804172696756e-13

-4.877140432697848e-15  1.000317988981339e-14  1.109093371646094e+00
 1.000317988981339e-14  2.424882125337820e-14  4.428038534586333e-01
 1.109093371646094e+00  4.428038534586333e-01 -9.758906334426293e-15

-3.688420875404642e-15  1.047819820767761e-14  1.024726710771512e+00
 1.047819820767761e-14  8.692312865901616e-15  4.424585177332072e-01
 1.024726710771512e+00  4.424585177332072e-01 -5.341263181439981e-15

-3.015026757424179e-15  8.592035457632243e-15  1.029725327077280e+00
 8.592035457632243e-15  6.126904105270230e-15  4.027734600727805e-01
 1.029725327077280e+00  4.027734600727805e-01 -4.010861833763650e-15

-2.400238473415410e-15  5.249445195849118e-15  9.943953454256974e-01
 5.249445195849118e-15  4.012544167897975e-15  4.051829689097194e-01
 9.943953454256974e-01  4.051829689097194e-01 -2.374648361198420e-15

-1.687951025967953e-15  2.121011639120920e-15  9.774802832458294e-01
 2.121011639120920e-15  2.215320078873200e-15  4.180968479571476e-01
 9.774802832458294e-01  4.180968479571476e-01 -1.119303034437599e-15

-1.185007938558775e-15  1.004581950078660e-15  1.098356661122400e+00
 1.004581950078660e-15  1.290058946120902e-15  3.136923625605682e-01
 1.098356661122400e+00  3.136923625605682e-01 -6.636270226519596e-16

-1.114111726503555e-15  7.703427907209399e-16  8.467565663079459e-01
 7.703427907209399e-16  1.185043173249907e-15  5.993542268958620e-01
 8.467565663079459e-01  5.993542268958620e-01 -5.746720432328729e-16

-9.692574764653848e-16  6.084072942716657e-16  8.847457798703280e-01
 6.084072942716657e-16  9.660023538714375e-16  5.548161461192033e-01
 8.847457798703280e-01  5.548161461192033e-01 -4.901554287944158e-16

-6.845500818239543e-16  4.048690620730698e-16  1.114924212961188e+00
 4.048690620730698e-16  5.721308647480655e-16  1.034943563104741e-01
 1.114924212961188e+00  1.034943563104741e-01 -3.575325469685885e-16

-6.321615000572181e-16  2.787473977196629e-16  9.899917321608701e-01
 2.787473977196629e-16  4.797723400519917e-16  4.134672002919550e-01
 9.899917321608701e-01  4.134672002919550e-01 -3.041826934696818e-16

-5.979231761693659e-16  2.012394406808391e-16  7.683864057595248e-01
 2.012394406808391e-16  4.765851284576750e-16  8.053884196461419e-01
 7.683864057595248e-01  8.053884196461419e-01 -2.777075739473741e-16

-5.105867342189518e-16  1.659913175413492e-16  1.010911880319814e+00
 1.659913175413492e-16  3.700159188610435e-16  5.608306236233588e-01
 1.010911880319814e+00  5.608306236233588e-01 -2.449599263115832e-16

-4.511021208408086e-16  1.486500671046517e-16  1.099419738784306e+00
 1.486500671046517e-16  3.029474593927718e-16  3.790120437697168e-01
 1.099419738784306e+00  3.790120437697168e-01 -2.232499419554806e-16

-3.956985372382588e-16  1.330198019028199e-16  1.092915969258800e+00
 1.330198019028199e-16  2.458109186769592e-16  3.086015015206215e-01
 1.092915969258800e+00  3.086015015206215e-01 -2.005145505816566e-16

-3.321041590153468e-16  9.946987620358444e-17  8.401525742590151e-01
 9.946987620358444e-17  1.924721064853390e-16  4.740939054430884e-01
 8.401525742590151e-01  4.740939054430884e-01 -1.631846333851331e-16

-2.803380897018664e-16  7.919810827563383e-17  8.652883907183678e-01
 7.919810827563383e-17  1.441097640520343e-16  3.735549831325065e-01
 8.652883907183678e-01  3.735549831325065e-01 -1.419477230330407e-16

-2.471114196842622e-16  6.162846634180153e-17  7.908267841849825e-01
 6.162846634180153e-17  1.177932292911271e-16  4.516159146485000e-01
 7.908267841849825e-01  4.516159146485000e-01 -1.239969136265290e-16

-2.201512301535020e-16  4.668093559690092e-17  8.173369570626128e-01
 4.668093559690092e-17  9.485090504925888e-17  4.781854753015162e-01
 8.173369570626128e-01  4.781854753015162e-01 -1.120375398337488e-16

-2.021810664251324e-16  3.790619525985081e-17  7.205854131982834e-01
 3.790619525985081e-17  8.230884226339331e-17  5.669067723139632e-01
 7.205854131982834e-01  5.669067723139632e-01 -1.006894142802892e-16

-1.891027515432033e-16  3.280513725542544e-17  8.730939565374278e-01
 3.280513725542544e-17  6.805459703619316e-17  3.947112208990834e-01
 8.730939565374278e-01  3.947112208990834e-01 -9.908831547348387e-17

-1.757211355133375e-16  2.770367153947215e-17  8.859312568605850e-01
 2.770367153947215e-17  5.710899016772888e-17  3.520899423700444e-01
 8.859312568605850e-01  3.520899423700444e-01 -9.234704097057309e-17

-1.657377788031779e-16  2.294723522066175e-17  1.370046437769446e+00
 2.294723522066175e-17  3.978776205353494e-17 -6.353626653310614e-03
 1.370046437769446e+00 -6.353626653310614e-03 -9.822336961255922e-17

-1.609368147148518e-16  1.838020582539727e-17  1.398292522240554e+00
 1.838020582539727e-17  3.461084204437199e-17  8.752139810759405e-02
 1.398292522240554e+00  8.752139810759405e-02 -9.778427920247817e-17

-1.562460085494350e-16  1.170069571163474e-17  1.091919877899970e+00
 1.170069571163474e-17  3.356877540407898e-17  5.390384168189787e-01
 1.091919877899970e+00  5.390384168189787e-01 -9.380908136479213e-17

-1.496003616760204e-16  6.438265082355424e-18  9.728833458239838e-01
 6.438265082355424e-18  3.013336136340142e-17  8.885414667480730e-01
 9.728833458239838e-01  8.885414667480730e-01 -9.060821812417408e-17

-1.434622674902275e-16  6.035743340404045e-18  1.202747366053804e+00
 6.035743340404045e-18  2.280128687428822e-17  7.417327904670342e-01
 1.202747366053804e+00  7.417327904670342e-01 -9.207541967864073e-17

-1.316278877590727e-16  6.580421930127434e-18  1.430560440965458e+00
 6.580421930127434e-18  9.412402243895537e-18  3.068985866101330e-01
 1.430560440965458e+00  3.068985866101330e-01 -9.160488253411234e-17

-1.163795549781079e-16  5.540065090452500e-18  1.224588239154920e+00
 5.540065090452500e-18  5.355136705520939e-18  3.906705318899820e-01
 1.224588239154920e+00  3.906705318899820e-01 -7.877066362671381e-17

-1.019326076787906e-16  3.985426997216663e-18  1.174368244684621e+00
 3.985426997216663e-18  7.983157470219727e-20  4.547696788011356e-01
 1.174368244684621e+00  4.547696788011356e-01 -7.099795351081027e-17

-9.108495132756818e-17  2.787141941270099e-18  1.164892909495628e+00
 2.787141941270099e-18 -4.522665191452650e-18  4.395875471656747e-01
 1.164892909495628e+00  4.395875471656747e-01 -6.605426295026153e-17

-8.637417022889270e-17  2.227851826436490e-18  1.171503006947161e+00
 2.227851826436490e-18 -6.520015475855986e-18  4.387125202212671e-01
 1.171503006947161e+00  4.387125202212671e-01 -6.425261295022335e-17

-8.089874971848617e-17  1.625567393330451e-18  1.142288836253198e+00
 1.625567393330451e-18 -7.776953079826354e-18  4.844902774863941e-01
 1.142288836253198e+00  4.844902774863941e-01 -6.106362370351986e-17

-7.202908451602850e-17  8.230233843344835e-19  1.132443890106431e+00
 8.230233843344835e-19 -1.051249749465347e-17  4.826043393494862e-01
 1.132443890106431e+00  4.826043393494862e-01 -5.693851840658053e-17

-6.428911217314945e-17  3.912271396293483e-19  1.035579496796102e+00
 3.912271396293483e-19 -1.121812360454138e-17  4.845501148279150e-01
 1.035579496796102e+00  4.845501148279150e-01 -5.078548462250893e-17

-6.010842829821441e-17  1.712177451079470e-19  1.029947617257402e+00
 1.712177451079470e-19 -1.336409158061395e-17  3.812315343081225e-01
 1.029947617257402e+00  3.812315343081225e-01 -4.896847351830967e-17

-5.689939780065827e-17  4.233941573550033e-20  1.001261009440539e+00
 4.233941573550033e-20 -1.323271052805880e-17  4.300311805363585e-01
 1.001261009440539e+00  4.300311805363585e-01 -4.677765721108089e-17

-5.422408317821588e-17 -2.733112778277468e-19  1.035943106632009e+00
-2.733112778277468e-19 -1.364521985570355e-17  4.943643952036453e-01
 1.035943106632009e+00  4.943643952036453e-01 -4.707716957685165e-17

-5.109649902280349e-17 -2.596602446349847e-19  1.026302091898595e+00
-2.596602446349847e-19 -1.496853778003853e-17  4.338318995598395e-01
 1.026302091898595e+00  4.338318995598395e-01 -4.553726714359232e-17

-4.829610680946967e-17 -2.704953123074424e-19  1.000160242496838e+00
-2.704953123074424e-19 -1.564572038444039e-17  3.991855163385133e-01
 1.000160242496838e+00  3.991855163385133e-01 -4.373338495041318e-17

-4.578420269064446e-17 -2.378782797865059e-19  9.899480506826597e-01
-2.378782797865059e-19 -1.548575040973963e-17  4.212094714231275e-01
 9.899480506826597e-01  4.212094714231275e-01 -4.256411569477427e-17

-4.352560124344107e-17 -1.723780868438386e-19  9.891924815020390e-01
-1.723780868438386e-19 -1.596796488873166e-17  4.032887719738398e-01
 9.891924815020390e-01  4.032887719738398e-01 -4.171655652244953e-17

-4.154518046882136e-17 -1.270516766917648e-19  9.755217365526726e-01
-1.270516766917648e-19 -1.567980855645826e-17  4.183138112510757e-01
 9.755217365526726e-01  4.183138112510757e-01 -4.052850132898858e-17

-3.918455287699305e-17 -1.533871965460729e-19  9.341500731966216e-01
-1.533871965460729e-19 -1.565137888910310e-17  4.048224988188961e-01
 9.341500731966216e-01  4.048224988188961e-01 -3.834159803558380e-17

-3.731951012932617e-17 -1.504355195207822e-19  9.365337419094393e-01
-1.504355195207822e-19 -1.584995142907485e-17  4.087737892278833e-01
 9.365337419094393e-01  4.087737892278833e-01 -3.761046203579900e-17

-3.778274970432619e-17  3.934377178086480e-19  1.112048022775867e+00
 3.934377178086480e-19 -1.949856264496623e-17  2.171090755956779e-01
 1.112048022775867e+00  2.171090755956779e-01 -4.194582435056797e-17

-3.739391106335412e-17 -1.927052596994570e-19  9.943212037467246e-01
-1.927052596994570e-19 -1.480945005607589e-17  6.216770637547659e-01
 9.943212037467246e-01  6.216770637547659e-01 -4.077549407544196e-17

-3.707157713251760e-17  6.771984411814376e-19  1.065633962746241e+00
 6.771984411814376e-19 -1.511859967077073e-17  5.213285899272827e-01
 1.065633962746241e+00  5.213285899272827e-01 -4.192107852966666e-17

-3.599968260503623e-17 -1.117343497642583e-18  1.084523292203375e+00
-1.117343497642583e-18 -1.957482353757519e-17  2.764746858364307e-01
 1.084523292203375e+00  2.764746858364307e-01 -4.150543554990657e-17

-3.188922243205432e-17 -4.827407618951337e-19  8.325235899706787e-01
-4.827407618951337e-19 -1.612744940850196e-17  3.678750985354981e-01
 8.325235899706787e-01  3.678750985354981e-01 -3.244305741252004e-17

-3.163236534263571e-17  1.702353721004956e-20  8.688938855950115e-01
 1.702353721004956e-20 -1.574089423152349e-17  3.489695313929252e-01
 8.688938855950115e-01  3.489695313929252e-01 -3.303842368735340e-17

-3.268067859492122e-17  6.960985048875489e-20  9.619446198075131e-01
 6.960985048875489e-20 -1.620749745690939e-17  3.605947890600770e-01
 9.619446198075131e-01  3.605947890600770e-01 -3.613008189581156e-17

-3.455288566249172e-17 -1.688726808559111e-19  1.082499900883402e+00
-1.688726808559111e-19 -1.644124090328473e-17  4.312809456475187e-01
 1.082499900883402e+00  4.312809456475187e-01 -4.099613785889772e-17

-3.244791962864915e-17  1.088833798547334e-19  8.958264220202368e-01
 1.088833798547334e-19 -1.235004919582842e-17  6.671206135194884e-01
 8.958264220202368e-01  6.671206135194884e-01 -3.452053859726515e-17

-3.320539321196281e-17  1.468643962031656e-19  1.018460697266709e+00
 1.468643962031656e-19 -1.505386285002172e-17  4.859806761410236e-01
 1.018460697266709e+00  4.859806761410236e-01 -3.813027706147267e-17

-3.443254041017787e-17 -4.726709116265495e-19  1.169245289276722e+00
-4.726709116265495e-19 -1.910746269386067e-17  2.728047891332446e-01
 1.169245289276722e+00  2.728047891332446e-01 -4.342639331489740e-17

-3.065427896436588e-17 -3.056035399030505e-19  8.958826861956490e-01
-3.056035399030505e-19 -1.561287815301064e-17  4.137510947188652e-01
 8.958826861956490e-01  4.137510947188652e-01 -3.347691081057442e-17

-3.151225224184778e-17 -3.027068619593101e-19  1.028433606240873e+00
-3.027068619593101e-19 -1.832422488096361e-17  2.403420126415962e-01
 1.028433606240873e+00  2.403420126415962e-01 -3.781630995551993e-17

-3.071629492614343e-17 -2.485916163817149e-19  9.635347363215784e-01
-2.485916163817149e-19 -1.570766820764600e-17  3.763855207736582e-01
 9.635347363215784e-01  3.763855207736582e-01 -3.551133358181164e-17

-3.014471909029415e-17 -2.687949929446782e-19  9.240553157915382e-01
-2.687949929446782e-19 -1.361149563791119e-17  4.993274184852776e-01
 9.240553157915382e-01  4.993274184852776e-01 -3.413620567244016e-17

-2.883916418031850e-17 -3.278630655599549e-19  9.066479452230544e-01
-3.278630655599549e-19 -1.488051098322789e-17  3.933206057916948e-01
 9.066479452230544e-01  3.933206057916948e-01 -3.304914933654064e-17

-2.829951628861472e-17 -3.745353053773472e-19  8.732179854791929e-01
-3.745353053773472e-19 -1.339716634535625e-17  4.833818228127080e-01
 8.732179854791929e-01  4.833818228127080e-01 -3.183305793187106e-17

-2.867335015061128e-17 -3.642732817373398e-19  9.284602499549143e-01
-3.642732817373398e-19 -1.453034586438052e-17  4.238109136723991e-01
 9.284602499549143e-01  4.238109136723991e-01 -3.366680841135229e-17

-2.903899666169652e-17 -3.721031476428434e-19  9.816961479879465e-01
-3.721031476428434e-19 -1.560698292176339e-17  3.675518015057743e-01
 9.816961479879465e-01  3.675518015057743e-01 -3.544739507170522e-17

-2.851091920071503e-17 -4.181735637104515e-19  9.426784954574595e-01
-4.181735637104515e-19 -1.424244674825304e-17  4.524641751959111e-01
 9.426784954574595e-01  4.524641751959111e-01 -3.411545738385037e-17

-2.833842734897669e-17 -4.013497804242033e-19  9.588221464992288e-01
-4.013497804242033e-19 -1.501402011412971e-17  4.000712204116014e-01
 9.588221464992288e-01  4.000712204116014e-01 -3.456692542321421e-17

-2.798448737114711e-17 -3.983421584610624e-19  9.446683098340267e-01
-3.983421584610624e-19 -1.500874696193386e-17  3.940865062137132e-01
 9.446683098340267e-01  3.940865062137132e-01 -3.400616132276607e-17

-2.694452843342467e-17 -3.176330833638869e-19  8.897537092718431e-01
-3.176330833638869e-19 -1.426601201375209e-17  4.206681299841602e-01
 8.897537092718431e-01  4.206681299841602e-01 -3.187042122921700e-17

-2.748797260023745e-17  2.611287399217038e-19  9.853407577783975e-01
 2.611287399217038e-19 -1.682531190327330e-17  2.459967720569951e-01
 9.853407577783975e-01  2.459967720569951e-01 -3.362918283414778e-17

-3.245286451697651e-17  8.021460621393027e-19  1.432740213621779e+00
 8.021460621393027e-19 -2.211925146270295e-17 -5.963452708330375e-02
 1.432740213621779e+00 -5.963452708330375e-02 -4.712641469332873e-17

-2.817162948225185e-17 -6.585064637684265e-19  9.280261481029305e-01
-6.585064637684265e-19 -1.438637106795813e-17  5.252273338100133e-01
 9.280261481029305e-01  5.252273338100133e-01 -3.463444220355568e-17

-2.638334078180621e-17 -1.146462647792407e-18  6.894118764539079e-01
-1.146462647792407e-18 -1.003997673378747e-17  8.637901851632479e-01
 6.894118764539079e-01  8.637901851632479e-01 -2.896665807202023e-17

-3.020441769762622e-17 -3.756035009923395e-19  1.107400598507150e+00
-3.756035009923395e-19 -1.643031930393027e-17  4.267073224083016e-01
 1.107400598507150e+00  4.267073224083016e-01 -4.027241723270738e-17

-2.954852077611626e-17 -4.885464370250016e-19  1.099374233658815e+00
-4.885464370250016e-19 -1.824532609843176e-17  2.934386388264810e-01
 1.099374233658815e+00  2.934386388264810e-01 -3.960853646183391e-17

-2.775393844624989e-17 -3.240754840711641e-19  9.875983786568607e-01
-3.240754840711641e-19 -1.666008125781409e-17  3.408455639375084e-01
 9.875983786568607e-01  3.408455639375084e-01 -3.533679366420591e-17

-2.735632160080474e-17 -2.413106535658040e-19  9.574165921965624e-01
-2.413106535658040e-19 -1.507821450614089e-17  4.104300386198381e-01
 9.574165921965624e-01  4.104300386198381e-01 -3.412230690706710e-17

-2.717184409521325e-17 -2.399975573005220e-19  9.562527181354582e-01
-2.399975573005220e-19 -1.476102504613269e-17  4.220425223207734e-01
 9.562527181354582e-01  4.220425223207734e-01 -3.400242676774151e-17

-2.722522020414902e-17 -2.849101685068691e-19  9.786051771252233e-01
-2.849101685068691e-19 -1.539624623526080e-17  3.770303286538345e-01
 9.786051771252233e-01  3.770303286538345e-01 -3.473240214000586e-17

-2.673751481047994e-17 -2.972974432516223e-19  9.559784690280220e-01
-2.972974432516223e-19 -1.483750024958287e-17  4.002407623910613e-01
 9.559784690280220e-01  4.002407623910613e-01 -3.385169910108502e-17

-2.676011654977834e-17 -3.138037343481001e-19  9.698550179318177e-01
-3.138037343481001e-19 -1.491262959611232e-17  3.912782504626308e-01
 9.698550179318177e-01  3.912782504626308e-01 -3.428765914031445e-17

-2.674937944264174e-17 -3.210112607321486e-19  9.802094861783968e-01
-3.210112607321486e-19 -1.514118085976452e-17  3.754010316900252e-01
 9.802094861783968e-01  3.754010316900252e-01 -3.463676738162164e-17

-2.640053105934688e-17 -3.227971744202347e-19  9.580704458434366e-01
-3.227971744202347e-19 -1.464846747934667e-17  4.002411298507255e-01
 9.580704458434366e-01  4.002411298507255e-01 -3.382218171590832e-17

-2.586792699435299e-17 -3.025690842781472e-19  9.180549857872613e-01
-3.025690842781472e-19 -1.377472771705267e-17  4.408096095317473e-01
 9.180549857872613e-01  4.408096095317473e-01 -3.235975632067229e-17

-2.621269790925179e-17 -2.955765809405449e-19  9.708113898280583e-01
-2.955765809405449e-19 -1.528381615202257e-17  3.530596500149914e-01
 9.708113898280583e-01  3.530596500149914e-01 -3.418352202580788e-17

-2.646471087928162e-17 -2.870302577787526e-19  9.944585527216957e-01
-2.870302577787526e-19 -1.541761526455399e-17  3.450679893032748e-01
 9.944585527216957e-01  3.450679893032748e-01 -3.501285080048542e-17

-2.612851277094609e-17 -2.847227278553775e-19  9.533110188950045e-01
-2.847227278553775e-19 -1.343053809658605e-17  4.605684991337385e-01
 9.533110188950045e-01  4.605684991337385e-01 -3.366366833134933e-17

-2.559397775279092e-17 -2.547287272091502e-19  9.332591763728000e-01
-2.547287272091502e-19 -1.365008271161740e-17  4.274775087274764e-01
 9.332591763728000e-01  4.274775087274764e-01 -3.283446471054091e-17

-2.558439708895146e-17 -3.625087366329255e-19  9.536735203452318e-01
-3.625087366329255e-19 -1.475846748032703e-17  3.586604481530913e-01
 9.536735203452318e-01  3.586604481530913e-01 -3.360718982548238e-17

-2.413186628897269e-17 -2.436330279817359e-19  8.558939716107629e-01
-2.436330279817359e-19 -1.317402446531446e-17  4.160774992728483e-01
 8.558939716107629e-01  4.160774992728483e-01 -2.987635225093862e-17

-2.512230707962989e-17  3.070512965637655e-19  9.747284525280391e-01
 3.070512965637655e-19 -1.568780129922545e-17  2.476849993595375e-01
 9.747284525280391e-01  2.476849993595375e-01 -3.248931900724841e-17

-3.015763651076973e-17  7.554536009504894e-19  1.420268175526269e+00
 7.554536009504894e-19 -2.100899283583493e-17 -4.827310685398496e-02
 1.420268175526269e+00 -4.827310685398496e-02 -4.618407359985183e-17

-2.538486480889819e-17 -7.265795682265177e-19  8.664670583268568e-01
-7.265795682265177e-19 -1.261750005726509e-17  5.668956015690917e-01
 8.664670583268568e-01  5.668956015690917e-01 -3.190235080807181e-17

-2.429057132065746e-17 -1.125444997066478e-18  6.989661128450015e-01
-1.125444997066478e-18 -9.293100416134870e-18  8.336222785935892e-01
 6.989661128450015e-01  8.336222785935892e-01 -2.805049202227633e-17

-2.811887324066675e-17 -4.465282302700979e-19  1.105316863337185e+00
-4.465282302700979e-19 -1.585310695308407e-17  4.028508319090949e-01
 1.105316863337185e+00  4.028508319090949e-01 -3.941418116096396e-17

-2.730385694959161e-17 -4.237674409017430e-19  1.075441972573804e+00
-4.237674409017430e-19 -1.679073613992182e-17  3.201966577953819e-01
 1.075441972573804e+00  3.201966577953819e-01 -3.800158951157388e-17

-2.606447028337472e-17 -3.502373557188699e-19  9.970449128929970e-01
-3.502373557188699e-19 -1.575317159282840e-17  3.470509545938893e-01
 9.970449128929970e-01  3.470509545938893e-01 -3.500387838225247e-17

-2.551110078001298e-17 -3.099937865882590e-19  9.568380328254995e-01
-3.099937865882590e-19 -1.439519725080543e-17  4.028029633417847e-01
 9.568380328254995e-01  4.028029633417847e-01 -3.346366171167562e-17

-2.559169158864538e-17 -3.245013267934230e-19  9.751424832959016e-01
-3.245013267934230e-19 -1.462748131128445e-17  3.825489677846483e-01
 9.751424832959016e-01  3.825489677846483e-01 -3.408645878160865e-17

-2.550844720421277e-17 -3.308858033469012e-19  9.780562688277459e-01
-3.308858033469012e-19 -1.449881212897110e-17  3.827763843688964e-01
 9.780562688277459e-01  3.827763843688964e-01 -3.417321923718836e-17

-2.504898738930288e-17 -2.926729167581797e-19  9.506445405221036e-01
-2.926729167581797e-19 -1.337481007111443e-17  4.289374576946818e-01
 9.506445405221036e-01  4.289374576946818e-01 -3.316008431345234e-17

-2.406689117854699e-17 -2.730218784089764e-19  8.885243809356708e-01
-2.730218784089764e-19 -1.256950042588684e-17  4.485559641492667e-01
 8.885243809356708e-01  4.485559641492667e-01 -3.091447412008602e-17

-2.411215595305716e-17 -3.788316179860014e-19  9.136788183324701e-01
-3.788316179860014e-19 -1.375973474939350e-17  3.755254610633773e-01
 9.136788183324701e-01  3.755254610633773e-01 -3.191694102980881e-17

-2.288893094791331e-17 -2.240242289181320e-19  8.323838145150105e-01
-2.240242289181320e-19 -1.260069728078495e-17  4.111788168514537e-01
 8.323838145150105e-01  4.111788168514537e-01 -2.883137486371798e-17

-2.443237088460882e-17  4.064797449040886e-19  9.845153702641600e-01
 4.064797449040886e-19 -1.533918795260588e-17  2.375931008575387e-01
 9.845153702641600e-01  2.375931008575387e-01 -3.257795841330138e-17

-2.990502506710075e-17  8.147782573609811e-19  1.457850116219636e+00
 8.147782573609811e-19 -2.088540573954122e-17 -6.236254496649701e-02
 1.457850116219636e+00 -6.236254496649701e-02 -4.740074583022083e-17

-2.517734264669510e-17 -5.623736125023513e-19  9.182642842986632e-01
-5.623736125023513e-19 -1.286390418321275e-17  5.194968716896800e-01
 9.182642842986632e-01  5.194968716896800e-01 -3.337968793128587e-17

-2.358656258400445e-17 -9.915176501714365e-19  7.000956945317174e-01
-9.915176501714365e-19 -8.808392461510459e-18  8.309203224273376e-01
 7.000956945317174e-01  8.309203224273376e-01 -2.810398886342691e-17

-2.725155294641138e-17 -2.925720880121119e-19  1.092562514710400e+00
-2.925720880121119e-19 -1.516861609019461e-17  4.059803869565669e-01
 1.092562514710400e+00  4.059803869565669e-01 -3.884494391449189e-17

-2.671275110642145e-17 -4.368919140410537e-19  1.082448502390154e+00
-4.368919140410537e-19 -1.685151297911066e-17  2.860627981224832e-01
 1.082448502390154e+00  2.860627981224832e-01 -3.821398710279576e-17

-2.504005076429303e-17 -2.635790832390349e-19  9.706787953050875e-01
-2.635790832390349e-19 -1.521633390197736e-17  3.412545210460499e-01
 9.706787953050875e-01  3.412545210460499e-01 -3.397183569614119e-17

-2.484618926038206e-17 -2.017105552482422e-19  9.514520553642378e-01
-2.017105552482422e-19 -1.397566115298825e-17  3.978924107025293e-01
 9.514520553642378e-01  3.978924107025293e-01 -3.318702379309358e-17

-2.499097195740960e-17 -2.120055349060273e-19  9.653887324590132e-01
-2.120055349060273e-19 -1.391413230099911e-17  3.997793029248702e-01
 9.653887324590132e-01  3.997793029248702e-01 -3.365736397236165e-17

-2.516967225714775e-17 -2.219656021415872e-19  9.873369070366254e-01
-2.219656021415872e-19 -1.415776304590676e-17  3.834535019575258e-01
 9.873369070366254e-01  3.834535019575258e-01 -3.441548537904952e-17

-2.479139709342694e-17 -1.989288292960746e-19  9.636588550108807e-01
-1.989288292960746e-19 -1.317996207970446e-17  4.238795335610918e-01
 9.636588550108807e-01  4.238795335610918e-01 -3.350494495172195e-17

-2.374690082719476e-17 -1.902235861134124e-19  8.936010701230717e-01
-1.902235861134124e-19 -1.218277960571770e-17  4.541803782002672e-01
 8.936010701230717e-01  4.541803782002672e-01 -3.093653205518315e-17

-2.384885228070184e-17 -3.379196263925587e-19  9.235336757171200e-01
-3.379196263925587e-19 -1.349084058046945e-17  3.762067188656348e-01
 9.235336757171200e-01  3.762067188656348e-01 -3.209719252013220e-17

-2.261000947899230e-17 -2.260125914907441e-19  8.412915912558836e-01
-2.260125914907441e-19 -1.232862723778942e-17  4.134459897270845e-01
 8.412915912558836e-01  4.134459897270845e-01 -2.892514965926419e-17

-2.418000684086998e-17  3.747137852173798e-19  9.959690384345082e-01
 3.747137852173798e-19 -1.507951586953629e-17  2.416536870660410e-01
 9.959690384345082e-01  2.416536870660410e-01 -3.271890011559815e-17

-2.956404715407209e-17  7.726970864596150e-19  1.461836880008415e+00
 7.726970864596150e-19 -2.052320863208665e-17 -5.147621791062519e-02
 1.461836880008415e+00 -5.147621791062519e-02 -4.727725608705920e-17

-2.489815338695061e-17 -6.787214048771576e-19  9.211643294713583e-01
-6.787214048771576e-19 -1.251123373137640e-17  5.396334548729783e-01
 9.211643294713583e-01  5.396334548729783e-01 -3.342198861531366e-17

-2.343748600858776e-17 -1.084436847835741e-18  7.158302163080863e-01
-1.084436847835741e-18 -8.659619183317447e-18  8.413663069281417e-01
 7.158302163080863e-01  8.413663069281417e-01 -2.854839863364352e-17

-2.706623361095573e-17 -3.675595002996718e-19  1.108028780141093e+00
-3.675595002996718e-19 -1.503876725877415e-17  4.099152561111145e-01
 1.108028780141093e+00  4.099152561111145e-01 -3.921620345235988e-17

-2.648808208613525e-17 -5.050263892928835e-19  1.096545863686258e+00
-5.050263892928835e-19 -1.669490207424983e-17  2.885820464323905e-01
 1.096545863686258e+00  2.885820464323905e-01 -3.854400460025938e-17

-2.472759002523592e-17 -3.178286171091062e-19  9.785177628221037e-01
-3.178286171091062e-19 -1.485519164160739e-17  3.514030139138026e-01
 9.785177628221037e-01  3.514030139138026e-01 -3.409720424890920e-17

-2.415602399851886e-17 -2.386424784083711e-19  9.310526200004361e-01
-2.386424784083711e-19 -1.320646512561142e-17  4.224605274409722e-01
 9.310526200004361e-01  4.224605274409722e-01 -3.229055452017966e-17

-2.452005235569078e-17 -2.607571956726282e-19  9.709474509181683e-01
-2.607571956726282e-19 -1.397080809309813e-17  3.732217533100506e-01
 9.709474509181683e-01  3.732217533100506e-01 -3.369146445953793e-17

-2.459108885455649e-17 -2.659542052886720e-19  9.862346532330494e-01
-2.659542052886720e-19 -1.409266118007130e-17  3.629059453837433e-01
 9.862346532330494e-01  3.629059453837433e-01 -3.421843954817794e-17

-2.421427000135983e-17 -2.205737805153400e-19  9.478154344751888e-01
-2.205737805153400e-19 -1.240335373400536e-17  4.470150428113583e-01
 9.478154344751888e-01  4.470150428113583e-01 -3.283029647150591e-17

-2.332255745520754e-17 -2.118893890269292e-19  8.928514373328503e-01
-2.118893890269292e-19 -1.183618558247848e-17  4.562659241346882e-01
 8.928514373328503e-01  4.562659241346882e-01 -3.081710693207818e-17

-2.333758306761423e-17 -3.894869905458399e-19  9.350166443269897e-01
-3.894869905458399e-19 -1.343061060065321e-17  3.642796854640705e-01
 9.350166443269897e-01  3.642796854640705e-01 -3.243299536028850e-17

-2.053005082344185e-17 -4.378080563029468e-19  8.440061335695479e-01
-4.378080563029468e-19 -1.193045640976214e-17  4.186776564884446e-01
 8.440061335695479e-01  4.186776564884446e-01 -2.896913015325796e-17

-3.113485046017764e-17  1.299643395779624e-18  1.002203498468779e+00
 1.299643395779624e-18 -1.502602360220478e-17  2.322218330028692e-01
 1.002203498468779e+00  2.322218330028692e-01 -3.282698078330323e-17

-2.784628026553766e-17  6.598636618074176e-19  1.478685461129053e+00
 6.598636618074176e-19 -2.055137046805529e-17 -7.842725265327906e-02
 1.478685461129053e+00 -7.842725265327906e-02 -4.755474144336899e-17

-9.400541107154029e-18 -2.487559992681431e-18  9.244964951479030e-01
-2.487559992681431e-18 -1.211738245067637e-17  5.247766039419980e-01
 9.244964951479030e-01  5.247766039419980e-01 -3.334513408990787e-17

-9.460488974689306e-17  7.821271617159144e-18  7.049385478114242e-01
 7.821271617159144e-18 -9.383850839574241e-18  8.460607481471980e-01
 7.049385478114242e-01  8.460607481471980e-01 -2.820397199609602e-17

-6.077973817253720e-17  3.890730782749690e-18  1.104680212416900e+00
 3.890730782749690e-18 -1.519934671284699e-17  4.148679800351735e-01
 1.104680212416900e+00  4.148679800351735e-01 -3.904353257690093e-17

-4.534378241079482e-17  1.917884520760161e-18  1.093266566619314e+00
 1.917884520760161e-18 -1.666000521455513e-17  2.918377838736014e-01
 1.093266566619314e+00  2.918377838736014e-01 -3.833718390767812e-17

-2.998840044117629e-17  3.780403630381941e-19  9.800952283215130e-01
 3.780403630381941e-19 -1.481322779984488e-17  3.458275214734882e-01
 9.800952283215130e-01  3.458275214734882e-01 -3.405762617297478e-17

-2.397430229886075e-17 -2.772502863640812e-19  9.541300564678550e-01
-2.772502863640812e-19 -1.337514412581977e-17  4.068441043142048e-01
 9.541300564678550e-01  4.068441043142048e-01 -3.305026038730400e-17

-2.457445155919259e-17 -2.234717802611756e-19  9.691324730118596e-01
-2.234717802611756e-19 -1.340730937797105e-17  4.025515832861830e-01
 9.691324730118596e-01  4.025515832861830e-01 -3.356855922163122e-17

-2.434824717172884e-17 -2.853942934576116e-19  9.903052663547324e-01
-2.853942934576116e-19 -1.366728490186786e-17  3.836864393848586e-01
 9.903052663547324e-01  3.836864393848586e-01 -3.431037257770458e-17

-2.411398136654006e-17 -2.344744659069650e-19  9.631553777155843e-01
-2.344744659069650e-19 -1.260615777224609e-17  4.284588510002077e-01
 9.631553777155843e-01  4.284588510002077e-01 -3.329691077419338e-17

-2.298605297308105e-17 -2.222103024978346e-19  8.908500284273350e-01
-2.222103024978346e-19 -1.157762485795805e-17  4.598813655770299e-01
 8.908500284273350e-01  4.598813655770299e-01 -3.065837361338811e-17

-2.314454666124557e-17 -3.622863320744368e-19  9.220339580309762e-01
-3.622863320744368e-19 -1.295743917895506e-17  3.778528228118321e-01
 9.220339580309762e-01  3.778528228118321e-01 -3.187251665863369e-17

-2.200700288026277e-17 -2.313487425219296e-19  8.444758463619155e-01
-2.313487425219296e-19 -1.188927280311359e-17  4.112626484055732e-01
 8.444758463619155e-01  4.112626484055732e-01 -2.887171686819288e-17

-2.567124041032350e-17  6.057001007830550e-19  1.006712762119155e+00
 6.057001007830550e-19 -1.464065617009246e-17  2.482453037564674e-01
 1.006712762119155e+00  2.482453037564674e-01 -3.301889498325142e-17

-3.137869299383014e-17  9.864260292746411e-19  1.478168132667978e+00
 9.864260292746411e-19 -2.017819703222763e-17 -4.528112304243970e-02
 1.478168132667978e+00 -4.528112304243970e-02 -4.796013889133481e-17

-2.203113744716119e-17 -9.980508190004128e-19  9.441503431547171e-01
-9.980508190004128e-19 -1.219869219182284e-17  5.275503082488591e-01
 9.441503431547171e-01  5.275503082488591e-01 -3.393824513454111e-17

-3.140715454014119e-17  1.122794391918306e-19  7.328269777035924e-01
 1.122794391918306e-19 -8.483492193460711e-18  8.297849698616251e-01
 7.328269777035924e-01  8.297849698616251e-01 -2.875966846377876e-17

 2.298646107302050e-17 -7.234654385023844e-18  1.108717628907790e+00
-7.234654385023844e-18 -1.359633430795193e-17  4.097073215144322e-01
 1.108717628907790e+00  4.097073215144322e-01 -3.903159320954140e-17

-8.666541150194685e-17  7.918134202023048e-18  1.094829736110722e+00
 7.918134202023048e-18 -1.734193969331027e-17  2.914493916160186e-01
 1.094829736110722e+00  2.914493916160186e-01 -3.830408793718900e-17

-4.635480268589746e-17  2.737438804953652e-18  9.788886856066517e-01
 2.737438804953652e-18 -1.486757676849904e-17  3.494652628630453e-01
 9.788886856066517e-01  3.494652628630453e-01 -3.393517101449312e-17

-2.270829973814699e-17 -4.543419513483656e-19  9.492326839780643e-01
-4.543419513483656e-19 -1.301916213650429e-17  4.108969931664947e-01
 9.492326839780643e-01  4.108969931664947e-01 -3.279355657393056e-17

-2.553381089254832e-17 -9.244353367945871e-20  9.678084816814747e-01
-9.244353367945871e-20 -1.320507483965916e-17  3.989324989879642e-01
 9.678084816814747e-01  3.989324989879642e-01 -3.343845023271190e-17

-2.363864043537361e-17 -3.770196073127360e-19  9.835803075990518e-01
-3.770196073127360e-19 -1.334372904523638e-17  3.844463139037432e-01
 9.835803075990518e-01  3.844463139037432e-01 -3.399771960699730e-17

-2.352197215204495e-17 -3.009223406540248e-19  9.529115688734695e-01
-3.009223406540248e-19 -1.227602197137722e-17  4.294419819245167e-01
 9.529115688734695e-01  4.294419819245167e-01 -3.288034116054321e-17

-2.280470021442678e-17 -2.795407817057994e-19  9.000637071475885e-01
-2.795407817057994e-19 -1.166743596687896e-17  4.409136796643400e-01
 9.000637071475885e-01  4.409136796643400e-01 -3.098450478480746e-17

-2.283686029635886e-17 -3.655092227960814e-19  9.193224407315745e-01
-3.655092227960814e-19 -1.266673004241386e-17  3.783265206632971e-01
 9.193224407315745e-01  3.783265206632971e-01 -3.175910458469728e-17

-2.166295952544452e-17 -2.312712925893731e-19  8.393365224075462e-01
-2.312712925893731e-19 -1.152360623216846e-17  4.157462926898053e-01
 8.393365224075462e-01  4.157462926898053e-01 -2.873929736505458e-17

-2.313506193081138e-17  4.007523396984583e-19  9.851724065197973e-01
 4.007523396984583e-19 -1.432129286557451e-17  2.368853347768049e-01
 9.851724065197973e-01  2.368853347768049e-01 -3.224524188618493e-17

-2.854238836559977e-17  8.317879055408270e-19  1.454176594734591e+00
 8.317879055408270e-19 -1.982667444601220e-17 -6.299860914748723e-02
 1.454176594734591e+00 -6.299860914748723e-02 -4.682264605997941e-17

-2.389176225142384e-17 -5.955491454217249e-19  9.157217393209981e-01
-5.955491454217249e-19 -1.179541986679656e-17  5.257627139955788e-01
 9.157217393209981e-01  5.257627139955788e-01 -3.301628624360810e-17

-2.233851434681154e-17 -1.037506095241168e-18  6.971610114510181e-01
-1.037506095241168e-18 -7.743519786106829e-18  8.413073318526274e-01
 6.971610114510181e-01  8.413073318526274e-01 -2.781640843924373e-17

-2.611955207046325e-17 -3.200856968717399e-19  1.097829820146361e+00
-3.200856968717399e-19 -1.419668997629043e-17  4.102361190315681e-01
 1.097829820146361e+00  4.102361190315681e-01 -3.877126574493664e-17

-2.558980155942844e-17 -4.437569281375819e-19  1.088101478201792e+00
-4.437569281375819e-19 -1.590100913226373e-17  2.887625794075102e-01
 1.088101478201792e+00  2.887625794075102e-01 -3.814427080459190e-17

-2.395798838969677e-17 -2.690607730934827e-19  9.770721857639009e-01
-2.690607730934827e-19 -1.427311440724060e-17  3.444167151935899e-01
 9.770721857639009e-01  3.444167151935899e-01 -3.394620127363460e-17

-2.368681966475404e-17 -2.046150083668441e-19  9.487132905951775e-01
-2.046150083668441e-19 -1.287837540389398e-17  4.087104271126641e-01
 9.487132905951775e-01  4.087104271126641e-01 -3.285134868804454e-17

-2.387963568325623e-17 -2.118907159565210e-19  9.687249816121095e-01
-2.118907159565210e-19 -1.304293663844616e-17  3.975318764274109e-01
 9.687249816121095e-01  3.975318764274109e-01 -3.354415433656597e-17

-2.402380465698083e-17 -2.211495074632420e-19  9.871195963039633e-01
-2.211495074632420e-19 -1.327183188357871e-17  3.817543455505125e-01
 9.871195963039633e-01  3.817543455505125e-01 -3.418951035064288e-17

-2.361792200529984e-17 -1.927141420662761e-19  9.573528123484413e-01
-1.927141420662761e-19 -1.220320205063891e-17  4.288877009145520e-01
 9.573528123484413e-01  4.288877009145520e-01 -3.308951096621274e-17

-2.276777178821405e-17 -1.897523751739432e-19  9.012974589355722e-01
-1.897523751739432e-19 -1.153532158824523e-17  4.449045398220968e-01
 9.012974589355722e-01  4.449045398220968e-01 -3.106259120850133e-17

-2.283037708964155e-17 -2.950598105292785e-19  9.244677573864812e-01
-2.950598105292785e-19 -1.264516766384767e-17  3.778852192291229e-01
 9.244677573864812e-01  3.778852192291229e-01 -3.197106326409324e-17

-2.178578799083282e-17 -1.591868453109374e-19  8.492160201187394e-01
-1.591868453109374e-19 -1.158231972625236e-17  4.153495620563104e-01
 8.492160201187394e-01  4.153495620563104e-01 -2.908619671246511e-17

-2.345534002137203e-17  4.444013167438483e-19  1.005924027626882e+00
 4.444013167438483e-19 -1.440910749831170e-17  2.437309256795781e-01
 1.005924027626882e+00  2.437309256795781e-01 -3.299200445126941e-17

-2.892716207958099e-17  8.466799135162639e-19  1.472271796980850e+00
 8.466799135162639e-19 -1.986227989824668e-17 -4.667641131401168e-02
 1.472271796980850e+00 -4.667641131401168e-02 -4.762219494200171e-17

-2.439914464191544e-17 -5.498685735050106e-19  9.407586506074297e-01
-5.498685735050106e-19 -1.198451104548155e-17  5.372212453083688e-01
 9.407586506074297e-01  5.372212453083688e-01 -3.398954632664775e-17

-2.285668405360697e-17 -9.749576783929338e-19  7.311258199880177e-01
-9.749576783929338e-19 -8.085566559842332e-18  8.452711339380716e-01
 7.311258199880177e-01  8.452711339380716e-01 -2.901933144562849e-17

-2.645885068807654e-17 -2.244338111867530e-19  1.113189477966632e+00
-2.244338111867530e-19 -1.422025353967060e-17  4.270078436555806e-01
 1.113189477966632e+00  4.270078436555806e-01 -3.930581622437544e-17

-2.542023849197246e-17 -5.596787798281546e-19  1.097703904578097e+00
-5.596787798281546e-19 -1.594718086603491e-17  3.014543170841935e-01
 1.097703904578097e+00  3.014543170841935e-01 -3.848583829966644e-17

-2.285092830916853e-17 -6.904808000371836e-19  9.886198487692102e-01
-6.904808000371836e-19 -1.453014455343782e-17  3.370385686741466e-01
 9.886198487692102e-01  3.370385686741466e-01 -3.435334408394225e-17

-2.445307415137241e-17 -1.304996457562248e-19  1.001657860488098e+00
-1.304996457562248e-19 -1.373935496793634e-17  3.826784492532286e-01
 1.001657860488098e+00  3.826784492532286e-01 -3.473691236702596e-17

-7.502528523831218e-19 -8.143244541029961e-18  9.552670486070833e-01
-8.143244541029961e-18 -9.331679688450682e-18  4.780668318538067e-01
 9.552670486070833e-01  4.780668318538067e-01 -3.314197248225705e-17

-3.749959077836382e-17  4.464848865184546e-18  9.803710932624395e-01
 4.464848865184546e-18 -1.440458902577332e-17  4.288120282644650e-01
 9.803710932624395e-01  4.288120282644650e-01 -3.396973338914051e-17

-1.580527545959645e-18 -7.886471857182135e-18  9.767408426725335e-01
-7.886471857182135e-18 -1.095294322359877e-17  3.723641222433871e-01
 9.767408426725335e-01  3.723641222433871e-01 -3.382927684755420e-17

-2.852447996708654e-17  1.536620663744086e-18  9.509559620829030e-01
 1.536620663744086e-18 -1.330406157810806e-17  4.158805507608108e-01
 9.509559620829030e-01  4.158805507608108e-01 -3.288920866204257e-17

-2.478600732506748e-17  2.610522070708876e-19  9.440859347099737e-01
 2.610522070708876e-19 -1.251772271009691e-17  4.377397342234352e-01
 9.440859347099737e-01  4.377397342234352e-01 -3.264561672504179e-17

-2.374494919262748e-17 -1.947926710754427e-19  9.728310508923532e-01
-1.947926710754427e-19 -1.320584944229398e-17  3.923864260875483e-01
 9.728310508923532e-01  3.923864260875483e-01 -3.362625025233650e-17

-2.395291679707295e-17 -1.702080415752875e-19  9.791792966793357e-01
-1.702080415752875e-19 -1.338659328381777e-17  3.925377139737889e-01
 9.791792966793357e-01  3.925377139737889e-01 -3.384029309762989e-17

-2.488783293142280e-17 -2.188694237805658e-19  1.027820994810259e+00
-2.188694237805658e-19 -1.378767766013958e-17  4.108486593755279e-01
 1.027820994810259e+00  4.108486593755279e-01 -3.572972781927629e-17

-2.548002648726801e-17 -2.340019195167946e-19  1.064068908934384e+00
-2.340019195167946e-19 -1.453109295791215e-17  3.894972679747974e-01
 1.064068908934384e+00  3.894972679747974e-01 -3.703497583793112e-17

-2.546194112829322e-17 -2.221581324611744e-19  1.061696008388066e+00
-2.221581324611744e-19 -1.441293811558138e-17  4.036710613015995e-01
 1.061696008388066e+00  4.036710613015995e-01 -3.697830522763020e-17

-2.592397577000265e-17 -1.632767059949675e-19  1.104075598228263e+00
-1.632767059949675e-19 -1.480053083959965e-17  3.774856101855897e-01
 1.104075598228263e+00  3.774856101855897e-01 -3.846387220838187e-17

-2.453507412949629e-17 -8.122549379882427e-20  9.847530921844759e-01
-8.122549379882427e-20 -1.264115740672201e-17  4.805715373159134e-01
 9.847530921844759e-01  4.805715373159134e-01 -3.418668704224899e-17

-2.414964550364202e-17 -8.348995188246770e-20  9.632848424628428e-01
-8.348995188246770e-20 -1.248201290588690e-17  4.738347262603280e-01
 9.632848424628428e-01  4.738347262603280e-01 -3.337713490125412e-17

-2.403850299589634e-17 -2.489118160251791e-19  9.843768171075713e-01
-2.489118160251791e-19 -1.353908549244792e-17  3.907084240590741e-01
 9.843768171075713e-01  3.907084240590741e-01 -3.414976946086910e-17

-2.330283752125243e-17 -2.158253456507402e-19  9.359206130080894e-01
-2.158253456507402e-19 -1.230490191932938e-17  4.284640765209453e-01
 9.359206130080894e-01  4.284640765209453e-01 -3.222843284628231e-17

-2.408271255306239e-17 -2.520049218201102e-19  9.982313352942052e-01
-2.520049218201102e-19 -1.332349413237139e-17  3.874559033064585e-01
 9.982313352942052e-01  3.874559033064585e-01 -3.420745112716498e-17

-2.424546337047946e-17 -4.940318859459048e-19  9.656358929784726e-01
-4.940318859459048e-19 -1.178656727749415e-17  5.211008578353413e-01
 9.656358929784726e-01  5.211008578353413e-01 -3.356325618425979e-17

-2.480085274457942e-17 -4.590004913403333e-19  1.015938308098359e+00
-4.590004913403333e-19 -1.243683621414031e-17  4.907192629729748e-01
 1.015938308098359e+00  4.907192629729748e-01 -3.516282606414970e-17

-2.460202068953174e-17 -4.598589942887949e-19  1.038107490610976e+00
-4.598589942887949e-19 -1.458186932957543e-17  3.529039665369312e-01
 1.038107490610976e+00  3.529039665369312e-01 -3.566326233704686e-17

-2.497336329733391e-17 -3.423479596043789e-19  1.083472884461564e+00
-3.423479596043789e-19 -1.548256518700251e-17  2.939129069599328e-01
 1.083472884461564e+00  2.939129069599328e-01 -3.695650498214586e-17

-2.497693959013017e-17 -4.359664086801052e-19  1.022832972745402e+00
-4.359664086801052e-19 -1.180871809068607e-17  5.412146206747085e-01
 1.022832972745402e+00  5.412146206747085e-01 -3.556490205836882e-17

-2.425077418547953e-17 -3.573828070896492e-19  9.917451633937372e-01
-3.573828070896492e-19 -1.217677087209829e-17  4.851208910322617e-01
 9.917451633937372e-01  4.851208910322617e-01 -3.418884686350761e-17

-2.568638468159460e-17 -9.187170501885699e-19  1.149109251405092e+00
-9.187170501885699e-19 -1.654272835243932e-17  2.546450418415748e-01
 1.149109251405092e+00  2.546450418415748e-01 -3.985310382043621e-17

-2.265719270438328e-17 -4.687075228091000e-19  9.263997822430684e-01
-4.687075228091000e-19 -1.214688434336178e-17  4.168907711408857e-01
 9.263997822430684e-01  4.168907711408857e-01 -3.184506159750547e-17

-2.265584673575508e-17 -3.979003535925906e-19  9.402172983205356e-01
-3.979003535925906e-19 -1.237589352433507e-17  3.796158596444984e-01
 9.402172983205356e-01  3.796158596444984e-01 -3.237218453756199e-17

-2.249572951644508e-17 -3.485690250145827e-19  9.259792907484972e-01
-3.485690250145827e-19 -1.174611172458728e-17  4.078188960992496e-01
 9.259792907484972e-01  4.078188960992496e-01 -3.190309611264600e-17

-2.256550037045864e-17 -2.148257515538948e-19  9.363713087793407e-01
-2.148257515538948e-19 -1.107662593214982e-17  4.287461451331105e-01
 9.363713087793407e-01  4.287461451331105e-01 -3.225972025511007e-17

-1.872258257834902e-17  7.231427875160230e-20  6.206806363570444e-01
 7.231427875160230e-20 -6.190153898528953e-18  6.469377084433833e-01
 6.206806363570444e-01  6.469377084433833e-01 -2.095924052672867e-17

-2.106831560203357e-17 -3.109510787907389e-19  8.351522966320619e-01
-3.109510787907389e-19 -1.057562698138037e-17  4.273681427492242e-01
 8.351522966320619e-01  4.273681427492242e-01 -2.876184836702760e-17

-2.202026047839770e-17 -4.533965655558705e-19  9.391021505598423e-01
-4.533965655558705e-19 -1.347608352234023e-17  2.707430248281221e-01
 9.391021505598423e-01  2.707430248281221e-01 -3.246518884218602e-17

-2.037002610351947e-17 -2.055977218340870e-19  7.797895988108871e-01
-2.055977218340870e-19 -9.707064995209570e-18  4.652037523552814e-01
 7.797895988108871e-01  4.652037523552814e-01 -2.666218501080412e-17

-2.263030731126897e-17  2.244979417388603e-19  9.794133156386462e-01
 2.244979417388603e-19 -1.325771014194981e-17  2.666652983916108e-01
 9.794133156386462e-01  2.666652983916108e-01 -3.267603311696473e-17

-2.597603440214234e-17  4.651805225087308e-19  1.257156912609700e+00
 4.651805225087308e-19 -1.670921560702284e-17  9.529916786527878e-02
 1.257156912609700e+00  9.529916786527878e-02 -4.164593493822882e-17

-2.090004690896036e-17 -7.599264718883454e-19  7.050924370575605e-01
-7.599264718883454e-19 -8.404684995965370e-18  6.740998069058164e-01
 7.050924370575605e-01  6.740998069058164e-01 -2.600574774519936e-17

-2.049524594271070e-17 -1.011565436636000e-18  6.219742332171943e-01
-1.011565436636000e-18 -6.600272620926949e-18  8.207571889304984e-01
 6.219742332171943e-01  8.207571889304984e-01 -2.401033555249541e-17

-2.456057063064668e-17 -4.160830035137185e-19  1.006966450848752e+00
-4.160830035137185e-19 -1.221082863965203e-17  4.883502920294296e-01
 1.006966450848752e+00  4.883502920294296e-01 -3.568692386700198e-17

-2.595729012135098e-17 -2.624937609304360e-19  1.155565665349223e+00
-2.624937609304360e-19 -1.594628875819697e-17  2.704530155316684e-01
 1.155565665349223e+00  2.704530155316684e-01 -4.041136054493204e-17

-2.550791584899397e-17 -1.956293871965169e-19  1.123611123781016e+00
-1.956293871965169e-19 -1.580815006243165e-17  2.766672989500292e-01
 1.123611123781016e+00  2.766672989500292e-01 -3.920825103238362e-17

-2.372659987078604e-17 -1.742136840293180e-19  9.585457080133926e-01
-1.742136840293180e-19 -1.310078615945025e-17  4.285351210518653e-01
 9.585457080133926e-01  4.285351210518653e-01 -3.336246458327834e-17

-2.427226474985276e-17 -1.169567280263091e-19  1.006326582016226e+00
-1.169567280263091e-19 -1.397158726124349e-17  3.831924694466222e-01
 1.006326582016226e+00  3.831924694466222e-01 -3.500781472227389e-17

-2.481063913805040e-17 -3.793958516380073e-20  1.050738031344427e+00
-3.793958516380073e-20 -1.492952187059477e-17  3.399225657795832e-01
 1.050738031344427e+00  3.399225657795832e-01 -3.649632633377913e-17

-2.495018874063368e-17 -8.803614103487262e-20  1.031936364357721e+00
-8.803614103487262e-20 -1.404792506681138e-17  4.158536098642906e-01
 1.031936364357721e+00  4.158536098642906e-01 -3.612509575837387e-17

-2.528166882212187e-17 -6.200637099411347e-20  1.038630294279916e+00
-6.200637099411347e-20 -1.380262874165214e-17  4.518145387726131e-01
 1.038630294279916e+00  4.518145387726131e-01 -3.649692476187111e-17

-2.521904398916497e-17 -7.508940563135468e-21  1.039905328324615e+00
-7.508940563135468e-21 -1.494030872830244e-17  3.902593413925645e-01
 1.039905328324615e+00  3.902593413925645e-01 -3.639291651574761e-17

-2.610484569788035e-17  9.758082655299367e-20  1.103736094034272e+00
 9.758082655299367e-20 -1.607912257039534e-17  3.446002957231395e-01
 1.103736094034272e+00  3.446002957231395e-01 -3.845156104427962e-17

-2.787200876515213e-17  1.040283461972563e-19  1.218121545726725e+00
 1.040283461972563e-19 -1.665270401817877e-17  3.539109995527200e-01
 1.218121545726725e+00  3.539109995527200e-01 -4.258405272643040e-17

-2.442049718794742e-17  8.903626878164755e-21  8.453350818880473e-01
 8.903626878164755e-21 -9.946498381831538e-18  7.842812273081360e-01
 8.453350818880473e-01  7.842812273081360e-01 -3.090183916555082e-17

-2.594405362254605e-17  7.146976156301826e-20  1.009165815115852e+00
 7.146976156301826e-20 -1.296631819345072e-17  5.911576709690671e-01
 1.009165815115852e+00  5.911576709690671e-01 -3.583703533654192e-17

-2.687037604018717e-17 -3.297429624931224e-19  1.138811445577809e+00
-3.297429624931224e-19 -1.728078713939902e-17  3.363979618052659e-01
 1.138811445577809e+00  3.363979618052659e-01 -4.006414006150513e-17

-2.654263184017773e-17 -1.910471485411976e-19  1.097065096306884e+00
-1.910471485411976e-19 -1.589628602410957e-17  4.086983481626867e-01
 1.097065096306884e+00  4.086983481626867e-01 -3.853468996568012e-17

-2.801637022004784e-17 -1.836362461609610e-19  1.205134036703914e+00
-1.836362461609610e-19 -1.668442316003514e-17  3.953590817557643e-01
 1.205134036703914e+00  3.953590817557643e-01 -4.245658607467207e-17

-2.564228718624086e-17  2.000921032628588e-19  9.749654537055026e-01
 2.000921032628588e-19 -1.122466494246137e-17  6.935715918455876e-01
 9.749654537055026e-01  6.935715918455876e-01 -3.461718104196736e-17

-2.669020519815615e-17  2.416011720386480e-19  1.116951681834633e+00
 2.416011720386480e-19 -1.358290014545718e-17  5.015092823299518e-01
 1.116951681834633e+00  5.015092823299518e-01 -3.899449323143901e-17

-2.379746049865678e-17 -4.352292274046169e-19  9.462220750159865e-01
-4.352292274046169e-19 -1.307662443457472e-17  4.575976433887323e-01
 9.462220750159865e-01  4.575976433887323e-01 -3.271994680985406e-17

-2.513079186408345e-17 -9.807904084826358e-19  1.099967214265919e+00
-9.807904084826358e-19 -1.652212163234225e-17  2.559593874949024e-01
 1.099967214265919e+00  2.559593874949024e-01 -3.811580736857640e-17

-2.483185775349537e-17 -7.537304877330987e-19  1.102762627598559e+00
-7.537304877330987e-19 -1.643374229671883e-17  2.215755716406758e-01
 1.102762627598559e+00  2.215755716406758e-01 -3.794871909798078e-17

-2.141100407225861e-17 -5.566311395950335e-19  7.913322591338898e-01
-5.566311395950335e-19 -1.022414162138810e-17  5.422435005023968e-01
 7.913322591338898e-01  5.422435005023968e-01 -2.711782062775089e-17

-2.211031551190253e-17 -4.758000079635293e-19  8.490806666668254e-01
-4.758000079635293e-19 -9.879941623463360e-18  5.565471538154810e-01
 8.490806666668254e-01  5.565471538154810e-01 -2.907363602046821e-17

-2.327079872044024e-17 -4.257907631018284e-19  9.692736118851725e-01
-4.257907631018284e-19 -1.213224044460138e-17  4.212700513530269e-01
 9.692736118851725e-01  4.212700513530269e-01 -3.320530750864913e-17

-2.296847883332070e-17 -4.264036193096625e-19  9.507316127573965e-01
-4.264036193096625e-19 -1.176350318930913e-17  4.339809896375477e-01
 9.507316127573965e-01  4.339809896375477e-01 -3.253834060699740e-17

-2.138823930680035e-17 -4.035655360574269e-19  8.126085193907414e-01
-4.035655360574269e-19 -9.334104563253669e-18  5.584563616429470e-01
 8.126085193907414e-01  5.584563616429470e-01 -2.764270803763596e-17

-2.286088022516266e-17 -3.867347847504844e-19  9.620587514015091e-01
-3.867347847504844e-19 -1.281683805228077e-17  3.643406374123077e-01
 9.620587514015091e-01  3.643406374123077e-01 -3.293275396933017e-17

-2.290626666249479e-17 -3.321645521948958e-19  9.661968781106965e-01
-3.321645521948958e-19 -1.304400476347239e-17  3.518194211491847e-01
 9.661968781106965e-01  3.518194211491847e-01 -3.304438993000943e-17

-2.358329723904705e-17 -3.549597413950176e-19  9.796320022026924e-01
-3.549597413950176e-19 -1.240067020023768e-17  4.286351108143523e-01
 9.796320022026924e-01  4.286351108143523e-01 -3.395397955418330e-17

-2.349880217519994e-17 -1.922054331544124e-19  9.780183872222976e-01
-1.922054331544124e-19 -1.350476801551644e-17  3.651222618572492e-01
 9.780183872222976e-01  3.651222618572492e-01 -3.367598858064987e-17

-2.391005738968315e-17  4.608581335703415e-20  1.022502622740981e+00
 4.608581335703415e-20 -1.482940543705349e-17  2.858001812947050e-01
 1.022502622740981e+00  2.858001812947050e-01 -3.462977785452633e-17

-2.830726151590235e-17  4.269289996485151e-19  1.383414385280829e+00
 4.269289996485151e-19 -1.881664965627021e-17  8.280984497133854e-02
 1.383414385280829e+00  8.280984497133854e-02 -4.593867656992026e-17

-2.429186548987203e-17 -7.230114383312848e-19  8.982350807085850e-01
-7.230114383312848e-19 -1.090435395958670e-17  6.632538028355248e-01
 8.982350807085850e-01  6.632538028355248e-01 -3.325491435006596e-17

-3.066010960731283e-17  1.465800648719958e-18  1.019979628306868e+00
 1.465800648719958e-18 -1.428787489690954e-17  4.004809812272283e-01
 1.019979628306868e+00  4.004809812272283e-01 -3.536660044617110e-17

-7.658691397946137e-17  1.313409489831058e-17  9.838800916775470e-01
 1.313409489831058e-17 -1.621691843664114e-17  4.391776655843014e-01
 9.838800916775470e-01  4.391776655843014e-01 -3.409976375590649e-17

-2.437386791269641e-17 -2.440648384912036e-19  1.029549137548674e+00
-2.440648384912036e-19 -1.378034868931658e-17  4.282206364568064e-01
 1.029549137548674e+00  4.282206364568064e-01 -3.580056702675875e-17

-2.669331570589618e-17 -3.595058572678004e-19  1.159614979964160e+00
-3.595058572678004e-19 -1.523691480919922e-17  3.852557733132180e-01
 1.159614979964160e+00  3.852557733132180e-01 -4.091833106285577e-17

-2.348351912619678e-17 -7.663504099939202e-19  8.367715492826416e-01
-7.663504099939202e-19 -9.715465166110249e-18  7.338044930066925e-01
 8.367715492826416e-01  7.338044930066925e-01 -3.151939472916004e-17

-2.434588069286878e-17  5.250673529886382e-20  1.012646530631097e+00
 5.250673529886382e-20 -1.403000350426890e-17  3.703857453723634e-01
 1.012646530631097e+00  3.703857453723634e-01 -3.467121497600640e-17

-2.482746794035314e-17  3.411965577787249e-19  1.132187528835611e+00
 3.411965577787249e-19 -1.752973090915280e-17  1.208022850132589e-01
 1.132187528835611e+00  1.208022850132589e-01 -3.712005022786366e-17

-2.409149006794874e-17 -5.214235657832056e-20  1.005777483193558e+00
-5.214235657832056e-20 -1.381069296385027e-17  4.095141802045925e-01
 1.005777483193558e+00  4.095141802045925e-01 -3.478557445771295e-17

-2.539468458732671e-17 -3.058884344317009e-19  1.120988264515279e+00
-3.058884344317009e-19 -1.467390775033353e-17  4.154425933803164e-01
 1.120988264515279e+00  4.154425933803164e-01 -3.927804188144758e-17

-2.870894484815048e-17  2.489753885126783e-19  1.159113655952292e+00
 2.489753885126783e-19 -1.435925828544754e-17  4.887542796218024e-01
 1.159113655952292e+00  4.887542796218024e-01 -4.128436424305769e-17

-1.627815137014799e-17 -2.970056178586206e-18  8.095992530979217e-01
-2.970056178586206e-18 -8.704015314781538e-18  8.619920404499761e-01
 8.095992530979217e-01  8.619920404499761e-01 -3.259726951185843e-17

-2.660185704777579e-17  1.457291499620271e-19  1.023708701288715e+00
 1.457291499620271e-19 -1.344652898647535e-17  4.919917117316835e-01
 1.023708701288715e+00  4.919917117316835e-01 -3.641903756457147e-17

-8.075810659403690e-18 -3.848237465186806e-18  1.294774618174741e+00
-3.848237465186806e-18 -1.713413269405886e-17  4.177887227026410e-02
 1.294774618174741e+00  4.177887227026410e-02 -4.132163957696985e-17

 3.960329208613439e-17 -1.658796846337594e-17  9.388125155323394e-01
-1.658796846337594e-17 -7.175850135748864e-18  4.741571458661172e-01
 9.388125155323394e-01  4.741571458661172e-01 -3.231589164741929e-17

 3.656784563564438e-18 -7.110750791668688e-18  9.297581250050743e-01
-7.110750791668688e-18 -1.093309213730790e-17  3.838083408797826e-01
 9.297581250050743e-01  3.838083408797826e-01 -3.197178376921623e-17

-2.080036411618269e-17 -1.300720882794806e-19  7.946804110354667e-01
-1.300720882794806e-19 -9.279905080454648e-18  5.753523046009053e-01
 7.946804110354667e-01  5.753523046009053e-01 -2.723783558598029e-17

-2.379008855558919e-17  2.538258985351616e-19  9.248088280344615e-01
 2.538258985351616e-19 -1.137759263512402e-17  4.822070637182574e-01
 9.248088280344615e-01  4.822070637182574e-01 -3.178148924640552e-17

-2.439138497634254e-17 -1.942097325192010e-19  1.100320821647806e+00
-1.942097325192010e-19 -1.464327558232164e-17  3.169215441048772e-01
 1.100320821647806e+00  3.169215441048772e-01 -3.799225071634547e-17

-2.244720216869207e-17  2.131237691175950e-19  8.543425144912828e-01
 2.131237691175950e-19 -1.008007478922872e-17  5.707493830203977e-01
 8.543425144912828e-01  5.707493830203977e-01 -2.924860693480402e-17

-2.414512724647375e-17  1.586056118545045e-19  9.777820630869120e-01
 1.586056118545045e-19 -1.192429568204884e-17  4.922975287378227e-01
 9.777820630869120e-01  4.922975287378227e-01 -3.367919521619573e-17

-2.351915735558748e-17 -7.818316988812828e-20  9.429384676971024e-01
-7.818316988812828e-20 -1.272623192357719e-17  4.721255889119010e-01
 9.429384676971024e-01  4.721255889119010e-01 -3.251115516463479e-17

-2.523695777098672e-17 -3.769155362783262e-19  1.013725556738930e+00
-3.769155362783262e-19 -1.496464011752796e-17  4.857337882725317e-01
 1.013725556738930e+00  4.857337882725317e-01 -3.540428176445690e-17

-3.163804776197892e-17 -1.610905123509873e-19  1.384047459340203e+00
-1.610905123509873e-19 -2.083816315046528e-17  4.443197282138112e-01
 1.384047459340203e+00  4.443197282138112e-01 -4.997296182759610e-17

-3.377086696229542e-17 -1.182763816620877e-19  1.397824888529205e+00
-1.182763816620877e-19 -1.974700759391306e-17  7.586295325882454e-01
 1.397824888529205e+00  7.586295325882454e-01 -5.406168815552804e-17

-3.213225704048591e-17 -9.357258297080219e-19  1.225408171166798e+00
-9.357258297080219e-19 -1.855608399286466e-17  8.784151757992589e-01
 1.225408171166798e+00  8.784151757992589e-01 -4.968495339295850e-17

-3.294721853803690e-17  1.577913674237661e-19  1.487737912601486e+00
 1.577913674237661e-19 -2.319007399238001e-17  3.430469198282629e-01
 1.487737912601486e+00  3.430469198282629e-01 -5.290305124809650e-17

-3.091913549344609e-17  1.479829420824593e-19  1.379111569686316e+00
 1.479829420824593e-19 -2.211022004752026e-17  3.054949390137146e-01
 1.379111569686316e+00  3.054949390137146e-01 -4.865550059750112e-17

-2.782276768239653e-17 -1.137939936082207e-19  1.068636466800169e+00
-1.137939936082207e-19 -1.674948607492019e-17  6.383745184444545e-01
 1.068636466800169e+00  6.383745184444545e-01 -3.892835575585883e-17

-2.866998543470537e-17 -1.871132204970248e-19  1.146915976472739e+00
-1.871132204970248e-19 -1.718142992940419e-17  6.011091490763014e-01
 1.146915976472739e+00  6.011091490763014e-01 -4.167081976602490e-17

-2.839101517089952e-17 -2.675900198346514e-19  1.129148843782065e+00
-2.675900198346514e-19 -1.621331399529431e-17  6.316649805690395e-01
 1.129148843782065e+00  6.316649805690395e-01 -4.114637996587007e-17

-2.747396591772964e-17 -1.334582433885104e-19  1.095967607770389e+00
-1.334582433885104e-19 -1.612301819174844e-17  5.694960068518142e-01
 1.095967607770389e+00  5.694960068518142e-01 -3.918836600947510e-17

-2.663775025120347e-17 -3.202841301916421e-20  1.076633465190225e+00
-3.202841301916421e-20 -1.688424822410565e-17  4.710594524302287e-01
 1.076633465190225e+00  4.710594524302287e-01 -3.784497996148486e-17

-2.839877073456971e-17 -3.004722743918767e-19  1.180546211684373e+00
-3.004722743918767e-19 -1.832267205830010e-17  4.681833745470195e-01
 1.180546211684373e+00  4.681833745470195e-01 -4.215492308358889e-17

-3.012074738835191e-17  1.165464439724607e-19  1.264758970082674e+00
 1.165464439724607e-19 -1.810979366147161e-17  5.539465544156671e-01
 1.264758970082674e+00  5.539465544156671e-01 -4.561952352488843e-17

-3.130762503180566e-17 -1.299372955587903e-19  1.329051120621428e+00
-1.299372955587903e-19 -1.890541472179305e-17  5.761551820640851e-01
 1.329051120621428e+00  5.761551820640851e-01 -4.852749100437839e-17

-2.965345516672227e-17 -3.013944097233408e-19  1.237293236896433e+00
-3.013944097233408e-19 -1.823509901919969e-17  5.559419399224176e-01
 1.237293236896433e+00  5.559419399224176e-01 -4.480403467752894e-17

-2.686572983006458e-17 -1.299501570252774e-19  1.096517314598291e+00
-1.299501570252774e-19 -1.725285520461499e-17  4.796288550015714e-01
 1.096517314598291e+00  4.796288550015714e-01 -3.837376406027028e-17

-2.780776448286068e-17 -3.601653936789935e-19  1.140294173832562e+00
-3.601653936789935e-19 -1.846067140170117e-17  4.634494899001180e-01
 1.140294173832562e+00  4.634494899001180e-01 -4.042674455198545e-17

-3.891279773072269e-17  2.799126850874996e-18  1.313620267185544e+00
 2.799126850874996e-18 -1.937527088057845e-17  5.546139744477153e-01
 1.313620267185544e+00  5.546139744477153e-01 -4.734298190508187e-17

-3.364097117584645e-17  1.717230609544696e-18  1.145040189788161e+00
 1.717230609544696e-18 -1.598322788081020e-17  7.957091647337808e-01
 1.145040189788161e+00  7.957091647337808e-01 -4.259827017214053e-17

-5.962525939616793e-17  1.131188904533529e-17  1.243822625876174e+00
 1.131188904533529e-17 -2.158428954365123e-17  7.304847192517359e-01
 1.243822625876174e+00  7.304847192517359e-01 -4.636891325813307e-17

-2.539913933829603e-16  7.769087688992833e-17  1.289425094479997e+00
 7.769087688992833e-17 -4.622713701905566e-17  6.021266039485927e-01
 1.289425094479997e+00  6.021266039485927e-01 -4.749988487038717e-17

 5.134600909118437e-17 -2.590294230880420e-17  1.208210418749941e+00
-2.590294230880420e-17 -9.805387841546742e-18  5.176792910821338e-01
 1.208210418749941e+00  5.176792910821338e-01 -4.320408060378920e-17

-1.297101887052392e-16  4.026302933739648e-17  1.116591575530406e+00
 4.026302933739648e-17 -3.324506123468484e-17  4.742287783291240e-01
 1.116591575530406e+00  4.742287783291240e-01 -3.919221093849495e-17

-1.676251360878279e-17 -4.148122434587174e-18  1.156551975264775e+00
-4.148122434587174e-18 -1.613545498011037e-17  5.180622876636085e-01
 1.156551975264775e+00  5.180622876636085e-01 -4.117921681219419e-17

-3.123171480531991e-17  5.214041837780737e-19  1.195644648330991e+00
 5.214041837780737e-19 -1.765378714500861e-17  5.705335083701846e-01
 1.195644648330991e+00  5.705335083701846e-01 -4.288066603068807e-17

-4.269543478540638e-17  4.348177999996273e-18  1.269776465250531e+00
 4.348177999996273e-18 -2.052064751417144e-17  5.416922417393548e-01
 1.269776465250531e+00  5.416922417393548e-01 -4.586432047462084e-17

-4.757212038137044e-17  5.959072733031636e-18  1.216057913287662e+00
 5.959072733031636e-18 -1.988245643177900e-17  6.755598721055868e-01
 1.216057913287662e+00  6.755598721055868e-01 -4.487667100902653e-17

-1.984693802885117e-16  6.045306033690906e-17  1.221640341010233e+00
 6.045306033690906e-17 -4.012463105394067e-17  6.049920053031166e-01
 1.221640341010233e+00  6.049920053031166e-01 -4.457684542649877e-17

-9.092588294014379e-18 -8.101984963404880e-18  1.433487291138316e+00
-8.101984963404880e-18 -1.911454319652210e-17  3.302047010565106e-01
 1.433487291138316e+00  3.302047010565106e-01 -5.069194409318672e-17

-2.493676775247940e-17 -1.793681870520374e-18  1.213865592283238e+00
-1.793681870520374e-18 -1.878289546286023e-17  4.976097067057678e-01
 1.213865592283238e+00  4.976097067057678e-01 -4.362741877677544e-17

-3.610322795524456e-17  1.396875977873383e-18  1.356604883630924e+00
 1.396875977873383e-18 -2.121186232086578e-17  4.855116270892961e-01
 1.356604883630924e+00  4.855116270892961e-01 -4.925912376666143e-17

-3.255652277033292e-17  1.301644268231837e-18  1.076542926959177e+00
 1.301644268231837e-18 -1.588300504772081e-17  8.319035283159353e-01
 1.076542926959177e+00  8.319035283159353e-01 -4.056903652929131e-17

-3.397872611097684e-17  9.486549652136490e-19  1.237793232864686e+00
 9.486549652136490e-19 -1.808027522559611e-17  7.096900724124495e-01
 1.237793232864686e+00  7.096900724124495e-01 -4.615979102602333e-17

-3.098410613887435e-17 -2.980497833029094e-19  1.283547403014416e+00
-2.980497833029094e-19 -1.885357970610268e-17  6.062933598371298e-01
 1.283547403014416e+00  6.062933598371298e-01 -4.737028655706800e-17

-2.951918756824390e-17 -1.316390141769114e-19  1.210370844018960e+00
-1.316390141769114e-19 -1.839357795304235e-17  5.443623659559924e-01
 1.210370844018960e+00  5.443623659559924e-01 -4.367206255271972e-17

-2.836079571633305e-17  6.635132736471146e-21  1.166803263134653e+00
 6.635132736471146e-21 -1.814815611239295e-17  4.781012213872367e-01
 1.166803263134653e+00  4.781012213872367e-01 -4.128945552784580e-17

-2.864672205555520e-17 -8.889519557231928e-20  1.162668595245019e+00
-8.889519557231928e-20 -1.699693842094793e-17  5.624718266706381e-01
 1.162668595245019e+00  5.624718266706381e-01 -4.163535099091973e-17

-2.909423406355250e-17 -6.313848742893527e-20  1.201072181299470e+00
-6.313848742893527e-20 -1.781938738536492e-17  5.186534699282297e-01
 1.201072181299470e+00  5.186534699282297e-01 -4.313861024092615e-17

-2.948453959609912e-17  1.343094670092220e-20  1.217857762184556e+00
 1.343094670092220e-20 -1.770062275406996e-17  5.380159909143795e-01
 1.217857762184556e+00  5.380159909143795e-01 -4.415040201741294e-17

-2.874377216949859e-17 -7.657580102116239e-20  1.150699841880383e+00
-7.657580102116239e-20 -1.615720380260060e-17  6.163945170965975e-01
 1.150699841880383e+00  6.163945170965975e-01 -4.214647216939583e-17

-2.741876364036708e-17  1.596652350929865e-19  1.119355223556777e+00
 1.596652350929865e-19 -1.727605101215346e-17  4.508821160605300e-01
 1.119355223556777e+00  4.508821160605300e-01 -3.962054463950232e-17

-2.660888903874189e-17 -1.886535273977269e-19  1.051722544671354e+00
-1.886535273977269e-19 -1.746572410385111e-17  4.571622554640357e-01
 1.051722544671354e+00  4.571622554640357e-01 -3.741676254018746e-17

-3.086494812149472e-17 -1.933602056251409e-19  1.326535694072396e+00
-1.933602056251409e-19 -2.004143994621018e-17  4.436461163462829e-01
 1.326535694072396e+00  4.436461163462829e-01 -4.762700608022750e-17

-2.928043137696717e-17  8.122143971962590e-19  1.121861504789142e+00
 8.122143971962590e-19 -1.530585634309141e-17  7.658794732765625e-01
 1.121861504789142e+00  7.658794732765625e-01 -4.181327028146020e-17

-3.015266806439491e-17  3.734820071528084e-19  1.155656602554932e+00
 3.734820071528084e-19 -1.556357662481061e-17  8.221425574938634e-01
 1.155656602554932e+00  8.221425574938634e-01 -4.382298270850279e-17

-3.167722175200688e-17 -2.483756856894486e-19  1.318577722465610e+00
-2.483756856894486e-19 -1.898550414678584e-17  6.119541120213284e-01
 1.318577722465610e+00  6.119541120213284e-01 -4.895172323142933e-17

-2.986255229152878e-17  7.003095051650272e-20  1.260919367158043e+00
 7.003095051650272e-20 -1.949435112502036e-17  4.506989498628736e-01
 1.260919367158043e+00  4.506989498628736e-01 -4.490339754205117e-17

-2.756178905158794e-17  6.078226418265455e-20  1.129020899045818e+00
 6.078226418265455e-20 -1.824964885833116e-17  4.355131120379779e-01
 1.129020899045818e+00  4.355131120379779e-01 -3.958157975113270e-17

-2.824490167112903e-17 -1.691452084378673e-19  1.157026846005623e+00
-1.691452084378673e-19 -1.743902269640701e-17  5.167576910259730e-01
 1.157026846005623e+00  5.167576910259730e-01 -4.113324846237161e-17

-2.894975428986566e-17 -1.648170979856957e-19  1.182947619813647e+00
-1.648170979856957e-19 -1.707585340173782e-17  5.666272307722544e-01
 1.182947619813647e+00  5.666272307722544e-01 -4.228108596305997e-17

-2.859884366519058e-17 -2.975101868976410e-19  1.195371344921339e+00
-2.975101868976410e-19 -1.739290140188909e-17  5.472305358617573e-01
 1.195371344921339e+00  5.472305358617573e-01 -4.273437829120272e-17

-2.807608686827508e-17 -2.048405705220221e-19  1.156023670971642e+00
-2.048405705220221e-19 -1.731689940076324e-17  5.131807543921501e-01
 1.156023670971642e+00  5.131807543921501e-01 -4.099072988747327e-17

 1.102125233646227e-16 -2.310477397335764e-17  1.138460949137794e+00
-2.310477397335764e-17 -1.320507621734577e-17  5.281661081394864e-01
 1.138460949137794e+00  5.281661081394864e-01 -4.039690632629189e-17

-3.558847776805379e-17  7.808399186881991e-19  1.207873696548049e+00
 7.808399186881991e-19 -1.840590151571828e-17  5.091615809783012e-01
 1.207873696548049e+00  5.091615809783012e-01 -4.325915374419775e-17

-4.714718538239454e-17  2.478950148873893e-18  1.157897875739367e+00
 2.478950148873893e-18 -1.663280426317685e-17  6.855645351330486e-01
 1.157897875739367e+00  6.855645351330486e-01 -4.229604577500770e-17

-2.809223292622679e-17 -4.054314491620545e-19  1.177964465303388e+00
-4.054314491620545e-19 -1.723677460333525e-17  6.014086979937936e-01
 1.177964465303388e+00  6.014086979937936e-01 -4.263385361717668e-17

-2.946329179333432e-17  6.460610944353541e-20  1.162391594773466e+00
 6.460610944353541e-20 -1.849736586557139e-17  4.749558121098875e-01
 1.162391594773466e+00  4.749558121098875e-01 -4.124411315909867e-17

-2.957972670634319e-17 -2.260414168719502e-19  1.216717266042556e+00
-2.260414168719502e-19 -1.916910758768680e-17  4.876891109690911e-01
 1.216717266042556e+00  4.876891109690911e-01 -4.371248259521072e-17

-3.078992410378070e-17  4.666739976044614e-20  1.252974827744929e+00
 4.666739976044614e-20 -1.866329630642723e-17  5.749145660388718e-01
 1.252974827744929e+00  5.749145660388718e-01 -4.564134103267596e-17

-3.158075640809227e-17 -1.264569276983846e-20  1.307245128742120e+00
-1.264569276983846e-20 -1.968629882268671e-17  5.562353441620053e-01
 1.307245128742120e+00  5.562353441620053e-01 -4.820052793117187e-17

-3.027488285444320e-17 -2.545259687798939e-19  1.198012957192815e+00
-2.545259687798939e-19 -1.811174297710767e-17  6.411451301229759e-01
 1.198012957192815e+00  6.411451301229759e-01 -4.490543231830477e-17

-3.043630922976723e-17  1.302518078144433e-19  1.335675821821323e+00
 1.302518078144433e-19 -2.216481276870338e-17  2.608685317340012e-01
 1.335675821821323e+00  2.608685317340012e-01 -4.697086257634418e-17

-3.112397634503680e-17 -9.190542672999303e-20  1.399025150598803e+00
-9.190542672999303e-20 -2.340640997923677e-17  1.928395529022167e-01
 1.399025150598803e+00  1.928395529022167e-01 -4.910818068279254e-17

-2.814871047538484e-17  3.099269389040630e-19  1.077513339202018e+00
 3.099269389040630e-19 -1.709025210022331e-17  5.982770005888713e-01
 1.077513339202018e+00  5.982770005888713e-01 -3.914545006459799e-17

-3.209691321401155e-17  1.559832244674465e-20  1.365410350598403e+00
 1.559832244674465e-20 -2.085925329326787e-17  4.787895128546200e-01
 1.365410350598403e+00  4.787895128546200e-01 -4.969627472149476e-17

-2.934125285982882e-17  1.555123531454774e-19  1.068293375600668e+00
 1.555123531454774e-19 -1.555908140740614e-17  8.361015755843629e-01
 1.068293375600668e+00  8.361015755843629e-01 -4.039740515141131e-17

-3.121798033711164e-17 -1.006253671596949e-19  1.237627692750230e+00
-1.006253671596949e-19 -1.809857886477877e-17  6.932869147394918e-01
 1.237627692750230e+00  6.932869147394918e-01 -4.612281022401801e-17

-3.104984068557207e-17 -1.957992880727679e-19  1.267676624267184e+00
-1.957992880727679e-19 -1.922279393041214e-17  5.775177013494989e-01
 1.267676624267184e+00  5.775177013494989e-01 -4.654969012905702e-17

-2.920199483071051e-17 -6.739760584452608e-20  1.169046024855083e+00
-6.739760584452608e-20 -1.837551176935115e-17  5.360388128279566e-01
 1.169046024855083e+00  5.360388128279566e-01 -4.201450696680729e-17

-2.776417981492828e-17  6.343856207867381e-21  1.107706520725633e+00
 6.343856207867381e-21 -1.814320975392899e-17  4.708595552168109e-01
 1.107706520725633e+00  4.708595552168109e-01 -3.903131694364388e-17

-2.870069627229114e-17 -2.291924781425278e-19  1.153842989342116e+00
-2.291924781425278e-19 -1.827062518800039e-17  5.106720577424371e-01
 1.153842989342116e+00  5.106720577424371e-01 -4.117784105444561e-17

-2.968606888085275e-17 -1.221862965012926e-19  1.195742972096058e+00
-1.221862965012926e-19 -1.815563391189474e-17  5.690475434078754e-01
 1.195742972096058e+00  5.690475434078754e-01 -4.296832382131686e-17

-3.090684805470002e-17 -2.016434741222002e-19  1.270695662700852e+00
-2.016434741222002e-19 -1.959636539798175e-17  5.389419273756711e-01
 1.270695662700852e+00  5.389419273756711e-01 -4.597494210467222e-17

-3.067463061461573e-17 -3.670351304232488e-19  1.201098709474888e+00
-3.670351304232488e-19 -1.802880037960662e-17  6.854269972882314e-01
 1.201098709474888e+00  6.854269972882314e-01 -4.443731203141550e-17

-3.038970009717196e-17 -2.852729013869636e-19  1.201040609424501e+00
-2.852729013869636e-19 -1.852995648330433e-17  6.179410624687161e-01
 1.201040609424501e+00  6.179410624687161e-01 -4.389516779599218e-17

-3.246597579311199e-17  7.837602553735327e-20  1.447686153310969e+00
 7.837602553735327e-20 -2.276406714654206e-17  3.099890899087749e-01
 1.447686153310969e+00  3.099890899087749e-01 -5.100680543069224e-17

-2.969451558448293e-17 -1.871400853404969e-19  1.190147802332379e+00
-1.871400853404969e-19 -1.958171295419067e-17  5.008189429660787e-01
 1.190147802332379e+00  5.008189429660787e-01 -4.272931283295835e-17

-3.182519836144486e-17 -2.234877416634503e-19  1.327738820694293e+00
-2.234877416634503e-19 -2.085624081991639e-17  4.880016527280184e-01
 1.327738820694293e+00  4.880016527280184e-01 -4.824876166391679e-17

-2.939830431369672e-17  7.434087787331362e-20  1.064282012596381e+00
 7.434087787331362e-20 -1.595998030402027e-17  8.122715755414521e-01
 1.064282012596381e+00  8.122715755414521e-01 -4.003695498005708e-17

-3.139879682417871e-17 -1.017145922648523e-19  1.235304919705914e+00
-1.017145922648523e-19 -1.834448916814439e-17  6.857591920543764e-01
 1.235304919705914e+00  6.857591920543764e-01 -4.600916375909483e-17

-3.156233260599624e-17 -2.788605180775663e-19  1.259392221943636e+00
-2.788605180775663e-19 -1.895863336926928e-17  6.395221414504598e-01
 1.259392221943636e+00  6.395221414504598e-01 -4.692097652889773e-17

-3.002347126197804e-17 -1.554123358202696e-19  1.181911675225160e+00
-1.554123358202696e-19 -1.848853780286311e-17  5.808454463481516e-01
 1.181911675225160e+00  5.808454463481516e-01 -4.311212788713130e-17

-2.859313168567331e-17  6.135898509006766e-20  1.133842327539279e+00
 6.135898509006766e-20 -1.873530620388843e-17  4.704552516973936e-01
 1.133842327539279e+00  4.704552516973936e-01 -4.019533514818894e-17

-2.935347853617405e-17 -1.714478828894600e-19  1.170117525449838e+00
-1.714478828894600e-19 -1.891796628293620e-17  5.033111398229728e-01
 1.170117525449838e+00  5.033111398229728e-01 -4.199105831873791e-17

-3.031301598873873e-17 -5.645404383529168e-20  1.211695258723011e+00
-5.645404383529168e-20 -1.882949960298752e-17  5.590794408215469e-01
 1.211695258723011e+00  5.590794408215469e-01 -4.377064539868385e-17

-3.153765431747726e-17 -1.338992973536622e-19  1.286331680501130e+00
-1.338992973536622e-19 -2.014786786744091e-17  5.372748611657761e-01
 1.286331680501130e+00  5.372748611657761e-01 -4.677580040562676e-17

-3.123051197221447e-17 -3.744741993893621e-19  1.209372850754517e+00
-3.744741993893621e-19 -1.835181414124779e-17  6.969024921255058e-01
 1.209372850754517e+00  6.969024921255058e-01 -4.509017243878569e-17

-3.027808979326012e-17 -3.743331827866158e-19  1.146283159581644e+00
-3.743331827866158e-19 -1.781402419354139e-17  6.899817678887746e-01
 1.146283159581644e+00  6.899817678887746e-01 -4.253728382927529e-17

-3.274223557472186e-17  1.505301126525247e-19  1.446396652490181e+00
 1.505301126525247e-19 -2.268397964917812e-17  3.175471292382481e-01
 1.446396652490181e+00  3.175471292382481e-01 -5.090122776759554e-17

-2.949568233805971e-17 -8.463515090513425e-20  1.165568467523745e+00
-8.463515090513425e-20 -1.885435977506479e-17  5.136010770177794e-01
 1.165568467523745e+00  5.136010770177794e-01 -4.165422431119790e-17

-3.015382287925267e-17 -1.547883612663182e-19  1.200011111695203e+00
-1.547883612663182e-19 -1.905291706273589e-17  5.216028006058513e-01
 1.200011111695203e+00  5.216028006058513e-01 -4.334418093505052e-17

-3.019644721919710e-17 -1.263054545144174e-19  1.153377622851650e+00
-1.263054545144174e-19 -1.705310523925889e-17  6.803499590998034e-01
 1.153377622851650e+00  6.803499590998034e-01 -4.245209337812837e-17

-3.008451394603561e-17 -1.544379950880909e-19  1.167835178586581e+00
-1.544379950880909e-19 -1.787747312414103e-17  6.025175501467858e-01
 1.167835178586581e+00  6.025175501467858e-01 -4.257105823118820e-17

-2.924251080134828e-17 -1.113572486948733e-20  1.150275038431229e+00
-1.113572486948733e-20 -1.893646072736327e-17  4.802357970538429e-01
 1.150275038431229e+00  4.802357970538429e-01 -4.109890651872049e-17

-2.988446319421750e-17 -1.455220185015359e-19  1.179529593028826e+00
-1.455220185015359e-19 -1.917459316382577e-17  5.055816405853851e-01
 1.179529593028826e+00  5.055816405853851e-01 -4.246225240107902e-17

-3.062924208744358e-17 -5.161527087355433e-20  1.206794532198722e+00
-5.161527087355433e-20 -1.900677359706849e-17  5.608580599852139e-01
 1.206794532198722e+00  5.608580599852139e-01 -4.369784105457573e-17

-3.164700945279115e-17 -1.395801348722972e-19  1.270401077315551e+00
-1.395801348722972e-19 -2.024041636181880e-17  5.338329226389117e-01
 1.270401077315551e+00  5.338329226389117e-01 -4.623265354727831e-17

-3.135383625957232e-17 -3.294774064427400e-19  1.198672304581271e+00
-3.294774064427400e-19 -1.861498901447348e-17  6.785051201639554e-01
 1.198672304581271e+00  6.785051201639554e-01 -4.456575969642667e-17

-3.113836033433633e-17 -2.341928982259112e-19  1.209971061309312e+00
-2.341928982259112e-19 -1.932621267859267e-17  5.927573489479365e-01
 1.209971061309312e+00  5.927573489479365e-01 -4.431503400403349e-17

-3.314351513497370e-17  1.065990083570581e-19  1.448172443409151e+00
 1.065990083570581e-19 -2.345075335717329e-17  2.932996456344724e-01
 1.448172443409151e+00  2.932996456344724e-01 -5.119002371694916e-17

-3.035140352085302e-17 -1.825483034153497e-19  1.185004413896176e+00
-1.825483034153497e-19 -2.012783605288432e-17  4.953525084726447e-01
 1.185004413896176e+00  4.953525084726447e-01 -4.274701688090411e-17

-3.255722716824761e-17 -2.277685679392982e-19  1.326913432902592e+00
-2.277685679392982e-19 -2.140761843017637e-17  4.832815557051403e-01
 1.326913432902592e+00  4.832815557051403e-01 -4.838731404742448e-17

-3.009459778381462e-17  6.972764791718144e-20  1.060121896613778e+00
 6.972764791718144e-20 -1.644047229795510e-17  8.107289781707107e-01
 1.060121896613778e+00  8.107289781707107e-01 -4.002825464758503e-17

-3.216294422182530e-17 -1.141282028250470e-19  1.235584610544281e+00
-1.141282028250470e-19 -1.890146585791891e-17  6.793774139725944e-01
 1.235584610544281e+00  6.793774139725944e-01 -4.615198153667617e-17

-3.229205083995422e-17 -2.972103571143976e-19  1.257269875242177e+00
-2.972103571143976e-19 -1.950205668820486e-17  6.314623206758473e-01
 1.257269875242177e+00  6.314623206758473e-01 -4.697756949196335e-17

-3.071557843333384e-17 -1.748463690864886e-19  1.175359081610561e+00
-1.748463690864886e-19 -1.895131874964036e-17  5.756117857385155e-01
 1.175359081610561e+00  5.756117857385155e-01 -4.303661652465978e-17

-2.925679923532671e-17  5.290150472997866e-20  1.126275123991218e+00
 5.290150472997866e-20 -1.916277896883939e-17  4.622198907783559e-01
 1.126275123991218e+00  4.622198907783559e-01 -4.007010382776610e-17

-2.995183436837557e-17 -1.774100389079983e-19  1.156355011151151e+00
-1.774100389079983e-19 -1.923240600136328e-17  4.956812096061966e-01
 1.156355011151151e+00  4.956812096061966e-01 -4.165815369292874e-17

-3.088328385839747e-17 -6.879692870271262e-20  1.196503994892834e+00
-6.879692870271262e-20 -1.917163622102881e-17  5.445276508899979e-01
 1.196503994892834e+00  5.445276508899979e-01 -4.336990640629723e-17

-3.213342951902340e-17 -1.170643481365420e-19  1.270218570609764e+00
-1.170643481365420e-19 -2.040923096196820e-17  5.240079095028336e-01
 1.270218570609764e+00  5.240079095028336e-01 -4.634428650098086e-17

-3.194082813701624e-17 -3.134300785587922e-19  1.201728235584861e+00
-3.134300785587922e-19 -1.868752621178933e-17  6.735472884498098e-01
 1.201728235584861e+00  6.735472884498098e-01 -4.492055416548462e-17

-3.096695265849311e-17 -3.128727525807496e-19  1.136825854454028e+00
-3.128727525807496e-19 -1.813860322847423e-17  6.643249209933992e-01
 1.136825854454028e+00  6.643249209933992e-01 -4.233174875566532e-17

-3.330284959567265e-17  1.897012020620771e-19  1.421869673206678e+00
 1.897012020620771e-19 -2.284094322901122e-17  3.052508674523309e-01
 1.421869673206678e+00  3.052508674523309e-01 -5.032336044624568e-17

-3.003402109118221e-17 -7.094333824755058e-21  1.142559501910064e+00
-7.094333824755058e-21 -1.901371837721289e-17  4.904634297428240e-01
 1.142559501910064e+00  4.904634297428240e-01 -4.105699301792948e-17

-3.042522218798238e-17 -4.190025610599476e-20  1.160606437389568e+00
-4.190025610599476e-20 -1.891291849759779e-17  4.966755554144643e-01
 1.160606437389568e+00  4.966755554144643e-01 -4.207700779508458e-17

-3.017255080763744e-17  2.802673534670069e-21  1.102532063105045e+00
 2.802673534670069e-21 -1.694630911954496e-17  6.289785053907717e-01
 1.102532063105045e+00  6.289785053907717e-01 -4.055000083437613e-17

-3.009329732255805e-17  7.336456865410914e-22  1.120717610865085e+00
 7.336456865410914e-22 -1.791975987405993e-17  5.415384897039939e-01
 1.120717610865085e+00  5.415384897039939e-01 -4.084940963925577e-17

-2.951067138626105e-17  4.124673523169855e-20  1.115137550802175e+00
 4.124673523169855e-20 -1.906145208235959e-17  4.349261877314737e-01
 1.115137550802175e+00  4.349261877314737e-01 -4.015890548535576e-17

-2.987347185500105e-17 -1.897275222950397e-20  1.119620547545099e+00
-1.897275222950397e-20 -1.780311149186832e-17  5.331075359940057e-01
 1.119620547545099e+00  5.331075359940057e-01 -4.051744606872113e-17

-3.029194322307841e-17 -4.728611873226116e-20  1.135178253908737e+00
-4.728611873226116e-20 -1.817972410636013e-17  5.229483857077429e-01
 1.135178253908737e+00  5.229483857077429e-01 -4.104537244464148e-17

-2.988539542011158e-17 -2.426757929822258e-19  1.136810025428585e+00
-2.426757929822258e-19 -1.866451816527519e-17  4.788647138172956e-01
 1.136810025428585e+00  4.788647138172956e-01 -4.087369713231690e-17

-2.733493932854139e-17 -1.369904385284495e-18  1.093876532644295e+00
-1.369904385284495e-18 -1.713585828926609e-17  5.332007461651251e-01
 1.093876532644295e+00  5.332007461651251e-01 -3.930931240511954e-17

-1.659483131952920e-17 -6.538696660764037e-18  1.139784509222950e+00
-6.538696660764037e-18 -1.667352891802951e-17  4.113909333268798e-01
 1.139784509222950e+00  4.113909333268798e-01 -4.069561032799317e-17

-1.240015839513763e-16  4.258591244103230e-17  1.132848506897772e+00
 4.258591244103230e-17 -3.900501126545108e-17  4.619962352923658e-01
 1.132848506897772e+00  4.619962352923658e-01 -4.074576221065146e-17

 1.891124504118250e-16 -1.007767152810317e-16  9.709268317794193e-01
-1.007767152810317e-16  3.058603613811572e-17  7.279177194703362e-01
 9.709268317794193e-01  7.279177194703362e-01 -3.582231235180315e-17

-9.034572338406588e-17  2.666935398083055e-17  1.158085342542615e+00
 2.666935398083055e-17 -3.260053493564263e-17  4.875074804863290e-01
 1.158085342542615e+00  4.875074804863290e-01 -4.220993317769912e-17

-1.466706249772563e-16  5.114967286224010e-17  1.364544018133170e+00
 5.114967286224010e-17 -4.868632036049754e-17  2.632589707990859e-01
 1.364544018133170e+00  2.632589707990859e-01 -4.926415048481355e-17

-1.043514731409148e-16  3.078432155323391e-17  1.419522824159027e+00
 3.078432155323391e-17 -3.966849351074347e-17  3.391983000766322e-01
 1.419522824159027e+00  3.391983000766322e-01 -5.182769664284544e-17

-2.422285538622291e-17 -4.995009240810313e-18  1.372337137727315e+00
-4.995009240810313e-18 -1.911869531112513e-17  6.099340748229276e-01
 1.372337137727315e+00  6.099340748229276e-01 -5.236467246798524e-17

-3.734278074984649e-17  5.117884534608480e-19  1.206939599897759e+00
 5.117884534608480e-19 -1.954673003997369e-17  9.251166722580272e-01
 1.206939599897759e+00  9.251166722580272e-01 -5.042346302385317e-17

-3.503616323027042e-17 -1.012230277736637e-18  1.267609674571967e+00
-1.012230277736637e-18 -2.117462880815847e-17  6.982941850876457e-01
 1.267609674571967e+00  6.982941850876457e-01 -5.075200409266704e-17

-3.112792373761901e-17 -2.991321615990423e-19  1.238623239235844e+00
-2.991321615990423e-19 -2.128136135141137e-17  3.805368955235146e-01
 1.238623239235844e+00  3.805368955235146e-01 -4.362123354008146e-17

-3.321140805808829e-17  9.525370289010613e-19  1.436880460174972e+00
 9.525370289010613e-19 -2.512520810002998e-17  2.910605670290845e-02
 1.436880460174972e+00  2.910605670290845e-02 -4.731173949013443e-17

-2.977144099300518e-17 -3.124528663439926e-19  1.032007662495673e+00
-3.124528663439926e-19 -1.886830254259496e-17  5.046660114742403e-01
 1.032007662495673e+00  5.046660114742403e-01 -3.732398525731218e-17

-3.235052219619180e-17 -2.291863489662469e-19  1.165027846615154e+00
-2.291863489662469e-19 -1.912460181628561e-17  5.799026139310636e-01
 1.165027846615154e+00  5.799026139310636e-01 -4.267571198575410e-17

-3.286628477044373e-17 -4.263283054450715e-19  1.184592298111833e+00
-4.263283054450715e-19 -1.962038293724604e-17  5.967366251628079e-01
 1.184592298111833e+00  5.967366251628079e-01 -4.371959794181795e-17

-3.527765500139275e-17 -6.979809929494092e-19  1.376622573732270e+00
-6.979809929494092e-19 -2.349275285213096e-17  4.044871644212028e-01
 1.376622573732270e+00  4.044871644212028e-01 -5.050868676225850e-17

-3.395823324225045e-17 -7.188377085889515e-19  1.210377866295159e+00
-7.188377085889515e-19 -1.985819090997722e-17  6.612995762792323e-01
 1.210377866295159e+00  6.612995762792323e-01 -4.558060890184514e-17

-3.398130415015546e-17 -7.461626109989840e-19  1.192918552275551e+00
-7.461626109989840e-19 -1.936886859858167e-17  6.780853385517129e-01
 1.192918552275551e+00  6.780853385517129e-01 -4.498526217436153e-17

-3.507448319347206e-17 -1.918073866556152e-19  1.351572391881090e+00
-1.918073866556152e-19 -2.239428481327964e-17  4.031848211922486e-01
 1.351572391881090e+00  4.031848211922486e-01 -4.834852944652934e-17

-3.056587299980267e-17 -6.294250911830882e-19  1.017264030961213e+00
-6.294250911830882e-19 -1.850622646248065e-17  6.038699245795428e-01
 1.017264030961213e+00  6.038699245795428e-01 -3.709429805638846e-17

-3.228267939903861e-17 -5.491935206537167e-19  1.187273891903899e+00
-5.491935206537167e-19 -2.235128875710426e-17  3.424906998199035e-01
 1.187273891903899e+00  3.424906998199035e-01 -4.235039818585595e-17

-3.287242267329905e-17 -1.566381690395787e-18  1.201407883731355e+00
-1.566381690395787e-18 -2.267338062157136e-17  4.463598234971570e-01
 1.201407883731355e+00  4.463598234971570e-01 -4.429896602878140e-17

-3.602897680597337e-17  1.090849453216988e-18  1.134889000314847e+00
 1.090849453216988e-18 -2.101087222341684e-17  6.633608385650711e-01
 1.134889000314847e+00  6.633608385650711e-01 -4.355821306556429e-17

-6.161441555913562e-17  4.336206788453980e-18  1.408809017756253e+00
 4.336206788453980e-18 -2.570945590764776e-17  5.514529751666261e-01
 1.408809017756253e+00  5.514529751666261e-01 -5.405814306904971e-17

-1.111090016341989e-16  2.825921284207357e-17  1.508172042515060e+00
 2.825921284207357e-17 -3.742015620948509e-17  6.741954328402613e-01
 1.508172042515060e+00  6.741954328402613e-01 -6.028461955698715e-17

-1.889691050287621e-16  4.937816201389416e-17  1.176980204697919e+00
 4.937816201389416e-17 -4.199218475246117e-17  1.038632458637779e+00
 1.176980204697919e+00  1.038632458637779e+00 -5.312108353397175e-17

 3.498148676125953e-16 -1.608829856400587e-16  1.477790022002953e+00
-1.608829856400587e-16  4.441965857733818e-17  4.779893002483536e-01
 1.477790022002953e+00  4.779893002483536e-01 -5.626502389210296e-17

-3.208180268545058e-17 -1.049159815674658e-18  1.100737011048494e+00
-1.049159815674658e-18 -2.017851256576519e-17  5.116560474291787e-01
 1.100737011048494e+00  5.116560474291787e-01 -4.054454334862276e-17

-1.607876712113002e-17 -6.187239727870808e-18  1.241049109255030e+00
-6.187239727870808e-18 -1.972313757827341e-17  2.932174222807005e-01
 1.241049109255030e+00  2.932174222807005e-01 -4.365795263396821e-17

-7.715518909029444e-17  2.075419621883846e-17  1.279197298579236e+00
 2.075419621883846e-17 -3.254650776652968e-17  2.109667149755837e-01
 1.279197298579236e+00  2.109667149755837e-01 -4.483161861735732e-17

-5.302835030731645e-17  7.884794860155998e-18  1.210439564025351e+00
 7.884794860155998e-18 -2.553485820760218e-17  3.252279979358462e-01
 1.210439564025351e+00  3.252279979358462e-01 -4.390791755334091e-17

-3.690585159615394e-17  1.679109885833921e-18  1.014073367207687e+00
 1.679109885833921e-18 -1.782124485898850e-17  6.294246079074048e-01
 1.014073367207687e+00  6.294246079074048e-01 -3.779991673639535e-17

-3.610552316128701e-17  5.554102451864664e-19  9.636063736068589e-01
 5.554102451864664e-19 -1.577147032341585e-17  7.345140081486964e-01
 9.636063736068589e-01  7.345140081486964e-01 -3.659579378788446e-17

 5.309112392797557e-18 -4.984262064759804e-18  1.080556319269085e+00
-4.984262064759804e-18 -1.749119912891027e-17  4.782784885320882e-01
 1.080556319269085e+00  4.782784885320882e-01 -3.962158151064518e-17

 1.178620697331065e-16 -1.725841421681399e-17  1.043248584013538e+00
-1.725841421681399e-17 -1.636604757169390e-17  3.976666936616532e-01
 1.043248584013538e+00  3.976666936616532e-01 -3.808459625885371e-17

 8.181336966509581e-17 -1.937819508577379e-17  1.046145281703071e+00
-1.937819508577379e-17 -1.460728706783436e-17  4.321998725928103e-01
 1.046145281703071e+00  4.321998725928103e-01 -3.854317734898051e-17

 8.982391056004959e-17 -2.079028307862687e-17  1.045149368303550e+00
-2.079028307862687e-17 -1.308349801051637e-17  5.164835599891537e-01
 1.045149368303550e+00  5.164835599891537e-01 -3.889877374718671e-17

-3.416152459788016e-17 -5.773657220985149e-19  1.010682390334077e+00
-5.773657220985149e-19 -1.693615875117198e-17  4.449176082085878e-01
 1.010682390334077e+00  4.449176082085878e-01 -3.775596690077624e-17

-3.335853939642135e-17 -8.332126264473665e-19  1.010693790140757e+00
-8.332126264473665e-19 -1.705921961462628e-17  4.348247070400155e-01
 1.010693790140757e+00  4.348247070400155e-01 -3.812819607944268e-17

-3.485241754936585e-17 -8.257115525489447e-19  1.064700238535953e+00
-8.257115525489447e-19 -1.780909942685425e-17  4.124631851233325e-01
 1.064700238535953e+00  4.124631851233325e-01 -4.044206294436508e-17

-3.664483386579449e-17 -7.684944891804229e-19  1.105881824899923e+00
-7.684944891804229e-19 -1.805551275705887e-17  4.193805101138281e-01
 1.105881824899923e+00  4.193805101138281e-01 -4.224725794287525e-17

-3.697670119041385e-17 -8.547174145186379e-19  1.103214144687926e+00
-8.547174145186379e-19 -1.767051793567052e-17  4.429102512304708e-01
 1.103214144687926e+00  4.429102512304708e-01 -4.241828262434789e-17

-3.752762514539127e-17 -1.053876198570037e-18  1.118747760828917e+00
-1.053876198570037e-18 -1.749062049930963e-17  4.513668410252078e-01
 1.118747760828917e+00  4.513668410252078e-01 -4.345076993064474e-17

-3.594704875129800e-17 -1.564268566714496e-18  9.506183637944858e-01
-1.564268566714496e-18 -1.479152132558719e-17  5.630985283848259e-01
 9.506183637944858e-01  5.630985283848259e-01 -3.880395933774970e-17

-3.386693909302249e-17 -1.434631601130786e-18  8.037381584506568e-01
-1.434631601130786e-18 -1.313780782098036e-17  5.647788350468985e-01
 8.037381584506568e-01  5.647788350468985e-01 -3.333864631017059e-17

-3.393841951082508e-17 -8.196011709635858e-19  8.679712325136579e-01
-8.196011709635858e-19 -1.423575728966589e-17  3.994590054892625e-01
 8.679712325136579e-01  3.994590054892625e-01 -3.382887112117130e-17

-3.117667247853463e-17 -7.300589287190642e-19  6.527468318572371e-01
-7.300589287190642e-19 -1.237911144099763e-17  4.360074188778383e-01
 6.527468318572371e-01  4.360074188778383e-01 -2.595138735248155e-17

-3.474702873548628e-17 -5.820474790583117e-19  9.907009377286531e-01
-5.820474790583117e-19 -1.797143805088022e-17  8.442421911670288e-02
 9.907009377286531e-01  8.442421911670288e-02 -3.638907781921651e-17

-3.356817176095435e-17 -1.534533492575903e-18  7.842575443125354e-01
-1.534533492575903e-18 -1.509248352691112e-17  3.190855667406809e-01
 7.842575443125354e-01  3.190855667406809e-01 -3.152236929305883e-17

-3.723282776491063e-17 -1.006150466132761e-18  9.397544595106629e-01
-1.006150466132761e-18 -1.431344418412359e-17  4.146740011062338e-01
 9.397544595106629e-01  4.146740011062338e-01 -3.765004241480773e-17

-3.831822896089384e-17 -7.174071405219381e-19  9.463816888624753e-01
-7.174071405219381e-19 -1.353110073438431e-17  4.869938645144533e-01
 9.463816888624753e-01  4.869938645144533e-01 -3.805582648120336e-17

-4.080352015470301e-17 -1.148910667879633e-18  1.035058173726542e+00
-1.148910667879633e-18 -1.577180983439231e-17  4.142945719311094e-01
 1.035058173726542e+00  4.142945719311094e-01 -4.193908977036216e-17

-4.182616730316975e-17 -1.414302785219545e-18  9.886702738309560e-01
-1.414302785219545e-18 -1.660846106409923e-17  3.537494896221026e-01
 9.886702738309560e-01  3.537494896221026e-01 -4.106338665247403e-17

-4.326733024012653e-17 -1.457856160153070e-18  1.025037094841875e+00
-1.457856160153070e-18 -1.616698971864052e-17  3.808299883800095e-01
 1.025037094841875e+00  3.808299883800095e-01 -4.275171665898679e-17

-4.328085154605709e-17 -1.507729436896523e-18  9.597647891025942e-01
-1.507729436896523e-18 -1.461911967894474e-17  4.679954537991112e-01
 9.597647891025942e-01  4.679954537991112e-01 -4.077530297391610e-17

-4.455882464800269e-17 -1.648033790806300e-18  1.003490164851298e+00
-1.648033790806300e-18 -1.528671697821880e-17  4.221914737013152e-01
 1.003490164851298e+00  4.221914737013152e-01 -4.287126337030078e-17

-4.540339844548696e-17 -1.959687815379863e-18  1.000567453272547e+00
-1.959687815379863e-18 -1.512638456098585e-17  4.218502873328735e-01
 1.000567453272547e+00  4.218502873328735e-01 -4.372837073968505e-17

-4.099883285379440e-17 -2.561568872337156e-18  5.054509876941244e-01
-2.561568872337156e-18 -8.803097785013620e-18  7.619617562605649e-01
 5.054509876941244e-01  7.619617562605649e-01 -2.895265705952065e-17

-4.759194485623921e-17 -1.295178257818635e-18  1.162110174943449e+00
-1.295178257818635e-18 -1.899978255362597e-17  2.325975487299654e-02
 1.162110174943449e+00  2.325975487299654e-02 -4.668048983844260e-17

-4.757995592673700e-17 -1.960511705167434e-18  1.047838993837709e+00
-1.960511705167434e-18 -1.820591140251602e-17  9.698651163431755e-02
 1.047838993837709e+00  9.698651163431755e-02 -4.414816122823326e-17

-4.578456110610051e-17 -1.207897423202755e-18  7.132047706512707e-01
-1.207897423202755e-18 -9.830137188767457e-18  5.542191437900135e-01
 7.132047706512707e-01  5.542191437900135e-01 -3.427651890557866e-17

-5.258802905259345e-17 -2.000475139820225e-18  1.008889094542079e+00
-2.000475139820225e-18 -1.384613742262530e-17  4.030452980898012e-01
 1.008889094542079e+00  4.030452980898012e-01 -4.591619716909953e-17

-5.686380549579345e-17 -2.395558895746593e-18  9.987676124799695e-01
-2.395558895746593e-18 -1.366538462417780e-17  3.882030581118828e-01
 9.987676124799695e-01  3.882030581118828e-01 -4.734415535064277e-17

-6.078161424528648e-17 -2.589354633750903e-18  1.000240157011410e+00
-2.589354633750903e-18 -1.248050502516547e-17  4.070282856543023e-01
 1.000240157011410e+00  4.070282856543023e-01 -4.892000781290466e-17

-6.530499984094339e-17 -2.762658708844800e-18  9.939736836951847e-01
-2.762658708844800e-18 -1.123704423883211e-17  4.015307440971926e-01
 9.939736836951847e-01  4.015307440971926e-01 -5.049597792939558e-17

-7.142864785834213e-17 -2.934901324571474e-18  9.878822883751602e-01
-2.934901324571474e-18 -8.968262874125678e-18  4.207045751637890e-01
 9.878822883751602e-01  4.207045751637890e-01 -5.273260864905330e-17

-7.673492062762297e-17 -3.011251137514579e-18  1.006725860916319e+00
-3.011251137514579e-18 -7.623682691359039e-18  4.024663880311943e-01
 1.006725860916319e+00  4.024663880311943e-01 -5.539281771185713e-17

-8.301146736683730e-17 -3.070115166006363e-18  1.026604370715195e+00
-3.070115166006363e-18 -5.815738987969330e-18  3.953251571708288e-01
 1.026604370715195e+00  3.953251571708288e-01 -5.846333070533362e-17

-1.115663842933013e-16 -1.577371426677957e-18  1.082091581988430e+00
-1.577371426677957e-18 -5.329190119500312e-19  4.460917202978435e-01
 1.082091581988430e+00  4.460917202978435e-01 -6.564353626266732e-17

-9.035111205529160e-17 -4.274756862913580e-18  9.400723882214492e-01
-4.274756862913580e-18  6.580519864845711e-18  4.959747622596929e-01
 9.400723882214492e-01  4.959747622596929e-01 -6.502574958791617e-17

-1.879477635895923e-16  6.154882002686670e-18  1.193808227265697e+00
 6.154882002686670e-18  5.076881660653788e-18  1.539698506080606e-01
 1.193808227265697e+00  1.539698506080606e-01 -7.597550196852480e-17

-1.303491021365571e-16 -3.833179132878107e-19  1.114260414786410e+00
-3.833179132878107e-19  9.954889338559119e-18  2.754010181000311e-01
 1.114260414786410e+00  2.754010181000311e-01 -7.586288940499370e-17

-1.279515209908357e-16 -1.230929183662376e-18  9.615429842839934e-01
-1.230929183662376e-18  1.695360878549229e-17  5.163614433554493e-01
 9.615429842839934e-01  5.163614433554493e-01 -7.328136766182093e-17

-1.436400664134147e-16 -1.528941453292759e-18  9.715456478991062e-01
-1.528941453292759e-18  2.785196787857195e-17  6.583332576799071e-01
 9.715456478991062e-01  6.583332576799071e-01 -8.227807080917280e-17

-1.537806057317795e-16  5.400404431085627e-19  1.066599198290459e+00
 5.400404431085627e-19  3.139998547128148e-17  4.769969085880634e-01
 1.066599198290459e+00  4.769969085880634e-01 -8.817610688776923e-17

-1.692445466367217e-16  4.229400945798771e-18  1.167245362811649e+00
 4.229400945798771e-18  4.055763869433471e-17  2.767703598514007e-01
 1.167245362811649e+00  2.767703598514007e-01 -9.707726993214611e-17

-2.052123742774529e-16  1.026774677561238e-17  1.104386265084438e+00
 1.026774677561238e-17  6.855537284986948e-17  4.012430340659516e-01
 1.104386265084438e+00  4.012430340659516e-01 -1.109009704246684e-16

-2.329222510257917e-16  1.525259760678727e-17  1.008563923670458e+00
 1.525259760678727e-17  9.270089139114886e-17  5.321524374285678e-01
 1.008563923670458e+00  5.321524374285678e-01 -1.198860592305733e-16

-2.613203343616535e-16  2.790659122236365e-17  9.975247741198643e-01
 2.790659122236365e-17  1.196553983188415e-16  4.602552964162560e-01
 9.975247741198643e-01  4.602552964162560e-01 -1.321987809362343e-16

-2.893395569647227e-16  4.310350359562033e-17  1.042462045056215e+00
 4.310350359562033e-17  1.465478241551840e-16  2.933113363447865e-01
 1.042462045056215e+00  2.933113363447865e-01 -1.458320782939699e-16

-3.309998531316061e-16  6.396864526782740e-17  8.824977660151609e-01
 6.396864526782740e-17  1.917141981012953e-16  4.266561518659702e-01
 8.824977660151609e-01  4.266561518659702e-01 -1.608207322329396e-16

-4.235520273330549e-16  1.081172067579722e-16  9.343280373310188e-01
 1.081172067579722e-16  2.837761308216005e-16  4.439410752388387e-01
 9.343280373310188e-01  4.439410752388387e-01 -2.050087545452663e-16

-5.689514765823270e-16  2.021283465037111e-16  9.337480566487969e-01
 2.021283465037111e-16  4.474043747134293e-16  4.794622311514459e-01
 9.337480566487969e-01  4.794622311514459e-01 -2.763580829542622e-16

-6.752588745107077e-16  3.365494607683589e-16  1.074246714020327e+00
 3.365494607683589e-16  5.864919275313073e-16  2.365846128579787e-01
 1.074246714020327e+00  2.365846128579787e-01 -3.488065409458044e-16

-8.272998592573918e-16  4.345436002567679e-16  9.185405973440566e-01
 4.345436002567679e-16  7.808439882277434e-16  5.067581546037552e-01
 9.185405973440566e-01  5.067581546037552e-01 -4.165691548982865e-16

-9.837692670066428e-16  5.637605063618773e-16  7.507232204642733e-01
 5.637605063618773e-16  9.993560221200318e-16  7.188101074313067e-01
 7.507232204642733e-01  7.188101074313067e-01 -4.945990858604778e-16

-1.028977661655540e-15  8.016640751249937e-16  9.297282412768337e-01
 8.016640751249937e-16  1.188028065978785e-15  3.981899833902608e-01
 9.297282412768337e-01  3.981899833902608e-01 -5.892073535810173e-16

-1.078978518376486e-15  1.043798527039170e-15  1.179763465472821e+00
 1.043798527039170e-15  1.216021718513596e-15  9.487504704371007e-02
 1.179763465472821e+00  9.487504704371007e-02 -6.745259366636935e-16

-1.406826913044297e-15  1.378420186359929e-15  9.970486108612540e-01
 1.378420186359929e-15  1.697044350518837e-15  3.586128217811214e-01
 9.970486108612540e-01  3.586128217811214e-01 -8.422294854624727e-16

-1.849605766298560e-15  1.798677125198709e-15  8.800019075673682e-01
 1.798677125198709e-15  2.641900708305242e-15  6.302309477727063e-01
 8.800019075673682e-01  6.302309477727063e-01 -1.108204210957056e-15

-2.246744049540524e-15  3.037348569968669e-15  1.143167552689137e+00
 3.037348569968669e-15  3.544820472390980e-15  3.971688057360442e-01
 1.143167552689137e+00  3.971688057360442e-01 -1.570657260751105e-15

-2.540656807256002e-15  5.869331362928928e-15  1.055594212191435e+00
 5.869331362928928e-15  4.921002592626374e-15  3.986563839835359e-01
 1.055594212191435e+00  3.986563839835359e-01 -2.600946235229124e-15

-2.506753286497586e-15  1.017826054937245e-14  1.002781126934017e+00
 1.017826054937245e-14  5.657796204431386e-15  4.158458467018868e-01
 1.002781126934017e+00  4.158458467018868e-01 -4.491108484406459e-15

-4.885964440620443e-15  1.587182224855722e-14  9.582852986337107e-01
 1.587182224855722e-14  6.187845694552976e-15  4.483113103891362e-01
 9.582852986337107e-01  4.483113103891362e-01 -9.780438662168628e-15

 1.740112733770629e-14  7.002876604678742e-15  9.730662697511013e-01
 7.002876604678742e-15  2.912132826204435e-14  3.944982308001275e-01
 9.730662697511013e-01  3.944982308001275e-01 -6.299955666829790e-15

 1.567894925374858e-13 -2.535617814882294e-14  1.028287166875438e+00
-2.535617814882294e-14  9.584749879923321e-14  3.689978653926163e-01
 1.028287166875438e+00  3.689978653926163e-01  4.114315710052541e-14

-6.432250680386691e-13  1.395226229309144e-13  1.000576025835569e+00
 1.395226229309144e-13 -3.283833431019995e-13  4.885406298056766e-01
 1.000576025835569e+00  4.885406298056766e-01 -1.693992589008043e-13

 2.329706323242653e-13 -1.110998853179089e-13  1.047291847352078e+00
-1.110998853179089e-13  1.763889622872386e-13  3.328386359704828e-01
 1.047291847352078e+00  3.328386359704828e-01  7.036241015744751e-14

-6.223093507553188e-13  1.224663859002687e-13  7.749539896511085e-01
 1.224663859002687e-13 -2.925560520749134e-13  7.012663391666907e-01
 7.749539896511085e-01  7.012663391666907e-01 -1.624801925846068e-13

-1.793778638468879e-14 -8.588229914438691e-15  1.134541090334820e+00
-8.588229914438691e-15  1.109032252214691e-14  4.085340652896208e-01
 1.134541090334820e+00  4.085340652896208e-01 -1.308179822917581e-14

-1.706344062399845e-14 -4.155691424956127e-15  1.074961602085996e+00
-4.155691424956127e-15 -5.677420966377218e-15  7.343628890595985e-01
 1.074961602085996e+00  7.343628890595985e-01 -8.714113630264544e-15

-1.249764732806081e-14 -8.853514283473724e-16  1.323081943959578e+00
-8.853514283473724e-16 -3.384568446237427e-15  4.672003616440585e-01
 1.323081943959578e+00  4.672003616440585e-01 -5.417993796334807e-15

-6.975869810300325e-15  1.077087993991141e-15  1.142797645731999e+00
 1.077087993991141e-15 -1.011178165032684e-15  3.694896311235530e-01
 1.142797645731999e+00  3.694896311235530e-01 -2.638683096660461e-15

-4.877270303182269e-15  1.218068561016355e-15  1.129850270660357e+00
 1.218068561016355e-15 -6.100925280217802e-16  3.105707215568830e-01
 1.129850270660357e+00  3.105707215568830e-01 -1.751349617133916e-15

-4.147020129465238e-15  1.207009571710590e-15  9.925477956172100e-01
 1.207009571710590e-15 -8.592400802705348e-16  4.384773707442777e-01
 9.925477956172100e-01  4.384773707442777e-01 -1.451204263294301e-15

-3.303527375967654e-15  1.112790097292659e-15  1.066062812823422e+00
 1.112790097292659e-15 -8.442152289628201e-16  3.807298898515337e-01
 1.066062812823422e+00  3.807298898515337e-01 -1.175544730860326e-15

-2.619159577236227e-15  9.798445671358337e-16  1.097932916473628e+00
 9.798445671358337e-16 -9.912905795387724e-16  3.931776782071517e-01
 1.097932916473628e+00  3.931776782071517e-01 -9.031640992773418e-16

-2.000764506373555e-15  8.289820614906728e-16  1.119950246849787e+00
 8.289820614906728e-16 -9.913654507321803e-16  4.373663003738762e-01
 1.119950246849787e+00  4.373663003738762e-01 -7.215781183689813e-16

-1.356736803396918e-15  5.944014725973085e-16  9.863902425861378e-01
 5.944014725973085e-16 -9.935707163311359e-16  6.816358772772123e-01
 9.863902425861378e-01  6.816358772772123e-01 -4.905094511383478e-16

-1.099714586051449e-15  4.933919830109126e-16  5.559740390065442e-01
 4.933919830109126e-16 -7.859524768644347e-16  8.722663402485298e-01
 5.559740390065442e-01  8.722663402485298e-01 -3.942055611380235e-16

-1.148008654728303e-15  5.299000280484627e-16  1.198697550834074e+00
 5.299000280484627e-16 -6.084428681380441e-16  3.170531179091517e-01
 1.198697550834074e+00  3.170531179091517e-01 -4.179218887515844e-16

-1.072164037808985e-15  4.919425668049185e-16  1.257467444422087e+00
 4.919425668049185e-16 -4.246185350487631e-16  7.805050728158371e-02
 1.257467444422087e+00  7.805050728158371e-02 -3.873681738141714e-16

-9.831312507788749e-16  4.500546191283367e-16  1.262440393537589e+00
 4.500546191283367e-16 -3.059971718749102e-16 -3.264216697354208e-02
 1.262440393537589e+00 -3.264216697354208e-02 -3.565733790351164e-16

-8.346735775947320e-16  3.918978179426132e-16  8.462078492612393e-01
 3.918978179426132e-16 -3.489367288099920e-16  3.098362598474249e-01
 8.462078492612393e-01  3.098362598474249e-01 -3.008034238541999e-16

-6.035604442739868e-16  2.858211221711833e-16  8.951041391619710e-01
 2.858211221711833e-16 -4.017509839316012e-16  4.607407941572884e-01
 8.951041391619710e-01  4.607407941572884e-01 -2.330085337814323e-16

-4.274501538352240e-16  1.913148367967443e-16  1.012598278457981e+00
 1.913148367967443e-16 -3.548769069955629e-16  4.151393809350362e-01
 1.012598278457981e+00  4.151393809350362e-01 -1.807039713780032e-16

-3.344204455854810e-16  1.414981032372712e-16  1.011402642599524e+00
 1.414981032372712e-16 -2.964551673325620e-16  4.114625477662937e-01
 1.011402642599524e+00  4.114625477662937e-01 -1.493188388168349e-16

-2.892611365999853e-16  1.174419267188081e-16  1.059740705772118e+00
 1.174419267188081e-16 -2.633921553366963e-16  3.908531221209323e-01
 1.059740705772118e+00  3.908531221209323e-01 -1.353049567183438e-16

-2.706519760883012e-16  1.079303246152652e-16  9.961719403639017e-01
 1.079303246152652e-16 -2.485120422120695e-16  4.416006923791947e-01
 9.961719403639017e-01  4.416006923791947e-01 -1.269036257202675e-16

-2.509322871708265e-16  9.836928819753886e-17  9.748467640225168e-01
 9.836928819753886e-17 -2.300455897693832e-16  4.438035414139074e-01
 9.748467640225168e-01  4.438035414139074e-01 -1.191488014922790e-16

-2.166795802188156e-16  8.275422486236218e-17  9.166174481980636e-01
 8.275422486236218e-17 -1.929045866620829e-16  4.898863093767110e-01
 9.166174481980636e-01  4.898863093767110e-01 -1.050351360174206e-16

-1.930455989922469e-16  7.287590728313113e-17  7.987928951708708e-01
 7.287590728313113e-17 -1.660140579286442e-16  5.369423159574572e-01
 7.987928951708708e-01  5.369423159574572e-01 -9.267056424193586e-17

-1.745769103102168e-16  6.716625665443011e-17  7.178994422228326e-01
 6.716625665443011e-17 -1.403440169065926e-16  4.448138795121555e-01
 7.178994422228326e-01  4.448138795121555e-01 -8.203882544743826e-17

-1.632872273375677e-16  6.176514544637860e-17  9.383259084191652e-01
 6.176514544637860e-17 -1.236435174038770e-16  1.531117045544150e-01
 9.383259084191652e-01  1.531117045544150e-01 -8.372863745230264e-17

-1.484851462261043e-16  5.223109851846491e-17  8.197466847261677e-01
 5.223109851846491e-17 -1.186414155911226e-16  3.331941186485300e-01
 8.197466847261677e-01  3.331941186485300e-01 -7.602227352638025e-17

-1.313593091457540e-16  4.037911319062899e-17  8.496273616117413e-01
 4.037911319062899e-17 -1.213799365418678e-16  4.676760328878797e-01
 8.496273616117413e-01  4.676760328878797e-01 -7.165998068020364e-17

-1.194730354250502e-16  3.041780642080671e-17  1.023265689478639e+00
 3.041780642080671e-17 -1.167509595232507e-16  4.471494624046066e-01
 1.023265689478639e+00  4.471494624046066e-01 -7.275855688094853e-17

-1.120504234991451e-16  2.558143882563711e-17  1.099667574665608e+00
 2.558143882563711e-17 -1.114211908842583e-16  3.868150864069609e-01
 1.099667574665608e+00  3.868150864069609e-01 -7.255012314361085e-17

-1.077915885854958e-16  2.315808455771698e-17  1.211377829426898e+00
 2.315808455771698e-17 -1.071175801463160e-16  2.883114440758279e-01
 1.211377829426898e+00  2.883114440758279e-01 -7.455630433469770e-17

-9.922656524606129e-17  1.844107657701482e-17  1.129438684572694e+00
 1.844107657701482e-17 -9.773385581196522e-17  4.533679147158065e-01
 1.129438684572694e+00  4.533679147158065e-01 -6.983173572705389e-17

-8.977983302238885e-17  1.456681585789471e-17  8.009390889620851e-01
 1.456681585789471e-17 -8.681474661682049e-17  7.663985702911362e-01
 8.009390889620851e-01  7.663985702911362e-01 -5.982969064726494e-17

-7.994416812796050e-17  1.402481521877205e-17  3.553938524055797e-01
 1.402481521877205e-17 -7.684449544514223e-17  8.989150271831459e-01
 3.553938524055797e-01  8.989150271831459e-01 -4.473646306828341e-17

-8.018996915601400e-17  1.669363058514744e-17  5.066535075124349e-01
 1.669363058514744e-17 -7.576204990301903e-17  6.477622143956635e-01
 5.066535075124349e-01  6.477622143956635e-01 -4.536671620260511e-17

-8.952792453682664e-17  2.213492105943406e-17  1.330632280445853e+00
 2.213492105943406e-17 -7.901176070812399e-17 -5.774549581502076e-02
 1.330632280445853e+00 -5.774549581502076e-02 -6.278544429486771e-17

-7.535775524116888e-17  1.401696397483117e-17  1.100142361385364e+00
 1.401696397483117e-17 -7.401073471560188e-17  1.978790755687864e-03
 1.100142361385364e+00  1.978790755687864e-03 -5.636266166277043e-17

-6.464642719973461e-17  7.580520244679198e-18  7.080057313869943e-01
 7.580520244679198e-18 -6.272537756266178e-17  6.244808462537953e-01
 7.080057313869943e-01  6.244808462537953e-01 -4.495042967001357e-17

-6.982354664803230e-17  1.182394567334353e-17  8.602327121136893e-01
 1.182394567334353e-17 -6.065172949556530e-17  5.466005448557653e-01
 8.602327121136893e-01  5.466005448557653e-01 -4.823647010401497e-17

-6.807628253769299e-17  1.137117712695703e-17  9.007929974790475e-01
 1.137117712695703e-17 -6.035911933311515e-17  4.115161410877563e-01
 9.007929974790475e-01  4.115161410877563e-01 -4.854751379336685e-17

-6.648687279083034e-17  1.000146810155871e-17  9.636926912849458e-01
 1.000146810155871e-17 -6.049542647965328e-17  2.952606341262100e-01
 9.636926912849458e-01  2.952606341262100e-01 -4.963420375531574e-17

-6.605552067308444e-17  8.154882647486997e-18  1.067673207819511e+00
 8.154882647486997e-18 -5.991285506981176e-17  3.046100669293921e-01
 1.067673207819511e+00  3.046100669293921e-01 -5.209067658839907e-17

-6.578571048681092e-17  6.984989054555089e-18  1.164793869344227e+00
 6.984989054555089e-18 -5.923461491302254e-17  3.636898378471530e-01
 1.164793869344227e+00  3.636898378471530e-01 -5.474668817421490e-17

-6.315280954461274e-17  6.717747239158477e-18  1.045064746318282e+00
 6.717747239158477e-18 -5.595372599010341e-17  5.133699916456865e-01
 1.045064746318282e+00  5.133699916456865e-01 -5.200158336910133e-17

-6.188244323975832e-17  5.223335340016728e-18  1.012061305401459e+00
 5.223335340016728e-18 -5.371666717826873e-17  6.945662072502655e-01
 1.012061305401459e+00  6.945662072502655e-01 -5.139355468964411e-17

-6.382799137796114e-17  4.381210775650900e-18  1.322667163898035e+00
 4.381210775650900e-18 -5.624864904130449e-17  4.596825695125279e-01
 1.322667163898035e+00  4.596825695125279e-01 -6.036183506405130e-17

-6.065209505343441e-17  4.033242606633283e-18  1.253931378830711e+00
 4.033242606633283e-18 -5.459955321975444e-17  3.851170319826956e-01
 1.253931378830711e+00  3.851170319826956e-01 -5.666529138406098e-17

-5.662644802247529e-17  3.771840457799154e-18  1.068126401578369e+00
 3.771840457799154e-18 -5.091190522561240e-17  4.441459378955931e-01
 1.068126401578369e+00  4.441459378955931e-01 -4.926325594992645e-17

-5.580555494065107e-17  3.723257371323743e-18  1.105909359554649e+00
 3.723257371323743e-18 -5.082152937759768e-17  3.588702525025310e-01
 1.105909359554649e+00  3.588702525025310e-01 -4.993733150442124e-17

-5.594883405407928e-17  3.317814472014880e-18  1.228783405309803e+00
 3.317814472014880e-18 -5.150778026316935e-17  2.544994807354800e-01
 1.228783405309803e+00  2.544994807354800e-01 -5.390766375541958e-17

-5.460338954314161e-17  2.495237705860067e-18  1.179974038757137e+00
 2.495237705860067e-18 -4.884915440659099e-17  3.916270325685823e-01
 1.179974038757137e+00  3.916270325685823e-01 -5.206908719266173e-17

-5.609232315090886e-17  1.839378412264400e-18  1.365064471820522e+00
 1.839378412264400e-18 -4.689699567372855e-17  5.019552933211707e-01
 1.365064471820522e+00  5.019552933211707e-01 -5.897979166895070e-17

-5.615092079379994e-17  1.068591764489196e-18  9.184725507542885e-01
 1.068591764489196e-18 -3.959044863880906e-17  1.034928275502483e+00
 9.184725507542885e-01  1.034928275502483e+00 -4.904925556898484e-17

-4.802300669188379e-17 -5.463798881607140e-19  1.153173736090154e+00
-5.463798881607140e-19 -4.134079225370045e-17  7.311992164654459e-01
 1.153173736090154e+00  7.311992164654459e-01 -5.374857692079540e-17

-5.216797398240759e-17  2.589020827421374e-18  1.400025430377469e+00
 2.589020827421374e-18 -4.369191791067642e-17  2.894035723117172e-01
 1.400025430377469e+00  2.894035723117172e-01 -5.560951218818259e-17

-5.901338651909695e-17  6.100587771219823e-18  1.037705935793328e+00
 6.100587771219823e-18 -3.905890759987073e-17  3.890365567450557e-01
 1.037705935793328e+00  3.890365567450557e-01 -4.238790002313177e-17

-1.338952145874664e-16  2.493270756019417e-17  1.094738914646383e+00
 2.493270756019417e-17 -4.411144538666315e-17  2.341126651705021e-01
 1.094738914646383e+00  2.341126651705021e-01 -4.367482563047508e-17

-4.429350888385127e-17  2.778170878720002e-18  9.316976378003193e-01
 2.778170878720002e-18 -3.482735430474866e-17  4.173582355250042e-01
 9.316976378003193e-01  4.173582355250042e-01 -3.926579187173379e-17

-2.045488705505815e-17 -3.775642979587700e-18  1.062972356539282e+00
-3.775642979587700e-18 -3.266851767118929e-17  4.242012000530710e-01
 1.062972356539282e+00  4.242012000530710e-01 -4.385315046483397e-17

-1.680786207029814e-17 -4.279985083635012e-18  9.435613781266089e-01
-4.279985083635012e-18 -2.888547884163179e-17  5.965182210384075e-01
 9.435613781266089e-01  5.965182210384075e-01 -3.935698425958409e-17

-5.273922453378119e-17  4.072206198341664e-18  1.046230871120420e+00
 4.072206198341664e-18 -3.194531984649174e-17  5.284842377623568e-01
 1.046230871120420e+00  5.284842377623568e-01 -4.287983740921563e-17

-6.969367693471947e-17  7.766921933440111e-18  1.198401952510278e+00
 7.766921933440111e-18 -3.452558666691279e-17  4.109183543007603e-01
 1.198401952510278e+00  4.109183543007603e-01 -4.809558315776660e-17

-3.644280130039947e-17  5.174473843217656e-21  1.056872350142452e+00
 5.174473843217656e-21 -3.015759983867567e-17  4.806935735341098e-01
 1.056872350142452e+00  4.806935735341098e-01 -4.284492117740396e-17

-4.170838915873992e-17  1.426038975688355e-18  1.227020933765911e+00
 1.426038975688355e-18 -3.284693201768553e-17  2.207291783395223e-01
 1.227020933765911e+00  2.207291783395223e-01 -4.759259293180521e-17

-3.589296750723729e-17  3.834576699634765e-19  9.071144374597899e-01
 3.834576699634765e-19 -2.579908985047192e-17  5.967135223491593e-01
 9.071144374597899e-01  5.967135223491593e-01 -3.715699949914487e-17

-3.485041795866783e-17  2.031453401956094e-20  7.549438177874064e-01
 2.031453401956094e-20 -2.248545762041003e-17  7.864368708001884e-01
 7.549438177874064e-01  7.864368708001884e-01 -3.290425631070228e-17

-3.384384141306201e-17  1.450699211589024e-18  8.817735774863353e-01
 1.450699211589024e-18 -2.493506369356157e-17  3.748046539409765e-01
 8.817735774863353e-01  3.748046539409765e-01 -3.332165909926812e-17

-3.414253980912103e-17  1.299819737764192e-18  1.020195014831517e+00
 1.299819737764192e-18 -2.813656881053423e-17  1.342278173020789e-01
 1.020195014831517e+00  1.342278173020789e-01 -3.779764789623951e-17

-3.061218616767469e-17  8.392726375989314e-19  6.956477128673204e-01
 8.392726375989314e-19 -2.307759342926679e-17  4.284817121103207e-01
 6.956477128673204e-01  4.284817121103207e-01 -2.728593505524035e-17

-3.220406004388323e-17  5.279549242379280e-19  8.295792471722986e-01
 5.279549242379280e-19 -2.442902691564653e-17  3.747998450174976e-01
 8.295792471722986e-01  3.747998450174976e-01 -3.228929877736247e-17

-3.280520091695500e-17  4.580656394428534e-19  8.743021357971235e-01
 4.580656394428534e-19 -2.383545255104965e-17  4.196344896214044e-01
 8.743021357971235e-01  4.196344896214044e-01 -3.390128791208182e-17

-3.424705861993994e-17  7.277017659850363e-19  9.887103217704092e-01
 7.277017659850363e-19 -2.319396274973232e-17  4.662308320877861e-01
 9.887103217704092e-01  4.662308320877861e-01 -3.759558317306673e-17

-3.456623518692058e-17  6.881216088760972e-19  9.998988232399078e-01
 6.881216088760972e-19 -2.201902782705374e-17  5.539712592473518e-01
 9.998988232399078e-01  5.539712592473518e-01 -3.788892447818442e-17

-3.568692514433987e-17  1.726144908358880e-19  1.107798386992047e+00
 1.726144908358880e-19 -2.371892847780169e-17  4.870588025164685e-01
 1.107798386992047e+00  4.870588025164685e-01 -4.197654214447795e-17

-3.406677851086314e-17  2.304776436888734e-19  1.050957296175415e+00
 2.304776436888734e-19 -2.344628931057130e-17  4.241179929087289e-01
 1.050957296175415e+00  4.241179929087289e-01 -3.940977909362435e-17

-3.183572671976986e-17  3.395108551714866e-19  9.395272125375030e-01
 3.395108551714866e-19 -2.140212023255478e-17  4.467570717721306e-01
 9.395272125375030e-01  4.467570717721306e-01 -3.503252932499127e-17

-3.066641922186986e-17  1.070411082319530e-19  9.148296376122962e-01
 1.070411082319530e-19 -2.211576068003354e-17  3.572886713067218e-01
 9.148296376122962e-01  3.572886713067218e-01 -3.405458413423272e-17

-3.151457886322477e-17  2.006155651979208e-19  9.777858016656571e-01
 2.006155651979208e-19 -2.127492975327550e-17  4.109778277787411e-01
 9.777858016656571e-01  4.109778277787411e-01 -3.634700543588796e-17

-3.204339321836167e-17  7.055430203992614e-19  1.005463170979243e+00
 7.055430203992614e-19 -1.954356603549601e-17  5.092762467931975e-01
 1.005463170979243e+00  5.092762467931975e-01 -3.723229671609271e-17

-3.244245821865291e-17  2.877062457516591e-19  1.075127847564800e+00
 2.877062457516591e-19 -2.231531970032541e-17  3.756990063841468e-01
 1.075127847564800e+00  3.756990063841468e-01 -3.983813482710277e-17

-3.118027635162837e-17  1.156515710829316e-19  9.616570853361832e-01
 1.156515710829316e-19 -1.825516700890970e-17  6.028028421437893e-01
 9.616570853361832e-01  6.028028421437893e-01 -3.634280168270510e-17

-3.048046118154664e-17  1.434840742612523e-19  9.663499629973130e-01
 1.434840742612523e-19 -1.891587286402771e-17  5.071011871480826e-01
 9.663499629973130e-01  5.071011871480826e-01 -3.596734780033321e-17

-2.987807680205745e-17  6.112472820470424e-19  1.021830492934597e+00
 6.112472820470424e-19 -2.090229863901018e-17  3.012685235893050e-01
 1.021830492934597e+00  3.012685235893050e-01 -3.651328648246790e-17

-2.608369879519358e-17  1.954609955979200e-19  6.868148296817517e-01
 1.954609955979200e-19 -1.523428785763535e-17  6.092857542155948e-01
 6.868148296817517e-01  6.092857542155948e-01 -2.544348467682537e-17

-2.938112060098860e-17  9.517884885210521e-20  1.012472224098718e+00
 9.517884885210521e-20 -2.111910091506076e-17  2.831820094056279e-01
 1.012472224098718e+00  2.831820094056279e-01 -3.670840691224897e-17

-2.978605194908672e-17 -1.192508170228257e-19  1.041951110153296e+00
-1.192508170228257e-19 -2.143083822407252e-17  2.876987716294001e-01
 1.041951110153296e+00  2.876987716294001e-01 -3.788936714588040e-17

-2.698108851712441e-17  5.022657549945737e-19  7.844895797217443e-01
 5.022657549945737e-19 -1.551083948524051e-17  5.874421547592695e-01
 7.844895797217443e-01  5.874421547592695e-01 -2.854069528424232e-17

-2.844769984762646e-17  4.338981276568896e-19  9.000606030505731e-01
 4.338981276568896e-19 -1.650917975442606e-17  5.598462831454213e-01
 9.000606030505731e-01  5.598462831454213e-01 -3.256143821102270e-17

-2.950181117283485e-17  6.512460521336852e-20  9.863764888008564e-01
 6.512460521336852e-20 -1.908123858635395e-17  4.649456334185991e-01
 9.863764888008564e-01  4.649456334185991e-01 -3.579601048653734e-17

-3.011997261086208e-17 -7.428225298638532e-19  1.062860769741573e+00
-7.428225298638532e-19 -2.157340798865463e-17  4.049087185263787e-01
 1.062860769741573e+00  4.049087185263787e-01 -3.873267845813549e-17

-3.131647179679521e-17  4.794239565033982e-19  1.035559740768877e+00
 4.794239565033982e-19 -1.982828621867285e-17  5.446621862277378e-01
 1.035559740768877e+00  5.446621862277378e-01 -3.789883683817353e-17

-2.893978004487402e-17 -9.910807992047576e-19  1.094234903343356e+00
-9.910807992047576e-19 -1.989683570762402e-17  5.648558377032916e-01
 1.094234903343356e+00  5.648558377032916e-01 -4.025466117486113e-17

 2.958301061339225e-18 -1.720147573293975e-17  1.309204565299220e+00
-1.720147573293975e-17 -1.742389943728797e-17  4.407014237526105e-01
 1.309204565299220e+00  4.407014237526105e-01 -4.854272386382569e-17

-1.888392876662346e-16  6.714070485518544e-17  1.572802403652403e+00
 6.714070485518544e-17 -5.797624551309387e-17  3.495750771173383e-01
 1.572802403652403e+00  3.495750771173383e-01 -5.826806931331686e-17

 1.650253317348786e-16 -9.042051225691790e-17  1.388086200833698e+00
-9.042051225691790e-17  1.554415741131966e-17  5.330389494010215e-01
 1.388086200833698e+00  5.330389494010215e-01 -5.215741641724683e-17

-1.054851424910130e-16  3.107705546150124e-17  1.291242034840817e+00
 3.107705546150124e-17 -3.792676134526348e-17  5.787068658117737e-01
 1.291242034840817e+00  5.787068658117737e-01 -4.881448760233207e-17

-1.144245910422617e-16  3.647240561239582e-17  1.128142760003280e+00
 3.647240561239582e-17 -3.884535868208384e-17  5.464751743667889e-01
 1.128142760003280e+00  5.464751743667889e-01 -4.198187339416430e-17

-3.261018125082039e-17 -2.830380912945480e-19  1.266738754732036e+00
-2.830380912945480e-19 -2.461312617565509e-17  3.533763530262565e-01
 1.266738754732036e+00  3.533763530262565e-01 -4.595364664977985e-17

-1.194874452443578e-17 -9.609425840776209e-18  1.303592555168200e+00
-9.609425840776209e-18 -2.124435361503839e-17  2.936368053912263e-01
 1.303592555168200e+00  2.936368053912263e-01 -4.705351858846196e-17

-3.066557312351996e-17 -1.204912739948687e-18  1.240730826667037e+00
-1.204912739948687e-18 -2.365271275346907e-17  3.879096002971335e-01
 1.240730826667037e+00  3.879096002971335e-01 -4.528325301366000e-17

-2.957031174949615e-17 -9.593633017375508e-19  1.078250254592142e+00
-9.593633017375508e-19 -1.943906194499663e-17  6.567854884597093e-01
 1.078250254592142e+00  6.567854884597093e-01 -4.028783313551312e-17

-2.857950207083488e-17 -1.353499497860346e-19  7.825549079407494e-01
-1.353499497860346e-19 -1.587454688379752e-17  9.138634809523379e-01
 7.825549079407494e-01  9.138634809523379e-01 -3.116527516094470e-17

-3.452286478083469e-17  2.630728355893822e-19  1.365882987545397e+00
 2.630728355893822e-19 -2.553580591052543e-17  2.859384570293481e-01
 1.365882987545397e+00  2.859384570293481e-01 -4.898994106713258e-17

-3.324929103455715e-17 -2.264785748579001e-19  1.293923824364014e+00
-2.264785748579001e-19 -2.578078630039873e-17  2.923706126167465e-01
 1.293923824364014e+00  2.923706126167465e-01 -4.688513927899490e-17

-3.413633005744042e-17 -2.081803978180082e-19  1.327126092324989e+00
-2.081803978180082e-19 -2.388318884218715e-17  4.627196600161235e-01
 1.327126092324989e+00  4.627196600161235e-01 -4.880857796511086e-17

-3.287721218642730e-17 -3.234584912790483e-20  1.162420289150356e+00
-3.234584912790483e-20 -1.966313809957317e-17  7.560435521918789e-01
 1.162420289150356e+00  7.560435521918789e-01 -4.414460380430436e-17

-3.298690119252911e-17 -7.399078692046105e-19  1.146778821499649e+00
-7.399078692046105e-19 -1.949848158950157e-17  8.150858722328832e-01
 1.146778821499649e+00  8.150858722328832e-01 -4.471537398152691e-17

-3.183537156879847e-17 -6.073584077600293e-19  1.160672675246778e+00
-6.073584077600293e-19 -2.112612317545405e-17  5.907885161302316e-01
 1.160672675246778e+00  5.907885161302316e-01 -4.326616823296892e-17

-3.177956051824572e-17  3.020478502457746e-19  1.276122506229630e+00
 3.020478502457746e-19 -2.337025261123177e-17  3.080093412743296e-01
 1.276122506229630e+00  3.080093412743296e-01 -4.415215709673594e-17

-3.061000707311329e-17  2.042674306201313e-19  1.225109997177847e+00
 2.042674306201313e-19 -2.356931645964976e-17  2.478430274046844e-01
 1.225109997177847e+00  2.478430274046844e-01 -4.207577523278113e-17

-2.959501316882518e-17 -3.980711694332705e-19  1.093534965514138e+00
-3.980711694332705e-19 -2.067431927040475e-17  4.558796548169194e-01
 1.093534965514138e+00  4.558796548169194e-01 -3.888244012326153e-17

-3.072992270849810e-17 -3.973964090242209e-19  1.144469627977932e+00
-3.973964090242209e-19 -1.941342709573108e-17  5.747375900322470e-01
 1.144469627977932e+00  5.747375900322470e-01 -4.115094643863269e-17

-3.174270928039134e-17 -6.377613765656923e-19  1.198226600185851e+00
-6.377613765656923e-19 -1.940143283336249e-17  6.161461929230219e-01
 1.198226600185851e+00  6.161461929230219e-01 -4.367243383045726e-17

-3.024541364897086e-17 -6.994034966908751e-19  1.098744265920362e+00
-6.994034966908751e-19 -1.839661958009985e-17  6.286889778139455e-01
 1.098744265920362e+00  6.286889778139455e-01 -4.012616511601930e-17

-2.943842253930530e-17 -1.716643197620994e-19  1.126557100349670e+00
-1.716643197620994e-19 -2.033554272199925e-17  4.013181486197601e-01
 1.126557100349670e+00  4.013181486197601e-01 -3.941313336481339e-17

-2.955400248793917e-17 -3.443714571176620e-19  1.097005742573316e+00
-3.443714571176620e-19 -1.921234325486828e-17  5.062883330975561e-01
 1.097005742573316e+00  5.062883330975561e-01 -3.941982109633773e-17

-3.133451476750292e-17 -2.266443426190100e-19  1.173047011862529e+00
-2.266443426190100e-19 -1.813350134688375e-17  6.538010152526715e-01
 1.173047011862529e+00  6.538010152526715e-01 -4.335213156537273e-17

-3.038712482209227e-17 -4.729941518730205e-20  1.166160518146053e+00
-4.729941518730205e-20 -2.005236318810642e-17  4.639235820439341e-01
 1.166160518146053e+00  4.639235820439341e-01 -4.184460141827992e-17

-2.927843599486812e-17 -2.431434383128809e-19  1.095714309362979e+00
-2.431434383128809e-19 -2.050139593517916e-17  4.334375900409947e-01
 1.095714309362979e+00  4.334375900409947e-01 -3.924359262573440e-17

-3.232767161575600e-17 -1.539387481452833e-19  1.281565701196415e+00
-1.539387481452833e-19 -2.131280035548021e-17  4.937695773332169e-01
 1.281565701196415e+00  4.937695773332169e-01 -4.643034213384218e-17

-3.000664469248583e-17  4.793828536154058e-19  1.012597624705841e+00
 4.793828536154058e-19 -1.603365079604256e-17  8.450937311210964e-01
 1.012597624705841e+00  8.450937311210964e-01 -3.808542103619037e-17

-3.208661729941041e-17  9.884519614382881e-20  1.181429723223251e+00
 9.884519614382881e-20 -1.846289419009654e-17  7.415031730407327e-01
 1.181429723223251e+00  7.415031730407327e-01 -4.400381325321100e-17

-3.238108159539555e-17 -3.707617567656309e-19  1.308448176688962e+00
-3.707617567656309e-19 -2.119922091746404e-17  5.693326445273689e-01
 1.308448176688962e+00  5.693326445273689e-01 -4.802086470898026e-17

-3.027659750360645e-17 -4.050665570679149e-19  1.195564154659345e+00
-4.050665570679149e-19 -2.010876285144696e-17  5.782641859331170e-01
 1.195564154659345e+00  5.782641859331170e-01 -4.352920679438670e-17

-2.702196037599203e-17 -2.703021096103683e-19  1.126983344520748e+00
-2.703021096103683e-19 -1.953123401736220e-17  5.298767092873066e-01
 1.126983344520748e+00  5.298767092873066e-01 -4.020712063648179e-17

-9.990124141141813e-17  1.172164524438302e-17  1.115261738799668e+00
 1.172164524438302e-17 -2.198418880417747e-17  5.228681577824952e-01
 1.115261738799668e+00  5.228681577824952e-01 -4.003315605935404e-17

 7.168870824661746e-17 -1.566538593247636e-17  1.145250200656855e+00
-1.566538593247636e-17 -1.789249709298687e-17  5.404791757456253e-01
 1.145250200656855e+00  5.404791757456253e-01 -4.168721352075342e-17

-3.271190080033247e-17 -1.622207276546393e-18  1.219729771011210e+00
-1.622207276546393e-18 -2.172277754698960e-17  6.038089464695825e-01
 1.219729771011210e+00  6.038089464695825e-01 -4.597929726024496e-17

-3.768995324885504e-17 -1.477734392050355e-18  1.639346669612129e+00
-1.477734392050355e-18 -3.032509914660158e-17  4.871917736949323e-01
 1.639346669612129e+00  4.871917736949323e-01 -6.259506062152286e-17

-3.994303217980897e-17  2.926859393365986e-19  1.669029588267952e+00
 2.926859393365986e-19 -3.190261118819994e-17  6.640676941075320e-01
 1.669029588267952e+00  6.640676941075320e-01 -7.320714060139396e-17

-4.479488964986444e-17 -1.300604136323053e-18  1.907890850371158e+00
-1.300604136323053e-18 -3.473732258396454e-17  8.502464973365089e-01
 1.907890850371158e+00  8.502464973365089e-01 -8.808469731126225e-17

-3.628811016422489e-17 -9.789915110616292e-19  1.291426879602463e+00
-9.789915110616292e-19 -2.786664142081233e-17  8.301280882132406e-01
 1.291426879602463e+00  8.301280882132406e-01 -5.941215657903928e-17

-4.469260310495114e-17  1.143059036656493e-18  2.226703312706567e+00
 1.143059036656493e-18 -3.430081643833392e-17  6.694619835247877e-02
 2.226703312706567e+00  6.694619835247877e-02 -7.517274602849950e-17

-4.010028190596148e-17  2.174228160966634e-18  1.988971141149857e+00
 2.174228160966634e-18 -3.133636249485336e-17 -2.175934218853166e-02
 1.988971141149857e+00 -2.175934218853166e-02 -6.214734668970797e-17

-3.361601299719724e-17  9.271484798160280e-19  1.447560098374316e+00
 9.271484798160280e-19 -2.621860057818421e-17  2.546052329881737e-01
 1.447560098374316e+00  2.546052329881737e-01 -4.932577745347560e-17

-2.947601154501586e-17  3.064853673070869e-19  1.001720314076306e+00
 3.064853673070869e-19 -1.832135040328773e-17  7.887630364432077e-01
 1.001720314076306e+00  7.887630364432077e-01 -3.727134552072110e-17

-3.067867977839696e-17 -1.366119998145948e-19  1.100141764026871e+00
-1.366119998145948e-19 -1.867602559130812e-17  7.770398571040219e-01
 1.100141764026871e+00  7.770398571040219e-01 -4.136916103376479e-17

-3.154220603663039e-17 -3.333077375412723e-19  1.216156242202293e+00
-3.333077375412723e-19 -2.003890974990475e-17  6.455200977452538e-01
 1.216156242202293e+00  6.455200977452538e-01 -4.507165360222174e-17

-3.012684836483802e-17 -2.494634640005446e-19  1.152775218263683e+00
-2.494634640005446e-19 -1.929768798787237e-17  5.963536126761111e-01
 1.152775218263683e+00  5.963536126761111e-01 -4.186446722132766e-17

-2.885769442284862e-17 -1.556284656790898e-19  1.110104158251735e+00
-1.556284656790898e-19 -1.856411991378941e-17  5.423344519878430e-01
 1.110104158251735e+00  5.423344519878430e-01 -3.948256803837972e-17

-2.862593647325036e-17 -2.971478317696745e-19  1.090425977216541e+00
-2.971478317696745e-19 -1.764712733647484e-17  5.817239068580274e-01
 1.090425977216541e+00  5.817239068580274e-01 -3.899832155276703e-17

-2.923004589678168e-17 -3.117045601873997e-19  1.145419946147133e+00
-3.117045601873997e-19 -1.891718495186225e-17  5.125212884898401e-01
 1.145419946147133e+00  5.125212884898401e-01 -4.103978400989777e-17

-3.024271048909379e-17 -1.141014409209615e-19  1.184213438573467e+00
-1.141014409209615e-19 -1.835031827576733e-17  5.938486265497305e-01
 1.184213438573467e+00  5.938486265497305e-01 -4.311164603776161e-17

-2.988958320505349e-17 -1.850234843275748e-19  1.167496028346309e+00
-1.850234843275748e-19 -1.978831843351726e-17  5.152411522515957e-01
 1.167496028346309e+00  5.152411522515957e-01 -4.252079045666361e-17

-3.078636618144628e-17  2.717733088477920e-20  1.206192992099667e+00
 2.717733088477920e-20 -1.983329039196065e-17  5.613990480182642e-01
 1.206192992099667e+00  5.613990480182642e-01 -4.416266315711347e-17

-3.166794543414768e-17  2.717943475247368e-19  1.238291617464994e+00
 2.717943475247368e-19 -1.936889730627098e-17  6.499040133631557e-01
 1.238291617464994e+00  6.499040133631557e-01 -4.580591464199224e-17

-3.408850613085666e-17 -7.467779432562972e-20  1.461898101619588e+00
-7.467779432562972e-20 -2.384007413504757e-17  4.175078322648947e-01
 1.461898101619588e+00  4.175078322648947e-01 -5.341024032397705e-17

-3.045058114950421e-17 -9.830434870506632e-20  1.095116116150317e+00
-9.830434870506632e-20 -1.758641342940690e-17  8.184682419823621e-01
 1.095116116150317e+00  8.184682419823621e-01 -4.159052740016337e-17

-3.153388381287477e-17 -2.399854964469706e-19  1.207912638260087e+00
-2.399854964469706e-19 -1.909072756595140e-17  7.143266952789398e-01
 1.207912638260087e+00  7.143266952789398e-01 -4.519301636082609e-17

-3.185520964739099e-17 -1.435916259050551e-19  1.297412035661499e+00
-1.435916259050551e-19 -2.072364666159534e-17  5.495305336219661e-01
 1.297412035661499e+00  5.495305336219661e-01 -4.725485064254171e-17

-2.994489798136950e-17 -1.704821783613049e-19  1.167812787598955e+00
-1.704821783613049e-19 -1.891023186882811e-17  5.919445683732497e-01
 1.167812787598955e+00  5.919445683732497e-01 -4.220700566508218e-17

-2.855396073580091e-17 -7.244174468090303e-20  1.110648051917070e+00
-7.244174468090303e-20 -1.817359889348404e-17  5.519537686140598e-01
 1.110648051917070e+00  5.519537686140598e-01 -3.938900491958098e-17

-2.847246582225052e-17 -2.681700134055878e-19  1.104439062188103e+00
-2.681700134055878e-19 -1.843272291887040e-17  5.433125023483628e-01
 1.104439062188103e+00  5.433125023483628e-01 -3.942708292860219e-17

-2.925422355024870e-17 -3.656430985687180e-19  1.135625757671804e+00
-3.656430985687180e-19 -1.921039885820199e-17  5.567201222635368e-01
 1.135625757671804e+00  5.567201222635368e-01 -4.111061527627928e-17

-3.112032195920830e-17 -3.067514461573151e-19  1.204965841695919e+00
-3.067514461573151e-19 -2.081891647203000e-17  6.168108093722008e-01
 1.204965841695919e+00  6.168108093722008e-01 -4.513247615287085e-17

-3.803768599738180e-17 -1.618591761024532e-18  1.633211261679649e+00
-1.618591761024532e-18 -2.915585248509037e-17  4.977975245617177e-01
 1.633211261679649e+00  4.977975245617177e-01 -6.165401345737306e-17

-3.929014848771212e-17  2.124457630964016e-19  1.684221909528795e+00
 2.124457630964016e-19 -3.143108397294266e-17  6.506401496428037e-01
 1.684221909528795e+00  6.506401496428037e-01 -7.361111775835357e-17

-4.528031558379951e-17 -1.090981925527549e-18  1.978427924998787e+00
-1.090981925527549e-18 -3.526333160767401e-17  8.168077472329308e-01
 1.978427924998787e+00  8.168077472329308e-01 -9.117971237382505e-17

-3.458180456299677e-17 -1.121864681209763e-18  1.197531812504209e+00
-1.121864681209763e-18 -2.672046034905664e-17  8.945528031634039e-01
 1.197531812504209e+00  8.945528031634039e-01 -5.860531767920237e-17

-4.350543107611728e-17  1.290739593661357e-18  2.206025399998406e+00
 1.290739593661357e-18 -3.264046396139703e-17  8.772222969482600e-02
 2.206025399998406e+00  8.772222969482600e-02 -7.295318682923452e-17

-4.114087173355101e-17  2.365487303464717e-18  2.158092597936884e+00
 2.365487303464717e-18 -3.108615329608362e-17 -8.884085677189511e-02
 2.158092597936884e+00 -8.884085677189511e-02 -6.496552338263219e-17

-3.212194779860964e-17  1.214998451442757e-18  1.410153081135576e+00
 1.214998451442757e-18 -2.374639214746189e-17  2.981979973197044e-01
 1.410153081135576e+00  2.981979973197044e-01 -4.647657171207181e-17

-2.684276893836345e-17  2.119061340590842e-19  8.621716284880162e-01
 2.119061340590842e-19 -1.535836799844692e-17  8.707647534812341e-01
 8.621716284880162e-01  8.707647534812341e-01 -3.180404231509254e-17

-2.749064536085933e-17 -1.864347326867071e-19  9.362656950271815e-01
-1.864347326867071e-19 -1.610639199889918e-17  8.135578945937607e-01
 9.362656950271815e-01  8.135578945937607e-01 -3.487148736302841e-17

-3.063160575077667e-17 -1.594158812145658e-19  1.322420622688798e+00
-1.594158812145658e-19 -2.292179590518390e-17  3.349689903618492e-01
 1.322420622688798e+00  3.349689903618492e-01 -4.669511632039991e-17

-3.388755367575132e-17 -4.746369404291135e-19  1.524491398138711e+00
-4.746369404291135e-19 -2.500868431173864e-17  2.478592183896525e-01
 1.524491398138711e+00  2.478592183896525e-01 -5.413392687252084e-17

-2.892619241534773e-17 -1.954454879956953e-19  1.093362385017146e+00
-1.954454879956953e-19 -1.822732803326795e-17  6.427244273389918e-01
 1.093362385017146e+00  6.427244273389918e-01 -3.982959115189231e-17

-3.138858324741824e-17  1.891014597903236e-19  1.094210380990429e+00
 1.891014597903236e-19 -1.634340862945467e-17  7.920069960580178e-01
 1.094210380990429e+00  7.920069960580178e-01 -4.045429022441187e-17

-2.723581075212777e-17 -6.942263351685028e-19  1.255417112700691e+00
-6.942263351685028e-19 -1.967244126489581e-17  5.731540171337856e-01
 1.255417112700691e+00  5.731540171337856e-01 -4.549977392807548e-17

 1.540874687704980e-17 -5.607137809746382e-18  1.266049023229350e+00
-5.607137809746382e-18 -2.018775948314311e-17  4.741724765565594e-01
 1.266049023229350e+00  4.741724765565594e-01 -4.549245103507370e-17

-1.105257822009444e-19 -3.782238675663823e-18  1.213884304041175e+00
-3.782238675663823e-18 -1.914564219298573e-17  5.663415214430932e-01
 1.213884304041175e+00  5.663415214430932e-01 -4.421235127321265e-17

-1.418352609732919e-17 -2.163681721604493e-18  1.269689666939130e+00
-2.163681721604493e-18 -1.963034573569768e-17  5.848084703813318e-01
 1.269689666939130e+00  5.848084703813318e-01 -4.698611320887470e-17

-3.125121171475717e-17 -2.892864912635624e-19  1.202754785357766e+00
-2.892864912635624e-19 -1.865912410887924e-17  6.785085892524295e-01
 1.202754785357766e+00  6.785085892524295e-01 -4.556095223624568e-17

-3.208768517430437e-17 -1.837433749110872e-19  1.400647529523804e+00
-1.837433749110872e-19 -2.409762063106201e-17  2.447236718242999e-01
 1.400647529523804e+00  2.447236718242999e-01 -4.961834426377314e-17

-3.090909553161709e-17 -2.790141042104759e-19  1.310695125159497e+00
-2.790141042104759e-19 -2.212199131076997e-17  3.922209831819180e-01
 1.310695125159497e+00  3.922209831819180e-01 -4.733287312283974e-17

-3.008816733106214e-17  4.624795650597989e-19  1.167688744578606e+00
 4.624795650597989e-19 -1.788130143748559e-17  6.911598508404091e-01
 1.167688744578606e+00  6.911598508404091e-01 -4.342893654397032e-17

-3.296831643747829e-17 -1.254075402836122e-19  1.468351150742414e+00
-1.254075402836122e-19 -2.319387188652600e-17  4.214950783540927e-01
 1.468351150742414e+00  4.214950783540927e-01 -5.359017343926596e-17

-3.006963083972141e-17 -5.619846750064975e-20  1.104962958167469e+00
-5.619846750064975e-20 -1.724217610475494e-17  8.103261247006239e-01
 1.104962958167469e+00  8.103261247006239e-01 -4.192309583700893e-17

-4.451233940091809e-17  2.804507151664671e-18  1.224044784223532e+00
 2.804507151664671e-18 -1.967194465114900e-17  6.894595853127135e-01
 1.224044784223532e+00  6.894595853127135e-01 -4.565258799901220e-17

-1.848675261472606e-17 -2.659367062702118e-18  1.351917531675955e+00
-2.659367062702118e-18 -2.091005367291874e-17  4.782930327101551e-01
 1.351917531675955e+00  4.782930327101551e-01 -4.892590571291038e-17

-1.194988117055515e-16  1.909295532870616e-17  1.214083863881179e+00
 1.909295532870616e-17 -2.344525376030563e-17  5.698833610931928e-01
 1.214083863881179e+00  5.698833610931928e-01 -4.402594287139722e-17

-6.476787998439769e-17  6.407096027354810e-18  1.196921122991930e+00
 6.407096027354810e-18 -1.994637904368442e-17  5.338555225267100e-01
 1.196921122991930e+00  5.338555225267100e-01 -4.285951114007911e-17

-5.011056724852821e-17  8.608030590903806e-19  1.183354938785562e+00
 8.608030590903806e-19 -1.806005324236495e-17  5.076140631269657e-01
 1.183354938785562e+00  5.076140631269657e-01 -4.213265443264832e-17

-2.988042120520841e-17  2.914599390069149e-19  1.183993741885303e+00
 2.914599390069149e-19 -1.824696926412290e-17  5.071490931000960e-01
 1.183993741885303e+00  5.071490931000960e-01 -4.225050757288220e-17

-2.072919023274594e-17 -1.205188570083241e-18  1.161019627257847e+00
-1.205188570083241e-18 -1.672565880745370e-17  5.765747982349809e-01
 1.161019627257847e+00  5.765747982349809e-01 -4.190770752639146e-17

-2.535244492694757e-17 -2.844967746848917e-19  1.083666212499030e+00
-2.844967746848917e-19 -1.660479910854884e-17  5.273347821212159e-01
 1.083666212499030e+00  5.273347821212159e-01 -3.878652163206719e-17

-2.829841055605801e-17 -2.176080837161309e-19  1.151068737651552e+00
-2.176080837161309e-19 -1.863994988008684e-17  4.403690809014544e-01
 1.151068737651552e+00  4.403690809014544e-01 -4.124547998689207e-17

-2.693640389879871e-17  1.095168593547823e-19  1.017870057592656e+00
 1.095168593547823e-19 -1.588188836451612e-17  6.171038629562396e-01
 1.017870057592656e+00  6.171038629562396e-01 -3.671413195706805e-17

-2.838164307020135e-17  1.266727282520252e-19  1.113228419345039e+00
 1.266727282520252e-19 -1.724506637163885e-17  5.801932119430302e-01
 1.113228419345039e+00  5.801932119430302e-01 -4.023158304913177e-17

-3.209902205583331e-17 -5.075182359845241e-20  1.384424058456309e+00
-5.075182359845241e-20 -2.121451121193295e-17  4.533922584647062e-01
 1.384424058456309e+00  4.533922584647062e-01 -5.024647569475987e-17

-2.981671512954274e-17  3.690164746902627e-19  1.113786499581768e+00
 3.690164746902627e-19 -1.599722021700321e-17  8.162473488165002e-01
 1.113786499581768e+00  8.162473488165002e-01 -4.195857662248823e-17

-3.122873693287798e-17 -5.428153904297317e-20  1.232332656078030e+00
-5.428153904297317e-20 -1.780112363069154e-17  7.377396735774460e-01
 1.232332656078030e+00  7.377396735774460e-01 -4.617468363735189e-17

-3.181183097327315e-17 -1.815554713930929e-19  1.338441786740548e+00
-1.815554713930929e-19 -2.030684387273970e-17  5.372811461699926e-01
 1.338441786740548e+00  5.372811461699926e-01 -4.892136868701271e-17

-2.991702740155528e-17 -1.006299953258433e-19  1.233163815747369e+00
-1.006299953258433e-19 -1.938629805306132e-17  5.055811282254910e-01
 1.233163815747369e+00  5.055811282254910e-01 -4.425879876554624e-17

-2.823882228881816e-17 -6.421732811103345e-20  1.147678155149085e+00
-6.421732811103345e-20 -1.832116224714203e-17  4.852670865978162e-01
 1.147678155149085e+00  4.852670865978162e-01 -4.054616595872469e-17

-2.877904745765171e-17 -2.530127162883783e-19  1.183136824875442e+00
-2.530127162883783e-19 -1.863990735408771e-17  4.775821814982980e-01
 1.183136824875442e+00  4.775821814982980e-01 -4.217535762826749e-17

-2.970764834744713e-17 -1.565172073299093e-19  1.227213122205653e+00
-1.565172073299093e-19 -1.853594713171629e-17  5.183923978649846e-01
 1.227213122205653e+00  5.183923978649846e-01 -4.422737043094864e-17

-3.060040802211740e-17 -9.280722323972874e-20  1.253778803099185e+00
-9.280722323972874e-20 -1.761071663759638e-17  6.218202390464450e-01
 1.253778803099185e+00  6.218202390464450e-01 -4.627406014294613e-17

-2.737515034871512e-17  2.099461628802252e-20  1.084355437606529e+00
 2.099461628802252e-20 -1.746478713219635e-17  4.864870390187110e-01
 1.084355437606529e+00  4.864870390187110e-01 -3.873949139663405e-17

-3.019074345388472e-17 -9.425723222496521e-19  1.320017459522124e+00
-9.425723222496521e-19 -2.213468281974977e-17  2.738142176222246e-01
 1.320017459522124e+00  2.738142176222246e-01 -4.629805853197152e-17

-2.725030686942266e-17  8.778156950629091e-19  1.012086643464345e+00
 8.778156950629091e-19 -1.513011000397259e-17  6.667400080002492e-01
 1.012086643464345e+00  6.667400080002492e-01 -3.743151946881388e-17

-2.974838305335311e-17  9.428306530816754e-19  1.174469528723172e+00
 9.428306530816754e-19 -1.663364333929470e-17  6.664978699892840e-01
 1.174469528723172e+00  6.664978699892840e-01 -4.350704634522530e-17

-3.388182038394623e-17  1.900285559848339e-19  1.531941043443079e+00
 1.900285559848339e-19 -2.354320572787742e-17  3.277515715936920e-01
 1.531941043443079e+00  3.277515715936920e-01 -5.561621339486135e-17

-3.034802720793105e-17  1.652207831318950e-19  1.172729290333228e+00
 1.652207831318950e-19 -1.750707362284056e-17  7.149047784474020e-01
 1.172729290333228e+00  7.149047784474020e-01 -4.404148628256740e-17

-3.108031654595711e-17 -8.947226121318391e-20  1.241898915704343e+00
-8.947226121318391e-20 -1.832535738098105e-17  6.632045240933389e-01
 1.241898915704343e+00  6.632045240933389e-01 -4.646700995573520e-17

-3.107287964139669e-17 -1.283944488335905e-19  1.301303942184743e+00
-1.283944488335905e-19 -1.949304420519563e-17  5.202273003956450e-01
 1.301303942184743e+00  5.202273003956450e-01 -4.774119192488069e-17

-2.905861379710523e-17  3.521895163864431e-21  1.195909798533853e+00
 3.521895163864431e-21 -1.814636144956430e-17  4.879468849887701e-01
 1.195909798533853e+00  4.879468849887701e-01 -4.293143762005409e-17

-2.701081589719177e-17  1.491599587171054e-19  1.108603017403954e+00
 1.491599587171054e-19 -1.637285864289324e-17  4.549618118816695e-01
 1.108603017403954e+00  4.549618118816695e-01 -3.881239544027084e-17

-2.478592620780484e-17 -3.742283892436372e-20  9.671459458288688e-01
-3.742283892436372e-20 -1.345557790277466e-17  5.310883090557613e-01
 9.671459458288688e-01  5.310883090557613e-01 -3.381557927217799e-17

-2.379034524933407e-17 -1.836537249812679e-19  9.420106866483139e-01
-1.836537249812679e-19 -1.500962705915708e-17  3.882287981895008e-01
 9.420106866483139e-01  3.882287981895008e-01 -3.253941374571455e-17

-2.519380787892097e-17  6.108369851332130e-20  1.007181220533290e+00
 6.108369851332130e-20 -1.383889489242354e-17  4.857462820254537e-01
 1.007181220533290e+00  4.857462820254537e-01 -3.521994085748511e-17

-2.693676578770092e-17  4.122226985205212e-19  1.109074619413125e+00
 4.122226985205212e-19 -1.376373728123875e-17  5.324128507600564e-01
 1.109074619413125e+00  5.324128507600564e-01 -3.910322963507669e-17

-2.652223195768466e-17  8.770298439704571e-20  1.090147538788205e+00
 8.770298439704571e-20 -1.461953494111320e-17  4.829715335530205e-01
 1.090147538788205e+00  4.829715335530205e-01 -3.877776253875004e-17

-2.236484163711578e-17 -3.384612203438191e-19  7.701412407885206e-01
-3.384612203438191e-19 -1.080998512931856e-17  6.546259233520408e-01
 7.701412407885206e-01  6.546259233520408e-01 -2.831658657918692e-17

-2.505026556287948e-17  3.164002500094718e-19  1.129596673255651e+00
 3.164002500094718e-19 -1.828844032771667e-17  1.239398674691673e-01
 1.129596673255651e+00  1.239398674691673e-01 -3.756699288457078e-17

-2.412216696352618e-17 -6.690414031300499e-19  1.006220688736483e+00
-6.690414031300499e-19 -1.753814837241071e-17  2.483650226231881e-01
 1.006220688736483e+00  2.483650226231881e-01 -3.442315199833985e-17

-2.536670151517972e-17 -3.801977768448057e-19  1.030468006368078e+00
-3.801977768448057e-19 -1.560012518976929e-17  4.294639029834966e-01
 1.030468006368078e+00  4.294639029834966e-01 -3.604715572005689e-17

-2.747382779216436e-17  3.216232703126373e-19  1.177401363618257e+00
 3.216232703126373e-19 -1.636369080118994e-17  4.191348110905603e-01
 1.177401363618257e+00  4.191348110905603e-01 -4.154917451065275e-17

-2.665935639226267e-17  1.260222473230540e-18  1.064879753327440e+00
 1.260222473230540e-18 -1.356528361241308e-17  5.978046422704407e-01
 1.064879753327440e+00  5.978046422704407e-01 -3.823237977875655e-17

-3.047588618121992e-17  1.722579558303169e-19  1.327128011871614e+00
 1.722579558303169e-19 -1.806190572391578e-17  4.755755633019326e-01
 1.327128011871614e+00  4.755755633019326e-01 -4.762886390716716e-17

-2.866658702476352e-17 -2.616876978759399e-19  1.194555928299273e+00
-2.616876978759399e-19 -1.734296373935886e-17  4.908310578124015e-01
 1.194555928299273e+00  4.908310578124015e-01 -4.304071193393279e-17

-2.803937694651508e-17  9.869580062801973e-20  1.222225183929461e+00
 9.869580062801973e-20 -1.819513829702060e-17  3.313404023528473e-01
 1.222225183929461e+00  3.313404023528473e-01 -4.267585233883131e-17

-2.786238374049776e-17  2.748609394023613e-19  1.245830123435467e+00
 2.748609394023613e-19 -1.872402198259204e-17  2.546690523488374e-01
 1.245830123435467e+00  2.546690523488374e-01 -4.299676673862009e-17

-2.517857589853582e-17  3.758264023239521e-20  1.011210291558768e+00
 3.758264023239521e-20 -1.472053853865016e-17  4.639630323299371e-01
 1.011210291558768e+00  4.639630323299371e-01 -3.521398025626317e-17

-2.466212198173090e-17 -1.014219965293639e-19  9.734597504502378e-01
-1.014219965293639e-19 -1.357698674367160e-17  5.122466556781635e-01
 9.734597504502378e-01  5.122466556781635e-01 -3.411196426612809e-17

-2.520991469590256e-17 -4.830011733467880e-19  1.055914246856765e+00
-4.830011733467880e-19 -1.724811603725739e-17  3.084690372838077e-01
 1.055914246856765e+00  3.084690372838077e-01 -3.675628306914396e-17

-2.669831927892839e-17 -3.379310316573324e-19  1.139911550745480e+00
-3.379310316573324e-19 -1.710917108138687e-17  3.528421140280961e-01
 1.139911550745480e+00  3.528421140280961e-01 -3.992223888469544e-17

-2.547557236291462e-17  7.686284553513696e-19  9.876993405882007e-01
 7.686284553513696e-19 -1.199645096439781e-17  6.441773333380117e-01
 9.876993405882007e-01  6.441773333380117e-01 -3.513881671759492e-17

-2.820294418158170e-17  5.113765314859859e-20  1.225739283407367e+00
 5.113765314859859e-20 -1.728374674906703e-17  3.904161651984796e-01
 1.225739283407367e+00  3.904161651984796e-01 -4.307574869798719e-17

-2.679688664481303e-17 -1.333729167696325e-19  1.118447777971455e+00
-1.333729167696325e-19 -1.612479013692132e-17  4.351365333567424e-01
 1.118447777971455e+00  4.351365333567424e-01 -3.941537485416004e-17

-2.760743444315364e-17 -1.561734402646431e-19  1.232758892891126e+00
-1.561734402646431e-19 -1.889125153293566e-17  2.374559167831092e-01
 1.232758892891126e+00  2.374559167831092e-01 -4.309753771478986e-17

-2.745016423674188e-17 -3.739152554611979e-19  1.180551360793859e+00
-3.739152554611979e-19 -1.632672606147266e-17  4.007809755008704e-01
 1.180551360793859e+00  4.007809755008704e-01 -4.233327669376958e-17

-2.398095225878777e-17 -6.274403208940004e-19  8.145493423900544e-01
-6.274403208940004e-19 -9.493923406910215e-18  8.265876310535134e-01
 8.145493423900544e-01  8.265876310535134e-01 -3.207843420794709e-17

-2.223078697707670e-17 -1.625975436655107e-18  6.578297148236312e-01
-1.625975436655107e-18 -8.517034041610865e-18  9.134478017292754e-01
 6.578297148236312e-01  9.134478017292754e-01 -2.967709493694603e-17

-2.535696534604207e-17 -1.734066046980361e-19  1.080611711886271e+00
-1.734066046980361e-19 -1.357125099758356e-17  4.257105617759410e-01
 1.080611711886271e+00  4.257105617759410e-01 -3.774700674654821e-17

-2.655682150697083e-17  1.270846636810669e-18  1.329883024991671e+00
 1.270846636810669e-18 -1.660462016327789e-17  7.679431508345853e-02
 1.329883024991671e+00  7.679431508345853e-02 -4.089515719201684e-17

-1.991608755505296e-17  4.027705963675453e-19  7.652556538646715e-01
 4.027705963675453e-19 -9.962068537179532e-18  4.368397095422328e-01
 7.652556538646715e-01  4.368397095422328e-01 -2.451985756190183e-17

-1.899938245911087e-17  7.502290952609017e-20  7.073266205901848e-01
 7.502290952609017e-20 -1.012237105004915e-17  4.249891074835094e-01
 7.073266205901848e-01  4.249891074835094e-01 -2.338107402316873e-17

-2.228902619430713e-17 -3.472410883942764e-19  9.918799278138236e-01
-3.472410883942764e-19 -1.511002393723565e-17  1.811303240012107e-01
 9.918799278138236e-01  1.811303240012107e-01 -3.365138112445599e-17

-2.007958266293557e-17 -5.436663249566069e-19  7.758904422334487e-01
-5.436663249566069e-19 -1.132845758123680e-17  4.051839324160702e-01
 7.758904422334487e-01  4.051839324160702e-01 -2.671224788854909e-17

-2.062933261145181e-17 -3.412408719581366e-19  7.916876597932320e-01
-3.412408719581366e-19 -1.024575983341516e-17  4.789636923536204e-01
 7.916876597932320e-01  4.789636923536204e-01 -2.725327568084486e-17

-2.325167242491619e-17 -1.980568711522485e-20  9.701130650404339e-01
-1.980568711522485e-20 -1.149959938044383e-17  4.308749500599311e-01
 9.701130650404339e-01  4.308749500599311e-01 -3.342367956328583e-17

-2.302950129531344e-17  1.712678432001988e-19  9.146462539787485e-01
 1.712678432001988e-19 -9.766765201958101e-18  5.559619605246413e-01
 9.146462539787485e-01  5.559619605246413e-01 -3.135909826766198e-17

-2.131870801527288e-17 -1.064782912251225e-18  1.034331982186091e+00
-1.064782912251225e-18 -1.349403731392474e-17  3.805405532272809e-01
 1.034331982186091e+00  3.805405532272809e-01 -3.566197899493282e-17

-1.959204765001371e-17 -1.488159043641554e-18  9.774070807836697e-01
-1.488159043641554e-18 -1.222528598300580e-17  4.609595903918843e-01
 9.774070807836697e-01  4.609595903918843e-01 -3.369539982851692e-17

 5.163742439586489e-17 -2.130736998195003e-17  1.014189896147576e+00
-2.130736998195003e-17 -8.072678662847654e-18  3.851947412164460e-01
 1.014189896147576e+00  3.851947412164460e-01 -3.491714964585871e-17

-1.137468288271907e-16  2.451090680859592e-17  1.021745691908705e+00
 2.451090680859592e-17 -2.105847957753964e-17  3.922945129433533e-01
 1.021745691908705e+00  3.922945129433533e-01 -3.523683048247653e-17

-4.901330280579648e-17  6.297346543225331e-18  1.076999041424642e+00
 6.297346543225331e-18 -1.565828424102136e-17  4.482115673057188e-01
 1.076999041424642e+00  4.482115673057188e-01 -3.733038056190266e-17

-2.027029659821306e-17 -1.748007905986081e-18  1.056223212335869e+00
-1.748007905986081e-18 -1.307456631128308e-17  4.766592861089592e-01
 1.056223212335869e+00  4.766592861089592e-01 -3.674431469117237e-17

-3.007178944014651e-17  9.803788432314671e-19  1.048800658609271e+00
 9.803788432314671e-19 -1.389181276463840e-17  4.713481961852014e-01
 1.048800658609271e+00  4.713481961852014e-01 -3.651228928526796e-17

-2.369771103901317e-17 -5.402299884607738e-19  1.031513170535018e+00
-5.402299884607738e-19 -1.374606223522749e-17  4.181246660082149e-01
 1.031513170535018e+00  4.181246660082149e-01 -3.554820064044888e-17

-2.377920694243134e-17 -1.753433346190904e-19  9.618800885818340e-01
-1.753433346190904e-19 -1.315223283006692e-17  4.186144686932514e-01
 9.618800885818340e-01  4.186144686932514e-01 -3.286834556131416e-17

-2.388615707205803e-17 -3.224629608835283e-19  9.854555029843947e-01
-3.224629608835283e-19 -1.279465797154886e-17  4.495380600839088e-01
 9.854555029843947e-01  4.495380600839088e-01 -3.381579120632860e-17

-2.435086164976478e-17 -3.418990592564275e-19  1.011452920544430e+00
-3.418990592564275e-19 -1.277200906615230e-17  4.639522861085170e-01
 1.011452920544430e+00  4.639522861085170e-01 -3.478823821092653e-17

-2.452086287319638e-17 -3.471606920452088e-19  1.019534919000679e+00
-3.471606920452088e-19 -1.283670257678907e-17  4.640777541016970e-01
 1.019534919000679e+00  4.640777541016970e-01 -3.511683491156080e-17

-2.419220556637056e-17 -2.981784944318694e-19  1.003585924201780e+00
-2.981784944318694e-19 -1.305698852667227e-17  4.339235933134411e-01
 1.003585924201780e+00  4.339235933134411e-01 -3.440638432517044e-17

-2.413736456285213e-17 -2.515084288568228e-19  1.000061770196738e+00
-2.515084288568228e-19 -1.309805804968841e-17  4.269207194005564e-01
 1.000061770196738e+00  4.269207194005564e-01 -3.427849518956740e-17

-2.478565987231385e-17 -1.989110415137697e-19  1.032800621705225e+00
-1.989110415137697e-19 -1.284149189134426e-17  4.518986081045970e-01
 1.032800621705225e+00  4.518986081045970e-01 -3.559087644677548e-17

-2.392439931269371e-17 -1.380617422392075e-19  9.676560028077165e-01
-1.380617422392075e-19 -1.185851380185977e-17  4.819416052653112e-01
 9.676560028077165e-01  4.819416052653112e-01 -3.337356306855679e-17

-2.425211167288035e-17  1.486825457997092e-20  1.030572558547449e+00
 1.486825457997092e-20 -1.378026461817088e-17  3.440910701312850e-01
 1.030572558547449e+00  3.440910701312850e-01 -3.532909994264181e-17

-2.334967818436338e-17  1.447839802849736e-20  9.453254529358878e-01
 1.447839802849736e-20 -1.248444118107549e-17  4.191152097415791e-01
 9.453254529358878e-01  4.191152097415791e-01 -3.251649415876920e-17

-2.451381449839409e-17  5.558036864696864e-20  1.015106673346340e+00
 5.558036864696864e-20 -1.352999699479067e-17  3.967391739183410e-01
 1.015106673346340e+00  3.967391739183410e-01 -3.528364020318878e-17

-2.478828759415595e-17  1.779848275265334e-19  1.021946093854074e+00
 1.779848275265334e-19 -1.346067771915544e-17  4.206088423876752e-01
 1.021946093854074e+00  4.206088423876752e-01 -3.562273230926822e-17

-2.532612566716060e-17  2.328333579078397e-19  1.055101071516375e+00
 2.328333579078397e-19 -1.378945055867531e-17  4.241513062408285e-01
 1.055101071516375e+00  4.241513062408285e-01 -3.689514890565684e-17

-2.583065557649733e-17  2.117447415073305e-19  1.094998201510265e+00
 2.117447415073305e-19 -1.438905574958456e-17  4.088128571929612e-01
 1.094998201510265e+00  4.088128571929612e-01 -3.843278617338245e-17

-2.652435903547211e-17  4.036361812798617e-19  1.062747411959742e+00
 4.036361812798617e-19 -1.378710700984101e-17  4.456856678886135e-01
 1.062747411959742e+00  4.456856678886135e-01 -3.738733702611632e-17

-2.510746658916436e-17  3.934308119206988e-19  9.929545918410428e-01
 3.934308119206988e-19 -1.358741327820038e-17  4.073833152266753e-01
 9.929545918410428e-01  4.073833152266753e-01 -3.458214886703905e-17

-1.467748695665882e-17 -2.138740047090209e-18  9.971286735038057e-01
-2.138740047090209e-18 -1.348352529989506e-17  3.534855332118844e-01
 9.971286735038057e-01  3.534855332118844e-01 -3.455804919057537e-17

-5.253288204326500e-17  7.320128777600035e-18  9.513597042480058e-01
 7.320128777600035e-18 -1.483801254441049e-17  4.109770347342484e-01
 9.513597042480058e-01  4.109770347342484e-01 -3.297927810160503e-17

 3.349219318441540e-17 -1.419703362880542e-17  9.617754552246034e-01
-1.419703362880542e-17 -9.161377893565785e-18  4.365816078594366e-01
 9.617754552246034e-01  4.365816078594366e-01 -3.333820694554563e-17


CELL_DATA 2028
SCALARS dislocation_index int
LOOKUP_TABLE default
0
1
2
3
4
5
6
7
8
9
10
11
12
13
14
15
16
17
18
19
20
21
22
23
24
25
26
27
28
29
30
31
32
33
34
35
36
37
38
39
40
41
42
43
44
45
46
47
48
49
50
51
52
53
54
55
56
57
58
59
60
61
62
63
64
65
66
67
68
69
70
71
72
73
74
75
76
77
78
79
80
81
82
83
84
85
86
87
88
89
90
91
92
93
94
95
96
97
98
99
100
101
102
103
104
105
106
107
108
109
110
111
112
113
114
115
116
117
118
119
120
121
122
123
124
125
126
127
128
129
130
131
132
133
134
135
136
137
138
139
140
141
142
143
144
145
146
147
148
149
150
151
152
153
154
155
156
157
158
159
160
161
162
163
164
165
166
167
168
169
170
171
172
173
174
175
176
177
178
179
180
181
182
183
184
185
186
187
188
189
190
191
192
193
194
195
196
197
198
199
200
201
202
203
204
205
206
207
208
209
210
211
212
213
214
215
216
217
218
219
220
221
222
223
224
225
226
227
228
229
230
231
232
233
234
235
236
237
238
239
240
241
242
243
244
245
246
247
248
249
250
251
252
253
254
255
256
257
258
259
260
261
262
263
264
265
266
267
268
269
270
271
272
273
274
275
276
277
278
279
280
281
282
283
284
285
286
287
288
289
290
291
292
293
294
295
296
297
298
299
300
301
302
303
304
305
306
307
308
309
310
311
312
313
314
315
316
317
318
319
320
321
322
323
324
325
326
327
328
329
330
331
332
333
334
335
336
337
338
339
340
341
342
343
344
345
346
347
348
349
350
351
352
353
354
355
356
357
358
359
360
361
362
363
364
365
366
367
368
369
370
371
372
373
374
375
376
377
378
379
380
381
382
383
384
385
386
387
388
389
390
391
392
393
394
395
396
397
398
399
400
401
402
403
404
405
406
407
408
409
410
411
412
413
414
415
416
417
418
419
420
421
422
423
424
425
426
427
428
429
430
431
432
433
434
435
436
437
438
439
440
441
442
443
444
445
446
447
448
449
450
451
452
453
454
455
456
457
458
459
460
461
462
463
464
465
466
467
468
469
470
471
472
473
474
475
476
477
478
479
480
481
482
483
484
485
486
487
488
489
490
491
492
493
494
495
496
497
498
499
500
501
502
503
504
505
506
507
508
509
510
511
512
513
514
515
516
517
518
519
520
521
522
523
524
525
526
527
528
529
530
531
532
533
534
535
536
537
538
539
540
541
542
543
544
545
546
547
548
549
550
551
552
553
554
555
556
557
558
559
560
561
562
563
564
565
566
567
568
569
570
571
572
573
574
575
576
577
578
579
580
581
582
583
584
585
586
587
588
589
590
591
592
593
594
595
596
597
598
599
600
601
602
603
604
605
606
607
608
609
610
611
612
613
614
615
616
617
618
619
620
621
622
623
624
625
626
627
628
629
630
631
632
633
634
635
636
637
638
639
640
641
642
643
644
645
646
647
648
649
650
651
652
653
654
655
656
657
658
659
660
661
662
663
664
665
666
667
668
669
670
671
672
673
674
675
676
677
678
679
680
681
682
683
684
685
686
687
688
689
690
691
692
693
694
695
696
697
698
699
700
701
702
703
704
705
706
707
708
709
710
711
712
713
714
715
716
717
718
719
720
721
722
723
724
725
726
727
728
729
730
731
732
733
734
735
736
737
738
739
740
741
742
743
744
745
746
747
748
749
750
751
752
753
754
755
756
757
758
759
760
761
762
763
764
765
766
767
768
769
770
771
772
773
774
775
776
777
778
779
780
781
782
783
784
785
786
787
788
789
790
791
792
793
794
795
796
797
798
799
800
801
802
803
804
805
806
807
808
809
810
811
812
813
814
815
816
817
818
819
820
821
822
823
824
825
826
827
828
829
830
831
832
833
834
835
836
837
838
839
840
841
842
843
844
845
846
847
848
849
850
851
852
853
854
855
856
857
858
859
860
861
862
863
864
865
866
867
868
869
870
871
872
873
874
875
876
877
878
879
880
881
882
883
884
885
886
887
888
889
890
891
892
893
894
895
896
897
898
899
900
901
902
903
904
905
906
907
908
909
910
911
912
913
914
915
916
917
918
919
920
921
922
923
924
925
926
927
928
929
930
931
932
933
934
935
936
937
938
939
940
941
942
943
944
945
946
947
948
949
950
951
952
953
954
955
956
957
958
959
960
961
962
963
964
965
966
967
968
969
970
971
972
973
974
975
976
977
978
979
980
981
982
983
984
985
986
987
988
989
990
991
992
993
994
995
996
997
998
999
1000
1001
1002
1003
1004
1005
1006
1007
1008
1009
1010
1011
1012
1013
1014
1015
1016
1017
1018
1019
1020
1021
1022
1023
1024
1025
1026
1027
1028
1029
1030
1031
1032
1033
1034
1035
1036
1037
1038
1039
1040
1041
1042
1043
1044
1045
1046
1047
1048
1049
1050
1051
1052
1053
1054
1055
1056
1057
1058
1059
1060
1061
1062
1063
1064
1065
1066
1067
1068
1069
1070
1071
1072
1073
1074
1075
1076
1077
1078
1079
1080
1081
1082
1083
1084
1085
1086
1087
1088
1089
1090
1091
1092
1093
1094
1095
1096
1097
1098
1099
1100
1101
1102
1103
1104
1105
1106
1107
1108
1109
1110
1111
1112
1113
1114
1115
1116
1117
1118
1119
1120
1121
1122
1123
1124
1125
1126
1127
1128
1129
1130
1131
1132
1133
1134
1135
1136
1137
1138
1139
1140
1141
1142
1143
1144
1145
1146
1147
1148
1149
1150
1151
1152
1153
1154
1155
1156
1157
1158
1159
1160
1161
1162
1163
1164
1165
1166
1167
1168
1169
1170
1171
1172
1173
1174
1175
1176
1177
1178
1179
1180
1181
1182
1183
1184
1185
1186
1187
1188
1189
1190
1191
1192
1193
1194
1195
1196
1197
1198
1199
1200
1201
1202
1203
1204
1205
1206
1207
1208
1209
1210
1211
1212
1213
1214
1215
1216
1217
1218
1219
1220
1221
1222
1223
1224
1225
1226
1227
1228
1229
1230
1231
1232
1233
1234
1235
1236
1237
1238
1239
1240
1241
1242
1243
1244
1245
1246
1247
1248
1249
1250
1251
1252
1253
1254
1255
1256
1257
1258
1259
1260
1261
1262
1263
1264
1265
1266
1267
1268
1269
1270
1271
1272
1273
1274
1275
1276
1277
1278
1279
1280
1281
1282
1283
1284
1285
1286
1287
1288
1289
1290
1291
1292
1293
1294
1295
1296
1297
1298
1299
1300
1301
1302
1303
1304
1305
1306
1307
1308
1309
1310
1311
1312
1313
1314
1315
1316
1317
1318
1319
1320
1321
1322
1323
1324
1325
1326
1327
1328
1329
1330
1331
1332
1333
1334
1335
1336
1337
1338
1339
1340
1341
1342
1343
1344
1345
1346
1347
1348
1349
1350
1351
1352
1353
1354
1355
1356
1357
1358
1359
1360
1361
1362
1363
1364
1365
1366
1367
1368
1369
1370
1371
1372
1373
1374
1375
1376
1377
1378
1379
1380
1381
1382
1383
1384
1385
1386
1387
1388
1389
1390
1391
1392
1393
1394
1395
1396
1397
1398
1399
1400
1401
1402
1403
1404
1405
1406
1407
1408
1409
1410
1411
1412
1413
1414
1415
1416
1417
1418
1419
1420
1421
1422
1423
1424
1425
1426
1427
1428
1429
1430
1431
1432
1433
1434
1435
1436
1437
1438
1439
1440
1441
1442
1443
1444
1445
1446
1447
1448
1449
1450
1451
1452
1453
1454
1455
1456
1457
1458
1459
1460
1461
1462
1463
1464
1465
1466
1467
1468
1469
1470
1471
1472
1473
1474
1475
1476
1477
1478
1479
1480
1481
1482
1483
1484
1485
1486
1487
1488
1489
1490
1491
1492
1493
1494
1495
1496
1497
1498
1499
1500
1501
1502
1503
1504
1505
1506
1507
1508
1509
1510
1511
1512
1513
1514
1515
1516
1517
1518
1519
1520
1521
1522
1523
1524
1525
1526
1527
1528
1529
1530
1531
1532
1533
1534
1535
1536
1537
1538
1539
1540
1541
1542
1543
1544
1545
1546
1547
1548
1549
1550
1551
1552
1553
1554
1555
1556
1557
1558
1559
1560
1561
1562
1563
1564
1565
1566
1567
1568
1569
1570
1571
1572
1573
1574
1575
1576
1577
1578
1579
1580
1581
1582
1583
1584
1585
1586
1587
1588
1589
1590
1591
1592
1593
1594
1595
1596
1597
1598
1599
1600
1601
1602
1603
1604
1605
1606
1607
1608
1609
1610
1611
1612
1613
1614
1615
1616
1617
1618
1619
1620
1621
1622
1623
1624
1625
1626
1627
1628
1629
1630
1631
1632
1633
1634
1635
1636
1637
1638
1639
1640
1641
1642
1643
1644
1645
1646
1647
1648
1649
1650
1651
1652
1653
1654
1655
1656
1657
1658
1659
1660
1661
1662
1663
1664
1665
1666
1667
1668
1669
1670
1671
1672
1673
1674
1675
1676
1677
1678
1679
1680
1681
1682
1683
1684
1685
1686
1687
1688
1689
1690
1691
1692
1693
1694
1695
1696
1697
1698
1699
1700
1701
1702
1703
1704
1705
1706
1707
1708
1709
1710
1711
1712
1713
1714
1715
1716
1717
1718
1719
1720
1721
1722
1723
1724
1725
1726
1727
1728
1729
1730
1731
1732
1733
1734
1735
1736
1737
1738
1739
1740
1741
1742
1743
1744
1745
1746
1747
1748
1749
1750
1751
1752
1753
1754
1755
1756
1757
1758
1759
1760
1761
1762
1763
1764
1765
1766
1767
1768
1769
1770
1771
1772
1773
1774
1775
1776
1777
1778
1779
1780
1781
1782
1783
1784
1785
1786
1787
1788
1789
1790
1791
1792
1793
1794
1795
1796
1797
1798
1799
1800
1801
1802
1803
1804
1805
1806
1807
1808
1809
1810
1811
1812
1813
1814
1815
1816
1817
1818
1819
1820
1821
1822
1823
1824
1825
1826
1827
1828
1829
1830
1831
1832
1833
1834
1835
1836
1837
1838
1839
1840
1841
1842
1843
1844
1845
1846
1847
1848
1849
1850
1851
1852
1853
1854
1855
1856
1857
1858
1859
1860
1861
1862
1863
1864
1865
1866
1867
1868
1869
1870
1871
1872
1873
1874
1875
1876
1877
1878
1879
1880
1881
1882
1883
1884
1885
1886
1887
1888
1889
1890
1891
1892
1893
1894
1895
1896
1897
1898
1899
1900
1901
1902
1903
1904
1905
1906
1907
1908
1909
1910
1911
1912
1913
1914
1915
1916
1917
1918
1919
1920
1921
1922
1923
1924
1925
1926
1927
1928
1929
1930
1931
1932
1933
1934
1935
1936
1937
1938
1939
1940
1941
1942
1943
1944
1945
1946
1947
1948
1949
1950
1951
1952
1953
1954
1955
1956
1957
1958
1959
1960
1961
1962
1963
1964
1965
1966
1967
1968
1969
1970
1971
1972
1973
1974
1975
1976
1977
1978
1979
1980
1981
1982
1983
1984
1985
1986
1987
1988
1989
1990
1991
1992
1993
1994
1995
1996
1997
1998
1999
2000
2001
2002
2003
2004
2005
2006
2007
2008
2009
2010
2011
2012
2013
2014
2015
2016
2017
2018
2019
2020
2021
2022
2023
2024
2025
2026
2027

VECTORS burgers_vector_global double
-1.429999999999999e+00 -8.256108849411650e-01  3.393140768766017e-17
 1.429999999999999e+00  8.256108849411650e-01 -3.393140768766017e-17
-1.429999999999999e+00 -8.256108849411650e-01  3.393140768766017e-17
-1.429999999999999e+00 -8.256108849411650e-01  3.393140768766017e-17
-1.429999999999999e+00 -8.256108849411650e-01  3.393140768766017e-17
-1.429999999999999e+00 -8.256108849411650e-01  3.393140768766017e-17
-1.429999999999999e+00 -8.256108849411650e-01  3.393140768766017e-17
-1.429999999999999e+00 -8.256108849411650e-01  3.393140768766017e-17
-1.429999999999999e+00 -8.256108849411650e-01  3.393140768766017e-17
-1.429999999999999e+00 -8.256108849411650e-01  3.393140768766017e-17
-1.429999999999999e+00 -8.256108849411650e-01  3.393140768766017e-17
-1.429999999999999e+00 -8.256108849411650e-01  3.393140768766017e-17
-1.429999999999999e+00 -8.256108849411650e-01  3.393140768766017e-17
-1.429999999999999e+00 -8.256108849411650e-01  3.393140768766017e-17
-1.429999999999999e+00 -8.256108849411650e-01  3.393140768766017e-17
-1.429999999999999e+00 -8.256108849411650e-01  3.393140768766017e-17
-1.429999999999999e+00 -8.256108849411650e-01  3.393140768766017e-17
-1.429999999999999e+00 -8.256108849411650e-01  3.393140768766017e-17
-1.429999999999999e+00 -8.256108849411650e-01  3.393140768766017e-17
-1.429999999999999e+00 -8.256108849411650e-01  3.393140768766017e-17
-1.429999999999999e+00 -8.256108849411650e-01  3.393140768766017e-17
-1.429999999999999e+00 -8.256108849411650e-01  3.393140768766017e-17
-1.429999999999999e+00 -8.256108849411650e-01  3.393140768766017e-17
-1.429999999999999e+00 -8.256108849411650e-01  3.393140768766017e-17
-1.429999999999999e+00 -8.256108849411650e-01  3.393140768766017e-17
-1.429999999999999e+00 -8.256108849411650e-01  3.393140768766017e-17
-1.429999999999999e+00 -8.256108849411650e-01  3.393140768766017e-17
-1.429999999999999e+00 -8.256108849411650e-01  3.393140768766017e-17
-1.429999999999999e+00 -8.256108849411650e-01  3.393140768766017e-17
-1.429999999999999e+00 -8.256108849411650e-01  3.393140768766017e-17
-1.429999999999999e+00 -8.256108849411650e-01  3.393140768766017e-17
-1.429999999999999e+00 -8.256108849411650e-01  3.393140768766017e-17
-1.429999999999999e+00 -8.256108849411650e-01  3.393140768766017e-17
-1.429999999999999e+00 -8.256108849411650e-01  3.393140768766017e-17
-1.429999999999999e+00 -8.256108849411650e-01  3.393140768766017e-17
-1.429999999999999e+00 -8.256108849411650e-01  3.393140768766017e-17
-1.429999999999999e+00 -8.256108849411650e-01  3.393140768766017e-17
-1.429999999999999e+00 -8.256108849411650e-01  3.393140768766017e-17
-1.429999999999999e+00 -8.256108849411650e-01  3.393140768766017e-17
-1.429999999999999e+00 -8.256108849411650e-01  3.393140768766017e-17
-1.429999999999999e+00 -8.256108849411650e-01  3.393140768766017e-17
-1.429999999999999e+00 -8.256108849411650e-01  3.393140768766017e-17
-1.429999999999999e+00 -8.256108849411650e-01  3.393140768766017e-17
-1.429999999999999e+00 -8.256108849411650e-01  3.393140768766017e-17
-1.429999999999999e+00 -8.256108849411650e-01  3.393140768766017e-17
-1.429999999999999e+00 -8.256108849411650e-01  3.393140768766017e-17
-1.429999999999999e+00 -8.256108849411650e-01  3.393140768766017e-17
-1.429999999999999e+00 -8.256108849411650e-01  3.393140768766017e-17
-1.429999999999999e+00 -8.256108849411650e-01  3.393140768766017e-17
-1.429999999999999e+00 -8.256108849411650e-01  3.393140768766017e-17
-1.429999999999999e+00 -8.256108849411650e-01  3.393140768766017e-17
-1.429999999999999e+00 -8.256108849411650e-01  3.393140768766017e-17
-1.429999999999999e+00 -8.256108849411650e-01  3.393140768766017e-17
-1.429999999999999e+00 -8.256108849411650e-01  3.393140768766017e-17
-1.429999999999999e+00 -8.256108849411650e-01  3.393140768766017e-17
-1.429999999999999e+00 -8.256108849411650e-01  3.393140768766017e-17
-1.429999999999999e+00 -8.256108849411650e-01  3.393140768766017e-17
-1.429999999999999e+00 -8.256108849411650e-01  3.393140768766017e-17
-1.429999999999999e+00 -8.256108849411650e-01  3.393140768766017e-17
-1.429999999999999e+00 -8.256108849411650e-01  3.393140768766017e-17
-1.429999999999999e+00 -8.256108849411650e-01  3.393140768766017e-17
-1.429999999999999e+00 -8.256108849411650e-01  3.393140768766017e-17
-1.429999999999999e+00 -8.256108849411650e-01  3.393140768766017e-17
-1.429999999999999e+00 -8.256108849411650e-01  3.393140768766017e-17
-1.429999999999999e+00 -8.256108849411650e-01  3.393140768766017e-17
-1.429999999999999e+00 -8.256108849411650e-01  3.393140768766017e-17
-1.429999999999999e+00 -8.256108849411650e-01  3.393140768766017e-17
-1.429999999999999e+00 -8.256108849411650e-01  3.393140768766017e-17
-1.429999999999999e+00 -8.256108849411650e-01  3.393140768766017e-17
-1.429999999999999e+00 -8.256108849411650e-01  3.393140768766017e-17
-1.429999999999999e+00 -8.256108849411650e-01  3.393140768766017e-17
-1.429999999999999e+00 -8.256108849411650e-01  3.393140768766017e-17
-1.429999999999999e+00 -8.256108849411650e-01  3.393140768766017e-17
-1.429999999999999e+00 -8.256108849411650e-01  3.393140768766017e-17
-1.429999999999999e+00 -8.256108849411650e-01  3.393140768766017e-17
-1.429999999999999e+00 -8.256108849411650e-01  3.393140768766017e-17
-1.429999999999999e+00 -8.256108849411650e-01  3.393140768766017e-17
-1.429999999999999e+00 -8.256108849411650e-01  3.393140768766017e-17
-1.429999999999999e+00 -8.256108849411650e-01  3.393140768766017e-17
-1.429999999999999e+00 -8.256108849411650e-01  3.393140768766017e-17
-1.429999999999999e+00 -8.256108849411650e-01  3.393140768766017e-17
-1.429999999999999e+00 -8.256108849411650e-01  3.393140768766017e-17
-1.429999999999999e+00 -8.256108849411650e-01  3.393140768766017e-17
-1.429999999999999e+00 -8.256108849411650e-01  3.393140768766017e-17
-1.429999999999999e+00 -8.256108849411650e-01  3.393140768766017e-17
-1.429999999999999e+00 -8.256108849411650e-01  3.393140768766017e-17
-1.429999999999999e+00 -8.256108849411650e-01  3.393140768766017e-17
-1.429999999999999e+00 -8.256108849411650e-01  3.393140768766017e-17
-1.429999999999999e+00 -8.256108849411650e-01  3.393140768766017e-17
-1.429999999999999e+00 -8.256108849411650e-01  3.393140768766017e-17
-1.429999999999999e+00 -8.256108849411650e-01  3.393140768766017e-17
-1.429999999999999e+00 -8.256108849411650e-01  3.393140768766017e-17
-1.429999999999999e+00 -8.256108849411650e-01  3.393140768766017e-17
-1.429999999999999e+00 -8.256108849411650e-01  3.393140768766017e-17
-1.429999999999999e+00 -8.256108849411650e-01  3.393140768766017e-17
-1.429999999999999e+00 -8.256108849411650e-01  3.393140768766017e-17
-1.429999999999999e+00 -8.256108849411650e-01  3.393140768766017e-17
-1.429999999999999e+00 -8.256108849411650e-01  3.393140768766017e-17
-1.429999999999999e+00 -8.256108849411650e-01  3.393140768766017e-17
-1.429999999999999e+00 -8.256108849411650e-01  3.393140768766017e-17
-1.429999999999999e+00 -8.256108849411650e-01  3.393140768766017e-17
-1.429999999999999e+00 -8.256108849411650e-01  3.393140768766017e-17
-1.429999999999999e+00 -8.256108849411650e-01  3.393140768766017e-17
-1.429999999999999e+00 -8.256108849411650e-01  3.393140768766017e-17
-1.429999999999999e+00 -8.256108849411650e-01  3.393140768766017e-17
-1.429999999999999e+00 -8.256108849411650e-01  3.393140768766017e-17
-1.429999999999999e+00 -8.256108849411650e-01  3.393140768766017e-17
-1.429999999999999e+00 -8.256108849411650e-01  3.393140768766017e-17
-1.429999999999999e+00 -8.256108849411650e-01  3.393140768766017e-17
-1.429999999999999e+00 -8.256108849411650e-01  3.393140768766017e-17
-1.429999999999999e+00 -8.256108849411650e-01  3.393140768766017e-17
-1.429999999999999e+00 -8.256108849411650e-01  3.393140768766017e-17
-1.429999999999999e+00 -8.256108849411650e-01  3.393140768766017e-17
-1.429999999999999e+00 -8.256108849411650e-01  3.393140768766017e-17
-1.429999999999999e+00 -8.256108849411650e-01  3.393140768766017e-17
-1.429999999999999e+00 -8.256108849411650e-01  3.393140768766017e-17
-1.429999999999999e+00 -8.256108849411650e-01  3.393140768766017e-17
-1.429999999999999e+00 -8.256108849411650e-01  3.393140768766017e-17
-1.429999999999999e+00 -8.256108849411650e-01  3.393140768766017e-17
-1.429999999999999e+00 -8.256108849411650e-01  3.393140768766017e-17
-1.429999999999999e+00 -8.256108849411650e-01  3.393140768766017e-17
-1.429999999999999e+00 -8.256108849411650e-01  3.393140768766017e-17
-1.429999999999999e+00 -8.256108849411650e-01  3.393140768766017e-17
-1.429999999999999e+00 -8.256108849411650e-01  3.393140768766017e-17
-1.429999999999999e+00 -8.256108849411650e-01  3.393140768766017e-17
-1.429999999999999e+00 -8.256108849411650e-01  3.393140768766017e-17
-1.429999999999999e+00 -8.256108849411650e-01  3.393140768766017e-17
-1.429999999999999e+00 -8.256108849411650e-01  3.393140768766017e-17
-1.429999999999999e+00 -8.256108849411650e-01  3.393140768766017e-17
-1.429999999999999e+00 -8.256108849411650e-01  3.393140768766017e-17
-1.429999999999999e+00 -8.256108849411650e-01  3.393140768766017e-17
-1.429999999999999e+00 -8.256108849411650e-01  3.393140768766017e-17
-1.429999999999999e+00 -8.256108849411650e-01  3.393140768766017e-17
-1.429999999999999e+00 -8.256108849411650e-01  3.393140768766017e-17
-1.429999999999999e+00 -8.256108849411650e-01  3.393140768766017e-17
-1.429999999999999e+00 -8.256108849411650e-01  3.393140768766017e-17
-1.429999999999999e+00 -8.256108849411650e-01  3.393140768766017e-17
-1.429999999999999e+00 -8.256108849411650e-01  3.393140768766017e-17
-1.429999999999999e+00 -8.256108849411650e-01  3.393140768766017e-17
-1.429999999999999e+00 -8.256108849411650e-01  3.393140768766017e-17
-1.429999999999999e+00 -8.256108849411650e-01  3.393140768766017e-17
-1.429999999999999e+00 -8.256108849411650e-01  3.393140768766017e-17
-1.429999999999999e+00 -8.256108849411650e-01  3.393140768766017e-17
-1.429999999999999e+00 -8.256108849411650e-01  3.393140768766017e-17
-1.429999999999999e+00 -8.256108849411650e-01  3.393140768766017e-17
-1.429999999999999e+00 -8.256108849411650e-01  3.393140768766017e-17
-1.429999999999999e+00 -8.256108849411650e-01  3.393140768766017e-17
-1.429999999999999e+00 -8.256108849411650e-01  3.393140768766017e-17
-1.429999999999999e+00 -8.256108849411650e-01  3.393140768766017e-17
-1.429999999999999e+00 -8.256108849411650e-01  3.393140768766017e-17
-1.429999999999999e+00 -8.256108849411650e-01  3.393140768766017e-17
-1.429999999999999e+00 -8.256108849411650e-01  3.393140768766017e-17
-1.429999999999999e+00 -8.256108849411650e-01  3.393140768766017e-17
-1.429999999999999e+00 -8.256108849411650e-01  3.393140768766017e-17
-1.429999999999999e+00 -8.256108849411650e-01  3.393140768766017e-17
-1.429999999999999e+00 -8.256108849411650e-01  3.393140768766017e-17
-1.429999999999999e+00 -8.256108849411650e-01  3.393140768766017e-17
-1.429999999999999e+00 -8.256108849411650e-01  3.393140768766017e-17
-1.429999999999999e+00 -8.256108849411650e-01  3.393140768766017e-17
-1.429999999999999e+00 -8.256108849411650e-01  3.393140768766017e-17
-1.429999999999999e+00 -8.256108849411650e-01  3.393140768766017e-17
-1.429999999999999e+00 -8.256108849411650e-01  3.393140768766017e-17
-1.429999999999999e+00 -8.256108849411650e-01  3.393140768766017e-17
-1.429999999999999e+00 -8.256108849411650e-01  3.393140768766017e-17
-1.429999999999999e+00 -8.256108849411650e-01  3.393140768766017e-17
-1.429999999999999e+00 -8.256108849411650e-01  3.393140768766017e-17
-1.429999999999999e+00 -8.256108849411650e-01  3.393140768766017e-17
-1.429999999999999e+00 -8.256108849411650e-01  3.393140768766017e-17
-1.429999999999999e+00 -8.256108849411650e-01  3.393140768766017e-17
-1.429999999999999e+00 -8.256108849411650e-01  3.393140768766017e-17
-1.429999999999999e+00 -8.256108849411650e-01  3.393140768766017e-17
-1.429999999999999e+00 -8.256108849411650e-01  3.393140768766017e-17
-1.429999999999999e+00 -8.256108849411650e-01  3.393140768766017e-17
-1.429999999999999e+00 -8.256108849411650e-01  3.393140768766017e-17
-1.429999999999999e+00 -8.256108849411650e-01  3.393140768766017e-17
-1.429999999999999e+00 -8.256108849411650e-01  3.393140768766017e-17
-1.429999999999999e+00 -8.256108849411650e-01  3.393140768766017e-17
-1.429999999999999e+00 -8.256108849411650e-01  3.393140768766017e-17
-1.429999999999999e+00 -8.256108849411650e-01  3.393140768766017e-17
-1.429999999999999e+00 -8.256108849411650e-01  3.393140768766017e-17
-1.429999999999999e+00 -8.256108849411650e-01  3.393140768766017e-17
-1.429999999999999e+00 -8.256108849411650e-01  3.393140768766017e-17
-1.429999999999999e+00 -8.256108849411650e-01  3.393140768766017e-17
-1.429999999999999e+00 -8.256108849411650e-01  3.393140768766017e-17
-1.429999999999999e+00 -8.256108849411650e-01  3.393140768766017e-17
-1.429999999999999e+00 -8.256108849411650e-01  3.393140768766017e-17
-1.429999999999999e+00 -8.256108849411650e-01  3.393140768766017e-17
-1.429999999999999e+00 -8.256108849411650e-01  3.393140768766017e-17
-1.429999999999999e+00 -8.256108849411650e-01  3.393140768766017e-17
-1.429999999999999e+00 -8.256108849411650e-01  3.393140768766017e-17
-1.429999999999999e+00 -8.256108849411650e-01  3.393140768766017e-17
-1.429999999999999e+00 -8.256108849411650e-01  3.393140768766017e-17
-1.429999999999999e+00 -8.256108849411650e-01  3.393140768766017e-17
-1.429999999999999e+00 -8.256108849411650e-01  3.393140768766017e-17
-1.429999999999999e+00 -8.256108849411650e-01  3.393140768766017e-17
-1.429999999999999e+00 -8.256108849411650e-01  3.393140768766017e-17
-1.429999999999999e+00 -8.256108849411650e-01  3.393140768766017e-17
-1.429999999999999e+00 -8.256108849411650e-01  3.393140768766017e-17
-1.429999999999999e+00 -8.256108849411650e-01  3.393140768766017e-17
-1.429999999999999e+00 -8.256108849411650e-01  3.393140768766017e-17
-1.429999999999999e+00 -8.256108849411650e-01  3.393140768766017e-17
-1.429999999999999e+00 -8.256108849411650e-01  3.393140768766017e-17
-1.429999999999999e+00 -8.256108849411650e-01  3.393140768766017e-17
-1.429999999999999e+00 -8.256108849411650e-01  3.393140768766017e-17
-1.429999999999999e+00 -8.256108849411650e-01  3.393140768766017e-17
-1.429999999999999e+00 -8.256108849411650e-01  3.393140768766017e-17
-1.429999999999999e+00 -8.256108849411650e-01  3.393140768766017e-17
-1.429999999999999e+00 -8.256108849411650e-01  3.393140768766017e-17
-1.429999999999999e+00 -8.256108849411650e-01  3.393140768766017e-17
-1.429999999999999e+00 -8.256108849411650e-01  3.393140768766017e-17
-1.429999999999999e+00 -8.256108849411650e-01  3.393140768766017e-17
-1.429999999999999e+00 -8.256108849411650e-01  3.393140768766017e-17
-1.429999999999999e+00 -8.256108849411650e-01  3.393140768766017e-17
-1.429999999999999e+00 -8.256108849411650e-01  3.393140768766017e-17
-1.429999999999999e+00 -8.256108849411650e-01  3.393140768766017e-17
-1.429999999999999e+00 -8.256108849411650e-01  3.393140768766017e-17
-1.429999999999999e+00 -8.256108849411650e-01  3.393140768766017e-17
-1.429999999999999e+00 -8.256108849411650e-01  3.393140768766017e-17
-1.429999999999999e+00 -8.256108849411650e-01  3.393140768766017e-17
-1.429999999999999e+00 -8.256108849411650e-01  3.393140768766017e-17
-1.429999999999999e+00 -8.256108849411650e-01  3.393140768766017e-17
-1.429999999999999e+00 -8.256108849411650e-01  3.393140768766017e-17
-1.429999999999999e+00 -8.256108849411650e-01  3.393140768766017e-17
-1.429999999999999e+00 -8.256108849411650e-01  3.393140768766017e-17
-1.429999999999999e+00 -8.256108849411650e-01  3.393140768766017e-17
-1.429999999999999e+00 -8.256108849411650e-01  3.393140768766017e-17
-1.429999999999999e+00 -8.256108849411650e-01  3.393140768766017e-17
-1.429999999999999e+00 -8.256108849411650e-01  3.393140768766017e-17
-1.429999999999999e+00 -8.256108849411650e-01  3.393140768766017e-17
-1.429999999999999e+00 -8.256108849411650e-01  3.393140768766017e-17
-1.429999999999999e+00 -8.256108849411650e-01  3.393140768766017e-17
-1.429999999999999e+00 -8.256108849411650e-01  3.393140768766017e-17
-1.429999999999999e+00 -8.256108849411650e-01  3.393140768766017e-17
-1.429999999999999e+00 -8.256108849411650e-01  3.393140768766017e-17
-1.429999999999999e+00 -8.256108849411650e-01  3.393140768766017e-17
-1.429999999999999e+00 -8.256108849411650e-01  3.393140768766017e-17
-1.429999999999999e+00 -8.256108849411650e-01  3.393140768766017e-17
-1.429999999999999e+00 -8.256108849411650e-01  3.393140768766017e-17
-1.429999999999999e+00 -8.256108849411650e-01  3.393140768766017e-17
-1.429999999999999e+00 -8.256108849411650e-01  3.393140768766017e-17
-1.429999999999999e+00 -8.256108849411650e-01  3.393140768766017e-17
-1.429999999999999e+00 -8.256108849411650e-01  3.393140768766017e-17
-1.429999999999999e+00 -8.256108849411650e-01  3.393140768766017e-17
-1.429999999999999e+00 -8.256108849411650e-01  3.393140768766017e-17
-1.429999999999999e+00 -8.256108849411650e-01  3.393140768766017e-17
-1.429999999999999e+00 -8.256108849411650e-01  3.393140768766017e-17
-1.429999999999999e+00 -8.256108849411650e-01  3.393140768766017e-17
-1.429999999999999e+00 -8.256108849411650e-01  3.393140768766017e-17
-1.429999999999999e+00 -8.256108849411650e-01  3.393140768766017e-17
-1.429999999999999e+00 -8.256108849411650e-01  3.393140768766017e-17
-1.429999999999999e+00 -8.256108849411650e-01  3.393140768766017e-17
 1.429999999999999e+00  8.256108849411650e-01 -3.393140768766017e-17
-1.429999999999999e+00 -8.256108849411650e-01  3.393140768766017e-17
-1.429999999999999e+00 -8.256108849411650e-01  3.393140768766017e-17
-1.429999999999999e+00 -8.256108849411650e-01  3.393140768766017e-17
-1.429999999999999e+00 -8.256108849411650e-01  3.393140768766017e-17
-1.429999999999999e+00 -8.256108849411650e-01  3.393140768766017e-17
-1.429999999999999e+00 -8.256108849411650e-01  3.393140768766017e-17
-1.429999999999999e+00 -8.256108849411650e-01  3.393140768766017e-17
-1.429999999999999e+00 -8.256108849411650e-01  3.393140768766017e-17
-1.429999999999999e+00 -8.256108849411650e-01  3.393140768766017e-17
-1.429999999999999e+00 -8.256108849411650e-01  3.393140768766017e-17
-1.429999999999999e+00 -8.256108849411650e-01  3.393140768766017e-17
-1.429999999999999e+00 -8.256108849411650e-01  3.393140768766017e-17
-1.429999999999999e+00 -8.256108849411650e-01  3.393140768766017e-17
-1.429999999999999e+00 -8.256108849411650e-01  3.393140768766017e-17
-1.429999999999999e+00 -8.256108849411650e-01  3.393140768766017e-17
-1.429999999999999e+00 -8.256108849411650e-01  3.393140768766017e-17
-1.429999999999999e+00 -8.256108849411650e-01  3.393140768766017e-17
-1.429999999999999e+00 -8.256108849411650e-01  3.393140768766017e-17
-1.429999999999999e+00 -8.256108849411650e-01  3.393140768766017e-17
-1.429999999999999e+00 -8.256108849411650e-01  3.393140768766017e-17
-1.429999999999999e+00 -8.256108849411650e-01  3.393140768766017e-17
-1.429999999999999e+00 -8.256108849411650e-01  3.393140768766017e-17
-1.429999999999999e+00 -8.256108849411650e-01  3.393140768766017e-17
-1.429999999999999e+00 -8.256108849411650e-01  3.393140768766017e-17
-1.429999999999999e+00 -8.256108849411650e-01  3.393140768766017e-17
-1.429999999999999e+00 -8.256108849411650e-01  3.393140768766017e-17
-1.429999999999999e+00 -8.256108849411650e-01  3.393140768766017e-17
-1.429999999999999e+00 -8.256108849411650e-01  3.393140768766017e-17
-1.429999999999999e+00 -8.256108849411650e-01  3.393140768766017e-17
-1.429999999999999e+00 -8.256108849411650e-01  3.393140768766017e-17
-1.429999999999999e+00 -8.256108849411650e-01  3.393140768766017e-17
-1.429999999999999e+00 -8.256108849411650e-01  3.393140768766017e-17
-1.429999999999999e+00 -8.256108849411650e-01  3.393140768766017e-17
-1.429999999999999e+00 -8.256108849411650e-01  3.393140768766017e-17
-1.429999999999999e+00 -8.256108849411650e-01  3.393140768766017e-17
-1.429999999999999e+00 -8.256108849411650e-01  3.393140768766017e-17
-1.429999999999999e+00 -8.256108849411650e-01  3.393140768766017e-17
-1.429999999999999e+00 -8.256108849411650e-01  3.393140768766017e-17
-1.429999999999999e+00 -8.256108849411650e-01  3.393140768766017e-17
-1.429999999999999e+00 -8.256108849411650e-01  3.393140768766017e-17
-1.429999999999999e+00 -8.256108849411650e-01  3.393140768766017e-17
-1.429999999999999e+00 -8.256108849411650e-01  3.393140768766017e-17
-1.429999999999999e+00 -8.256108849411650e-01  3.393140768766017e-17
-1.429999999999999e+00 -8.256108849411650e-01  3.393140768766017e-17
-1.429999999999999e+00 -8.256108849411650e-01  3.393140768766017e-17
-1.429999999999999e+00 -8.256108849411650e-01  3.393140768766017e-17
-1.429999999999999e+00 -8.256108849411650e-01  3.393140768766017e-17
-1.429999999999999e+00 -8.256108849411650e-01  3.393140768766017e-17
-1.429999999999999e+00 -8.256108849411650e-01  3.393140768766017e-17
-1.429999999999999e+00 -8.256108849411650e-01  3.393140768766017e-17
-1.429999999999999e+00 -8.256108849411650e-01  3.393140768766017e-17
-1.429999999999999e+00 -8.256108849411650e-01  3.393140768766017e-17
-1.429999999999999e+00 -8.256108849411650e-01  3.393140768766017e-17
-1.429999999999999e+00 -8.256108849411650e-01  3.393140768766017e-17
-1.429999999999999e+00 -8.256108849411650e-01  3.393140768766017e-17
-1.429999999999999e+00 -8.256108849411650e-01  3.393140768766017e-17
-1.429999999999999e+00 -8.256108849411650e-01  3.393140768766017e-17
-1.429999999999999e+00 -8.256108849411650e-01  3.393140768766017e-17
-1.429999999999999e+00 -8.256108849411650e-01  3.393140768766017e-17
-1.429999999999999e+00 -8.256108849411650e-01  3.393140768766017e-17
-1.429999999999999e+00 -8.256108849411650e-01  3.393140768766017e-17
-1.429999999999999e+00 -8.256108849411650e-01  3.393140768766017e-17
-1.429999999999999e+00 -8.256108849411650e-01  3.393140768766017e-17
-1.429999999999999e+00 -8.256108849411650e-01  3.393140768766017e-17
-1.429999999999999e+00 -8.256108849411650e-01  3.393140768766017e-17
-1.429999999999999e+00 -8.256108849411650e-01  3.393140768766017e-17
-1.429999999999999e+00 -8.256108849411650e-01  3.393140768766017e-17
-1.429999999999999e+00 -8.256108849411650e-01  3.393140768766017e-17
-1.429999999999999e+00 -8.256108849411650e-01  3.393140768766017e-17
-1.429999999999999e+00 -8.256108849411650e-01  3.393140768766017e-17
-1.429999999999999e+00 -8.256108849411650e-01  3.393140768766017e-17
-1.429999999999999e+00 -8.256108849411650e-01  3.393140768766017e-17
-1.429999999999999e+00 -8.256108849411650e-01  3.393140768766017e-17
-1.429999999999999e+00 -8.256108849411650e-01  3.393140768766017e-17
-1.429999999999999e+00 -8.256108849411650e-01  3.393140768766017e-17
-1.429999999999999e+00 -8.256108849411650e-01  3.393140768766017e-17
-1.429999999999999e+00 -8.256108849411650e-01  3.393140768766017e-17
-1.429999999999999e+00 -8.256108849411650e-01  3.393140768766017e-17
-1.429999999999999e+00 -8.256108849411650e-01  3.393140768766017e-17
-1.429999999999999e+00 -8.256108849411650e-01  3.393140768766017e-17
-1.429999999999999e+00 -8.256108849411650e-01  3.393140768766017e-17
-1.429999999999999e+00 -8.256108849411650e-01  3.393140768766017e-17
-1.429999999999999e+00 -8.256108849411650e-01  3.393140768766017e-17
-1.429999999999999e+00 -8.256108849411650e-01  3.393140768766017e-17
-1.429999999999999e+00 -8.256108849411650e-01  3.393140768766017e-17
-1.429999999999999e+00 -8.256108849411650e-01  3.393140768766017e-17
-1.429999999999999e+00 -8.256108849411650e-01  3.393140768766017e-17
-1.429999999999999e+00 -8.256108849411650e-01  3.393140768766017e-17
-1.429999999999999e+00 -8.256108849411650e-01  3.393140768766017e-17
-1.429999999999999e+00 -8.256108849411650e-01  3.393140768766017e-17
-1.429999999999999e+00 -8.256108849411650e-01  3.393140768766017e-17
-1.429999999999999e+00 -8.256108849411650e-01  3.393140768766017e-17
-1.429999999999999e+00 -8.256108849411650e-01  3.393140768766017e-17
-1.429999999999999e+00 -8.256108849411650e-01  3.393140768766017e-17
-1.429999999999999e+00 -8.256108849411650e-01  3.393140768766017e-17
-1.429999999999999e+00 -8.256108849411650e-01  3.393140768766017e-17
-1.429999999999999e+00 -8.256108849411650e-01  3.393140768766017e-17
-1.429999999999999e+00 -8.256108849411650e-01  3.393140768766017e-17
-1.429999999999999e+00 -8.256108849411650e-01  3.393140768766017e-17
-1.429999999999999e+00 -8.256108849411650e-01  3.393140768766017e-17
-1.429999999999999e+00 -8.256108849411650e-01  3.393140768766017e-17
-1.429999999999999e+00 -8.256108849411650e-01  3.393140768766017e-17
-1.429999999999999e+00 -8.256108849411650e-01  3.393140768766017e-17
-1.429999999999999e+00 -8.256108849411650e-01  3.393140768766017e-17
-1.429999999999999e+00 -8.256108849411650e-01  3.393140768766017e-17
-1.429999999999999e+00 -8.256108849411650e-01  3.393140768766017e-17
-1.429999999999999e+00 -8.256108849411650e-01  3.393140768766017e-17
-1.429999999999999e+00 -8.256108849411650e-01  3.393140768766017e-17
-1.429999999999999e+00 -8.256108849411650e-01  3.393140768766017e-17
-1.429999999999999e+00 -8.256108849411650e-01  3.393140768766017e-17
-1.429999999999999e+00 -8.256108849411650e-01  3.393140768766017e-17
-1.429999999999999e+00 -8.256108849411650e-01  3.393140768766017e-17
-1.429999999999999e+00 -8.256108849411650e-01  3.393140768766017e-17
-1.429999999999999e+00 -8.256108849411650e-01  3.393140768766017e-17
-1.429999999999999e+00 -8.256108849411650e-01  3.393140768766017e-17
-1.429999999999999e+00 -8.256108849411650e-01  3.393140768766017e-17
-1.429999999999999e+00 -8.256108849411650e-01  3.393140768766017e-17
-1.429999999999999e+00 -8.256108849411650e-01  3.393140768766017e-17
-1.429999999999999e+00 -8.256108849411650e-01  3.393140768766017e-17
-1.429999999999999e+00 -8.256108849411650e-01  3.393140768766017e-17
-1.429999999999999e+00 -8.256108849411650e-01  3.393140768766017e-17
-1.429999999999999e+00 -8.256108849411650e-01  3.393140768766017e-17
-1.429999999999999e+00 -8.256108849411650e-01  3.393140768766017e-17
-1.429999999999999e+00 -8.256108849411650e-01  3.393140768766017e-17
-1.429999999999999e+00 -8.256108849411650e-01  3.393140768766017e-17
-1.429999999999999e+00 -8.256108849411650e-01  3.393140768766017e-17
-1.429999999999999e+00 -8.256108849411650e-01  3.393140768766017e-17
-1.429999999999999e+00 -8.256108849411650e-01  3.393140768766017e-17
-1.429999999999999e+00 -8.256108849411650e-01  3.393140768766017e-17
-1.429999999999999e+00 -8.256108849411650e-01  3.393140768766017e-17
-1.429999999999999e+00 -8.256108849411650e-01  3.393140768766017e-17
-1.429999999999999e+00 -8.256108849411650e-01  3.393140768766017e-17
-1.429999999999999e+00 -8.256108849411650e-01  3.393140768766017e-17
-1.429999999999999e+00 -8.256108849411650e-01  3.393140768766017e-17
-1.429999999999999e+00 -8.256108849411650e-01  3.393140768766017e-17
-1.429999999999999e+00 -8.256108849411650e-01  3.393140768766017e-17
-1.429999999999999e+00 -8.256108849411650e-01  3.393140768766017e-17
-1.429999999999999e+00 -8.256108849411650e-01  3.393140768766017e-17
-1.429999999999999e+00 -8.256108849411650e-01  3.393140768766017e-17
-1.429999999999999e+00 -8.256108849411650e-01  3.393140768766017e-17
-1.429999999999999e+00 -8.256108849411650e-01  3.393140768766017e-17
-1.429999999999999e+00 -8.256108849411650e-01  3.393140768766017e-17
-1.429999999999999e+00 -8.256108849411650e-01  3.393140768766017e-17
-1.429999999999999e+00 -8.256108849411650e-01  3.393140768766017e-17
-1.429999999999999e+00 -8.256108849411650e-01  3.393140768766017e-17
-1.429999999999999e+00 -8.256108849411650e-01  3.393140768766017e-17
-1.429999999999999e+00 -8.256108849411650e-01  3.393140768766017e-17
-1.429999999999999e+00 -8.256108849411650e-01  3.393140768766017e-17
-1.429999999999999e+00 -8.256108849411650e-01  3.393140768766017e-17
-1.429999999999999e+00 -8.256108849411650e-01  3.393140768766017e-17
-1.429999999999999e+00 -8.256108849411650e-01  3.393140768766017e-17
-1.429999999999999e+00 -8.256108849411650e-01  3.393140768766017e-17
-1.429999999999999e+00 -8.256108849411650e-01  3.393140768766017e-17
-1.429999999999999e+00 -8.256108849411650e-01  3.393140768766017e-17
-1.429999999999999e+00 -8.256108849411650e-01  3.393140768766017e-17
-1.429999999999999e+00 -8.256108849411650e-01  3.393140768766017e-17
-1.429999999999999e+00 -8.256108849411650e-01  3.393140768766017e-17
-1.429999999999999e+00 -8.256108849411650e-01  3.393140768766017e-17
-1.429999999999999e+00 -8.256108849411650e-01  3.393140768766017e-17
-1.429999999999999e+00 -8.256108849411650e-01  3.393140768766017e-17
-1.429999999999999e+00 -8.256108849411650e-01  3.393140768766017e-17
-1.429999999999999e+00 -8.256108849411650e-01  3.393140768766017e-17
-1.429999999999999e+00 -8.256108849411650e-01  3.393140768766017e-17
-1.429999999999999e+00 -8.256108849411650e-01  3.393140768766017e-17
-1.429999999999999e+00 -8.256108849411650e-01  3.393140768766017e-17
-1.429999999999999e+00 -8.256108849411650e-01  3.393140768766017e-17
-1.429999999999999e+00 -8.256108849411650e-01  3.393140768766017e-17
-1.429999999999999e+00 -8.256108849411650e-01  3.393140768766017e-17
-1.429999999999999e+00 -8.256108849411650e-01  3.393140768766017e-17
-1.429999999999999e+00 -8.256108849411650e-01  3.393140768766017e-17
-1.429999999999999e+00 -8.256108849411650e-01  3.393140768766017e-17
-1.429999999999999e+00 -8.256108849411650e-01  3.393140768766017e-17
-1.429999999999999e+00 -8.256108849411650e-01  3.393140768766017e-17
-1.429999999999999e+00 -8.256108849411650e-01  3.393140768766017e-17
-1.429999999999999e+00 -8.256108849411650e-01  3.393140768766017e-17
-1.429999999999999e+00 -8.256108849411650e-01  3.393140768766017e-17
-1.429999999999999e+00 -8.256108849411650e-01  3.393140768766017e-17
-1.429999999999999e+00 -8.256108849411650e-01  3.393140768766017e-17
-1.429999999999999e+00 -8.256108849411650e-01  3.393140768766017e-17
-1.429999999999999e+00 -8.256108849411650e-01  3.393140768766017e-17
-1.429999999999999e+00 -8.256108849411650e-01  3.393140768766017e-17
-1.429999999999999e+00 -8.256108849411650e-01  3.393140768766017e-17
-1.429999999999999e+00 -8.256108849411650e-01  3.393140768766017e-17
-1.429999999999999e+00 -8.256108849411650e-01  3.393140768766017e-17
-1.429999999999999e+00 -8.256108849411650e-01  3.393140768766017e-17
-1.429999999999999e+00 -8.256108849411650e-01  3.393140768766017e-17
-1.429999999999999e+00 -8.256108849411650e-01  3.393140768766017e-17
-1.429999999999999e+00 -8.256108849411650e-01  3.393140768766017e-17
-1.429999999999999e+00 -8.256108849411650e-01  3.393140768766017e-17
-1.429999999999999e+00 -8.256108849411650e-01  3.393140768766017e-17
-1.429999999999999e+00 -8.256108849411650e-01  3.393140768766017e-17
-1.429999999999999e+00 -8.256108849411650e-01  3.393140768766017e-17
-1.429999999999999e+00 -8.256108849411650e-01  3.393140768766017e-17
-1.429999999999999e+00 -8.256108849411650e-01  3.393140768766017e-17
-1.429999999999999e+00 -8.256108849411650e-01  3.393140768766017e-17
-1.429999999999999e+00 -8.256108849411650e-01  3.393140768766017e-17
-1.429999999999999e+00 -8.256108849411650e-01  3.393140768766017e-17
-1.429999999999999e+00 -8.256108849411650e-01  3.393140768766017e-17
-1.429999999999999e+00 -8.256108849411650e-01  3.393140768766017e-17
-1.429999999999999e+00 -8.256108849411650e-01  3.393140768766017e-17
-1.429999999999999e+00 -8.256108849411650e-01  3.393140768766017e-17
-1.429999999999999e+00 -8.256108849411650e-01  3.393140768766017e-17
-1.429999999999999e+00 -8.256108849411650e-01  3.393140768766017e-17
-1.429999999999999e+00 -8.256108849411650e-01  3.393140768766017e-17
-1.429999999999999e+00 -8.256108849411650e-01  3.393140768766017e-17
-1.429999999999999e+00 -8.256108849411650e-01  3.393140768766017e-17
-1.429999999999999e+00 -8.256108849411650e-01  3.393140768766017e-17
-1.429999999999999e+00 -8.256108849411650e-01  3.393140768766017e-17
-1.429999999999999e+00 -8.256108849411650e-01  3.393140768766017e-17
-1.429999999999999e+00 -8.256108849411650e-01  3.393140768766017e-17
-1.429999999999999e+00 -8.256108849411650e-01  3.393140768766017e-17
-1.429999999999999e+00 -8.256108849411650e-01  3.393140768766017e-17
-1.429999999999999e+00 -8.256108849411650e-01  3.393140768766017e-17
-1.429999999999999e+00 -8.256108849411650e-01  3.393140768766017e-17
-1.429999999999999e+00 -8.256108849411650e-01  3.393140768766017e-17
-1.429999999999999e+00 -8.256108849411650e-01  3.393140768766017e-17
-1.429999999999999e+00 -8.256108849411650e-01  3.393140768766017e-17
-1.429999999999999e+00 -8.256108849411650e-01  3.393140768766017e-17
-1.429999999999999e+00 -8.256108849411650e-01  3.393140768766017e-17
-1.429999999999999e+00 -8.256108849411650e-01  3.393140768766017e-17
-1.429999999999999e+00 -8.256108849411650e-01  3.393140768766017e-17
-1.429999999999999e+00 -8.256108849411650e-01  3.393140768766017e-17
-1.429999999999999e+00 -8.256108849411650e-01  3.393140768766017e-17
-1.429999999999999e+00 -8.256108849411650e-01  3.393140768766017e-17
-1.429999999999999e+00 -8.256108849411650e-01  3.393140768766017e-17
-1.429999999999999e+00 -8.256108849411650e-01  3.393140768766017e-17
-1.429999999999999e+00 -8.256108849411650e-01  3.393140768766017e-17
-1.429999999999999e+00 -8.256108849411650e-01  3.393140768766017e-17
-1.429999999999999e+00 -8.256108849411650e-01  3.393140768766017e-17
-1.429999999999999e+00 -8.256108849411650e-01  3.393140768766017e-17
-1.429999999999999e+00 -8.256108849411650e-01  3.393140768766017e-17
-1.429999999999999e+00 -8.256108849411650e-01  3.393140768766017e-17
-1.429999999999999e+00 -8.256108849411650e-01  3.393140768766017e-17
-1.429999999999999e+00 -8.256108849411650e-01  3.393140768766017e-17
-1.429999999999999e+00 -8.256108849411650e-01  3.393140768766017e-17
-1.429999999999999e+00 -8.256108849411650e-01  3.393140768766017e-17
-1.429999999999999e+00 -8.256108849411650e-01  3.393140768766017e-17
-1.429999999999999e+00 -8.256108849411650e-01  3.393140768766017e-17
-1.429999999999999e+00 -8.256108849411650e-01  3.393140768766017e-17
-1.429999999999999e+00 -8.256108849411650e-01  3.393140768766017e-17
-1.429999999999999e+00 -8.256108849411650e-01  3.393140768766017e-17
 1.429999999999999e+00  8.256108849411650e-01 -3.393140768766017e-17
-1.429999999999999e+00 -8.256108849411650e-01  3.393140768766017e-17
 1.429999999999999e+00  8.256108849411650e-01 -3.393140768766017e-17
 1.429999999999999e+00  8.256108849411650e-01 -3.393140768766017e-17
 1.429999999999999e+00  8.256108849411650e-01 -3.393140768766017e-17
 1.429999999999999e+00  8.256108849411650e-01 -3.393140768766017e-17
 1.429999999999999e+00  8.256108849411650e-01 -3.393140768766017e-17
 1.429999999999999e+00  8.256108849411650e-01 -3.393140768766017e-17
 1.429999999999999e+00  8.256108849411650e-01 -3.393140768766017e-17
 1.429999999999999e+00  8.256108849411650e-01 -3.393140768766017e-17
 1.429999999999999e+00  8.256108849411650e-01 -3.393140768766017e-17
 1.429999999999999e+00  8.256108849411650e-01 -3.393140768766017e-17
 1.429999999999999e+00  8.256108849411650e-01 -3.393140768766017e-17
 1.429999999999999e+00  8.256108849411650e-01 -3.393140768766017e-17
 1.429999999999999e+00  8.256108849411650e-01 -3.393140768766017e-17
 1.429999999999999e+00  8.256108849411650e-01 -3.393140768766017e-17
 1.429999999999999e+00  8.256108849411650e-01 -3.393140768766017e-17
 1.429999999999999e+00  8.256108849411650e-01 -3.393140768766017e-17
 1.429999999999999e+00  8.256108849411650e-01 -3.393140768766017e-17
 1.429999999999999e+00  8.256108849411650e-01 -3.393140768766017e-17
 1.429999999999999e+00  8.256108849411650e-01 -3.393140768766017e-17
 1.429999999999999e+00  8.256108849411650e-01 -3.393140768766017e-17
 1.429999999999999e+00  8.256108849411650e-01 -3.393140768766017e-17
 1.429999999999999e+00  8.256108849411650e-01 -3.393140768766017e-17
 1.429999999999999e+00  8.256108849411650e-01 -3.393140768766017e-17
 1.429999999999999e+00  8.256108849411650e-01 -3.393140768766017e-17
 1.429999999999999e+00  8.256108849411650e-01 -3.393140768766017e-17
 1.429999999999999e+00  8.256108849411650e-01 -3.393140768766017e-17
 1.429999999999999e+00  8.256108849411650e-01 -3.393140768766017e-17
 1.429999999999999e+00  8.256108849411650e-01 -3.393140768766017e-17
 1.429999999999999e+00  8.256108849411650e-01 -3.393140768766017e-17
 1.429999999999999e+00  8.256108849411650e-01 -3.393140768766017e-17
 1.429999999999999e+00  8.256108849411650e-01 -3.393140768766017e-17
 1.429999999999999e+00  8.256108849411650e-01 -3.393140768766017e-17
 1.429999999999999e+00  8.256108849411650e-01 -3.393140768766017e-17
 1.429999999999999e+00  8.256108849411650e-01 -3.393140768766017e-17
 1.429999999999999e+00  8.256108849411650e-01 -3.393140768766017e-17
 1.429999999999999e+00  8.256108849411650e-01 -3.393140768766017e-17
 1.429999999999999e+00  8.256108849411650e-01 -3.393140768766017e-17
 1.429999999999999e+00  8.256108849411650e-01 -3.393140768766017e-17
 1.429999999999999e+00  8.256108849411650e-01 -3.393140768766017e-17
 1.429999999999999e+00  8.256108849411650e-01 -3.393140768766017e-17
 1.429999999999999e+00  8.256108849411650e-01 -3.393140768766017e-17
 1.429999999999999e+00  8.256108849411650e-01 -3.393140768766017e-17
 1.429999999999999e+00  8.256108849411650e-01 -3.393140768766017e-17
 1.429999999999999e+00  8.256108849411650e-01 -3.393140768766017e-17
 1.429999999999999e+00  8.256108849411650e-01 -3.393140768766017e-17
 1.429999999999999e+00  8.256108849411650e-01 -3.393140768766017e-17
 1.429999999999999e+00  8.256108849411650e-01 -3.393140768766017e-17
 1.429999999999999e+00  8.256108849411650e-01 -3.393140768766017e-17
 1.429999999999999e+00  8.256108849411650e-01 -3.393140768766017e-17
 1.429999999999999e+00  8.256108849411650e-01 -3.393140768766017e-17
 1.429999999999999e+00  8.256108849411650e-01 -3.393140768766017e-17
 1.429999999999999e+00  8.256108849411650e-01 -3.393140768766017e-17
 1.429999999999999e+00  8.256108849411650e-01 -3.393140768766017e-17
 1.429999999999999e+00  8.256108849411650e-01 -3.393140768766017e-17
 1.429999999999999e+00  8.256108849411650e-01 -3.393140768766017e-17
 1.429999999999999e+00  8.256108849411650e-01 -3.393140768766017e-17
 1.429999999999999e+00  8.256108849411650e-01 -3.393140768766017e-17
 1.429999999999999e+00  8.256108849411650e-01 -3.393140768766017e-17
 1.429999999999999e+00  8.256108849411650e-01 -3.393140768766017e-17
 1.429999999999999e+00  8.256108849411650e-01 -3.393140768766017e-17
 1.429999999999999e+00  8.256108849411650e-01 -3.393140768766017e-17
 1.429999999999999e+00  8.256108849411650e-01 -3.393140768766017e-17
 1.429999999999999e+00  8.256108849411650e-01 -3.393140768766017e-17
 1.429999999999999e+00  8.256108849411650e-01 -3.393140768766017e-17
 1.429999999999999e+00  8.256108849411650e-01 -3.393140768766017e-17
 1.429999999999999e+00  8.256108849411650e-01 -3.393140768766017e-17
 1.429999999999999e+00  8.256108849411650e-01 -3.393140768766017e-17
 1.429999999999999e+00  8.256108849411650e-01 -3.393140768766017e-17
 1.429999999999999e+00  8.256108849411650e-01 -3.393140768766017e-17
 1.429999999999999e+00  8.256108849411650e-01 -3.393140768766017e-17
 1.429999999999999e+00  8.256108849411650e-01 -3.393140768766017e-17
 1.429999999999999e+00  8.256108849411650e-01 -3.393140768766017e-17
 1.429999999999999e+00  8.256108849411650e-01 -3.393140768766017e-17
 1.429999999999999e+00  8.256108849411650e-01 -3.393140768766017e-17
 1.429999999999999e+00  8.256108849411650e-01 -3.393140768766017e-17
 1.429999999999999e+00  8.256108849411650e-01 -3.393140768766017e-17
 1.429999999999999e+00  8.256108849411650e-01 -3.393140768766017e-17
 1.429999999999999e+00  8.256108849411650e-01 -3.393140768766017e-17
 1.429999999999999e+00  8.256108849411650e-01 -3.393140768766017e-17
 1.429999999999999e+00  8.256108849411650e-01 -3.393140768766017e-17
 1.429999999999999e+00  8.256108849411650e-01 -3.393140768766017e-17
 1.429999999999999e+00  8.256108849411650e-01 -3.393140768766017e-17
 1.429999999999999e+00  8.256108849411650e-01 -3.393140768766017e-17
 1.429999999999999e+00  8.256108849411650e-01 -3.393140768766017e-17
 1.429999999999999e+00  8.256108849411650e-01 -3.393140768766017e-17
 1.429999999999999e+00  8.256108849411650e-01 -3.393140768766017e-17
 1.429999999999999e+00  8.256108849411650e-01 -3.393140768766017e-17
 1.429999999999999e+00  8.256108849411650e-01 -3.393140768766017e-17
 1.429999999999999e+00  8.256108849411650e-01 -3.393140768766017e-17
 1.429999999999999e+00  8.256108849411650e-01 -3.393140768766017e-17
 1.429999999999999e+00  8.256108849411650e-01 -3.393140768766017e-17
 1.429999999999999e+00  8.256108849411650e-01 -3.393140768766017e-17
 1.429999999999999e+00  8.256108849411650e-01 -3.393140768766017e-17
 1.429999999999999e+00  8.256108849411650e-01 -3.393140768766017e-17
 1.429999999999999e+00  8.256108849411650e-01 -3.393140768766017e-17
 1.429999999999999e+00  8.256108849411650e-01 -3.393140768766017e-17
 1.429999999999999e+00  8.256108849411650e-01 -3.393140768766017e-17
 1.429999999999999e+00  8.256108849411650e-01 -3.393140768766017e-17
 1.429999999999999e+00  8.256108849411650e-01 -3.393140768766017e-17
 1.429999999999999e+00  8.256108849411650e-01 -3.393140768766017e-17
 1.429999999999999e+00  8.256108849411650e-01 -3.393140768766017e-17
 1.429999999999999e+00  8.256108849411650e-01 -3.393140768766017e-17
 1.429999999999999e+00  8.256108849411650e-01 -3.393140768766017e-17
 1.429999999999999e+00  8.256108849411650e-01 -3.393140768766017e-17
 1.429999999999999e+00  8.256108849411650e-01 -3.393140768766017e-17
 1.429999999999999e+00  8.256108849411650e-01 -3.393140768766017e-17
 1.429999999999999e+00  8.256108849411650e-01 -3.393140768766017e-17
 1.429999999999999e+00  8.256108849411650e-01 -3.393140768766017e-17
 1.429999999999999e+00  8.256108849411650e-01 -3.393140768766017e-17
 1.429999999999999e+00  8.256108849411650e-01 -3.393140768766017e-17
 1.429999999999999e+00  8.256108849411650e-01 -3.393140768766017e-17
 1.429999999999999e+00  8.256108849411650e-01 -3.393140768766017e-17
 1.429999999999999e+00  8.256108849411650e-01 -3.393140768766017e-17
 1.429999999999999e+00  8.256108849411650e-01 -3.393140768766017e-17
 1.429999999999999e+00  8.256108849411650e-01 -3.393140768766017e-17
 1.429999999999999e+00  8.256108849411650e-01 -3.393140768766017e-17
 1.429999999999999e+00  8.256108849411650e-01 -3.393140768766017e-17
 1.429999999999999e+00  8.256108849411650e-01 -3.393140768766017e-17
 1.429999999999999e+00  8.256108849411650e-01 -3.393140768766017e-17
 1.429999999999999e+00  8.256108849411650e-01 -3.393140768766017e-17
 1.429999999999999e+00  8.256108849411650e-01 -3.393140768766017e-17
 1.429999999999999e+00  8.256108849411650e-01 -3.393140768766017e-17
 1.429999999999999e+00  8.256108849411650e-01 -3.393140768766017e-17
 1.429999999999999e+00  8.256108849411650e-01 -3.393140768766017e-17
 1.429999999999999e+00  8.256108849411650e-01 -3.393140768766017e-17
 1.429999999999999e+00  8.256108849411650e-01 -3.393140768766017e-17
 1.429999999999999e+00  8.256108849411650e-01 -3.393140768766017e-17
 1.429999999999999e+00  8.256108849411650e-01 -3.393140768766017e-17
 1.429999999999999e+00  8.256108849411650e-01 -3.393140768766017e-17
 1.429999999999999e+00  8.256108849411650e-01 -3.393140768766017e-17
 1.429999999999999e+00  8.256108849411650e-01 -3.393140768766017e-17
 1.429999999999999e+00  8.256108849411650e-01 -3.393140768766017e-17
 1.429999999999999e+00  8.256108849411650e-01 -3.393140768766017e-17
 1.429999999999999e+00  8.256108849411650e-01 -3.393140768766017e-17
 1.429999999999999e+00  8.256108849411650e-01 -3.393140768766017e-17
 1.429999999999999e+00  8.256108849411650e-01 -3.393140768766017e-17
 1.429999999999999e+00  8.256108849411650e-01 -3.393140768766017e-17
 1.429999999999999e+00  8.256108849411650e-01 -3.393140768766017e-17
 1.429999999999999e+00  8.256108849411650e-01 -3.393140768766017e-17
 1.429999999999999e+00  8.256108849411650e-01 -3.393140768766017e-17
 1.429999999999999e+00  8.256108849411650e-01 -3.393140768766017e-17
 1.429999999999999e+00  8.256108849411650e-01 -3.393140768766017e-17
 1.429999999999999e+00  8.256108849411650e-01 -3.393140768766017e-17
 1.429999999999999e+00  8.256108849411650e-01 -3.393140768766017e-17
 1.429999999999999e+00  8.256108849411650e-01 -3.393140768766017e-17
 1.429999999999999e+00  8.256108849411650e-01 -3.393140768766017e-17
 1.429999999999999e+00  8.256108849411650e-01 -3.393140768766017e-17
 1.429999999999999e+00  8.256108849411650e-01 -3.393140768766017e-17
 1.429999999999999e+00  8.256108849411650e-01 -3.393140768766017e-17
 1.429999999999999e+00  8.256108849411650e-01 -3.393140768766017e-17
 1.429999999999999e+00  8.256108849411650e-01 -3.393140768766017e-17
 1.429999999999999e+00  8.256108849411650e-01 -3.393140768766017e-17
 1.429999999999999e+00  8.256108849411650e-01 -3.393140768766017e-17
 1.429999999999999e+00  8.256108849411650e-01 -3.393140768766017e-17
 1.429999999999999e+00  8.256108849411650e-01 -3.393140768766017e-17
 1.429999999999999e+00  8.256108849411650e-01 -3.393140768766017e-17
 1.429999999999999e+00  8.256108849411650e-01 -3.393140768766017e-17
 1.429999999999999e+00  8.256108849411650e-01 -3.393140768766017e-17
 1.429999999999999e+00  8.256108849411650e-01 -3.393140768766017e-17
 1.429999999999999e+00  8.256108849411650e-01 -3.393140768766017e-17
 1.429999999999999e+00  8.256108849411650e-01 -3.393140768766017e-17
 1.429999999999999e+00  8.256108849411650e-01 -3.393140768766017e-17
 1.429999999999999e+00  8.256108849411650e-01 -3.393140768766017e-17
 1.429999999999999e+00  8.256108849411650e-01 -3.393140768766017e-17
 1.429999999999999e+00  8.256108849411650e-01 -3.393140768766017e-17
 1.429999999999999e+00  8.256108849411650e-01 -3.393140768766017e-17
 1.429999999999999e+00  8.256108849411650e-01 -3.393140768766017e-17
 1.429999999999999e+00  8.256108849411650e-01 -3.393140768766017e-17
 1.429999999999999e+00  8.256108849411650e-01 -3.393140768766017e-17
 1.429999999999999e+00  8.256108849411650e-01 -3.393140768766017e-17
 1.429999999999999e+00  8.256108849411650e-01 -3.393140768766017e-17
 1.429999999999999e+00  8.256108849411650e-01 -3.393140768766017e-17
 1.429999999999999e+00  8.256108849411650e-01 -3.393140768766017e-17
 1.429999999999999e+00  8.256108849411650e-01 -3.393140768766017e-17
 1.429999999999999e+00  8.256108849411650e-01 -3.393140768766017e-17
 1.429999999999999e+00  8.256108849411650e-01 -3.393140768766017e-17
 1.429999999999999e+00  8.256108849411650e-01 -3.393140768766017e-17
 1.429999999999999e+00  8.256108849411650e-01 -3.393140768766017e-17
 1.429999999999999e+00  8.256108849411650e-01 -3.393140768766017e-17
 1.429999999999999e+00  8.256108849411650e-01 -3.393140768766017e-17
 1.429999999999999e+00  8.256108849411650e-01 -3.393140768766017e-17
 1.429999999999999e+00  8.256108849411650e-01 -3.393140768766017e-17
 1.429999999999999e+00  8.256108849411650e-01 -3.393140768766017e-17
 1.429999999999999e+00  8.256108849411650e-01 -3.393140768766017e-17
 1.429999999999999e+00  8.256108849411650e-01 -3.393140768766017e-17
 1.429999999999999e+00  8.256108849411650e-01 -3.393140768766017e-17
 1.429999999999999e+00  8.256108849411650e-01 -3.393140768766017e-17
 1.429999999999999e+00  8.256108849411650e-01 -3.393140768766017e-17
 1.429999999999999e+00  8.256108849411650e-01 -3.393140768766017e-17
 1.429999999999999e+00  8.256108849411650e-01 -3.393140768766017e-17
 1.429999999999999e+00  8.256108849411650e-01 -3.393140768766017e-17
 1.429999999999999e+00  8.256108849411650e-01 -3.393140768766017e-17
 1.429999999999999e+00  8.256108849411650e-01 -3.393140768766017e-17
 1.429999999999999e+00  8.256108849411650e-01 -3.393140768766017e-17
 1.429999999999999e+00  8.256108849411650e-01 -3.393140768766017e-17
 1.429999999999999e+00  8.256108849411650e-01 -3.393140768766017e-17
 1.429999999999999e+00  8.256108849411650e-01 -3.393140768766017e-17
 1.429999999999999e+00  8.256108849411650e-01 -3.393140768766017e-17
 1.429999999999999e+00  8.256108849411650e-01 -3.393140768766017e-17
 1.429999999999999e+00  8.256108849411650e-01 -3.393140768766017e-17
 1.429999999999999e+00  8.256108849411650e-01 -3.393140768766017e-17
 1.429999999999999e+00  8.256108849411650e-01 -3.393140768766017e-17
 1.429999999999999e+00  8.256108849411650e-01 -3.393140768766017e-17
 1.429999999999999e+00  8.256108849411650e-01 -3.393140768766017e-17
 1.429999999999999e+00  8.256108849411650e-01 -3.393140768766017e-17
 1.429999999999999e+00  8.256108849411650e-01 -3.393140768766017e-17
 1.429999999999999e+00  8.256108849411650e-01 -3.393140768766017e-17
 1.429999999999999e+00  8.256108849411650e-01 -3.393140768766017e-17
 1.429999999999999e+00  8.256108849411650e-01 -3.393140768766017e-17
 1.429999999999999e+00  8.256108849411650e-01 -3.393140768766017e-17
 1.429999999999999e+00  8.256108849411650e-01 -3.393140768766017e-17
 1.429999999999999e+00  8.256108849411650e-01 -3.393140768766017e-17
 1.429999999999999e+00  8.256108849411650e-01 -3.393140768766017e-17
 1.429999999999999e+00  8.256108849411650e-01 -3.393140768766017e-17
 1.429999999999999e+00  8.256108849411650e-01 -3.393140768766017e-17
 1.429999999999999e+00  8.256108849411650e-01 -3.393140768766017e-17
 1.429999999999999e+00  8.256108849411650e-01 -3.393140768766017e-17
 1.429999999999999e+00  8.256108849411650e-01 -3.393140768766017e-17
 1.429999999999999e+00  8.256108849411650e-01 -3.393140768766017e-17
 1.429999999999999e+00  8.256108849411650e-01 -3.393140768766017e-17
 1.429999999999999e+00  8.256108849411650e-01 -3.393140768766017e-17
 1.429999999999999e+00  8.256108849411650e-01 -3.393140768766017e-17
 1.429999999999999e+00  8.256108849411650e-01 -3.393140768766017e-17
 1.429999999999999e+00  8.256108849411650e-01 -3.393140768766017e-17
 1.429999999999999e+00  8.256108849411650e-01 -3.393140768766017e-17
 1.429999999999999e+00  8.256108849411650e-01 -3.393140768766017e-17
 1.429999999999999e+00  8.256108849411650e-01 -3.393140768766017e-17
 1.429999999999999e+00  8.256108849411650e-01 -3.393140768766017e-17
 1.429999999999999e+00  8.256108849411650e-01 -3.393140768766017e-17
 1.429999999999999e+00  8.256108849411650e-01 -3.393140768766017e-17
 1.429999999999999e+00  8.256108849411650e-01 -3.393140768766017e-17
 1.429999999999999e+00  8.256108849411650e-01 -3.393140768766017e-17
 1.429999999999999e+00  8.256108849411650e-01 -3.393140768766017e-17
 1.429999999999999e+00  8.256108849411650e-01 -3.393140768766017e-17
 1.429999999999999e+00  8.256108849411650e-01 -3.393140768766017e-17
 1.429999999999999e+00  8.256108849411650e-01 -3.393140768766017e-17
 1.429999999999999e+00  8.256108849411650e-01 -3.393140768766017e-17
 1.429999999999999e+00  8.256108849411650e-01 -3.393140768766017e-17
 1.429999999999999e+00  8.256108849411650e-01 -3.393140768766017e-17
 1.429999999999999e+00  8.256108849411650e-01 -3.393140768766017e-17
 1.429999999999999e+00  8.256108849411650e-01 -3.393140768766017e-17
 1.429999999999999e+00  8.256108849411650e-01 -3.393140768766017e-17
 1.429999999999999e+00  8.256108849411650e-01 -3.393140768766017e-17
 1.429999999999999e+00  8.256108849411650e-01 -3.393140768766017e-17
 1.429999999999999e+00  8.256108849411650e-01 -3.393140768766017e-17
 1.429999999999999e+00  8.256108849411650e-01 -3.393140768766017e-17
 1.429999999999999e+00  8.256108849411650e-01 -3.393140768766017e-17
 1.429999999999999e+00  8.256108849411650e-01 -3.393140768766017e-17
 1.429999999999999e+00  8.256108849411650e-01 -3.393140768766017e-17
 1.429999999999999e+00  8.256108849411650e-01 -3.393140768766017e-17
 1.429999999999999e+00  8.256108849411650e-01 -3.393140768766017e-17
 1.429999999999999e+00  8.256108849411650e-01 -3.393140768766017e-17
 1.429999999999999e+00  8.256108849411650e-01 -3.393140768766017e-17
 1.429999999999999e+00  8.256108849411650e-01 -3.393140768766017e-17
 1.429999999999999e+00  8.256108849411650e-01 -3.393140768766017e-17
 1.429999999999999e+00  8.256108849411650e-01 -3.393140768766017e-17
-1.429999999999999e+00 -8.256108849411650e-01  3.393140768766017e-17
 1.429999999999999e+00  8.256108849411650e-01 -3.393140768766017e-17
 1.429999999999999e+00  8.256108849411650e-01 -3.393140768766017e-17
 1.429999999999999e+00  8.256108849411650e-01 -3.393140768766017e-17
 1.429999999999999e+00  8.256108849411650e-01 -3.393140768766017e-17
 1.429999999999999e+00  8.256108849411650e-01 -3.393140768766017e-17
 1.429999999999999e+00  8.256108849411650e-01 -3.393140768766017e-17
 1.429999999999999e+00  8.256108849411650e-01 -3.393140768766017e-17
 1.429999999999999e+00  8.256108849411650e-01 -3.393140768766017e-17
 1.429999999999999e+00  8.256108849411650e-01 -3.393140768766017e-17
 1.429999999999999e+00  8.256108849411650e-01 -3.393140768766017e-17
 1.429999999999999e+00  8.256108849411650e-01 -3.393140768766017e-17
 1.429999999999999e+00  8.256108849411650e-01 -3.393140768766017e-17
 1.429999999999999e+00  8.256108849411650e-01 -3.393140768766017e-17
 1.429999999999999e+00  8.256108849411650e-01 -3.393140768766017e-17
 1.429999999999999e+00  8.256108849411650e-01 -3.393140768766017e-17
 1.429999999999999e+00  8.256108849411650e-01 -3.393140768766017e-17
 1.429999999999999e+00  8.256108849411650e-01 -3.393140768766017e-17
 1.429999999999999e+00  8.256108849411650e-01 -3.393140768766017e-17
 1.429999999999999e+00  8.256108849411650e-01 -3.393140768766017e-17
 1.429999999999999e+00  8.256108849411650e-01 -3.393140768766017e-17
 1.429999999999999e+00  8.256108849411650e-01 -3.393140768766017e-17
 1.429999999999999e+00  8.256108849411650e-01 -3.393140768766017e-17
 1.429999999999999e+00  8.256108849411650e-01 -3.393140768766017e-17
 1.429999999999999e+00  8.256108849411650e-01 -3.393140768766017e-17
 1.429999999999999e+00  8.256108849411650e-01 -3.393140768766017e-17
 1.429999999999999e+00  8.256108849411650e-01 -3.393140768766017e-17
 1.429999999999999e+00  8.256108849411650e-01 -3.393140768766017e-17
 1.429999999999999e+00  8.256108849411650e-01 -3.393140768766017e-17
 1.429999999999999e+00  8.256108849411650e-01 -3.393140768766017e-17
 1.429999999999999e+00  8.256108849411650e-01 -3.393140768766017e-17
 1.429999999999999e+00  8.256108849411650e-01 -3.393140768766017e-17
 1.429999999999999e+00  8.256108849411650e-01 -3.393140768766017e-17
 1.429999999999999e+00  8.256108849411650e-01 -3.393140768766017e-17
 1.429999999999999e+00  8.256108849411650e-01 -3.393140768766017e-17
 1.429999999999999e+00  8.256108849411650e-01 -3.393140768766017e-17
 1.429999999999999e+00  8.256108849411650e-01 -3.393140768766017e-17
 1.429999999999999e+00  8.256108849411650e-01 -3.393140768766017e-17
 1.429999999999999e+00  8.256108849411650e-01 -3.393140768766017e-17
 1.429999999999999e+00  8.256108849411650e-01 -3.393140768766017e-17
 1.429999999999999e+00  8.256108849411650e-01 -3.393140768766017e-17
 1.429999999999999e+00  8.256108849411650e-01 -3.393140768766017e-17
 1.429999999999999e+00  8.256108849411650e-01 -3.393140768766017e-17
 1.429999999999999e+00  8.256108849411650e-01 -3.393140768766017e-17
 1.429999999999999e+00  8.256108849411650e-01 -3.393140768766017e-17
 1.429999999999999e+00  8.256108849411650e-01 -3.393140768766017e-17
 1.429999999999999e+00  8.256108849411650e-01 -3.393140768766017e-17
 1.429999999999999e+00  8.256108849411650e-01 -3.393140768766017e-17
 1.429999999999999e+00  8.256108849411650e-01 -3.393140768766017e-17
 1.429999999999999e+00  8.256108849411650e-01 -3.393140768766017e-17
 1.429999999999999e+00  8.256108849411650e-01 -3.393140768766017e-17
 1.429999999999999e+00  8.256108849411650e-01 -3.393140768766017e-17
 1.429999999999999e+00  8.256108849411650e-01 -3.393140768766017e-17
 1.429999999999999e+00  8.256108849411650e-01 -3.393140768766017e-17
 1.429999999999999e+00  8.256108849411650e-01 -3.393140768766017e-17
 1.429999999999999e+00  8.256108849411650e-01 -3.393140768766017e-17
 1.429999999999999e+00  8.256108849411650e-01 -3.393140768766017e-17
 1.429999999999999e+00  8.256108849411650e-01 -3.393140768766017e-17
 1.429999999999999e+00  8.256108849411650e-01 -3.393140768766017e-17
 1.429999999999999e+00  8.256108849411650e-01 -3.393140768766017e-17
 1.429999999999999e+00  8.256108849411650e-01 -3.393140768766017e-17
 1.429999999999999e+00  8.256108849411650e-01 -3.393140768766017e-17
 1.429999999999999e+00  8.256108849411650e-01 -3.393140768766017e-17
 1.429999999999999e+00  8.256108849411650e-01 -3.393140768766017e-17
 1.429999999999999e+00  8.256108849411650e-01 -3.393140768766017e-17
 1.429999999999999e+00  8.256108849411650e-01 -3.393140768766017e-17
 1.429999999999999e+00  8.256108849411650e-01 -3.393140768766017e-17
 1.429999999999999e+00  8.256108849411650e-01 -3.393140768766017e-17
 1.429999999999999e+00  8.256108849411650e-01 -3.393140768766017e-17
 1.429999999999999e+00  8.256108849411650e-01 -3.393140768766017e-17
 1.429999999999999e+00  8.256108849411650e-01 -3.393140768766017e-17
 1.429999999999999e+00  8.256108849411650e-01 -3.393140768766017e-17
 1.429999999999999e+00  8.256108849411650e-01 -3.393140768766017e-17
 1.429999999999999e+00  8.256108849411650e-01 -3.393140768766017e-17
 1.429999999999999e+00  8.256108849411650e-01 -3.393140768766017e-17
 1.429999999999999e+00  8.256108849411650e-01 -3.393140768766017e-17
 1.429999999999999e+00  8.256108849411650e-01 -3.393140768766017e-17
 1.429999999999999e+00  8.256108849411650e-01 -3.393140768766017e-17
 1.429999999999999e+00  8.256108849411650e-01 -3.393140768766017e-17
 1.429999999999999e+00  8.256108849411650e-01 -3.393140768766017e-17
 1.429999999999999e+00  8.256108849411650e-01 -3.393140768766017e-17
 1.429999999999999e+00  8.256108849411650e-01 -3.393140768766017e-17
 1.429999999999999e+00  8.256108849411650e-01 -3.393140768766017e-17
 1.429999999999999e+00  8.256108849411650e-01 -3.393140768766017e-17
 1.429999999999999e+00  8.256108849411650e-01 -3.393140768766017e-17
 1.429999999999999e+00  8.256108849411650e-01 -3.393140768766017e-17
 1.429999999999999e+00  8.256108849411650e-01 -3.393140768766017e-17
 1.429999999999999e+00  8.256108849411650e-01 -3.393140768766017e-17
 1.429999999999999e+00  8.256108849411650e-01 -3.393140768766017e-17
 1.429999999999999e+00  8.256108849411650e-01 -3.393140768766017e-17
 1.429999999999999e+00  8.256108849411650e-01 -3.393140768766017e-17
 1.429999999999999e+00  8.256108849411650e-01 -3.393140768766017e-17
 1.429999999999999e+00  8.256108849411650e-01 -3.393140768766017e-17
 1.429999999999999e+00  8.256108849411650e-01 -3.393140768766017e-17
 1.429999999999999e+00  8.256108849411650e-01 -3.393140768766017e-17
 1.429999999999999e+00  8.256108849411650e-01 -3.393140768766017e-17
 1.429999999999999e+00  8.256108849411650e-01 -3.393140768766017e-17
 1.429999999999999e+00  8.256108849411650e-01 -3.393140768766017e-17
 1.429999999999999e+00  8.256108849411650e-01 -3.393140768766017e-17
 1.429999999999999e+00  8.256108849411650e-01 -3.393140768766017e-17
 1.429999999999999e+00  8.256108849411650e-01 -3.393140768766017e-17
 1.429999999999999e+00  8.256108849411650e-01 -3.393140768766017e-17
 1.429999999999999e+00  8.256108849411650e-01 -3.393140768766017e-17
 1.429999999999999e+00  8.256108849411650e-01 -3.393140768766017e-17
 1.429999999999999e+00  8.256108849411650e-01 -3.393140768766017e-17
 1.429999999999999e+00  8.256108849411650e-01 -3.393140768766017e-17
 1.429999999999999e+00  8.256108849411650e-01 -3.393140768766017e-17
 1.429999999999999e+00  8.256108849411650e-01 -3.393140768766017e-17
 1.429999999999999e+00  8.256108849411650e-01 -3.393140768766017e-17
 1.429999999999999e+00  8.256108849411650e-01 -3.393140768766017e-17
 1.429999999999999e+00  8.256108849411650e-01 -3.393140768766017e-17
 1.429999999999999e+00  8.256108849411650e-01 -3.393140768766017e-17
 1.429999999999999e+00  8.256108849411650e-01 -3.393140768766017e-17
 1.429999999999999e+00  8.256108849411650e-01 -3.393140768766017e-17
 1.429999999999999e+00  8.256108849411650e-01 -3.393140768766017e-17
 1.429999999999999e+00  8.256108849411650e-01 -3.393140768766017e-17
 1.429999999999999e+00  8.256108849411650e-01 -3.393140768766017e-17
 1.429999999999999e+00  8.256108849411650e-01 -3.393140768766017e-17
 1.429999999999999e+00  8.256108849411650e-01 -3.393140768766017e-17
 1.429999999999999e+00  8.256108849411650e-01 -3.393140768766017e-17
 1.429999999999999e+00  8.256108849411650e-01 -3.393140768766017e-17
 1.429999999999999e+00  8.256108849411650e-01 -3.393140768766017e-17
 1.429999999999999e+00  8.256108849411650e-01 -3.393140768766017e-17
 1.429999999999999e+00  8.256108849411650e-01 -3.393140768766017e-17
 1.429999999999999e+00  8.256108849411650e-01 -3.393140768766017e-17
 1.429999999999999e+00  8.256108849411650e-01 -3.393140768766017e-17
 1.429999999999999e+00  8.256108849411650e-01 -3.393140768766017e-17
 1.429999999999999e+00  8.256108849411650e-01 -3.393140768766017e-17
 1.429999999999999e+00  8.256108849411650e-01 -3.393140768766017e-17
 1.429999999999999e+00  8.256108849411650e-01 -3.393140768766017e-17
 1.429999999999999e+00  8.256108849411650e-01 -3.393140768766017e-17
 1.429999999999999e+00  8.256108849411650e-01 -3.393140768766017e-17
 1.429999999999999e+00  8.256108849411650e-01 -3.393140768766017e-17
 1.429999999999999e+00  8.256108849411650e-01 -3.393140768766017e-17
 1.429999999999999e+00  8.256108849411650e-01 -3.393140768766017e-17
 1.429999999999999e+00  8.256108849411650e-01 -3.393140768766017e-17
 1.429999999999999e+00  8.256108849411650e-01 -3.393140768766017e-17
 1.429999999999999e+00  8.256108849411650e-01 -3.393140768766017e-17
 1.429999999999999e+00  8.256108849411650e-01 -3.393140768766017e-17
 1.429999999999999e+00  8.256108849411650e-01 -3.393140768766017e-17
 1.429999999999999e+00  8.256108849411650e-01 -3.393140768766017e-17
 1.429999999999999e+00  8.256108849411650e-01 -3.393140768766017e-17
 1.429999999999999e+00  8.256108849411650e-01 -3.393140768766017e-17
 1.429999999999999e+00  8.256108849411650e-01 -3.393140768766017e-17
 1.429999999999999e+00  8.256108849411650e-01 -3.393140768766017e-17
 1.429999999999999e+00  8.256108849411650e-01 -3.393140768766017e-17
 1.429999999999999e+00  8.256108849411650e-01 -3.393140768766017e-17
 1.429999999999999e+00  8.256108849411650e-01 -3.393140768766017e-17
 1.429999999999999e+00  8.256108849411650e-01 -3.393140768766017e-17
 1.429999999999999e+00  8.256108849411650e-01 -3.393140768766017e-17
 1.429999999999999e+00  8.256108849411650e-01 -3.393140768766017e-17
 1.429999999999999e+00  8.256108849411650e-01 -3.393140768766017e-17
 1.429999999999999e+00  8.256108849411650e-01 -3.393140768766017e-17
 1.429999999999999e+00  8.256108849411650e-01 -3.393140768766017e-17
 1.429999999999999e+00  8.256108849411650e-01 -3.393140768766017e-17
 1.429999999999999e+00  8.256108849411650e-01 -3.393140768766017e-17
 1.429999999999999e+00  8.256108849411650e-01 -3.393140768766017e-17
 1.429999999999999e+00  8.256108849411650e-01 -3.393140768766017e-17
 1.429999999999999e+00  8.256108849411650e-01 -3.393140768766017e-17
 1.429999999999999e+00  8.256108849411650e-01 -3.393140768766017e-17
 1.429999999999999e+00  8.256108849411650e-01 -3.393140768766017e-17
 1.429999999999999e+00  8.256108849411650e-01 -3.393140768766017e-17
 1.429999999999999e+00  8.256108849411650e-01 -3.393140768766017e-17
 1.429999999999999e+00  8.256108849411650e-01 -3.393140768766017e-17
 1.429999999999999e+00  8.256108849411650e-01 -3.393140768766017e-17
 1.429999999999999e+00  8.256108849411650e-01 -3.393140768766017e-17
 1.429999999999999e+00  8.256108849411650e-01 -3.393140768766017e-17
 1.429999999999999e+00  8.256108849411650e-01 -3.393140768766017e-17
 1.429999999999999e+00  8.256108849411650e-01 -3.393140768766017e-17
 1.429999999999999e+00  8.256108849411650e-01 -3.393140768766017e-17
 1.429999999999999e+00  8.256108849411650e-01 -3.393140768766017e-17
 1.429999999999999e+00  8.256108849411650e-01 -3.393140768766017e-17
 1.429999999999999e+00  8.256108849411650e-01 -3.393140768766017e-17
 1.429999999999999e+00  8.256108849411650e-01 -3.393140768766017e-17
 1.429999999999999e+00  8.256108849411650e-01 -3.393140768766017e-17
 1.429999999999999e+00  8.256108849411650e-01 -3.393140768766017e-17
 1.429999999999999e+00  8.256108849411650e-01 -3.393140768766017e-17
 1.429999999999999e+00  8.256108849411650e-01 -3.393140768766017e-17
 1.429999999999999e+00  8.256108849411650e-01 -3.393140768766017e-17
 1.429999999999999e+00  8.256108849411650e-01 -3.393140768766017e-17
 1.429999999999999e+00  8.256108849411650e-01 -3.393140768766017e-17
 1.429999999999999e+00  8.256108849411650e-01 -3.393140768766017e-17
 1.429999999999999e+00  8.256108849411650e-01 -3.393140768766017e-17
 1.429999999999999e+00  8.256108849411650e-01 -3.393140768766017e-17
 1.429999999999999e+00  8.256108849411650e-01 -3.393140768766017e-17
 1.429999999999999e+00  8.256108849411650e-01 -3.393140768766017e-17
 1.429999999999999e+00  8.256108849411650e-01 -3.393140768766017e-17
 1.429999999999999e+00  8.256108849411650e-01 -3.393140768766017e-17
 1.429999999999999e+00  8.256108849411650e-01 -3.393140768766017e-17
 1.429999999999999e+00  8.256108849411650e-01 -3.393140768766017e-17
 1.429999999999999e+00  8.256108849411650e-01 -3.393140768766017e-17
 1.429999999999999e+00  8.256108849411650e-01 -3.393140768766017e-17
 1.429999999999999e+00  8.256108849411650e-01 -3.393140768766017e-17
 1.429999999999999e+00  8.256108849411650e-01 -3.393140768766017e-17
 1.429999999999999e+00  8.256108849411650e-01 -3.393140768766017e-17
 1.429999999999999e+00  8.256108849411650e-01 -3.393140768766017e-17
 1.429999999999999e+00  8.256108849411650e-01 -3.393140768766017e-17
 1.429999999999999e+00  8.256108849411650e-01 -3.393140768766017e-17
 1.429999999999999e+00  8.256108849411650e-01 -3.393140768766017e-17
 1.429999999999999e+00  8.256108849411650e-01 -3.393140768766017e-17
 1.429999999999999e+00  8.256108849411650e-01 -3.393140768766017e-17
 1.429999999999999e+00  8.256108849411650e-01 -3.393140768766017e-17
 1.429999999999999e+00  8.256108849411650e-01 -3.393140768766017e-17
 1.429999999999999e+00  8.256108849411650e-01 -3.393140768766017e-17
 1.429999999999999e+00  8.256108849411650e-01 -3.393140768766017e-17
 1.429999999999999e+00  8.256108849411650e-01 -3.393140768766017e-17
 1.429999999999999e+00  8.256108849411650e-01 -3.393140768766017e-17
 1.429999999999999e+00  8.256108849411650e-01 -3.393140768766017e-17
 1.429999999999999e+00  8.256108849411650e-01 -3.393140768766017e-17
 1.429999999999999e+00  8.256108849411650e-01 -3.393140768766017e-17
 1.429999999999999e+00  8.256108849411650e-01 -3.393140768766017e-17
 1.429999999999999e+00  8.256108849411650e-01 -3.393140768766017e-17
 1.429999999999999e+00  8.256108849411650e-01 -3.393140768766017e-17
 1.429999999999999e+00  8.256108849411650e-01 -3.393140768766017e-17
 1.429999999999999e+00  8.256108849411650e-01 -3.393140768766017e-17
 1.429999999999999e+00  8.256108849411650e-01 -3.393140768766017e-17
 1.429999999999999e+00  8.256108849411650e-01 -3.393140768766017e-17
 1.429999999999999e+00  8.256108849411650e-01 -3.393140768766017e-17
 1.429999999999999e+00  8.256108849411650e-01 -3.393140768766017e-17
 1.429999999999999e+00  8.256108849411650e-01 -3.393140768766017e-17
 1.429999999999999e+00  8.256108849411650e-01 -3.393140768766017e-17
 1.429999999999999e+00  8.256108849411650e-01 -3.393140768766017e-17
 1.429999999999999e+00  8.256108849411650e-01 -3.393140768766017e-17
 1.429999999999999e+00  8.256108849411650e-01 -3.393140768766017e-17
 1.429999999999999e+00  8.256108849411650e-01 -3.393140768766017e-17
 1.429999999999999e+00  8.256108849411650e-01 -3.393140768766017e-17
 1.429999999999999e+00  8.256108849411650e-01 -3.393140768766017e-17
 1.429999999999999e+00  8.256108849411650e-01 -3.393140768766017e-17
 1.429999999999999e+00  8.256108849411650e-01 -3.393140768766017e-17
 1.429999999999999e+00  8.256108849411650e-01 -3.393140768766017e-17
 1.429999999999999e+00  8.256108849411650e-01 -3.393140768766017e-17
 1.429999999999999e+00  8.256108849411650e-01 -3.393140768766017e-17
 1.429999999999999e+00  8.256108849411650e-01 -3.393140768766017e-17
 1.429999999999999e+00  8.256108849411650e-01 -3.393140768766017e-17
 1.429999999999999e+00  8.256108849411650e-01 -3.393140768766017e-17
 1.429999999999999e+00  8.256108849411650e-01 -3.393140768766017e-17
 1.429999999999999e+00  8.256108849411650e-01 -3.393140768766017e-17
 1.429999999999999e+00  8.256108849411650e-01 -3.393140768766017e-17
 1.429999999999999e+00  8.256108849411650e-01 -3.393140768766017e-17
 1.429999999999999e+00  8.256108849411650e-01 -3.393140768766017e-17
 1.429999999999999e+00  8.256108849411650e-01 -3.393140768766017e-17
 1.429999999999999e+00  8.256108849411650e-01 -3.393140768766017e-17
 1.429999999999999e+00  8.256108849411650e-01 -3.393140768766017e-17
 1.429999999999999e+00  8.256108849411650e-01 -3.393140768766017e-17
 1.429999999999999e+00  8.256108849411650e-01 -3.393140768766017e-17
 1.429999999999999e+00  8.256108849411650e-01 -3.393140768766017e-17
 1.429999999999999e+00  8.256108849411650e-01 -3.393140768766017e-17
 1.429999999999999e+00  8.256108849411650e-01 -3.393140768766017e-17
 1.429999999999999e+00  8.256108849411650e-01 -3.393140768766017e-17
 1.429999999999999e+00  8.256108849411650e-01 -3.393140768766017e-17
 1.429999999999999e+00  8.256108849411650e-01 -3.393140768766017e-17
 1.429999999999999e+00  8.256108849411650e-01 -3.393140768766017e-17
 1.429999999999999e+00  8.256108849411650e-01 -3.393140768766017e-17
 1.429999999999999e+00  8.256108849411650e-01 -3.393140768766017e-17
 1.429999999999999e+00  8.256108849411650e-01 -3.393140768766017e-17
 1.429999999999999e+00  8.256108849411650e-01 -3.393140768766017e-17
 1.429999999999999e+00  8.256108849411650e-01 -3.393140768766017e-17
 1.429999999999999e+00  8.256108849411650e-01 -3.393140768766017e-17
 1.429999999999999e+00  8.256108849411650e-01 -3.393140768766017e-17
 1.429999999999999e+00  8.256108849411650e-01 -3.393140768766017e-17
 1.429999999999999e+00  8.256108849411650e-01 -3.393140768766017e-17
 1.429999999999999e+00  8.256108849411650e-01 -3.393140768766017e-17
 1.429999999999999e+00  8.256108849411650e-01 -3.393140768766017e-17
 1.429999999999999e+00  8.256108849411650e-01 -3.393140768766017e-17
-1.429999999999999e+00  8.256108849411650e-01  1.696570384383008e-17
 1.429999999999999e+00 -8.256108849411650e-01 -1.696570384383008e-17
-1.429999999999999e+00  8.256108849411650e-01  1.696570384383008e-17
-1.429999999999999e+00  8.256108849411650e-01  1.696570384383008e-17
-1.429999999999999e+00  8.256108849411650e-01  1.696570384383008e-17
-1.429999999999999e+00  8.256108849411650e-01  1.696570384383008e-17
-1.429999999999999e+00  8.256108849411650e-01  1.696570384383008e-17
-1.429999999999999e+00  8.256108849411650e-01  1.696570384383008e-17
-1.429999999999999e+00  8.256108849411650e-01  1.696570384383008e-17
-1.429999999999999e+00  8.256108849411650e-01  1.696570384383008e-17
-1.429999999999999e+00  8.256108849411650e-01  1.696570384383008e-17
-1.429999999999999e+00  8.256108849411650e-01  1.696570384383008e-17
-1.429999999999999e+00  8.256108849411650e-01  1.696570384383008e-17
-1.429999999999999e+00  8.256108849411650e-01  1.696570384383008e-17
-1.429999999999999e+00  8.256108849411650e-01  1.696570384383008e-17
-1.429999999999999e+00  8.256108849411650e-01  1.696570384383008e-17
-1.429999999999999e+00  8.256108849411650e-01  1.696570384383008e-17
-1.429999999999999e+00  8.256108849411650e-01  1.696570384383008e-17
-1.429999999999999e+00  8.256108849411650e-01  1.696570384383008e-17
-1.429999999999999e+00  8.256108849411650e-01  1.696570384383008e-17
-1.429999999999999e+00  8.256108849411650e-01  1.696570384383008e-17
-1.429999999999999e+00  8.256108849411650e-01  1.696570384383008e-17
-1.429999999999999e+00  8.256108849411650e-01  1.696570384383008e-17
-1.429999999999999e+00  8.256108849411650e-01  1.696570384383008e-17
-1.429999999999999e+00  8.256108849411650e-01  1.696570384383008e-17
-1.429999999999999e+00  8.256108849411650e-01  1.696570384383008e-17
-1.429999999999999e+00  8.256108849411650e-01  1.696570384383008e-17
-1.429999999999999e+00  8.256108849411650e-01  1.696570384383008e-17
-1.429999999999999e+00  8.256108849411650e-01  1.696570384383008e-17
-1.429999999999999e+00  8.256108849411650e-01  1.696570384383008e-17
-1.429999999999999e+00  8.256108849411650e-01  1.696570384383008e-17
-1.429999999999999e+00  8.256108849411650e-01  1.696570384383008e-17
-1.429999999999999e+00  8.256108849411650e-01  1.696570384383008e-17
-1.429999999999999e+00  8.256108849411650e-01  1.696570384383008e-17
-1.429999999999999e+00  8.256108849411650e-01  1.696570384383008e-17
-1.429999999999999e+00  8.256108849411650e-01  1.696570384383008e-17
-1.429999999999999e+00  8.256108849411650e-01  1.696570384383008e-17
-1.429999999999999e+00  8.256108849411650e-01  1.696570384383008e-17
-1.429999999999999e+00  8.256108849411650e-01  1.696570384383008e-17
-1.429999999999999e+00  8.256108849411650e-01  1.696570384383008e-17
-1.429999999999999e+00  8.256108849411650e-01  1.696570384383008e-17
-1.429999999999999e+00  8.256108849411650e-01  1.696570384383008e-17
-1.429999999999999e+00  8.256108849411650e-01  1.696570384383008e-17
-1.429999999999999e+00  8.256108849411650e-01  1.696570384383008e-17
-1.429999999999999e+00  8.256108849411650e-01  1.696570384383008e-17
-1.429999999999999e+00  8.256108849411650e-01  1.696570384383008e-17
-1.429999999999999e+00  8.256108849411650e-01  1.696570384383008e-17
-1.429999999999999e+00  8.256108849411650e-01  1.696570384383008e-17
-1.429999999999999e+00  8.256108849411650e-01  1.696570384383008e-17
-1.429999999999999e+00  8.256108849411650e-01  1.696570384383008e-17
-1.429999999999999e+00  8.256108849411650e-01  1.696570384383008e-17
-1.429999999999999e+00  8.256108849411650e-01  1.696570384383008e-17
-1.429999999999999e+00  8.256108849411650e-01  1.696570384383008e-17
-1.429999999999999e+00  8.256108849411650e-01  1.696570384383008e-17
-1.429999999999999e+00  8.256108849411650e-01  1.696570384383008e-17
-1.429999999999999e+00  8.256108849411650e-01  1.696570384383008e-17
-1.429999999999999e+00  8.256108849411650e-01  1.696570384383008e-17
-1.429999999999999e+00  8.256108849411650e-01  1.696570384383008e-17
-1.429999999999999e+00  8.256108849411650e-01  1.696570384383008e-17
-1.429999999999999e+00  8.256108849411650e-01  1.696570384383008e-17
-1.429999999999999e+00  8.256108849411650e-01  1.696570384383008e-17
-1.429999999999999e+00  8.256108849411650e-01  1.696570384383008e-17
-1.429999999999999e+00  8.256108849411650e-01  1.696570384383008e-17
-1.429999999999999e+00  8.256108849411650e-01  1.696570384383008e-17
-1.429999999999999e+00  8.256108849411650e-01  1.696570384383008e-17
-1.429999999999999e+00  8.256108849411650e-01  1.696570384383008e-17
-1.429999999999999e+00  8.256108849411650e-01  1.696570384383008e-17
-1.429999999999999e+00  8.256108849411650e-01  1.696570384383008e-17
-1.429999999999999e+00  8.256108849411650e-01  1.696570384383008e-17
-1.429999999999999e+00  8.256108849411650e-01  1.696570384383008e-17
-1.429999999999999e+00  8.256108849411650e-01  1.696570384383008e-17
-1.429999999999999e+00  8.256108849411650e-01  1.696570384383008e-17
-1.429999999999999e+00  8.256108849411650e-01  1.696570384383008e-17
-1.429999999999999e+00  8.256108849411650e-01  1.696570384383008e-17
-1.429999999999999e+00  8.256108849411650e-01  1.696570384383008e-17
-1.429999999999999e+00  8.256108849411650e-01  1.696570384383008e-17
-1.429999999999999e+00  8.256108849411650e-01  1.696570384383008e-17
-1.429999999999999e+00  8.256108849411650e-01  1.696570384383008e-17
-1.429999999999999e+00  8.256108849411650e-01  1.696570384383008e-17
-1.429999999999999e+00  8.256108849411650e-01  1.696570384383008e-17
-1.429999999999999e+00  8.256108849411650e-01  1.696570384383008e-17
-1.429999999999999e+00  8.256108849411650e-01  1.696570384383008e-17
-1.429999999999999e+00  8.256108849411650e-01  1.696570384383008e-17
-1.429999999999999e+00  8.256108849411650e-01  1.696570384383008e-17
-1.429999999999999e+00  8.256108849411650e-01  1.696570384383008e-17
-1.429999999999999e+00  8.256108849411650e-01  1.696570384383008e-17
-1.429999999999999e+00  8.256108849411650e-01  1.696570384383008e-17
-1.429999999999999e+00  8.256108849411650e-01  1.696570384383008e-17
-1.429999999999999e+00  8.256108849411650e-01  1.696570384383008e-17
-1.429999999999999e+00  8.256108849411650e-01  1.696570384383008e-17
-1.429999999999999e+00  8.256108849411650e-01  1.696570384383008e-17
-1.429999999999999e+00  8.256108849411650e-01  1.696570384383008e-17
-1.429999999999999e+00  8.256108849411650e-01  1.696570384383008e-17
-1.429999999999999e+00  8.256108849411650e-01  1.696570384383008e-17
-1.429999999999999e+00  8.256108849411650e-01  1.696570384383008e-17
-1.429999999999999e+00  8.256108849411650e-01  1.696570384383008e-17
-1.429999999999999e+00  8.256108849411650e-01  1.696570384383008e-17
-1.429999999999999e+00  8.256108849411650e-01  1.696570384383008e-17
-1.429999999999999e+00  8.256108849411650e-01  1.696570384383008e-17
-1.429999999999999e+00  8.256108849411650e-01  1.696570384383008e-17
-1.429999999999999e+00  8.256108849411650e-01  1.696570384383008e-17
-1.429999999999999e+00  8.256108849411650e-01  1.696570384383008e-17
-1.429999999999999e+00  8.256108849411650e-01  1.696570384383008e-17
-1.429999999999999e+00  8.256108849411650e-01  1.696570384383008e-17
-1.429999999999999e+00  8.256108849411650e-01  1.696570384383008e-17
-1.429999999999999e+00  8.256108849411650e-01  1.696570384383008e-17
-1.429999999999999e+00  8.256108849411650e-01  1.696570384383008e-17
-1.429999999999999e+00  8.256108849411650e-01  1.696570384383008e-17
-1.429999999999999e+00  8.256108849411650e-01  1.696570384383008e-17
-1.429999999999999e+00  8.256108849411650e-01  1.696570384383008e-17
-1.429999999999999e+00  8.256108849411650e-01  1.696570384383008e-17
-1.429999999999999e+00  8.256108849411650e-01  1.696570384383008e-17
-1.429999999999999e+00  8.256108849411650e-01  1.696570384383008e-17
-1.429999999999999e+00  8.256108849411650e-01  1.696570384383008e-17
-1.429999999999999e+00  8.256108849411650e-01  1.696570384383008e-17
-1.429999999999999e+00  8.256108849411650e-01  1.696570384383008e-17
-1.429999999999999e+00  8.256108849411650e-01  1.696570384383008e-17
-1.429999999999999e+00  8.256108849411650e-01  1.696570384383008e-17
-1.429999999999999e+00  8.256108849411650e-01  1.696570384383008e-17
-1.429999999999999e+00  8.256108849411650e-01  1.696570384383008e-17
-1.429999999999999e+00  8.256108849411650e-01  1.696570384383008e-17
-1.429999999999999e+00  8.256108849411650e-01  1.696570384383008e-17
-1.429999999999999e+00  8.256108849411650e-01  1.696570384383008e-17
-1.429999999999999e+00  8.256108849411650e-01  1.696570384383008e-17
-1.429999999999999e+00  8.256108849411650e-01  1.696570384383008e-17
-1.429999999999999e+00  8.256108849411650e-01  1.696570384383008e-17
-1.429999999999999e+00  8.256108849411650e-01  1.696570384383008e-17
-1.429999999999999e+00  8.256108849411650e-01  1.696570384383008e-17
-1.429999999999999e+00  8.256108849411650e-01  1.696570384383008e-17
-1.429999999999999e+00  8.256108849411650e-01  1.696570384383008e-17
-1.429999999999999e+00  8.256108849411650e-01  1.696570384383008e-17
-1.429999999999999e+00  8.256108849411650e-01  1.696570384383008e-17
-1.429999999999999e+00  8.256108849411650e-01  1.696570384383008e-17
-1.429999999999999e+00  8.256108849411650e-01  1.696570384383008e-17
-1.429999999999999e+00  8.256108849411650e-01  1.696570384383008e-17
-1.429999999999999e+00  8.256108849411650e-01  1.696570384383008e-17
-1.429999999999999e+00  8.256108849411650e-01  1.696570384383008e-17
-1.429999999999999e+00  8.256108849411650e-01  1.696570384383008e-17
-1.429999999999999e+00  8.256108849411650e-01  1.696570384383008e-17
-1.429999999999999e+00  8.256108849411650e-01  1.696570384383008e-17
-1.429999999999999e+00  8.256108849411650e-01  1.696570384383008e-17
-1.429999999999999e+00  8.256108849411650e-01  1.696570384383008e-17
-1.429999999999999e+00  8.256108849411650e-01  1.696570384383008e-17
-1.429999999999999e+00  8.256108849411650e-01  1.696570384383008e-17
-1.429999999999999e+00  8.256108849411650e-01  1.696570384383008e-17
-1.429999999999999e+00  8.256108849411650e-01  1.696570384383008e-17
-1.429999999999999e+00  8.256108849411650e-01  1.696570384383008e-17
-1.429999999999999e+00  8.256108849411650e-01  1.696570384383008e-17
-1.429999999999999e+00  8.256108849411650e-01  1.696570384383008e-17
-1.429999999999999e+00  8.256108849411650e-01  1.696570384383008e-17
-1.429999999999999e+00  8.256108849411650e-01  1.696570384383008e-17
-1.429999999999999e+00  8.256108849411650e-01  1.696570384383008e-17
-1.429999999999999e+00  8.256108849411650e-01  1.696570384383008e-17
-1.429999999999999e+00  8.256108849411650e-01  1.696570384383008e-17
-1.429999999999999e+00  8.256108849411650e-01  1.696570384383008e-17
-1.429999999999999e+00  8.256108849411650e-01  1.696570384383008e-17
-1.429999999999999e+00  8.256108849411650e-01  1.696570384383008e-17
-1.429999999999999e+00  8.256108849411650e-01  1.696570384383008e-17
-1.429999999999999e+00  8.256108849411650e-01  1.696570384383008e-17
-1.429999999999999e+00  8.256108849411650e-01  1.696570384383008e-17
-1.429999999999999e+00  8.256108849411650e-01  1.696570384383008e-17
-1.429999999999999e+00  8.256108849411650e-01  1.696570384383008e-17
-1.429999999999999e+00  8.256108849411650e-01  1.696570384383008e-17
-1.429999999999999e+00  8.256108849411650e-01  1.696570384383008e-17
-1.429999999999999e+00  8.256108849411650e-01  1.696570384383008e-17
-1.429999999999999e+00  8.256108849411650e-01  1.696570384383008e-17
-1.429999999999999e+00  8.256108849411650e-01  1.696570384383008e-17
-1.429999999999999e+00  8.256108849411650e-01  1.696570384383008e-17
-1.429999999999999e+00  8.256108849411650e-01  1.696570384383008e-17
-1.429999999999999e+00  8.256108849411650e-01  1.696570384383008e-17
-1.429999999999999e+00  8.256108849411650e-01  1.696570384383008e-17
-1.429999999999999e+00  8.256108849411650e-01  1.696570384383008e-17
-1.429999999999999e+00  8.256108849411650e-01  1.696570384383008e-17
-1.429999999999999e+00  8.256108849411650e-01  1.696570384383008e-17
-1.429999999999999e+00  8.256108849411650e-01  1.696570384383008e-17
-1.429999999999999e+00  8.256108849411650e-01  1.696570384383008e-17
-1.429999999999999e+00  8.256108849411650e-01  1.696570384383008e-17
-1.429999999999999e+00  8.256108849411650e-01  1.696570384383008e-17
-1.429999999999999e+00  8.256108849411650e-01  1.696570384383008e-17
-1.429999999999999e+00  8.256108849411650e-01  1.696570384383008e-17
-1.429999999999999e+00  8.256108849411650e-01  1.696570384383008e-17
-1.429999999999999e+00  8.256108849411650e-01  1.696570384383008e-17
-1.429999999999999e+00  8.256108849411650e-01  1.696570384383008e-17
-1.429999999999999e+00  8.256108849411650e-01  1.696570384383008e-17
-1.429999999999999e+00  8.256108849411650e-01  1.696570384383008e-17
-1.429999999999999e+00  8.256108849411650e-01  1.696570384383008e-17
-1.429999999999999e+00  8.256108849411650e-01  1.696570384383008e-17
-1.429999999999999e+00  8.256108849411650e-01  1.696570384383008e-17
-1.429999999999999e+00  8.256108849411650e-01  1.696570384383008e-17
-1.429999999999999e+00  8.256108849411650e-01  1.696570384383008e-17
-1.429999999999999e+00  8.256108849411650e-01  1.696570384383008e-17
-1.429999999999999e+00  8.256108849411650e-01  1.696570384383008e-17
-1.429999999999999e+00  8.256108849411650e-01  1.696570384383008e-17
-1.429999999999999e+00  8.256108849411650e-01  1.696570384383008e-17
-1.429999999999999e+00  8.256108849411650e-01  1.696570384383008e-17
-1.429999999999999e+00  8.256108849411650e-01  1.696570384383008e-17
-1.429999999999999e+00  8.256108849411650e-01  1.696570384383008e-17
-1.429999999999999e+00  8.256108849411650e-01  1.696570384383008e-17
-1.429999999999999e+00  8.256108849411650e-01  1.696570384383008e-17
-1.429999999999999e+00  8.256108849411650e-01  1.696570384383008e-17
-1.429999999999999e+00  8.256108849411650e-01  1.696570384383008e-17
-1.429999999999999e+00  8.256108849411650e-01  1.696570384383008e-17
-1.429999999999999e+00  8.256108849411650e-01  1.696570384383008e-17
-1.429999999999999e+00  8.256108849411650e-01  1.696570384383008e-17
-1.429999999999999e+00  8.256108849411650e-01  1.696570384383008e-17
-1.429999999999999e+00  8.256108849411650e-01  1.696570384383008e-17
-1.429999999999999e+00  8.256108849411650e-01  1.696570384383008e-17
-1.429999999999999e+00  8.256108849411650e-01  1.696570384383008e-17
-1.429999999999999e+00  8.256108849411650e-01  1.696570384383008e-17
-1.429999999999999e+00  8.256108849411650e-01  1.696570384383008e-17
-1.429999999999999e+00  8.256108849411650e-01  1.696570384383008e-17
-1.429999999999999e+00  8.256108849411650e-01  1.696570384383008e-17
-1.429999999999999e+00  8.256108849411650e-01  1.696570384383008e-17
-1.429999999999999e+00  8.256108849411650e-01  1.696570384383008e-17
-1.429999999999999e+00  8.256108849411650e-01  1.696570384383008e-17
-1.429999999999999e+00  8.256108849411650e-01  1.696570384383008e-17
-1.429999999999999e+00  8.256108849411650e-01  1.696570384383008e-17
-1.429999999999999e+00  8.256108849411650e-01  1.696570384383008e-17
-1.429999999999999e+00  8.256108849411650e-01  1.696570384383008e-17
-1.429999999999999e+00  8.256108849411650e-01  1.696570384383008e-17
-1.429999999999999e+00  8.256108849411650e-01  1.696570384383008e-17
-1.429999999999999e+00  8.256108849411650e-01  1.696570384383008e-17
-1.429999999999999e+00  8.256108849411650e-01  1.696570384383008e-17
-1.429999999999999e+00  8.256108849411650e-01  1.696570384383008e-17
-1.429999999999999e+00  8.256108849411650e-01  1.696570384383008e-17
-1.429999999999999e+00  8.256108849411650e-01  1.696570384383008e-17
-1.429999999999999e+00  8.256108849411650e-01  1.696570384383008e-17
-1.429999999999999e+00  8.256108849411650e-01  1.696570384383008e-17
-1.429999999999999e+00  8.256108849411650e-01  1.696570384383008e-17
-1.429999999999999e+00  8.256108849411650e-01  1.696570384383008e-17
-1.429999999999999e+00  8.256108849411650e-01  1.696570384383008e-17
-1.429999999999999e+00  8.256108849411650e-01  1.696570384383008e-17
-1.429999999999999e+00  8.256108849411650e-01  1.696570384383008e-17
-1.429999999999999e+00  8.256108849411650e-01  1.696570384383008e-17
-1.429999999999999e+00  8.256108849411650e-01  1.696570384383008e-17
-1.429999999999999e+00  8.256108849411650e-01  1.696570384383008e-17
-1.429999999999999e+00  8.256108849411650e-01  1.696570384383008e-17
-1.429999999999999e+00  8.256108849411650e-01  1.696570384383008e-17
-1.429999999999999e+00  8.256108849411650e-01  1.696570384383008e-17
-1.429999999999999e+00  8.256108849411650e-01  1.696570384383008e-17
-1.429999999999999e+00  8.256108849411650e-01  1.696570384383008e-17
-1.429999999999999e+00  8.256108849411650e-01  1.696570384383008e-17
-1.429999999999999e+00  8.256108849411650e-01  1.696570384383008e-17
-1.429999999999999e+00  8.256108849411650e-01  1.696570384383008e-17
-1.429999999999999e+00  8.256108849411650e-01  1.696570384383008e-17
-1.429999999999999e+00  8.256108849411650e-01  1.696570384383008e-17
-1.429999999999999e+00  8.256108849411650e-01  1.696570384383008e-17
-1.429999999999999e+00  8.256108849411650e-01  1.696570384383008e-17
-1.429999999999999e+00  8.256108849411650e-01  1.696570384383008e-17
-1.429999999999999e+00  8.256108849411650e-01  1.696570384383008e-17
-1.429999999999999e+00  8.256108849411650e-01  1.696570384383008e-17
-1.429999999999999e+00  8.256108849411650e-01  1.696570384383008e-17
-1.429999999999999e+00  8.256108849411650e-01  1.696570384383008e-17
-1.429999999999999e+00  8.256108849411650e-01  1.696570384383008e-17
-1.429999999999999e+00  8.256108849411650e-01  1.696570384383008e-17
-1.429999999999999e+00  8.256108849411650e-01  1.696570384383008e-17
-1.429999999999999e+00  8.256108849411650e-01  1.696570384383008e-17
-1.429999999999999e+00  8.256108849411650e-01  1.696570384383008e-17
-1.429999999999999e+00  8.256108849411650e-01  1.696570384383008e-17
-1.429999999999999e+00  8.256108849411650e-01  1.696570384383008e-17
-1.429999999999999e+00  8.256108849411650e-01  1.696570384383008e-17
-1.429999999999999e+00  8.256108849411650e-01  1.696570384383008e-17
-1.429999999999999e+00  8.256108849411650e-01  1.696570384383008e-17
-1.429999999999999e+00  8.256108849411650e-01  1.696570384383008e-17
-1.429999999999999e+00  8.256108849411650e-01  1.696570384383008e-17
-1.429999999999999e+00  8.256108849411650e-01  1.696570384383008e-17
-1.429999999999999e+00  8.256108849411650e-01  1.696570384383008e-17
 1.429999999999999e+00 -8.256108849411650e-01 -1.696570384383008e-17
-1.429999999999999e+00  8.256108849411650e-01  1.696570384383008e-17
-1.429999999999999e+00  8.256108849411650e-01  1.696570384383008e-17
-1.429999999999999e+00  8.256108849411650e-01  1.696570384383008e-17
-1.429999999999999e+00  8.256108849411650e-01  1.696570384383008e-17
-1.429999999999999e+00  8.256108849411650e-01  1.696570384383008e-17
-1.429999999999999e+00  8.256108849411650e-01  1.696570384383008e-17
-1.429999999999999e+00  8.256108849411650e-01  1.696570384383008e-17
-1.429999999999999e+00  8.256108849411650e-01  1.696570384383008e-17
-1.429999999999999e+00  8.256108849411650e-01  1.696570384383008e-17
-1.429999999999999e+00  8.256108849411650e-01  1.696570384383008e-17
-1.429999999999999e+00  8.256108849411650e-01  1.696570384383008e-17
-1.429999999999999e+00  8.256108849411650e-01  1.696570384383008e-17
-1.429999999999999e+00  8.256108849411650e-01  1.696570384383008e-17
-1.429999999999999e+00  8.256108849411650e-01  1.696570384383008e-17
-1.429999999999999e+00  8.256108849411650e-01  1.696570384383008e-17
-1.429999999999999e+00  8.256108849411650e-01  1.696570384383008e-17
-1.429999999999999e+00  8.256108849411650e-01  1.696570384383008e-17
-1.429999999999999e+00  8.256108849411650e-01  1.696570384383008e-17
-1.429999999999999e+00  8.256108849411650e-01  1.696570384383008e-17
-1.429999999999999e+00  8.256108849411650e-01  1.696570384383008e-17
-1.429999999999999e+00  8.256108849411650e-01  1.696570384383008e-17
-1.429999999999999e+00  8.256108849411650e-01  1.696570384383008e-17
-1.429999999999999e+00  8.256108849411650e-01  1.696570384383008e-17
-1.429999999999999e+00  8.256108849411650e-01  1.696570384383008e-17
-1.429999999999999e+00  8.256108849411650e-01  1.696570384383008e-17
-1.429999999999999e+00  8.256108849411650e-01  1.696570384383008e-17
-1.429999999999999e+00  8.256108849411650e-01  1.696570384383008e-17
-1.429999999999999e+00  8.256108849411650e-01  1.696570384383008e-17
-1.429999999999999e+00  8.256108849411650e-01  1.696570384383008e-17
-1.429999999999999e+00  8.256108849411650e-01  1.696570384383008e-17
-1.429999999999999e+00  8.256108849411650e-01  1.696570384383008e-17
-1.429999999999999e+00  8.256108849411650e-01  1.696570384383008e-17
-1.429999999999999e+00  8.256108849411650e-01  1.696570384383008e-17
-1.429999999999999e+00  8.256108849411650e-01  1.696570384383008e-17
-1.429999999999999e+00  8.256108849411650e-01  1.696570384383008e-17
-1.429999999999999e+00  8.256108849411650e-01  1.696570384383008e-17
-1.429999999999999e+00  8.256108849411650e-01  1.696570384383008e-17
-1.429999999999999e+00  8.256108849411650e-01  1.696570384383008e-17
-1.429999999999999e+00  8.256108849411650e-01  1.696570384383008e-17
-1.429999999999999e+00  8.256108849411650e-01  1.696570384383008e-17
-1.429999999999999e+00  8.256108849411650e-01  1.696570384383008e-17
-1.429999999999999e+00  8.256108849411650e-01  1.696570384383008e-17
-1.429999999999999e+00  8.256108849411650e-01  1.696570384383008e-17
-1.429999999999999e+00  8.256108849411650e-01  1.696570384383008e-17
-1.429999999999999e+00  8.256108849411650e-01  1.696570384383008e-17
-1.429999999999999e+00  8.256108849411650e-01  1.696570384383008e-17
-1.429999999999999e+00  8.256108849411650e-01  1.696570384383008e-17
-1.429999999999999e+00  8.256108849411650e-01  1.696570384383008e-17
-1.429999999999999e+00  8.256108849411650e-01  1.696570384383008e-17
-1.429999999999999e+00  8.256108849411650e-01  1.696570384383008e-17
-1.429999999999999e+00  8.256108849411650e-01  1.696570384383008e-17
-1.429999999999999e+00  8.256108849411650e-01  1.696570384383008e-17
-1.429999999999999e+00  8.256108849411650e-01  1.696570384383008e-17
-1.429999999999999e+00  8.256108849411650e-01  1.696570384383008e-17
-1.429999999999999e+00  8.256108849411650e-01  1.696570384383008e-17
-1.429999999999999e+00  8.256108849411650e-01  1.696570384383008e-17
-1.429999999999999e+00  8.256108849411650e-01  1.696570384383008e-17
-1.429999999999999e+00  8.256108849411650e-01  1.696570384383008e-17
-1.429999999999999e+00  8.256108849411650e-01  1.696570384383008e-17
-1.429999999999999e+00  8.256108849411650e-01  1.696570384383008e-17
-1.429999999999999e+00  8.256108849411650e-01  1.696570384383008e-17
-1.429999999999999e+00  8.256108849411650e-01  1.696570384383008e-17
-1.429999999999999e+00  8.256108849411650e-01  1.696570384383008e-17
-1.429999999999999e+00  8.256108849411650e-01  1.696570384383008e-17
-1.429999999999999e+00  8.256108849411650e-01  1.696570384383008e-17
-1.429999999999999e+00  8.256108849411650e-01  1.696570384383008e-17
-1.429999999999999e+00  8.256108849411650e-01  1.696570384383008e-17
-1.429999999999999e+00  8.256108849411650e-01  1.696570384383008e-17
-1.429999999999999e+00  8.256108849411650e-01  1.696570384383008e-17
-1.429999999999999e+00  8.256108849411650e-01  1.696570384383008e-17
-1.429999999999999e+00  8.256108849411650e-01  1.696570384383008e-17
-1.429999999999999e+00  8.256108849411650e-01  1.696570384383008e-17
-1.429999999999999e+00  8.256108849411650e-01  1.696570384383008e-17
-1.429999999999999e+00  8.256108849411650e-01  1.696570384383008e-17
-1.429999999999999e+00  8.256108849411650e-01  1.696570384383008e-17
-1.429999999999999e+00  8.256108849411650e-01  1.696570384383008e-17
-1.429999999999999e+00  8.256108849411650e-01  1.696570384383008e-17
-1.429999999999999e+00  8.256108849411650e-01  1.696570384383008e-17
-1.429999999999999e+00  8.256108849411650e-01  1.696570384383008e-17
-1.429999999999999e+00  8.256108849411650e-01  1.696570384383008e-17
-1.429999999999999e+00  8.256108849411650e-01  1.696570384383008e-17
-1.429999999999999e+00  8.256108849411650e-01  1.696570384383008e-17
-1.429999999999999e+00  8.256108849411650e-01  1.696570384383008e-17
-1.429999999999999e+00  8.256108849411650e-01  1.696570384383008e-17
-1.429999999999999e+00  8.256108849411650e-01  1.696570384383008e-17
-1.429999999999999e+00  8.256108849411650e-01  1.696570384383008e-17
-1.429999999999999e+00  8.256108849411650e-01  1.696570384383008e-17
-1.429999999999999e+00  8.256108849411650e-01  1.696570384383008e-17
-1.429999999999999e+00  8.256108849411650e-01  1.696570384383008e-17
-1.429999999999999e+00  8.256108849411650e-01  1.696570384383008e-17
-1.429999999999999e+00  8.256108849411650e-01  1.696570384383008e-17
-1.429999999999999e+00  8.256108849411650e-01  1.696570384383008e-17
-1.429999999999999e+00  8.256108849411650e-01  1.696570384383008e-17
-1.429999999999999e+00  8.256108849411650e-01  1.696570384383008e-17
-1.429999999999999e+00  8.256108849411650e-01  1.696570384383008e-17
-1.429999999999999e+00  8.256108849411650e-01  1.696570384383008e-17
-1.429999999999999e+00  8.256108849411650e-01  1.696570384383008e-17
-1.429999999999999e+00  8.256108849411650e-01  1.696570384383008e-17
-1.429999999999999e+00  8.256108849411650e-01  1.696570384383008e-17
-1.429999999999999e+00  8.256108849411650e-01  1.696570384383008e-17
-1.429999999999999e+00  8.256108849411650e-01  1.696570384383008e-17
-1.429999999999999e+00  8.256108849411650e-01  1.696570384383008e-17
-1.429999999999999e+00  8.256108849411650e-01  1.696570384383008e-17
-1.429999999999999e+00  8.256108849411650e-01  1.696570384383008e-17
-1.429999999999999e+00  8.256108849411650e-01  1.696570384383008e-17
-1.429999999999999e+00  8.256108849411650e-01  1.696570384383008e-17
-1.429999999999999e+00  8.256108849411650e-01  1.696570384383008e-17
-1.429999999999999e+00  8.256108849411650e-01  1.696570384383008e-17
-1.429999999999999e+00  8.256108849411650e-01  1.696570384383008e-17
-1.429999999999999e+00  8.256108849411650e-01  1.696570384383008e-17
-1.429999999999999e+00  8.256108849411650e-01  1.696570384383008e-17
-1.429999999999999e+00  8.256108849411650e-01  1.696570384383008e-17
-1.429999999999999e+00  8.256108849411650e-01  1.696570384383008e-17
-1.429999999999999e+00  8.256108849411650e-01  1.696570384383008e-17
-1.429999999999999e+00  8.256108849411650e-01  1.696570384383008e-17
-1.429999999999999e+00  8.256108849411650e-01  1.696570384383008e-17
-1.429999999999999e+00  8.256108849411650e-01  1.696570384383008e-17
-1.429999999999999e+00  8.256108849411650e-01  1.696570384383008e-17
-1.429999999999999e+00  8.256108849411650e-01  1.696570384383008e-17
-1.429999999999999e+00  8.256108849411650e-01  1.696570384383008e-17
-1.429999999999999e+00  8.256108849411650e-01  1.696570384383008e-17
-1.429999999999999e+00  8.256108849411650e-01  1.696570384383008e-17
-1.429999999999999e+00  8.256108849411650e-01  1.696570384383008e-17
-1.429999999999999e+00  8.256108849411650e-01  1.696570384383008e-17
-1.429999999999999e+00  8.256108849411650e-01  1.696570384383008e-17
-1.429999999999999e+00  8.256108849411650e-01  1.696570384383008e-17
-1.429999999999999e+00  8.256108849411650e-01  1.696570384383008e-17
-1.429999999999999e+00  8.256108849411650e-01  1.696570384383008e-17
-1.429999999999999e+00  8.256108849411650e-01  1.696570384383008e-17
-1.429999999999999e+00  8.256108849411650e-01  1.696570384383008e-17
-1.429999999999999e+00  8.256108849411650e-01  1.696570384383008e-17
-1.429999999999999e+00  8.256108849411650e-01  1.696570384383008e-17
-1.429999999999999e+00  8.256108849411650e-01  1.696570384383008e-17
-1.429999999999999e+00  8.256108849411650e-01  1.696570384383008e-17
-1.429999999999999e+00  8.256108849411650e-01  1.696570384383008e-17
-1.429999999999999e+00  8.256108849411650e-01  1.696570384383008e-17
-1.429999999999999e+00  8.256108849411650e-01  1.696570384383008e-17
-1.429999999999999e+00  8.256108849411650e-01  1.696570384383008e-17
-1.429999999999999e+00  8.256108849411650e-01  1.696570384383008e-17
-1.429999999999999e+00  8.256108849411650e-01  1.696570384383008e-17
-1.429999999999999e+00  8.256108849411650e-01  1.696570384383008e-17
-1.429999999999999e+00  8.256108849411650e-01  1.696570384383008e-17
-1.429999999999999e+00  8.256108849411650e-01  1.696570384383008e-17
-1.429999999999999e+00  8.256108849411650e-01  1.696570384383008e-17
-1.429999999999999e+00  8.256108849411650e-01  1.696570384383008e-17
-1.429999999999999e+00  8.256108849411650e-01  1.696570384383008e-17
-1.429999999999999e+00  8.256108849411650e-01  1.696570384383008e-17
-1.429999999999999e+00  8.256108849411650e-01  1.696570384383008e-17
-1.429999999999999e+00  8.256108849411650e-01  1.696570384383008e-17
-1.429999999999999e+00  8.256108849411650e-01  1.696570384383008e-17
-1.429999999999999e+00  8.256108849411650e-01  1.696570384383008e-17
-1.429999999999999e+00  8.256108849411650e-01  1.696570384383008e-17
-1.429999999999999e+00  8.256108849411650e-01  1.696570384383008e-17
-1.429999999999999e+00  8.256108849411650e-01  1.696570384383008e-17
-1.429999999999999e+00  8.256108849411650e-01  1.696570384383008e-17
-1.429999999999999e+00  8.256108849411650e-01  1.696570384383008e-17
-1.429999999999999e+00  8.256108849411650e-01  1.696570384383008e-17
-1.429999999999999e+00  8.256108849411650e-01  1.696570384383008e-17
-1.429999999999999e+00  8.256108849411650e-01  1.696570384383008e-17
-1.429999999999999e+00  8.256108849411650e-01  1.696570384383008e-17
-1.429999999999999e+00  8.256108849411650e-01  1.696570384383008e-17
-1.429999999999999e+00  8.256108849411650e-01  1.696570384383008e-17
-1.429999999999999e+00  8.256108849411650e-01  1.696570384383008e-17
-1.429999999999999e+00  8.256108849411650e-01  1.696570384383008e-17
-1.429999999999999e+00  8.256108849411650e-01  1.696570384383008e-17
-1.429999999999999e+00  8.256108849411650e-01  1.696570384383008e-17
-1.429999999999999e+00  8.256108849411650e-01  1.696570384383008e-17
-1.429999999999999e+00  8.256108849411650e-01  1.696570384383008e-17
-1.429999999999999e+00  8.256108849411650e-01  1.696570384383008e-17
-1.429999999999999e+00  8.256108849411650e-01  1.696570384383008e-17
-1.429999999999999e+00  8.256108849411650e-01  1.696570384383008e-17
-1.429999999999999e+00  8.256108849411650e-01  1.696570384383008e-17
-1.429999999999999e+00  8.256108849411650e-01  1.696570384383008e-17
-1.429999999999999e+00  8.256108849411650e-01  1.696570384383008e-17
-1.429999999999999e+00  8.256108849411650e-01  1.696570384383008e-17
-1.429999999999999e+00  8.256108849411650e-01  1.696570384383008e-17
-1.429999999999999e+00  8.256108849411650e-01  1.696570384383008e-17
-1.429999999999999e+00  8.256108849411650e-01  1.696570384383008e-17
-1.429999999999999e+00  8.256108849411650e-01  1.696570384383008e-17
-1.429999999999999e+00  8.256108849411650e-01  1.696570384383008e-17
-1.429999999999999e+00  8.256108849411650e-01  1.696570384383008e-17
-1.429999999999999e+00  8.256108849411650e-01  1.696570384383008e-17
-1.429999999999999e+00  8.256108849411650e-01  1.696570384383008e-17
-1.429999999999999e+00  8.256108849411650e-01  1.696570384383008e-17
-1.429999999999999e+00  8.256108849411650e-01  1.696570384383008e-17
-1.429999999999999e+00  8.256108849411650e-01  1.696570384383008e-17
-1.429999999999999e+00  8.256108849411650e-01  1.696570384383008e-17
-1.429999999999999e+00  8.256108849411650e-01  1.696570384383008e-17
-1.429999999999999e+00  8.256108849411650e-01  1.696570384383008e-17
-1.429999999999999e+00  8.256108849411650e-01  1.696570384383008e-17
-1.429999999999999e+00  8.256108849411650e-01  1.696570384383008e-17
-1.429999999999999e+00  8.256108849411650e-01  1.696570384383008e-17
-1.429999999999999e+00  8.256108849411650e-01  1.696570384383008e-17
-1.429999999999999e+00  8.256108849411650e-01  1.696570384383008e-17
-1.429999999999999e+00  8.256108849411650e-01  1.696570384383008e-17
-1.429999999999999e+00  8.256108849411650e-01  1.696570384383008e-17
-1.429999999999999e+00  8.256108849411650e-01  1.696570384383008e-17
-1.429999999999999e+00  8.256108849411650e-01  1.696570384383008e-17
-1.429999999999999e+00  8.256108849411650e-01  1.696570384383008e-17
-1.429999999999999e+00  8.256108849411650e-01  1.696570384383008e-17
-1.429999999999999e+00  8.256108849411650e-01  1.696570384383008e-17
-1.429999999999999e+00  8.256108849411650e-01  1.696570384383008e-17
-1.429999999999999e+00  8.256108849411650e-01  1.696570384383008e-17
-1.429999999999999e+00  8.256108849411650e-01  1.696570384383008e-17
-1.429999999999999e+00  8.256108849411650e-01  1.696570384383008e-17
-1.429999999999999e+00  8.256108849411650e-01  1.696570384383008e-17
-1.429999999999999e+00  8.256108849411650e-01  1.696570384383008e-17
-1.429999999999999e+00  8.256108849411650e-01  1.696570384383008e-17
-1.429999999999999e+00  8.256108849411650e-01  1.696570384383008e-17
-1.429999999999999e+00  8.256108849411650e-01  1.696570384383008e-17
-1.429999999999999e+00  8.256108849411650e-01  1.696570384383008e-17
-1.429999999999999e+00  8.256108849411650e-01  1.696570384383008e-17
-1.429999999999999e+00  8.256108849411650e-01  1.696570384383008e-17
-1.429999999999999e+00  8.256108849411650e-01  1.696570384383008e-17
-1.429999999999999e+00  8.256108849411650e-01  1.696570384383008e-17
-1.429999999999999e+00  8.256108849411650e-01  1.696570384383008e-17
-1.429999999999999e+00  8.256108849411650e-01  1.696570384383008e-17
-1.429999999999999e+00  8.256108849411650e-01  1.696570384383008e-17
-1.429999999999999e+00  8.256108849411650e-01  1.696570384383008e-17
-1.429999999999999e+00  8.256108849411650e-01  1.696570384383008e-17
-1.429999999999999e+00  8.256108849411650e-01  1.696570384383008e-17
-1.429999999999999e+00  8.256108849411650e-01  1.696570384383008e-17
-1.429999999999999e+00  8.256108849411650e-01  1.696570384383008e-17
-1.429999999999999e+00  8.256108849411650e-01  1.696570384383008e-17
-1.429999999999999e+00  8.256108849411650e-01  1.696570384383008e-17
-1.429999999999999e+00  8.256108849411650e-01  1.696570384383008e-17
-1.429999999999999e+00  8.256108849411650e-01  1.696570384383008e-17
-1.429999999999999e+00  8.256108849411650e-01  1.696570384383008e-17
-1.429999999999999e+00  8.256108849411650e-01  1.696570384383008e-17
-1.429999999999999e+00  8.256108849411650e-01  1.696570384383008e-17
-1.429999999999999e+00  8.256108849411650e-01  1.696570384383008e-17
-1.429999999999999e+00  8.256108849411650e-01  1.696570384383008e-17
-1.429999999999999e+00  8.256108849411650e-01  1.696570384383008e-17
-1.429999999999999e+00  8.256108849411650e-01  1.696570384383008e-17
-1.429999999999999e+00  8.256108849411650e-01  1.696570384383008e-17
-1.429999999999999e+00  8.256108849411650e-01  1.696570384383008e-17
-1.429999999999999e+00  8.256108849411650e-01  1.696570384383008e-17
-1.429999999999999e+00  8.256108849411650e-01  1.696570384383008e-17
-1.429999999999999e+00  8.256108849411650e-01  1.696570384383008e-17
-1.429999999999999e+00  8.256108849411650e-01  1.696570384383008e-17
-1.429999999999999e+00  8.256108849411650e-01  1.696570384383008e-17
-1.429999999999999e+00  8.256108849411650e-01  1.696570384383008e-17
-1.429999999999999e+00  8.256108849411650e-01  1.696570384383008e-17
-1.429999999999999e+00  8.256108849411650e-01  1.696570384383008e-17
 1.429999999999999e+00 -8.256108849411650e-01 -1.696570384383008e-17
-1.429999999999999e+00  8.256108849411650e-01  1.696570384383008e-17
 1.429999999999999e+00 -8.256108849411650e-01 -1.696570384383008e-17
 1.429999999999999e+00 -8.256108849411650e-01 -1.696570384383008e-17
 1.429999999999999e+00 -8.256108849411650e-01 -1.696570384383008e-17
 1.429999999999999e+00 -8.256108849411650e-01 -1.696570384383008e-17
 1.429999999999999e+00 -8.256108849411650e-01 -1.696570384383008e-17
 1.429999999999999e+00 -8.256108849411650e-01 -1.696570384383008e-17
 1.429999999999999e+00 -8.256108849411650e-01 -1.696570384383008e-17
 1.429999999999999e+00 -8.256108849411650e-01 -1.696570384383008e-17
 1.429999999999999e+00 -8.256108849411650e-01 -1.696570384383008e-17
 1.429999999999999e+00 -8.256108849411650e-01 -1.696570384383008e-17
 1.429999999999999e+00 -8.256108849411650e-01 -1.696570384383008e-17
 1.429999999999999e+00 -8.256108849411650e-01 -1.696570384383008e-17
 1.429999999999999e+00 -8.256108849411650e-01 -1.696570384383008e-17
 1.429999999999999e+00 -8.256108849411650e-01 -1.696570384383008e-17
 1.429999999999999e+00 -8.256108849411650e-01 -1.696570384383008e-17
 1.429999999999999e+00 -8.256108849411650e-01 -1.696570384383008e-17
 1.429999999999999e+00 -8.256108849411650e-01 -1.696570384383008e-17
 1.429999999999999e+00 -8.256108849411650e-01 -1.696570384383008e-17
 1.429999999999999e+00 -8.256108849411650e-01 -1.696570384383008e-17
 1.429999999999999e+00 -8.256108849411650e-01 -1.696570384383008e-17
 1.429999999999999e+00 -8.256108849411650e-01 -1.696570384383008e-17
 1.429999999999999e+00 -8.256108849411650e-01 -1.696570384383008e-17
 1.429999999999999e+00 -8.256108849411650e-01 -1.696570384383008e-17
 1.429999999999999e+00 -8.256108849411650e-01 -1.696570384383008e-17
 1.429999999999999e+00 -8.256108849411650e-01 -1.696570384383008e-17
 1.429999999999999e+00 -8.256108849411650e-01 -1.696570384383008e-17
 1.429999999999999e+00 -8.256108849411650e-01 -1.696570384383008e-17
 1.429999999999999e+00 -8.256108849411650e-01 -1.696570384383008e-17
 1.429999999999999e+00 -8.256108849411650e-01 -1.696570384383008e-17
 1.429999999999999e+00 -8.256108849411650e-01 -1.696570384383008e-17
 1.429999999999999e+00 -8.256108849411650e-01 -1.696570384383008e-17
 1.429999999999999e+00 -8.256108849411650e-01 -1.696570384383008e-17
 1.429999999999999e+00 -8.256108849411650e-01 -1.696570384383008e-17
 1.429999999999999e+00 -8.256108849411650e-01 -1.696570384383008e-17
 1.429999999999999e+00 -8.256108849411650e-01 -1.696570384383008e-17
 1.429999999999999e+00 -8.256108849411650e-01 -1.696570384383008e-17
 1.429999999999999e+00 -8.256108849411650e-01 -1.696570384383008e-17
 1.429999999999999e+00 -8.256108849411650e-01 -1.696570384383008e-17
 1.429999999999999e+00 -8.256108849411650e-01 -1.696570384383008e-17
 1.429999999999999e+00 -8.256108849411650e-01 -1.696570384383008e-17
 1.429999999999999e+00 -8.256108849411650e-01 -1.696570384383008e-17
 1.429999999999999e+00 -8.256108849411650e-01 -1.696570384383008e-17
 1.429999999999999e+00 -8.256108849411650e-01 -1.696570384383008e-17
 1.429999999999999e+00 -8.256108849411650e-01 -1.696570384383008e-17
 1.429999999999999e+00 -8.256108849411650e-01 -1.696570384383008e-17
 1.429999999999999e+00 -8.256108849411650e-01 -1.696570384383008e-17
 1.429999999999999e+00 -8.256108849411650e-01 -1.696570384383008e-17
 1.429999999999999e+00 -8.256108849411650e-01 -1.696570384383008e-17
 1.429999999999999e+00 -8.256108849411650e-01 -1.696570384383008e-17
 1.429999999999999e+00 -8.256108849411650e-01 -1.696570384383008e-17
 1.429999999999999e+00 -8.256108849411650e-01 -1.696570384383008e-17
 1.429999999999999e+00 -8.256108849411650e-01 -1.696570384383008e-17
 1.429999999999999e+00 -8.256108849411650e-01 -1.696570384383008e-17
 1.429999999999999e+00 -8.256108849411650e-01 -1.696570384383008e-17
 1.429999999999999e+00 -8.256108849411650e-01 -1.696570384383008e-17
 1.429999999999999e+00 -8.256108849411650e-01 -1.696570384383008e-17
 1.429999999999999e+00 -8.256108849411650e-01 -1.696570384383008e-17
 1.429999999999999e+00 -8.256108849411650e-01 -1.696570384383008e-17
 1.429999999999999e+00 -8.256108849411650e-01 -1.696570384383008e-17
 1.429999999999999e+00 -8.256108849411650e-01 -1.696570384383008e-17
 1.429999999999999e+00 -8.256108849411650e-01 -1.696570384383008e-17
 1.429999999999999e+00 -8.256108849411650e-01 -1.696570384383008e-17
 1.429999999999999e+00 -8.256108849411650e-01 -1.696570384383008e-17
 1.429999999999999e+00 -8.256108849411650e-01 -1.696570384383008e-17
 1.429999999999999e+00 -8.256108849411650e-01 -1.696570384383008e-17
 1.429999999999999e+00 -8.256108849411650e-01 -1.696570384383008e-17
 1.429999999999999e+00 -8.256108849411650e-01 -1.696570384383008e-17
 1.429999999999999e+00 -8.256108849411650e-01 -1.696570384383008e-17
 1.429999999999999e+00 -8.256108849411650e-01 -1.696570384383008e-17
 1.429999999999999e+00 -8.256108849411650e-01 -1.696570384383008e-17
 1.429999999999999e+00 -8.256108849411650e-01 -1.696570384383008e-17
 1.429999999999999e+00 -8.256108849411650e-01 -1.696570384383008e-17
 1.429999999999999e+00 -8.256108849411650e-01 -1.696570384383008e-17
 1.429999999999999e+00 -8.256108849411650e-01 -1.696570384383008e-17
 1.429999999999999e+00 -8.256108849411650e-01 -1.696570384383008e-17
 1.429999999999999e+00 -8.256108849411650e-01 -1.696570384383008e-17
 1.429999999999999e+00 -8.256108849411650e-01 -1.696570384383008e-17
 1.429999999999999e+00 -8.256108849411650e-01 -1.696570384383008e-17
 1.429999999999999e+00 -8.256108849411650e-01 -1.696570384383008e-17
 1.429999999999999e+00 -8.256108849411650e-01 -1.696570384383008e-17
 1.429999999999999e+00 -8.256108849411650e-01 -1.696570384383008e-17
 1.429999999999999e+00 -8.256108849411650e-01 -1.696570384383008e-17
 1.429999999999999e+00 -8.256108849411650e-01 -1.696570384383008e-17
 1.429999999999999e+00 -8.256108849411650e-01 -1.696570384383008e-17
 1.429999999999999e+00 -8.256108849411650e-01 -1.696570384383008e-17
 1.429999999999999e+00 -8.256108849411650e-01 -1.696570384383008e-17
 1.429999999999999e+00 -8.256108849411650e-01 -1.696570384383008e-17
 1.429999999999999e+00 -8.256108849411650e-01 -1.696570384383008e-17
 1.429999999999999e+00 -8.256108849411650e-01 -1.696570384383008e-17
 1.429999999999999e+00 -8.256108849411650e-01 -1.696570384383008e-17
 1.429999999999999e+00 -8.256108849411650e-01 -1.696570384383008e-17
 1.429999999999999e+00 -8.256108849411650e-01 -1.696570384383008e-17
 1.429999999999999e+00 -8.256108849411650e-01 -1.696570384383008e-17
 1.429999999999999e+00 -8.256108849411650e-01 -1.696570384383008e-17
 1.429999999999999e+00 -8.256108849411650e-01 -1.696570384383008e-17
 1.429999999999999e+00 -8.256108849411650e-01 -1.696570384383008e-17
 1.429999999999999e+00 -8.256108849411650e-01 -1.696570384383008e-17
 1.429999999999999e+00 -8.256108849411650e-01 -1.696570384383008e-17
 1.429999999999999e+00 -8.256108849411650e-01 -1.696570384383008e-17
 1.429999999999999e+00 -8.256108849411650e-01 -1.696570384383008e-17
 1.429999999999999e+00 -8.256108849411650e-01 -1.696570384383008e-17
 1.429999999999999e+00 -8.256108849411650e-01 -1.696570384383008e-17
 1.429999999999999e+00 -8.256108849411650e-01 -1.696570384383008e-17
 1.429999999999999e+00 -8.256108849411650e-01 -1.696570384383008e-17
 1.429999999999999e+00 -8.256108849411650e-01 -1.696570384383008e-17
 1.429999999999999e+00 -8.256108849411650e-01 -1.696570384383008e-17
 1.429999999999999e+00 -8.256108849411650e-01 -1.696570384383008e-17
 1.429999999999999e+00 -8.256108849411650e-01 -1.696570384383008e-17
 1.429999999999999e+00 -8.256108849411650e-01 -1.696570384383008e-17
 1.429999999999999e+00 -8.256108849411650e-01 -1.696570384383008e-17
 1.429999999999999e+00 -8.256108849411650e-01 -1.696570384383008e-17
 1.429999999999999e+00 -8.256108849411650e-01 -1.696570384383008e-17
 1.429999999999999e+00 -8.256108849411650e-01 -1.696570384383008e-17
 1.429999999999999e+00 -8.256108849411650e-01 -1.696570384383008e-17
 1.429999999999999e+00 -8.256108849411650e-01 -1.696570384383008e-17
 1.429999999999999e+00 -8.256108849411650e-01 -1.696570384383008e-17
 1.429999999999999e+00 -8.256108849411650e-01 -1.696570384383008e-17
 1.429999999999999e+00 -8.256108849411650e-01 -1.696570384383008e-17
 1.429999999999999e+00 -8.256108849411650e-01 -1.696570384383008e-17
 1.429999999999999e+00 -8.256108849411650e-01 -1.696570384383008e-17
 1.429999999999999e+00 -8.256108849411650e-01 -1.696570384383008e-17
 1.429999999999999e+00 -8.256108849411650e-01 -1.696570384383008e-17
 1.429999999999999e+00 -8.256108849411650e-01 -1.696570384383008e-17
 1.429999999999999e+00 -8.256108849411650e-01 -1.696570384383008e-17
 1.429999999999999e+00 -8.256108849411650e-01 -1.696570384383008e-17
 1.429999999999999e+00 -8.256108849411650e-01 -1.696570384383008e-17
 1.429999999999999e+00 -8.256108849411650e-01 -1.696570384383008e-17
 1.429999999999999e+00 -8.256108849411650e-01 -1.696570384383008e-17
 1.429999999999999e+00 -8.256108849411650e-01 -1.696570384383008e-17
 1.429999999999999e+00 -8.256108849411650e-01 -1.696570384383008e-17
 1.429999999999999e+00 -8.256108849411650e-01 -1.696570384383008e-17
 1.429999999999999e+00 -8.256108849411650e-01 -1.696570384383008e-17
 1.429999999999999e+00 -8.256108849411650e-01 -1.696570384383008e-17
 1.429999999999999e+00 -8.256108849411650e-01 -1.696570384383008e-17
 1.429999999999999e+00 -8.256108849411650e-01 -1.696570384383008e-17
 1.429999999999999e+00 -8.256108849411650e-01 -1.696570384383008e-17
 1.429999999999999e+00 -8.256108849411650e-01 -1.696570384383008e-17
 1.429999999999999e+00 -8.256108849411650e-01 -1.696570384383008e-17
 1.429999999999999e+00 -8.256108849411650e-01 -1.696570384383008e-17
 1.429999999999999e+00 -8.256108849411650e-01 -1.696570384383008e-17
 1.429999999999999e+00 -8.256108849411650e-01 -1.696570384383008e-17
 1.429999999999999e+00 -8.256108849411650e-01 -1.696570384383008e-17
 1.429999999999999e+00 -8.256108849411650e-01 -1.696570384383008e-17
 1.429999999999999e+00 -8.256108849411650e-01 -1.696570384383008e-17
 1.429999999999999e+00 -8.256108849411650e-01 -1.696570384383008e-17
 1.429999999999999e+00 -8.256108849411650e-01 -1.696570384383008e-17
 1.429999999999999e+00 -8.256108849411650e-01 -1.696570384383008e-17
 1.429999999999999e+00 -8.256108849411650e-01 -1.696570384383008e-17
 1.429999999999999e+00 -8.256108849411650e-01 -1.696570384383008e-17
 1.429999999999999e+00 -8.256108849411650e-01 -1.696570384383008e-17
 1.429999999999999e+00 -8.256108849411650e-01 -1.696570384383008e-17
 1.429999999999999e+00 -8.256108849411650e-01 -1.696570384383008e-17
 1.429999999999999e+00 -8.256108849411650e-01 -1.696570384383008e-17
 1.429999999999999e+00 -8.256108849411650e-01 -1.696570384383008e-17
 1.429999999999999e+00 -8.256108849411650e-01 -1.696570384383008e-17
 1.429999999999999e+00 -8.256108849411650e-01 -1.696570384383008e-17
 1.429999999999999e+00 -8.256108849411650e-01 -1.696570384383008e-17
 1.429999999999999e+00 -8.256108849411650e-01 -1.696570384383008e-17
 1.429999999999999e+00 -8.256108849411650e-01 -1.696570384383008e-17
 1.429999999999999e+00 -8.256108849411650e-01 -1.696570384383008e-17
 1.429999999999999e+00 -8.256108849411650e-01 -1.696570384383008e-17
 1.429999999999999e+00 -8.256108849411650e-01 -1.696570384383008e-17
 1.429999999999999e+00 -8.256108849411650e-01 -1.696570384383008e-17
 1.429999999999999e+00 -8.256108849411650e-01 -1.696570384383008e-17
 1.429999999999999e+00 -8.256108849411650e-01 -1.696570384383008e-17
 1.429999999999999e+00 -8.256108849411650e-01 -1.696570384383008e-17
 1.429999999999999e+00 -8.256108849411650e-01 -1.696570384383008e-17
 1.429999999999999e+00 -8.256108849411650e-01 -1.696570384383008e-17
 1.429999999999999e+00 -8.256108849411650e-01 -1.696570384383008e-17
 1.429999999999999e+00 -8.256108849411650e-01 -1.696570384383008e-17
 1.429999999999999e+00 -8.256108849411650e-01 -1.696570384383008e-17
 1.429999999999999e+00 -8.256108849411650e-01 -1.696570384383008e-17
 1.429999999999999e+00 -8.256108849411650e-01 -1.696570384383008e-17
 1.429999999999999e+00 -8.256108849411650e-01 -1.696570384383008e-17
 1.429999999999999e+00 -8.256108849411650e-01 -1.696570384383008e-17
 1.429999999999999e+00 -8.256108849411650e-01 -1.696570384383008e-17
 1.429999999999999e+00 -8.256108849411650e-01 -1.696570384383008e-17
 1.429999999999999e+00 -8.256108849411650e-01 -1.696570384383008e-17
 1.429999999999999e+00 -8.256108849411650e-01 -1.696570384383008e-17
 1.429999999999999e+00 -8.256108849411650e-01 -1.696570384383008e-17
 1.429999999999999e+00 -8.256108849411650e-01 -1.696570384383008e-17
 1.429999999999999e+00 -8.256108849411650e-01 -1.696570384383008e-17
 1.429999999999999e+00 -8.256108849411650e-01 -1.696570384383008e-17
 1.429999999999999e+00 -8.256108849411650e-01 -1.696570384383008e-17
 1.429999999999999e+00 -8.256108849411650e-01 -1.696570384383008e-17
 1.429999999999999e+00 -8.256108849411650e-01 -1.696570384383008e-17
 1.429999999999999e+00 -8.256108849411650e-01 -1.696570384383008e-17
 1.429999999999999e+00 -8.256108849411650e-01 -1.696570384383008e-17
 1.429999999999999e+00 -8.256108849411650e-01 -1.696570384383008e-17
 1.429999999999999e+00 -8.256108849411650e-01 -1.696570384383008e-17
 1.429999999999999e+00 -8.256108849411650e-01 -1.696570384383008e-17
 1.429999999999999e+00 -8.256108849411650e-01 -1.696570384383008e-17
 1.429999999999999e+00 -8.256108849411650e-01 -1.696570384383008e-17
 1.429999999999999e+00 -8.256108849411650e-01 -1.696570384383008e-17
 1.429999999999999e+00 -8.256108849411650e-01 -1.696570384383008e-17
 1.429999999999999e+00 -8.256108849411650e-01 -1.696570384383008e-17
 1.429999999999999e+00 -8.256108849411650e-01 -1.696570384383008e-17
 1.429999999999999e+00 -8.256108849411650e-01 -1.696570384383008e-17
 1.429999999999999e+00 -8.256108849411650e-01 -1.696570384383008e-17
 1.429999999999999e+00 -8.256108849411650e-01 -1.696570384383008e-17
 1.429999999999999e+00 -8.256108849411650e-01 -1.696570384383008e-17
 1.429999999999999e+00 -8.256108849411650e-01 -1.696570384383008e-17
 1.429999999999999e+00 -8.256108849411650e-01 -1.696570384383008e-17
 1.429999999999999e+00 -8.256108849411650e-01 -1.696570384383008e-17
 1.429999999999999e+00 -8.256108849411650e-01 -1.696570384383008e-17
 1.429999999999999e+00 -8.256108849411650e-01 -1.696570384383008e-17
 1.429999999999999e+00 -8.256108849411650e-01 -1.696570384383008e-17
 1.429999999999999e+00 -8.256108849411650e-01 -1.696570384383008e-17
 1.429999999999999e+00 -8.256108849411650e-01 -1.696570384383008e-17
 1.429999999999999e+00 -8.256108849411650e-01 -1.696570384383008e-17
 1.429999999999999e+00 -8.256108849411650e-01 -1.696570384383008e-17
 1.429999999999999e+00 -8.256108849411650e-01 -1.696570384383008e-17
 1.429999999999999e+00 -8.256108849411650e-01 -1.696570384383008e-17
 1.429999999999999e+00 -8.256108849411650e-01 -1.696570384383008e-17
 1.429999999999999e+00 -8.256108849411650e-01 -1.696570384383008e-17
 1.429999999999999e+00 -8.256108849411650e-01 -1.696570384383008e-17
 1.429999999999999e+00 -8.256108849411650e-01 -1.696570384383008e-17
 1.429999999999999e+00 -8.256108849411650e-01 -1.696570384383008e-17
 1.429999999999999e+00 -8.256108849411650e-01 -1.696570384383008e-17
 1.429999999999999e+00 -8.256108849411650e-01 -1.696570384383008e-17
 1.429999999999999e+00 -8.256108849411650e-01 -1.696570384383008e-17
 1.429999999999999e+00 -8.256108849411650e-01 -1.696570384383008e-17
 1.429999999999999e+00 -8.256108849411650e-01 -1.696570384383008e-17
 1.429999999999999e+00 -8.256108849411650e-01 -1.696570384383008e-17
 1.429999999999999e+00 -8.256108849411650e-01 -1.696570384383008e-17
 1.429999999999999e+00 -8.256108849411650e-01 -1.696570384383008e-17
 1.429999999999999e+00 -8.256108849411650e-01 -1.696570384383008e-17
 1.429999999999999e+00 -8.256108849411650e-01 -1.696570384383008e-17
 1.429999999999999e+00 -8.256108849411650e-01 -1.696570384383008e-17
 1.429999999999999e+00 -8.256108849411650e-01 -1.696570384383008e-17
 1.429999999999999e+00 -8.256108849411650e-01 -1.696570384383008e-17
 1.429999999999999e+00 -8.256108849411650e-01 -1.696570384383008e-17
 1.429999999999999e+00 -8.256108849411650e-01 -1.696570384383008e-17
 1.429999999999999e+00 -8.256108849411650e-01 -1.696570384383008e-17
 1.429999999999999e+00 -8.256108849411650e-01 -1.696570384383008e-17
-1.429999999999999e+00  8.256108849411650e-01  1.696570384383008e-17
 1.429999999999999e+00 -8.256108849411650e-01 -1.696570384383008e-17
 1.429999999999999e+00 -8.256108849411650e-01 -1.696570384383008e-17
 1.429999999999999e+00 -8.256108849411650e-01 -1.696570384383008e-17
 1.429999999999999e+00 -8.256108849411650e-01 -1.696570384383008e-17
 1.429999999999999e+00 -8.256108849411650e-01 -1.696570384383008e-17
 1.429999999999999e+00 -8.256108849411650e-01 -1.696570384383008e-17
 1.429999999999999e+00 -8.256108849411650e-01 -1.696570384383008e-17
 1.429999999999999e+00 -8.256108849411650e-01 -1.696570384383008e-17
 1.429999999999999e+00 -8.256108849411650e-01 -1.696570384383008e-17
 1.429999999999999e+00 -8.256108849411650e-01 -1.696570384383008e-17
 1.429999999999999e+00 -8.256108849411650e-01 -1.696570384383008e-17
 1.429999999999999e+00 -8.256108849411650e-01 -1.696570384383008e-17
 1.429999999999999e+00 -8.256108849411650e-01 -1.696570384383008e-17
 1.429999999999999e+00 -8.256108849411650e-01 -1.696570384383008e-17
 1.429999999999999e+00 -8.256108849411650e-01 -1.696570384383008e-17
 1.429999999999999e+00 -8.256108849411650e-01 -1.696570384383008e-17
 1.429999999999999e+00 -8.256108849411650e-01 -1.696570384383008e-17
 1.429999999999999e+00 -8.256108849411650e-01 -1.696570384383008e-17
 1.429999999999999e+00 -8.256108849411650e-01 -1.696570384383008e-17
 1.429999999999999e+00 -8.256108849411650e-01 -1.696570384383008e-17
 1.429999999999999e+00 -8.256108849411650e-01 -1.696570384383008e-17
 1.429999999999999e+00 -8.256108849411650e-01 -1.696570384383008e-17
 1.429999999999999e+00 -8.256108849411650e-01 -1.696570384383008e-17
 1.429999999999999e+00 -8.256108849411650e-01 -1.696570384383008e-17
 1.429999999999999e+00 -8.256108849411650e-01 -1.696570384383008e-17
 1.429999999999999e+00 -8.256108849411650e-01 -1.696570384383008e-17
 1.429999999999999e+00 -8.256108849411650e-01 -1.696570384383008e-17
 1.429999999999999e+00 -8.256108849411650e-01 -1.696570384383008e-17
 1.429999999999999e+00 -8.256108849411650e-01 -1.696570384383008e-17
 1.429999999999999e+00 -8.256108849411650e-01 -1.696570384383008e-17
 1.429999999999999e+00 -8.256108849411650e-01 -1.696570384383008e-17
 1.429999999999999e+00 -8.256108849411650e-01 -1.696570384383008e-17
 1.429999999999999e+00 -8.256108849411650e-01 -1.696570384383008e-17
 1.429999999999999e+00 -8.256108849411650e-01 -1.696570384383008e-17
 1.429999999999999e+00 -8.256108849411650e-01 -1.696570384383008e-17
 1.429999999999999e+00 -8.256108849411650e-01 -1.696570384383008e-17
 1.429999999999999e+00 -8.256108849411650e-01 -1.696570384383008e-17
 1.429999999999999e+00 -8.256108849411650e-01 -1.696570384383008e-17
 1.429999999999999e+00 -8.256108849411650e-01 -1.696570384383008e-17
 1.429999999999999e+00 -8.256108849411650e-01 -1.696570384383008e-17
 1.429999999999999e+00 -8.256108849411650e-01 -1.696570384383008e-17
 1.429999999999999e+00 -8.256108849411650e-01 -1.696570384383008e-17
 1.429999999999999e+00 -8.256108849411650e-01 -1.696570384383008e-17
 1.429999999999999e+00 -8.256108849411650e-01 -1.696570384383008e-17
 1.429999999999999e+00 -8.256108849411650e-01 -1.696570384383008e-17
 1.429999999999999e+00 -8.256108849411650e-01 -1.696570384383008e-17
 1.429999999999999e+00 -8.256108849411650e-01 -1.696570384383008e-17
 1.429999999999999e+00 -8.256108849411650e-01 -1.696570384383008e-17
 1.429999999999999e+00 -8.256108849411650e-01 -1.696570384383008e-17
 1.429999999999999e+00 -8.256108849411650e-01 -1.696570384383008e-17
 1.429999999999999e+00 -8.256108849411650e-01 -1.696570384383008e-17
 1.429999999999999e+00 -8.256108849411650e-01 -1.696570384383008e-17
 1.429999999999999e+00 -8.256108849411650e-01 -1.696570384383008e-17
 1.429999999999999e+00 -8.256108849411650e-01 -1.696570384383008e-17
 1.429999999999999e+00 -8.256108849411650e-01 -1.696570384383008e-17
 1.429999999999999e+00 -8.256108849411650e-01 -1.696570384383008e-17
 1.429999999999999e+00 -8.256108849411650e-01 -1.696570384383008e-17
 1.429999999999999e+00 -8.256108849411650e-01 -1.696570384383008e-17
 1.429999999999999e+00 -8.256108849411650e-01 -1.696570384383008e-17
 1.429999999999999e+00 -8.256108849411650e-01 -1.696570384383008e-17
 1.429999999999999e+00 -8.256108849411650e-01 -1.696570384383008e-17
 1.429999999999999e+00 -8.256108849411650e-01 -1.696570384383008e-17
 1.429999999999999e+00 -8.256108849411650e-01 -1.696570384383008e-17
 1.429999999999999e+00 -8.256108849411650e-01 -1.696570384383008e-17
 1.429999999999999e+00 -8.256108849411650e-01 -1.696570384383008e-17
 1.429999999999999e+00 -8.256108849411650e-01 -1.696570384383008e-17
 1.429999999999999e+00 -8.256108849411650e-01 -1.696570384383008e-17
 1.429999999999999e+00 -8.256108849411650e-01 -1.696570384383008e-17
 1.429999999999999e+00 -8.256108849411650e-01 -1.696570384383008e-17
 1.429999999999999e+00 -8.256108849411650e-01 -1.696570384383008e-17
 1.429999999999999e+00 -8.256108849411650e-01 -1.696570384383008e-17
 1.429999999999999e+00 -8.256108849411650e-01 -1.696570384383008e-17
 1.429999999999999e+00 -8.256108849411650e-01 -1.696570384383008e-17
 1.429999999999999e+00 -8.256108849411650e-01 -1.696570384383008e-17
 1.429999999999999e+00 -8.256108849411650e-01 -1.696570384383008e-17
 1.429999999999999e+00 -8.256108849411650e-01 -1.696570384383008e-17
 1.429999999999999e+00 -8.256108849411650e-01 -1.696570384383008e-17
 1.429999999999999e+00 -8.256108849411650e-01 -1.696570384383008e-17
 1.429999999999999e+00 -8.256108849411650e-01 -1.696570384383008e-17
 1.429999999999999e+00 -8.256108849411650e-01 -1.696570384383008e-17
 1.429999999999999e+00 -8.256108849411650e-01 -1.696570384383008e-17
 1.429999999999999e+00 -8.256108849411650e-01 -1.696570384383008e-17
 1.429999999999999e+00 -8.256108849411650e-01 -1.696570384383008e-17
 1.429999999999999e+00 -8.256108849411650e-01 -1.696570384383008e-17
 1.429999999999999e+00 -8.256108849411650e-01 -1.696570384383008e-17
 1.429999999999999e+00 -8.256108849411650e-01 -1.696570384383008e-17
 1.429999999999999e+00 -8.256108849411650e-01 -1.696570384383008e-17
 1.429999999999999e+00 -8.256108849411650e-01 -1.696570384383008e-17
 1.429999999999999e+00 -8.256108849411650e-01 -1.696570384383008e-17
 1.429999999999999e+00 -8.256108849411650e-01 -1.696570384383008e-17
 1.429999999999999e+00 -8.256108849411650e-01 -1.696570384383008e-17
 1.429999999999999e+00 -8.256108849411650e-01 -1.696570384383008e-17
 1.429999999999999e+00 -8.256108849411650e-01 -1.696570384383008e-17
 1.429999999999999e+00 -8.256108849411650e-01 -1.696570384383008e-17
 1.429999999999999e+00 -8.256108849411650e-01 -1.696570384383008e-17
 1.429999999999999e+00 -8.256108849411650e-01 -1.696570384383008e-17
 1.429999999999999e+00 -8.256108849411650e-01 -1.696570384383008e-17
 1.429999999999999e+00 -8.256108849411650e-01 -1.696570384383008e-17
 1.429999999999999e+00 -8.256108849411650e-01 -1.696570384383008e-17
 1.429999999999999e+00 -8.256108849411650e-01 -1.696570384383008e-17
 1.429999999999999e+00 -8.256108849411650e-01 -1.696570384383008e-17
 1.429999999999999e+00 -8.256108849411650e-01 -1.696570384383008e-17
 1.429999999999999e+00 -8.256108849411650e-01 -1.696570384383008e-17
 1.429999999999999e+00 -8.256108849411650e-01 -1.696570384383008e-17
 1.429999999999999e+00 -8.256108849411650e-01 -1.696570384383008e-17
 1.429999999999999e+00 -8.256108849411650e-01 -1.696570384383008e-17
 1.429999999999999e+00 -8.256108849411650e-01 -1.696570384383008e-17
 1.429999999999999e+00 -8.256108849411650e-01 -1.696570384383008e-17
 1.429999999999999e+00 -8.256108849411650e-01 -1.696570384383008e-17
 1.429999999999999e+00 -8.256108849411650e-01 -1.696570384383008e-17
 1.429999999999999e+00 -8.256108849411650e-01 -1.696570384383008e-17
 1.429999999999999e+00 -8.256108849411650e-01 -1.696570384383008e-17
 1.429999999999999e+00 -8.256108849411650e-01 -1.696570384383008e-17
 1.429999999999999e+00 -8.256108849411650e-01 -1.696570384383008e-17
 1.429999999999999e+00 -8.256108849411650e-01 -1.696570384383008e-17
 1.429999999999999e+00 -8.256108849411650e-01 -1.696570384383008e-17
 1.429999999999999e+00 -8.256108849411650e-01 -1.696570384383008e-17
 1.429999999999999e+00 -8.256108849411650e-01 -1.696570384383008e-17
 1.429999999999999e+00 -8.256108849411650e-01 -1.696570384383008e-17
 1.429999999999999e+00 -8.256108849411650e-01 -1.696570384383008e-17
 1.429999999999999e+00 -8.256108849411650e-01 -1.696570384383008e-17
 1.429999999999999e+00 -8.256108849411650e-01 -1.696570384383008e-17
 1.429999999999999e+00 -8.256108849411650e-01 -1.696570384383008e-17
 1.429999999999999e+00 -8.256108849411650e-01 -1.696570384383008e-17
 1.429999999999999e+00 -8.256108849411650e-01 -1.696570384383008e-17
 1.429999999999999e+00 -8.256108849411650e-01 -1.696570384383008e-17
 1.429999999999999e+00 -8.256108849411650e-01 -1.696570384383008e-17
 1.429999999999999e+00 -8.256108849411650e-01 -1.696570384383008e-17
 1.429999999999999e+00 -8.256108849411650e-01 -1.696570384383008e-17
 1.429999999999999e+00 -8.256108849411650e-01 -1.696570384383008e-17
 1.429999999999999e+00 -8.256108849411650e-01 -1.696570384383008e-17
 1.429999999999999e+00 -8.256108849411650e-01 -1.696570384383008e-17
 1.429999999999999e+00 -8.256108849411650e-01 -1.696570384383008e-17
 1.429999999999999e+00 -8.256108849411650e-01 -1.696570384383008e-17
 1.429999999999999e+00 -8.256108849411650e-01 -1.696570384383008e-17
 1.429999999999999e+00 -8.256108849411650e-01 -1.696570384383008e-17
 1.429999999999999e+00 -8.256108849411650e-01 -1.696570384383008e-17
 1.429999999999999e+00 -8.256108849411650e-01 -1.696570384383008e-17
 1.429999999999999e+00 -8.256108849411650e-01 -1.696570384383008e-17
 1.429999999999999e+00 -8.256108849411650e-01 -1.696570384383008e-17
 1.429999999999999e+00 -8.256108849411650e-01 -1.696570384383008e-17
 1.429999999999999e+00 -8.256108849411650e-01 -1.696570384383008e-17
 1.429999999999999e+00 -8.256108849411650e-01 -1.696570384383008e-17
 1.429999999999999e+00 -8.256108849411650e-01 -1.696570384383008e-17
 1.429999999999999e+00 -8.256108849411650e-01 -1.696570384383008e-17
 1.429999999999999e+00 -8.256108849411650e-01 -1.696570384383008e-17
 1.429999999999999e+00 -8.256108849411650e-01 -1.696570384383008e-17
 1.429999999999999e+00 -8.256108849411650e-01 -1.696570384383008e-17
 1.429999999999999e+00 -8.256108849411650e-01 -1.696570384383008e-17
 1.429999999999999e+00 -8.256108849411650e-01 -1.696570384383008e-17
 1.429999999999999e+00 -8.256108849411650e-01 -1.696570384383008e-17
 1.429999999999999e+00 -8.256108849411650e-01 -1.696570384383008e-17
 1.429999999999999e+00 -8.256108849411650e-01 -1.696570384383008e-17
 1.429999999999999e+00 -8.256108849411650e-01 -1.696570384383008e-17
 1.429999999999999e+00 -8.256108849411650e-01 -1.696570384383008e-17
 1.429999999999999e+00 -8.256108849411650e-01 -1.696570384383008e-17
 1.429999999999999e+00 -8.256108849411650e-01 -1.696570384383008e-17
 1.429999999999999e+00 -8.256108849411650e-01 -1.696570384383008e-17
 1.429999999999999e+00 -8.256108849411650e-01 -1.696570384383008e-17
 1.429999999999999e+00 -8.256108849411650e-01 -1.696570384383008e-17
 1.429999999999999e+00 -8.256108849411650e-01 -1.696570384383008e-17
 1.429999999999999e+00 -8.256108849411650e-01 -1.696570384383008e-17
 1.429999999999999e+00 -8.256108849411650e-01 -1.696570384383008e-17
 1.429999999999999e+00 -8.256108849411650e-01 -1.696570384383008e-17
 1.429999999999999e+00 -8.256108849411650e-01 -1.696570384383008e-17
 1.429999999999999e+00 -8.256108849411650e-01 -1.696570384383008e-17
 1.429999999999999e+00 -8.256108849411650e-01 -1.696570384383008e-17
 1.429999999999999e+00 -8.256108849411650e-01 -1.696570384383008e-17
 1.429999999999999e+00 -8.256108849411650e-01 -1.696570384383008e-17
 1.429999999999999e+00 -8.256108849411650e-01 -1.696570384383008e-17
 1.429999999999999e+00 -8.256108849411650e-01 -1.696570384383008e-17
 1.429999999999999e+00 -8.256108849411650e-01 -1.696570384383008e-17
 1.429999999999999e+00 -8.256108849411650e-01 -1.696570384383008e-17
 1.429999999999999e+00 -8.256108849411650e-01 -1.696570384383008e-17
 1.429999999999999e+00 -8.256108849411650e-01 -1.696570384383008e-17
 1.429999999999999e+00 -8.256108849411650e-01 -1.696570384383008e-17
 1.429999999999999e+00 -8.256108849411650e-01 -1.696570384383008e-17
 1.429999999999999e+00 -8.256108849411650e-01 -1.696570384383008e-17
 1.429999999999999e+00 -8.256108849411650e-01 -1.696570384383008e-17
 1.429999999999999e+00 -8.256108849411650e-01 -1.696570384383008e-17
 1.429999999999999e+00 -8.256108849411650e-01 -1.696570384383008e-17
 1.429999999999999e+00 -8.256108849411650e-01 -1.696570384383008e-17
 1.429999999999999e+00 -8.256108849411650e-01 -1.696570384383008e-17
 1.429999999999999e+00 -8.256108849411650e-01 -1.696570384383008e-17
 1.429999999999999e+00 -8.256108849411650e-01 -1.696570384383008e-17
 1.429999999999999e+00 -8.256108849411650e-01 -1.696570384383008e-17
 1.429999999999999e+00 -8.256108849411650e-01 -1.696570384383008e-17
 1.429999999999999e+00 -8.256108849411650e-01 -1.696570384383008e-17
 1.429999999999999e+00 -8.256108849411650e-01 -1.696570384383008e-17
 1.429999999999999e+00 -8.256108849411650e-01 -1.696570384383008e-17
 1.429999999999999e+00 -8.256108849411650e-01 -1.696570384383008e-17
 1.429999999999999e+00 -8.256108849411650e-01 -1.696570384383008e-17
 1.429999999999999e+00 -8.256108849411650e-01 -1.696570384383008e-17
 1.429999999999999e+00 -8.256108849411650e-01 -1.696570384383008e-17
 1.429999999999999e+00 -8.256108849411650e-01 -1.696570384383008e-17
 1.429999999999999e+00 -8.256108849411650e-01 -1.696570384383008e-17
 1.429999999999999e+00 -8.256108849411650e-01 -1.696570384383008e-17
 1.429999999999999e+00 -8.256108849411650e-01 -1.696570384383008e-17
 1.429999999999999e+00 -8.256108849411650e-01 -1.696570384383008e-17
 1.429999999999999e+00 -8.256108849411650e-01 -1.696570384383008e-17
 1.429999999999999e+00 -8.256108849411650e-01 -1.696570384383008e-17
 1.429999999999999e+00 -8.256108849411650e-01 -1.696570384383008e-17
 1.429999999999999e+00 -8.256108849411650e-01 -1.696570384383008e-17
 1.429999999999999e+00 -8.256108849411650e-01 -1.696570384383008e-17
 1.429999999999999e+00 -8.256108849411650e-01 -1.696570384383008e-17
 1.429999999999999e+00 -8.256108849411650e-01 -1.696570384383008e-17
 1.429999999999999e+00 -8.256108849411650e-01 -1.696570384383008e-17
 1.429999999999999e+00 -8.256108849411650e-01 -1.696570384383008e-17
 1.429999999999999e+00 -8.256108849411650e-01 -1.696570384383008e-17
 1.429999999999999e+00 -8.256108849411650e-01 -1.696570384383008e-17
 1.429999999999999e+00 -8.256108849411650e-01 -1.696570384383008e-17
 1.429999999999999e+00 -8.256108849411650e-01 -1.696570384383008e-17
 1.429999999999999e+00 -8.256108849411650e-01 -1.696570384383008e-17
 1.429999999999999e+00 -8.256108849411650e-01 -1.696570384383008e-17
 1.429999999999999e+00 -8.256108849411650e-01 -1.696570384383008e-17
 1.429999999999999e+00 -8.256108849411650e-01 -1.696570384383008e-17
 1.429999999999999e+00 -8.256108849411650e-01 -1.696570384383008e-17
 1.429999999999999e+00 -8.256108849411650e-01 -1.696570384383008e-17
 1.429999999999999e+00 -8.256108849411650e-01 -1.696570384383008e-17
 1.429999999999999e+00 -8.256108849411650e-01 -1.696570384383008e-17
 1.429999999999999e+00 -8.256108849411650e-01 -1.696570384383008e-17
 1.429999999999999e+00 -8.256108849411650e-01 -1.696570384383008e-17
 1.429999999999999e+00 -8.256108849411650e-01 -1.696570384383008e-17
 1.429999999999999e+00 -8.256108849411650e-01 -1.696570384383008e-17
 1.429999999999999e+00 -8.256108849411650e-01 -1.696570384383008e-17
 1.429999999999999e+00 -8.256108849411650e-01 -1.696570384383008e-17
 1.429999999999999e+00 -8.256108849411650e-01 -1.696570384383008e-17
 1.429999999999999e+00 -8.256108849411650e-01 -1.696570384383008e-17
 1.429999999999999e+00 -8.256108849411650e-01 -1.696570384383008e-17
 1.429999999999999e+00 -8.256108849411650e-01 -1.696570384383008e-17
 1.429999999999999e+00 -8.256108849411650e-01 -1.696570384383008e-17
 1.429999999999999e+00 -8.256108849411650e-01 -1.696570384383008e-17
 1.429999999999999e+00 -8.256108849411650e-01 -1.696570384383008e-17
 1.429999999999999e+00 -8.256108849411650e-01 -1.696570384383008e-17
 1.429999999999999e+00 -8.256108849411650e-01 -1.696570384383008e-17
 1.429999999999999e+00 -8.256108849411650e-01 -1.696570384383008e-17
 1.429999999999999e+00 -8.256108849411650e-01 -1.696570384383008e-17
 1.429999999999999e+00 -8.256108849411650e-01 -1.696570384383008e-17
 1.429999999999999e+00 -8.256108849411650e-01 -1.696570384383008e-17
 1.429999999999999e+00 -8.256108849411650e-01 -1.696570384383008e-17
 1.429999999999999e+00 -8.256108849411650e-01 -1.696570384383008e-17
 1.429999999999999e+00 -8.256108849411650e-01 -1.696570384383008e-17
 1.429999999999999e+00 -8.256108849411650e-01 -1.696570384383008e-17
 1.429999999999999e+00 -8.256108849411650e-01 -1.696570384383008e-17
 1.429999999999999e+00 -8.256108849411650e-01 -1.696570384383008e-17
 1.429999999999999e+00 -8.256108849411650e-01 -1.696570384383008e-17
 1.429999999999999e+00 -8.256108849411650e-01 -1.696570384383008e-17
 1.429999999999999e+00 -8.256108849411650e-01 -1.696570384383008e-17
 1.429999999999999e+00 -8.256108849411650e-01 -1.696570384383008e-17
 1.429999999999999e+00 -8.256108849411650e-01 -1.696570384383008e-17
 1.429999999999999e+00 -8.256108849411650e-01 -1.696570384383008e-17
 1.429999999999999e+00 -8.256108849411650e-01 -1.696570384383008e-17
 1.429999999999999e+00 -8.256108849411650e-01 -1.696570384383008e-17
 1.429999999999999e+00 -8.256108849411650e-01 -1.696570384383008e-17
 1.429999999999999e+00 -8.256108849411650e-01 -1.696570384383008e-17
 1.429999999999999e+00 -8.256108849411650e-01 -1.696570384383008e-17
 1.429999999999999e+00 -8.256108849411650e-01 -1.696570384383008e-17
 1.429999999999999e+00 -8.256108849411650e-01 -1.696570384383008e-17
 1.429999999999999e+00 -8.256108849411650e-01 -1.696570384383008e-17
 1.429999999999999e+00 -8.256108849411650e-01 -1.696570384383008e-17
 1.429999999999999e+00 -8.256108849411650e-01 -1.696570384383008e-17
 1.429999999999999e+00 -8.256108849411650e-01 -1.696570384383008e-17
 1.429999999999999e+00 -8.256108849411650e-01 -1.696570384383008e-17

VECTORS burgers_vector_local double
-1.666666666666667e-01 -3.333333333333333e-01 -1.666666666666665e-01
1.666666666666667e-01 3.333333333333333e-01 1.666666666666665e-01
-1.666666666666667e-01 -3.333333333333333e-01 -1.666666666666665e-01
-1.666666666666667e-01 -3.333333333333333e-01 -1.666666666666665e-01
-1.666666666666667e-01 -3.333333333333333e-01 -1.666666666666665e-01
-1.666666666666667e-01 -3.333333333333333e-01 -1.666666666666665e-01
-1.666666666666667e-01 -3.333333333333333e-01 -1.666666666666665e-01
-1.666666666666667e-01 -3.333333333333333e-01 -1.666666666666665e-01
-1.666666666666667e-01 -3.333333333333333e-01 -1.666666666666665e-01
-1.666666666666667e-01 -3.333333333333333e-01 -1.666666666666665e-01
-1.666666666666667e-01 -3.333333333333333e-01 -1.666666666666665e-01
-1.666666666666667e-01 -3.333333333333333e-01 -1.666666666666665e-01
-1.666666666666667e-01 -3.333333333333333e-01 -1.666666666666665e-01
-1.666666666666667e-01 -3.333333333333333e-01 -1.666666666666665e-01
-1.666666666666667e-01 -3.333333333333333e-01 -1.666666666666665e-01
-1.666666666666667e-01 -3.333333333333333e-01 -1.666666666666665e-01
-1.666666666666667e-01 -3.333333333333333e-01 -1.666666666666665e-01
-1.666666666666667e-01 -3.333333333333333e-01 -1.666666666666665e-01
-1.666666666666667e-01 -3.333333333333333e-01 -1.666666666666665e-01
-1.666666666666667e-01 -3.333333333333333e-01 -1.666666666666665e-01
-1.666666666666667e-01 -3.333333333333333e-01 -1.666666666666665e-01
-1.666666666666667e-01 -3.333333333333333e-01 -1.666666666666665e-01
-1.666666666666667e-01 -3.333333333333333e-01 -1.666666666666665e-01
-1.666666666666667e-01 -3.333333333333333e-01 -1.666666666666665e-01
-1.666666666666667e-01 -3.333333333333333e-01 -1.666666666666665e-01
-1.666666666666667e-01 -3.333333333333333e-01 -1.666666666666665e-01
-1.666666666666667e-01 -3.333333333333333e-01 -1.666666666666665e-01
-1.666666666666667e-01 -3.333333333333333e-01 -1.666666666666665e-01
-1.666666666666667e-01 -3.333333333333333e-01 -1.666666666666665e-01
-1.666666666666667e-01 -3.333333333333333e-01 -1.666666666666665e-01
-1.666666666666667e-01 -3.333333333333333e-01 -1.666666666666665e-01
-1.666666666666667e-01 -3.333333333333333e-01 -1.666666666666665e-01
-1.666666666666667e-01 -3.333333333333333e-01 -1.666666666666665e-01
-1.666666666666667e-01 -3.333333333333333e-01 -1.666666666666665e-01
-1.666666666666667e-01 -3.333333333333333e-01 -1.666666666666665e-01
-1.666666666666667e-01 -3.333333333333333e-01 -1.666666666666665e-01
-1.666666666666667e-01 -3.333333333333333e-01 -1.666666666666665e-01
-1.666666666666667e-01 -3.333333333333333e-01 -1.666666666666665e-01
-1.666666666666667e-01 -3.333333333333333e-01 -1.666666666666665e-01
-1.666666666666667e-01 -3.333333333333333e-01 -1.666666666666665e-01
-1.666666666666667e-01 -3.333333333333333e-01 -1.666666666666665e-01
-1.666666666666667e-01 -3.333333333333333e-01 -1.666666666666665e-01
-1.666666666666667e-01 -3.333333333333333e-01 -1.666666666666665e-01
-1.666666666666667e-01 -3.333333333333333e-01 -1.666666666666665e-01
-1.666666666666667e-01 -3.333333333333333e-01 -1.666666666666665e-01
-1.666666666666667e-01 -3.333333333333333e-01 -1.666666666666665e-01
-1.666666666666667e-01 -3.333333333333333e-01 -1.666666666666665e-01
-1.666666666666667e-01 -3.333333333333333e-01 -1.666666666666665e-01
-1.666666666666667e-01 -3.333333333333333e-01 -1.666666666666665e-01
-1.666666666666667e-01 -3.333333333333333e-01 -1.666666666666665e-01
-1.666666666666667e-01 -3.333333333333333e-01 -1.666666666666665e-01
-1.666666666666667e-01 -3.333333333333333e-01 -1.666666666666665e-01
-1.666666666666667e-01 -3.333333333333333e-01 -1.666666666666665e-01
-1.666666666666667e-01 -3.333333333333333e-01 -1.666666666666665e-01
-1.666666666666667e-01 -3.333333333333333e-01 -1.666666666666665e-01
-1.666666666666667e-01 -3.333333333333333e-01 -1.666666666666665e-01
-1.666666666666667e-01 -3.333333333333333e-01 -1.666666666666665e-01
-1.666666666666667e-01 -3.333333333333333e-01 -1.666666666666665e-01
-1.666666666666667e-01 -3.333333333333333e-01 -1.666666666666665e-01
-1.666666666666667e-01 -3.333333333333333e-01 -1.666666666666665e-01
-1.666666666666667e-01 -3.333333333333333e-01 -1.666666666666665e-01
-1.666666666666667e-01 -3.333333333333333e-01 -1.666666666666665e-01
-1.666666666666667e-01 -3.333333333333333e-01 -1.666666666666665e-01
-1.666666666666667e-01 -3.333333333333333e-01 -1.666666666666665e-01
-1.666666666666667e-01 -3.333333333333333e-01 -1.666666666666665e-01
-1.666666666666667e-01 -3.333333333333333e-01 -1.666666666666665e-01
-1.666666666666667e-01 -3.333333333333333e-01 -1.666666666666665e-01
-1.666666666666667e-01 -3.333333333333333e-01 -1.666666666666665e-01
-1.666666666666667e-01 -3.333333333333333e-01 -1.666666666666665e-01
-1.666666666666667e-01 -3.333333333333333e-01 -1.666666666666665e-01
-1.666666666666667e-01 -3.333333333333333e-01 -1.666666666666665e-01
-1.666666666666667e-01 -3.333333333333333e-01 -1.666666666666665e-01
-1.666666666666667e-01 -3.333333333333333e-01 -1.666666666666665e-01
-1.666666666666667e-01 -3.333333333333333e-01 -1.666666666666665e-01
-1.666666666666667e-01 -3.333333333333333e-01 -1.666666666666665e-01
-1.666666666666667e-01 -3.333333333333333e-01 -1.666666666666665e-01
-1.666666666666667e-01 -3.333333333333333e-01 -1.666666666666665e-01
-1.666666666666667e-01 -3.333333333333333e-01 -1.666666666666665e-01
-1.666666666666667e-01 -3.333333333333333e-01 -1.666666666666665e-01
-1.666666666666667e-01 -3.333333333333333e-01 -1.666666666666665e-01
-1.666666666666667e-01 -3.333333333333333e-01 -1.666666666666665e-01
-1.666666666666667e-01 -3.333333333333333e-01 -1.666666666666665e-01
-1.666666666666667e-01 -3.333333333333333e-01 -1.666666666666665e-01
-1.666666666666667e-01 -3.333333333333333e-01 -1.666666666666665e-01
-1.666666666666667e-01 -3.333333333333333e-01 -1.666666666666665e-01
-1.666666666666667e-01 -3.333333333333333e-01 -1.666666666666665e-01
-1.666666666666667e-01 -3.333333333333333e-01 -1.666666666666665e-01
-1.666666666666667e-01 -3.333333333333333e-01 -1.666666666666665e-01
-1.666666666666667e-01 -3.333333333333333e-01 -1.666666666666665e-01
-1.666666666666667e-01 -3.333333333333333e-01 -1.666666666666665e-01
-1.666666666666667e-01 -3.333333333333333e-01 -1.666666666666665e-01
-1.666666666666667e-01 -3.333333333333333e-01 -1.666666666666665e-01
-1.666666666666667e-01 -3.333333333333333e-01 -1.666666666666665e-01
-1.666666666666667e-01 -3.333333333333333e-01 -1.666666666666665e-01
-1.666666666666667e-01 -3.333333333333333e-01 -1.666666666666665e-01
-1.666666666666667e-01 -3.333333333333333e-01 -1.666666666666665e-01
-1.666666666666667e-01 -3.333333333333333e-01 -1.666666666666665e-01
-1.666666666666667e-01 -3.333333333333333e-01 -1.666666666666665e-01
-1.666666666666667e-01 -3.333333333333333e-01 -1.666666666666665e-01
-1.666666666666667e-01 -3.333333333333333e-01 -1.666666666666665e-01
-1.666666666666667e-01 -3.333333333333333e-01 -1.666666666666665e-01
-1.666666666666667e-01 -3.333333333333333e-01 -1.666666666666665e-01
-1.666666666666667e-01 -3.333333333333333e-01 -1.666666666666665e-01
-1.666666666666667e-01 -3.333333333333333e-01 -1.666666666666665e-01
-1.666666666666667e-01 -3.333333333333333e-01 -1.666666666666665e-01
-1.666666666666667e-01 -3.333333333333333e-01 -1.666666666666665e-01
-1.666666666666667e-01 -3.333333333333333e-01 -1.666666666666665e-01
-1.666666666666667e-01 -3.333333333333333e-01 -1.666666666666665e-01
-1.666666666666667e-01 -3.333333333333333e-01 -1.666666666666665e-01
-1.666666666666667e-01 -3.333333333333333e-01 -1.666666666666665e-01
-1.666666666666667e-01 -3.333333333333333e-01 -1.666666666666665e-01
-1.666666666666667e-01 -3.333333333333333e-01 -1.666666666666665e-01
-1.666666666666667e-01 -3.333333333333333e-01 -1.666666666666665e-01
-1.666666666666667e-01 -3.333333333333333e-01 -1.666666666666665e-01
-1.666666666666667e-01 -3.333333333333333e-01 -1.666666666666665e-01
-1.666666666666667e-01 -3.333333333333333e-01 -1.666666666666665e-01
-1.666666666666667e-01 -3.333333333333333e-01 -1.666666666666665e-01
-1.666666666666667e-01 -3.333333333333333e-01 -1.666666666666665e-01
-1.666666666666667e-01 -3.333333333333333e-01 -1.666666666666665e-01
-1.666666666666667e-01 -3.333333333333333e-01 -1.666666666666665e-01
-1.666666666666667e-01 -3.333333333333333e-01 -1.666666666666665e-01
-1.666666666666667e-01 -3.333333333333333e-01 -1.666666666666665e-01
-1.666666666666667e-01 -3.333333333333333e-01 -1.666666666666665e-01
-1.666666666666667e-01 -3.333333333333333e-01 -1.666666666666665e-01
-1.666666666666667e-01 -3.333333333333333e-01 -1.666666666666665e-01
-1.666666666666667e-01 -3.333333333333333e-01 -1.666666666666665e-01
-1.666666666666667e-01 -3.333333333333333e-01 -1.666666666666665e-01
-1.666666666666667e-01 -3.333333333333333e-01 -1.666666666666665e-01
-1.666666666666667e-01 -3.333333333333333e-01 -1.666666666666665e-01
-1.666666666666667e-01 -3.333333333333333e-01 -1.666666666666665e-01
-1.666666666666667e-01 -3.333333333333333e-01 -1.666666666666665e-01
-1.666666666666667e-01 -3.333333333333333e-01 -1.666666666666665e-01
-1.666666666666667e-01 -3.333333333333333e-01 -1.666666666666665e-01
-1.666666666666667e-01 -3.333333333333333e-01 -1.666666666666665e-01
-1.666666666666667e-01 -3.333333333333333e-01 -1.666666666666665e-01
-1.666666666666667e-01 -3.333333333333333e-01 -1.666666666666665e-01
-1.666666666666667e-01 -3.333333333333333e-01 -1.666666666666665e-01
-1.666666666666667e-01 -3.333333333333333e-01 -1.666666666666665e-01
-1.666666666666667e-01 -3.333333333333333e-01 -1.666666666666665e-01
-1.666666666666667e-01 -3.333333333333333e-01 -1.666666666666665e-01
-1.666666666666667e-01 -3.333333333333333e-01 -1.666666666666665e-01
-1.666666666666667e-01 -3.333333333333333e-01 -1.666666666666665e-01
-1.666666666666667e-01 -3.333333333333333e-01 -1.666666666666665e-01
-1.666666666666667e-01 -3.333333333333333e-01 -1.666666666666665e-01
-1.666666666666667e-01 -3.333333333333333e-01 -1.666666666666665e-01
-1.666666666666667e-01 -3.333333333333333e-01 -1.666666666666665e-01
-1.666666666666667e-01 -3.333333333333333e-01 -1.666666666666665e-01
-1.666666666666667e-01 -3.333333333333333e-01 -1.666666666666665e-01
-1.666666666666667e-01 -3.333333333333333e-01 -1.666666666666665e-01
-1.666666666666667e-01 -3.333333333333333e-01 -1.666666666666665e-01
-1.666666666666667e-01 -3.333333333333333e-01 -1.666666666666665e-01
-1.666666666666667e-01 -3.333333333333333e-01 -1.666666666666665e-01
-1.666666666666667e-01 -3.333333333333333e-01 -1.666666666666665e-01
-1.666666666666667e-01 -3.333333333333333e-01 -1.666666666666665e-01
-1.666666666666667e-01 -3.333333333333333e-01 -1.666666666666665e-01
-1.666666666666667e-01 -3.333333333333333e-01 -1.666666666666665e-01
-1.666666666666667e-01 -3.333333333333333e-01 -1.666666666666665e-01
-1.666666666666667e-01 -3.333333333333333e-01 -1.666666666666665e-01
-1.666666666666667e-01 -3.333333333333333e-01 -1.666666666666665e-01
-1.666666666666667e-01 -3.333333333333333e-01 -1.666666666666665e-01
-1.666666666666667e-01 -3.333333333333333e-01 -1.666666666666665e-01
-1.666666666666667e-01 -3.333333333333333e-01 -1.666666666666665e-01
-1.666666666666667e-01 -3.333333333333333e-01 -1.666666666666665e-01
-1.666666666666667e-01 -3.333333333333333e-01 -1.666666666666665e-01
-1.666666666666667e-01 -3.333333333333333e-01 -1.666666666666665e-01
-1.666666666666667e-01 -3.333333333333333e-01 -1.666666666666665e-01
-1.666666666666667e-01 -3.333333333333333e-01 -1.666666666666665e-01
-1.666666666666667e-01 -3.333333333333333e-01 -1.666666666666665e-01
-1.666666666666667e-01 -3.333333333333333e-01 -1.666666666666665e-01
-1.666666666666667e-01 -3.333333333333333e-01 -1.666666666666665e-01
-1.666666666666667e-01 -3.333333333333333e-01 -1.666666666666665e-01
-1.666666666666667e-01 -3.333333333333333e-01 -1.666666666666665e-01
-1.666666666666667e-01 -3.333333333333333e-01 -1.666666666666665e-01
-1.666666666666667e-01 -3.333333333333333e-01 -1.666666666666665e-01
-1.666666666666667e-01 -3.333333333333333e-01 -1.666666666666665e-01
-1.666666666666667e-01 -3.333333333333333e-01 -1.666666666666665e-01
-1.666666666666667e-01 -3.333333333333333e-01 -1.666666666666665e-01
-1.666666666666667e-01 -3.333333333333333e-01 -1.666666666666665e-01
-1.666666666666667e-01 -3.333333333333333e-01 -1.666666666666665e-01
-1.666666666666667e-01 -3.333333333333333e-01 -1.666666666666665e-01
-1.666666666666667e-01 -3.333333333333333e-01 -1.666666666666665e-01
-1.666666666666667e-01 -3.333333333333333e-01 -1.666666666666665e-01
-1.666666666666667e-01 -3.333333333333333e-01 -1.666666666666665e-01
-1.666666666666667e-01 -3.333333333333333e-01 -1.666666666666665e-01
-1.666666666666667e-01 -3.333333333333333e-01 -1.666666666666665e-01
-1.666666666666667e-01 -3.333333333333333e-01 -1.666666666666665e-01
-1.666666666666667e-01 -3.333333333333333e-01 -1.666666666666665e-01
-1.666666666666667e-01 -3.333333333333333e-01 -1.666666666666665e-01
-1.666666666666667e-01 -3.333333333333333e-01 -1.666666666666665e-01
-1.666666666666667e-01 -3.333333333333333e-01 -1.666666666666665e-01
-1.666666666666667e-01 -3.333333333333333e-01 -1.666666666666665e-01
-1.666666666666667e-01 -3.333333333333333e-01 -1.666666666666665e-01
-1.666666666666667e-01 -3.333333333333333e-01 -1.666666666666665e-01
-1.666666666666667e-01 -3.333333333333333e-01 -1.666666666666665e-01
-1.666666666666667e-01 -3.333333333333333e-01 -1.666666666666665e-01
-1.666666666666667e-01 -3.333333333333333e-01 -1.666666666666665e-01
-1.666666666666667e-01 -3.333333333333333e-01 -1.666666666666665e-01
-1.666666666666667e-01 -3.333333333333333e-01 -1.666666666666665e-01
-1.666666666666667e-01 -3.333333333333333e-01 -1.666666666666665e-01
-1.666666666666667e-01 -3.333333333333333e-01 -1.666666666666665e-01
-1.666666666666667e-01 -3.333333333333333e-01 -1.666666666666665e-01
-1.666666666666667e-01 -3.333333333333333e-01 -1.666666666666665e-01
-1.666666666666667e-01 -3.333333333333333e-01 -1.666666666666665e-01
-1.666666666666667e-01 -3.333333333333333e-01 -1.666666666666665e-01
-1.666666666666667e-01 -3.333333333333333e-01 -1.666666666666665e-01
-1.666666666666667e-01 -3.333333333333333e-01 -1.666666666666665e-01
-1.666666666666667e-01 -3.333333333333333e-01 -1.666666666666665e-01
-1.666666666666667e-01 -3.333333333333333e-01 -1.666666666666665e-01
-1.666666666666667e-01 -3.333333333333333e-01 -1.666666666666665e-01
-1.666666666666667e-01 -3.333333333333333e-01 -1.666666666666665e-01
-1.666666666666667e-01 -3.333333333333333e-01 -1.666666666666665e-01
-1.666666666666667e-01 -3.333333333333333e-01 -1.666666666666665e-01
-1.666666666666667e-01 -3.333333333333333e-01 -1.666666666666665e-01
-1.666666666666667e-01 -3.333333333333333e-01 -1.666666666666665e-01
-1.666666666666667e-01 -3.333333333333333e-01 -1.666666666666665e-01
-1.666666666666667e-01 -3.333333333333333e-01 -1.666666666666665e-01
-1.666666666666667e-01 -3.333333333333333e-01 -1.666666666666665e-01
-1.666666666666667e-01 -3.333333333333333e-01 -1.666666666666665e-01
-1.666666666666667e-01 -3.333333333333333e-01 -1.666666666666665e-01
-1.666666666666667e-01 -3.333333333333333e-01 -1.666666666666665e-01
-1.666666666666667e-01 -3.333333333333333e-01 -1.666666666666665e-01
-1.666666666666667e-01 -3.333333333333333e-01 -1.666666666666665e-01
-1.666666666666667e-01 -3.333333333333333e-01 -1.666666666666665e-01
-1.666666666666667e-01 -3.333333333333333e-01 -1.666666666666665e-01
-1.666666666666667e-01 -3.333333333333333e-01 -1.666666666666665e-01
-1.666666666666667e-01 -3.333333333333333e-01 -1.666666666666665e-01
-1.666666666666667e-01 -3.333333333333333e-01 -1.666666666666665e-01
-1.666666666666667e-01 -3.333333333333333e-01 -1.666666666666665e-01
-1.666666666666667e-01 -3.333333333333333e-01 -1.666666666666665e-01
-1.666666666666667e-01 -3.333333333333333e-01 -1.666666666666665e-01
-1.666666666666667e-01 -3.333333333333333e-01 -1.666666666666665e-01
-1.666666666666667e-01 -3.333333333333333e-01 -1.666666666666665e-01
-1.666666666666667e-01 -3.333333333333333e-01 -1.666666666666665e-01
-1.666666666666667e-01 -3.333333333333333e-01 -1.666666666666665e-01
-1.666666666666667e-01 -3.333333333333333e-01 -1.666666666666665e-01
-1.666666666666667e-01 -3.333333333333333e-01 -1.666666666666665e-01
-1.666666666666667e-01 -3.333333333333333e-01 -1.666666666666665e-01
-1.666666666666667e-01 -3.333333333333333e-01 -1.666666666666665e-01
-1.666666666666667e-01 -3.333333333333333e-01 -1.666666666666665e-01
-1.666666666666667e-01 -3.333333333333333e-01 -1.666666666666665e-01
-1.666666666666667e-01 -3.333333333333333e-01 -1.666666666666665e-01
-1.666666666666667e-01 -3.333333333333333e-01 -1.666666666666665e-01
-1.666666666666667e-01 -3.333333333333333e-01 -1.666666666666665e-01
-1.666666666666667e-01 -3.333333333333333e-01 -1.666666666666665e-01
-1.666666666666667e-01 -3.333333333333333e-01 -1.666666666666665e-01
-1.666666666666667e-01 -3.333333333333333e-01 -1.666666666666665e-01
-1.666666666666667e-01 -3.333333333333333e-01 -1.666666666666665e-01
-1.666666666666667e-01 -3.333333333333333e-01 -1.666666666666665e-01
-1.666666666666667e-01 -3.333333333333333e-01 -1.666666666666665e-01
-1.666666666666667e-01 -3.333333333333333e-01 -1.666666666666665e-01
-1.666666666666667e-01 -3.333333333333333e-01 -1.666666666666665e-01
1.666666666666667e-01 3.333333333333333e-01 1.666666666666665e-01
-1.666666666666667e-01 -3.333333333333333e-01 -1.666666666666665e-01
-1.666666666666667e-01 -3.333333333333333e-01 -1.666666666666665e-01
-1.666666666666667e-01 -3.333333333333333e-01 -1.666666666666665e-01
-1.666666666666667e-01 -3.333333333333333e-01 -1.666666666666665e-01
-1.666666666666667e-01 -3.333333333333333e-01 -1.666666666666665e-01
-1.666666666666667e-01 -3.333333333333333e-01 -1.666666666666665e-01
-1.666666666666667e-01 -3.333333333333333e-01 -1.666666666666665e-01
-1.666666666666667e-01 -3.333333333333333e-01 -1.666666666666665e-01
-1.666666666666667e-01 -3.333333333333333e-01 -1.666666666666665e-01
-1.666666666666667e-01 -3.333333333333333e-01 -1.666666666666665e-01
-1.666666666666667e-01 -3.333333333333333e-01 -1.666666666666665e-01
-1.666666666666667e-01 -3.333333333333333e-01 -1.666666666666665e-01
-1.666666666666667e-01 -3.333333333333333e-01 -1.666666666666665e-01
-1.666666666666667e-01 -3.333333333333333e-01 -1.666666666666665e-01
-1.666666666666667e-01 -3.333333333333333e-01 -1.666666666666665e-01
-1.666666666666667e-01 -3.333333333333333e-01 -1.666666666666665e-01
-1.666666666666667e-01 -3.333333333333333e-01 -1.666666666666665e-01
-1.666666666666667e-01 -3.333333333333333e-01 -1.666666666666665e-01
-1.666666666666667e-01 -3.333333333333333e-01 -1.666666666666665e-01
-1.666666666666667e-01 -3.333333333333333e-01 -1.666666666666665e-01
-1.666666666666667e-01 -3.333333333333333e-01 -1.666666666666665e-01
-1.666666666666667e-01 -3.333333333333333e-01 -1.666666666666665e-01
-1.666666666666667e-01 -3.333333333333333e-01 -1.666666666666665e-01
-1.666666666666667e-01 -3.333333333333333e-01 -1.666666666666665e-01
-1.666666666666667e-01 -3.333333333333333e-01 -1.666666666666665e-01
-1.666666666666667e-01 -3.333333333333333e-01 -1.666666666666665e-01
-1.666666666666667e-01 -3.333333333333333e-01 -1.666666666666665e-01
-1.666666666666667e-01 -3.333333333333333e-01 -1.666666666666665e-01
-1.666666666666667e-01 -3.333333333333333e-01 -1.666666666666665e-01
-1.666666666666667e-01 -3.333333333333333e-01 -1.666666666666665e-01
-1.666666666666667e-01 -3.333333333333333e-01 -1.666666666666665e-01
-1.666666666666667e-01 -3.333333333333333e-01 -1.666666666666665e-01
-1.666666666666667e-01 -3.333333333333333e-01 -1.666666666666665e-01
-1.666666666666667e-01 -3.333333333333333e-01 -1.666666666666665e-01
-1.666666666666667e-01 -3.333333333333333e-01 -1.666666666666665e-01
-1.666666666666667e-01 -3.333333333333333e-01 -1.666666666666665e-01
-1.666666666666667e-01 -3.333333333333333e-01 -1.666666666666665e-01
-1.666666666666667e-01 -3.333333333333333e-01 -1.666666666666665e-01
-1.666666666666667e-01 -3.333333333333333e-01 -1.666666666666665e-01
-1.666666666666667e-01 -3.333333333333333e-01 -1.666666666666665e-01
-1.666666666666667e-01 -3.333333333333333e-01 -1.666666666666665e-01
-1.666666666666667e-01 -3.333333333333333e-01 -1.666666666666665e-01
-1.666666666666667e-01 -3.333333333333333e-01 -1.666666666666665e-01
-1.666666666666667e-01 -3.333333333333333e-01 -1.666666666666665e-01
-1.666666666666667e-01 -3.333333333333333e-01 -1.666666666666665e-01
-1.666666666666667e-01 -3.333333333333333e-01 -1.666666666666665e-01
-1.666666666666667e-01 -3.333333333333333e-01 -1.666666666666665e-01
-1.666666666666667e-01 -3.333333333333333e-01 -1.666666666666665e-01
-1.666666666666667e-01 -3.333333333333333e-01 -1.666666666666665e-01
-1.666666666666667e-01 -3.333333333333333e-01 -1.666666666666665e-01
-1.666666666666667e-01 -3.333333333333333e-01 -1.666666666666665e-01
-1.666666666666667e-01 -3.333333333333333e-01 -1.666666666666665e-01
-1.666666666666667e-01 -3.333333333333333e-01 -1.666666666666665e-01
-1.666666666666667e-01 -3.333333333333333e-01 -1.666666666666665e-01
-1.666666666666667e-01 -3.333333333333333e-01 -1.666666666666665e-01
-1.666666666666667e-01 -3.333333333333333e-01 -1.666666666666665e-01
-1.666666666666667e-01 -3.333333333333333e-01 -1.666666666666665e-01
-1.666666666666667e-01 -3.333333333333333e-01 -1.666666666666665e-01
-1.666666666666667e-01 -3.333333333333333e-01 -1.666666666666665e-01
-1.666666666666667e-01 -3.333333333333333e-01 -1.666666666666665e-01
-1.666666666666667e-01 -3.333333333333333e-01 -1.666666666666665e-01
-1.666666666666667e-01 -3.333333333333333e-01 -1.666666666666665e-01
-1.666666666666667e-01 -3.333333333333333e-01 -1.666666666666665e-01
-1.666666666666667e-01 -3.333333333333333e-01 -1.666666666666665e-01
-1.666666666666667e-01 -3.333333333333333e-01 -1.666666666666665e-01
-1.666666666666667e-01 -3.333333333333333e-01 -1.666666666666665e-01
-1.666666666666667e-01 -3.333333333333333e-01 -1.666666666666665e-01
-1.666666666666667e-01 -3.333333333333333e-01 -1.666666666666665e-01
-1.666666666666667e-01 -3.333333333333333e-01 -1.666666666666665e-01
-1.666666666666667e-01 -3.333333333333333e-01 -1.666666666666665e-01
-1.666666666666667e-01 -3.333333333333333e-01 -1.666666666666665e-01
-1.666666666666667e-01 -3.333333333333333e-01 -1.666666666666665e-01
-1.666666666666667e-01 -3.333333333333333e-01 -1.666666666666665e-01
-1.666666666666667e-01 -3.333333333333333e-01 -1.666666666666665e-01
-1.666666666666667e-01 -3.333333333333333e-01 -1.666666666666665e-01
-1.666666666666667e-01 -3.333333333333333e-01 -1.666666666666665e-01
-1.666666666666667e-01 -3.333333333333333e-01 -1.666666666666665e-01
-1.666666666666667e-01 -3.333333333333333e-01 -1.666666666666665e-01
-1.666666666666667e-01 -3.333333333333333e-01 -1.666666666666665e-01
-1.666666666666667e-01 -3.333333333333333e-01 -1.666666666666665e-01
-1.666666666666667e-01 -3.333333333333333e-01 -1.666666666666665e-01
-1.666666666666667e-01 -3.333333333333333e-01 -1.666666666666665e-01
-1.666666666666667e-01 -3.333333333333333e-01 -1.666666666666665e-01
-1.666666666666667e-01 -3.333333333333333e-01 -1.666666666666665e-01
-1.666666666666667e-01 -3.333333333333333e-01 -1.666666666666665e-01
-1.666666666666667e-01 -3.333333333333333e-01 -1.666666666666665e-01
-1.666666666666667e-01 -3.333333333333333e-01 -1.666666666666665e-01
-1.666666666666667e-01 -3.333333333333333e-01 -1.666666666666665e-01
-1.666666666666667e-01 -3.333333333333333e-01 -1.666666666666665e-01
-1.666666666666667e-01 -3.333333333333333e-01 -1.666666666666665e-01
-1.666666666666667e-01 -3.333333333333333e-01 -1.666666666666665e-01
-1.666666666666667e-01 -3.333333333333333e-01 -1.666666666666665e-01
-1.666666666666667e-01 -3.333333333333333e-01 -1.666666666666665e-01
-1.666666666666667e-01 -3.333333333333333e-01 -1.666666666666665e-01
-1.666666666666667e-01 -3.333333333333333e-01 -1.666666666666665e-01
-1.666666666666667e-01 -3.333333333333333e-01 -1.666666666666665e-01
-1.666666666666667e-01 -3.333333333333333e-01 -1.666666666666665e-01
-1.666666666666667e-01 -3.333333333333333e-01 -1.666666666666665e-01
-1.666666666666667e-01 -3.333333333333333e-01 -1.666666666666665e-01
-1.666666666666667e-01 -3.333333333333333e-01 -1.666666666666665e-01
-1.666666666666667e-01 -3.333333333333333e-01 -1.666666666666665e-01
-1.666666666666667e-01 -3.333333333333333e-01 -1.666666666666665e-01
-1.666666666666667e-01 -3.333333333333333e-01 -1.666666666666665e-01
-1.666666666666667e-01 -3.333333333333333e-01 -1.666666666666665e-01
-1.666666666666667e-01 -3.333333333333333e-01 -1.666666666666665e-01
-1.666666666666667e-01 -3.333333333333333e-01 -1.666666666666665e-01
-1.666666666666667e-01 -3.333333333333333e-01 -1.666666666666665e-01
-1.666666666666667e-01 -3.333333333333333e-01 -1.666666666666665e-01
-1.666666666666667e-01 -3.333333333333333e-01 -1.666666666666665e-01
-1.666666666666667e-01 -3.333333333333333e-01 -1.666666666666665e-01
-1.666666666666667e-01 -3.333333333333333e-01 -1.666666666666665e-01
-1.666666666666667e-01 -3.333333333333333e-01 -1.666666666666665e-01
-1.666666666666667e-01 -3.333333333333333e-01 -1.666666666666665e-01
-1.666666666666667e-01 -3.333333333333333e-01 -1.666666666666665e-01
-1.666666666666667e-01 -3.333333333333333e-01 -1.666666666666665e-01
-1.666666666666667e-01 -3.333333333333333e-01 -1.666666666666665e-01
-1.666666666666667e-01 -3.333333333333333e-01 -1.666666666666665e-01
-1.666666666666667e-01 -3.333333333333333e-01 -1.666666666666665e-01
-1.666666666666667e-01 -3.333333333333333e-01 -1.666666666666665e-01
-1.666666666666667e-01 -3.333333333333333e-01 -1.666666666666665e-01
-1.666666666666667e-01 -3.333333333333333e-01 -1.666666666666665e-01
-1.666666666666667e-01 -3.333333333333333e-01 -1.666666666666665e-01
-1.666666666666667e-01 -3.333333333333333e-01 -1.666666666666665e-01
-1.666666666666667e-01 -3.333333333333333e-01 -1.666666666666665e-01
-1.666666666666667e-01 -3.333333333333333e-01 -1.666666666666665e-01
-1.666666666666667e-01 -3.333333333333333e-01 -1.666666666666665e-01
-1.666666666666667e-01 -3.333333333333333e-01 -1.666666666666665e-01
-1.666666666666667e-01 -3.333333333333333e-01 -1.666666666666665e-01
-1.666666666666667e-01 -3.333333333333333e-01 -1.666666666666665e-01
-1.666666666666667e-01 -3.333333333333333e-01 -1.666666666666665e-01
-1.666666666666667e-01 -3.333333333333333e-01 -1.666666666666665e-01
-1.666666666666667e-01 -3.333333333333333e-01 -1.666666666666665e-01
-1.666666666666667e-01 -3.333333333333333e-01 -1.666666666666665e-01
-1.666666666666667e-01 -3.333333333333333e-01 -1.666666666666665e-01
-1.666666666666667e-01 -3.333333333333333e-01 -1.666666666666665e-01
-1.666666666666667e-01 -3.333333333333333e-01 -1.666666666666665e-01
-1.666666666666667e-01 -3.333333333333333e-01 -1.666666666666665e-01
-1.666666666666667e-01 -3.333333333333333e-01 -1.666666666666665e-01
-1.666666666666667e-01 -3.333333333333333e-01 -1.666666666666665e-01
-1.666666666666667e-01 -3.333333333333333e-01 -1.666666666666665e-01
-1.666666666666667e-01 -3.333333333333333e-01 -1.666666666666665e-01
-1.666666666666667e-01 -3.333333333333333e-01 -1.666666666666665e-01
-1.666666666666667e-01 -3.333333333333333e-01 -1.666666666666665e-01
-1.666666666666667e-01 -3.333333333333333e-01 -1.666666666666665e-01
-1.666666666666667e-01 -3.333333333333333e-01 -1.666666666666665e-01
-1.666666666666667e-01 -3.333333333333333e-01 -1.666666666666665e-01
-1.666666666666667e-01 -3.333333333333333e-01 -1.666666666666665e-01
-1.666666666666667e-01 -3.333333333333333e-01 -1.666666666666665e-01
-1.666666666666667e-01 -3.333333333333333e-01 -1.666666666666665e-01
-1.666666666666667e-01 -3.333333333333333e-01 -1.666666666666665e-01
-1.666666666666667e-01 -3.333333333333333e-01 -1.666666666666665e-01
-1.666666666666667e-01 -3.333333333333333e-01 -1.666666666666665e-01
-1.666666666666667e-01 -3.333333333333333e-01 -1.666666666666665e-01
-1.666666666666667e-01 -3.333333333333333e-01 -1.666666666666665e-01
-1.666666666666667e-01 -3.333333333333333e-01 -1.666666666666665e-01
-1.666666666666667e-01 -3.333333333333333e-01 -1.666666666666665e-01
-1.666666666666667e-01 -3.333333333333333e-01 -1.666666666666665e-01
-1.666666666666667e-01 -3.333333333333333e-01 -1.666666666666665e-01
-1.666666666666667e-01 -3.333333333333333e-01 -1.666666666666665e-01
-1.666666666666667e-01 -3.333333333333333e-01 -1.666666666666665e-01
-1.666666666666667e-01 -3.333333333333333e-01 -1.666666666666665e-01
-1.666666666666667e-01 -3.333333333333333e-01 -1.666666666666665e-01
-1.666666666666667e-01 -3.333333333333333e-01 -1.666666666666665e-01
-1.666666666666667e-01 -3.333333333333333e-01 -1.666666666666665e-01
-1.666666666666667e-01 -3.333333333333333e-01 -1.666666666666665e-01
-1.666666666666667e-01 -3.333333333333333e-01 -1.666666666666665e-01
-1.666666666666667e-01 -3.333333333333333e-01 -1.666666666666665e-01
-1.666666666666667e-01 -3.333333333333333e-01 -1.666666666666665e-01
-1.666666666666667e-01 -3.333333333333333e-01 -1.666666666666665e-01
-1.666666666666667e-01 -3.333333333333333e-01 -1.666666666666665e-01
-1.666666666666667e-01 -3.333333333333333e-01 -1.666666666666665e-01
-1.666666666666667e-01 -3.333333333333333e-01 -1.666666666666665e-01
-1.666666666666667e-01 -3.333333333333333e-01 -1.666666666666665e-01
-1.666666666666667e-01 -3.333333333333333e-01 -1.666666666666665e-01
-1.666666666666667e-01 -3.333333333333333e-01 -1.666666666666665e-01
-1.666666666666667e-01 -3.333333333333333e-01 -1.666666666666665e-01
-1.666666666666667e-01 -3.333333333333333e-01 -1.666666666666665e-01
-1.666666666666667e-01 -3.333333333333333e-01 -1.666666666666665e-01
-1.666666666666667e-01 -3.333333333333333e-01 -1.666666666666665e-01
-1.666666666666667e-01 -3.333333333333333e-01 -1.666666666666665e-01
-1.666666666666667e-01 -3.333333333333333e-01 -1.666666666666665e-01
-1.666666666666667e-01 -3.333333333333333e-01 -1.666666666666665e-01
-1.666666666666667e-01 -3.333333333333333e-01 -1.666666666666665e-01
-1.666666666666667e-01 -3.333333333333333e-01 -1.666666666666665e-01
-1.666666666666667e-01 -3.333333333333333e-01 -1.666666666666665e-01
-1.666666666666667e-01 -3.333333333333333e-01 -1.666666666666665e-01
-1.666666666666667e-01 -3.333333333333333e-01 -1.666666666666665e-01
-1.666666666666667e-01 -3.333333333333333e-01 -1.666666666666665e-01
-1.666666666666667e-01 -3.333333333333333e-01 -1.666666666666665e-01
-1.666666666666667e-01 -3.333333333333333e-01 -1.666666666666665e-01
-1.666666666666667e-01 -3.333333333333333e-01 -1.666666666666665e-01
-1.666666666666667e-01 -3.333333333333333e-01 -1.666666666666665e-01
-1.666666666666667e-01 -3.333333333333333e-01 -1.666666666666665e-01
-1.666666666666667e-01 -3.333333333333333e-01 -1.666666666666665e-01
-1.666666666666667e-01 -3.333333333333333e-01 -1.666666666666665e-01
-1.666666666666667e-01 -3.333333333333333e-01 -1.666666666666665e-01
-1.666666666666667e-01 -3.333333333333333e-01 -1.666666666666665e-01
-1.666666666666667e-01 -3.333333333333333e-01 -1.666666666666665e-01
-1.666666666666667e-01 -3.333333333333333e-01 -1.666666666666665e-01
-1.666666666666667e-01 -3.333333333333333e-01 -1.666666666666665e-01
-1.666666666666667e-01 -3.333333333333333e-01 -1.666666666666665e-01
-1.666666666666667e-01 -3.333333333333333e-01 -1.666666666666665e-01
-1.666666666666667e-01 -3.333333333333333e-01 -1.666666666666665e-01
-1.666666666666667e-01 -3.333333333333333e-01 -1.666666666666665e-01
-1.666666666666667e-01 -3.333333333333333e-01 -1.666666666666665e-01
-1.666666666666667e-01 -3.333333333333333e-01 -1.666666666666665e-01
-1.666666666666667e-01 -3.333333333333333e-01 -1.666666666666665e-01
-1.666666666666667e-01 -3.333333333333333e-01 -1.666666666666665e-01
-1.666666666666667e-01 -3.333333333333333e-01 -1.666666666666665e-01
-1.666666666666667e-01 -3.333333333333333e-01 -1.666666666666665e-01
-1.666666666666667e-01 -3.333333333333333e-01 -1.666666666666665e-01
-1.666666666666667e-01 -3.333333333333333e-01 -1.666666666666665e-01
-1.666666666666667e-01 -3.333333333333333e-01 -1.666666666666665e-01
-1.666666666666667e-01 -3.333333333333333e-01 -1.666666666666665e-01
-1.666666666666667e-01 -3.333333333333333e-01 -1.666666666666665e-01
-1.666666666666667e-01 -3.333333333333333e-01 -1.666666666666665e-01
-1.666666666666667e-01 -3.333333333333333e-01 -1.666666666666665e-01
-1.666666666666667e-01 -3.333333333333333e-01 -1.666666666666665e-01
-1.666666666666667e-01 -3.333333333333333e-01 -1.666666666666665e-01
-1.666666666666667e-01 -3.333333333333333e-01 -1.666666666666665e-01
-1.666666666666667e-01 -3.333333333333333e-01 -1.666666666666665e-01
-1.666666666666667e-01 -3.333333333333333e-01 -1.666666666666665e-01
-1.666666666666667e-01 -3.333333333333333e-01 -1.666666666666665e-01
-1.666666666666667e-01 -3.333333333333333e-01 -1.666666666666665e-01
-1.666666666666667e-01 -3.333333333333333e-01 -1.666666666666665e-01
-1.666666666666667e-01 -3.333333333333333e-01 -1.666666666666665e-01
-1.666666666666667e-01 -3.333333333333333e-01 -1.666666666666665e-01
-1.666666666666667e-01 -3.333333333333333e-01 -1.666666666666665e-01
-1.666666666666667e-01 -3.333333333333333e-01 -1.666666666666665e-01
-1.666666666666667e-01 -3.333333333333333e-01 -1.666666666666665e-01
-1.666666666666667e-01 -3.333333333333333e-01 -1.666666666666665e-01
-1.666666666666667e-01 -3.333333333333333e-01 -1.666666666666665e-01
-1.666666666666667e-01 -3.333333333333333e-01 -1.666666666666665e-01
-1.666666666666667e-01 -3.333333333333333e-01 -1.666666666666665e-01
-1.666666666666667e-01 -3.333333333333333e-01 -1.666666666666665e-01
-1.666666666666667e-01 -3.333333333333333e-01 -1.666666666666665e-01
-1.666666666666667e-01 -3.333333333333333e-01 -1.666666666666665e-01
-1.666666666666667e-01 -3.333333333333333e-01 -1.666666666666665e-01
-1.666666666666667e-01 -3.333333333333333e-01 -1.666666666666665e-01
-1.666666666666667e-01 -3.333333333333333e-01 -1.666666666666665e-01
-1.666666666666667e-01 -3.333333333333333e-01 -1.666666666666665e-01
1.666666666666667e-01 3.333333333333333e-01 1.666666666666665e-01
-1.666666666666667e-01 -3.333333333333333e-01 -1.666666666666665e-01
1.666666666666667e-01 3.333333333333333e-01 1.666666666666665e-01
1.666666666666667e-01 3.333333333333333e-01 1.666666666666665e-01
1.666666666666667e-01 3.333333333333333e-01 1.666666666666665e-01
1.666666666666667e-01 3.333333333333333e-01 1.666666666666665e-01
1.666666666666667e-01 3.333333333333333e-01 1.666666666666665e-01
1.666666666666667e-01 3.333333333333333e-01 1.666666666666665e-01
1.666666666666667e-01 3.333333333333333e-01 1.666666666666665e-01
1.666666666666667e-01 3.333333333333333e-01 1.666666666666665e-01
1.666666666666667e-01 3.333333333333333e-01 1.666666666666665e-01
1.666666666666667e-01 3.333333333333333e-01 1.666666666666665e-01
1.666666666666667e-01 3.333333333333333e-01 1.666666666666665e-01
1.666666666666667e-01 3.333333333333333e-01 1.666666666666665e-01
1.666666666666667e-01 3.333333333333333e-01 1.666666666666665e-01
1.666666666666667e-01 3.333333333333333e-01 1.666666666666665e-01
1.666666666666667e-01 3.333333333333333e-01 1.666666666666665e-01
1.666666666666667e-01 3.333333333333333e-01 1.666666666666665e-01
1.666666666666667e-01 3.333333333333333e-01 1.666666666666665e-01
1.666666666666667e-01 3.333333333333333e-01 1.666666666666665e-01
1.666666666666667e-01 3.333333333333333e-01 1.666666666666665e-01
1.666666666666667e-01 3.333333333333333e-01 1.666666666666665e-01
1.666666666666667e-01 3.333333333333333e-01 1.666666666666665e-01
1.666666666666667e-01 3.333333333333333e-01 1.666666666666665e-01
1.666666666666667e-01 3.333333333333333e-01 1.666666666666665e-01
1.666666666666667e-01 3.333333333333333e-01 1.666666666666665e-01
1.666666666666667e-01 3.333333333333333e-01 1.666666666666665e-01
1.666666666666667e-01 3.333333333333333e-01 1.666666666666665e-01
1.666666666666667e-01 3.333333333333333e-01 1.666666666666665e-01
1.666666666666667e-01 3.333333333333333e-01 1.666666666666665e-01
1.666666666666667e-01 3.333333333333333e-01 1.666666666666665e-01
1.666666666666667e-01 3.333333333333333e-01 1.666666666666665e-01
1.666666666666667e-01 3.333333333333333e-01 1.666666666666665e-01
1.666666666666667e-01 3.333333333333333e-01 1.666666666666665e-01
1.666666666666667e-01 3.333333333333333e-01 1.666666666666665e-01
1.666666666666667e-01 3.333333333333333e-01 1.666666666666665e-01
1.666666666666667e-01 3.333333333333333e-01 1.666666666666665e-01
1.666666666666667e-01 3.333333333333333e-01 1.666666666666665e-01
1.666666666666667e-01 3.333333333333333e-01 1.666666666666665e-01
1.666666666666667e-01 3.333333333333333e-01 1.666666666666665e-01
1.666666666666667e-01 3.333333333333333e-01 1.666666666666665e-01
1.666666666666667e-01 3.333333333333333e-01 1.666666666666665e-01
1.666666666666667e-01 3.333333333333333e-01 1.666666666666665e-01
1.666666666666667e-01 3.333333333333333e-01 1.666666666666665e-01
1.666666666666667e-01 3.333333333333333e-01 1.666666666666665e-01
1.666666666666667e-01 3.333333333333333e-01 1.666666666666665e-01
1.666666666666667e-01 3.333333333333333e-01 1.666666666666665e-01
1.666666666666667e-01 3.333333333333333e-01 1.666666666666665e-01
1.666666666666667e-01 3.333333333333333e-01 1.666666666666665e-01
1.666666666666667e-01 3.333333333333333e-01 1.666666666666665e-01
1.666666666666667e-01 3.333333333333333e-01 1.666666666666665e-01
1.666666666666667e-01 3.333333333333333e-01 1.666666666666665e-01
1.666666666666667e-01 3.333333333333333e-01 1.666666666666665e-01
1.666666666666667e-01 3.333333333333333e-01 1.666666666666665e-01
1.666666666666667e-01 3.333333333333333e-01 1.666666666666665e-01
1.666666666666667e-01 3.333333333333333e-01 1.666666666666665e-01
1.666666666666667e-01 3.333333333333333e-01 1.666666666666665e-01
1.666666666666667e-01 3.333333333333333e-01 1.666666666666665e-01
1.666666666666667e-01 3.333333333333333e-01 1.666666666666665e-01
1.666666666666667e-01 3.333333333333333e-01 1.666666666666665e-01
1.666666666666667e-01 3.333333333333333e-01 1.666666666666665e-01
1.666666666666667e-01 3.333333333333333e-01 1.666666666666665e-01
1.666666666666667e-01 3.333333333333333e-01 1.666666666666665e-01
1.666666666666667e-01 3.333333333333333e-01 1.666666666666665e-01
1.666666666666667e-01 3.333333333333333e-01 1.666666666666665e-01
1.666666666666667e-01 3.333333333333333e-01 1.666666666666665e-01
1.666666666666667e-01 3.333333333333333e-01 1.666666666666665e-01
1.666666666666667e-01 3.333333333333333e-01 1.666666666666665e-01
1.666666666666667e-01 3.333333333333333e-01 1.666666666666665e-01
1.666666666666667e-01 3.333333333333333e-01 1.666666666666665e-01
1.666666666666667e-01 3.333333333333333e-01 1.666666666666665e-01
1.666666666666667e-01 3.333333333333333e-01 1.666666666666665e-01
1.666666666666667e-01 3.333333333333333e-01 1.666666666666665e-01
1.666666666666667e-01 3.333333333333333e-01 1.666666666666665e-01
1.666666666666667e-01 3.333333333333333e-01 1.666666666666665e-01
1.666666666666667e-01 3.333333333333333e-01 1.666666666666665e-01
1.666666666666667e-01 3.333333333333333e-01 1.666666666666665e-01
1.666666666666667e-01 3.333333333333333e-01 1.666666666666665e-01
1.666666666666667e-01 3.333333333333333e-01 1.666666666666665e-01
1.666666666666667e-01 3.333333333333333e-01 1.666666666666665e-01
1.666666666666667e-01 3.333333333333333e-01 1.666666666666665e-01
1.666666666666667e-01 3.333333333333333e-01 1.666666666666665e-01
1.666666666666667e-01 3.333333333333333e-01 1.666666666666665e-01
1.666666666666667e-01 3.333333333333333e-01 1.666666666666665e-01
1.666666666666667e-01 3.333333333333333e-01 1.666666666666665e-01
1.666666666666667e-01 3.333333333333333e-01 1.666666666666665e-01
1.666666666666667e-01 3.333333333333333e-01 1.666666666666665e-01
1.666666666666667e-01 3.333333333333333e-01 1.666666666666665e-01
1.666666666666667e-01 3.333333333333333e-01 1.666666666666665e-01
1.666666666666667e-01 3.333333333333333e-01 1.666666666666665e-01
1.666666666666667e-01 3.333333333333333e-01 1.666666666666665e-01
1.666666666666667e-01 3.333333333333333e-01 1.666666666666665e-01
1.666666666666667e-01 3.333333333333333e-01 1.666666666666665e-01
1.666666666666667e-01 3.333333333333333e-01 1.666666666666665e-01
1.666666666666667e-01 3.333333333333333e-01 1.666666666666665e-01
1.666666666666667e-01 3.333333333333333e-01 1.666666666666665e-01
1.666666666666667e-01 3.333333333333333e-01 1.666666666666665e-01
1.666666666666667e-01 3.333333333333333e-01 1.666666666666665e-01
1.666666666666667e-01 3.333333333333333e-01 1.666666666666665e-01
1.666666666666667e-01 3.333333333333333e-01 1.666666666666665e-01
1.666666666666667e-01 3.333333333333333e-01 1.666666666666665e-01
1.666666666666667e-01 3.333333333333333e-01 1.666666666666665e-01
1.666666666666667e-01 3.333333333333333e-01 1.666666666666665e-01
1.666666666666667e-01 3.333333333333333e-01 1.666666666666665e-01
1.666666666666667e-01 3.333333333333333e-01 1.666666666666665e-01
1.666666666666667e-01 3.333333333333333e-01 1.666666666666665e-01
1.666666666666667e-01 3.333333333333333e-01 1.666666666666665e-01
1.666666666666667e-01 3.333333333333333e-01 1.666666666666665e-01
1.666666666666667e-01 3.333333333333333e-01 1.666666666666665e-01
1.666666666666667e-01 3.333333333333333e-01 1.666666666666665e-01
1.666666666666667e-01 3.333333333333333e-01 1.666666666666665e-01
1.666666666666667e-01 3.333333333333333e-01 1.666666666666665e-01
1.666666666666667e-01 3.333333333333333e-01 1.666666666666665e-01
1.666666666666667e-01 3.333333333333333e-01 1.666666666666665e-01
1.666666666666667e-01 3.333333333333333e-01 1.666666666666665e-01
1.666666666666667e-01 3.333333333333333e-01 1.666666666666665e-01
1.666666666666667e-01 3.333333333333333e-01 1.666666666666665e-01
1.666666666666667e-01 3.333333333333333e-01 1.666666666666665e-01
1.666666666666667e-01 3.333333333333333e-01 1.666666666666665e-01
1.666666666666667e-01 3.333333333333333e-01 1.666666666666665e-01
1.666666666666667e-01 3.333333333333333e-01 1.666666666666665e-01
1.666666666666667e-01 3.333333333333333e-01 1.666666666666665e-01
1.666666666666667e-01 3.333333333333333e-01 1.666666666666665e-01
1.666666666666667e-01 3.333333333333333e-01 1.666666666666665e-01
1.666666666666667e-01 3.333333333333333e-01 1.666666666666665e-01
1.666666666666667e-01 3.333333333333333e-01 1.666666666666665e-01
1.666666666666667e-01 3.333333333333333e-01 1.666666666666665e-01
1.666666666666667e-01 3.333333333333333e-01 1.666666666666665e-01
1.666666666666667e-01 3.333333333333333e-01 1.666666666666665e-01
1.666666666666667e-01 3.333333333333333e-01 1.666666666666665e-01
1.666666666666667e-01 3.333333333333333e-01 1.666666666666665e-01
1.666666666666667e-01 3.333333333333333e-01 1.666666666666665e-01
1.666666666666667e-01 3.333333333333333e-01 1.666666666666665e-01
1.666666666666667e-01 3.333333333333333e-01 1.666666666666665e-01
1.666666666666667e-01 3.333333333333333e-01 1.666666666666665e-01
1.666666666666667e-01 3.333333333333333e-01 1.666666666666665e-01
1.666666666666667e-01 3.333333333333333e-01 1.666666666666665e-01
1.666666666666667e-01 3.333333333333333e-01 1.666666666666665e-01
1.666666666666667e-01 3.333333333333333e-01 1.666666666666665e-01
1.666666666666667e-01 3.333333333333333e-01 1.666666666666665e-01
1.666666666666667e-01 3.333333333333333e-01 1.666666666666665e-01
1.666666666666667e-01 3.333333333333333e-01 1.666666666666665e-01
1.666666666666667e-01 3.333333333333333e-01 1.666666666666665e-01
1.666666666666667e-01 3.333333333333333e-01 1.666666666666665e-01
1.666666666666667e-01 3.333333333333333e-01 1.666666666666665e-01
1.666666666666667e-01 3.333333333333333e-01 1.666666666666665e-01
1.666666666666667e-01 3.333333333333333e-01 1.666666666666665e-01
1.666666666666667e-01 3.333333333333333e-01 1.666666666666665e-01
1.666666666666667e-01 3.333333333333333e-01 1.666666666666665e-01
1.666666666666667e-01 3.333333333333333e-01 1.666666666666665e-01
1.666666666666667e-01 3.333333333333333e-01 1.666666666666665e-01
1.666666666666667e-01 3.333333333333333e-01 1.666666666666665e-01
1.666666666666667e-01 3.333333333333333e-01 1.666666666666665e-01
1.666666666666667e-01 3.333333333333333e-01 1.666666666666665e-01
1.666666666666667e-01 3.333333333333333e-01 1.666666666666665e-01
1.666666666666667e-01 3.333333333333333e-01 1.666666666666665e-01
1.666666666666667e-01 3.333333333333333e-01 1.666666666666665e-01
1.666666666666667e-01 3.333333333333333e-01 1.666666666666665e-01
1.666666666666667e-01 3.333333333333333e-01 1.666666666666665e-01
1.666666666666667e-01 3.333333333333333e-01 1.666666666666665e-01
1.666666666666667e-01 3.333333333333333e-01 1.666666666666665e-01
1.666666666666667e-01 3.333333333333333e-01 1.666666666666665e-01
1.666666666666667e-01 3.333333333333333e-01 1.666666666666665e-01
1.666666666666667e-01 3.333333333333333e-01 1.666666666666665e-01
1.666666666666667e-01 3.333333333333333e-01 1.666666666666665e-01
1.666666666666667e-01 3.333333333333333e-01 1.666666666666665e-01
1.666666666666667e-01 3.333333333333333e-01 1.666666666666665e-01
1.666666666666667e-01 3.333333333333333e-01 1.666666666666665e-01
1.666666666666667e-01 3.333333333333333e-01 1.666666666666665e-01
1.666666666666667e-01 3.333333333333333e-01 1.666666666666665e-01
1.666666666666667e-01 3.333333333333333e-01 1.666666666666665e-01
1.666666666666667e-01 3.333333333333333e-01 1.666666666666665e-01
1.666666666666667e-01 3.333333333333333e-01 1.666666666666665e-01
1.666666666666667e-01 3.333333333333333e-01 1.666666666666665e-01
1.666666666666667e-01 3.333333333333333e-01 1.666666666666665e-01
1.666666666666667e-01 3.333333333333333e-01 1.666666666666665e-01
1.666666666666667e-01 3.333333333333333e-01 1.666666666666665e-01
1.666666666666667e-01 3.333333333333333e-01 1.666666666666665e-01
1.666666666666667e-01 3.333333333333333e-01 1.666666666666665e-01
1.666666666666667e-01 3.333333333333333e-01 1.666666666666665e-01
1.666666666666667e-01 3.333333333333333e-01 1.666666666666665e-01
1.666666666666667e-01 3.333333333333333e-01 1.666666666666665e-01
1.666666666666667e-01 3.333333333333333e-01 1.666666666666665e-01
1.666666666666667e-01 3.333333333333333e-01 1.666666666666665e-01
1.666666666666667e-01 3.333333333333333e-01 1.666666666666665e-01
1.666666666666667e-01 3.333333333333333e-01 1.666666666666665e-01
1.666666666666667e-01 3.333333333333333e-01 1.666666666666665e-01
1.666666666666667e-01 3.333333333333333e-01 1.666666666666665e-01
1.666666666666667e-01 3.333333333333333e-01 1.666666666666665e-01
1.666666666666667e-01 3.333333333333333e-01 1.666666666666665e-01
1.666666666666667e-01 3.333333333333333e-01 1.666666666666665e-01
1.666666666666667e-01 3.333333333333333e-01 1.666666666666665e-01
1.666666666666667e-01 3.333333333333333e-01 1.666666666666665e-01
1.666666666666667e-01 3.333333333333333e-01 1.666666666666665e-01
1.666666666666667e-01 3.333333333333333e-01 1.666666666666665e-01
1.666666666666667e-01 3.333333333333333e-01 1.666666666666665e-01
1.666666666666667e-01 3.333333333333333e-01 1.666666666666665e-01
1.666666666666667e-01 3.333333333333333e-01 1.666666666666665e-01
1.666666666666667e-01 3.333333333333333e-01 1.666666666666665e-01
1.666666666666667e-01 3.333333333333333e-01 1.666666666666665e-01
1.666666666666667e-01 3.333333333333333e-01 1.666666666666665e-01
1.666666666666667e-01 3.333333333333333e-01 1.666666666666665e-01
1.666666666666667e-01 3.333333333333333e-01 1.666666666666665e-01
1.666666666666667e-01 3.333333333333333e-01 1.666666666666665e-01
1.666666666666667e-01 3.333333333333333e-01 1.666666666666665e-01
1.666666666666667e-01 3.333333333333333e-01 1.666666666666665e-01
1.666666666666667e-01 3.333333333333333e-01 1.666666666666665e-01
1.666666666666667e-01 3.333333333333333e-01 1.666666666666665e-01
1.666666666666667e-01 3.333333333333333e-01 1.666666666666665e-01
1.666666666666667e-01 3.333333333333333e-01 1.666666666666665e-01
1.666666666666667e-01 3.333333333333333e-01 1.666666666666665e-01
1.666666666666667e-01 3.333333333333333e-01 1.666666666666665e-01
1.666666666666667e-01 3.333333333333333e-01 1.666666666666665e-01
1.666666666666667e-01 3.333333333333333e-01 1.666666666666665e-01
1.666666666666667e-01 3.333333333333333e-01 1.666666666666665e-01
1.666666666666667e-01 3.333333333333333e-01 1.666666666666665e-01
1.666666666666667e-01 3.333333333333333e-01 1.666666666666665e-01
1.666666666666667e-01 3.333333333333333e-01 1.666666666666665e-01
1.666666666666667e-01 3.333333333333333e-01 1.666666666666665e-01
1.666666666666667e-01 3.333333333333333e-01 1.666666666666665e-01
1.666666666666667e-01 3.333333333333333e-01 1.666666666666665e-01
1.666666666666667e-01 3.333333333333333e-01 1.666666666666665e-01
1.666666666666667e-01 3.333333333333333e-01 1.666666666666665e-01
1.666666666666667e-01 3.333333333333333e-01 1.666666666666665e-01
1.666666666666667e-01 3.333333333333333e-01 1.666666666666665e-01
1.666666666666667e-01 3.333333333333333e-01 1.666666666666665e-01
1.666666666666667e-01 3.333333333333333e-01 1.666666666666665e-01
1.666666666666667e-01 3.333333333333333e-01 1.666666666666665e-01
1.666666666666667e-01 3.333333333333333e-01 1.666666666666665e-01
1.666666666666667e-01 3.333333333333333e-01 1.666666666666665e-01
1.666666666666667e-01 3.333333333333333e-01 1.666666666666665e-01
1.666666666666667e-01 3.333333333333333e-01 1.666666666666665e-01
1.666666666666667e-01 3.333333333333333e-01 1.666666666666665e-01
1.666666666666667e-01 3.333333333333333e-01 1.666666666666665e-01
1.666666666666667e-01 3.333333333333333e-01 1.666666666666665e-01
1.666666666666667e-01 3.333333333333333e-01 1.666666666666665e-01
1.666666666666667e-01 3.333333333333333e-01 1.666666666666665e-01
1.666666666666667e-01 3.333333333333333e-01 1.666666666666665e-01
1.666666666666667e-01 3.333333333333333e-01 1.666666666666665e-01
1.666666666666667e-01 3.333333333333333e-01 1.666666666666665e-01
1.666666666666667e-01 3.333333333333333e-01 1.666666666666665e-01
1.666666666666667e-01 3.333333333333333e-01 1.666666666666665e-01
1.666666666666667e-01 3.333333333333333e-01 1.666666666666665e-01
1.666666666666667e-01 3.333333333333333e-01 1.666666666666665e-01
1.666666666666667e-01 3.333333333333333e-01 1.666666666666665e-01
1.666666666666667e-01 3.333333333333333e-01 1.666666666666665e-01
1.666666666666667e-01 3.333333333333333e-01 1.666666666666665e-01
1.666666666666667e-01 3.333333333333333e-01 1.666666666666665e-01
1.666666666666667e-01 3.333333333333333e-01 1.666666666666665e-01
1.666666666666667e-01 3.333333333333333e-01 1.666666666666665e-01
1.666666666666667e-01 3.333333333333333e-01 1.666666666666665e-01
1.666666666666667e-01 3.333333333333333e-01 1.666666666666665e-01
1.666666666666667e-01 3.333333333333333e-01 1.666666666666665e-01
1.666666666666667e-01 3.333333333333333e-01 1.666666666666665e-01
1.666666666666667e-01 3.333333333333333e-01 1.666666666666665e-01
1.666666666666667e-01 3.333333333333333e-01 1.666666666666665e-01
1.666666666666667e-01 3.333333333333333e-01 1.666666666666665e-01
1.666666666666667e-01 3.333333333333333e-01 1.666666666666665e-01
-1.666666666666667e-01 -3.333333333333333e-01 -1.666666666666665e-01
1.666666666666667e-01 3.333333333333333e-01 1.666666666666665e-01
1.666666666666667e-01 3.333333333333333e-01 1.666666666666665e-01
1.666666666666667e-01 3.333333333333333e-01 1.666666666666665e-01
1.666666666666667e-01 3.333333333333333e-01 1.666666666666665e-01
1.666666666666667e-01 3.333333333333333e-01 1.666666666666665e-01
1.666666666666667e-01 3.333333333333333e-01 1.666666666666665e-01
1.666666666666667e-01 3.333333333333333e-01 1.666666666666665e-01
1.666666666666667e-01 3.333333333333333e-01 1.666666666666665e-01
1.666666666666667e-01 3.333333333333333e-01 1.666666666666665e-01
1.666666666666667e-01 3.333333333333333e-01 1.666666666666665e-01
1.666666666666667e-01 3.333333333333333e-01 1.666666666666665e-01
1.666666666666667e-01 3.333333333333333e-01 1.666666666666665e-01
1.666666666666667e-01 3.333333333333333e-01 1.666666666666665e-01
1.666666666666667e-01 3.333333333333333e-01 1.666666666666665e-01
1.666666666666667e-01 3.333333333333333e-01 1.666666666666665e-01
1.666666666666667e-01 3.333333333333333e-01 1.666666666666665e-01
1.666666666666667e-01 3.333333333333333e-01 1.666666666666665e-01
1.666666666666667e-01 3.333333333333333e-01 1.666666666666665e-01
1.666666666666667e-01 3.333333333333333e-01 1.666666666666665e-01
1.666666666666667e-01 3.333333333333333e-01 1.666666666666665e-01
1.666666666666667e-01 3.333333333333333e-01 1.666666666666665e-01
1.666666666666667e-01 3.333333333333333e-01 1.666666666666665e-01
1.666666666666667e-01 3.333333333333333e-01 1.666666666666665e-01
1.666666666666667e-01 3.333333333333333e-01 1.666666666666665e-01
1.666666666666667e-01 3.333333333333333e-01 1.666666666666665e-01
1.666666666666667e-01 3.333333333333333e-01 1.666666666666665e-01
1.666666666666667e-01 3.333333333333333e-01 1.666666666666665e-01
1.666666666666667e-01 3.333333333333333e-01 1.666666666666665e-01
1.666666666666667e-01 3.333333333333333e-01 1.666666666666665e-01
1.666666666666667e-01 3.333333333333333e-01 1.666666666666665e-01
1.666666666666667e-01 3.333333333333333e-01 1.666666666666665e-01
1.666666666666667e-01 3.333333333333333e-01 1.666666666666665e-01
1.666666666666667e-01 3.333333333333333e-01 1.666666666666665e-01
1.666666666666667e-01 3.333333333333333e-01 1.666666666666665e-01
1.666666666666667e-01 3.333333333333333e-01 1.666666666666665e-01
1.666666666666667e-01 3.333333333333333e-01 1.666666666666665e-01
1.666666666666667e-01 3.333333333333333e-01 1.666666666666665e-01
1.666666666666667e-01 3.333333333333333e-01 1.666666666666665e-01
1.666666666666667e-01 3.333333333333333e-01 1.666666666666665e-01
1.666666666666667e-01 3.333333333333333e-01 1.666666666666665e-01
1.666666666666667e-01 3.333333333333333e-01 1.666666666666665e-01
1.666666666666667e-01 3.333333333333333e-01 1.666666666666665e-01
1.666666666666667e-01 3.333333333333333e-01 1.666666666666665e-01
1.666666666666667e-01 3.333333333333333e-01 1.666666666666665e-01
1.666666666666667e-01 3.333333333333333e-01 1.666666666666665e-01
1.666666666666667e-01 3.333333333333333e-01 1.666666666666665e-01
1.666666666666667e-01 3.333333333333333e-01 1.666666666666665e-01
1.666666666666667e-01 3.333333333333333e-01 1.666666666666665e-01
1.666666666666667e-01 3.333333333333333e-01 1.666666666666665e-01
1.666666666666667e-01 3.333333333333333e-01 1.666666666666665e-01
1.666666666666667e-01 3.333333333333333e-01 1.666666666666665e-01
1.666666666666667e-01 3.333333333333333e-01 1.666666666666665e-01
1.666666666666667e-01 3.333333333333333e-01 1.666666666666665e-01
1.666666666666667e-01 3.333333333333333e-01 1.666666666666665e-01
1.666666666666667e-01 3.333333333333333e-01 1.666666666666665e-01
1.666666666666667e-01 3.333333333333333e-01 1.666666666666665e-01
1.666666666666667e-01 3.333333333333333e-01 1.666666666666665e-01
1.666666666666667e-01 3.333333333333333e-01 1.666666666666665e-01
1.666666666666667e-01 3.333333333333333e-01 1.666666666666665e-01
1.666666666666667e-01 3.333333333333333e-01 1.666666666666665e-01
1.666666666666667e-01 3.333333333333333e-01 1.666666666666665e-01
1.666666666666667e-01 3.333333333333333e-01 1.666666666666665e-01
1.666666666666667e-01 3.333333333333333e-01 1.666666666666665e-01
1.666666666666667e-01 3.333333333333333e-01 1.666666666666665e-01
1.666666666666667e-01 3.333333333333333e-01 1.666666666666665e-01
1.666666666666667e-01 3.333333333333333e-01 1.666666666666665e-01
1.666666666666667e-01 3.333333333333333e-01 1.666666666666665e-01
1.666666666666667e-01 3.333333333333333e-01 1.666666666666665e-01
1.666666666666667e-01 3.333333333333333e-01 1.666666666666665e-01
1.666666666666667e-01 3.333333333333333e-01 1.666666666666665e-01
1.666666666666667e-01 3.333333333333333e-01 1.666666666666665e-01
1.666666666666667e-01 3.333333333333333e-01 1.666666666666665e-01
1.666666666666667e-01 3.333333333333333e-01 1.666666666666665e-01
1.666666666666667e-01 3.333333333333333e-01 1.666666666666665e-01
1.666666666666667e-01 3.333333333333333e-01 1.666666666666665e-01
1.666666666666667e-01 3.333333333333333e-01 1.666666666666665e-01
1.666666666666667e-01 3.333333333333333e-01 1.666666666666665e-01
1.666666666666667e-01 3.333333333333333e-01 1.666666666666665e-01
1.666666666666667e-01 3.333333333333333e-01 1.666666666666665e-01
1.666666666666667e-01 3.333333333333333e-01 1.666666666666665e-01
1.666666666666667e-01 3.333333333333333e-01 1.666666666666665e-01
1.666666666666667e-01 3.333333333333333e-01 1.666666666666665e-01
1.666666666666667e-01 3.333333333333333e-01 1.666666666666665e-01
1.666666666666667e-01 3.333333333333333e-01 1.666666666666665e-01
1.666666666666667e-01 3.333333333333333e-01 1.666666666666665e-01
1.666666666666667e-01 3.333333333333333e-01 1.666666666666665e-01
1.666666666666667e-01 3.333333333333333e-01 1.666666666666665e-01
1.666666666666667e-01 3.333333333333333e-01 1.666666666666665e-01
1.666666666666667e-01 3.333333333333333e-01 1.666666666666665e-01
1.666666666666667e-01 3.333333333333333e-01 1.666666666666665e-01
1.666666666666667e-01 3.333333333333333e-01 1.666666666666665e-01
1.666666666666667e-01 3.333333333333333e-01 1.666666666666665e-01
1.666666666666667e-01 3.333333333333333e-01 1.666666666666665e-01
1.666666666666667e-01 3.333333333333333e-01 1.666666666666665e-01
1.666666666666667e-01 3.333333333333333e-01 1.666666666666665e-01
1.666666666666667e-01 3.333333333333333e-01 1.666666666666665e-01
1.666666666666667e-01 3.333333333333333e-01 1.666666666666665e-01
1.666666666666667e-01 3.333333333333333e-01 1.666666666666665e-01
1.666666666666667e-01 3.333333333333333e-01 1.666666666666665e-01
1.666666666666667e-01 3.333333333333333e-01 1.666666666666665e-01
1.666666666666667e-01 3.333333333333333e-01 1.666666666666665e-01
1.666666666666667e-01 3.333333333333333e-01 1.666666666666665e-01
1.666666666666667e-01 3.333333333333333e-01 1.666666666666665e-01
1.666666666666667e-01 3.333333333333333e-01 1.666666666666665e-01
1.666666666666667e-01 3.333333333333333e-01 1.666666666666665e-01
1.666666666666667e-01 3.333333333333333e-01 1.666666666666665e-01
1.666666666666667e-01 3.333333333333333e-01 1.666666666666665e-01
1.666666666666667e-01 3.333333333333333e-01 1.666666666666665e-01
1.666666666666667e-01 3.333333333333333e-01 1.666666666666665e-01
1.666666666666667e-01 3.333333333333333e-01 1.666666666666665e-01
1.666666666666667e-01 3.333333333333333e-01 1.666666666666665e-01
1.666666666666667e-01 3.333333333333333e-01 1.666666666666665e-01
1.666666666666667e-01 3.333333333333333e-01 1.666666666666665e-01
1.666666666666667e-01 3.333333333333333e-01 1.666666666666665e-01
1.666666666666667e-01 3.333333333333333e-01 1.666666666666665e-01
1.666666666666667e-01 3.333333333333333e-01 1.666666666666665e-01
1.666666666666667e-01 3.333333333333333e-01 1.666666666666665e-01
1.666666666666667e-01 3.333333333333333e-01 1.666666666666665e-01
1.666666666666667e-01 3.333333333333333e-01 1.666666666666665e-01
1.666666666666667e-01 3.333333333333333e-01 1.666666666666665e-01
1.666666666666667e-01 3.333333333333333e-01 1.666666666666665e-01
1.666666666666667e-01 3.333333333333333e-01 1.666666666666665e-01
1.666666666666667e-01 3.333333333333333e-01 1.666666666666665e-01
1.666666666666667e-01 3.333333333333333e-01 1.666666666666665e-01
1.666666666666667e-01 3.333333333333333e-01 1.666666666666665e-01
1.666666666666667e-01 3.333333333333333e-01 1.666666666666665e-01
1.666666666666667e-01 3.333333333333333e-01 1.666666666666665e-01
1.666666666666667e-01 3.333333333333333e-01 1.666666666666665e-01
1.666666666666667e-01 3.333333333333333e-01 1.666666666666665e-01
1.666666666666667e-01 3.333333333333333e-01 1.666666666666665e-01
1.666666666666667e-01 3.333333333333333e-01 1.666666666666665e-01
1.666666666666667e-01 3.333333333333333e-01 1.666666666666665e-01
1.666666666666667e-01 3.333333333333333e-01 1.666666666666665e-01
1.666666666666667e-01 3.333333333333333e-01 1.666666666666665e-01
1.666666666666667e-01 3.333333333333333e-01 1.666666666666665e-01
1.666666666666667e-01 3.333333333333333e-01 1.666666666666665e-01
1.666666666666667e-01 3.333333333333333e-01 1.666666666666665e-01
1.666666666666667e-01 3.333333333333333e-01 1.666666666666665e-01
1.666666666666667e-01 3.333333333333333e-01 1.666666666666665e-01
1.666666666666667e-01 3.333333333333333e-01 1.666666666666665e-01
1.666666666666667e-01 3.333333333333333e-01 1.666666666666665e-01
1.666666666666667e-01 3.333333333333333e-01 1.666666666666665e-01
1.666666666666667e-01 3.333333333333333e-01 1.666666666666665e-01
1.666666666666667e-01 3.333333333333333e-01 1.666666666666665e-01
1.666666666666667e-01 3.333333333333333e-01 1.666666666666665e-01
1.666666666666667e-01 3.333333333333333e-01 1.666666666666665e-01
1.666666666666667e-01 3.333333333333333e-01 1.666666666666665e-01
1.666666666666667e-01 3.333333333333333e-01 1.666666666666665e-01
1.666666666666667e-01 3.333333333333333e-01 1.666666666666665e-01
1.666666666666667e-01 3.333333333333333e-01 1.666666666666665e-01
1.666666666666667e-01 3.333333333333333e-01 1.666666666666665e-01
1.666666666666667e-01 3.333333333333333e-01 1.666666666666665e-01
1.666666666666667e-01 3.333333333333333e-01 1.666666666666665e-01
1.666666666666667e-01 3.333333333333333e-01 1.666666666666665e-01
1.666666666666667e-01 3.333333333333333e-01 1.666666666666665e-01
1.666666666666667e-01 3.333333333333333e-01 1.666666666666665e-01
1.666666666666667e-01 3.333333333333333e-01 1.666666666666665e-01
1.666666666666667e-01 3.333333333333333e-01 1.666666666666665e-01
1.666666666666667e-01 3.333333333333333e-01 1.666666666666665e-01
1.666666666666667e-01 3.333333333333333e-01 1.666666666666665e-01
1.666666666666667e-01 3.333333333333333e-01 1.666666666666665e-01
1.666666666666667e-01 3.333333333333333e-01 1.666666666666665e-01
1.666666666666667e-01 3.333333333333333e-01 1.666666666666665e-01
1.666666666666667e-01 3.333333333333333e-01 1.666666666666665e-01
1.666666666666667e-01 3.333333333333333e-01 1.666666666666665e-01
1.666666666666667e-01 3.333333333333333e-01 1.666666666666665e-01
1.666666666666667e-01 3.333333333333333e-01 1.666666666666665e-01
1.666666666666667e-01 3.333333333333333e-01 1.666666666666665e-01
1.666666666666667e-01 3.333333333333333e-01 1.666666666666665e-01
1.666666666666667e-01 3.333333333333333e-01 1.666666666666665e-01
1.666666666666667e-01 3.333333333333333e-01 1.666666666666665e-01
1.666666666666667e-01 3.333333333333333e-01 1.666666666666665e-01
1.666666666666667e-01 3.333333333333333e-01 1.666666666666665e-01
1.666666666666667e-01 3.333333333333333e-01 1.666666666666665e-01
1.666666666666667e-01 3.333333333333333e-01 1.666666666666665e-01
1.666666666666667e-01 3.333333333333333e-01 1.666666666666665e-01
1.666666666666667e-01 3.333333333333333e-01 1.666666666666665e-01
1.666666666666667e-01 3.333333333333333e-01 1.666666666666665e-01
1.666666666666667e-01 3.333333333333333e-01 1.666666666666665e-01
1.666666666666667e-01 3.333333333333333e-01 1.666666666666665e-01
1.666666666666667e-01 3.333333333333333e-01 1.666666666666665e-01
1.666666666666667e-01 3.333333333333333e-01 1.666666666666665e-01
1.666666666666667e-01 3.333333333333333e-01 1.666666666666665e-01
1.666666666666667e-01 3.333333333333333e-01 1.666666666666665e-01
1.666666666666667e-01 3.333333333333333e-01 1.666666666666665e-01
1.666666666666667e-01 3.333333333333333e-01 1.666666666666665e-01
1.666666666666667e-01 3.333333333333333e-01 1.666666666666665e-01
1.666666666666667e-01 3.333333333333333e-01 1.666666666666665e-01
1.666666666666667e-01 3.333333333333333e-01 1.666666666666665e-01
1.666666666666667e-01 3.333333333333333e-01 1.666666666666665e-01
1.666666666666667e-01 3.333333333333333e-01 1.666666666666665e-01
1.666666666666667e-01 3.333333333333333e-01 1.666666666666665e-01
1.666666666666667e-01 3.333333333333333e-01 1.666666666666665e-01
1.666666666666667e-01 3.333333333333333e-01 1.666666666666665e-01
1.666666666666667e-01 3.333333333333333e-01 1.666666666666665e-01
1.666666666666667e-01 3.333333333333333e-01 1.666666666666665e-01
1.666666666666667e-01 3.333333333333333e-01 1.666666666666665e-01
1.666666666666667e-01 3.333333333333333e-01 1.666666666666665e-01
1.666666666666667e-01 3.333333333333333e-01 1.666666666666665e-01
1.666666666666667e-01 3.333333333333333e-01 1.666666666666665e-01
1.666666666666667e-01 3.333333333333333e-01 1.666666666666665e-01
1.666666666666667e-01 3.333333333333333e-01 1.666666666666665e-01
1.666666666666667e-01 3.333333333333333e-01 1.666666666666665e-01
1.666666666666667e-01 3.333333333333333e-01 1.666666666666665e-01
1.666666666666667e-01 3.333333333333333e-01 1.666666666666665e-01
1.666666666666667e-01 3.333333333333333e-01 1.666666666666665e-01
1.666666666666667e-01 3.333333333333333e-01 1.666666666666665e-01
1.666666666666667e-01 3.333333333333333e-01 1.666666666666665e-01
1.666666666666667e-01 3.333333333333333e-01 1.666666666666665e-01
1.666666666666667e-01 3.333333333333333e-01 1.666666666666665e-01
1.666666666666667e-01 3.333333333333333e-01 1.666666666666665e-01
1.666666666666667e-01 3.333333333333333e-01 1.666666666666665e-01
1.666666666666667e-01 3.333333333333333e-01 1.666666666666665e-01
1.666666666666667e-01 3.333333333333333e-01 1.666666666666665e-01
1.666666666666667e-01 3.333333333333333e-01 1.666666666666665e-01
1.666666666666667e-01 3.333333333333333e-01 1.666666666666665e-01
1.666666666666667e-01 3.333333333333333e-01 1.666666666666665e-01
1.666666666666667e-01 3.333333333333333e-01 1.666666666666665e-01
1.666666666666667e-01 3.333333333333333e-01 1.666666666666665e-01
1.666666666666667e-01 3.333333333333333e-01 1.666666666666665e-01
1.666666666666667e-01 3.333333333333333e-01 1.666666666666665e-01
1.666666666666667e-01 3.333333333333333e-01 1.666666666666665e-01
1.666666666666667e-01 3.333333333333333e-01 1.666666666666665e-01
1.666666666666667e-01 3.333333333333333e-01 1.666666666666665e-01
1.666666666666667e-01 3.333333333333333e-01 1.666666666666665e-01
1.666666666666667e-01 3.333333333333333e-01 1.666666666666665e-01
1.666666666666667e-01 3.333333333333333e-01 1.666666666666665e-01
1.666666666666667e-01 3.333333333333333e-01 1.666666666666665e-01
1.666666666666667e-01 3.333333333333333e-01 1.666666666666665e-01
1.666666666666667e-01 3.333333333333333e-01 1.666666666666665e-01
1.666666666666667e-01 3.333333333333333e-01 1.666666666666665e-01
1.666666666666667e-01 3.333333333333333e-01 1.666666666666665e-01
1.666666666666667e-01 3.333333333333333e-01 1.666666666666665e-01
1.666666666666667e-01 3.333333333333333e-01 1.666666666666665e-01
1.666666666666667e-01 3.333333333333333e-01 1.666666666666665e-01
1.666666666666667e-01 3.333333333333333e-01 1.666666666666665e-01
1.666666666666667e-01 3.333333333333333e-01 1.666666666666665e-01
1.666666666666667e-01 3.333333333333333e-01 1.666666666666665e-01
1.666666666666667e-01 3.333333333333333e-01 1.666666666666665e-01
1.666666666666667e-01 3.333333333333333e-01 1.666666666666665e-01
1.666666666666667e-01 3.333333333333333e-01 1.666666666666665e-01
1.666666666666667e-01 3.333333333333333e-01 1.666666666666665e-01
1.666666666666667e-01 3.333333333333333e-01 1.666666666666665e-01
1.666666666666667e-01 3.333333333333333e-01 1.666666666666665e-01
1.666666666666667e-01 3.333333333333333e-01 1.666666666666665e-01
1.666666666666667e-01 3.333333333333333e-01 1.666666666666665e-01
1.666666666666667e-01 3.333333333333333e-01 1.666666666666665e-01
1.666666666666667e-01 3.333333333333333e-01 1.666666666666665e-01
1.666666666666667e-01 3.333333333333333e-01 1.666666666666665e-01
1.666666666666667e-01 3.333333333333333e-01 1.666666666666665e-01
1.666666666666667e-01 3.333333333333333e-01 1.666666666666665e-01
1.666666666666667e-01 3.333333333333333e-01 1.666666666666665e-01
1.666666666666667e-01 3.333333333333333e-01 1.666666666666665e-01
1.666666666666667e-01 3.333333333333333e-01 1.666666666666665e-01
1.666666666666667e-01 3.333333333333333e-01 1.666666666666665e-01
1.666666666666667e-01 3.333333333333333e-01 1.666666666666665e-01
1.666666666666667e-01 3.333333333333333e-01 1.666666666666665e-01
1.666666666666667e-01 3.333333333333333e-01 1.666666666666665e-01
1.666666666666667e-01 3.333333333333333e-01 1.666666666666665e-01
1.666666666666667e-01 3.333333333333333e-01 1.666666666666665e-01
1.666666666666667e-01 3.333333333333333e-01 1.666666666666665e-01
1.666666666666667e-01 3.333333333333333e-01 1.666666666666665e-01
1.666666666666667e-01 3.333333333333333e-01 1.666666666666665e-01
 1.666666666666667e-01 -1.666666666666665e-01 -3.333333333333333e-01
-1.666666666666667e-01  1.666666666666665e-01  3.333333333333333e-01
 1.666666666666667e-01 -1.666666666666665e-01 -3.333333333333333e-01
 1.666666666666667e-01 -1.666666666666665e-01 -3.333333333333333e-01
 1.666666666666667e-01 -1.666666666666665e-01 -3.333333333333333e-01
 1.666666666666667e-01 -1.666666666666665e-01 -3.333333333333333e-01
 1.666666666666667e-01 -1.666666666666665e-01 -3.333333333333333e-01
 1.666666666666667e-01 -1.666666666666665e-01 -3.333333333333333e-01
 1.666666666666667e-01 -1.666666666666665e-01 -3.333333333333333e-01
 1.666666666666667e-01 -1.666666666666665e-01 -3.333333333333333e-01
 1.666666666666667e-01 -1.666666666666665e-01 -3.333333333333333e-01
 1.666666666666667e-01 -1.666666666666665e-01 -3.333333333333333e-01
 1.666666666666667e-01 -1.666666666666665e-01 -3.333333333333333e-01
 1.666666666666667e-01 -1.666666666666665e-01 -3.333333333333333e-01
 1.666666666666667e-01 -1.666666666666665e-01 -3.333333333333333e-01
 1.666666666666667e-01 -1.666666666666665e-01 -3.333333333333333e-01
 1.666666666666667e-01 -1.666666666666665e-01 -3.333333333333333e-01
 1.666666666666667e-01 -1.666666666666665e-01 -3.333333333333333e-01
 1.666666666666667e-01 -1.666666666666665e-01 -3.333333333333333e-01
 1.666666666666667e-01 -1.666666666666665e-01 -3.333333333333333e-01
 1.666666666666667e-01 -1.666666666666665e-01 -3.333333333333333e-01
 1.666666666666667e-01 -1.666666666666665e-01 -3.333333333333333e-01
 1.666666666666667e-01 -1.666666666666665e-01 -3.333333333333333e-01
 1.666666666666667e-01 -1.666666666666665e-01 -3.333333333333333e-01
 1.666666666666667e-01 -1.666666666666665e-01 -3.333333333333333e-01
 1.666666666666667e-01 -1.666666666666665e-01 -3.333333333333333e-01
 1.666666666666667e-01 -1.666666666666665e-01 -3.333333333333333e-01
 1.666666666666667e-01 -1.666666666666665e-01 -3.333333333333333e-01
 1.666666666666667e-01 -1.666666666666665e-01 -3.333333333333333e-01
 1.666666666666667e-01 -1.666666666666665e-01 -3.333333333333333e-01
 1.666666666666667e-01 -1.666666666666665e-01 -3.333333333333333e-01
 1.666666666666667e-01 -1.666666666666665e-01 -3.333333333333333e-01
 1.666666666666667e-01 -1.666666666666665e-01 -3.333333333333333e-01
 1.666666666666667e-01 -1.666666666666665e-01 -3.333333333333333e-01
 1.666666666666667e-01 -1.666666666666665e-01 -3.333333333333333e-01
 1.666666666666667e-01 -1.666666666666665e-01 -3.333333333333333e-01
 1.666666666666667e-01 -1.666666666666665e-01 -3.333333333333333e-01
 1.666666666666667e-01 -1.666666666666665e-01 -3.333333333333333e-01
 1.666666666666667e-01 -1.666666666666665e-01 -3.333333333333333e-01
 1.666666666666667e-01 -1.666666666666665e-01 -3.333333333333333e-01
 1.666666666666667e-01 -1.666666666666665e-01 -3.333333333333333e-01
 1.666666666666667e-01 -1.666666666666665e-01 -3.333333333333333e-01
 1.666666666666667e-01 -1.666666666666665e-01 -3.333333333333333e-01
 1.666666666666667e-01 -1.666666666666665e-01 -3.333333333333333e-01
 1.666666666666667e-01 -1.666666666666665e-01 -3.333333333333333e-01
 1.666666666666667e-01 -1.666666666666665e-01 -3.333333333333333e-01
 1.666666666666667e-01 -1.666666666666665e-01 -3.333333333333333e-01
 1.666666666666667e-01 -1.666666666666665e-01 -3.333333333333333e-01
 1.666666666666667e-01 -1.666666666666665e-01 -3.333333333333333e-01
 1.666666666666667e-01 -1.666666666666665e-01 -3.333333333333333e-01
 1.666666666666667e-01 -1.666666666666665e-01 -3.333333333333333e-01
 1.666666666666667e-01 -1.666666666666665e-01 -3.333333333333333e-01
 1.666666666666667e-01 -1.666666666666665e-01 -3.333333333333333e-01
 1.666666666666667e-01 -1.666666666666665e-01 -3.333333333333333e-01
 1.666666666666667e-01 -1.666666666666665e-01 -3.333333333333333e-01
 1.666666666666667e-01 -1.666666666666665e-01 -3.333333333333333e-01
 1.666666666666667e-01 -1.666666666666665e-01 -3.333333333333333e-01
 1.666666666666667e-01 -1.666666666666665e-01 -3.333333333333333e-01
 1.666666666666667e-01 -1.666666666666665e-01 -3.333333333333333e-01
 1.666666666666667e-01 -1.666666666666665e-01 -3.333333333333333e-01
 1.666666666666667e-01 -1.666666666666665e-01 -3.333333333333333e-01
 1.666666666666667e-01 -1.666666666666665e-01 -3.333333333333333e-01
 1.666666666666667e-01 -1.666666666666665e-01 -3.333333333333333e-01
 1.666666666666667e-01 -1.666666666666665e-01 -3.333333333333333e-01
 1.666666666666667e-01 -1.666666666666665e-01 -3.333333333333333e-01
 1.666666666666667e-01 -1.666666666666665e-01 -3.333333333333333e-01
 1.666666666666667e-01 -1.666666666666665e-01 -3.333333333333333e-01
 1.666666666666667e-01 -1.666666666666665e-01 -3.333333333333333e-01
 1.666666666666667e-01 -1.666666666666665e-01 -3.333333333333333e-01
 1.666666666666667e-01 -1.666666666666665e-01 -3.333333333333333e-01
 1.666666666666667e-01 -1.666666666666665e-01 -3.333333333333333e-01
 1.666666666666667e-01 -1.666666666666665e-01 -3.333333333333333e-01
 1.666666666666667e-01 -1.666666666666665e-01 -3.333333333333333e-01
 1.666666666666667e-01 -1.666666666666665e-01 -3.333333333333333e-01
 1.666666666666667e-01 -1.666666666666665e-01 -3.333333333333333e-01
 1.666666666666667e-01 -1.666666666666665e-01 -3.333333333333333e-01
 1.666666666666667e-01 -1.666666666666665e-01 -3.333333333333333e-01
 1.666666666666667e-01 -1.666666666666665e-01 -3.333333333333333e-01
 1.666666666666667e-01 -1.666666666666665e-01 -3.333333333333333e-01
 1.666666666666667e-01 -1.666666666666665e-01 -3.333333333333333e-01
 1.666666666666667e-01 -1.666666666666665e-01 -3.333333333333333e-01
 1.666666666666667e-01 -1.666666666666665e-01 -3.333333333333333e-01
 1.666666666666667e-01 -1.666666666666665e-01 -3.333333333333333e-01
 1.666666666666667e-01 -1.666666666666665e-01 -3.333333333333333e-01
 1.666666666666667e-01 -1.666666666666665e-01 -3.333333333333333e-01
 1.666666666666667e-01 -1.666666666666665e-01 -3.333333333333333e-01
 1.666666666666667e-01 -1.666666666666665e-01 -3.333333333333333e-01
 1.666666666666667e-01 -1.666666666666665e-01 -3.333333333333333e-01
 1.666666666666667e-01 -1.666666666666665e-01 -3.333333333333333e-01
 1.666666666666667e-01 -1.666666666666665e-01 -3.333333333333333e-01
 1.666666666666667e-01 -1.666666666666665e-01 -3.333333333333333e-01
 1.666666666666667e-01 -1.666666666666665e-01 -3.333333333333333e-01
 1.666666666666667e-01 -1.666666666666665e-01 -3.333333333333333e-01
 1.666666666666667e-01 -1.666666666666665e-01 -3.333333333333333e-01
 1.666666666666667e-01 -1.666666666666665e-01 -3.333333333333333e-01
 1.666666666666667e-01 -1.666666666666665e-01 -3.333333333333333e-01
 1.666666666666667e-01 -1.666666666666665e-01 -3.333333333333333e-01
 1.666666666666667e-01 -1.666666666666665e-01 -3.333333333333333e-01
 1.666666666666667e-01 -1.666666666666665e-01 -3.333333333333333e-01
 1.666666666666667e-01 -1.666666666666665e-01 -3.333333333333333e-01
 1.666666666666667e-01 -1.666666666666665e-01 -3.333333333333333e-01
 1.666666666666667e-01 -1.666666666666665e-01 -3.333333333333333e-01
 1.666666666666667e-01 -1.666666666666665e-01 -3.333333333333333e-01
 1.666666666666667e-01 -1.666666666666665e-01 -3.333333333333333e-01
 1.666666666666667e-01 -1.666666666666665e-01 -3.333333333333333e-01
 1.666666666666667e-01 -1.666666666666665e-01 -3.333333333333333e-01
 1.666666666666667e-01 -1.666666666666665e-01 -3.333333333333333e-01
 1.666666666666667e-01 -1.666666666666665e-01 -3.333333333333333e-01
 1.666666666666667e-01 -1.666666666666665e-01 -3.333333333333333e-01
 1.666666666666667e-01 -1.666666666666665e-01 -3.333333333333333e-01
 1.666666666666667e-01 -1.666666666666665e-01 -3.333333333333333e-01
 1.666666666666667e-01 -1.666666666666665e-01 -3.333333333333333e-01
 1.666666666666667e-01 -1.666666666666665e-01 -3.333333333333333e-01
 1.666666666666667e-01 -1.666666666666665e-01 -3.333333333333333e-01
 1.666666666666667e-01 -1.666666666666665e-01 -3.333333333333333e-01
 1.666666666666667e-01 -1.666666666666665e-01 -3.333333333333333e-01
 1.666666666666667e-01 -1.666666666666665e-01 -3.333333333333333e-01
 1.666666666666667e-01 -1.666666666666665e-01 -3.333333333333333e-01
 1.666666666666667e-01 -1.666666666666665e-01 -3.333333333333333e-01
 1.666666666666667e-01 -1.666666666666665e-01 -3.333333333333333e-01
 1.666666666666667e-01 -1.666666666666665e-01 -3.333333333333333e-01
 1.666666666666667e-01 -1.666666666666665e-01 -3.333333333333333e-01
 1.666666666666667e-01 -1.666666666666665e-01 -3.333333333333333e-01
 1.666666666666667e-01 -1.666666666666665e-01 -3.333333333333333e-01
 1.666666666666667e-01 -1.666666666666665e-01 -3.333333333333333e-01
 1.666666666666667e-01 -1.666666666666665e-01 -3.333333333333333e-01
 1.666666666666667e-01 -1.666666666666665e-01 -3.333333333333333e-01
 1.666666666666667e-01 -1.666666666666665e-01 -3.333333333333333e-01
 1.666666666666667e-01 -1.666666666666665e-01 -3.333333333333333e-01
 1.666666666666667e-01 -1.666666666666665e-01 -3.333333333333333e-01
 1.666666666666667e-01 -1.666666666666665e-01 -3.333333333333333e-01
 1.666666666666667e-01 -1.666666666666665e-01 -3.333333333333333e-01
 1.666666666666667e-01 -1.666666666666665e-01 -3.333333333333333e-01
 1.666666666666667e-01 -1.666666666666665e-01 -3.333333333333333e-01
 1.666666666666667e-01 -1.666666666666665e-01 -3.333333333333333e-01
 1.666666666666667e-01 -1.666666666666665e-01 -3.333333333333333e-01
 1.666666666666667e-01 -1.666666666666665e-01 -3.333333333333333e-01
 1.666666666666667e-01 -1.666666666666665e-01 -3.333333333333333e-01
 1.666666666666667e-01 -1.666666666666665e-01 -3.333333333333333e-01
 1.666666666666667e-01 -1.666666666666665e-01 -3.333333333333333e-01
 1.666666666666667e-01 -1.666666666666665e-01 -3.333333333333333e-01
 1.666666666666667e-01 -1.666666666666665e-01 -3.333333333333333e-01
 1.666666666666667e-01 -1.666666666666665e-01 -3.333333333333333e-01
 1.666666666666667e-01 -1.666666666666665e-01 -3.333333333333333e-01
 1.666666666666667e-01 -1.666666666666665e-01 -3.333333333333333e-01
 1.666666666666667e-01 -1.666666666666665e-01 -3.333333333333333e-01
 1.666666666666667e-01 -1.666666666666665e-01 -3.333333333333333e-01
 1.666666666666667e-01 -1.666666666666665e-01 -3.333333333333333e-01
 1.666666666666667e-01 -1.666666666666665e-01 -3.333333333333333e-01
 1.666666666666667e-01 -1.666666666666665e-01 -3.333333333333333e-01
 1.666666666666667e-01 -1.666666666666665e-01 -3.333333333333333e-01
 1.666666666666667e-01 -1.666666666666665e-01 -3.333333333333333e-01
 1.666666666666667e-01 -1.666666666666665e-01 -3.333333333333333e-01
 1.666666666666667e-01 -1.666666666666665e-01 -3.333333333333333e-01
 1.666666666666667e-01 -1.666666666666665e-01 -3.333333333333333e-01
 1.666666666666667e-01 -1.666666666666665e-01 -3.333333333333333e-01
 1.666666666666667e-01 -1.666666666666665e-01 -3.333333333333333e-01
 1.666666666666667e-01 -1.666666666666665e-01 -3.333333333333333e-01
 1.666666666666667e-01 -1.666666666666665e-01 -3.333333333333333e-01
 1.666666666666667e-01 -1.666666666666665e-01 -3.333333333333333e-01
 1.666666666666667e-01 -1.666666666666665e-01 -3.333333333333333e-01
 1.666666666666667e-01 -1.666666666666665e-01 -3.333333333333333e-01
 1.666666666666667e-01 -1.666666666666665e-01 -3.333333333333333e-01
 1.666666666666667e-01 -1.666666666666665e-01 -3.333333333333333e-01
 1.666666666666667e-01 -1.666666666666665e-01 -3.333333333333333e-01
 1.666666666666667e-01 -1.666666666666665e-01 -3.333333333333333e-01
 1.666666666666667e-01 -1.666666666666665e-01 -3.333333333333333e-01
 1.666666666666667e-01 -1.666666666666665e-01 -3.333333333333333e-01
 1.666666666666667e-01 -1.666666666666665e-01 -3.333333333333333e-01
 1.666666666666667e-01 -1.666666666666665e-01 -3.333333333333333e-01
 1.666666666666667e-01 -1.666666666666665e-01 -3.333333333333333e-01
 1.666666666666667e-01 -1.666666666666665e-01 -3.333333333333333e-01
 1.666666666666667e-01 -1.666666666666665e-01 -3.333333333333333e-01
 1.666666666666667e-01 -1.666666666666665e-01 -3.333333333333333e-01
 1.666666666666667e-01 -1.666666666666665e-01 -3.333333333333333e-01
 1.666666666666667e-01 -1.666666666666665e-01 -3.333333333333333e-01
 1.666666666666667e-01 -1.666666666666665e-01 -3.333333333333333e-01
 1.666666666666667e-01 -1.666666666666665e-01 -3.333333333333333e-01
 1.666666666666667e-01 -1.666666666666665e-01 -3.333333333333333e-01
 1.666666666666667e-01 -1.666666666666665e-01 -3.333333333333333e-01
 1.666666666666667e-01 -1.666666666666665e-01 -3.333333333333333e-01
 1.666666666666667e-01 -1.666666666666665e-01 -3.333333333333333e-01
 1.666666666666667e-01 -1.666666666666665e-01 -3.333333333333333e-01
 1.666666666666667e-01 -1.666666666666665e-01 -3.333333333333333e-01
 1.666666666666667e-01 -1.666666666666665e-01 -3.333333333333333e-01
 1.666666666666667e-01 -1.666666666666665e-01 -3.333333333333333e-01
 1.666666666666667e-01 -1.666666666666665e-01 -3.333333333333333e-01
 1.666666666666667e-01 -1.666666666666665e-01 -3.333333333333333e-01
 1.666666666666667e-01 -1.666666666666665e-01 -3.333333333333333e-01
 1.666666666666667e-01 -1.666666666666665e-01 -3.333333333333333e-01
 1.666666666666667e-01 -1.666666666666665e-01 -3.333333333333333e-01
 1.666666666666667e-01 -1.666666666666665e-01 -3.333333333333333e-01
 1.666666666666667e-01 -1.666666666666665e-01 -3.333333333333333e-01
 1.666666666666667e-01 -1.666666666666665e-01 -3.333333333333333e-01
 1.666666666666667e-01 -1.666666666666665e-01 -3.333333333333333e-01
 1.666666666666667e-01 -1.666666666666665e-01 -3.333333333333333e-01
 1.666666666666667e-01 -1.666666666666665e-01 -3.333333333333333e-01
 1.666666666666667e-01 -1.666666666666665e-01 -3.333333333333333e-01
 1.666666666666667e-01 -1.666666666666665e-01 -3.333333333333333e-01
 1.666666666666667e-01 -1.666666666666665e-01 -3.333333333333333e-01
 1.666666666666667e-01 -1.666666666666665e-01 -3.333333333333333e-01
 1.666666666666667e-01 -1.666666666666665e-01 -3.333333333333333e-01
 1.666666666666667e-01 -1.666666666666665e-01 -3.333333333333333e-01
 1.666666666666667e-01 -1.666666666666665e-01 -3.333333333333333e-01
 1.666666666666667e-01 -1.666666666666665e-01 -3.333333333333333e-01
 1.666666666666667e-01 -1.666666666666665e-01 -3.333333333333333e-01
 1.666666666666667e-01 -1.666666666666665e-01 -3.333333333333333e-01
 1.666666666666667e-01 -1.666666666666665e-01 -3.333333333333333e-01
 1.666666666666667e-01 -1.666666666666665e-01 -3.333333333333333e-01
 1.666666666666667e-01 -1.666666666666665e-01 -3.333333333333333e-01
 1.666666666666667e-01 -1.666666666666665e-01 -3.333333333333333e-01
 1.666666666666667e-01 -1.666666666666665e-01 -3.333333333333333e-01
 1.666666666666667e-01 -1.666666666666665e-01 -3.333333333333333e-01
 1.666666666666667e-01 -1.666666666666665e-01 -3.333333333333333e-01
 1.666666666666667e-01 -1.666666666666665e-01 -3.333333333333333e-01
 1.666666666666667e-01 -1.666666666666665e-01 -3.333333333333333e-01
 1.666666666666667e-01 -1.666666666666665e-01 -3.333333333333333e-01
 1.666666666666667e-01 -1.666666666666665e-01 -3.333333333333333e-01
 1.666666666666667e-01 -1.666666666666665e-01 -3.333333333333333e-01
 1.666666666666667e-01 -1.666666666666665e-01 -3.333333333333333e-01
 1.666666666666667e-01 -1.666666666666665e-01 -3.333333333333333e-01
 1.666666666666667e-01 -1.666666666666665e-01 -3.333333333333333e-01
 1.666666666666667e-01 -1.666666666666665e-01 -3.333333333333333e-01
 1.666666666666667e-01 -1.666666666666665e-01 -3.333333333333333e-01
 1.666666666666667e-01 -1.666666666666665e-01 -3.333333333333333e-01
 1.666666666666667e-01 -1.666666666666665e-01 -3.333333333333333e-01
 1.666666666666667e-01 -1.666666666666665e-01 -3.333333333333333e-01
 1.666666666666667e-01 -1.666666666666665e-01 -3.333333333333333e-01
 1.666666666666667e-01 -1.666666666666665e-01 -3.333333333333333e-01
 1.666666666666667e-01 -1.666666666666665e-01 -3.333333333333333e-01
 1.666666666666667e-01 -1.666666666666665e-01 -3.333333333333333e-01
 1.666666666666667e-01 -1.666666666666665e-01 -3.333333333333333e-01
 1.666666666666667e-01 -1.666666666666665e-01 -3.333333333333333e-01
 1.666666666666667e-01 -1.666666666666665e-01 -3.333333333333333e-01
 1.666666666666667e-01 -1.666666666666665e-01 -3.333333333333333e-01
 1.666666666666667e-01 -1.666666666666665e-01 -3.333333333333333e-01
 1.666666666666667e-01 -1.666666666666665e-01 -3.333333333333333e-01
 1.666666666666667e-01 -1.666666666666665e-01 -3.333333333333333e-01
 1.666666666666667e-01 -1.666666666666665e-01 -3.333333333333333e-01
 1.666666666666667e-01 -1.666666666666665e-01 -3.333333333333333e-01
 1.666666666666667e-01 -1.666666666666665e-01 -3.333333333333333e-01
 1.666666666666667e-01 -1.666666666666665e-01 -3.333333333333333e-01
 1.666666666666667e-01 -1.666666666666665e-01 -3.333333333333333e-01
 1.666666666666667e-01 -1.666666666666665e-01 -3.333333333333333e-01
 1.666666666666667e-01 -1.666666666666665e-01 -3.333333333333333e-01
 1.666666666666667e-01 -1.666666666666665e-01 -3.333333333333333e-01
 1.666666666666667e-01 -1.666666666666665e-01 -3.333333333333333e-01
 1.666666666666667e-01 -1.666666666666665e-01 -3.333333333333333e-01
 1.666666666666667e-01 -1.666666666666665e-01 -3.333333333333333e-01
 1.666666666666667e-01 -1.666666666666665e-01 -3.333333333333333e-01
 1.666666666666667e-01 -1.666666666666665e-01 -3.333333333333333e-01
 1.666666666666667e-01 -1.666666666666665e-01 -3.333333333333333e-01
 1.666666666666667e-01 -1.666666666666665e-01 -3.333333333333333e-01
 1.666666666666667e-01 -1.666666666666665e-01 -3.333333333333333e-01
 1.666666666666667e-01 -1.666666666666665e-01 -3.333333333333333e-01
 1.666666666666667e-01 -1.666666666666665e-01 -3.333333333333333e-01
 1.666666666666667e-01 -1.666666666666665e-01 -3.333333333333333e-01
 1.666666666666667e-01 -1.666666666666665e-01 -3.333333333333333e-01
 1.666666666666667e-01 -1.666666666666665e-01 -3.333333333333333e-01
 1.666666666666667e-01 -1.666666666666665e-01 -3.333333333333333e-01
 1.666666666666667e-01 -1.666666666666665e-01 -3.333333333333333e-01
 1.666666666666667e-01 -1.666666666666665e-01 -3.333333333333333e-01
 1.666666666666667e-01 -1.666666666666665e-01 -3.333333333333333e-01
 1.666666666666667e-01 -1.666666666666665e-01 -3.333333333333333e-01
 1.666666666666667e-01 -1.666666666666665e-01 -3.333333333333333e-01
 1.666666666666667e-01 -1.666666666666665e-01 -3.333333333333333e-01
 1.666666666666667e-01 -1.666666666666665e-01 -3.333333333333333e-01
-1.666666666666667e-01  1.666666666666665e-01  3.333333333333333e-01
 1.666666666666667e-01 -1.666666666666665e-01 -3.333333333333333e-01
 1.666666666666667e-01 -1.666666666666665e-01 -3.333333333333333e-01
 1.666666666666667e-01 -1.666666666666665e-01 -3.333333333333333e-01
 1.666666666666667e-01 -1.666666666666665e-01 -3.333333333333333e-01
 1.666666666666667e-01 -1.666666666666665e-01 -3.333333333333333e-01
 1.666666666666667e-01 -1.666666666666665e-01 -3.333333333333333e-01
 1.666666666666667e-01 -1.666666666666665e-01 -3.333333333333333e-01
 1.666666666666667e-01 -1.666666666666665e-01 -3.333333333333333e-01
 1.666666666666667e-01 -1.666666666666665e-01 -3.333333333333333e-01
 1.666666666666667e-01 -1.666666666666665e-01 -3.333333333333333e-01
 1.666666666666667e-01 -1.666666666666665e-01 -3.333333333333333e-01
 1.666666666666667e-01 -1.666666666666665e-01 -3.333333333333333e-01
 1.666666666666667e-01 -1.666666666666665e-01 -3.333333333333333e-01
 1.666666666666667e-01 -1.666666666666665e-01 -3.333333333333333e-01
 1.666666666666667e-01 -1.666666666666665e-01 -3.333333333333333e-01
 1.666666666666667e-01 -1.666666666666665e-01 -3.333333333333333e-01
 1.666666666666667e-01 -1.666666666666665e-01 -3.333333333333333e-01
 1.666666666666667e-01 -1.666666666666665e-01 -3.333333333333333e-01
 1.666666666666667e-01 -1.666666666666665e-01 -3.333333333333333e-01
 1.666666666666667e-01 -1.666666666666665e-01 -3.333333333333333e-01
 1.666666666666667e-01 -1.666666666666665e-01 -3.333333333333333e-01
 1.666666666666667e-01 -1.666666666666665e-01 -3.333333333333333e-01
 1.666666666666667e-01 -1.666666666666665e-01 -3.333333333333333e-01
 1.666666666666667e-01 -1.666666666666665e-01 -3.333333333333333e-01
 1.666666666666667e-01 -1.666666666666665e-01 -3.333333333333333e-01
 1.666666666666667e-01 -1.666666666666665e-01 -3.333333333333333e-01
 1.666666666666667e-01 -1.666666666666665e-01 -3.333333333333333e-01
 1.666666666666667e-01 -1.666666666666665e-01 -3.333333333333333e-01
 1.666666666666667e-01 -1.666666666666665e-01 -3.333333333333333e-01
 1.666666666666667e-01 -1.666666666666665e-01 -3.333333333333333e-01
 1.666666666666667e-01 -1.666666666666665e-01 -3.333333333333333e-01
 1.666666666666667e-01 -1.666666666666665e-01 -3.333333333333333e-01
 1.666666666666667e-01 -1.666666666666665e-01 -3.333333333333333e-01
 1.666666666666667e-01 -1.666666666666665e-01 -3.333333333333333e-01
 1.666666666666667e-01 -1.666666666666665e-01 -3.333333333333333e-01
 1.666666666666667e-01 -1.666666666666665e-01 -3.333333333333333e-01
 1.666666666666667e-01 -1.666666666666665e-01 -3.333333333333333e-01
 1.666666666666667e-01 -1.666666666666665e-01 -3.333333333333333e-01
 1.666666666666667e-01 -1.666666666666665e-01 -3.333333333333333e-01
 1.666666666666667e-01 -1.666666666666665e-01 -3.333333333333333e-01
 1.666666666666667e-01 -1.666666666666665e-01 -3.333333333333333e-01
 1.666666666666667e-01 -1.666666666666665e-01 -3.333333333333333e-01
 1.666666666666667e-01 -1.666666666666665e-01 -3.333333333333333e-01
 1.666666666666667e-01 -1.666666666666665e-01 -3.333333333333333e-01
 1.666666666666667e-01 -1.666666666666665e-01 -3.333333333333333e-01
 1.666666666666667e-01 -1.666666666666665e-01 -3.333333333333333e-01
 1.666666666666667e-01 -1.666666666666665e-01 -3.333333333333333e-01
 1.666666666666667e-01 -1.666666666666665e-01 -3.333333333333333e-01
 1.666666666666667e-01 -1.666666666666665e-01 -3.333333333333333e-01
 1.666666666666667e-01 -1.666666666666665e-01 -3.333333333333333e-01
 1.666666666666667e-01 -1.666666666666665e-01 -3.333333333333333e-01
 1.666666666666667e-01 -1.666666666666665e-01 -3.333333333333333e-01
 1.666666666666667e-01 -1.666666666666665e-01 -3.333333333333333e-01
 1.666666666666667e-01 -1.666666666666665e-01 -3.333333333333333e-01
 1.666666666666667e-01 -1.666666666666665e-01 -3.333333333333333e-01
 1.666666666666667e-01 -1.666666666666665e-01 -3.333333333333333e-01
 1.666666666666667e-01 -1.666666666666665e-01 -3.333333333333333e-01
 1.666666666666667e-01 -1.666666666666665e-01 -3.333333333333333e-01
 1.666666666666667e-01 -1.666666666666665e-01 -3.333333333333333e-01
 1.666666666666667e-01 -1.666666666666665e-01 -3.333333333333333e-01
 1.666666666666667e-01 -1.666666666666665e-01 -3.333333333333333e-01
 1.666666666666667e-01 -1.666666666666665e-01 -3.333333333333333e-01
 1.666666666666667e-01 -1.666666666666665e-01 -3.333333333333333e-01
 1.666666666666667e-01 -1.666666666666665e-01 -3.333333333333333e-01
 1.666666666666667e-01 -1.666666666666665e-01 -3.333333333333333e-01
 1.666666666666667e-01 -1.666666666666665e-01 -3.333333333333333e-01
 1.666666666666667e-01 -1.666666666666665e-01 -3.333333333333333e-01
 1.666666666666667e-01 -1.666666666666665e-01 -3.333333333333333e-01
 1.666666666666667e-01 -1.666666666666665e-01 -3.333333333333333e-01
 1.666666666666667e-01 -1.666666666666665e-01 -3.333333333333333e-01
 1.666666666666667e-01 -1.666666666666665e-01 -3.333333333333333e-01
 1.666666666666667e-01 -1.666666666666665e-01 -3.333333333333333e-01
 1.666666666666667e-01 -1.666666666666665e-01 -3.333333333333333e-01
 1.666666666666667e-01 -1.666666666666665e-01 -3.333333333333333e-01
 1.666666666666667e-01 -1.666666666666665e-01 -3.333333333333333e-01
 1.666666666666667e-01 -1.666666666666665e-01 -3.333333333333333e-01
 1.666666666666667e-01 -1.666666666666665e-01 -3.333333333333333e-01
 1.666666666666667e-01 -1.666666666666665e-01 -3.333333333333333e-01
 1.666666666666667e-01 -1.666666666666665e-01 -3.333333333333333e-01
 1.666666666666667e-01 -1.666666666666665e-01 -3.333333333333333e-01
 1.666666666666667e-01 -1.666666666666665e-01 -3.333333333333333e-01
 1.666666666666667e-01 -1.666666666666665e-01 -3.333333333333333e-01
 1.666666666666667e-01 -1.666666666666665e-01 -3.333333333333333e-01
 1.666666666666667e-01 -1.666666666666665e-01 -3.333333333333333e-01
 1.666666666666667e-01 -1.666666666666665e-01 -3.333333333333333e-01
 1.666666666666667e-01 -1.666666666666665e-01 -3.333333333333333e-01
 1.666666666666667e-01 -1.666666666666665e-01 -3.333333333333333e-01
 1.666666666666667e-01 -1.666666666666665e-01 -3.333333333333333e-01
 1.666666666666667e-01 -1.666666666666665e-01 -3.333333333333333e-01
 1.666666666666667e-01 -1.666666666666665e-01 -3.333333333333333e-01
 1.666666666666667e-01 -1.666666666666665e-01 -3.333333333333333e-01
 1.666666666666667e-01 -1.666666666666665e-01 -3.333333333333333e-01
 1.666666666666667e-01 -1.666666666666665e-01 -3.333333333333333e-01
 1.666666666666667e-01 -1.666666666666665e-01 -3.333333333333333e-01
 1.666666666666667e-01 -1.666666666666665e-01 -3.333333333333333e-01
 1.666666666666667e-01 -1.666666666666665e-01 -3.333333333333333e-01
 1.666666666666667e-01 -1.666666666666665e-01 -3.333333333333333e-01
 1.666666666666667e-01 -1.666666666666665e-01 -3.333333333333333e-01
 1.666666666666667e-01 -1.666666666666665e-01 -3.333333333333333e-01
 1.666666666666667e-01 -1.666666666666665e-01 -3.333333333333333e-01
 1.666666666666667e-01 -1.666666666666665e-01 -3.333333333333333e-01
 1.666666666666667e-01 -1.666666666666665e-01 -3.333333333333333e-01
 1.666666666666667e-01 -1.666666666666665e-01 -3.333333333333333e-01
 1.666666666666667e-01 -1.666666666666665e-01 -3.333333333333333e-01
 1.666666666666667e-01 -1.666666666666665e-01 -3.333333333333333e-01
 1.666666666666667e-01 -1.666666666666665e-01 -3.333333333333333e-01
 1.666666666666667e-01 -1.666666666666665e-01 -3.333333333333333e-01
 1.666666666666667e-01 -1.666666666666665e-01 -3.333333333333333e-01
 1.666666666666667e-01 -1.666666666666665e-01 -3.333333333333333e-01
 1.666666666666667e-01 -1.666666666666665e-01 -3.333333333333333e-01
 1.666666666666667e-01 -1.666666666666665e-01 -3.333333333333333e-01
 1.666666666666667e-01 -1.666666666666665e-01 -3.333333333333333e-01
 1.666666666666667e-01 -1.666666666666665e-01 -3.333333333333333e-01
 1.666666666666667e-01 -1.666666666666665e-01 -3.333333333333333e-01
 1.666666666666667e-01 -1.666666666666665e-01 -3.333333333333333e-01
 1.666666666666667e-01 -1.666666666666665e-01 -3.333333333333333e-01
 1.666666666666667e-01 -1.666666666666665e-01 -3.333333333333333e-01
 1.666666666666667e-01 -1.666666666666665e-01 -3.333333333333333e-01
 1.666666666666667e-01 -1.666666666666665e-01 -3.333333333333333e-01
 1.666666666666667e-01 -1.666666666666665e-01 -3.333333333333333e-01
 1.666666666666667e-01 -1.666666666666665e-01 -3.333333333333333e-01
 1.666666666666667e-01 -1.666666666666665e-01 -3.333333333333333e-01
 1.666666666666667e-01 -1.666666666666665e-01 -3.333333333333333e-01
 1.666666666666667e-01 -1.666666666666665e-01 -3.333333333333333e-01
 1.666666666666667e-01 -1.666666666666665e-01 -3.333333333333333e-01
 1.666666666666667e-01 -1.666666666666665e-01 -3.333333333333333e-01
 1.666666666666667e-01 -1.666666666666665e-01 -3.333333333333333e-01
 1.666666666666667e-01 -1.666666666666665e-01 -3.333333333333333e-01
 1.666666666666667e-01 -1.666666666666665e-01 -3.333333333333333e-01
 1.666666666666667e-01 -1.666666666666665e-01 -3.333333333333333e-01
 1.666666666666667e-01 -1.666666666666665e-01 -3.333333333333333e-01
 1.666666666666667e-01 -1.666666666666665e-01 -3.333333333333333e-01
 1.666666666666667e-01 -1.666666666666665e-01 -3.333333333333333e-01
 1.666666666666667e-01 -1.666666666666665e-01 -3.333333333333333e-01
 1.666666666666667e-01 -1.666666666666665e-01 -3.333333333333333e-01
 1.666666666666667e-01 -1.666666666666665e-01 -3.333333333333333e-01
 1.666666666666667e-01 -1.666666666666665e-01 -3.333333333333333e-01
 1.666666666666667e-01 -1.666666666666665e-01 -3.333333333333333e-01
 1.666666666666667e-01 -1.666666666666665e-01 -3.333333333333333e-01
 1.666666666666667e-01 -1.666666666666665e-01 -3.333333333333333e-01
 1.666666666666667e-01 -1.666666666666665e-01 -3.333333333333333e-01
 1.666666666666667e-01 -1.666666666666665e-01 -3.333333333333333e-01
 1.666666666666667e-01 -1.666666666666665e-01 -3.333333333333333e-01
 1.666666666666667e-01 -1.666666666666665e-01 -3.333333333333333e-01
 1.666666666666667e-01 -1.666666666666665e-01 -3.333333333333333e-01
 1.666666666666667e-01 -1.666666666666665e-01 -3.333333333333333e-01
 1.666666666666667e-01 -1.666666666666665e-01 -3.333333333333333e-01
 1.666666666666667e-01 -1.666666666666665e-01 -3.333333333333333e-01
 1.666666666666667e-01 -1.666666666666665e-01 -3.333333333333333e-01
 1.666666666666667e-01 -1.666666666666665e-01 -3.333333333333333e-01
 1.666666666666667e-01 -1.666666666666665e-01 -3.333333333333333e-01
 1.666666666666667e-01 -1.666666666666665e-01 -3.333333333333333e-01
 1.666666666666667e-01 -1.666666666666665e-01 -3.333333333333333e-01
 1.666666666666667e-01 -1.666666666666665e-01 -3.333333333333333e-01
 1.666666666666667e-01 -1.666666666666665e-01 -3.333333333333333e-01
 1.666666666666667e-01 -1.666666666666665e-01 -3.333333333333333e-01
 1.666666666666667e-01 -1.666666666666665e-01 -3.333333333333333e-01
 1.666666666666667e-01 -1.666666666666665e-01 -3.333333333333333e-01
 1.666666666666667e-01 -1.666666666666665e-01 -3.333333333333333e-01
 1.666666666666667e-01 -1.666666666666665e-01 -3.333333333333333e-01
 1.666666666666667e-01 -1.666666666666665e-01 -3.333333333333333e-01
 1.666666666666667e-01 -1.666666666666665e-01 -3.333333333333333e-01
 1.666666666666667e-01 -1.666666666666665e-01 -3.333333333333333e-01
 1.666666666666667e-01 -1.666666666666665e-01 -3.333333333333333e-01
 1.666666666666667e-01 -1.666666666666665e-01 -3.333333333333333e-01
 1.666666666666667e-01 -1.666666666666665e-01 -3.333333333333333e-01
 1.666666666666667e-01 -1.666666666666665e-01 -3.333333333333333e-01
 1.666666666666667e-01 -1.666666666666665e-01 -3.333333333333333e-01
 1.666666666666667e-01 -1.666666666666665e-01 -3.333333333333333e-01
 1.666666666666667e-01 -1.666666666666665e-01 -3.333333333333333e-01
 1.666666666666667e-01 -1.666666666666665e-01 -3.333333333333333e-01
 1.666666666666667e-01 -1.666666666666665e-01 -3.333333333333333e-01
 1.666666666666667e-01 -1.666666666666665e-01 -3.333333333333333e-01
 1.666666666666667e-01 -1.666666666666665e-01 -3.333333333333333e-01
 1.666666666666667e-01 -1.666666666666665e-01 -3.333333333333333e-01
 1.666666666666667e-01 -1.666666666666665e-01 -3.333333333333333e-01
 1.666666666666667e-01 -1.666666666666665e-01 -3.333333333333333e-01
 1.666666666666667e-01 -1.666666666666665e-01 -3.333333333333333e-01
 1.666666666666667e-01 -1.666666666666665e-01 -3.333333333333333e-01
 1.666666666666667e-01 -1.666666666666665e-01 -3.333333333333333e-01
 1.666666666666667e-01 -1.666666666666665e-01 -3.333333333333333e-01
 1.666666666666667e-01 -1.666666666666665e-01 -3.333333333333333e-01
 1.666666666666667e-01 -1.666666666666665e-01 -3.333333333333333e-01
 1.666666666666667e-01 -1.666666666666665e-01 -3.333333333333333e-01
 1.666666666666667e-01 -1.666666666666665e-01 -3.333333333333333e-01
 1.666666666666667e-01 -1.666666666666665e-01 -3.333333333333333e-01
 1.666666666666667e-01 -1.666666666666665e-01 -3.333333333333333e-01
 1.666666666666667e-01 -1.666666666666665e-01 -3.333333333333333e-01
 1.666666666666667e-01 -1.666666666666665e-01 -3.333333333333333e-01
 1.666666666666667e-01 -1.666666666666665e-01 -3.333333333333333e-01
 1.666666666666667e-01 -1.666666666666665e-01 -3.333333333333333e-01
 1.666666666666667e-01 -1.666666666666665e-01 -3.333333333333333e-01
 1.666666666666667e-01 -1.666666666666665e-01 -3.333333333333333e-01
 1.666666666666667e-01 -1.666666666666665e-01 -3.333333333333333e-01
 1.666666666666667e-01 -1.666666666666665e-01 -3.333333333333333e-01
 1.666666666666667e-01 -1.666666666666665e-01 -3.333333333333333e-01
 1.666666666666667e-01 -1.666666666666665e-01 -3.333333333333333e-01
 1.666666666666667e-01 -1.666666666666665e-01 -3.333333333333333e-01
 1.666666666666667e-01 -1.666666666666665e-01 -3.333333333333333e-01
 1.666666666666667e-01 -1.666666666666665e-01 -3.333333333333333e-01
 1.666666666666667e-01 -1.666666666666665e-01 -3.333333333333333e-01
 1.666666666666667e-01 -1.666666666666665e-01 -3.333333333333333e-01
 1.666666666666667e-01 -1.666666666666665e-01 -3.333333333333333e-01
 1.666666666666667e-01 -1.666666666666665e-01 -3.333333333333333e-01
 1.666666666666667e-01 -1.666666666666665e-01 -3.333333333333333e-01
 1.666666666666667e-01 -1.666666666666665e-01 -3.333333333333333e-01
 1.666666666666667e-01 -1.666666666666665e-01 -3.333333333333333e-01
 1.666666666666667e-01 -1.666666666666665e-01 -3.333333333333333e-01
 1.666666666666667e-01 -1.666666666666665e-01 -3.333333333333333e-01
 1.666666666666667e-01 -1.666666666666665e-01 -3.333333333333333e-01
 1.666666666666667e-01 -1.666666666666665e-01 -3.333333333333333e-01
 1.666666666666667e-01 -1.666666666666665e-01 -3.333333333333333e-01
 1.666666666666667e-01 -1.666666666666665e-01 -3.333333333333333e-01
 1.666666666666667e-01 -1.666666666666665e-01 -3.333333333333333e-01
 1.666666666666667e-01 -1.666666666666665e-01 -3.333333333333333e-01
 1.666666666666667e-01 -1.666666666666665e-01 -3.333333333333333e-01
 1.666666666666667e-01 -1.666666666666665e-01 -3.333333333333333e-01
 1.666666666666667e-01 -1.666666666666665e-01 -3.333333333333333e-01
 1.666666666666667e-01 -1.666666666666665e-01 -3.333333333333333e-01
 1.666666666666667e-01 -1.666666666666665e-01 -3.333333333333333e-01
 1.666666666666667e-01 -1.666666666666665e-01 -3.333333333333333e-01
 1.666666666666667e-01 -1.666666666666665e-01 -3.333333333333333e-01
 1.666666666666667e-01 -1.666666666666665e-01 -3.333333333333333e-01
 1.666666666666667e-01 -1.666666666666665e-01 -3.333333333333333e-01
 1.666666666666667e-01 -1.666666666666665e-01 -3.333333333333333e-01
 1.666666666666667e-01 -1.666666666666665e-01 -3.333333333333333e-01
 1.666666666666667e-01 -1.666666666666665e-01 -3.333333333333333e-01
 1.666666666666667e-01 -1.666666666666665e-01 -3.333333333333333e-01
 1.666666666666667e-01 -1.666666666666665e-01 -3.333333333333333e-01
 1.666666666666667e-01 -1.666666666666665e-01 -3.333333333333333e-01
 1.666666666666667e-01 -1.666666666666665e-01 -3.333333333333333e-01
 1.666666666666667e-01 -1.666666666666665e-01 -3.333333333333333e-01
 1.666666666666667e-01 -1.666666666666665e-01 -3.333333333333333e-01
 1.666666666666667e-01 -1.666666666666665e-01 -3.333333333333333e-01
 1.666666666666667e-01 -1.666666666666665e-01 -3.333333333333333e-01
 1.666666666666667e-01 -1.666666666666665e-01 -3.333333333333333e-01
 1.666666666666667e-01 -1.666666666666665e-01 -3.333333333333333e-01
 1.666666666666667e-01 -1.666666666666665e-01 -3.333333333333333e-01
 1.666666666666667e-01 -1.666666666666665e-01 -3.333333333333333e-01
 1.666666666666667e-01 -1.666666666666665e-01 -3.333333333333333e-01
 1.666666666666667e-01 -1.666666666666665e-01 -3.333333333333333e-01
 1.666666666666667e-01 -1.666666666666665e-01 -3.333333333333333e-01
 1.666666666666667e-01 -1.666666666666665e-01 -3.333333333333333e-01
 1.666666666666667e-01 -1.666666666666665e-01 -3.333333333333333e-01
-1.666666666666667e-01  1.666666666666665e-01  3.333333333333333e-01
 1.666666666666667e-01 -1.666666666666665e-01 -3.333333333333333e-01
-1.666666666666667e-01  1.666666666666665e-01  3.333333333333333e-01
-1.666666666666667e-01  1.666666666666665e-01  3.333333333333333e-01
-1.666666666666667e-01  1.666666666666665e-01  3.333333333333333e-01
-1.666666666666667e-01  1.666666666666665e-01  3.333333333333333e-01
-1.666666666666667e-01  1.666666666666665e-01  3.333333333333333e-01
-1.666666666666667e-01  1.666666666666665e-01  3.333333333333333e-01
-1.666666666666667e-01  1.666666666666665e-01  3.333333333333333e-01
-1.666666666666667e-01  1.666666666666665e-01  3.333333333333333e-01
-1.666666666666667e-01  1.666666666666665e-01  3.333333333333333e-01
-1.666666666666667e-01  1.666666666666665e-01  3.333333333333333e-01
-1.666666666666667e-01  1.666666666666665e-01  3.333333333333333e-01
-1.666666666666667e-01  1.666666666666665e-01  3.333333333333333e-01
-1.666666666666667e-01  1.666666666666665e-01  3.333333333333333e-01
-1.666666666666667e-01  1.666666666666665e-01  3.333333333333333e-01
-1.666666666666667e-01  1.666666666666665e-01  3.333333333333333e-01
-1.666666666666667e-01  1.666666666666665e-01  3.333333333333333e-01
-1.666666666666667e-01  1.666666666666665e-01  3.333333333333333e-01
-1.666666666666667e-01  1.666666666666665e-01  3.333333333333333e-01
-1.666666666666667e-01  1.666666666666665e-01  3.333333333333333e-01
-1.666666666666667e-01  1.666666666666665e-01  3.333333333333333e-01
-1.666666666666667e-01  1.666666666666665e-01  3.333333333333333e-01
-1.666666666666667e-01  1.666666666666665e-01  3.333333333333333e-01
-1.666666666666667e-01  1.666666666666665e-01  3.333333333333333e-01
-1.666666666666667e-01  1.666666666666665e-01  3.333333333333333e-01
-1.666666666666667e-01  1.666666666666665e-01  3.333333333333333e-01
-1.666666666666667e-01  1.666666666666665e-01  3.333333333333333e-01
-1.666666666666667e-01  1.666666666666665e-01  3.333333333333333e-01
-1.666666666666667e-01  1.666666666666665e-01  3.333333333333333e-01
-1.666666666666667e-01  1.666666666666665e-01  3.333333333333333e-01
-1.666666666666667e-01  1.666666666666665e-01  3.333333333333333e-01
-1.666666666666667e-01  1.666666666666665e-01  3.333333333333333e-01
-1.666666666666667e-01  1.666666666666665e-01  3.333333333333333e-01
-1.666666666666667e-01  1.666666666666665e-01  3.333333333333333e-01
-1.666666666666667e-01  1.666666666666665e-01  3.333333333333333e-01
-1.666666666666667e-01  1.666666666666665e-01  3.333333333333333e-01
-1.666666666666667e-01  1.666666666666665e-01  3.333333333333333e-01
-1.666666666666667e-01  1.666666666666665e-01  3.333333333333333e-01
-1.666666666666667e-01  1.666666666666665e-01  3.333333333333333e-01
-1.666666666666667e-01  1.666666666666665e-01  3.333333333333333e-01
-1.666666666666667e-01  1.666666666666665e-01  3.333333333333333e-01
-1.666666666666667e-01  1.666666666666665e-01  3.333333333333333e-01
-1.666666666666667e-01  1.666666666666665e-01  3.333333333333333e-01
-1.666666666666667e-01  1.666666666666665e-01  3.333333333333333e-01
-1.666666666666667e-01  1.666666666666665e-01  3.333333333333333e-01
-1.666666666666667e-01  1.666666666666665e-01  3.333333333333333e-01
-1.666666666666667e-01  1.666666666666665e-01  3.333333333333333e-01
-1.666666666666667e-01  1.666666666666665e-01  3.333333333333333e-01
-1.666666666666667e-01  1.666666666666665e-01  3.333333333333333e-01
-1.666666666666667e-01  1.666666666666665e-01  3.333333333333333e-01
-1.666666666666667e-01  1.666666666666665e-01  3.333333333333333e-01
-1.666666666666667e-01  1.666666666666665e-01  3.333333333333333e-01
-1.666666666666667e-01  1.666666666666665e-01  3.333333333333333e-01
-1.666666666666667e-01  1.666666666666665e-01  3.333333333333333e-01
-1.666666666666667e-01  1.666666666666665e-01  3.333333333333333e-01
-1.666666666666667e-01  1.666666666666665e-01  3.333333333333333e-01
-1.666666666666667e-01  1.666666666666665e-01  3.333333333333333e-01
-1.666666666666667e-01  1.666666666666665e-01  3.333333333333333e-01
-1.666666666666667e-01  1.666666666666665e-01  3.333333333333333e-01
-1.666666666666667e-01  1.666666666666665e-01  3.333333333333333e-01
-1.666666666666667e-01  1.666666666666665e-01  3.333333333333333e-01
-1.666666666666667e-01  1.666666666666665e-01  3.333333333333333e-01
-1.666666666666667e-01  1.666666666666665e-01  3.333333333333333e-01
-1.666666666666667e-01  1.666666666666665e-01  3.333333333333333e-01
-1.666666666666667e-01  1.666666666666665e-01  3.333333333333333e-01
-1.666666666666667e-01  1.666666666666665e-01  3.333333333333333e-01
-1.666666666666667e-01  1.666666666666665e-01  3.333333333333333e-01
-1.666666666666667e-01  1.666666666666665e-01  3.333333333333333e-01
-1.666666666666667e-01  1.666666666666665e-01  3.333333333333333e-01
-1.666666666666667e-01  1.666666666666665e-01  3.333333333333333e-01
-1.666666666666667e-01  1.666666666666665e-01  3.333333333333333e-01
-1.666666666666667e-01  1.666666666666665e-01  3.333333333333333e-01
-1.666666666666667e-01  1.666666666666665e-01  3.333333333333333e-01
-1.666666666666667e-01  1.666666666666665e-01  3.333333333333333e-01
-1.666666666666667e-01  1.666666666666665e-01  3.333333333333333e-01
-1.666666666666667e-01  1.666666666666665e-01  3.333333333333333e-01
-1.666666666666667e-01  1.666666666666665e-01  3.333333333333333e-01
-1.666666666666667e-01  1.666666666666665e-01  3.333333333333333e-01
-1.666666666666667e-01  1.666666666666665e-01  3.333333333333333e-01
-1.666666666666667e-01  1.666666666666665e-01  3.333333333333333e-01
-1.666666666666667e-01  1.666666666666665e-01  3.333333333333333e-01
-1.666666666666667e-01  1.666666666666665e-01  3.333333333333333e-01
-1.666666666666667e-01  1.666666666666665e-01  3.333333333333333e-01
-1.666666666666667e-01  1.666666666666665e-01  3.333333333333333e-01
-1.666666666666667e-01  1.666666666666665e-01  3.333333333333333e-01
-1.666666666666667e-01  1.666666666666665e-01  3.333333333333333e-01
-1.666666666666667e-01  1.666666666666665e-01  3.333333333333333e-01
-1.666666666666667e-01  1.666666666666665e-01  3.333333333333333e-01
-1.666666666666667e-01  1.666666666666665e-01  3.333333333333333e-01
-1.666666666666667e-01  1.666666666666665e-01  3.333333333333333e-01
-1.666666666666667e-01  1.666666666666665e-01  3.333333333333333e-01
-1.666666666666667e-01  1.666666666666665e-01  3.333333333333333e-01
-1.666666666666667e-01  1.666666666666665e-01  3.333333333333333e-01
-1.666666666666667e-01  1.666666666666665e-01  3.333333333333333e-01
-1.666666666666667e-01  1.666666666666665e-01  3.333333333333333e-01
-1.666666666666667e-01  1.666666666666665e-01  3.333333333333333e-01
-1.666666666666667e-01  1.666666666666665e-01  3.333333333333333e-01
-1.666666666666667e-01  1.666666666666665e-01  3.333333333333333e-01
-1.666666666666667e-01  1.666666666666665e-01  3.333333333333333e-01
-1.666666666666667e-01  1.666666666666665e-01  3.333333333333333e-01
-1.666666666666667e-01  1.666666666666665e-01  3.333333333333333e-01
-1.666666666666667e-01  1.666666666666665e-01  3.333333333333333e-01
-1.666666666666667e-01  1.666666666666665e-01  3.333333333333333e-01
-1.666666666666667e-01  1.666666666666665e-01  3.333333333333333e-01
-1.666666666666667e-01  1.666666666666665e-01  3.333333333333333e-01
-1.666666666666667e-01  1.666666666666665e-01  3.333333333333333e-01
-1.666666666666667e-01  1.666666666666665e-01  3.333333333333333e-01
-1.666666666666667e-01  1.666666666666665e-01  3.333333333333333e-01
-1.666666666666667e-01  1.666666666666665e-01  3.333333333333333e-01
-1.666666666666667e-01  1.666666666666665e-01  3.333333333333333e-01
-1.666666666666667e-01  1.666666666666665e-01  3.333333333333333e-01
-1.666666666666667e-01  1.666666666666665e-01  3.333333333333333e-01
-1.666666666666667e-01  1.666666666666665e-01  3.333333333333333e-01
-1.666666666666667e-01  1.666666666666665e-01  3.333333333333333e-01
-1.666666666666667e-01  1.666666666666665e-01  3.333333333333333e-01
-1.666666666666667e-01  1.666666666666665e-01  3.333333333333333e-01
-1.666666666666667e-01  1.666666666666665e-01  3.333333333333333e-01
-1.666666666666667e-01  1.666666666666665e-01  3.333333333333333e-01
-1.666666666666667e-01  1.666666666666665e-01  3.333333333333333e-01
-1.666666666666667e-01  1.666666666666665e-01  3.333333333333333e-01
-1.666666666666667e-01  1.666666666666665e-01  3.333333333333333e-01
-1.666666666666667e-01  1.666666666666665e-01  3.333333333333333e-01
-1.666666666666667e-01  1.666666666666665e-01  3.333333333333333e-01
-1.666666666666667e-01  1.666666666666665e-01  3.333333333333333e-01
-1.666666666666667e-01  1.666666666666665e-01  3.333333333333333e-01
-1.666666666666667e-01  1.666666666666665e-01  3.333333333333333e-01
-1.666666666666667e-01  1.666666666666665e-01  3.333333333333333e-01
-1.666666666666667e-01  1.666666666666665e-01  3.333333333333333e-01
-1.666666666666667e-01  1.666666666666665e-01  3.333333333333333e-01
-1.666666666666667e-01  1.666666666666665e-01  3.333333333333333e-01
-1.666666666666667e-01  1.666666666666665e-01  3.333333333333333e-01
-1.666666666666667e-01  1.666666666666665e-01  3.333333333333333e-01
-1.666666666666667e-01  1.666666666666665e-01  3.333333333333333e-01
-1.666666666666667e-01  1.666666666666665e-01  3.333333333333333e-01
-1.666666666666667e-01  1.666666666666665e-01  3.333333333333333e-01
-1.666666666666667e-01  1.666666666666665e-01  3.333333333333333e-01
-1.666666666666667e-01  1.666666666666665e-01  3.333333333333333e-01
-1.666666666666667e-01  1.666666666666665e-01  3.333333333333333e-01
-1.666666666666667e-01  1.666666666666665e-01  3.333333333333333e-01
-1.666666666666667e-01  1.666666666666665e-01  3.333333333333333e-01
-1.666666666666667e-01  1.666666666666665e-01  3.333333333333333e-01
-1.666666666666667e-01  1.666666666666665e-01  3.333333333333333e-01
-1.666666666666667e-01  1.666666666666665e-01  3.333333333333333e-01
-1.666666666666667e-01  1.666666666666665e-01  3.333333333333333e-01
-1.666666666666667e-01  1.666666666666665e-01  3.333333333333333e-01
-1.666666666666667e-01  1.666666666666665e-01  3.333333333333333e-01
-1.666666666666667e-01  1.666666666666665e-01  3.333333333333333e-01
-1.666666666666667e-01  1.666666666666665e-01  3.333333333333333e-01
-1.666666666666667e-01  1.666666666666665e-01  3.333333333333333e-01
-1.666666666666667e-01  1.666666666666665e-01  3.333333333333333e-01
-1.666666666666667e-01  1.666666666666665e-01  3.333333333333333e-01
-1.666666666666667e-01  1.666666666666665e-01  3.333333333333333e-01
-1.666666666666667e-01  1.666666666666665e-01  3.333333333333333e-01
-1.666666666666667e-01  1.666666666666665e-01  3.333333333333333e-01
-1.666666666666667e-01  1.666666666666665e-01  3.333333333333333e-01
-1.666666666666667e-01  1.666666666666665e-01  3.333333333333333e-01
-1.666666666666667e-01  1.666666666666665e-01  3.333333333333333e-01
-1.666666666666667e-01  1.666666666666665e-01  3.333333333333333e-01
-1.666666666666667e-01  1.666666666666665e-01  3.333333333333333e-01
-1.666666666666667e-01  1.666666666666665e-01  3.333333333333333e-01
-1.666666666666667e-01  1.666666666666665e-01  3.333333333333333e-01
-1.666666666666667e-01  1.666666666666665e-01  3.333333333333333e-01
-1.666666666666667e-01  1.666666666666665e-01  3.333333333333333e-01
-1.666666666666667e-01  1.666666666666665e-01  3.333333333333333e-01
-1.666666666666667e-01  1.666666666666665e-01  3.333333333333333e-01
-1.666666666666667e-01  1.666666666666665e-01  3.333333333333333e-01
-1.666666666666667e-01  1.666666666666665e-01  3.333333333333333e-01
-1.666666666666667e-01  1.666666666666665e-01  3.333333333333333e-01
-1.666666666666667e-01  1.666666666666665e-01  3.333333333333333e-01
-1.666666666666667e-01  1.666666666666665e-01  3.333333333333333e-01
-1.666666666666667e-01  1.666666666666665e-01  3.333333333333333e-01
-1.666666666666667e-01  1.666666666666665e-01  3.333333333333333e-01
-1.666666666666667e-01  1.666666666666665e-01  3.333333333333333e-01
-1.666666666666667e-01  1.666666666666665e-01  3.333333333333333e-01
-1.666666666666667e-01  1.666666666666665e-01  3.333333333333333e-01
-1.666666666666667e-01  1.666666666666665e-01  3.333333333333333e-01
-1.666666666666667e-01  1.666666666666665e-01  3.333333333333333e-01
-1.666666666666667e-01  1.666666666666665e-01  3.333333333333333e-01
-1.666666666666667e-01  1.666666666666665e-01  3.333333333333333e-01
-1.666666666666667e-01  1.666666666666665e-01  3.333333333333333e-01
-1.666666666666667e-01  1.666666666666665e-01  3.333333333333333e-01
-1.666666666666667e-01  1.666666666666665e-01  3.333333333333333e-01
-1.666666666666667e-01  1.666666666666665e-01  3.333333333333333e-01
-1.666666666666667e-01  1.666666666666665e-01  3.333333333333333e-01
-1.666666666666667e-01  1.666666666666665e-01  3.333333333333333e-01
-1.666666666666667e-01  1.666666666666665e-01  3.333333333333333e-01
-1.666666666666667e-01  1.666666666666665e-01  3.333333333333333e-01
-1.666666666666667e-01  1.666666666666665e-01  3.333333333333333e-01
-1.666666666666667e-01  1.666666666666665e-01  3.333333333333333e-01
-1.666666666666667e-01  1.666666666666665e-01  3.333333333333333e-01
-1.666666666666667e-01  1.666666666666665e-01  3.333333333333333e-01
-1.666666666666667e-01  1.666666666666665e-01  3.333333333333333e-01
-1.666666666666667e-01  1.666666666666665e-01  3.333333333333333e-01
-1.666666666666667e-01  1.666666666666665e-01  3.333333333333333e-01
-1.666666666666667e-01  1.666666666666665e-01  3.333333333333333e-01
-1.666666666666667e-01  1.666666666666665e-01  3.333333333333333e-01
-1.666666666666667e-01  1.666666666666665e-01  3.333333333333333e-01
-1.666666666666667e-01  1.666666666666665e-01  3.333333333333333e-01
-1.666666666666667e-01  1.666666666666665e-01  3.333333333333333e-01
-1.666666666666667e-01  1.666666666666665e-01  3.333333333333333e-01
-1.666666666666667e-01  1.666666666666665e-01  3.333333333333333e-01
-1.666666666666667e-01  1.666666666666665e-01  3.333333333333333e-01
-1.666666666666667e-01  1.666666666666665e-01  3.333333333333333e-01
-1.666666666666667e-01  1.666666666666665e-01  3.333333333333333e-01
-1.666666666666667e-01  1.666666666666665e-01  3.333333333333333e-01
-1.666666666666667e-01  1.666666666666665e-01  3.333333333333333e-01
-1.666666666666667e-01  1.666666666666665e-01  3.333333333333333e-01
-1.666666666666667e-01  1.666666666666665e-01  3.333333333333333e-01
-1.666666666666667e-01  1.666666666666665e-01  3.333333333333333e-01
-1.666666666666667e-01  1.666666666666665e-01  3.333333333333333e-01
-1.666666666666667e-01  1.666666666666665e-01  3.333333333333333e-01
-1.666666666666667e-01  1.666666666666665e-01  3.333333333333333e-01
-1.666666666666667e-01  1.666666666666665e-01  3.333333333333333e-01
-1.666666666666667e-01  1.666666666666665e-01  3.333333333333333e-01
-1.666666666666667e-01  1.666666666666665e-01  3.333333333333333e-01
-1.666666666666667e-01  1.666666666666665e-01  3.333333333333333e-01
-1.666666666666667e-01  1.666666666666665e-01  3.333333333333333e-01
-1.666666666666667e-01  1.666666666666665e-01  3.333333333333333e-01
-1.666666666666667e-01  1.666666666666665e-01  3.333333333333333e-01
-1.666666666666667e-01  1.666666666666665e-01  3.333333333333333e-01
-1.666666666666667e-01  1.666666666666665e-01  3.333333333333333e-01
-1.666666666666667e-01  1.666666666666665e-01  3.333333333333333e-01
-1.666666666666667e-01  1.666666666666665e-01  3.333333333333333e-01
-1.666666666666667e-01  1.666666666666665e-01  3.333333333333333e-01
-1.666666666666667e-01  1.666666666666665e-01  3.333333333333333e-01
-1.666666666666667e-01  1.666666666666665e-01  3.333333333333333e-01
-1.666666666666667e-01  1.666666666666665e-01  3.333333333333333e-01
-1.666666666666667e-01  1.666666666666665e-01  3.333333333333333e-01
-1.666666666666667e-01  1.666666666666665e-01  3.333333333333333e-01
-1.666666666666667e-01  1.666666666666665e-01  3.333333333333333e-01
-1.666666666666667e-01  1.666666666666665e-01  3.333333333333333e-01
-1.666666666666667e-01  1.666666666666665e-01  3.333333333333333e-01
-1.666666666666667e-01  1.666666666666665e-01  3.333333333333333e-01
-1.666666666666667e-01  1.666666666666665e-01  3.333333333333333e-01
-1.666666666666667e-01  1.666666666666665e-01  3.333333333333333e-01
-1.666666666666667e-01  1.666666666666665e-01  3.333333333333333e-01
 1.666666666666667e-01 -1.666666666666665e-01 -3.333333333333333e-01
-1.666666666666667e-01  1.666666666666665e-01  3.333333333333333e-01
-1.666666666666667e-01  1.666666666666665e-01  3.333333333333333e-01
-1.666666666666667e-01  1.666666666666665e-01  3.333333333333333e-01
-1.666666666666667e-01  1.666666666666665e-01  3.333333333333333e-01
-1.666666666666667e-01  1.666666666666665e-01  3.333333333333333e-01
-1.666666666666667e-01  1.666666666666665e-01  3.333333333333333e-01
-1.666666666666667e-01  1.666666666666665e-01  3.333333333333333e-01
-1.666666666666667e-01  1.666666666666665e-01  3.333333333333333e-01
-1.666666666666667e-01  1.666666666666665e-01  3.333333333333333e-01
-1.666666666666667e-01  1.666666666666665e-01  3.333333333333333e-01
-1.666666666666667e-01  1.666666666666665e-01  3.333333333333333e-01
-1.666666666666667e-01  1.666666666666665e-01  3.333333333333333e-01
-1.666666666666667e-01  1.666666666666665e-01  3.333333333333333e-01
-1.666666666666667e-01  1.666666666666665e-01  3.333333333333333e-01
-1.666666666666667e-01  1.666666666666665e-01  3.333333333333333e-01
-1.666666666666667e-01  1.666666666666665e-01  3.333333333333333e-01
-1.666666666666667e-01  1.666666666666665e-01  3.333333333333333e-01
-1.666666666666667e-01  1.666666666666665e-01  3.333333333333333e-01
-1.666666666666667e-01  1.666666666666665e-01  3.333333333333333e-01
-1.666666666666667e-01  1.666666666666665e-01  3.333333333333333e-01
-1.666666666666667e-01  1.666666666666665e-01  3.333333333333333e-01
-1.666666666666667e-01  1.666666666666665e-01  3.333333333333333e-01
-1.666666666666667e-01  1.666666666666665e-01  3.333333333333333e-01
-1.666666666666667e-01  1.666666666666665e-01  3.333333333333333e-01
-1.666666666666667e-01  1.666666666666665e-01  3.333333333333333e-01
-1.666666666666667e-01  1.666666666666665e-01  3.333333333333333e-01
-1.666666666666667e-01  1.666666666666665e-01  3.333333333333333e-01
-1.666666666666667e-01  1.666666666666665e-01  3.333333333333333e-01
-1.666666666666667e-01  1.666666666666665e-01  3.333333333333333e-01
-1.666666666666667e-01  1.666666666666665e-01  3.333333333333333e-01
-1.666666666666667e-01  1.666666666666665e-01  3.333333333333333e-01
-1.666666666666667e-01  1.666666666666665e-01  3.333333333333333e-01
-1.666666666666667e-01  1.666666666666665e-01  3.333333333333333e-01
-1.666666666666667e-01  1.666666666666665e-01  3.333333333333333e-01
-1.666666666666667e-01  1.666666666666665e-01  3.333333333333333e-01
-1.666666666666667e-01  1.666666666666665e-01  3.333333333333333e-01
-1.666666666666667e-01  1.666666666666665e-01  3.333333333333333e-01
-1.666666666666667e-01  1.666666666666665e-01  3.333333333333333e-01
-1.666666666666667e-01  1.666666666666665e-01  3.333333333333333e-01
-1.666666666666667e-01  1.666666666666665e-01  3.333333333333333e-01
-1.666666666666667e-01  1.666666666666665e-01  3.333333333333333e-01
-1.666666666666667e-01  1.666666666666665e-01  3.333333333333333e-01
-1.666666666666667e-01  1.666666666666665e-01  3.333333333333333e-01
-1.666666666666667e-01  1.666666666666665e-01  3.333333333333333e-01
-1.666666666666667e-01  1.666666666666665e-01  3.333333333333333e-01
-1.666666666666667e-01  1.666666666666665e-01  3.333333333333333e-01
-1.666666666666667e-01  1.666666666666665e-01  3.333333333333333e-01
-1.666666666666667e-01  1.666666666666665e-01  3.333333333333333e-01
-1.666666666666667e-01  1.666666666666665e-01  3.333333333333333e-01
-1.666666666666667e-01  1.666666666666665e-01  3.333333333333333e-01
-1.666666666666667e-01  1.666666666666665e-01  3.333333333333333e-01
-1.666666666666667e-01  1.666666666666665e-01  3.333333333333333e-01
-1.666666666666667e-01  1.666666666666665e-01  3.333333333333333e-01
-1.666666666666667e-01  1.666666666666665e-01  3.333333333333333e-01
-1.666666666666667e-01  1.666666666666665e-01  3.333333333333333e-01
-1.666666666666667e-01  1.666666666666665e-01  3.333333333333333e-01
-1.666666666666667e-01  1.666666666666665e-01  3.333333333333333e-01
-1.666666666666667e-01  1.666666666666665e-01  3.333333333333333e-01
-1.666666666666667e-01  1.666666666666665e-01  3.333333333333333e-01
-1.666666666666667e-01  1.666666666666665e-01  3.333333333333333e-01
-1.666666666666667e-01  1.666666666666665e-01  3.333333333333333e-01
-1.666666666666667e-01  1.666666666666665e-01  3.333333333333333e-01
-1.666666666666667e-01  1.666666666666665e-01  3.333333333333333e-01
-1.666666666666667e-01  1.666666666666665e-01  3.333333333333333e-01
-1.666666666666667e-01  1.666666666666665e-01  3.333333333333333e-01
-1.666666666666667e-01  1.666666666666665e-01  3.333333333333333e-01
-1.666666666666667e-01  1.666666666666665e-01  3.333333333333333e-01
-1.666666666666667e-01  1.666666666666665e-01  3.333333333333333e-01
-1.666666666666667e-01  1.666666666666665e-01  3.333333333333333e-01
-1.666666666666667e-01  1.666666666666665e-01  3.333333333333333e-01
-1.666666666666667e-01  1.666666666666665e-01  3.333333333333333e-01
-1.666666666666667e-01  1.666666666666665e-01  3.333333333333333e-01
-1.666666666666667e-01  1.666666666666665e-01  3.333333333333333e-01
-1.666666666666667e-01  1.666666666666665e-01  3.333333333333333e-01
-1.666666666666667e-01  1.666666666666665e-01  3.333333333333333e-01
-1.666666666666667e-01  1.666666666666665e-01  3.333333333333333e-01
-1.666666666666667e-01  1.666666666666665e-01  3.333333333333333e-01
-1.666666666666667e-01  1.666666666666665e-01  3.333333333333333e-01
-1.666666666666667e-01  1.666666666666665e-01  3.333333333333333e-01
-1.666666666666667e-01  1.666666666666665e-01  3.333333333333333e-01
-1.666666666666667e-01  1.666666666666665e-01  3.333333333333333e-01
-1.666666666666667e-01  1.666666666666665e-01  3.333333333333333e-01
-1.666666666666667e-01  1.666666666666665e-01  3.333333333333333e-01
-1.666666666666667e-01  1.666666666666665e-01  3.333333333333333e-01
-1.666666666666667e-01  1.666666666666665e-01  3.333333333333333e-01
-1.666666666666667e-01  1.666666666666665e-01  3.333333333333333e-01
-1.666666666666667e-01  1.666666666666665e-01  3.333333333333333e-01
-1.666666666666667e-01  1.666666666666665e-01  3.333333333333333e-01
-1.666666666666667e-01  1.666666666666665e-01  3.333333333333333e-01
-1.666666666666667e-01  1.666666666666665e-01  3.333333333333333e-01
-1.666666666666667e-01  1.666666666666665e-01  3.333333333333333e-01
-1.666666666666667e-01  1.666666666666665e-01  3.333333333333333e-01
-1.666666666666667e-01  1.666666666666665e-01  3.333333333333333e-01
-1.666666666666667e-01  1.666666666666665e-01  3.333333333333333e-01
-1.666666666666667e-01  1.666666666666665e-01  3.333333333333333e-01
-1.666666666666667e-01  1.666666666666665e-01  3.333333333333333e-01
-1.666666666666667e-01  1.666666666666665e-01  3.333333333333333e-01
-1.666666666666667e-01  1.666666666666665e-01  3.333333333333333e-01
-1.666666666666667e-01  1.666666666666665e-01  3.333333333333333e-01
-1.666666666666667e-01  1.666666666666665e-01  3.333333333333333e-01
-1.666666666666667e-01  1.666666666666665e-01  3.333333333333333e-01
-1.666666666666667e-01  1.666666666666665e-01  3.333333333333333e-01
-1.666666666666667e-01  1.666666666666665e-01  3.333333333333333e-01
-1.666666666666667e-01  1.666666666666665e-01  3.333333333333333e-01
-1.666666666666667e-01  1.666666666666665e-01  3.333333333333333e-01
-1.666666666666667e-01  1.666666666666665e-01  3.333333333333333e-01
-1.666666666666667e-01  1.666666666666665e-01  3.333333333333333e-01
-1.666666666666667e-01  1.666666666666665e-01  3.333333333333333e-01
-1.666666666666667e-01  1.666666666666665e-01  3.333333333333333e-01
-1.666666666666667e-01  1.666666666666665e-01  3.333333333333333e-01
-1.666666666666667e-01  1.666666666666665e-01  3.333333333333333e-01
-1.666666666666667e-01  1.666666666666665e-01  3.333333333333333e-01
-1.666666666666667e-01  1.666666666666665e-01  3.333333333333333e-01
-1.666666666666667e-01  1.666666666666665e-01  3.333333333333333e-01
-1.666666666666667e-01  1.666666666666665e-01  3.333333333333333e-01
-1.666666666666667e-01  1.666666666666665e-01  3.333333333333333e-01
-1.666666666666667e-01  1.666666666666665e-01  3.333333333333333e-01
-1.666666666666667e-01  1.666666666666665e-01  3.333333333333333e-01
-1.666666666666667e-01  1.666666666666665e-01  3.333333333333333e-01
-1.666666666666667e-01  1.666666666666665e-01  3.333333333333333e-01
-1.666666666666667e-01  1.666666666666665e-01  3.333333333333333e-01
-1.666666666666667e-01  1.666666666666665e-01  3.333333333333333e-01
-1.666666666666667e-01  1.666666666666665e-01  3.333333333333333e-01
-1.666666666666667e-01  1.666666666666665e-01  3.333333333333333e-01
-1.666666666666667e-01  1.666666666666665e-01  3.333333333333333e-01
-1.666666666666667e-01  1.666666666666665e-01  3.333333333333333e-01
-1.666666666666667e-01  1.666666666666665e-01  3.333333333333333e-01
-1.666666666666667e-01  1.666666666666665e-01  3.333333333333333e-01
-1.666666666666667e-01  1.666666666666665e-01  3.333333333333333e-01
-1.666666666666667e-01  1.666666666666665e-01  3.333333333333333e-01
-1.666666666666667e-01  1.666666666666665e-01  3.333333333333333e-01
-1.666666666666667e-01  1.666666666666665e-01  3.333333333333333e-01
-1.666666666666667e-01  1.666666666666665e-01  3.333333333333333e-01
-1.666666666666667e-01  1.666666666666665e-01  3.333333333333333e-01
-1.666666666666667e-01  1.666666666666665e-01  3.333333333333333e-01
-1.666666666666667e-01  1.666666666666665e-01  3.333333333333333e-01
-1.666666666666667e-01  1.666666666666665e-01  3.333333333333333e-01
-1.666666666666667e-01  1.666666666666665e-01  3.333333333333333e-01
-1.666666666666667e-01  1.666666666666665e-01  3.333333333333333e-01
-1.666666666666667e-01  1.666666666666665e-01  3.333333333333333e-01
-1.666666666666667e-01  1.666666666666665e-01  3.333333333333333e-01
-1.666666666666667e-01  1.666666666666665e-01  3.333333333333333e-01
-1.666666666666667e-01  1.666666666666665e-01  3.333333333333333e-01
-1.666666666666667e-01  1.666666666666665e-01  3.333333333333333e-01
-1.666666666666667e-01  1.666666666666665e-01  3.333333333333333e-01
-1.666666666666667e-01  1.666666666666665e-01  3.333333333333333e-01
-1.666666666666667e-01  1.666666666666665e-01  3.333333333333333e-01
-1.666666666666667e-01  1.666666666666665e-01  3.333333333333333e-01
-1.666666666666667e-01  1.666666666666665e-01  3.333333333333333e-01
-1.666666666666667e-01  1.666666666666665e-01  3.333333333333333e-01
-1.666666666666667e-01  1.666666666666665e-01  3.333333333333333e-01
-1.666666666666667e-01  1.666666666666665e-01  3.333333333333333e-01
-1.666666666666667e-01  1.666666666666665e-01  3.333333333333333e-01
-1.666666666666667e-01  1.666666666666665e-01  3.333333333333333e-01
-1.666666666666667e-01  1.666666666666665e-01  3.333333333333333e-01
-1.666666666666667e-01  1.666666666666665e-01  3.333333333333333e-01
-1.666666666666667e-01  1.666666666666665e-01  3.333333333333333e-01
-1.666666666666667e-01  1.666666666666665e-01  3.333333333333333e-01
-1.666666666666667e-01  1.666666666666665e-01  3.333333333333333e-01
-1.666666666666667e-01  1.666666666666665e-01  3.333333333333333e-01
-1.666666666666667e-01  1.666666666666665e-01  3.333333333333333e-01
-1.666666666666667e-01  1.666666666666665e-01  3.333333333333333e-01
-1.666666666666667e-01  1.666666666666665e-01  3.333333333333333e-01
-1.666666666666667e-01  1.666666666666665e-01  3.333333333333333e-01
-1.666666666666667e-01  1.666666666666665e-01  3.333333333333333e-01
-1.666666666666667e-01  1.666666666666665e-01  3.333333333333333e-01
-1.666666666666667e-01  1.666666666666665e-01  3.333333333333333e-01
-1.666666666666667e-01  1.666666666666665e-01  3.333333333333333e-01
-1.666666666666667e-01  1.666666666666665e-01  3.333333333333333e-01
-1.666666666666667e-01  1.666666666666665e-01  3.333333333333333e-01
-1.666666666666667e-01  1.666666666666665e-01  3.333333333333333e-01
-1.666666666666667e-01  1.666666666666665e-01  3.333333333333333e-01
-1.666666666666667e-01  1.666666666666665e-01  3.333333333333333e-01
-1.666666666666667e-01  1.666666666666665e-01  3.333333333333333e-01
-1.666666666666667e-01  1.666666666666665e-01  3.333333333333333e-01
-1.666666666666667e-01  1.666666666666665e-01  3.333333333333333e-01
-1.666666666666667e-01  1.666666666666665e-01  3.333333333333333e-01
-1.666666666666667e-01  1.666666666666665e-01  3.333333333333333e-01
-1.666666666666667e-01  1.666666666666665e-01  3.333333333333333e-01
-1.666666666666667e-01  1.666666666666665e-01  3.333333333333333e-01
-1.666666666666667e-01  1.666666666666665e-01  3.333333333333333e-01
-1.666666666666667e-01  1.666666666666665e-01  3.333333333333333e-01
-1.666666666666667e-01  1.666666666666665e-01  3.333333333333333e-01
-1.666666666666667e-01  1.666666666666665e-01  3.333333333333333e-01
-1.666666666666667e-01  1.666666666666665e-01  3.333333333333333e-01
-1.666666666666667e-01  1.666666666666665e-01  3.333333333333333e-01
-1.666666666666667e-01  1.666666666666665e-01  3.333333333333333e-01
-1.666666666666667e-01  1.666666666666665e-01  3.333333333333333e-01
-1.666666666666667e-01  1.666666666666665e-01  3.333333333333333e-01
-1.666666666666667e-01  1.666666666666665e-01  3.333333333333333e-01
-1.666666666666667e-01  1.666666666666665e-01  3.333333333333333e-01
-1.666666666666667e-01  1.666666666666665e-01  3.333333333333333e-01
-1.666666666666667e-01  1.666666666666665e-01  3.333333333333333e-01
-1.666666666666667e-01  1.666666666666665e-01  3.333333333333333e-01
-1.666666666666667e-01  1.666666666666665e-01  3.333333333333333e-01
-1.666666666666667e-01  1.666666666666665e-01  3.333333333333333e-01
-1.666666666666667e-01  1.666666666666665e-01  3.333333333333333e-01
-1.666666666666667e-01  1.666666666666665e-01  3.333333333333333e-01
-1.666666666666667e-01  1.666666666666665e-01  3.333333333333333e-01
-1.666666666666667e-01  1.666666666666665e-01  3.333333333333333e-01
-1.666666666666667e-01  1.666666666666665e-01  3.333333333333333e-01
-1.666666666666667e-01  1.666666666666665e-01  3.333333333333333e-01
-1.666666666666667e-01  1.666666666666665e-01  3.333333333333333e-01
-1.666666666666667e-01  1.666666666666665e-01  3.333333333333333e-01
-1.666666666666667e-01  1.666666666666665e-01  3.333333333333333e-01
-1.666666666666667e-01  1.666666666666665e-01  3.333333333333333e-01
-1.666666666666667e-01  1.666666666666665e-01  3.333333333333333e-01
-1.666666666666667e-01  1.666666666666665e-01  3.333333333333333e-01
-1.666666666666667e-01  1.666666666666665e-01  3.333333333333333e-01
-1.666666666666667e-01  1.666666666666665e-01  3.333333333333333e-01
-1.666666666666667e-01  1.666666666666665e-01  3.333333333333333e-01
-1.666666666666667e-01  1.666666666666665e-01  3.333333333333333e-01
-1.666666666666667e-01  1.666666666666665e-01  3.333333333333333e-01
-1.666666666666667e-01  1.666666666666665e-01  3.333333333333333e-01
-1.666666666666667e-01  1.666666666666665e-01  3.333333333333333e-01
-1.666666666666667e-01  1.666666666666665e-01  3.333333333333333e-01
-1.666666666666667e-01  1.666666666666665e-01  3.333333333333333e-01
-1.666666666666667e-01  1.666666666666665e-01  3.333333333333333e-01
-1.666666666666667e-01  1.666666666666665e-01  3.333333333333333e-01
-1.666666666666667e-01  1.666666666666665e-01  3.333333333333333e-01
-1.666666666666667e-01  1.666666666666665e-01  3.333333333333333e-01
-1.666666666666667e-01  1.666666666666665e-01  3.333333333333333e-01
-1.666666666666667e-01  1.666666666666665e-01  3.333333333333333e-01
-1.666666666666667e-01  1.666666666666665e-01  3.333333333333333e-01
-1.666666666666667e-01  1.666666666666665e-01  3.333333333333333e-01
-1.666666666666667e-01  1.666666666666665e-01  3.333333333333333e-01
-1.666666666666667e-01  1.666666666666665e-01  3.333333333333333e-01
-1.666666666666667e-01  1.666666666666665e-01  3.333333333333333e-01
-1.666666666666667e-01  1.666666666666665e-01  3.333333333333333e-01
-1.666666666666667e-01  1.666666666666665e-01  3.333333333333333e-01
-1.666666666666667e-01  1.666666666666665e-01  3.333333333333333e-01
-1.666666666666667e-01  1.666666666666665e-01  3.333333333333333e-01
-1.666666666666667e-01  1.666666666666665e-01  3.333333333333333e-01
-1.666666666666667e-01  1.666666666666665e-01  3.333333333333333e-01
-1.666666666666667e-01  1.666666666666665e-01  3.333333333333333e-01
-1.666666666666667e-01  1.666666666666665e-01  3.333333333333333e-01
-1.666666666666667e-01  1.666666666666665e-01  3.333333333333333e-01
-1.666666666666667e-01  1.666666666666665e-01  3.333333333333333e-01
-1.666666666666667e-01  1.666666666666665e-01  3.333333333333333e-01
-1.666666666666667e-01  1.666666666666665e-01  3.333333333333333e-01
-1.666666666666667e-01  1.666666666666665e-01  3.333333333333333e-01
-1.666666666666667e-01  1.666666666666665e-01  3.333333333333333e-01
-1.666666666666667e-01  1.666666666666665e-01  3.333333333333333e-01
-1.666666666666667e-01  1.666666666666665e-01  3.333333333333333e-01
-1.666666666666667e-01  1.666666666666665e-01  3.333333333333333e-01
-1.666666666666667e-01  1.666666666666665e-01  3.333333333333333e-01
-1.666666666666667e-01  1.666666666666665e-01  3.333333333333333e-01
-1.666666666666667e-01  1.666666666666665e-01  3.333333333333333e-01
-1.666666666666667e-01  1.666666666666665e-01  3.333333333333333e-01
-1.666666666666667e-01  1.666666666666665e-01  3.333333333333333e-01
-1.666666666666667e-01  1.666666666666665e-01  3.333333333333333e-01
-1.666666666666667e-01  1.666666666666665e-01  3.333333333333333e-01
-1.666666666666667e-01  1.666666666666665e-01  3.333333333333333e-01
-1.666666666666667e-01  1.666666666666665e-01  3.333333333333333e-01
-1.666666666666667e-01  1.666666666666665e-01  3.333333333333333e-01
-1.666666666666667e-01  1.666666666666665e-01  3.333333333333333e-01
-1.666666666666667e-01  1.666666666666665e-01  3.333333333333333e-01
-1.666666666666667e-01  1.666666666666665e-01  3.333333333333333e-01
-1.666666666666667e-01  1.666666666666665e-01  3.333333333333333e-01
-1.666666666666667e-01  1.666666666666665e-01  3.333333333333333e-01
-1.666666666666667e-01  1.666666666666665e-01  3.333333333333333e-01
-1.666666666666667e-01  1.666666666666665e-01  3.333333333333333e-01
-1.666666666666667e-01  1.666666666666665e-01  3.333333333333333e-01
